User:   c.zeng@d0120
Date:   Sat Apr 15 09:42:12 2023
Arch:   x86_64
Pid:    64095
CWD:    /home/c.zeng/projects/hea-corrosion/hea-mlp/data-curation/bulk-mcmc/dft-jobs/244
Python: 3.8.1
gpaw:   /home/c.zeng/usr/installs/gpaw/source/gpaw-22.8.0/gpaw
_gpaw:  /home/c.zeng/usr/installs/gpaw/source/gpaw-22.8.0/
        _gpaw.cpython-38-x86_64-linux-gnu.so
ase:    /home/c.zeng/.local/lib/python3.8/site-packages/ase-3.22.1-py3.8.egg/ase (version 3.22.1)
numpy:  /shared/centos7/python/3.8.1/lib/python3.8/site-packages/numpy (version 1.17.4)
scipy:  /shared/centos7/python/3.8.1/lib/python3.8/site-packages/scipy (version 1.4.1)
units:  Angstrom and eV
cores: 30
OpenMP: False
OMP_NUM_THREADS: 1

Input parameters:
  convergence: {energy: 0.0001}
  kpts: [2 2 2]
  maxiter: 666
  mode: {ecut: 350.0,
         name: pw}
  occupations: {fixmagmom: False,
                name: fermi-dirac,
                width: 0.1}
  spinpol: True
  xc: PBE

System changes: positions, numbers, cell, pbc, initial_charges, initial_magmoms

Initialize ...

species:
  Cr:
    name: Chromium
    id: 33f258bda2ca9f93018e70263a35547b
    Z: 24.0
    valence: 6
    core: 18
    charge: 0.0
    file: /home/c.zeng/usr/data/gpaw-setups-0.9.20000/Cr.PBE.gz
    compensation charges: {type: gauss,
                           rc: 0.35,
                           lmax: 2}
    cutoffs: {filter: 2.14,
              core: 3.04}
    valence states:
      #              energy  rcut
      - 4s(1.00)    -4.007   1.164
      - 4p(0.00)    -0.989   1.217
      - 3d(5.00)    -2.913   1.111
      -  s          23.205   1.164
      -  p          26.223   1.217
      -  d          24.299   1.111

    # Using partial waves for Cr as LCAO basis

  Al:
    name: Aluminium
    id: 0292cae29f5d6237e50f6abdd43a7bdd
    Z: 13.0
    valence: 3
    core: 10
    charge: 0.0
    file: /home/c.zeng/usr/data/gpaw-setups-0.9.20000/Al.PBE.gz
    compensation charges: {type: gauss,
                           rc: 0.34,
                           lmax: 2}
    cutoffs: {filter: 1.91,
              core: 2.36}
    valence states:
      #              energy  rcut
      - 3s(2.00)    -7.753   1.085
      - 3p(1.00)    -2.712   1.085
      -  s          19.459   1.085
      -  p          24.499   1.085
      -  d           0.000   1.085

[...]

  Ni:
    name: Nickel
    id: 0d9f38a9d6e76a2886f07bb4381f212b
    Z: 28.0
    valence: 16
    core: 12
    charge: 0.0
    file: /home/c.zeng/usr/data/gpaw-setups-0.9.20000/Ni.PBE.gz
    compensation charges: {type: gauss,
                           rc: 0.36,
                           lmax: 2}
    cutoffs: {filter: 2.14,
              core: 1.98}
    valence states:
      #              energy  rcut
      - 4s(2.00)    -5.642   1.164
      - 3p(6.00)   -71.394   1.207
      - 4p(0.00)    -1.226   1.207
      - 3d(8.00)    -8.875   1.138
      -  s          21.570   1.164
      -  d          18.337   1.138

[...]

  Co:
    name: Cobalt
    id: 339d20d5b0b93d2de9531a1bee871d91
    Z: 27.0
    valence: 9
    core: 18
    charge: 0.0
    file: /home/c.zeng/usr/data/gpaw-setups-0.9.20000/Co.PBE.gz
    compensation charges: {type: gauss,
                           rc: 0.32,
                           lmax: 2}
    cutoffs: {filter: 1.87,
              core: 2.55}
    valence states:
      #              energy  rcut
      - 4s(2.00)    -5.469   1.005
      - 4p(0.00)    -1.277   1.058
      - 3d(7.00)    -8.205   1.005
      -  s          21.742   1.005
      -  p          25.934   1.058
      -  d          19.007   1.005

[...]

  Fe:
    name: Iron
    id: 37abbd8d6c3c35915a9b583b742da910
    Z: 26.0
    valence: 8
    core: 18
    charge: 0.0
    file: /home/c.zeng/usr/data/gpaw-setups-0.9.20000/Fe.PBE.gz
    compensation charges: {type: gauss,
                           rc: 0.33,
                           lmax: 2}
    cutoffs: {filter: 2.06,
              core: 2.67}
    valence states:
      #              energy  rcut
      - 4s(2.00)    -5.291   1.164
      - 4p(0.00)    -1.326   1.058
      - 3d(6.00)    -7.505   1.058
      -  s          21.920   1.164
      -  p          25.885   1.058
      -  d          19.706   1.058

    # Using partial waves for Fe as LCAO basis

Reference energy: -3235165.067515  # eV

Spin-polarized calculation.
Magnetic moment: 121.100000

Convergence criteria:
 Maximum [total energy] change in last 3 cyles: 0.0001 eV / electron
 Maximum integral of absolute [dens]ity change: 0.0001 electrons / valence electron
 Maximum integral of absolute [eigenst]ate change: 4e-08 eV^2 / valence electron
 Maximum number of scf [iter]ations: 666
 (Square brackets indicate name in SCF output, whereas a 'c' in
 the SCF output indicates the quantity has converged.)

Symmetries present (total): 1

  ( 1  0  0)
  ( 0  1  0)
  ( 0  0  1)

8 k-points: 2 x 2 x 2 Monkhorst-Pack grid
4 k-points in the irreducible part of the Brillouin zone
       k-points in crystal coordinates                weights
   0:     0.25000000   -0.25000000   -0.25000000          2/8
   1:     0.25000000   -0.25000000    0.25000000          2/8
   2:     0.25000000    0.25000000   -0.25000000          2/8
   3:     0.25000000    0.25000000    0.25000000          2/8

Wave functions: Plane wave expansion
  Cutoff energy: 350.000 eV
  Number of coefficients (min, max): 19084, 19084
  Pulay-stress correction: 0.000000 eV/Ang^3 (de/decut=0.000000)
  Using FFTW library
  ScaLapack parameters: grid=1x1, blocksize=None
  Wavefunction extrapolation:
    Improved wavefunction reuse through dual PAW basis

Occupation numbers: Fermi-Dirac:
  width: 0.1000  # eV

Eigensolver
   Davidson(niter=2)

Densities:
  Coarse grid: 48*48*48 grid
  Fine grid: 96*96*96 grid
  Total Charge: 0.000000

Density mixing:
  Method: difference
  Backend: pulay
  Linear mixing parameter: 0.05
  old densities: 5
  Damping of long wavelength oscillations: 50

Hamiltonian:
  XC and Coulomb potentials evaluated on a 96*96*96 grid
  Using the PBE Exchange-Correlation functional
  External potential:
    NoExternalPotential

XC parameters: PBE with 2 nearest neighbor stencil

Total number of cores used: 30
Parallelization over k-points: 2
Domain decomposition: 5 x 3 x 1

Number of atoms: 108
Number of atomic orbitals: 933
Number of bands in calculation: 624
Number of valence electrons: 912
Bands to converge: occupied

... initialized

Initializing position-dependent things.

Density initialized from atomic densities
Creating initial wave functions:
  624 bands from LCAO basis set

        .--------Al----------------.
       /|           Fe             |
      / |    FeFe     Ni           |
     / Ni       Ni       Al        |
    /   |Fe      CrCo       Fe     |
   /    | NiNi      ACo            |
  /    Co  FeiAlAl    Co Fe  CoAl  |
 *      Fe     AlCoAl   CrFe     Ni|
 |      |FeNi   CrFeFe   AlNiCr   Co
 |      | CoNi   AlCoCoAl CrCrFe   |
 |     Fe  Al CoCo  NiNi Ni  NiNi  |
 |      Cr  Ni CrCrCo CoNiCoAl   Fe|
 |      |CrCo   CoAlAl   CoCrFe   Fe
 |      .-FeCr-----CrCr-Al--CrFe---.
 |     Al  Cr CoNi    Al Co  Ni Cr/
 |    / Co              Ni       Cr
 |   /           Alr      NiFe  /
 |  /      Cr       Fe     NiAl/
 | /                   Fe     /r
 *--------------------------Cr

Positions:
   0 Cr    10.797848    0.093654    0.085777    ( 0.0000,  0.0000,  0.0000)
   1 Al    10.831824    1.844742    1.870716    ( 0.0000,  0.0000,  2.0000)
   2 Ni     1.786803   10.847372    1.827335    ( 0.0000,  0.0000,  0.0000)
   3 Co     1.769614    1.870531   -0.031264    ( 0.0000,  0.0000,  0.0000)
   4 Al     3.620857   10.822050   10.833629    ( 0.0000,  0.0000,  1.5000)
   5 Cr     3.571246    1.883176    1.708402    ( 0.0000,  0.0000,  0.0000)
   6 Co     5.521103   10.788063    1.666217    ( 0.0000,  0.0000,  0.0000)
   7 Al     5.520831    1.813973   10.830911    ( 0.0000,  0.0000,  1.5000)
   8 Al     7.330846    0.011025   10.815657    ( 0.0000,  0.0000,  2.0000)
   9 Fe     7.282018    1.809483    1.793250    ( 0.0000,  0.0000,  2.1000)
  10 Fe     9.029996    0.022005    1.811918    ( 0.0000,  0.0000,  1.5000)
  11 Fe     9.007196    1.868639   10.825714    ( 0.0000,  0.0000,  2.0000)
  12 Cr    10.861310    3.649723    0.014171    ( 0.0000,  0.0000,  2.0000)
  13 Cr    10.867442    5.463468    1.819235    ( 0.0000,  0.0000,  2.1000)
  14 Co     1.756088    3.650267    1.845949    ( 0.0000,  0.0000,  0.0000)
  15 Fe     1.790358    5.439092   10.869084    ( 0.0000,  0.0000,  2.1000)
  16 Ni     3.687842    3.622792   -0.049287    ( 0.0000,  0.0000,  2.0000)
  17 Co     3.667347    5.391145    1.745368    ( 0.0000,  0.0000,  0.0000)
  18 Al     5.497977    3.634415    1.792370    ( 0.0000,  0.0000,  2.0000)
  19 Cr     5.524908    5.448029    0.002551    ( 0.0000,  0.0000,  2.0000)
  20 Co     7.223340    3.611877   10.834270    ( 0.0000,  0.0000,  0.0000)
  21 Al     7.217762    5.474830    1.807776    ( 0.0000,  0.0000,  2.1000)
  22 Ni     9.073442    3.654344    1.775148    ( 0.0000,  0.0000,  0.0000)
  23 Ni     9.008740    5.418608    0.007692    ( 0.0000,  0.0000,  2.0000)
  24 Cr    10.859190    7.178720    0.014480    ( 0.0000,  0.0000,  1.5000)
  25 Fe    -0.018106    8.970948    1.875391    ( 0.0000,  0.0000,  0.0000)
  26 Fe     1.817615    7.224025    1.802546    ( 0.0000,  0.0000,  1.5000)
  27 Cr     1.880729    8.993464   10.874031    ( 0.0000,  0.0000,  0.0000)
  28 Fe     3.684428    7.260447   -0.001356    ( 0.0000,  0.0000,  2.0000)
  29 Co     3.612616    9.025636    1.761807    ( 0.0000,  0.0000,  1.5000)
  30 Cr     5.481440    7.275114    1.811211    ( 0.0000,  0.0000,  1.5000)
  31 Fe     5.461261    9.048153   10.833988    ( 0.0000,  0.0000,  1.5000)
  32 Ni     7.245704    7.257881    0.056891    ( 0.0000,  0.0000,  2.1000)
  33 Co     7.301969    9.004609    1.790315    ( 0.0000,  0.0000,  0.0000)
  34 Cr     9.029343    7.181775    1.815549    ( 0.0000,  0.0000,  2.0000)
  35 Ni     9.030561    9.042010    0.020232    ( 0.0000,  0.0000,  1.5000)
  36 Fe    -0.031046    0.001947    3.645701    ( 0.0000,  0.0000,  2.0000)
  37 Fe    10.825910    1.804351    5.434602    ( 0.0000,  0.0000,  2.1000)
  38 Ni     1.743552   10.849296    5.484376    ( 0.0000,  0.0000,  0.0000)
  39 Al     1.769755    1.791891    3.636068    ( 0.0000,  0.0000,  1.5000)
  40 Al     3.516667   10.719828    3.663227    ( 0.0000,  0.0000,  0.0000)
  41 Co     3.644244    1.785205    5.586728    ( 0.0000,  0.0000,  0.0000)
  42 Al     5.484778   10.815439    5.504022    ( 0.0000,  0.0000,  0.0000)
  43 Ni     5.457934    1.842230    3.658769    ( 0.0000,  0.0000,  0.0000)
  44 Cr     7.360615   10.815439    3.672229    ( 0.0000,  0.0000,  0.0000)
  45 Al     7.266884    1.811614    5.485528    ( 0.0000,  0.0000,  2.1000)
  46 Al     9.077986    0.023590    5.491921    ( 0.0000,  0.0000,  0.0000)
  47 Co     9.066788    1.824226    3.671175    ( 0.0000,  0.0000,  1.5000)
  48 Fe    -0.047135    3.649615    3.617291    ( 0.0000,  0.0000,  2.0000)
  49 Ni    10.809264    5.435993    5.379805    ( 0.0000,  0.0000,  2.0000)
  50 Cr     1.752316    3.624989    5.344676    ( 0.0000,  0.0000,  0.0000)
  51 Cr     1.805786    5.472046    3.619389    ( 0.0000,  0.0000,  2.1000)
[...]
  94 Fe     8.994291    3.655975    9.039237    ( 0.0000,  0.0000,  1.5000)
  95 Ni     9.006577    5.423262    7.223296    ( 0.0000,  0.0000,  2.0000)
  96 Ni    -0.070637    7.291956    7.110419    ( 0.0000,  0.0000,  0.0000)
  97 Ni     0.073012    9.104570    9.068375    ( 0.0000,  0.0000,  0.0000)
  98 Ni     1.863247    7.257381    9.054785    ( 0.0000,  0.0000,  2.0000)
  99 Fe     1.858343    9.053708    7.225808    ( 0.0000,  0.0000,  2.1000)
 100 Al     3.683906    7.292456    7.235550    ( 0.0000,  0.0000,  2.0000)
 101 Ni     3.628218    9.069550    9.051262    ( 0.0000,  0.0000,  2.1000)
 102 Co     5.530605    7.331890    9.040129    ( 0.0000,  0.0000,  0.0000)
 103 Al     5.476232    9.097209    7.250467    ( 0.0000,  0.0000,  2.0000)
 104 Cr     7.256827    7.264242    7.208456    ( 0.0000,  0.0000,  2.1000)
 105 Al     7.272548    9.136437    9.056861    ( 0.0000,  0.0000,  1.5000)
 106 Fe     8.936493    7.190875    9.109767    ( 0.0000,  0.0000,  0.0000)
 107 Co     8.994682    9.112169    7.218480    ( 0.0000,  0.0000,  0.0000)

Unit cell:
           periodic     x           y           z      points  spacing
  1. axis:    yes   10.872400    0.000000    0.000000    48     0.2265
  2. axis:    yes    0.000000   10.872400    0.000000    48     0.2265
  3. axis:    yes    0.000000    0.000000   10.872400    48     0.2265

  Lengths:  10.872400  10.872400  10.872400
  Angles:   90.000000  90.000000  90.000000

Effective grid spacing dv^(1/3) = 0.2265

     iter     time        total  log10-change:  magmom
                         energy  eigst   dens
iter:   1 09:47:07  -895.258413                  +120.1017
iter:   2 09:49:05  -853.494678  -0.30  -1.26    +84.6535
iter:   3 09:51:04  -836.088271  -0.74  -1.27    +52.9660
iter:   4 09:53:01  -811.093786  -1.26  -1.30    +46.5305
iter:   5 09:54:58  -806.334948  -1.76  -1.39    +43.4972
iter:   6 09:56:57  -808.059404  -1.79  -1.43    +43.0634
iter:   7 09:58:55  -803.080841  -1.66  -1.45    +42.3560
iter:   8 10:00:52  -802.747015  -1.78  -1.54    +43.1962
iter:   9 10:02:50  -807.483103  -1.76  -1.63    +44.0865
iter:  10 10:04:46  -801.224901  -1.93  -1.60    +44.4654
iter:  11 10:07:32  -801.805949  -2.34  -1.78    +46.1064
iter:  12 10:09:47  -802.094234  -2.43  -1.81    +47.3028
iter:  13 10:11:44  -802.448720  -2.39  -1.83    +49.3826
iter:  14 10:13:42  -801.884440  -2.55  -1.85    +50.2220
iter:  15 10:15:40  -803.209839  -2.46  -1.95    +51.6039
iter:  16 10:17:38  -803.006234  -2.45  -1.92    +53.1022
iter:  17 10:19:36  -803.448548  -2.55  -1.96    +53.8938
iter:  18 10:21:33  -802.773931  -2.71  -1.99    +54.8359
iter:  19 10:23:30  -803.065500  -2.64  -2.07    +55.6069
iter:  20 10:25:28  -802.428645  -3.00  -2.06    +56.6851
iter:  21 10:27:47  -802.646061  -3.20  -2.16    +57.6027
iter:  22 10:30:26  -802.765032  -3.33  -2.19    +58.0621
iter:  23 10:32:24  -802.897703  -3.22  -2.20    +58.8816
iter:  24 10:34:22  -803.039689  -3.28  -2.22    +59.4414
iter:  25 10:36:19  -803.443560  -3.13  -2.25    +59.7645
iter:  26 10:38:18  -803.402817  -3.10  -2.20    +59.9044
iter:  27 10:40:16  -803.649546  -3.11  -2.27    +60.3414
iter:  28 10:42:14  -803.522219  -3.21  -2.25    +60.5927
iter:  29 10:44:11  -803.762198  -3.22  -2.33    +60.4353
iter:  30 10:46:08  -803.587141  -3.47  -2.31    +60.4952
iter:  31 10:48:06  -803.659378  -3.62  -2.39    +60.4231
iter:  32 10:50:31  -803.717232  -3.82  -2.40    +60.5167
iter:  33 10:53:05  -803.756723  -3.83  -2.42    +60.3484
iter:  34 10:55:02  -803.819772  -3.89  -2.44    +60.1886
iter:  35 10:57:01  -804.061598  -3.42  -2.48    +59.8022
iter:  36 10:58:58  -804.073615  -3.38  -2.43    +59.7524
iter:  37 11:00:56  -804.084764c -3.41  -2.46    +59.5073
iter:  38 11:02:54  -804.086154c -3.51  -2.55    +59.2683
iter:  39 11:04:51  -804.121207c -3.56  -2.59    +59.2194
iter:  40 11:06:48  -804.061251c -3.74  -2.62    +59.1727
iter:  41 11:08:46  -804.054123c -4.13  -2.71    +58.9103
iter:  42 11:10:43  -804.066070c -4.28  -2.80    +58.8119
iter:  43 11:12:41  -804.078599c -4.60  -2.83    +58.5885
iter:  44 11:14:54  -804.106602c -4.47  -2.86    +58.3851
iter:  45 11:17:36  -804.210362  -3.42  -2.86    +57.5615
iter:  46 11:19:36  -804.232358  -4.44  -2.76    +57.6735
iter:  47 11:21:33  -804.237482c -4.14  -2.74    +57.4581
iter:  48 11:23:31  -804.245007c -4.12  -2.79    +57.4776
iter:  49 11:25:29  -804.228207c -4.29  -2.83    +57.5214
iter:  50 11:27:27  -804.228275c -4.04  -2.90    +57.5098
iter:  51 11:29:26  -804.211781c -4.54  -2.97    +57.3613
iter:  52 11:31:24  -804.218304c -4.63  -3.11    +57.2206
iter:  53 11:33:21  -804.221423c -4.87  -3.10    +57.1870
iter:  54 11:35:23  -804.222042c -4.89  -3.17    +57.1487
iter:  55 11:38:09  -804.224512c -5.10  -3.21    +57.1073
iter:  56 11:40:15  -804.229077c -4.98  -3.25    +57.0397
iter:  57 11:42:13  -804.235233c -5.06  -3.28    +57.0202
iter:  58 11:44:10  -804.234882c -5.22  -3.26    +56.9791
iter:  59 11:46:08  -804.240986c -5.08  -3.35    +56.8926
iter:  60 11:48:05  -804.248524c -5.18  -3.36    +56.8344
iter:  61 11:50:03  -804.248622c -5.74  -3.35    +56.8171
iter:  62 11:52:00  -804.257213c -5.09  -3.38    +56.7157
iter:  63 11:53:57  -804.293508c -3.77  -3.36    +56.2412
iter:  64 11:55:54  -804.290078c -5.03  -3.15    +56.3713
iter:  65 11:58:20  -804.293972c -5.19  -3.18    +56.3449
iter:  66 12:00:52  -804.298815c -4.90  -3.15    +56.3507
iter:  67 12:02:49  -804.304140c -4.95  -3.13    +56.3502
iter:  68 12:04:47  -804.313176c -4.61  -3.09    +56.3533
iter:  69 12:06:45  -804.325590c -4.94  -3.04    +56.3591
iter:  70 12:08:43  -804.332009c -4.52  -2.97    +56.3400
iter:  71 12:10:40  -804.315010c -4.37  -2.91    +56.2855
iter:  72 12:12:38  -804.302759c -4.53  -2.93    +56.1768
iter:  73 12:14:34  -804.307874c -4.24  -3.06    +56.1454
iter:  74 12:16:32  -804.296683c -4.44  -2.96    +56.1229
iter:  75 12:18:44  -804.290763c -4.87  -3.08    +56.1138
iter:  76 12:21:28  -804.289356c -5.10  -3.17    +56.0400
iter:  77 12:23:27  -804.296042c -4.85  -3.20    +56.0476
iter:  78 12:25:25  -804.288376c -5.05  -3.15    +56.0422
iter:  79 12:27:22  -804.291812c -5.15  -3.22    +55.9818
iter:  80 12:29:20  -804.290385c -4.95  -3.28    +55.9698
iter:  81 12:31:18  -804.293988c -4.81  -3.24    +55.9533
iter:  82 12:33:16  -804.288469c -5.08  -3.19    +55.9563
iter:  83 12:35:13  -804.288213c -5.40  -3.36    +55.9167
iter:  84 12:37:11  -804.290260c -5.38  -3.40    +55.8986
iter:  85 12:39:08  -804.287398c -5.88  -3.40    +55.8947
iter:  86 12:41:55  -804.289525c -5.81  -3.47    +55.8737
iter:  87 12:44:08  -804.290048c -5.63  -3.48    +55.8638
iter:  88 12:46:06  -804.289961c -5.38  -3.48    +55.8364
iter:  89 12:48:03  -804.290018c -5.63  -3.44    +55.8363
iter:  90 12:50:01  -804.289726c -5.37  -3.55    +55.8325
iter:  91 12:51:59  -804.292343c -5.46  -3.50    +55.8096
iter:  92 12:53:57  -804.290361c -5.76  -3.58    +55.8025
iter:  93 12:55:54  -804.290653c -5.98  -3.66    +55.7891
iter:  94 12:57:52  -804.291396c -6.05  -3.70    +55.7828
iter:  95 12:59:54  -804.291250c -6.58  -3.72    +55.7679
iter:  96 13:02:41  -804.291960c -6.34  -3.78    +55.7402
iter:  97 13:04:48  -804.292636c -6.11  -3.80    +55.6988
iter:  98 13:06:45  -804.292898c -5.85  -3.76    +55.6579
iter:  99 13:08:43  -804.293852c -5.98  -3.66    +55.6708
iter: 100 13:10:41  -804.293693c -6.14  -3.90    +55.6414
iter: 101 13:12:38  -804.294321c -6.43  -4.11c   +55.6307
iter: 102 13:14:36  -804.294113c -6.42  -4.07c   +55.6184
iter: 103 13:16:33  -804.294581c -6.36  -4.07c   +55.5871
iter: 104 13:18:31  -804.295352c -6.67  -4.06c   +55.5825
iter: 105 13:20:28  -804.295463c -6.62  -4.03c   +55.5678
iter: 106 13:22:26  -804.295846c -6.19  -4.06c   +55.5497
iter: 107 13:24:24  -804.296045c -6.60  -3.97    +55.5495
iter: 108 13:26:21  -804.296716c -6.49  -4.07c   +55.5367
iter: 109 13:28:18  -804.296124c -6.66  -3.98    +55.5326
iter: 110 13:30:25  -804.297596c -6.38  -3.92    +55.5214
iter: 111 13:33:12  -804.297331c -6.20  -3.90    +55.5131
iter: 112 13:35:14  -804.297131c -6.11  -3.83    +55.4966
iter: 113 13:37:11  -804.297965c -5.81  -3.89    +55.4893
iter: 114 13:39:09  -804.297446c -6.52  -3.80    +55.4871
iter: 115 13:41:07  -804.298164c -6.42  -4.02c   +55.4647
iter: 116 13:43:04  -804.297311c -6.38  -4.00    +55.4559
iter: 117 13:45:02  -804.297750c -6.68  -3.95    +55.4430
iter: 118 13:46:58  -804.298027c -6.65  -4.04c   +55.4339
iter: 119 13:48:55  -804.298269c -6.05  -4.07c   +55.4189
iter: 120 13:51:08  -804.298265c -6.30  -3.87    +55.4132
iter: 121 13:53:49  -804.298080c -6.51  -4.05c   +55.4065
iter: 122 13:55:15  -804.299085c -6.34  -4.05c   +55.3992
iter: 123 13:56:42  -804.298431c -6.49  -4.02c   +55.3934
iter: 124 13:58:09  -804.298366c -6.69  -4.10c   +55.3818
iter: 125 13:59:35  -804.298575c -7.02  -4.13c   +55.3784
iter: 126 14:01:02  -804.298651c -6.73  -4.25c   +55.3694
iter: 127 14:02:28  -804.298906c -6.96  -4.16c   +55.3681
iter: 128 14:03:55  -804.298753c -7.14  -4.24c   +55.3627
iter: 129 14:05:21  -804.299063c -7.05  -4.33c   +55.3569
iter: 130 14:06:48  -804.299107c -7.11  -4.28c   +55.3556
iter: 131 14:08:14  -804.298998c -7.19  -4.34c   +55.3487
iter: 132 14:09:41  -804.299111c -7.23  -4.38c   +55.3448
iter: 133 14:11:08  -804.299086c -7.33  -4.39c   +55.3425
iter: 134 14:12:34  -804.299367c -7.27  -4.45c   +55.3380
iter: 135 14:14:00  -804.299225c -7.44c -4.45c   +55.3354

Converged after 135 iterations.

Dipole moment: (29.191283, 17.073523, 7.615641) |e|*Ang

Total magnetic moment: (0.000000, 0.000000, 55.335371)
Local magnetic moments:
   0 Cr ( 0.000000,  0.000000, -2.109200)
   1 Al ( 0.000000,  0.000000, -0.032375)
   2 Ni ( 0.000000,  0.000000,  0.063723)
   3 Co ( 0.000000,  0.000000,  0.666317)
   4 Al ( 0.000000,  0.000000, -0.017916)
   5 Cr ( 0.000000,  0.000000, -2.196435)
   6 Co ( 0.000000,  0.000000,  1.051445)
   7 Al ( 0.000000,  0.000000, -0.022681)
   8 Al ( 0.000000,  0.000000, -0.042728)
   9 Fe ( 0.000000,  0.000000,  2.175972)
  10 Fe ( 0.000000,  0.000000,  2.152634)
  11 Fe ( 0.000000,  0.000000,  1.738973)
  12 Cr ( 0.000000,  0.000000,  1.276620)
  13 Cr ( 0.000000,  0.000000, -1.164312)
  14 Co ( 0.000000,  0.000000,  0.664012)
  15 Fe ( 0.000000,  0.000000,  1.938098)
  16 Ni ( 0.000000,  0.000000,  0.163138)
  17 Co ( 0.000000,  0.000000,  0.621444)
  18 Al ( 0.000000,  0.000000, -0.026342)
  19 Cr ( 0.000000,  0.000000,  1.418269)
  20 Co ( 0.000000,  0.000000,  1.202501)
  21 Al ( 0.000000,  0.000000, -0.003294)
  22 Ni ( 0.000000,  0.000000,  0.211657)
  23 Ni ( 0.000000,  0.000000,  0.167149)
  24 Cr ( 0.000000,  0.000000, -1.814043)
  25 Fe ( 0.000000,  0.000000,  2.057409)
  26 Fe ( 0.000000,  0.000000,  1.767380)
  27 Cr ( 0.000000,  0.000000, -1.982817)
  28 Fe ( 0.000000,  0.000000,  2.212556)
  29 Co ( 0.000000,  0.000000,  0.906637)
  30 Cr ( 0.000000,  0.000000, -1.786087)
  31 Fe ( 0.000000,  0.000000,  2.303135)
  32 Ni ( 0.000000,  0.000000,  0.251149)
  33 Co ( 0.000000,  0.000000,  1.248962)
  34 Cr ( 0.000000,  0.000000,  1.118409)
  35 Ni ( 0.000000,  0.000000,  0.098827)
  36 Fe ( 0.000000,  0.000000,  2.382677)
  37 Fe ( 0.000000,  0.000000,  2.008529)
  38 Ni ( 0.000000,  0.000000,  0.280360)
  39 Al ( 0.000000,  0.000000, -0.023451)
  40 Al ( 0.000000,  0.000000, -0.004672)
  41 Co ( 0.000000,  0.000000,  1.042225)
  42 Al ( 0.000000,  0.000000, -0.000444)
  43 Ni ( 0.000000,  0.000000,  0.022141)
  44 Cr ( 0.000000,  0.000000, -2.164300)
  45 Al ( 0.000000,  0.000000, -0.012451)
  46 Al ( 0.000000,  0.000000, -0.025274)
  47 Co ( 0.000000,  0.000000,  0.831287)
  48 Fe ( 0.000000,  0.000000,  1.986688)
  49 Ni ( 0.000000,  0.000000,  0.280452)
  50 Cr ( 0.000000,  0.000000, -2.008218)
  51 Cr ( 0.000000,  0.000000, -1.193834)
  52 Cr ( 0.000000,  0.000000,  1.960611)
  53 Co ( 0.000000,  0.000000,  0.758720)
  54 Cr ( 0.000000,  0.000000, -1.758346)
  55 Al ( 0.000000,  0.000000, -0.011444)
  56 Cr ( 0.000000,  0.000000,  1.832232)
  57 Ni ( 0.000000,  0.000000,  0.242748)
  58 Co ( 0.000000,  0.000000,  1.285607)
  59 Cr ( 0.000000,  0.000000, -1.554905)
[...]
  93 Co ( 0.000000,  0.000000,  1.265592)
  94 Fe ( 0.000000,  0.000000,  2.299962)
  95 Ni ( 0.000000,  0.000000,  0.436517)
  96 Ni ( 0.000000,  0.000000,  0.297940)
  97 Ni ( 0.000000,  0.000000,  0.106749)
  98 Ni ( 0.000000,  0.000000,  0.210324)
  99 Fe ( 0.000000,  0.000000,  2.232994)
 100 Al ( 0.000000,  0.000000, -0.037489)
 101 Ni ( 0.000000,  0.000000,  0.105446)
 102 Co ( 0.000000,  0.000000,  0.549553)
 103 Al ( 0.000000,  0.000000,  0.005843)
 104 Cr ( 0.000000,  0.000000, -1.629193)
 105 Al ( 0.000000,  0.000000, -0.019159)
 106 Fe ( 0.000000,  0.000000,  2.513355)
 107 Co ( 0.000000,  0.000000,  0.743807)

Energy contributions relative to reference atoms: (reference = -3235165.067515)

Kinetic:       +275.599442
Potential:     -260.844317
External:        +0.000000
XC:            -848.311523
Entropy (-ST):   -4.144880
Local:          +31.329614
Free energy:   -806.371665
Extrapolated:  -804.299225

Spin contamination: 29.948897 electrons
Showing only first 2 kpts
                      Up                     Down
 Kpt  Band  Eigenvalues  Occupancy  Eigenvalues  Occupancy
  0   454      9.02762    0.99347      9.88360    0.02833
  0   455      9.03118    0.99323      9.89950    0.02426
  0   456      9.06286    0.99074      9.91448    0.02096
  0   457      9.06801    0.99025      9.92228    0.01942

  1   454      9.01771    0.99408      9.88668    0.02749
  1   455      9.03250    0.99314      9.89451    0.02548
  1   456      9.04015    0.99260      9.90829    0.02227
  1   457      9.04963    0.99187      9.92149    0.01957

Fermi level: 9.53008

No gap

Forces in eV/Ang:
  0 Cr    0.25433   -0.81217   -0.46522
  1 Al   -0.39562    0.37521   -0.41632
  2 Ni   -0.02857    0.11860   -0.14532
  3 Co   -0.00281   -0.14145   -0.09522
  4 Al   -0.11879    0.31686   -0.02739
  5 Cr   -0.11260   -0.15959    0.90753
  6 Co   -0.14935    0.29972    0.92655
  7 Al   -0.67316    0.23008   -0.64829
  8 Al   -0.56605   -0.19227    1.92615
  9 Fe    0.33465   -0.26421    0.69387
 10 Fe    0.15889   -0.42885    0.34837
 11 Fe    0.42263    0.06003    0.11360
 12 Cr    0.00485   -0.48695    0.30748
 13 Cr   -0.14987   -0.27316   -0.28514
 14 Co    0.25592    0.12222   -0.57452
 15 Fe    0.43924   -0.04700    0.56816
 16 Ni   -0.40426   -0.10194    0.35468
 17 Co   -0.44608    0.29029    0.12300
 18 Al   -0.58854   -0.64065    0.08389
 19 Cr   -0.23464    0.49081   -0.62038
 20 Co    0.37458    0.21717    0.05023
 21 Al    1.64797   -0.41895   -0.47832
 22 Ni   -0.41900   -0.22653    0.26792
 23 Ni   -0.00790   -0.11222   -0.27596
 24 Cr   -0.03394    1.07161    0.16483
 25 Fe   -0.26380    0.25513   -0.79727
 26 Fe    0.21040   -0.24636   -0.12832
 27 Cr   -0.57459   -0.39170    0.22497
 28 Fe   -0.40512    0.28750    0.33743
 29 Co    0.26087   -0.25455    0.29961
 30 Cr   -1.20886    1.19674   -0.64052
 31 Fe    0.08427   -0.67816    0.51420
 32 Ni    0.13965   -0.08473   -0.60742
 33 Co   -0.18954    0.33442    0.68242
 34 Cr    0.89998    0.80719    0.11965
 35 Ni    0.31455    0.17292   -0.31690
 36 Fe   -0.44757   -0.38384   -0.13014
 37 Fe    0.10620    0.71035   -0.22697
 38 Ni    0.65154    0.18037   -0.20323
 39 Al    0.61807   -0.09908    0.44801
 40 Al    1.67211    1.14751   -0.78740
 41 Co    0.01779    0.02833   -0.51711
 42 Al   -0.72237    1.79257   -1.11126
 43 Ni   -0.06813   -0.72003   -0.26121
 44 Cr   -0.78851    0.45624   -2.26824
 45 Al   -0.01463    0.80195   -0.09320
 46 Al    0.16482   -0.52157   -0.48427
 47 Co   -0.33350    0.18601   -0.17817
 48 Fe   -0.09021    0.62977    0.33749
 49 Ni    0.40676   -0.02047    0.47391
 50 Cr    0.64531    0.38143    1.36833
 51 Cr    0.36746    0.33768   -0.01029
 52 Cr   -0.60880   -0.30302    0.19611
 53 Co   -0.33788    0.11558    0.26634
 54 Cr   -0.48061   -0.60585    0.27748
 55 Al   -0.37657    1.04725    0.96428
 56 Cr    0.72573   -1.17356    0.01147
 57 Ni    0.26894   -0.24861   -0.08169
 58 Co    0.03740    0.34880   -0.18936
 59 Cr   -0.05650   -0.44846    0.48056
[...]
 93 Co    0.03714    0.36052   -0.13325
 94 Fe   -0.44859   -0.37970    0.07463
 95 Ni    0.12648    0.11665    0.17476
 96 Ni    0.08369   -0.12538    0.76685
 97 Ni   -0.56267   -0.36047    0.04144
 98 Ni   -0.37347   -0.03505   -0.11674
 99 Fe   -0.87145   -0.33427    0.04046
100 Al   -0.47437   -0.89889    0.17073
101 Ni    0.32931   -0.37769    0.21130
102 Co   -0.20536   -0.56914    0.38088
103 Al   -0.28518   -0.57291    1.51205
104 Cr    0.35850   -1.32923    0.67416
105 Al   -0.11062   -1.66470   -0.11695
106 Fe    0.57947    0.28412   -0.54020
107 Co    0.76315   -0.87702    0.40145

Date: Sat Apr 15 14:14:21 2023