User:   c.zeng@d0141
Date:   Sat Apr  8 08:34:55 2023
Arch:   x86_64
Pid:    20793
CWD:    /home/c.zeng/projects/hea-corrosion/hea-mlp/data-curation/volume/dft-jobs/37
Python: 3.8.1
gpaw:   /home/c.zeng/usr/installs/gpaw/source/gpaw-22.8.0/gpaw
_gpaw:  /home/c.zeng/usr/installs/gpaw/source/gpaw-22.8.0/
        _gpaw.cpython-38-x86_64-linux-gnu.so
ase:    /home/c.zeng/.local/lib/python3.8/site-packages/ase-3.22.1-py3.8.egg/ase (version 3.22.1)
numpy:  /shared/centos7/python/3.8.1/lib/python3.8/site-packages/numpy (version 1.17.4)
scipy:  /shared/centos7/python/3.8.1/lib/python3.8/site-packages/scipy (version 1.4.1)
units:  Angstrom and eV
cores: 64
OpenMP: False
OMP_NUM_THREADS: 1

Input parameters:
  convergence: {energy: 0.0001}
  kpts: [2 2 2]
  maxiter: 666
  mode: {ecut: 350.0,
         name: pw}
  occupations: {fixmagmom: False,
                name: fermi-dirac,
                width: 0.1}
  spinpol: True
  xc: PBE

System changes: positions, numbers, cell, pbc, initial_charges, initial_magmoms

Initialize ...

species:
  Cr:
    name: Chromium
    id: 33f258bda2ca9f93018e70263a35547b
    Z: 24.0
    valence: 6
    core: 18
    charge: 0.0
    file: /home/c.zeng/usr/data/gpaw-setups-0.9.20000/Cr.PBE.gz
    compensation charges: {type: gauss,
                           rc: 0.35,
                           lmax: 2}
    cutoffs: {filter: 2.14,
              core: 3.04}
    valence states:
      #              energy  rcut
      - 4s(1.00)    -4.007   1.164
      - 4p(0.00)    -0.989   1.217
      - 3d(5.00)    -2.913   1.111
      -  s          23.205   1.164
      -  p          26.223   1.217
      -  d          24.299   1.111

    # Using partial waves for Cr as LCAO basis

  Al:
    name: Aluminium
    id: 0292cae29f5d6237e50f6abdd43a7bdd
    Z: 13.0
    valence: 3
    core: 10
    charge: 0.0
    file: /home/c.zeng/usr/data/gpaw-setups-0.9.20000/Al.PBE.gz
    compensation charges: {type: gauss,
                           rc: 0.34,
                           lmax: 2}
    cutoffs: {filter: 1.91,
              core: 2.36}
    valence states:
      #              energy  rcut
      - 3s(2.00)    -7.753   1.085
      - 3p(1.00)    -2.712   1.085
      -  s          19.459   1.085
      -  p          24.499   1.085
      -  d           0.000   1.085

[...]

  Co:
    name: Cobalt
    id: 339d20d5b0b93d2de9531a1bee871d91
    Z: 27.0
    valence: 9
    core: 18
    charge: 0.0
    file: /home/c.zeng/usr/data/gpaw-setups-0.9.20000/Co.PBE.gz
    compensation charges: {type: gauss,
                           rc: 0.32,
                           lmax: 2}
    cutoffs: {filter: 1.87,
              core: 2.55}
    valence states:
      #              energy  rcut
      - 4s(2.00)    -5.469   1.005
      - 4p(0.00)    -1.277   1.058
      - 3d(7.00)    -8.205   1.005
      -  s          21.742   1.005
      -  p          25.934   1.058
      -  d          19.007   1.005

[...]

  Fe:
    name: Iron
    id: 37abbd8d6c3c35915a9b583b742da910
    Z: 26.0
    valence: 8
    core: 18
    charge: 0.0
    file: /home/c.zeng/usr/data/gpaw-setups-0.9.20000/Fe.PBE.gz
    compensation charges: {type: gauss,
                           rc: 0.33,
                           lmax: 2}
    cutoffs: {filter: 2.06,
              core: 2.67}
    valence states:
      #              energy  rcut
      - 4s(2.00)    -5.291   1.164
      - 4p(0.00)    -1.326   1.058
      - 3d(6.00)    -7.505   1.058
      -  s          21.920   1.164
      -  p          25.885   1.058
      -  d          19.706   1.058

[...]

  Ni:
    name: Nickel
    id: 0d9f38a9d6e76a2886f07bb4381f212b
    Z: 28.0
    valence: 16
    core: 12
    charge: 0.0
    file: /home/c.zeng/usr/data/gpaw-setups-0.9.20000/Ni.PBE.gz
    compensation charges: {type: gauss,
                           rc: 0.36,
                           lmax: 2}
    cutoffs: {filter: 2.14,
              core: 1.98}
    valence states:
      #              energy  rcut
      - 4s(2.00)    -5.642   1.164
      - 3p(6.00)   -71.394   1.207
      - 4p(0.00)    -1.226   1.207
      - 3d(8.00)    -8.875   1.138
      -  s          21.570   1.164
      -  d          18.337   1.138

    # Using partial waves for Ni as LCAO basis

Reference energy: -3699400.456887  # eV

Spin-polarized calculation.
Magnetic moment: 143.500000

Convergence criteria:
 Maximum [total energy] change in last 3 cyles: 0.0001 eV / electron
 Maximum integral of absolute [dens]ity change: 0.0001 electrons / valence electron
 Maximum integral of absolute [eigenst]ate change: 4e-08 eV^2 / valence electron
 Maximum number of scf [iter]ations: 666
 (Square brackets indicate name in SCF output, whereas a 'c' in
 the SCF output indicates the quantity has converged.)

Symmetries present (total): 1

  ( 1  0  0)
  ( 0  1  0)
  ( 0  0  1)

8 k-points: 2 x 2 x 2 Monkhorst-Pack grid
4 k-points in the irreducible part of the Brillouin zone
       k-points in crystal coordinates                weights
   0:     0.25000000   -0.25000000   -0.25000000          2/8
   1:     0.25000000   -0.25000000    0.25000000          2/8
   2:     0.25000000    0.25000000   -0.25000000          2/8
   3:     0.25000000    0.25000000    0.25000000          2/8

Wave functions: Plane wave expansion
  Cutoff energy: 350.000 eV
  Number of coefficients (min, max): 18127, 18127
  Pulay-stress correction: 0.000000 eV/Ang^3 (de/decut=0.000000)
  Using FFTW library
  ScaLapack parameters: grid=1x1, blocksize=None
  Wavefunction extrapolation:
    Improved wavefunction reuse through dual PAW basis

Occupation numbers: Fermi-Dirac:
  width: 0.1000  # eV

Eigensolver
   Davidson(niter=2)

Densities:
  Coarse grid: 48*48*48 grid
  Fine grid: 96*96*96 grid
  Total Charge: 0.000000

Density mixing:
  Method: difference
  Backend: pulay
  Linear mixing parameter: 0.05
  old densities: 5
  Damping of long wavelength oscillations: 50

Hamiltonian:
  XC and Coulomb potentials evaluated on a 96*96*96 grid
  Using the PBE Exchange-Correlation functional
  External potential:
    NoExternalPotential

XC parameters: PBE with 2 nearest neighbor stencil

Total number of cores used: 64
Parallelization over k-points: 4
Domain decomposition: 4 x 2 x 2

Number of atoms: 108
Number of atomic orbitals: 1025
Number of bands in calculation: 703
Number of valence electrons: 1020
Bands to converge: occupied

... initialized

Initializing position-dependent things.

Density initialized from atomic densities
Creating initial wave functions:
  703 bands from LCAO basis set

        Cr------------------------.
       /|  Ni                Cr   |
      / |   Fe         Al         |
     / Ni      Cr       Fe        |
    /   Cr       Cr               |
   /o   | NiFe     CrFe    CrNi   |
  /  NiCo  FeCo     CrNiFe        |
 *    FeCo  CrNiNi     CoCo       |
 |     NiCoCr  CoNi Co  AlCrFe    |
 | Ni   | FeCoAl CoNiNiCoFeNi     Fe
 |  FeCr|  NiCoCo   FeFeCr   Fe   |
 |    CrNi  CrCoFeCr NiNiNi   Ni  |
 |     NiNiNi  Co CrCo  CrFeCo    |
 |      .-FeCr---FeCoCo----CrFe---.
 |   CFe     FNil   CrNFei       /
 |    CrFe    Co         Co     /
 |   /   Fe     Cr             /
 |  /      Cr    Co Co    CrAl/
 |/            Fe           /
 *----------------Cr-------*

Positions:
   0 Cr     0.000018   -0.000013   10.691882    ( 0.0000,  0.0000,  0.0000)
   1 Al    10.691979    1.782100    1.782046    ( 0.0000,  0.0000,  0.0000)
   2 Cr     1.782089   10.691914    1.781993    ( 0.0000,  0.0000,  0.0000)
   3 Co     1.782057    1.782046   10.691925    ( 0.0000,  0.0000,  2.1000)
   4 Fe     3.563943   -0.000002    0.000044    ( 0.0000,  0.0000,  2.0000)
   5 Cr     3.563932    1.781993    1.781897    ( 0.0000,  0.0000,  0.0000)
   6 Ni     5.345979   10.691914    1.781982    ( 0.0000,  0.0000,  1.5000)
   7 Fe     5.346032    1.782078    0.000004    ( 0.0000,  0.0000,  2.0000)
   8 Cr     7.128057    0.000084    0.000023    ( 0.0000,  0.0000,  0.0000)
   9 Co     7.128078    1.782025    1.781939    ( 0.0000,  0.0000,  2.1000)
  10 Ni     8.909943   10.691957    1.782068    ( 0.0000,  0.0000,  1.5000)
  11 Fe     8.909932    1.782046   10.691904    ( 0.0000,  0.0000,  2.0000)
  12 Co     0.000012    3.564039   10.691947    ( 0.0000,  0.0000,  2.1000)
  13 Co     0.000062    5.345957    1.782036    ( 0.0000,  0.0000,  2.1000)
  14 Fe     1.782025    3.564125    1.781950    ( 0.0000,  0.0000,  2.0000)
  15 Fe     1.782068    5.345979    0.000029    ( 0.0000,  0.0000,  2.0000)
  16 Fe     3.563996    3.564061   -0.000002    ( 0.0000,  0.0000,  2.0000)
  17 Fe     3.563922    5.346064    1.781929    ( 0.0000,  0.0000,  2.0000)
  18 Cr     5.346021    3.564093    1.781865    ( 0.0000,  0.0000,  0.0000)
  19 Co     5.345904    5.345914    0.000002    ( 0.0000,  0.0000,  2.1000)
  20 Fe     7.127993    3.563986   10.691979    ( 0.0000,  0.0000,  2.0000)
  21 Ni     7.128014    5.345914    1.782068    ( 0.0000,  0.0000,  1.5000)
  22 Co     8.909964    3.564061    1.781982    ( 0.0000,  0.0000,  2.1000)
  23 Cr     8.910039    5.345850    0.000025    ( 0.0000,  0.0000,  0.0000)
  24 Cr     0.000098    7.127971    0.000000    ( 0.0000,  0.0000,  0.0000)
  25 Ni     0.000019    8.909975    1.782057    ( 0.0000,  0.0000,  1.5000)
  26 Fe     1.782068    7.127961    1.781982    ( 0.0000,  0.0000,  2.0000)
  27 Ni     1.782046    8.909986   10.691979    ( 0.0000,  0.0000,  1.5000)
  28 Co     3.563975    7.127939    0.000075    ( 0.0000,  0.0000,  2.1000)
  29 Co     3.563996    8.909943    1.782025    ( 0.0000,  0.0000,  2.1000)
  30 Co     5.345882    7.128004    1.782046    ( 0.0000,  0.0000,  2.1000)
  31 Cr     5.345904    8.909996    0.000092    ( 0.0000,  0.0000,  0.0000)
  32 Al     7.127918    7.127939   10.691936    ( 0.0000,  0.0000,  0.0000)
  33 Cr     7.127982    8.910071    1.782121    ( 0.0000,  0.0000,  0.0000)
  34 Cr     8.910071    7.127982    1.782100    ( 0.0000,  0.0000,  0.0000)
  35 Cr     8.910039    8.910093   10.691968    ( 0.0000,  0.0000,  0.0000)
  36 Fe    10.691947   10.691979    3.564071    ( 0.0000,  0.0000,  2.0000)
  37 Co    10.691979    1.782025    5.345936    ( 0.0000,  0.0000,  2.1000)
  38 Cr     1.781971   10.691957    5.345979    ( 0.0000,  0.0000,  0.0000)
  39 Fe     1.781982    1.782004    3.564050    ( 0.0000,  0.0000,  2.0000)
  40 Co     3.563964   10.691893    3.563996    ( 0.0000,  0.0000,  2.1000)
  41 Ni     3.563986    1.782025    5.346043    ( 0.0000,  0.0000,  1.5000)
  42 Ni     5.345979    0.000020    5.345979    ( 0.0000,  0.0000,  1.5000)
  43 Al     5.346053    1.781907    3.564093    ( 0.0000,  0.0000,  0.0000)
  44 Fe     7.128068   10.691989    3.563996    ( 0.0000,  0.0000,  2.0000)
  45 Co     7.128036    1.782025    5.346011    ( 0.0000,  0.0000,  2.1000)
  46 Fe     8.910050   10.692000    5.345936    ( 0.0000,  0.0000,  2.0000)
  47 Ni     8.909975    1.781961    3.564061    ( 0.0000,  0.0000,  1.5000)
  48 Fe    -0.000016    3.564039    3.564050    ( 0.0000,  0.0000,  2.0000)
  49 Fe    10.692000    5.345989    5.346000    ( 0.0000,  0.0000,  2.0000)
  50 Ni     1.781982    3.564050    5.345989    ( 0.0000,  0.0000,  1.5000)
  51 Ni     1.781961    5.346000    3.563986    ( 0.0000,  0.0000,  1.5000)
  52 Cr     3.563900    3.564082    3.564029    ( 0.0000,  0.0000,  0.0000)
  53 Co     3.563996    5.346021    5.346043    ( 0.0000,  0.0000,  2.1000)
  54 Fe     5.346021    3.564050    5.346096    ( 0.0000,  0.0000,  2.0000)
  55 Cr     5.346032    5.346043    3.564039    ( 0.0000,  0.0000,  0.0000)
  56 Co     7.128089    3.564061    3.564029    ( 0.0000,  0.0000,  2.1000)
  57 Fe     7.128004    5.345979    5.346000    ( 0.0000,  0.0000,  2.0000)
  58 Ni     8.909986    3.564039    5.345936    ( 0.0000,  0.0000,  1.5000)
  59 Fe     8.909996    5.345989    3.564039    ( 0.0000,  0.0000,  2.0000)
[...]
  93 Ni     7.127971    5.345936    8.909943    ( 0.0000,  0.0000,  1.5000)
  94 Co     8.910007    3.563932    8.910061    ( 0.0000,  0.0000,  2.1000)
  95 Cr     8.910018    5.346032    7.127929    ( 0.0000,  0.0000,  0.0000)
  96 Fe     0.000068    7.127993    7.127971    ( 0.0000,  0.0000,  2.0000)
  97 Ni     0.000014    8.910029    8.909943    ( 0.0000,  0.0000,  1.5000)
  98 Ni     1.781982    7.127993    8.909964    ( 0.0000,  0.0000,  1.5000)
  99 Fe     1.781982    8.909922    7.128004    ( 0.0000,  0.0000,  2.0000)
 100 Ni     3.563911    7.127971    7.127939    ( 0.0000,  0.0000,  1.5000)
 101 Cr     3.563890    8.909954    8.910007    ( 0.0000,  0.0000,  0.0000)
 102 Cr     5.345979    7.127961    8.909975    ( 0.0000,  0.0000,  0.0000)
 103 Cr     5.345947    8.909922    7.127971    ( 0.0000,  0.0000,  0.0000)
 104 Co     7.128025    7.127939    7.128046    ( 0.0000,  0.0000,  2.1000)
 105 Fe     7.128078    8.910007    8.909932    ( 0.0000,  0.0000,  2.0000)
 106 Cr     8.910029    7.128046    8.909890    ( 0.0000,  0.0000,  0.0000)
 107 Ni     8.910071    8.909975    7.128057    ( 0.0000,  0.0000,  1.5000)

Unit cell:
           periodic     x           y           z      points  spacing
  1. axis:    yes   10.692000    0.000000    0.000000    48     0.2228
  2. axis:    yes    0.000000   10.692000    0.000000    48     0.2228
  3. axis:    yes    0.000000    0.000000   10.692000    48     0.2228

  Lengths:  10.692000  10.692000  10.692000
  Angles:   90.000000  90.000000  90.000000

Effective grid spacing dv^(1/3) = 0.2227

     iter     time        total  log10-change:  magmom
                         energy  eigst   dens
iter:   1 08:36:54 -1054.974714                  +143.7772
iter:   2 08:37:53  -936.828228  -0.24  -1.20    +82.6349
iter:   3 08:38:49  -920.053310  -0.91  -1.23    +71.5292
iter:   4 08:39:47  -902.440364  -1.30  -1.29    +67.5172
iter:   5 08:40:44  -887.304867  -1.57  -1.32    +64.5825
iter:   6 08:41:40  -886.748988  -1.26  -1.39    +65.3556
iter:   7 08:42:40  -883.001164  -1.27  -1.49    +64.4996
iter:   8 08:43:46  -870.245237  -1.75  -1.57    +64.1557
iter:   9 08:44:52  -868.549175  -2.20  -1.76    +65.6011
iter:  10 08:45:57  -868.872975  -2.59  -1.85    +66.9399
iter:  11 08:47:03  -869.744119  -2.56  -1.87    +68.2320
iter:  12 08:48:08  -870.657868  -2.47  -1.88    +69.4683
iter:  13 08:49:15  -870.614281  -2.44  -1.91    +70.0639
iter:  14 08:50:21  -870.521806  -2.51  -2.00    +70.5146
iter:  15 08:51:27  -870.619113c -2.64  -2.04    +71.4157
iter:  16 08:52:32  -869.707264  -3.04  -2.07    +71.5210
iter:  17 08:53:38  -869.903641  -3.23  -2.21    +72.0853
iter:  18 08:54:44  -870.183163  -3.17  -2.25    +72.3991
iter:  19 08:55:49  -869.957978  -3.23  -2.23    +72.5958
iter:  20 08:56:54  -869.899661  -3.21  -2.31    +72.7175
iter:  21 08:58:00  -869.886098c -3.44  -2.41    +72.9326
iter:  22 08:59:06  -869.901436c -3.45  -2.44    +73.0032
iter:  23 09:00:12  -869.813451c -3.61  -2.46    +72.9334
iter:  24 09:01:18  -869.820027c -3.66  -2.58    +73.1165
iter:  25 09:02:23  -869.825453c -3.73  -2.61    +73.0657
iter:  26 09:03:30  -869.825292c -3.97  -2.63    +73.0659
iter:  27 09:04:36  -869.824097c -3.95  -2.67    +73.0362
iter:  28 09:05:42  -869.846267c -4.16  -2.71    +73.0564
iter:  29 09:06:48  -869.837359c -4.11  -2.72    +72.9938
iter:  30 09:07:54  -869.842246c -4.34  -2.77    +73.0168
iter:  31 09:08:59  -869.854520c -4.46  -2.82    +73.0294
iter:  32 09:10:05  -869.855987c -4.46  -2.85    +73.0050
iter:  33 09:11:11  -869.862829c -4.62  -2.88    +72.9694
iter:  34 09:12:17  -869.867402c -4.56  -2.95    +72.9878
iter:  35 09:13:23  -869.870211c -4.88  -2.99    +72.9037
iter:  36 09:14:29  -869.879793c -4.71  -3.06    +72.8432
iter:  37 09:15:36  -869.882281c -4.83  -3.06    +72.8158
iter:  38 09:16:42  -869.889532c -4.78  -3.13    +72.7431
iter:  39 09:17:48  -869.890461c -4.83  -3.14    +72.7039
iter:  40 09:18:54  -869.895188c -4.95  -3.20    +72.6626
iter:  41 09:20:00  -869.898159c -5.04  -3.23    +72.6198
iter:  42 09:21:07  -869.902490c -5.13  -3.30    +72.5573
iter:  43 09:22:13  -869.907571c -5.10  -3.33    +72.5135
iter:  44 09:23:19  -869.909783c -5.13  -3.34    +72.4768
iter:  45 09:24:25  -869.910580c -5.33  -3.38    +72.4207
iter:  46 09:25:32  -869.913121c -5.48  -3.46    +72.3843
iter:  47 09:26:38  -869.915492c -5.52  -3.47    +72.3406
iter:  48 09:27:42  -869.917402c -5.53  -3.52    +72.2935
iter:  49 09:28:47  -869.919828c -5.52  -3.58    +72.2434
iter:  50 09:29:53  -869.922958c -5.55  -3.59    +72.2024
iter:  51 09:30:59  -869.923573c -5.70  -3.62    +72.1682
iter:  52 09:32:05  -869.925353c -5.68  -3.64    +72.1384
iter:  53 09:33:11  -869.926885c -5.78  -3.66    +72.1048
iter:  54 09:34:18  -869.928766c -5.67  -3.72    +72.0614
iter:  55 09:35:24  -869.931510c -5.45  -3.75    +71.9920
iter:  56 09:36:33  -869.934761c -5.35  -3.76    +71.9219
iter:  57 09:37:39  -869.941042c -4.83  -3.75    +71.7718
iter:  58 09:38:44  -869.948206c -4.56  -3.63    +71.5992
iter:  59 09:39:50  -869.946693c -5.50  -3.51    +71.6289
iter:  60 09:40:56  -869.947203c -5.73  -3.56    +71.6158
iter:  61 09:42:02  -869.948283c -5.87  -3.60    +71.6149
iter:  62 09:43:08  -869.948784c -5.59  -3.56    +71.6120
iter:  63 09:44:14  -869.945945c -5.12  -3.46    +71.6029
iter:  64 09:45:20  -869.945758c -6.00  -3.78    +71.5754
iter:  65 09:46:25  -869.945670c -6.27  -3.80    +71.5424
iter:  66 09:47:33  -869.945428c -6.34  -3.85    +71.5273
iter:  67 09:48:38  -869.945750c -6.44  -3.85    +71.5164
iter:  68 09:49:44  -869.945527c -6.31  -3.93    +71.5038
iter:  69 09:50:51  -869.945564c -6.43  -3.96    +71.5001
iter:  70 09:51:57  -869.945474c -6.68  -4.06c   +71.4872
iter:  71 09:53:05  -869.945441c -6.75  -4.16c   +71.4750
iter:  72 09:54:12  -869.945388c -6.93  -4.15c   +71.4705
iter:  73 09:55:19  -869.945499c -6.76  -4.21c   +71.4570
iter:  74 09:56:26  -869.945393c -6.76  -4.22c   +71.4491
iter:  75 09:57:30  -869.945487c -6.78  -4.27c   +71.4409
iter:  76 09:58:36  -869.945512c -6.92  -4.30c   +71.4342
iter:  77 09:59:41  -869.945492c -6.92  -4.34c   +71.4228
iter:  78 10:00:48  -869.945429c -7.11  -4.38c   +71.4180
iter:  79 10:01:52  -869.945593c -7.06  -4.42c   +71.4069
iter:  80 10:02:57  -869.945552c -7.14  -4.43c   +71.3999
iter:  81 10:04:03  -869.945654c -6.83  -4.48c   +71.3826
iter:  82 10:05:10  -869.945913c -6.10  -4.50c   +71.3355
iter:  83 10:06:16  -869.946404c -5.53  -4.42c   +71.2485
iter:  84 10:07:22  -869.946528c -6.32  -4.17c   +71.2424
iter:  85 10:08:28  -869.946695c -6.58  -4.14c   +71.2338
iter:  86 10:09:33  -869.946625c -7.06  -4.11c   +71.2408
iter:  87 10:10:39  -869.946500c -7.20  -4.17c   +71.2376
iter:  88 10:11:45  -869.946686c -6.66  -4.24c   +71.2335
iter:  89 10:12:52  -869.946568c -7.13  -4.20c   +71.2312
iter:  90 10:13:58  -869.946522c -7.18  -4.29c   +71.2264
iter:  91 10:15:04  -869.946737c -7.24  -4.30c   +71.2191
iter:  92 10:16:10  -869.946658c -7.32  -4.36c   +71.2158
iter:  93 10:17:15  -869.946629c -7.43c -4.32c   +71.2069

Converged after 93 iterations.

Dipole moment: (0.147301, -0.083652, -0.031881) |e|*Ang

Total magnetic moment: (0.000000, 0.000000, 71.206875)
Local magnetic moments:
   0 Cr ( 0.000000,  0.000000, -0.887923)
   1 Al ( 0.000000,  0.000000, -0.041837)
   2 Cr ( 0.000000,  0.000000, -1.209356)
   3 Co ( 0.000000,  0.000000,  0.727638)
   4 Fe ( 0.000000,  0.000000,  1.780186)
   5 Cr ( 0.000000,  0.000000, -0.466565)
   6 Ni ( 0.000000,  0.000000,  0.196418)
   7 Fe ( 0.000000,  0.000000,  2.013514)
   8 Cr ( 0.000000,  0.000000, -1.018579)
   9 Co ( 0.000000,  0.000000,  1.201987)
  10 Ni ( 0.000000,  0.000000,  0.192236)
  11 Fe ( 0.000000,  0.000000,  2.260203)
  12 Co ( 0.000000,  0.000000,  1.423443)
  13 Co ( 0.000000,  0.000000,  1.048267)
  14 Fe ( 0.000000,  0.000000,  2.043667)
  15 Fe ( 0.000000,  0.000000,  2.388855)
  16 Fe ( 0.000000,  0.000000,  2.139684)
  17 Fe ( 0.000000,  0.000000,  2.012590)
  18 Cr ( 0.000000,  0.000000, -1.087644)
  19 Co ( 0.000000,  0.000000,  1.297311)
  20 Fe ( 0.000000,  0.000000,  2.354166)
  21 Ni ( 0.000000,  0.000000,  0.257838)
  22 Co ( 0.000000,  0.000000,  1.333670)
  23 Cr ( 0.000000,  0.000000, -1.000935)
  24 Cr ( 0.000000,  0.000000, -1.034340)
  25 Ni ( 0.000000,  0.000000,  0.180097)
  26 Fe ( 0.000000,  0.000000,  2.356929)
  27 Ni ( 0.000000,  0.000000,  0.234570)
  28 Co ( 0.000000,  0.000000,  1.273955)
  29 Co ( 0.000000,  0.000000,  1.263584)
  30 Co ( 0.000000,  0.000000,  1.182371)
  31 Cr ( 0.000000,  0.000000,  0.900613)
  32 Al ( 0.000000,  0.000000, -0.011159)
  33 Cr ( 0.000000,  0.000000, -1.344629)
  34 Cr ( 0.000000,  0.000000,  0.852048)
  35 Cr ( 0.000000,  0.000000,  0.920606)
  36 Fe ( 0.000000,  0.000000,  2.264951)
  37 Co ( 0.000000,  0.000000,  0.963550)
  38 Cr ( 0.000000,  0.000000, -1.332372)
  39 Fe ( 0.000000,  0.000000,  1.975118)
  40 Co ( 0.000000,  0.000000,  1.098167)
  41 Ni ( 0.000000,  0.000000,  0.154909)
  42 Ni ( 0.000000,  0.000000,  0.258530)
  43 Al ( 0.000000,  0.000000, -0.024402)
  44 Fe ( 0.000000,  0.000000,  2.316195)
  45 Co ( 0.000000,  0.000000,  1.204462)
  46 Fe ( 0.000000,  0.000000,  1.976277)
  47 Ni ( 0.000000,  0.000000,  0.499958)
  48 Fe ( 0.000000,  0.000000,  2.399837)
  49 Fe ( 0.000000,  0.000000,  2.333075)
  50 Ni ( 0.000000,  0.000000,  0.406505)
  51 Ni ( 0.000000,  0.000000,  0.423376)
  52 Cr ( 0.000000,  0.000000, -0.679936)
  53 Co ( 0.000000,  0.000000,  1.442263)
  54 Fe ( 0.000000,  0.000000,  2.209077)
  55 Cr ( 0.000000,  0.000000, -1.503953)
  56 Co ( 0.000000,  0.000000,  1.311514)
  57 Fe ( 0.000000,  0.000000,  2.353058)
  58 Ni ( 0.000000,  0.000000,  0.370770)
  59 Fe ( 0.000000,  0.000000,  2.259627)
[...]
  93 Ni ( 0.000000,  0.000000,  0.089535)
  94 Co ( 0.000000,  0.000000,  1.241742)
  95 Cr ( 0.000000,  0.000000, -1.928147)
  96 Fe ( 0.000000,  0.000000,  2.325899)
  97 Ni ( 0.000000,  0.000000,  0.184471)
  98 Ni ( 0.000000,  0.000000,  0.412726)
  99 Fe ( 0.000000,  0.000000,  1.859152)
 100 Ni ( 0.000000,  0.000000,  0.401489)
 101 Cr ( 0.000000,  0.000000, -1.130311)
 102 Cr ( 0.000000,  0.000000, -0.948826)
 103 Cr ( 0.000000,  0.000000,  0.943996)
 104 Co ( 0.000000,  0.000000,  0.935343)
 105 Fe ( 0.000000,  0.000000,  1.448225)
 106 Cr ( 0.000000,  0.000000, -0.254254)
 107 Ni ( 0.000000,  0.000000,  0.163684)

Energy contributions relative to reference atoms: (reference = -3699400.456887)

Kinetic:       +142.216881
Potential:     -193.734032
External:        +0.000000
XC:            -854.172069
Entropy (-ST):   -4.603808
Local:          +38.044496
Free energy:   -872.248533
Extrapolated:  -869.946629

Spin contamination: 27.251530 electrons
Showing only first 2 kpts
                      Up                     Down
 Kpt  Band  Eigenvalues  Occupancy  Eigenvalues  Occupancy
  0   508      9.50394    0.99663     10.48441    0.01608
  0   509      9.52412    0.99588     10.49759    0.01412
  0   510      9.53315    0.99550     10.51096    0.01238
  0   511      9.54635    0.99487     10.51810    0.01153

  1   508      9.51061    0.99640     10.47832    0.01707
  1   509      9.52093    0.99601     10.48409    0.01613
  1   510      9.52918    0.99567     10.50389    0.01327
  1   511      9.54841    0.99476     10.50738    0.01282

Fermi level: 10.07302

No gap

Forces in eV/Ang:
  0 Cr    0.05582   -0.41710   -0.97110
  1 Al   -0.42864    0.56221    0.13846
  2 Cr    0.73452   -0.65605    0.02195
  3 Co    0.38471    0.03611   -0.19995
  4 Fe   -0.32291    0.15484    0.30778
  5 Cr   -0.46369    0.11173   -0.59778
  6 Ni   -0.13115    0.04574   -0.12543
  7 Fe    0.11782   -0.07748    0.20001
  8 Cr    0.55296    0.14533    0.21134
  9 Co    0.29167    0.00141   -0.10524
 10 Ni   -0.18204   -0.07637    0.00592
 11 Fe   -0.33218   -0.19110   -0.18134
 12 Co   -0.07727    0.36381   -0.30103
 13 Co    0.05968   -0.11827    0.05080
 14 Fe    0.22325    0.30009   -0.13279
 15 Fe   -0.19850    0.05018   -0.39592
 16 Fe    0.16792    0.04563   -0.34029
 17 Fe    0.29323    0.09749    0.32274
 18 Cr    0.02442    0.30679   -0.46416
 19 Co   -0.58570   -0.11168    0.03737
 20 Fe   -0.05864    0.33353   -0.01260
 21 Ni    0.01010   -0.11544    0.22954
 22 Co   -0.21325    0.26541    0.01528
 23 Cr    0.84159   -0.82936   -0.03884
 24 Cr    0.08359    0.05889    0.03782
 25 Ni    0.07240    0.11731   -0.03380
 26 Fe   -0.05295    0.06262    0.24979
 27 Ni   -0.04669    0.08926    0.01925
 28 Co    0.20332   -0.20749    0.02926
 29 Co   -0.16166    0.10230    0.09494
 30 Co   -0.21961   -0.08187    0.17050
 31 Cr   -0.43202    0.07894    0.60889
 32 Al   -0.56875   -0.79568    0.15450
 33 Cr   -0.04592    0.29552    0.86786
 34 Cr    0.20474   -0.34573    0.26127
 35 Cr    0.54598    0.64665   -0.04859
 36 Fe    0.16814   -0.15999    0.39785
 37 Co   -0.04215    0.09299    0.11131
 38 Cr    0.05988   -0.19344   -0.19223
 39 Fe    0.43169   -0.11904    0.41645
 40 Co   -0.37786   -0.24427   -0.07550
 41 Ni   -0.07434    0.14965    0.12401
 42 Ni   -0.07633    0.07105    0.16255
 43 Al    0.45576   -0.74496    0.52249
 44 Fe    0.43791    0.21995   -0.40554
 45 Co    0.17816    0.13216    0.12941
 46 Fe    0.16177    0.27295    0.22398
 47 Ni   -0.21782   -0.01694    0.07670
 48 Fe   -0.10500    0.16167    0.33815
 49 Fe    0.03799   -0.19648    0.20505
 50 Ni    0.15287    0.07879    0.12656
 51 Ni    0.27197   -0.08541   -0.05365
 52 Cr   -0.81207    0.35794   -0.09144
 53 Co   -0.02401   -0.09619   -0.10167
 54 Fe   -0.10551    0.05858    0.32278
 55 Cr   -0.06685    0.16405   -0.04256
 56 Co    0.18612    0.14139    0.00286
 57 Fe    0.00117    0.20900    0.19737
 58 Ni   -0.06649   -0.10931    0.01602
 59 Fe   -0.05017   -0.04233   -0.20902
[...]
 93 Ni    0.03102    0.13678   -0.04076
 94 Co    0.09972   -0.15751   -0.03670
 95 Cr   -0.05548   -0.12778    0.03501
 96 Fe   -0.08377   -0.01098    0.07813
 97 Ni    0.07404    0.17832    0.00309
 98 Ni    0.11026   -0.10971   -0.04028
 99 Fe    0.28054    0.17804    0.11511
100 Ni    0.02617   -0.02267    0.04750
101 Cr   -0.95986   -0.40371    0.04812
102 Cr   -0.23545   -0.09262   -0.69317
103 Cr   -0.62129   -0.30670   -0.02343
104 Co   -0.19911   -0.33636    0.54250
105 Fe    0.41592   -0.02848   -0.50967
106 Cr    0.21032    0.15339   -0.53700
107 Ni    0.08637    0.14656    0.20382

Date: Sat Apr  8 10:17:29 2023