User:   c.zeng@d0114
Date:   Sat Apr 15 07:58:24 2023
Arch:   x86_64
Pid:    276165
CWD:    /home/c.zeng/projects/hea-corrosion/hea-mlp/data-curation/bulk-mcmc/dft-jobs/23
Python: 3.8.1
gpaw:   /home/c.zeng/usr/installs/gpaw/source/gpaw-22.8.0/gpaw
_gpaw:  /home/c.zeng/usr/installs/gpaw/source/gpaw-22.8.0/
        _gpaw.cpython-38-x86_64-linux-gnu.so
ase:    /home/c.zeng/.local/lib/python3.8/site-packages/ase-3.22.1-py3.8.egg/ase (version 3.22.1)
numpy:  /shared/centos7/python/3.8.1/lib/python3.8/site-packages/numpy (version 1.17.4)
scipy:  /shared/centos7/python/3.8.1/lib/python3.8/site-packages/scipy (version 1.4.1)
units:  Angstrom and eV
cores: 30
OpenMP: False
OMP_NUM_THREADS: 1

Input parameters:
  convergence: {energy: 0.0001}
  kpts: [2 2 2]
  maxiter: 666
  mode: {ecut: 350.0,
         name: pw}
  occupations: {fixmagmom: False,
                name: fermi-dirac,
                width: 0.1}
  spinpol: True
  xc: PBE

System changes: positions, numbers, cell, pbc, initial_charges, initial_magmoms

Initialize ...

species:
  Co:
    name: Cobalt
    id: 339d20d5b0b93d2de9531a1bee871d91
    Z: 27.0
    valence: 9
    core: 18
    charge: 0.0
    file: /home/c.zeng/usr/data/gpaw-setups-0.9.20000/Co.PBE.gz
    compensation charges: {type: gauss,
                           rc: 0.32,
                           lmax: 2}
    cutoffs: {filter: 1.87,
              core: 2.55}
    valence states:
      #              energy  rcut
      - 4s(2.00)    -5.469   1.005
      - 4p(0.00)    -1.277   1.058
      - 3d(7.00)    -8.205   1.005
      -  s          21.742   1.005
      -  p          25.934   1.058
      -  d          19.007   1.005

    # Using partial waves for Co as LCAO basis

  Fe:
    name: Iron
    id: 37abbd8d6c3c35915a9b583b742da910
    Z: 26.0
    valence: 8
    core: 18
    charge: 0.0
    file: /home/c.zeng/usr/data/gpaw-setups-0.9.20000/Fe.PBE.gz
    compensation charges: {type: gauss,
                           rc: 0.33,
                           lmax: 2}
    cutoffs: {filter: 2.06,
              core: 2.67}
    valence states:
      #              energy  rcut
      - 4s(2.00)    -5.291   1.164
      - 4p(0.00)    -1.326   1.058
      - 3d(6.00)    -7.505   1.058
      -  s          21.920   1.164
      -  p          25.885   1.058
      -  d          19.706   1.058

[...]

  Cr:
    name: Chromium
    id: 33f258bda2ca9f93018e70263a35547b
    Z: 24.0
    valence: 6
    core: 18
    charge: 0.0
    file: /home/c.zeng/usr/data/gpaw-setups-0.9.20000/Cr.PBE.gz
    compensation charges: {type: gauss,
                           rc: 0.35,
                           lmax: 2}
    cutoffs: {filter: 2.14,
              core: 3.04}
    valence states:
      #              energy  rcut
      - 4s(1.00)    -4.007   1.164
      - 4p(0.00)    -0.989   1.217
      - 3d(5.00)    -2.913   1.111
      -  s          23.205   1.164
      -  p          26.223   1.217
      -  d          24.299   1.111

[...]

  Ni:
    name: Nickel
    id: 0d9f38a9d6e76a2886f07bb4381f212b
    Z: 28.0
    valence: 16
    core: 12
    charge: 0.0
    file: /home/c.zeng/usr/data/gpaw-setups-0.9.20000/Ni.PBE.gz
    compensation charges: {type: gauss,
                           rc: 0.36,
                           lmax: 2}
    cutoffs: {filter: 2.14,
              core: 1.98}
    valence states:
      #              energy  rcut
      - 4s(2.00)    -5.642   1.164
      - 3p(6.00)   -71.394   1.207
      - 4p(0.00)    -1.226   1.207
      - 3d(8.00)    -8.875   1.138
      -  s          21.570   1.164
      -  d          18.337   1.138

    # Using partial waves for Ni as LCAO basis

Reference energy: -3846758.590871  # eV

Spin-polarized calculation.
Magnetic moment: 151.200000

Convergence criteria:
 Maximum [total energy] change in last 3 cyles: 0.0001 eV / electron
 Maximum integral of absolute [dens]ity change: 0.0001 electrons / valence electron
 Maximum integral of absolute [eigenst]ate change: 4e-08 eV^2 / valence electron
 Maximum number of scf [iter]ations: 666
 (Square brackets indicate name in SCF output, whereas a 'c' in
 the SCF output indicates the quantity has converged.)

Symmetries present (total): 1

  ( 1  0  0)
  ( 0  1  0)
  ( 0  0  1)

8 k-points: 2 x 2 x 2 Monkhorst-Pack grid
4 k-points in the irreducible part of the Brillouin zone
       k-points in crystal coordinates                weights
   0:     0.25000000   -0.25000000   -0.25000000          2/8
   1:     0.25000000   -0.25000000    0.25000000          2/8
   2:     0.25000000    0.25000000   -0.25000000          2/8
   3:     0.25000000    0.25000000    0.25000000          2/8

Wave functions: Plane wave expansion
  Cutoff energy: 350.000 eV
  Number of coefficients (min, max): 17755, 17755
  Pulay-stress correction: 0.000000 eV/Ang^3 (de/decut=0.000000)
  Using FFTW library
  ScaLapack parameters: grid=1x1, blocksize=None
  Wavefunction extrapolation:
    Improved wavefunction reuse through dual PAW basis

Occupation numbers: Fermi-Dirac:
  width: 0.1000  # eV

Eigensolver
   Davidson(niter=2)

Densities:
  Coarse grid: 48*48*48 grid
  Fine grid: 96*96*96 grid
  Total Charge: 0.000000

Density mixing:
  Method: difference
  Backend: pulay
  Linear mixing parameter: 0.05
  old densities: 5
  Damping of long wavelength oscillations: 50

Hamiltonian:
  XC and Coulomb potentials evaluated on a 96*96*96 grid
  Using the PBE Exchange-Correlation functional
  External potential:
    NoExternalPotential

XC parameters: PBE with 2 nearest neighbor stencil

Total number of cores used: 30
Parallelization over k-points: 2
Domain decomposition: 5 x 3 x 1

Number of atoms: 108
Number of atomic orbitals: 1053
Number of bands in calculation: 727
Number of valence electrons: 1053
Bands to converge: occupied

... initialized

Initializing position-dependent things.

Density initialized from atomic densities
Creating initial wave functions:
  727 bands from LCAO basis set

       /|  Cr       Cr      Cr    |
      / |   NiFe     Ni           |
     /  |       Co      Fe       Fe
    /   |Cr      CFe       Co     Ni
   /    | Co       Ni       CFe   |
  /  CCo|  FeCr     CoNi          |
 *    CrNi    FeNi   FeCrCo       |
 |      |CoCr   FeFeNi  CoNiFe   Ni
 |      | CrCo     CoCrFeNiNiCr   |
 |    Co|  CoFeCr   CoCrFe   CrCo |
 |      Cr    NiNiCr CrNiNi     Ni|
 |      |FeFe  CoFeNi   FeCrFe   Ni
 |      .-FeCo-----NiCrFe--NiCr---Co
 |   Cro     Fe       Cr         /
 |    CrCo     Coi     CNie     /
 |   /    Co               Cr  /
 |  /      Fe       Fe    NiFe/
 | / Fe     Ni       CrNi    /
 |/            Co       Cr  /
 *--------Co------Co-------*

Positions:
   0 Co    -0.012479   -0.003723   10.616104    ( 0.0000,  0.0000,  2.1000)
   1 Fe    -0.011321    1.761305    1.763386    ( 0.0000,  0.0000,  2.1000)
   2 Fe     1.758365    0.001326    1.769011    ( 0.0000,  0.0000,  2.0000)
   3 Co     1.752686    1.779222   10.610436    ( 0.0000,  0.0000,  2.0000)
   4 Co     3.541196    0.004726   10.616104    ( 0.0000,  0.0000,  0.0000)
   5 Fe     3.534711    1.782438    1.778999    ( 0.0000,  0.0000,  0.0000)
   6 Cr     5.305717   10.600629    1.767950    ( 0.0000,  0.0000,  2.1000)
   7 Co     5.324780    1.765604   10.614618    ( 0.0000,  0.0000,  0.0000)
   8 Co     7.089121    0.014598   10.619926    ( 0.0000,  0.0000,  2.0000)
   9 Fe     7.085279    1.771219    1.773543    ( 0.0000,  0.0000,  1.5000)
  10 Ni     8.850554    0.011470    1.768756    ( 0.0000,  0.0000,  1.5000)
  11 Cr     8.842381    1.777333   10.615680    ( 0.0000,  0.0000,  2.1000)
  12 Fe    10.590535    3.538203   -0.001956    ( 0.0000,  0.0000,  0.0000)
  13 Ni    10.624277    5.310674    1.769786    ( 0.0000,  0.0000,  2.0000)
  14 Co     1.761379    3.535623    1.784572    ( 0.0000,  0.0000,  0.0000)
  15 Cr     1.770200    5.301408   10.611753    ( 0.0000,  0.0000,  2.0000)
  16 Ni     3.556003    3.551407   10.618333    ( 0.0000,  0.0000,  1.5000)
  17 Fe     3.539370    5.311290    1.775199    ( 0.0000,  0.0000,  2.1000)
  18 Ni     5.320142    3.545059    1.779678    ( 0.0000,  0.0000,  1.5000)
  19 Fe     5.306980    5.314654   10.602720    ( 0.0000,  0.0000,  0.0000)
  20 Cr     7.081585    3.529127   10.614725    ( 0.0000,  0.0000,  2.1000)
  21 Cr     7.069241    5.303361    1.781271    ( 0.0000,  0.0000,  1.5000)
  22 Fe     8.841447    3.542671    1.781600    ( 0.0000,  0.0000,  2.1000)
  23 Ni     8.850893    5.290379    0.000220    ( 0.0000,  0.0000,  0.0000)
  24 Cr     0.005868    7.083411   10.614937    ( 0.0000,  0.0000,  2.0000)
  25 Ni    10.601043    8.849694    1.772960    ( 0.0000,  0.0000,  2.1000)
  26 Fe     1.773713    7.072329    1.777184    ( 0.0000,  0.0000,  0.0000)
  27 Cr     1.755520    8.842943   10.608324    ( 0.0000,  0.0000,  0.0000)
  28 Fe     3.544009    7.063116   10.610489    ( 0.0000,  0.0000,  2.0000)
  29 Co     3.542225    8.826820    1.785580    ( 0.0000,  0.0000,  0.0000)
  30 Ni     5.309835    7.081776    1.776600    ( 0.0000,  0.0000,  2.1000)
  31 Cr     5.331945    8.840321   10.604673    ( 0.0000,  0.0000,  2.1000)
  32 Co     7.068434    7.069028   10.623110    ( 0.0000,  0.0000,  0.0000)
  33 Fe     7.083750    8.846796    1.774509    ( 0.0000,  0.0000,  1.5000)
  34 Ni     8.841404    7.058180    1.777173    ( 0.0000,  0.0000,  1.5000)
  35 Cr     8.835524    8.853600   10.611753    ( 0.0000,  0.0000,  0.0000)
  36 Cr    -0.009351   10.618864    3.531070    ( 0.0000,  0.0000,  2.0000)
  37 Fe    10.602508    1.764818    5.300452    ( 0.0000,  0.0000,  1.5000)
  38 Cr     1.756720    0.001379    5.295867    ( 0.0000,  0.0000,  0.0000)
  39 Co     1.766506    1.767154    3.539222    ( 0.0000,  0.0000,  2.0000)
  40 Co     3.539742    0.013881    3.542873    ( 0.0000,  0.0000,  2.0000)
  41 Fe     3.548944    1.788658    5.306237    ( 0.0000,  0.0000,  2.1000)
  42 Fe     5.320174   -0.004685    5.301386    ( 0.0000,  0.0000,  0.0000)
  43 Co     5.316862    1.765551    3.538935    ( 0.0000,  0.0000,  2.0000)
  44 Ni     7.081086   -0.000289    3.531325    ( 0.0000,  0.0000,  2.0000)
  45 Ni     7.072902    1.777407    5.300537    ( 0.0000,  0.0000,  2.0000)
  46 Fe     8.840544    0.012372    5.307851    ( 0.0000,  0.0000,  1.5000)
  47 Ni     8.833592    1.767928    3.534318    ( 0.0000,  0.0000,  2.1000)
  48 Cr    -0.004066    3.525285    3.545951    ( 0.0000,  0.0000,  0.0000)
  49 Co    -0.001689    5.317934    5.307787    ( 0.0000,  0.0000,  1.5000)
  50 Cr     1.769043    3.555101    5.297279    ( 0.0000,  0.0000,  2.0000)
  51 Fe     1.773692    5.305929    3.538266    ( 0.0000,  0.0000,  2.1000)
  52 Co     3.542746    3.537364    3.547575    ( 0.0000,  0.0000,  2.1000)
  53 Fe     3.548477    5.306927    5.301153    ( 0.0000,  0.0000,  2.0000)
  54 Ni     5.316246    3.553031    5.303637    ( 0.0000,  0.0000,  2.0000)
  55 Fe     5.303286    5.303531    3.542385    ( 0.0000,  0.0000,  1.5000)
  56 Cr     7.074962    3.533023    3.537215    ( 0.0000,  0.0000,  1.5000)
  57 Cr     7.066046    5.306046    5.300081    ( 0.0000,  0.0000,  2.0000)
  58 Ni     8.834526    3.538160    5.294530    ( 0.0000,  0.0000,  2.1000)
  59 Cr     8.846255    5.300452    3.537672    ( 0.0000,  0.0000,  1.5000)
[...]
  93 Ni     7.071130    5.304220    8.839313    ( 0.0000,  0.0000,  1.5000)
  94 Co     8.837997    3.524669    8.843389    ( 0.0000,  0.0000,  1.5000)
  95 Ni     8.833772    5.299051    7.076862    ( 0.0000,  0.0000,  0.0000)
  96 Cr     0.012168    7.080333    7.083835    ( 0.0000,  0.0000,  1.5000)
  97 Fe    -0.017034    8.848707    8.843941    ( 0.0000,  0.0000,  2.1000)
  98 Co     1.777938    7.075503    8.840194    ( 0.0000,  0.0000,  2.0000)
  99 Fe     1.758800    8.840035    7.069803    ( 0.0000,  0.0000,  0.0000)
 100 Fe     3.549921    7.066194    7.070090    ( 0.0000,  0.0000,  2.1000)
 101 Co     3.553137    8.839111    8.836776    ( 0.0000,  0.0000,  0.0000)
 102 Ni     5.304189    7.079929    8.840215    ( 0.0000,  0.0000,  2.0000)
 103 Co     5.321946    8.832180    7.082997    ( 0.0000,  0.0000,  2.1000)
 104 Cr     7.057077    7.072149    7.064167    ( 0.0000,  0.0000,  1.5000)
 105 Fe     7.082402    8.855500    8.837487    ( 0.0000,  0.0000,  2.1000)
 106 Co     8.846786    7.077881    8.846732    ( 0.0000,  0.0000,  0.0000)
 107 Cr     8.839313    8.848272    7.075153    ( 0.0000,  0.0000,  0.0000)

Unit cell:
           periodic     x           y           z      points  spacing
  1. axis:    yes   10.614300    0.000000    0.000000    48     0.2211
  2. axis:    yes    0.000000   10.614300    0.000000    48     0.2211
  3. axis:    yes    0.000000    0.000000   10.614300    48     0.2211

  Lengths:  10.614300  10.614300  10.614300
  Angles:   90.000000  90.000000  90.000000

Effective grid spacing dv^(1/3) = 0.2211

     iter     time        total  log10-change:  magmom
                         energy  eigst   dens
iter:   1 08:05:00  -955.076992                  +151.1292
iter:   2 08:08:03  -945.559582  -0.57  -1.38    +114.3694
iter:   3 08:11:06  -920.730222  -0.98  -1.33    +84.5381
iter:   4 08:14:09  -895.796403  -1.36  -1.38    +70.9278
iter:   5 08:17:11  -891.697600  -1.93  -1.49    +63.2710
iter:   6 08:20:14  -895.929898  -1.92  -1.53    +59.2464
iter:   7 08:23:15  -899.838729  -1.63  -1.55    +57.3118
iter:   8 08:26:17  -889.160326  -1.78  -1.56    +55.2206
iter:   9 08:29:21  -903.155917  -1.76  -1.75    +54.3509
iter:  10 08:32:24  -888.092705  -1.87  -1.62    +52.8763
iter:  11 08:35:27  -887.247573  -2.53  -1.89    +52.6035
iter:  12 08:38:30  -887.550491  -2.72  -1.95    +53.0170
iter:  13 08:41:33  -888.897546  -2.69  -1.99    +53.4008
iter:  14 08:44:36  -888.828978  -2.69  -1.98    +53.6537
iter:  15 08:47:37  -890.254403  -2.59  -2.01    +54.0253
iter:  16 08:50:39  -891.662250  -2.42  -2.03    +54.6435
iter:  17 08:53:42  -889.925832  -2.61  -1.96    +54.4783
iter:  18 08:56:45  -889.490585  -2.81  -2.14    +54.8246
iter:  19 08:59:48  -890.153078  -2.84  -2.23    +55.3258
iter:  20 09:02:51  -889.666173  -2.95  -2.16    +55.6985
iter:  21 09:05:54  -889.534485  -3.27  -2.24    +56.2139
iter:  22 09:08:58  -889.696831  -3.27  -2.33    +56.6908
iter:  23 09:12:01  -889.640590  -3.63  -2.32    +57.2420
iter:  24 09:15:03  -889.844431  -3.50  -2.38    +57.7988
iter:  25 09:18:03  -890.046964  -3.52  -2.39    +58.1518
iter:  26 09:21:06  -890.305183  -3.20  -2.41    +58.6365
iter:  27 09:24:09  -890.349836  -3.28  -2.40    +58.9201
iter:  28 09:27:12  -890.579683  -3.14  -2.40    +59.3350
iter:  29 09:30:15  -890.436144  -3.32  -2.40    +59.3671
iter:  30 09:33:18  -890.331828  -3.59  -2.46    +59.7685
iter:  31 09:36:22  -890.353336c -3.84  -2.55    +59.9965
iter:  32 09:39:23  -890.415404c -4.11  -2.58    +60.3707
iter:  33 09:42:24  -890.534357  -3.87  -2.61    +60.7892
iter:  34 09:45:27  -890.610489  -3.82  -2.61    +61.0366
iter:  35 09:48:31  -890.726080  -3.78  -2.66    +60.9575
iter:  36 09:51:34  -890.777019  -3.62  -2.60    +61.0096
iter:  37 09:54:36  -890.729424c -3.70  -2.67    +61.2226
iter:  38 09:57:40  -890.728178c -3.97  -2.77    +61.1158
iter:  39 10:00:42  -890.708357c -4.23  -2.81    +61.0087
iter:  40 10:03:44  -890.702490c -4.39  -2.92    +60.9771
iter:  41 10:06:47  -890.702896c -4.74  -2.94    +61.0037
iter:  42 10:09:50  -890.706048c -5.10  -3.00    +60.9758
iter:  43 10:12:53  -890.724602c -4.79  -3.05    +60.8782
iter:  44 10:15:53  -890.740032c -4.57  -3.06    +60.8917
iter:  45 10:18:55  -890.734368c -4.65  -3.01    +60.8474
iter:  46 10:21:57  -890.748521c -4.49  -3.16    +60.7567
iter:  47 10:25:01  -890.740015c -4.64  -3.13    +60.7175
iter:  48 10:28:04  -890.745622c -4.74  -3.24    +60.6871
iter:  49 10:31:06  -890.741427c -5.11  -3.24    +60.6970
iter:  50 10:34:10  -890.744078c -5.35  -3.36    +60.6121
iter:  51 10:37:13  -890.746815c -5.66  -3.43    +60.5651
iter:  52 10:40:16  -890.757798c -5.06  -3.45    +60.4582
iter:  53 10:43:18  -890.756989c -5.73  -3.34    +60.4602
iter:  54 10:46:18  -890.761736c -5.40  -3.38    +60.4308
iter:  55 10:49:20  -890.763478c -5.27  -3.37    +60.4163
iter:  56 10:52:24  -890.764512c -5.25  -3.39    +60.3680
iter:  57 10:55:27  -890.762754c -5.34  -3.49    +60.3596
iter:  58 10:58:30  -890.764231c -5.87  -3.81    +60.3589
iter:  59 11:01:33  -890.765556c -6.02  -3.80    +60.3494
iter:  60 11:04:36  -890.767846c -5.81  -3.87    +60.3456
iter:  61 11:07:38  -890.773555c -5.16  -3.87    +60.3527
iter:  62 11:10:39  -890.774766c -5.85  -3.76    +60.3733
iter:  63 11:13:42  -890.774342c -6.27  -3.73    +60.3571
iter:  64 11:16:45  -890.775030c -6.20  -3.74    +60.3693
iter:  65 11:19:48  -890.775753c -6.47  -3.77    +60.3824
iter:  66 11:22:50  -890.777111c -5.78  -3.76    +60.3803
iter:  67 11:25:53  -890.776600c -6.06  -3.62    +60.3855
iter:  68 11:28:55  -890.777305c -6.26  -3.79    +60.3896
iter:  69 11:31:55  -890.777874c -6.27  -3.85    +60.4046
iter:  70 11:34:58  -890.778983c -5.85  -3.84    +60.4106
iter:  71 11:38:01  -890.779545c -6.07  -3.91    +60.4334
iter:  72 11:41:03  -890.779555c -6.59  -3.90    +60.4337
iter:  73 11:44:06  -890.780232c -6.33  -3.99    +60.4505
iter:  74 11:47:08  -890.780580c -6.47  -4.01c   +60.4590
iter:  75 11:50:10  -890.781317c -6.33  -4.06c   +60.4744
iter:  76 11:53:09  -890.781594c -6.58  -4.09c   +60.4850
iter:  77 11:56:12  -890.781966c -6.41  -4.06c   +60.4936
iter:  78 11:59:15  -890.782485c -6.51  -4.13c   +60.5035
iter:  79 12:02:17  -890.783113c -6.48  -4.15c   +60.5266
iter:  80 12:05:20  -890.783167c -6.81  -4.23c   +60.5291
iter:  81 12:08:23  -890.783548c -6.54  -4.19c   +60.5458
iter:  82 12:11:24  -890.784097c -6.53  -4.31c   +60.5546
iter:  83 12:14:25  -890.784565c -6.55  -4.43c   +60.5684
iter:  84 12:17:28  -890.784721c -6.89  -4.43c   +60.5747
iter:  85 12:20:31  -890.785092c -6.71  -4.49c   +60.5860
iter:  86 12:23:34  -890.785727c -6.43  -4.48c   +60.6004
iter:  87 12:26:36  -890.785964c -6.85  -4.50c   +60.6086
iter:  88 12:29:39  -890.788694c -5.34  -4.48c   +60.6948
iter:  89 12:32:40  -890.785198c -5.31  -4.19c   +60.5843
iter:  90 12:35:40  -890.786020c -6.90  -4.61c   +60.6089
iter:  91 12:38:43  -890.785003c -6.24  -4.46c   +60.5782
iter:  92 12:41:45  -890.785401c -7.20  -4.63c   +60.5927
iter:  93 12:44:48  -890.785635c -7.20  -4.59c   +60.5979
iter:  94 12:47:50  -890.785677c -7.46c -4.52c   +60.5965

Converged after 94 iterations.

Dipole moment: (6.493079, -1.862597, 0.761043) |e|*Ang

Total magnetic moment: (0.000000, 0.000000, 60.596453)
Local magnetic moments:
   0 Co ( 0.000000,  0.000000,  1.162270)
   1 Fe ( 0.000000,  0.000000,  2.112804)
   2 Fe ( 0.000000,  0.000000,  2.269204)
   3 Co ( 0.000000,  0.000000,  1.438396)
   4 Co ( 0.000000,  0.000000,  1.080666)
   5 Fe ( 0.000000,  0.000000,  2.394521)
   6 Cr ( 0.000000,  0.000000, -1.545482)
   7 Co ( 0.000000,  0.000000,  1.168892)
   8 Co ( 0.000000,  0.000000,  0.829675)
   9 Fe ( 0.000000,  0.000000,  2.127287)
  10 Ni ( 0.000000,  0.000000,  0.138150)
  11 Cr ( 0.000000,  0.000000, -1.571362)
  12 Fe ( 0.000000,  0.000000,  2.284319)
  13 Ni ( 0.000000,  0.000000,  0.200627)
  14 Co ( 0.000000,  0.000000,  1.273135)
  15 Cr ( 0.000000,  0.000000, -1.452563)
  16 Ni ( 0.000000,  0.000000,  0.353395)
  17 Fe ( 0.000000,  0.000000,  2.222995)
  18 Ni ( 0.000000,  0.000000,  0.254477)
  19 Fe ( 0.000000,  0.000000,  2.188469)
  20 Cr ( 0.000000,  0.000000, -1.283472)
  21 Cr ( 0.000000,  0.000000, -0.271058)
  22 Fe ( 0.000000,  0.000000,  1.459764)
  23 Ni ( 0.000000,  0.000000,  0.181061)
  24 Cr ( 0.000000,  0.000000,  1.030167)
  25 Ni ( 0.000000,  0.000000,  0.109861)
  26 Fe ( 0.000000,  0.000000,  2.079968)
  27 Cr ( 0.000000,  0.000000, -1.619471)
  28 Fe ( 0.000000,  0.000000,  1.963676)
  29 Co ( 0.000000,  0.000000,  1.274574)
  30 Ni ( 0.000000,  0.000000,  0.354616)
  31 Cr ( 0.000000,  0.000000, -1.564890)
  32 Co ( 0.000000,  0.000000,  1.151643)
  33 Fe ( 0.000000,  0.000000,  2.091022)
  34 Ni ( 0.000000,  0.000000,  0.104375)
  35 Cr ( 0.000000,  0.000000, -1.488991)
  36 Cr ( 0.000000,  0.000000, -1.336293)
  37 Fe ( 0.000000,  0.000000,  1.596375)
  38 Cr ( 0.000000,  0.000000, -1.669947)
  39 Co ( 0.000000,  0.000000,  0.873274)
  40 Co ( 0.000000,  0.000000,  1.215421)
  41 Fe ( 0.000000,  0.000000,  2.179626)
  42 Fe ( 0.000000,  0.000000,  2.180715)
  43 Co ( 0.000000,  0.000000,  1.202234)
  44 Ni ( 0.000000,  0.000000,  0.361815)
  45 Ni ( 0.000000,  0.000000,  0.152839)
  46 Fe ( 0.000000,  0.000000,  1.900494)
  47 Ni ( 0.000000,  0.000000,  0.204530)
  48 Cr ( 0.000000,  0.000000, -1.403482)
  49 Co ( 0.000000,  0.000000,  0.386471)
  50 Cr ( 0.000000,  0.000000, -1.394762)
  51 Fe ( 0.000000,  0.000000,  2.061277)
  52 Co ( 0.000000,  0.000000,  1.187657)
  53 Fe ( 0.000000,  0.000000,  2.129280)
  54 Ni ( 0.000000,  0.000000,  0.256391)
  55 Fe ( 0.000000,  0.000000,  1.980918)
  56 Cr ( 0.000000,  0.000000, -1.182578)
  57 Cr ( 0.000000,  0.000000,  0.593510)
  58 Ni ( 0.000000,  0.000000,  0.056091)
  59 Cr ( 0.000000,  0.000000,  0.783992)
[...]
  93 Ni ( 0.000000,  0.000000,  0.176539)
  94 Co ( 0.000000,  0.000000,  0.707616)
  95 Ni ( 0.000000,  0.000000,  0.064115)
  96 Cr ( 0.000000,  0.000000, -0.923251)
  97 Fe ( 0.000000,  0.000000,  1.835815)
  98 Co ( 0.000000,  0.000000,  0.700725)
  99 Fe ( 0.000000,  0.000000,  2.154283)
 100 Fe ( 0.000000,  0.000000,  2.137176)
 101 Co ( 0.000000,  0.000000,  1.357057)
 102 Ni ( 0.000000,  0.000000,  0.304255)
 103 Co ( 0.000000,  0.000000,  1.313222)
 104 Cr ( 0.000000,  0.000000, -1.295127)
 105 Fe ( 0.000000,  0.000000,  1.902634)
 106 Co ( 0.000000,  0.000000,  0.467569)
 107 Cr ( 0.000000,  0.000000, -0.383586)

Energy contributions relative to reference atoms: (reference = -3846758.590871)

Kinetic:       +116.635042
Potential:     -183.989231
External:        +0.000000
XC:            -861.128652
Entropy (-ST):   -4.646004
Local:          +40.020166
Free energy:   -893.108679
Extrapolated:  -890.785677

Spin contamination: 33.169664 electrons
Showing only first 2 kpts
                      Up                     Down
 Kpt  Band  Eigenvalues  Occupancy  Eigenvalues  Occupancy
  0   524      9.86169    0.99305     10.70334    0.03064
  0   525      9.88370    0.99136     10.71385    0.02767
  0   526      9.90167    0.98967     10.72707    0.02432
  0   527      9.91484    0.98823     10.73617    0.02226

  1   524      9.86048    0.99313     10.70305    0.03073
  1   525      9.87561    0.99202     10.70714    0.02953
  1   526      9.89064    0.99074     10.72550    0.02470
  1   527      9.90041    0.98980     10.73877    0.02170

Fermi level: 10.35791

No gap

Forces in eV/Ang:
  0 Co    0.07200   -0.08183   -0.03166
  1 Fe    0.11103    0.14340    0.17888
  2 Fe    0.17793   -0.29784    0.00716
  3 Co    0.10500   -0.00850    0.02874
  4 Co   -0.00780   -0.17210   -0.08380
  5 Fe    0.14022    0.01697   -0.03949
  6 Cr   -0.09308    0.53629    0.25683
  7 Co   -0.09965    0.01858    0.08369
  8 Co   -0.19630   -0.22287   -0.05051
  9 Fe   -0.18656   -0.04069   -0.18257
 10 Ni   -0.14656   -0.11909   -0.01087
 11 Cr    0.22722   -0.24370   -0.04233
 12 Fe    0.29054    0.34272    0.09760
 13 Ni   -0.08011   -0.02502    0.02655
 14 Co   -0.00361   -0.02638   -0.06524
 15 Cr   -0.19501    0.14703    0.00780
 16 Ni   -0.14459   -0.15409   -0.07502
 17 Fe   -0.03882   -0.28990    0.05881
 18 Ni   -0.10915   -0.16697   -0.16078
 19 Fe    0.20882   -0.10204    0.09341
 20 Cr   -0.37967    0.08946    0.08837
 21 Cr    0.19360    0.33163    0.06825
 22 Fe   -0.02179   -0.06464   -0.04616
 23 Ni   -0.12237    0.02669   -0.16572
 24 Cr   -0.07033   -0.20723   -0.28734
 25 Ni    0.10419   -0.15477    0.10581
 26 Fe   -0.04712    0.36283    0.12764
 27 Cr    0.32551   -0.21266   -0.21800
 28 Fe   -0.10405    0.34358    0.04660
 29 Co   -0.08601    0.32832    0.15109
 30 Ni   -0.01442    0.02595   -0.02769
 31 Cr   -0.17720   -0.35335   -0.26499
 32 Co    0.16387    0.26949    0.16680
 33 Fe   -0.06773   -0.00617   -0.25037
 34 Ni   -0.06143    0.00382   -0.12763
 35 Cr   -0.01181    0.10768   -0.27547
 36 Cr    0.30087    0.33086   -0.20507
 37 Fe    0.28075    0.05628   -0.07577
 38 Cr    0.38913    0.14720    0.30224
 39 Co   -0.00620    0.12557    0.20256
 40 Co   -0.16615   -0.41809   -0.07787
 41 Fe   -0.33640   -0.18520   -0.13718
 42 Fe    0.32220   -0.11647   -0.18873
 43 Co   -0.30070    0.13424   -0.00139
 44 Ni   -0.09339   -0.13882    0.09876
 45 Ni    0.07420    0.04173    0.11648
 46 Fe   -0.05489   -0.08310   -0.05584
 47 Ni    0.17939    0.13580    0.06014
 48 Cr   -0.10298   -0.36141   -0.34326
 49 Co    0.01732   -0.10826   -0.03049
 50 Cr    0.45176   -0.06930    0.15825
 51 Fe   -0.27799   -0.29351    0.15596
 52 Co   -0.03987   -0.00886   -0.07936
 53 Fe   -0.03259   -0.12773   -0.00760
 54 Ni   -0.08792   -0.24248    0.03656
 55 Fe    0.13204    0.04098   -0.05981
 56 Cr   -0.05130    0.15042   -0.08498
 57 Cr   -0.12029    0.10980   -0.25715
 58 Ni    0.15927   -0.15323    0.15433
 59 Cr   -0.00123    0.37791    0.11994
[...]
 93 Ni    0.21279    0.05878    0.04434
 94 Co   -0.01505    0.34580    0.09086
 95 Ni    0.11833    0.11188    0.06053
 96 Cr   -0.28237   -0.37391    0.67556
 97 Fe   -0.01966    0.03053   -0.04800
 98 Co   -0.14453   -0.10826   -0.00803
 99 Fe    0.04092    0.05903    0.09297
100 Fe   -0.10966    0.07660    0.42488
101 Co   -0.09506    0.13840    0.05194
102 Ni    0.19978    0.03184    0.14972
103 Co   -0.02088    0.09970   -0.14412
104 Cr    0.01845    0.28012   -0.07493
105 Fe    0.09981   -0.11970    0.11558
106 Co    0.19388   -0.18427   -0.15601
107 Cr    0.12371    0.10804    0.07383

Date: Sat Apr 15 12:48:13 2023