User:   c.zeng@d0100
Date:   Sat Apr 15 10:26:38 2023
Arch:   x86_64
Pid:    147392
CWD:    /home/c.zeng/projects/hea-corrosion/hea-mlp/data-curation/bulk-mcmc/dft-jobs/249
Python: 3.8.1
gpaw:   /home/c.zeng/usr/installs/gpaw/source/gpaw-22.8.0/gpaw
_gpaw:  /home/c.zeng/usr/installs/gpaw/source/gpaw-22.8.0/
        _gpaw.cpython-38-x86_64-linux-gnu.so
ase:    /home/c.zeng/.local/lib/python3.8/site-packages/ase-3.22.1-py3.8.egg/ase (version 3.22.1)
numpy:  /shared/centos7/python/3.8.1/lib/python3.8/site-packages/numpy (version 1.17.4)
scipy:  /shared/centos7/python/3.8.1/lib/python3.8/site-packages/scipy (version 1.4.1)
units:  Angstrom and eV
cores: 30
OpenMP: False
OMP_NUM_THREADS: 1

Input parameters:
  convergence: {energy: 0.0001}
  kpts: [2 2 2]
  maxiter: 666
  mode: {ecut: 350.0,
         name: pw}
  occupations: {fixmagmom: False,
                name: fermi-dirac,
                width: 0.1}
  spinpol: True
  xc: PBE

System changes: positions, numbers, cell, pbc, initial_charges, initial_magmoms

Initialize ...

species:
  Ni:
    name: Nickel
    id: 0d9f38a9d6e76a2886f07bb4381f212b
    Z: 28.0
    valence: 16
    core: 12
    charge: 0.0
    file: /home/c.zeng/usr/data/gpaw-setups-0.9.20000/Ni.PBE.gz
    compensation charges: {type: gauss,
                           rc: 0.36,
                           lmax: 2}
    cutoffs: {filter: 2.14,
              core: 1.98}
    valence states:
      #              energy  rcut
      - 4s(2.00)    -5.642   1.164
      - 3p(6.00)   -71.394   1.207
      - 4p(0.00)    -1.226   1.207
      - 3d(8.00)    -8.875   1.138
      -  s          21.570   1.164
      -  d          18.337   1.138

    # Using partial waves for Ni as LCAO basis

  Al:
    name: Aluminium
    id: 0292cae29f5d6237e50f6abdd43a7bdd
    Z: 13.0
    valence: 3
    core: 10
    charge: 0.0
    file: /home/c.zeng/usr/data/gpaw-setups-0.9.20000/Al.PBE.gz
    compensation charges: {type: gauss,
                           rc: 0.34,
                           lmax: 2}
    cutoffs: {filter: 1.91,
              core: 2.36}
    valence states:
      #              energy  rcut
      - 3s(2.00)    -7.753   1.085
      - 3p(1.00)    -2.712   1.085
      -  s          19.459   1.085
      -  p          24.499   1.085
      -  d           0.000   1.085

[...]

  Co:
    name: Cobalt
    id: 339d20d5b0b93d2de9531a1bee871d91
    Z: 27.0
    valence: 9
    core: 18
    charge: 0.0
    file: /home/c.zeng/usr/data/gpaw-setups-0.9.20000/Co.PBE.gz
    compensation charges: {type: gauss,
                           rc: 0.32,
                           lmax: 2}
    cutoffs: {filter: 1.87,
              core: 2.55}
    valence states:
      #              energy  rcut
      - 4s(2.00)    -5.469   1.005
      - 4p(0.00)    -1.277   1.058
      - 3d(7.00)    -8.205   1.005
      -  s          21.742   1.005
      -  p          25.934   1.058
      -  d          19.007   1.005

[...]

  Cr:
    name: Chromium
    id: 33f258bda2ca9f93018e70263a35547b
    Z: 24.0
    valence: 6
    core: 18
    charge: 0.0
    file: /home/c.zeng/usr/data/gpaw-setups-0.9.20000/Cr.PBE.gz
    compensation charges: {type: gauss,
                           rc: 0.35,
                           lmax: 2}
    cutoffs: {filter: 2.14,
              core: 3.04}
    valence states:
      #              energy  rcut
      - 4s(1.00)    -4.007   1.164
      - 4p(0.00)    -0.989   1.217
      - 3d(5.00)    -2.913   1.111
      -  s          23.205   1.164
      -  p          26.223   1.217
      -  d          24.299   1.111

[...]

  Fe:
    name: Iron
    id: 37abbd8d6c3c35915a9b583b742da910
    Z: 26.0
    valence: 8
    core: 18
    charge: 0.0
    file: /home/c.zeng/usr/data/gpaw-setups-0.9.20000/Fe.PBE.gz
    compensation charges: {type: gauss,
                           rc: 0.33,
                           lmax: 2}
    cutoffs: {filter: 2.06,
              core: 2.67}
    valence states:
      #              energy  rcut
      - 4s(2.00)    -5.291   1.164
      - 4p(0.00)    -1.326   1.058
      - 3d(6.00)    -7.505   1.058
      -  s          21.920   1.164
      -  p          25.885   1.058
      -  d          19.706   1.058

    # Using partial waves for Fe as LCAO basis

Reference energy: -3235165.067515  # eV

Spin-polarized calculation.
Magnetic moment: 121.100000

Convergence criteria:
 Maximum [total energy] change in last 3 cyles: 0.0001 eV / electron
 Maximum integral of absolute [dens]ity change: 0.0001 electrons / valence electron
 Maximum integral of absolute [eigenst]ate change: 4e-08 eV^2 / valence electron
 Maximum number of scf [iter]ations: 666
 (Square brackets indicate name in SCF output, whereas a 'c' in
 the SCF output indicates the quantity has converged.)

Symmetries present (total): 1

  ( 1  0  0)
  ( 0  1  0)
  ( 0  0  1)

8 k-points: 2 x 2 x 2 Monkhorst-Pack grid
4 k-points in the irreducible part of the Brillouin zone
       k-points in crystal coordinates                weights
   0:     0.25000000   -0.25000000   -0.25000000          2/8
   1:     0.25000000   -0.25000000    0.25000000          2/8
   2:     0.25000000    0.25000000   -0.25000000          2/8
   3:     0.25000000    0.25000000    0.25000000          2/8

Wave functions: Plane wave expansion
  Cutoff energy: 350.000 eV
  Number of coefficients (min, max): 19084, 19084
  Pulay-stress correction: 0.000000 eV/Ang^3 (de/decut=0.000000)
  Using FFTW library
  ScaLapack parameters: grid=1x1, blocksize=None
  Wavefunction extrapolation:
    Improved wavefunction reuse through dual PAW basis

Occupation numbers: Fermi-Dirac:
  width: 0.1000  # eV

Eigensolver
   Davidson(niter=2)

Densities:
  Coarse grid: 48*48*48 grid
  Fine grid: 96*96*96 grid
  Total Charge: 0.000000

Density mixing:
  Method: difference
  Backend: pulay
  Linear mixing parameter: 0.05
  old densities: 5
  Damping of long wavelength oscillations: 50

Hamiltonian:
  XC and Coulomb potentials evaluated on a 96*96*96 grid
  Using the PBE Exchange-Correlation functional
  External potential:
    NoExternalPotential

XC parameters: PBE with 2 nearest neighbor stencil

Total number of cores used: 30
Parallelization over k-points: 2
Domain decomposition: 5 x 3 x 1

Number of atoms: 108
Number of atomic orbitals: 933
Number of bands in calculation: 624
Number of valence electrons: 912
Bands to converge: occupied

... initialized

Initializing position-dependent things.

Density initialized from atomic densities
Creating initial wave functions:
  624 bands from LCAO basis set

        .--------Al----------------.
       /|           Fe             |
      / |    FeFe     Ni           |
     / Cr       Ni       Al        |
    /   |Fe      CrCo       Fe     |
   /    | NiCr      ACo            |
  /    Co  FerAlAl    Co Fe  CoAl  |
 *      Fe     AlCoAl   CrFe     Cr|
 |      |FeCr   NiFeFe   AlNiNi   Co
 |      | CoCr   AlCoCoAl NiNiFe   |
 |     Fe  Al CoCo  CrCr Cr  CrCr  |
 |      Ni  Ni CrNiCo CoNiCoAl   Fe|
 |      |NiCo   CoAlAl   CoCrFe   Fe
 |      .-FeNi-----NiNi-Al--NiFe---.
 |     Al  Ni CoCr    Al Co  Ni Cr/
 |    / Co              Cr       Cr
 |   /           Ali      NiFe  /
 |  /      Cr       Fe     CrAl/
 | /                   Fe     /r
 *--------------------------Ni

Positions:
   0 Ni    10.797848    0.093654    0.085777    ( 0.0000,  0.0000,  0.0000)
   1 Al    10.831824    1.844742    1.870716    ( 0.0000,  0.0000,  2.0000)
   2 Ni     1.786803   10.847372    1.827335    ( 0.0000,  0.0000,  0.0000)
   3 Co     1.769614    1.870531   -0.031264    ( 0.0000,  0.0000,  0.0000)
   4 Al     3.620857   10.822050   10.833629    ( 0.0000,  0.0000,  1.5000)
   5 Cr     3.571246    1.883176    1.708402    ( 0.0000,  0.0000,  0.0000)
   6 Co     5.521103   10.788063    1.666217    ( 0.0000,  0.0000,  0.0000)
   7 Al     5.520831    1.813973   10.830911    ( 0.0000,  0.0000,  1.5000)
   8 Al     7.330846    0.011025   10.815657    ( 0.0000,  0.0000,  2.0000)
   9 Fe     7.282018    1.809483    1.793250    ( 0.0000,  0.0000,  2.1000)
  10 Fe     9.029996    0.022005    1.811918    ( 0.0000,  0.0000,  1.5000)
  11 Fe     9.007196    1.868639   10.825714    ( 0.0000,  0.0000,  2.0000)
  12 Cr    10.861310    3.649723    0.014171    ( 0.0000,  0.0000,  2.0000)
  13 Cr    10.867442    5.463468    1.819235    ( 0.0000,  0.0000,  2.1000)
  14 Co     1.756088    3.650267    1.845949    ( 0.0000,  0.0000,  0.0000)
  15 Fe     1.790358    5.439092   10.869084    ( 0.0000,  0.0000,  2.1000)
  16 Cr     3.687842    3.622792   -0.049287    ( 0.0000,  0.0000,  2.0000)
  17 Co     3.667347    5.391145    1.745368    ( 0.0000,  0.0000,  0.0000)
  18 Al     5.497977    3.634415    1.792370    ( 0.0000,  0.0000,  2.0000)
  19 Ni     5.524908    5.448029    0.002551    ( 0.0000,  0.0000,  2.0000)
  20 Co     7.223340    3.611877   10.834270    ( 0.0000,  0.0000,  0.0000)
  21 Al     7.217762    5.474830    1.807776    ( 0.0000,  0.0000,  2.1000)
  22 Ni     9.073442    3.654344    1.775148    ( 0.0000,  0.0000,  0.0000)
  23 Cr     9.008740    5.418608    0.007692    ( 0.0000,  0.0000,  2.0000)
  24 Cr    10.859190    7.178720    0.014480    ( 0.0000,  0.0000,  1.5000)
  25 Fe    -0.018106    8.970948    1.875391    ( 0.0000,  0.0000,  0.0000)
  26 Fe     1.817615    7.224025    1.802546    ( 0.0000,  0.0000,  1.5000)
  27 Ni     1.880729    8.993464   10.874031    ( 0.0000,  0.0000,  0.0000)
  28 Fe     3.684428    7.260447   -0.001356    ( 0.0000,  0.0000,  2.0000)
  29 Co     3.612616    9.025636    1.761807    ( 0.0000,  0.0000,  1.5000)
  30 Ni     5.481440    7.275114    1.811211    ( 0.0000,  0.0000,  1.5000)
  31 Fe     5.461261    9.048153   10.833988    ( 0.0000,  0.0000,  1.5000)
  32 Cr     7.245704    7.257881    0.056891    ( 0.0000,  0.0000,  2.1000)
  33 Co     7.301969    9.004609    1.790315    ( 0.0000,  0.0000,  0.0000)
  34 Ni     9.029343    7.181775    1.815549    ( 0.0000,  0.0000,  2.0000)
  35 Ni     9.030561    9.042010    0.020232    ( 0.0000,  0.0000,  1.5000)
  36 Fe    -0.031046    0.001947    3.645701    ( 0.0000,  0.0000,  2.0000)
  37 Fe    10.825910    1.804351    5.434602    ( 0.0000,  0.0000,  2.1000)
  38 Cr     1.743552   10.849296    5.484376    ( 0.0000,  0.0000,  0.0000)
  39 Al     1.769755    1.791891    3.636068    ( 0.0000,  0.0000,  1.5000)
  40 Al     3.516667   10.719828    3.663227    ( 0.0000,  0.0000,  0.0000)
  41 Co     3.644244    1.785205    5.586728    ( 0.0000,  0.0000,  0.0000)
  42 Al     5.484778   10.815439    5.504022    ( 0.0000,  0.0000,  0.0000)
  43 Cr     5.457934    1.842230    3.658769    ( 0.0000,  0.0000,  0.0000)
  44 Ni     7.360615   10.815439    3.672229    ( 0.0000,  0.0000,  0.0000)
  45 Al     7.266884    1.811614    5.485528    ( 0.0000,  0.0000,  2.1000)
  46 Al     9.077986    0.023590    5.491921    ( 0.0000,  0.0000,  0.0000)
  47 Co     9.066788    1.824226    3.671175    ( 0.0000,  0.0000,  1.5000)
  48 Fe    -0.047135    3.649615    3.617291    ( 0.0000,  0.0000,  2.0000)
  49 Cr    10.809264    5.435993    5.379805    ( 0.0000,  0.0000,  2.0000)
  50 Ni     1.752316    3.624989    5.344676    ( 0.0000,  0.0000,  0.0000)
  51 Ni     1.805786    5.472046    3.619389    ( 0.0000,  0.0000,  2.1000)
  52 Ni     3.649408    3.633491    3.631251    ( 0.0000,  0.0000,  2.1000)
  53 Co     3.657628    5.433797    5.434015    ( 0.0000,  0.0000,  1.5000)
  54 Ni     5.413368    3.672642    5.480309    ( 0.0000,  0.0000,  1.5000)
  55 Al     5.413835    5.465588    3.639666    ( 0.0000,  0.0000,  2.1000)
  56 Ni     7.223449    3.731734    3.720829    ( 0.0000,  0.0000,  0.0000)
  57 Cr     7.220557    5.483180    5.485572    ( 0.0000,  0.0000,  0.0000)
  58 Co     9.069039    3.623673    5.469720    ( 0.0000,  0.0000,  1.5000)
  59 Cr     9.064766    5.503837    3.636731    ( 0.0000,  0.0000,  0.0000)
[...]
  93 Co     7.214631    5.385893    9.048577    ( 0.0000,  0.0000,  2.1000)
  94 Fe     8.994291    3.655975    9.039237    ( 0.0000,  0.0000,  1.5000)
  95 Ni     9.006577    5.423262    7.223296    ( 0.0000,  0.0000,  2.0000)
  96 Cr    -0.070637    7.291956    7.110419    ( 0.0000,  0.0000,  0.0000)
  97 Cr     0.073012    9.104570    9.068375    ( 0.0000,  0.0000,  0.0000)
  98 Ni     1.863247    7.257381    9.054785    ( 0.0000,  0.0000,  2.0000)
  99 Fe     1.858343    9.053708    7.225808    ( 0.0000,  0.0000,  2.1000)
 100 Al     3.683906    7.292456    7.235550    ( 0.0000,  0.0000,  2.0000)
 101 Ni     3.628218    9.069550    9.051262    ( 0.0000,  0.0000,  2.1000)
 102 Co     5.530605    7.331890    9.040129    ( 0.0000,  0.0000,  0.0000)
 103 Al     5.476232    9.097209    7.250467    ( 0.0000,  0.0000,  2.0000)
 104 Cr     7.256827    7.264242    7.208456    ( 0.0000,  0.0000,  2.1000)
 105 Al     7.272548    9.136437    9.056861    ( 0.0000,  0.0000,  1.5000)
 106 Fe     8.936493    7.190875    9.109767    ( 0.0000,  0.0000,  0.0000)
 107 Co     8.994682    9.112169    7.218480    ( 0.0000,  0.0000,  0.0000)

Unit cell:
           periodic     x           y           z      points  spacing
  1. axis:    yes   10.872400    0.000000    0.000000    48     0.2265
  2. axis:    yes    0.000000   10.872400    0.000000    48     0.2265
  3. axis:    yes    0.000000    0.000000   10.872400    48     0.2265

  Lengths:  10.872400  10.872400  10.872400
  Angles:   90.000000  90.000000  90.000000

Effective grid spacing dv^(1/3) = 0.2265

     iter     time        total  log10-change:  magmom
                         energy  eigst   dens
iter:   1 10:30:43  -926.791394                  +120.1315
iter:   2 10:32:27  -844.906580  -0.26  -1.25    +80.6324
iter:   3 10:34:12  -837.213967  -0.76  -1.26    +47.2972
iter:   4 10:35:57  -814.265813  -1.15  -1.29    +45.0554
iter:   5 10:37:40  -809.890891  -1.65  -1.37    +41.0421
iter:   6 10:39:25  -811.545763  -1.62  -1.42    +39.9281
iter:   7 10:41:11  -805.137087  -1.51  -1.45    +39.6479
iter:   8 10:42:56  -804.367242  -1.81  -1.56    +40.3250
iter:   9 10:44:41  -806.089968  -1.89  -1.63    +40.5745
iter:  10 10:46:26  -803.597127  -2.07  -1.65    +40.9562
iter:  11 10:48:11  -803.653591  -2.21  -1.72    +41.8524
iter:  12 10:49:57  -802.402408  -2.34  -1.76    +42.7733
iter:  13 10:51:41  -803.666469  -2.39  -1.86    +43.7861
iter:  14 10:53:28  -803.350321  -2.42  -1.86    +44.9580
iter:  15 10:55:14  -803.641977  -2.51  -1.92    +45.8947
iter:  16 10:57:00  -804.242844  -2.40  -1.95    +46.6472
iter:  17 10:58:46  -803.556762  -2.64  -1.95    +47.3995
iter:  18 11:00:32  -803.467841  -2.68  -2.03    +48.2726
iter:  19 11:02:19  -803.336968  -2.95  -2.06    +48.9263
iter:  20 11:04:05  -803.572355  -2.88  -2.13    +49.4756
iter:  21 11:05:51  -803.399874  -3.09  -2.12    +50.1012
iter:  22 11:07:38  -803.689705  -3.09  -2.20    +50.5897
iter:  23 11:09:24  -803.848350  -3.05  -2.22    +50.9327
iter:  24 11:11:11  -804.170834  -2.94  -2.23    +51.1435
iter:  25 11:12:57  -803.953440  -3.16  -2.20    +51.5826
iter:  26 11:14:43  -804.108233  -3.22  -2.30    +51.9894
iter:  27 11:16:29  -804.136799  -3.27  -2.32    +52.1750
iter:  28 11:18:15  -804.147984c -3.54  -2.33    +52.4011
iter:  29 11:20:00  -804.322785  -3.48  -2.41    +52.8198
iter:  30 11:21:47  -804.380627  -3.64  -2.39    +53.0059
iter:  31 11:23:34  -804.436554  -3.58  -2.42    +53.2009
iter:  32 11:25:21  -804.499395  -3.58  -2.42    +53.4482
iter:  33 11:27:08  -804.729415  -3.32  -2.48    +53.7546
iter:  34 11:28:54  -804.565449  -3.53  -2.40    +53.8781
iter:  35 11:30:41  -804.747251  -3.37  -2.56    +53.9744
iter:  36 11:32:28  -804.634275  -3.55  -2.48    +54.0455
iter:  37 11:34:11  -804.677539  -3.58  -2.60    +54.3146
iter:  38 11:35:58  -804.594086c -4.08  -2.57    +54.4601
iter:  39 11:37:44  -804.631919c -4.11  -2.72    +54.5731
iter:  40 11:39:31  -804.622939c -4.41  -2.71    +54.7091
iter:  41 11:41:18  -804.645565c -4.54  -2.76    +54.9519
iter:  42 11:43:05  -804.688663c -4.28  -2.79    +55.2917
iter:  43 11:44:52  -804.758729  -3.88  -2.80    +55.2973
iter:  44 11:46:37  -804.708840c -4.09  -2.70    +55.4960
iter:  45 11:48:23  -804.727453c -4.15  -2.91    +55.7053
iter:  46 11:50:10  -804.736048c -4.27  -2.96    +55.8027
iter:  47 11:51:57  -804.742098c -4.34  -3.01    +55.8725
iter:  48 11:53:44  -804.742143c -4.56  -3.05    +56.0205
iter:  49 11:55:31  -804.756098c -4.69  -3.14    +56.2872
iter:  50 11:57:18  -804.762593c -4.90  -3.19    +56.4466
iter:  51 11:59:04  -804.782999c -4.67  -3.23    +56.7254
iter:  52 12:00:50  -804.804567c -4.44  -3.15    +57.1129
iter:  53 12:02:35  -804.830738c -4.28  -3.12    +57.5651
iter:  54 12:04:22  -804.858518c -4.35  -3.07    +57.9376
iter:  55 12:06:09  -804.825619c -4.54  -3.01    +57.3298
iter:  56 12:07:55  -804.855583c -4.69  -3.07    +57.8173
iter:  57 12:09:42  -804.826964c -4.49  -3.01    +57.2098
iter:  58 12:11:28  -804.887684c -3.99  -3.04    +58.1225
iter:  59 12:13:15  -804.839213c -4.70  -2.89    +57.7477
iter:  60 12:14:59  -804.842032c -5.10  -3.09    +57.9398
iter:  61 12:16:47  -804.851751c -4.21  -3.15    +58.1329
iter:  62 12:18:33  -804.848341c -4.52  -3.11    +58.1830
iter:  63 12:20:20  -804.849475c -4.84  -3.24    +58.2770
iter:  64 12:22:07  -804.856360c -4.86  -3.32    +58.3921
iter:  65 12:23:54  -804.860978c -5.09  -3.34    +58.4772
iter:  66 12:25:41  -804.864030c -5.51  -3.41    +58.5410
iter:  67 12:27:27  -804.874270c -5.18  -3.47    +58.6656
iter:  68 12:29:13  -804.865645c -5.59  -3.39    +58.5531
iter:  69 12:31:00  -804.849531c -4.62  -3.44    +58.3417
iter:  70 12:32:47  -804.858683c -5.25  -3.41    +58.4791
iter:  71 12:34:34  -804.861551c -5.34  -3.45    +58.5034
iter:  72 12:36:21  -804.868896c -5.23  -3.41    +58.6286
iter:  73 12:38:08  -804.873904c -5.33  -3.47    +58.6873
iter:  74 12:39:55  -804.883768c -5.12  -3.48    +58.8426
iter:  75 12:41:41  -804.878771c -5.68  -3.50    +58.7622
iter:  76 12:43:28  -804.899808c -4.75  -3.42    +59.0250
iter:  77 12:45:15  -804.905070c -5.24  -3.40    +59.0683
iter:  78 12:47:02  -804.912616c -5.16  -3.39    +59.1696
iter:  79 12:48:49  -804.925757c -4.96  -3.39    +59.3268
iter:  80 12:50:36  -804.946568c -4.70  -3.41    +59.4970
iter:  81 12:52:23  -804.949948c -4.84  -3.21    +59.5523
iter:  82 12:54:08  -804.955905c -4.71  -3.25    +59.7102
iter:  83 12:55:19  -804.965721c -4.65  -3.23    +59.8521
iter:  84 12:56:29  -804.962552c -4.87  -3.23    +59.9076
iter:  85 12:57:40  -804.966649c -5.19  -3.33    +60.0090
iter:  86 12:58:50  -804.978645c -4.42  -3.34    +60.2944
iter:  87 13:00:00  -804.989997c -4.71  -3.30    +60.4161
iter:  88 13:01:10  -804.988204c -5.22  -3.18    +60.3802
iter:  89 13:02:21  -804.995884c -4.75  -3.19    +60.4978
iter:  90 13:03:31  -804.986593c -5.17  -3.13    +60.4956
iter:  91 13:04:42  -804.983687c -5.02  -3.25    +60.5722
iter:  92 13:05:53  -804.979935c -4.85  -3.26    +60.5717
iter:  93 13:07:03  -804.981323c -5.07  -3.32    +60.5591
iter:  94 13:08:13  -804.978279c -5.28  -3.36    +60.5684
iter:  95 13:09:23  -804.977296c -4.99  -3.45    +60.5849
iter:  96 13:10:34  -804.976318c -5.52  -3.48    +60.5787
iter:  97 13:11:44  -804.976188c -5.93  -3.68    +60.5801
iter:  98 13:12:55  -804.976308c -6.03  -3.69    +60.5847
iter:  99 13:14:05  -804.976106c -6.20  -3.70    +60.5877
iter: 100 13:15:15  -804.976392c -5.99  -3.76    +60.5910
iter: 101 13:16:26  -804.975923c -6.12  -3.81    +60.5920
iter: 102 13:17:36  -804.976053c -6.22  -3.90    +60.5998
iter: 103 13:18:47  -804.975965c -6.56  -3.91    +60.6021
iter: 104 13:19:58  -804.975907c -6.70  -4.04c   +60.6086
iter: 105 13:21:08  -804.976084c -6.49  -4.06c   +60.6106
iter: 106 13:22:19  -804.976090c -6.77  -4.06c   +60.6149
iter: 107 13:23:29  -804.976075c -6.79  -4.19c   +60.6199
iter: 108 13:24:40  -804.976205c -6.91  -4.23c   +60.6254
iter: 109 13:25:51  -804.976251c -7.12  -4.22c   +60.6277
iter: 110 13:27:02  -804.976213c -6.94  -4.29c   +60.6337
iter: 111 13:28:12  -804.976281c -7.27  -4.31c   +60.6351
iter: 112 13:29:23  -804.976342c -7.31  -4.41c   +60.6389
iter: 113 13:30:34  -804.976354c -7.36  -4.45c   +60.6431
iter: 114 13:31:44  -804.976466c -7.14  -4.50c   +60.6476
iter: 115 13:32:55  -804.976486c -7.45c -4.47c   +60.6494

Converged after 115 iterations.

Dipole moment: (28.699812, 17.706707, 8.426584) |e|*Ang

Total magnetic moment: (0.000000, 0.000000, 60.649397)
Local magnetic moments:
   0 Ni ( 0.000000,  0.000000,  0.388635)
   1 Al ( 0.000000,  0.000000, -0.038563)
   2 Ni ( 0.000000,  0.000000,  0.151893)
   3 Co ( 0.000000,  0.000000,  0.788794)
   4 Al ( 0.000000,  0.000000, -0.023284)
   5 Cr ( 0.000000,  0.000000, -2.266111)
   6 Co ( 0.000000,  0.000000,  1.019992)
   7 Al ( 0.000000,  0.000000, -0.017544)
   8 Al ( 0.000000,  0.000000, -0.047299)
   9 Fe ( 0.000000,  0.000000,  2.218879)
  10 Fe ( 0.000000,  0.000000,  2.399589)
  11 Fe ( 0.000000,  0.000000,  2.231103)
  12 Cr ( 0.000000,  0.000000,  0.615287)
  13 Cr ( 0.000000,  0.000000, -1.608869)
  14 Co ( 0.000000,  0.000000,  0.779597)
  15 Fe ( 0.000000,  0.000000,  1.926438)
  16 Cr ( 0.000000,  0.000000,  1.630617)
  17 Co ( 0.000000,  0.000000,  1.214714)
  18 Al ( 0.000000,  0.000000, -0.021225)
  19 Ni ( 0.000000,  0.000000,  0.310070)
  20 Co ( 0.000000,  0.000000,  1.118409)
  21 Al ( 0.000000,  0.000000, -0.009523)
  22 Ni ( 0.000000,  0.000000,  0.142113)
  23 Cr ( 0.000000,  0.000000, -1.344727)
  24 Cr ( 0.000000,  0.000000,  1.294072)
  25 Fe ( 0.000000,  0.000000,  2.342927)
  26 Fe ( 0.000000,  0.000000,  2.129982)
  27 Ni ( 0.000000,  0.000000,  0.281145)
  28 Fe ( 0.000000,  0.000000,  2.568925)
  29 Co ( 0.000000,  0.000000,  1.151791)
  30 Ni ( 0.000000,  0.000000,  0.206542)
  31 Fe ( 0.000000,  0.000000,  2.277634)
  32 Cr ( 0.000000,  0.000000,  1.141847)
  33 Co ( 0.000000,  0.000000,  1.097466)
  34 Ni ( 0.000000,  0.000000,  0.031126)
  35 Ni ( 0.000000,  0.000000,  0.039699)
  36 Fe ( 0.000000,  0.000000,  2.144144)
  37 Fe ( 0.000000,  0.000000,  1.900342)
  38 Cr ( 0.000000,  0.000000, -1.780060)
  39 Al ( 0.000000,  0.000000, -0.020524)
  40 Al ( 0.000000,  0.000000, -0.006351)
  41 Co ( 0.000000,  0.000000,  0.587838)
  42 Al ( 0.000000,  0.000000, -0.021462)
  43 Cr ( 0.000000,  0.000000,  2.332575)
  44 Ni ( 0.000000,  0.000000,  0.152021)
  45 Al ( 0.000000,  0.000000, -0.017417)
  46 Al ( 0.000000,  0.000000, -0.018011)
  47 Co ( 0.000000,  0.000000,  1.359710)
  48 Fe ( 0.000000,  0.000000,  2.215043)
  49 Cr ( 0.000000,  0.000000, -1.777847)
  50 Ni ( 0.000000,  0.000000,  0.342586)
  51 Ni ( 0.000000,  0.000000,  0.276477)
  52 Ni ( 0.000000,  0.000000,  0.175241)
  53 Co ( 0.000000,  0.000000,  1.138693)
  54 Ni ( 0.000000,  0.000000,  0.158108)
  55 Al ( 0.000000,  0.000000, -0.017012)
  56 Ni ( 0.000000,  0.000000,  0.132380)
  57 Cr ( 0.000000,  0.000000, -1.784247)
  58 Co ( 0.000000,  0.000000,  0.935934)
  59 Cr ( 0.000000,  0.000000,  1.568713)
[...]
  93 Co ( 0.000000,  0.000000,  1.024215)
  94 Fe ( 0.000000,  0.000000,  2.035140)
  95 Ni ( 0.000000,  0.000000,  0.265764)
  96 Cr ( 0.000000,  0.000000,  1.911297)
  97 Cr ( 0.000000,  0.000000, -2.355233)
  98 Ni ( 0.000000,  0.000000,  0.302874)
  99 Fe ( 0.000000,  0.000000,  1.952340)
 100 Al ( 0.000000,  0.000000, -0.032278)
 101 Ni ( 0.000000,  0.000000,  0.257416)
 102 Co ( 0.000000,  0.000000,  0.816567)
 103 Al ( 0.000000,  0.000000, -0.008580)
 104 Cr ( 0.000000,  0.000000,  1.545412)
 105 Al ( 0.000000,  0.000000, -0.015681)
 106 Fe ( 0.000000,  0.000000, -2.061932)
 107 Co ( 0.000000,  0.000000,  0.047769)

Energy contributions relative to reference atoms: (reference = -3235165.067515)

Kinetic:       +259.307087
Potential:     -247.460154
External:        +0.000000
XC:            -846.009969
Entropy (-ST):   -4.091279
Local:          +31.232189
Free energy:   -807.022126
Extrapolated:  -804.976486

Spin contamination: 25.584694 electrons
Showing only first 2 kpts
                      Up                     Down
 Kpt  Band  Eigenvalues  Occupancy  Eigenvalues  Occupancy
  0   454      9.00794    0.99429      9.93435    0.01623
  0   455      9.01729    0.99373      9.94958    0.01397
  0   456      9.02766    0.99305      9.96164    0.01240
  0   457      9.04481    0.99176      9.96915    0.01151

  1   454      8.99830    0.99481      9.92778    0.01731
  1   455      9.00881    0.99424      9.93791    0.01567
  1   456      9.02596    0.99317      9.96330    0.01220
  1   457      9.03827    0.99228      9.97904    0.01044

Fermi level: 9.52390

No gap

Forces in eV/Ang:
  0 Ni    0.33441   -0.44512   -0.55046
  1 Al   -0.28091   -0.18031   -0.94147
  2 Ni   -0.01105   -0.03676   -0.06940
  3 Co    0.03637   -0.06632   -0.18555
  4 Al   -0.55536   -0.53389    0.32028
  5 Cr    0.29848    0.18084    0.22338
  6 Co   -0.12919    0.21291    1.07285
  7 Al   -0.07260   -0.04609   -0.22071
  8 Al   -0.68774   -0.22525    1.91748
  9 Fe    0.48454   -0.18406    0.50184
 10 Fe   -0.04175   -0.49331    0.50121
 11 Fe    0.37372    0.44213    0.00522
 12 Cr    0.11857   -0.36031   -0.01506
 13 Cr    0.25524   -0.01118    0.33493
 14 Co    0.30306    0.18359   -0.17100
 15 Fe    0.36215   -0.22606    0.31561
 16 Cr   -0.92790   -0.85293    0.49894
 17 Co   -0.52081    0.30207    0.32879
 18 Al   -0.43295   -0.25507    0.19254
 19 Ni   -0.27054    0.00213   -0.26319
 20 Co    0.57227    0.10268   -0.12737
 21 Al    0.88870   -0.06315    0.11656
 22 Ni   -0.60711   -0.14576    0.43262
 23 Cr   -0.23193   -0.25510   -0.53964
 24 Cr   -0.21993    0.82034    0.27554
 25 Fe   -0.26643    0.55660   -0.81868
 26 Fe    0.30001   -0.15117    0.08885
 27 Ni   -0.67796    0.21649    0.04769
 28 Fe   -0.11560   -0.08605    0.39401
 29 Co    0.31062   -0.22838    0.53690
 30 Ni   -0.54519    0.04641    0.06821
 31 Fe   -0.08176   -0.23945    0.58895
 32 Cr    0.60723    0.25385   -0.86011
 33 Co   -0.25174    0.16072    0.47451
 34 Ni    0.07352    0.61406    0.08398
 35 Ni    0.25404    0.18355   -0.35846
 36 Fe   -0.22007   -0.27607   -0.21626
 37 Fe    0.09855    0.44572   -0.02471
 38 Cr    0.37010    0.03196    0.49323
 39 Al    0.89839    1.02526    0.60177
 40 Al    1.44856    0.86234   -0.68988
 41 Co    0.01428   -0.03688   -0.38916
 42 Al   -0.88427    1.48475   -0.76890
 43 Cr   -0.83452   -0.42564   -0.32956
 44 Ni   -0.85157    0.18334   -0.07884
 45 Al   -0.25732    1.24272   -0.67240
 46 Al   -0.16768   -0.60526   -1.05183
 47 Co   -0.28855    0.42025   -0.23845
 48 Fe   -0.04770    0.35098    0.27310
 49 Cr    0.24350   -0.08279    0.17011
 50 Ni    0.46448    0.11042    0.73537
 51 Ni    0.28006   -0.10410   -0.01404
 52 Ni   -0.23269   -0.12464   -0.03949
 53 Co   -0.58460    0.10453    0.23909
 54 Ni    0.04966   -0.50531   -0.12740
 55 Al   -0.74186    0.21841    0.87156
 56 Ni    0.19073   -0.32229   -0.92116
 57 Cr    0.55879   -0.30144    0.63776
 58 Co   -0.10142    0.12584   -0.17109
 59 Cr   -0.00664   -0.57678    0.31153
[...]
 93 Co   -0.08426    0.24341   -0.11382
 94 Fe   -0.22380   -0.23832   -0.01687
 95 Ni    0.13078    0.03797    0.07600
 96 Cr   -0.20565    0.55254    0.47908
 97 Cr    0.09178   -1.11219    0.30526
 98 Ni   -0.32978   -0.14134   -0.05812
 99 Fe   -0.62605    0.14340   -0.20270
100 Al   -0.61196   -0.50490   -0.29414
101 Ni    0.14207   -0.32761   -0.00676
102 Co   -0.00774   -0.63364    0.16688
103 Al   -0.60209   -0.61951    1.08326
104 Cr    0.61200   -1.13994    1.11327
105 Al    0.07907   -1.64977   -0.41676
106 Fe    0.49917    0.31798   -0.37472
107 Co    0.82797   -0.65810    0.37589

Date: Sat Apr 15 13:33:12 2023