User:   c.zeng@d0115
Date:   Thu Apr 13 21:58:04 2023
Arch:   x86_64
Pid:    191388
CWD:    /home/c.zeng/projects/hea-corrosion/hea-mlp/data-curation/bulk-md/dft-jobs/47
Python: 3.8.1
gpaw:   /home/c.zeng/usr/installs/gpaw/source/gpaw-22.8.0/gpaw
_gpaw:  /home/c.zeng/usr/installs/gpaw/source/gpaw-22.8.0/
        _gpaw.cpython-38-x86_64-linux-gnu.so
ase:    /home/c.zeng/.local/lib/python3.8/site-packages/ase-3.22.1-py3.8.egg/ase (version 3.22.1)
numpy:  /shared/centos7/python/3.8.1/lib/python3.8/site-packages/numpy (version 1.17.4)
scipy:  /shared/centos7/python/3.8.1/lib/python3.8/site-packages/scipy (version 1.4.1)
units:  Angstrom and eV
cores: 30
OpenMP: False
OMP_NUM_THREADS: 1

Input parameters:
  convergence: {energy: 0.0001}
  kpts: [2 2 2]
  maxiter: 666
  mode: {ecut: 350.0,
         name: pw}
  occupations: {fixmagmom: False,
                name: fermi-dirac,
                width: 0.1}
  spinpol: True
  xc: PBE

System changes: positions, numbers, cell, pbc, initial_charges, initial_magmoms

Initialize ...

species:
  Co:
    name: Cobalt
    id: 339d20d5b0b93d2de9531a1bee871d91
    Z: 27.0
    valence: 9
    core: 18
    charge: 0.0
    file: /home/c.zeng/usr/data/gpaw-setups-0.9.20000/Co.PBE.gz
    compensation charges: {type: gauss,
                           rc: 0.32,
                           lmax: 2}
    cutoffs: {filter: 1.87,
              core: 2.55}
    valence states:
      #              energy  rcut
      - 4s(2.00)    -5.469   1.005
      - 4p(0.00)    -1.277   1.058
      - 3d(7.00)    -8.205   1.005
      -  s          21.742   1.005
      -  p          25.934   1.058
      -  d          19.007   1.005

    # Using partial waves for Co as LCAO basis

  Ni:
    name: Nickel
    id: 0d9f38a9d6e76a2886f07bb4381f212b
    Z: 28.0
    valence: 16
    core: 12
    charge: 0.0
    file: /home/c.zeng/usr/data/gpaw-setups-0.9.20000/Ni.PBE.gz
    compensation charges: {type: gauss,
                           rc: 0.36,
                           lmax: 2}
    cutoffs: {filter: 2.14,
              core: 1.98}
    valence states:
      #              energy  rcut
      - 4s(2.00)    -5.642   1.164
      - 3p(6.00)   -71.394   1.207
      - 4p(0.00)    -1.226   1.207
      - 3d(8.00)    -8.875   1.138
      -  s          21.570   1.164
      -  d          18.337   1.138

[...]

  Al:
    name: Aluminium
    id: 0292cae29f5d6237e50f6abdd43a7bdd
    Z: 13.0
    valence: 3
    core: 10
    charge: 0.0
    file: /home/c.zeng/usr/data/gpaw-setups-0.9.20000/Al.PBE.gz
    compensation charges: {type: gauss,
                           rc: 0.34,
                           lmax: 2}
    cutoffs: {filter: 1.91,
              core: 2.36}
    valence states:
      #              energy  rcut
      - 3s(2.00)    -7.753   1.085
      - 3p(1.00)    -2.712   1.085
      -  s          19.459   1.085
      -  p          24.499   1.085
      -  d           0.000   1.085

[...]

  Cr:
    name: Chromium
    id: 33f258bda2ca9f93018e70263a35547b
    Z: 24.0
    valence: 6
    core: 18
    charge: 0.0
    file: /home/c.zeng/usr/data/gpaw-setups-0.9.20000/Cr.PBE.gz
    compensation charges: {type: gauss,
                           rc: 0.35,
                           lmax: 2}
    cutoffs: {filter: 2.14,
              core: 3.04}
    valence states:
      #              energy  rcut
      - 4s(1.00)    -4.007   1.164
      - 4p(0.00)    -0.989   1.217
      - 3d(5.00)    -2.913   1.111
      -  s          23.205   1.164
      -  p          26.223   1.217
      -  d          24.299   1.111

[...]

  Fe:
    name: Iron
    id: 37abbd8d6c3c35915a9b583b742da910
    Z: 26.0
    valence: 8
    core: 18
    charge: 0.0
    file: /home/c.zeng/usr/data/gpaw-setups-0.9.20000/Fe.PBE.gz
    compensation charges: {type: gauss,
                           rc: 0.33,
                           lmax: 2}
    cutoffs: {filter: 2.06,
              core: 2.67}
    valence states:
      #              energy  rcut
      - 4s(2.00)    -5.291   1.164
      - 4p(0.00)    -1.326   1.058
      - 3d(6.00)    -7.505   1.058
      -  s          21.920   1.164
      -  p          25.885   1.058
      -  d          19.706   1.058

    # Using partial waves for Fe as LCAO basis

Reference energy: -3548577.034362  # eV

Spin-polarized calculation.
Magnetic moment: 136.400000

Convergence criteria:
 Maximum [total energy] change in last 3 cyles: 0.0001 eV / electron
 Maximum integral of absolute [dens]ity change: 0.0001 electrons / valence electron
 Maximum integral of absolute [eigenst]ate change: 4e-08 eV^2 / valence electron
 Maximum number of scf [iter]ations: 666
 (Square brackets indicate name in SCF output, whereas a 'c' in
 the SCF output indicates the quantity has converged.)

Symmetries present (total): 1

  ( 1  0  0)
  ( 0  1  0)
  ( 0  0  1)

8 k-points: 2 x 2 x 2 Monkhorst-Pack grid
4 k-points in the irreducible part of the Brillouin zone
       k-points in crystal coordinates                weights
   0:     0.25000000   -0.25000000   -0.25000000          2/8
   1:     0.25000000   -0.25000000    0.25000000          2/8
   2:     0.25000000    0.25000000   -0.25000000          2/8
   3:     0.25000000    0.25000000    0.25000000          2/8

Wave functions: Plane wave expansion
  Cutoff energy: 350.000 eV
  Number of coefficients (min, max): 18331, 18331
  Pulay-stress correction: 0.000000 eV/Ang^3 (de/decut=0.000000)
  Using FFTW library
  ScaLapack parameters: grid=1x1, blocksize=None
  Wavefunction extrapolation:
    Improved wavefunction reuse through dual PAW basis

Occupation numbers: Fermi-Dirac:
  width: 0.1000  # eV

Eigensolver
   Davidson(niter=2)

Densities:
  Coarse grid: 48*48*48 grid
  Fine grid: 96*96*96 grid
  Total Charge: 0.000000

Density mixing:
  Method: difference
  Backend: pulay
  Linear mixing parameter: 0.05
  old densities: 5
  Damping of long wavelength oscillations: 50

Hamiltonian:
  XC and Coulomb potentials evaluated on a 96*96*96 grid
  Using the PBE Exchange-Correlation functional
  External potential:
    NoExternalPotential

XC parameters: PBE with 2 nearest neighbor stencil

Total number of cores used: 30
Parallelization over k-points: 2
Domain decomposition: 5 x 3 x 1

Number of atoms: 108
Number of atomic orbitals: 994
Number of bands in calculation: 674
Number of valence electrons: 980
Bands to converge: occupied

... initialized

Initializing position-dependent things.

Density initialized from atomic densities
Creating initial wave functions:
  674 bands from LCAO basis set

        .-------Cr-------Cr-------.
       /|           Fe       Cr   |
      / |  CroFe     Fe        Fe |
     /  |      Ni                 |
    /   |         Coe   NiiCr   Ni|
   /    | Ni Fe      Co    Fe     Al
  /     |  Co      CoCNi    FeCo  |
 Co     Ni   CCo Al    CoCr  Al Co|
 | Co   |FFe    CoCCr      Cr    Ni
 |  Cr  | CrCo   CoCoFeAl  Fe     |
 |  Fe Fe   NNiCr   CrCoNi Ni     |
 |      FeFe AlCCo   FeCrCr    Ni |
 | Ni  AlNiNi   NCr Co  CrFe      |
 |      .--NNi-----Co-Cr---FeCr---.
 |    Ni      Cr              Fe /
 |    / Al     NilCr CrFNirNi   /
 |   /   Al                    /
 |NiCo     Fe       Fe        /
 | /                   Fe    /
 |/   Cr      Fe         Al /

Positions:
   0 Co    10.767910    0.030748   10.714074    ( 0.0000,  0.0000,  2.1000)
   1 Ni    10.828583    1.474882    1.791756    ( 0.0000,  0.0000,  1.5000)
   2 Al     1.931710   -0.138836    2.032795    ( 0.0000,  0.0000,  0.0000)
   3 Cr     1.749983    1.728418   10.780862    ( 0.0000,  0.0000,  0.0000)
   4 Cr     3.220164   -0.401216   10.694103    ( 0.0000,  0.0000,  0.0000)
   5 Fe     3.488019    1.834026    1.886672    ( 0.0000,  0.0000,  2.0000)
   6 Fe     5.279548   -0.079057    1.764854    ( 0.0000,  0.0000,  2.0000)
   7 Fe     5.033760    1.681901    0.099465    ( 0.0000,  0.0000,  2.0000)
   8 Cr     7.176984   -0.218533   -0.008388    ( 0.0000,  0.0000,  0.0000)
   9 Fe     7.246520    1.984370    1.784143    ( 0.0000,  0.0000,  2.0000)
  10 Fe     8.876254    0.014766    1.884688    ( 0.0000,  0.0000,  2.0000)
  11 Al     9.231059    1.913797    0.006099    ( 0.0000,  0.0000,  0.0000)
  12 Co    10.953476    3.828107   10.731272    ( 0.0000,  0.0000,  2.1000)
  13 Fe    10.605708    5.692088    1.601881    ( 0.0000,  0.0000,  2.0000)
  14 Al     1.726331    3.546076    2.016766    ( 0.0000,  0.0000,  0.0000)
  15 Al     1.724072    5.545168   10.757530    ( 0.0000,  0.0000,  0.0000)
  16 Cr     3.306556    3.583643   10.862538    ( 0.0000,  0.0000,  0.0000)
  17 Cr     3.715944    5.352909    1.811978    ( 0.0000,  0.0000,  0.0000)
  18 Al     5.366956    3.502886    1.892227    ( 0.0000,  0.0000,  0.0000)
  19 Co     5.440365    5.274343   10.635715    ( 0.0000,  0.0000,  2.1000)
  20 Co     7.327372    3.420724   -0.112979    ( 0.0000,  0.0000,  2.1000)
  21 Cr     6.945014    5.378438    1.513083    ( 0.0000,  0.0000,  0.0000)
  22 Cr     8.909961    3.810505    1.696457    ( 0.0000,  0.0000,  0.0000)
  23 Cr     9.093725    5.290151   -0.252570    ( 0.0000,  0.0000,  0.0000)
  24 Fe    10.577770    7.231221   10.584029    ( 0.0000,  0.0000,  2.0000)
  25 Al    10.726830    8.650357    1.885721    ( 0.0000,  0.0000,  0.0000)
  26 Ni     2.068940    7.226977    1.828365    ( 0.0000,  0.0000,  1.5000)
  27 Cr     1.601101    8.925622   10.439216    ( 0.0000,  0.0000,  0.0000)
  28 Fe     3.576825    7.321021   10.690022    ( 0.0000,  0.0000,  2.0000)
  29 Ni     3.722424    9.073009    1.784974    ( 0.0000,  0.0000,  1.5000)
  30 Co     5.277447    7.221193    1.760816    ( 0.0000,  0.0000,  2.1000)
  31 Fe     5.342841    9.197668   10.705634    ( 0.0000,  0.0000,  2.0000)
  32 Fe     7.223028    7.260573   10.728806    ( 0.0000,  0.0000,  2.0000)
  33 Cr     7.082845    9.114229    1.867748    ( 0.0000,  0.0000,  0.0000)
  34 Fe     8.791557    7.213904    1.877748    ( 0.0000,  0.0000,  2.0000)
  35 Cr     9.098845    9.179970   -0.067352    ( 0.0000,  0.0000,  0.0000)
  36 Ni    10.624246    0.172036    3.727840    ( 0.0000,  0.0000,  1.5000)
  37 Ni     0.118778    1.944894    5.278053    ( 0.0000,  0.0000,  1.5000)
  38 Co     1.891395   -0.070769    5.225437    ( 0.0000,  0.0000,  2.1000)
  39 Ni     1.697625    1.770953    3.758125    ( 0.0000,  0.0000,  1.5000)
  40 Co     3.606079   -0.076181    3.727430    ( 0.0000,  0.0000,  2.1000)
  41 Ni     3.463926    1.724044    5.479839    ( 0.0000,  0.0000,  1.5000)
  42 Co     5.286150   -0.224063    5.528400    ( 0.0000,  0.0000,  2.1000)
  43 Ni     5.290952    1.826787    3.540422    ( 0.0000,  0.0000,  1.5000)
  44 Cr     6.920612    0.080323    3.673439    ( 0.0000,  0.0000,  0.0000)
  45 Co     7.150126    2.142831    5.146772    ( 0.0000,  0.0000,  2.1000)
  46 Al     8.611969   10.668213    5.362188    ( 0.0000,  0.0000,  0.0000)
  47 Ni     9.077765    2.036766    3.303980    ( 0.0000,  0.0000,  1.5000)
  48 Cr    10.640332    3.658307    3.504772    ( 0.0000,  0.0000,  0.0000)
  49 Fe     0.072029    5.090022    5.441320    ( 0.0000,  0.0000,  2.0000)
  50 Fe     1.963568    3.706442    5.505622    ( 0.0000,  0.0000,  2.0000)
  51 Ni     1.763897    5.556010    3.730534    ( 0.0000,  0.0000,  1.5000)
  52 Ni     3.436868    3.461675    3.685596    ( 0.0000,  0.0000,  1.5000)
  53 Ni     3.620221    5.484404    5.477559    ( 0.0000,  0.0000,  1.5000)
  54 Co     5.189050    3.636901    5.484027    ( 0.0000,  0.0000,  2.1000)
  55 Cr     5.177207    5.175344    3.560703    ( 0.0000,  0.0000,  0.0000)
  56 Cr     7.481887    3.679203    3.511354    ( 0.0000,  0.0000,  0.0000)
  57 Co     7.221981    5.272424    5.341763    ( 0.0000,  0.0000,  2.1000)
  58 Cr     9.132086    3.599459    5.412634    ( 0.0000,  0.0000,  0.0000)
  59 Fe     8.949864    5.375279    3.378786    ( 0.0000,  0.0000,  2.0000)
[...]
  93 Ni     7.122672    5.330245    9.060243    ( 0.0000,  0.0000,  1.5000)
  94 Cr     9.015185    3.525822    8.979739    ( 0.0000,  0.0000,  0.0000)
  95 Cr     9.255447    5.501479    6.847492    ( 0.0000,  0.0000,  0.0000)
  96 Co    10.655973    7.264800    7.053226    ( 0.0000,  0.0000,  2.1000)
  97 Ni    10.550837    8.910705    8.767455    ( 0.0000,  0.0000,  1.5000)
  98 Ni     1.637424    7.163775    8.691285    ( 0.0000,  0.0000,  1.5000)
  99 Co     1.886917    8.996263    6.954778    ( 0.0000,  0.0000,  2.1000)
 100 Co     3.569388    7.052710    7.259897    ( 0.0000,  0.0000,  2.1000)
 101 Ni     3.373111    8.947160    8.854201    ( 0.0000,  0.0000,  1.5000)
 102 Fe     5.437756    7.268772    9.166743    ( 0.0000,  0.0000,  2.0000)
 103 Co     5.175110    8.836097    7.078239    ( 0.0000,  0.0000,  2.1000)
 104 Co     7.167272    6.809948    7.186192    ( 0.0000,  0.0000,  2.1000)
 105 Ni     7.092068    8.919413    8.665829    ( 0.0000,  0.0000,  1.5000)
 106 Fe     8.776783    7.076724    8.945646    ( 0.0000,  0.0000,  2.0000)
 107 Fe     8.879627    8.592821    7.017612    ( 0.0000,  0.0000,  2.0000)

Unit cell:
           periodic     x           y           z      points  spacing
  1. axis:    yes   10.722400    0.000000    0.000000    48     0.2234
  2. axis:    yes    0.000000   10.722400    0.000000    48     0.2234
  3. axis:    yes    0.000000    0.000000   10.722400    48     0.2234

  Lengths:  10.722400  10.722400  10.722400
  Angles:   90.000000  90.000000  90.000000

Effective grid spacing dv^(1/3) = 0.2234

     iter     time        total  log10-change:  magmom
                         energy  eigst   dens
iter:   1 22:01:35 -1010.847271                  +136.6833
iter:   2 22:02:55  -896.582709  -0.24  -1.19    +75.7070
iter:   3 22:04:17  -892.827065  -0.83  -1.21    +62.7786
iter:   4 22:05:38  -870.330622  -1.22  -1.27    +58.7931
iter:   5 22:07:00  -857.783584  -1.55  -1.29    +55.3272
iter:   6 22:08:21  -862.466682  -1.26  -1.36    +55.5236
iter:   7 22:09:42  -847.567785  -1.26  -1.41    +53.6134
iter:   8 22:11:04  -840.063035  -1.57  -1.56    +52.9075
iter:   9 22:12:26  -839.646431  -1.99  -1.73    +53.4705
iter:  10 22:13:47  -838.599834  -2.28  -1.75    +54.7423
iter:  11 22:15:08  -838.839536  -2.45  -1.82    +55.5969
iter:  12 22:16:29  -838.733979  -2.48  -1.83    +57.0975
iter:  13 22:17:51  -840.248712  -2.38  -1.89    +58.1026
iter:  14 22:19:12  -839.094921  -2.33  -1.89    +58.3027
iter:  15 22:20:34  -840.705047  -2.36  -2.00    +59.3635
iter:  16 22:21:55  -838.859020  -2.57  -1.95    +59.5591
iter:  17 22:23:17  -839.091623  -2.79  -2.08    +60.4271
iter:  18 22:24:38  -838.873535  -2.77  -2.10    +60.5036
iter:  19 22:26:00  -838.838553  -2.95  -2.15    +61.0747
iter:  20 22:27:21  -838.480126  -3.14  -2.17    +61.5947
iter:  21 22:28:42  -838.737449  -3.13  -2.26    +61.5780
iter:  22 22:30:04  -838.690471  -3.12  -2.26    +61.8950
iter:  23 22:31:25  -838.643955c -3.15  -2.28    +61.9619
iter:  24 22:32:46  -838.663136c -3.28  -2.29    +62.2591
iter:  25 22:34:08  -838.663274c -3.21  -2.34    +62.1762
iter:  26 22:35:29  -838.512859  -3.41  -2.36    +62.1697
iter:  27 22:36:50  -838.527777  -3.59  -2.41    +62.5828
iter:  28 22:38:11  -838.581283c -3.57  -2.44    +62.5750
iter:  29 22:39:33  -838.589993c -3.50  -2.44    +62.6628
iter:  30 22:40:54  -838.550770c -3.70  -2.44    +62.6009
iter:  31 22:42:15  -838.576479c -3.68  -2.49    +62.7703
iter:  32 22:43:36  -838.581870c -3.67  -2.51    +62.7725
iter:  33 22:44:57  -838.560505c -3.80  -2.53    +62.5370
iter:  34 22:46:19  -838.571695c -3.87  -2.57    +62.5814
iter:  35 22:47:40  -838.608226c -3.68  -2.58    +62.5507
iter:  36 22:49:01  -838.572904c -3.95  -2.55    +62.6059
iter:  37 22:50:22  -838.569081c -3.96  -2.63    +62.4717
iter:  38 22:51:43  -838.569554c -3.97  -2.65    +62.4824
iter:  39 22:53:04  -838.553400c -4.19  -2.66    +62.6264
iter:  40 22:54:25  -838.565134c -4.30  -2.71    +62.5835
iter:  41 22:55:46  -838.596322c -4.08  -2.73    +62.5859
iter:  42 22:57:07  -838.572975c -4.19  -2.69    +62.5161
iter:  43 22:58:28  -838.580377c -4.27  -2.73    +62.5795
iter:  44 22:59:50  -838.593313c -4.19  -2.77    +62.5814
iter:  45 23:01:11  -838.584944c -4.28  -2.77    +62.4713
iter:  46 23:02:32  -838.577314c -4.45  -2.80    +62.5114
iter:  47 23:03:53  -838.596567c -4.38  -2.83    +62.5052
iter:  48 23:05:14  -838.591013c -4.42  -2.81    +62.5346
iter:  49 23:06:35  -838.587347c -4.56  -2.85    +62.4604
iter:  50 23:07:56  -838.593508c -4.57  -2.88    +62.4464
iter:  51 23:09:17  -838.596541c -4.53  -2.89    +62.4913
iter:  52 23:10:38  -838.599302c -4.56  -2.91    +62.4367
iter:  53 23:11:59  -838.609814c -4.57  -2.92    +62.4159
iter:  54 23:13:21  -838.608795c -4.42  -2.91    +62.3557
iter:  55 23:14:42  -838.607316c -4.53  -2.91    +62.3955
iter:  56 23:16:03  -838.609252c -4.66  -2.96    +62.4150
iter:  57 23:17:24  -838.609641c -4.66  -2.99    +62.3606
iter:  58 23:18:45  -838.604122c -4.73  -3.01    +62.3992
iter:  59 23:20:06  -838.609836c -4.97  -3.03    +62.4014
iter:  60 23:21:27  -838.615150c -4.73  -3.06    +62.4230
iter:  61 23:22:49  -838.614555c -4.74  -3.04    +62.3752
iter:  62 23:24:10  -838.612927c -4.88  -3.06    +62.3567
iter:  63 23:25:31  -838.615740c -4.85  -3.12    +62.3904
iter:  64 23:26:52  -838.619726c -4.77  -3.13    +62.3486
iter:  65 23:28:13  -838.615492c -5.06  -3.12    +62.3400
iter:  66 23:29:34  -838.617651c -4.95  -3.18    +62.3020
iter:  67 23:30:55  -838.617889c -5.04  -3.18    +62.3286
iter:  68 23:32:16  -838.617078c -5.27  -3.22    +62.3374
iter:  69 23:33:37  -838.617916c -5.36  -3.26    +62.3200
iter:  70 23:34:58  -838.618420c -5.25  -3.28    +62.3413
iter:  71 23:36:19  -838.619737c -5.46  -3.28    +62.3395
iter:  72 23:37:40  -838.621816c -5.30  -3.32    +62.3501
iter:  73 23:39:01  -838.622891c -5.23  -3.29    +62.3264
iter:  74 23:40:23  -838.621888c -5.30  -3.30    +62.3225
iter:  75 23:41:44  -838.622583c -5.47  -3.36    +62.3454
iter:  76 23:43:05  -838.624833c -5.42  -3.38    +62.3257
iter:  77 23:44:26  -838.622982c -5.56  -3.36    +62.3305
iter:  78 23:45:47  -838.623959c -5.69  -3.41    +62.3176
iter:  79 23:47:08  -838.624688c -5.81  -3.43    +62.3260
iter:  80 23:48:29  -838.625692c -5.58  -3.46    +62.3232
iter:  81 23:49:50  -838.626337c -5.62  -3.44    +62.3198
iter:  82 23:51:12  -838.627740c -5.51  -3.44    +62.3403
iter:  83 23:52:33  -838.629429c -5.32  -3.46    +62.3377
iter:  84 23:53:54  -838.629135c -5.44  -3.43    +62.3468
iter:  85 23:55:15  -838.628941c -5.54  -3.45    +62.3368
iter:  86 23:56:36  -838.629404c -5.52  -3.53    +62.3473
iter:  87 23:57:57  -838.629336c -5.80  -3.55    +62.3667
[...]
iter:  98 00:13:27  -838.632886c -6.81  -3.92    +62.3946
iter:  99 00:14:58  -838.633830c -6.21  -3.93    +62.4187
iter: 100 00:16:20  -838.635895c -5.54  -3.90    +62.4782
iter: 101 00:17:41  -838.640311c -4.90  -3.84    +62.5963
iter: 102 00:19:02  -838.638294c -5.81  -3.68    +62.5288
iter: 103 00:20:23  -838.641897c -5.17  -3.72    +62.6323
iter: 104 00:21:44  -838.646109c -4.78  -3.62    +62.7683
iter: 105 00:23:06  -838.646354c -5.01  -3.54    +62.8536
iter: 106 00:24:27  -838.644684c -5.72  -3.55    +62.8039
iter: 107 00:25:48  -838.645034c -6.04  -3.61    +62.8057
iter: 108 00:27:09  -838.647159c -5.87  -3.66    +62.8055
iter: 109 00:28:31  -838.643688c -5.24  -3.56    +62.8122
iter: 110 00:29:52  -838.644843c -5.52  -3.75    +62.8093
iter: 111 00:31:13  -838.643548c -5.78  -3.66    +62.7698
iter: 112 00:32:34  -838.642814c -6.31  -3.86    +62.7666
iter: 113 00:33:55  -838.643058c -6.60  -4.12c   +62.7519
iter: 114 00:35:17  -838.642787c -6.70  -4.12c   +62.7425
iter: 115 00:36:38  -838.642964c -6.93  -4.12c   +62.7356
iter: 116 00:37:59  -838.642799c -6.57  -4.20c   +62.7308
iter: 117 00:39:20  -838.642884c -6.80  -4.12c   +62.7333
iter: 118 00:40:41  -838.643050c -6.63  -4.25c   +62.7265
iter: 119 00:42:02  -838.642809c -6.78  -4.18c   +62.7244
iter: 120 00:43:24  -838.643164c -6.71  -4.35c   +62.7238
iter: 121 00:44:45  -838.642732c -7.01  -4.24c   +62.7256
iter: 122 00:46:06  -838.642941c -7.14  -4.47c   +62.7252
iter: 123 00:47:27  -838.642816c -7.26  -4.44c   +62.7211
iter: 124 00:48:49  -838.642829c -7.43c -4.56c   +62.7230

Converged after 124 iterations.

Dipole moment: (3.592854, 45.345135, 32.047348) |e|*Ang

Total magnetic moment: (0.000000, 0.000000, 62.723009)
Local magnetic moments:
   0 Co ( 0.000000,  0.000000,  0.333610)
   1 Ni ( 0.000000,  0.000000,  0.098455)
   2 Al ( 0.000000,  0.000000, -0.014269)
   3 Cr ( 0.000000,  0.000000, -0.512797)
   4 Cr ( 0.000000,  0.000000,  0.805289)
   5 Fe ( 0.000000,  0.000000,  2.045551)
   6 Fe ( 0.000000,  0.000000,  1.600938)
   7 Fe ( 0.000000,  0.000000,  2.175484)
   8 Cr ( 0.000000,  0.000000,  0.201413)
   9 Fe ( 0.000000,  0.000000,  2.025347)
  10 Fe ( 0.000000,  0.000000,  2.064178)
  11 Al ( 0.000000,  0.000000, -0.019911)
  12 Co ( 0.000000,  0.000000,  0.210228)
  13 Fe ( 0.000000,  0.000000,  1.824208)
  14 Al ( 0.000000,  0.000000, -0.009262)
  15 Al ( 0.000000,  0.000000, -0.036433)
  16 Cr ( 0.000000,  0.000000, -1.132713)
  17 Cr ( 0.000000,  0.000000,  1.155876)
  18 Al ( 0.000000,  0.000000, -0.017618)
  19 Co ( 0.000000,  0.000000,  0.903264)
  20 Co ( 0.000000,  0.000000,  0.707096)
  21 Cr ( 0.000000,  0.000000, -0.343419)
  22 Cr ( 0.000000,  0.000000, -0.122376)
  23 Cr ( 0.000000,  0.000000, -0.907629)
  24 Fe ( 0.000000,  0.000000,  1.778793)
  25 Al ( 0.000000,  0.000000, -0.016453)
  26 Ni ( 0.000000,  0.000000,  0.255664)
  27 Cr ( 0.000000,  0.000000, -1.159049)
  28 Fe ( 0.000000,  0.000000,  2.284704)
  29 Ni ( 0.000000,  0.000000,  0.232224)
  30 Co ( 0.000000,  0.000000,  1.200590)
  31 Fe ( 0.000000,  0.000000,  1.100103)
  32 Fe ( 0.000000,  0.000000,  2.046147)
  33 Cr ( 0.000000,  0.000000, -0.730034)
  34 Fe ( 0.000000,  0.000000,  1.707978)
  35 Cr ( 0.000000,  0.000000, -1.004695)
  36 Ni ( 0.000000,  0.000000,  0.321451)
  37 Ni ( 0.000000,  0.000000,  0.117266)
  38 Co ( 0.000000,  0.000000,  1.542135)
  39 Ni ( 0.000000,  0.000000,  0.338696)
  40 Co ( 0.000000,  0.000000,  1.282930)
  41 Ni ( 0.000000,  0.000000,  0.524897)
  42 Co ( 0.000000,  0.000000,  1.151427)
  43 Ni ( 0.000000,  0.000000,  0.248938)
  44 Cr ( 0.000000,  0.000000, -0.614916)
  45 Co ( 0.000000,  0.000000,  0.839775)
  46 Al ( 0.000000,  0.000000, -0.009181)
  47 Ni ( 0.000000,  0.000000,  0.123981)
  48 Cr ( 0.000000,  0.000000,  0.433217)
  49 Fe ( 0.000000,  0.000000,  0.017500)
  50 Fe ( 0.000000,  0.000000,  2.178333)
  51 Ni ( 0.000000,  0.000000,  0.192272)
  52 Ni ( 0.000000,  0.000000,  0.248121)
  53 Ni ( 0.000000,  0.000000,  0.419161)
  54 Co ( 0.000000,  0.000000,  1.351619)
  55 Cr ( 0.000000,  0.000000, -1.149627)
  56 Cr ( 0.000000,  0.000000, -0.245716)
  57 Co ( 0.000000,  0.000000,  0.901695)
  58 Cr ( 0.000000,  0.000000, -0.236156)
  59 Fe ( 0.000000,  0.000000, -1.091397)
[...]
  93 Ni ( 0.000000,  0.000000,  0.331920)
  94 Cr ( 0.000000,  0.000000,  0.788562)
  95 Cr ( 0.000000,  0.000000, -0.539057)
  96 Co ( 0.000000,  0.000000,  1.003136)
  97 Ni ( 0.000000,  0.000000,  0.121443)
  98 Ni ( 0.000000,  0.000000,  0.414415)
  99 Co ( 0.000000,  0.000000,  1.536745)
 100 Co ( 0.000000,  0.000000,  1.565890)
 101 Ni ( 0.000000,  0.000000,  0.383369)
 102 Fe ( 0.000000,  0.000000,  2.555519)
 103 Co ( 0.000000,  0.000000,  1.196280)
 104 Co ( 0.000000,  0.000000,  1.152421)
 105 Ni ( 0.000000,  0.000000,  0.395570)
 106 Fe ( 0.000000,  0.000000,  1.940034)
 107 Fe ( 0.000000,  0.000000,  2.010682)

Energy contributions relative to reference atoms: (reference = -3548577.034362)

Kinetic:       +366.839220
Potential:     -363.925709
External:        +0.000000
XC:            -875.270470
Entropy (-ST):   -4.354255
Local:          +35.891258
Free energy:   -840.819956
Extrapolated:  -838.642829

Spin contamination: 19.989990 electrons
Showing only first 2 kpts
                      Up                     Down
 Kpt  Band  Eigenvalues  Occupancy  Eigenvalues  Occupancy
  0   488      9.52247    0.99431     10.43300    0.01903
  0   489      9.53655    0.99345     10.43942    0.01786
  0   490      9.54672    0.99275     10.45494    0.01534
  0   491      9.55156    0.99240     10.45952    0.01466

  1   488      9.52114    0.99438     10.42391    0.02080
  1   489      9.53146    0.99377     10.43282    0.01906
  1   490      9.55372    0.99223     10.45757    0.01494
  1   491      9.56719    0.99112     10.47148    0.01303

Fermi level: 10.03873

No gap

Forces in eV/Ang:
  0 Co    0.23741   -1.27125   -0.68920
  1 Ni    0.35977    2.00219    0.33509
  2 Al   -1.56298    0.75503    0.11749
  3 Cr    0.01665    0.09953   -0.79821
  4 Cr    1.05264    2.25570   -1.14743
  5 Fe   -0.17457   -1.10258   -0.04729
  6 Fe    0.80237    2.27648    0.55869
  7 Fe    1.27958   -0.17708   -0.24747
  8 Cr    0.65410    0.97688   -0.10940
  9 Fe   -0.41075   -1.74901   -0.48230
 10 Fe    0.29301    0.14756   -0.10903
 11 Al   -0.24527   -1.29214    0.70276
 12 Co   -0.30284   -1.93081    0.04104
 13 Fe    0.51880   -0.52133    1.56693
 14 Al   -0.32002    0.65647   -0.59329
 15 Al    0.23813    0.96384   -0.66556
 16 Cr    1.43949   -0.11356   -0.49694
 17 Cr   -0.57687    0.05502   -0.46790
 18 Al   -0.10413   -0.99442   -1.42324
 19 Co   -1.03336    0.70200    1.00651
 20 Co   -0.93425    0.08434    0.19174
 21 Cr    1.42140    0.78236    0.91288
 22 Cr    0.54068    0.30518   -0.06089
 23 Cr   -0.99751    0.52145    1.02138
 24 Fe   -0.03108    0.06511   -0.35469
 25 Al    0.10389    0.87953    1.18478
 26 Ni   -1.11755   -0.37279   -0.19435
 27 Cr    0.02563   -0.35598    1.40045
 28 Fe    0.04471    0.11272   -0.01077
 29 Ni   -1.04204   -2.08114    1.09395
 30 Co    0.75524   -0.19076   -0.68069
 31 Fe   -0.09101   -1.62482   -0.17934
 32 Fe   -0.05036    0.49951    0.61866
 33 Cr   -0.35012   -0.78839   -1.73037
 34 Fe   -0.76099   -0.27333   -0.96385
 35 Cr   -1.38026   -1.06346    0.60690
 36 Ni   -0.17105   -1.73009   -0.28944
 37 Ni   -1.01290   -0.59054    1.44774
 38 Co   -0.67294   -0.33799    1.08613
 39 Ni    1.30068    0.22165   -1.58804
 40 Co    1.02509    0.82731    0.10052
 41 Ni    1.50773    0.55096   -0.96242
 42 Co    0.66725    2.02444   -0.95544
 43 Ni    0.14187   -0.23200    0.85625
 44 Cr   -0.59191    0.71484   -1.22139
 45 Co   -0.36921   -1.07607    0.59111
 46 Al    0.95850    0.51775   -0.44412
 47 Ni   -0.50050   -1.84447    1.61087
 48 Cr   -0.23895    0.90323    1.09836
 49 Fe    0.68911    2.55823   -2.14859
 50 Fe    0.00584   -0.70633   -0.73379
 51 Ni    0.72409   -1.09196   -1.21197
 52 Ni    0.73050    0.93212   -0.15877
 53 Ni   -0.86368   -0.84230   -0.06065
 54 Co    0.77542   -0.38255   -0.46915
 55 Cr    0.97998    1.22534    1.07396
 56 Cr   -1.92814    0.59882    0.15083
 57 Co   -0.70783   -0.85166   -0.34147
 58 Cr   -1.41457   -0.56520   -0.70314
 59 Fe   -0.30199   -0.09938    0.74939
[...]
 93 Ni    0.62727   -0.12951   -0.61433
 94 Cr   -0.16169    0.70198   -1.82976
 95 Cr   -2.00169   -0.62040    2.32793
 96 Co    1.12230   -0.75816   -0.75191
 97 Ni    0.64399    0.42791   -0.09355
 98 Ni    0.34600    0.36414    1.19623
 99 Co   -0.60541   -0.05170    0.52835
100 Co    0.25976    0.27705   -0.15479
101 Ni    1.07911   -0.32491   -0.72763
102 Fe   -0.46646   -0.56533   -1.18550
103 Co    0.82399   -0.49324    1.82331
104 Co    0.47104    1.36087   -0.03311
105 Ni    0.51977   -0.54333    1.40311
106 Fe    0.83957    0.26113   -0.27065
107 Fe   -0.71206    1.38226   -0.28996

Date: Fri Apr 14 00:49:07 2023