User:   c.zeng@d0117
Date:   Sat Apr 15 04:14:55 2023
Arch:   x86_64
Pid:    177945
CWD:    /home/c.zeng/projects/hea-corrosion/hea-mlp/data-curation/bulk-mcmc/dft-jobs/215
Python: 3.8.1
gpaw:   /home/c.zeng/usr/installs/gpaw/source/gpaw-22.8.0/gpaw
_gpaw:  /home/c.zeng/usr/installs/gpaw/source/gpaw-22.8.0/
        _gpaw.cpython-38-x86_64-linux-gnu.so
ase:    /home/c.zeng/.local/lib/python3.8/site-packages/ase-3.22.1-py3.8.egg/ase (version 3.22.1)
numpy:  /shared/centos7/python/3.8.1/lib/python3.8/site-packages/numpy (version 1.17.4)
scipy:  /shared/centos7/python/3.8.1/lib/python3.8/site-packages/scipy (version 1.4.1)
units:  Angstrom and eV
cores: 30
OpenMP: False
OMP_NUM_THREADS: 1

Input parameters:
  convergence: {energy: 0.0001}
  kpts: [2 2 2]
  maxiter: 666
  mode: {ecut: 350.0,
         name: pw}
  occupations: {fixmagmom: False,
                name: fermi-dirac,
                width: 0.1}
  spinpol: True
  xc: PBE

System changes: positions, numbers, cell, pbc, initial_charges, initial_magmoms

Initialize ...

species:
  Cr:
    name: Chromium
    id: 33f258bda2ca9f93018e70263a35547b
    Z: 24.0
    valence: 6
    core: 18
    charge: 0.0
    file: /home/c.zeng/usr/data/gpaw-setups-0.9.20000/Cr.PBE.gz
    compensation charges: {type: gauss,
                           rc: 0.35,
                           lmax: 2}
    cutoffs: {filter: 2.14,
              core: 3.04}
    valence states:
      #              energy  rcut
      - 4s(1.00)    -4.007   1.164
      - 4p(0.00)    -0.989   1.217
      - 3d(5.00)    -2.913   1.111
      -  s          23.205   1.164
      -  p          26.223   1.217
      -  d          24.299   1.111

    # Using partial waves for Cr as LCAO basis

  Al:
    name: Aluminium
    id: 0292cae29f5d6237e50f6abdd43a7bdd
    Z: 13.0
    valence: 3
    core: 10
    charge: 0.0
    file: /home/c.zeng/usr/data/gpaw-setups-0.9.20000/Al.PBE.gz
    compensation charges: {type: gauss,
                           rc: 0.34,
                           lmax: 2}
    cutoffs: {filter: 1.91,
              core: 2.36}
    valence states:
      #              energy  rcut
      - 3s(2.00)    -7.753   1.085
      - 3p(1.00)    -2.712   1.085
      -  s          19.459   1.085
      -  p          24.499   1.085
      -  d           0.000   1.085

[...]

  Ni:
    name: Nickel
    id: 0d9f38a9d6e76a2886f07bb4381f212b
    Z: 28.0
    valence: 16
    core: 12
    charge: 0.0
    file: /home/c.zeng/usr/data/gpaw-setups-0.9.20000/Ni.PBE.gz
    compensation charges: {type: gauss,
                           rc: 0.36,
                           lmax: 2}
    cutoffs: {filter: 2.14,
              core: 1.98}
    valence states:
      #              energy  rcut
      - 4s(2.00)    -5.642   1.164
      - 3p(6.00)   -71.394   1.207
      - 4p(0.00)    -1.226   1.207
      - 3d(8.00)    -8.875   1.138
      -  s          21.570   1.164
      -  d          18.337   1.138

[...]

  Co:
    name: Cobalt
    id: 339d20d5b0b93d2de9531a1bee871d91
    Z: 27.0
    valence: 9
    core: 18
    charge: 0.0
    file: /home/c.zeng/usr/data/gpaw-setups-0.9.20000/Co.PBE.gz
    compensation charges: {type: gauss,
                           rc: 0.32,
                           lmax: 2}
    cutoffs: {filter: 1.87,
              core: 2.55}
    valence states:
      #              energy  rcut
      - 4s(2.00)    -5.469   1.005
      - 4p(0.00)    -1.277   1.058
      - 3d(7.00)    -8.205   1.005
      -  s          21.742   1.005
      -  p          25.934   1.058
      -  d          19.007   1.005

[...]

  Fe:
    name: Iron
    id: 37abbd8d6c3c35915a9b583b742da910
    Z: 26.0
    valence: 8
    core: 18
    charge: 0.0
    file: /home/c.zeng/usr/data/gpaw-setups-0.9.20000/Fe.PBE.gz
    compensation charges: {type: gauss,
                           rc: 0.33,
                           lmax: 2}
    cutoffs: {filter: 2.06,
              core: 2.67}
    valence states:
      #              energy  rcut
      - 4s(2.00)    -5.291   1.164
      - 4p(0.00)    -1.326   1.058
      - 3d(6.00)    -7.505   1.058
      -  s          21.920   1.164
      -  p          25.885   1.058
      -  d          19.706   1.058

    # Using partial waves for Fe as LCAO basis

Reference energy: -3235165.067515  # eV

Spin-polarized calculation.
Magnetic moment: 121.100000

Convergence criteria:
 Maximum [total energy] change in last 3 cyles: 0.0001 eV / electron
 Maximum integral of absolute [dens]ity change: 0.0001 electrons / valence electron
 Maximum integral of absolute [eigenst]ate change: 4e-08 eV^2 / valence electron
 Maximum number of scf [iter]ations: 666
 (Square brackets indicate name in SCF output, whereas a 'c' in
 the SCF output indicates the quantity has converged.)

Symmetries present (total): 1

  ( 1  0  0)
  ( 0  1  0)
  ( 0  0  1)

8 k-points: 2 x 2 x 2 Monkhorst-Pack grid
4 k-points in the irreducible part of the Brillouin zone
       k-points in crystal coordinates                weights
   0:     0.25000000   -0.25000000   -0.25000000          2/8
   1:     0.25000000   -0.25000000    0.25000000          2/8
   2:     0.25000000    0.25000000   -0.25000000          2/8
   3:     0.25000000    0.25000000    0.25000000          2/8

Wave functions: Plane wave expansion
  Cutoff energy: 350.000 eV
  Number of coefficients (min, max): 19084, 19084
  Pulay-stress correction: 0.000000 eV/Ang^3 (de/decut=0.000000)
  Using FFTW library
  ScaLapack parameters: grid=1x1, blocksize=None
  Wavefunction extrapolation:
    Improved wavefunction reuse through dual PAW basis

Occupation numbers: Fermi-Dirac:
  width: 0.1000  # eV

Eigensolver
   Davidson(niter=2)

Densities:
  Coarse grid: 48*48*48 grid
  Fine grid: 96*96*96 grid
  Total Charge: 0.000000

Density mixing:
  Method: difference
  Backend: pulay
  Linear mixing parameter: 0.05
  old densities: 5
  Damping of long wavelength oscillations: 50

Hamiltonian:
  XC and Coulomb potentials evaluated on a 96*96*96 grid
  Using the PBE Exchange-Correlation functional
  External potential:
    NoExternalPotential

XC parameters: PBE with 2 nearest neighbor stencil

Total number of cores used: 30
Parallelization over k-points: 2
Domain decomposition: 5 x 3 x 1

Number of atoms: 108
Number of atomic orbitals: 933
Number of bands in calculation: 624
Number of valence electrons: 912
Bands to converge: occupied

... initialized

Initializing position-dependent things.

Density initialized from atomic densities
Creating initial wave functions:
  624 bands from LCAO basis set

        .--------Al----------------.
       /|           Fe             |
      / |    FeFe     Ni           |
     / Cr       Ni       Al        |
    /   |Fe      CrCo       Fe     |
   /    | NiCr      ACo            |
  /    Co  FeiAlAl    Co Fe  CoAl  |
 *      Fe     AlCoAl   NiFe     Ni|
 |      |FeCr   NiFeFe   AlCrCr   Co
 |      | CoNi   AlCoCoAl CrNiFe   |
 |     Fe  Al CoCo  CrNi Ni  CrCr  |
 |      Cr  Ni CrNiCo CoNiCoAl   Fe|
 |      |CrCo   CoAlAl   CoCrFe   Fe
 |      .-FeCr-----CrNi-Al--NiFe---.
 |     Al  Cr CoNi    Al Co  Ni Cr/
 |    / Co              Ni       Ni
 |   /           Alr      CrFe  /
 |  /      Ni       Fe     CrAl/
 | /                   Fe     /i
 *--------------------------Cr

Positions:
   0 Cr    10.797848    0.093654    0.085777    ( 0.0000,  0.0000,  0.0000)
   1 Al    10.831824    1.844742    1.870716    ( 0.0000,  0.0000,  2.0000)
   2 Ni     1.786803   10.847372    1.827335    ( 0.0000,  0.0000,  0.0000)
   3 Co     1.769614    1.870531   -0.031264    ( 0.0000,  0.0000,  0.0000)
   4 Al     3.620857   10.822050   10.833629    ( 0.0000,  0.0000,  1.5000)
   5 Ni     3.571246    1.883176    1.708402    ( 0.0000,  0.0000,  0.0000)
   6 Co     5.521103   10.788063    1.666217    ( 0.0000,  0.0000,  0.0000)
   7 Al     5.520831    1.813973   10.830911    ( 0.0000,  0.0000,  1.5000)
   8 Al     7.330846    0.011025   10.815657    ( 0.0000,  0.0000,  2.0000)
   9 Fe     7.282018    1.809483    1.793250    ( 0.0000,  0.0000,  2.1000)
  10 Fe     9.029996    0.022005    1.811918    ( 0.0000,  0.0000,  1.5000)
  11 Fe     9.007196    1.868639   10.825714    ( 0.0000,  0.0000,  2.0000)
  12 Ni    10.861310    3.649723    0.014171    ( 0.0000,  0.0000,  2.0000)
  13 Cr    10.867442    5.463468    1.819235    ( 0.0000,  0.0000,  2.1000)
  14 Co     1.756088    3.650267    1.845949    ( 0.0000,  0.0000,  0.0000)
  15 Fe     1.790358    5.439092   10.869084    ( 0.0000,  0.0000,  2.1000)
  16 Cr     3.687842    3.622792   -0.049287    ( 0.0000,  0.0000,  2.0000)
  17 Co     3.667347    5.391145    1.745368    ( 0.0000,  0.0000,  0.0000)
  18 Al     5.497977    3.634415    1.792370    ( 0.0000,  0.0000,  2.0000)
  19 Cr     5.524908    5.448029    0.002551    ( 0.0000,  0.0000,  2.0000)
  20 Co     7.223340    3.611877   10.834270    ( 0.0000,  0.0000,  0.0000)
  21 Al     7.217762    5.474830    1.807776    ( 0.0000,  0.0000,  2.1000)
  22 Cr     9.073442    3.654344    1.775148    ( 0.0000,  0.0000,  0.0000)
  23 Cr     9.008740    5.418608    0.007692    ( 0.0000,  0.0000,  2.0000)
  24 Ni    10.859190    7.178720    0.014480    ( 0.0000,  0.0000,  1.5000)
  25 Fe    -0.018106    8.970948    1.875391    ( 0.0000,  0.0000,  0.0000)
  26 Fe     1.817615    7.224025    1.802546    ( 0.0000,  0.0000,  1.5000)
  27 Cr     1.880729    8.993464   10.874031    ( 0.0000,  0.0000,  0.0000)
  28 Fe     3.684428    7.260447   -0.001356    ( 0.0000,  0.0000,  2.0000)
  29 Co     3.612616    9.025636    1.761807    ( 0.0000,  0.0000,  1.5000)
  30 Cr     5.481440    7.275114    1.811211    ( 0.0000,  0.0000,  1.5000)
  31 Fe     5.461261    9.048153   10.833988    ( 0.0000,  0.0000,  1.5000)
  32 Ni     7.245704    7.257881    0.056891    ( 0.0000,  0.0000,  2.1000)
  33 Co     7.301969    9.004609    1.790315    ( 0.0000,  0.0000,  0.0000)
  34 Ni     9.029343    7.181775    1.815549    ( 0.0000,  0.0000,  2.0000)
  35 Ni     9.030561    9.042010    0.020232    ( 0.0000,  0.0000,  1.5000)
  36 Fe    -0.031046    0.001947    3.645701    ( 0.0000,  0.0000,  2.0000)
  37 Fe    10.825910    1.804351    5.434602    ( 0.0000,  0.0000,  2.1000)
  38 Ni     1.743552   10.849296    5.484376    ( 0.0000,  0.0000,  0.0000)
  39 Al     1.769755    1.791891    3.636068    ( 0.0000,  0.0000,  1.5000)
  40 Al     3.516667   10.719828    3.663227    ( 0.0000,  0.0000,  0.0000)
  41 Co     3.644244    1.785205    5.586728    ( 0.0000,  0.0000,  0.0000)
  42 Al     5.484778   10.815439    5.504022    ( 0.0000,  0.0000,  0.0000)
  43 Ni     5.457934    1.842230    3.658769    ( 0.0000,  0.0000,  0.0000)
  44 Cr     7.360615   10.815439    3.672229    ( 0.0000,  0.0000,  0.0000)
  45 Al     7.266884    1.811614    5.485528    ( 0.0000,  0.0000,  2.1000)
  46 Al     9.077986    0.023590    5.491921    ( 0.0000,  0.0000,  0.0000)
  47 Co     9.066788    1.824226    3.671175    ( 0.0000,  0.0000,  1.5000)
  48 Fe    -0.047135    3.649615    3.617291    ( 0.0000,  0.0000,  2.0000)
  49 Cr    10.809264    5.435993    5.379805    ( 0.0000,  0.0000,  2.0000)
  50 Cr     1.752316    3.624989    5.344676    ( 0.0000,  0.0000,  0.0000)
  51 Cr     1.805786    5.472046    3.619389    ( 0.0000,  0.0000,  2.1000)
[...]
iter:  37 05:30:19  -804.804990c -4.60  -2.90    +55.4650
iter:  38 05:32:27  -804.818442c -4.62  -2.94    +55.3052
iter:  39 05:34:35  -804.824803c -4.79  -2.99    +55.2876
iter:  40 05:36:43  -804.835813c -4.69  -3.00    +55.2158
iter:  41 05:38:51  -804.844213c -4.85  -3.04    +55.1693
iter:  42 05:40:59  -804.858943c -4.61  -3.09    +55.0543
iter:  43 05:43:08  -804.862273c -4.81  -3.10    +55.0395
iter:  44 05:45:16  -804.873522c -4.74  -3.12    +54.9391
iter:  45 05:47:24  -804.882644c -4.93  -3.21    +54.8704
iter:  46 05:49:32  -804.893793c -4.93  -3.24    +54.8151
iter:  47 05:51:40  -804.916222c -4.53  -3.25    +54.6508
iter:  48 05:53:48  -804.922067c -5.10  -3.24    +54.6174
iter:  49 05:55:56  -804.921254c -5.48  -3.22    +54.6311
iter:  50 05:58:04  -804.934016c -4.90  -3.24    +54.5342
iter:  51 06:00:12  -804.941725c -5.10  -3.26    +54.4815
iter:  52 06:02:20  -804.960272c -4.68  -3.26    +54.3500
iter:  53 06:04:28  -804.983687c -4.54  -3.22    +54.2160
iter:  54 06:06:35  -804.972563c -5.41  -3.15    +54.2785
iter:  55 06:08:43  -804.992805c -4.91  -3.15    +54.1895
iter:  56 06:10:51  -804.968022c -4.86  -3.11    +54.2878
iter:  57 06:12:59  -804.957319c -4.92  -3.19    +54.3202
iter:  58 06:15:07  -804.964008c -5.48  -3.25    +54.2619
iter:  59 06:17:15  -804.979159c -4.79  -3.26    +54.1683
iter:  60 06:19:24  -804.993490c -4.56  -3.22    +54.0678
iter:  61 06:21:32  -804.991898c -5.10  -3.14    +54.0450
iter:  62 06:23:40  -805.001054c -5.08  -3.18    +53.9715
iter:  63 06:25:48  -805.005584c -5.37  -3.17    +53.9238
iter:  64 06:27:56  -805.007053c -5.18  -3.16    +53.9131
iter:  65 06:30:04  -805.015302c -4.96  -3.17    +53.8294
iter:  66 06:32:12  -805.016086c -5.25  -3.17    +53.7742
iter:  67 06:34:21  -805.023126c -4.90  -3.20    +53.6747
iter:  68 06:36:29  -805.021710c -5.46  -3.17    +53.6707
iter:  69 06:38:36  -805.033993c -4.93  -3.26    +53.5943
iter:  70 06:40:44  -805.026894c -4.62  -3.20    +53.5985
iter:  71 06:42:52  -805.039528c -4.96  -3.50    +53.5241
iter:  72 06:45:00  -805.032782c -5.48  -3.42    +53.5121
iter:  73 06:47:07  -805.038527c -5.38  -3.58    +53.3846
iter:  74 06:49:16  -805.036623c -5.29  -3.57    +53.5439
iter:  75 06:51:23  -805.044210c -4.93  -3.55    +53.5903
iter:  76 06:53:30  -805.039564c -4.88  -3.51    +53.4226
iter:  77 06:55:38  -805.046797c -5.03  -3.66    +53.2578
iter:  78 06:57:45  -805.048113c -5.62  -3.56    +53.3343
iter:  79 06:59:53  -805.057282c -5.18  -3.73    +53.1727
iter:  80 07:02:00  -805.051435c -5.53  -3.69    +53.3190
iter:  81 07:04:08  -805.044583c -4.52  -3.75    +53.6517
iter:  82 07:06:14  -805.055679c -5.32  -3.53    +53.5109
iter:  83 07:08:18  -805.014466c -4.13  -3.55    +54.0695
iter:  84 07:10:26  -804.980220c -3.70  -3.45    +54.7909
iter:  85 07:12:34  -804.978115c -4.27  -3.24    +55.0465
iter:  86 07:14:41  -804.979790c -4.56  -3.19    +55.0801
iter:  87 07:16:48  -804.976535c -5.18  -3.13    +55.0756
iter:  88 07:18:56  -804.987923c -5.19  -3.24    +55.1141
iter:  89 07:21:04  -804.984381c -5.19  -3.17    +55.1288
iter:  90 07:23:12  -804.986890c -4.11  -3.15    +55.2049
[...]
iter: 105 07:55:00  -804.975896c -4.74  -3.92    +55.0247
iter: 106 07:57:08  -804.971119c -4.80  -3.76    +55.2495
iter: 107 07:59:16  -804.971274c -5.38  -3.61    +55.3209
iter: 108 08:01:23  -804.972974c -6.02  -3.58    +55.2502
iter: 109 08:03:31  -804.974935c -5.70  -3.62    +55.2166
iter: 110 08:05:39  -804.973523c -6.28  -3.63    +55.2617
iter: 111 08:07:46  -804.971546c -5.57  -3.60    +55.2932
iter: 112 08:09:54  -804.976484c -5.40  -3.45    +55.2616
iter: 113 08:12:01  -804.975140c -5.71  -3.49    +55.2488
iter: 114 08:14:09  -804.983008c -5.01  -3.60    +55.2443
iter: 115 08:16:16  -804.978282c -4.75  -3.34    +55.2371
iter: 116 08:18:24  -804.976339c -5.35  -3.47    +55.1932
iter: 117 08:20:31  -804.981444c -5.32  -3.70    +55.1293
iter: 118 08:22:38  -804.979298c -5.84  -3.71    +55.1082
iter: 119 08:24:46  -804.981742c -5.37  -3.88    +55.0147
iter: 120 08:26:53  -804.986088c -5.39  -4.01c   +54.9290
iter: 121 08:29:01  -804.982951c -5.97  -3.98    +54.9967
iter: 122 08:31:09  -804.975763c -4.86  -4.07c   +55.2083
iter: 123 08:33:17  -804.972579c -4.90  -3.85    +55.3727
iter: 124 08:35:24  -804.973242c -4.67  -3.65    +55.6154
iter: 125 08:37:30  -804.974899c -5.56  -3.47    +55.5114
iter: 126 08:39:37  -804.975102c -6.04  -3.55    +55.5350
iter: 127 08:41:45  -804.976587c -6.15  -3.55    +55.5292
iter: 128 08:43:53  -804.968801c -4.93  -3.55    +55.5448
iter: 129 08:46:00  -804.976402c -4.92  -3.45    +55.5440
iter: 130 08:48:08  -804.981469c -4.35  -3.36    +55.5465
iter: 131 08:50:15  -804.969126c -4.73  -3.15    +55.5379
iter: 132 08:52:22  -804.973091c -4.95  -3.37    +55.3958
iter: 133 08:54:30  -804.975371c -5.17  -3.72    +55.3699
iter: 134 08:56:37  -804.982286c -5.01  -3.72    +55.2338
iter: 135 08:58:45  -804.985003c -5.23  -3.84    +55.1647
iter: 136 09:00:52  -804.993557c -4.85  -3.90    +55.0352
iter: 137 09:02:59  -804.975429c -4.45  -3.74    +55.3312
iter: 138 09:05:06  -804.964881c -4.25  -3.88    +55.6363
iter: 139 09:07:14  -804.964325c -5.07  -3.61    +55.7258
iter: 140 09:09:20  -804.964137c -5.36  -3.54    +55.8410
iter: 141 09:11:27  -804.966629c -5.76  -3.50    +55.8838
iter: 142 09:13:33  -804.965751c -5.87  -3.49    +55.8453
iter: 143 09:15:40  -804.966824c -5.22  -3.43    +55.9116
iter: 144 09:17:48  -804.971866c -5.26  -3.29    +55.8733
iter: 145 09:19:55  -804.986418c -4.23  -3.35    +55.9303
iter: 146 09:22:03  -804.964997c -4.55  -3.11    +55.9276
iter: 147 09:24:10  -804.968259c -4.79  -3.25    +55.7257
iter: 148 09:26:17  -804.975051c -4.78  -3.55    +55.6783
iter: 149 09:28:25  -804.977395c -5.04  -3.52    +55.5958
iter: 150 09:30:32  -804.978818c -5.43  -3.69    +55.5533
iter: 151 09:32:40  -804.986804c -4.96  -3.67    +55.4880
iter: 152 09:34:47  -804.983165c -5.64  -3.57    +55.5042
iter: 153 09:36:54  -804.985313c -5.27  -3.53    +55.4511
iter: 154 09:39:02  -804.986104c -5.38  -3.48    +55.4298
iter: 155 09:41:09  -804.988389c -5.49  -3.57    +55.3785
iter: 156 09:43:16  -804.984526c -5.12  -3.58    +55.3539
iter: 157 09:45:24  -804.988495c -5.41  -3.63    +55.3269
iter: 158 09:47:31  -804.986702c -5.42  -3.66    +55.3133
iter: 159 09:49:38  -804.987700c -5.63  -3.60    +55.2722
iter: 160 09:51:45  -804.988982c -5.80  -3.84    +55.2368
iter: 161 09:53:52  -804.989463c -6.04  -3.94    +55.2293
iter: 162 09:56:00  -804.990849c -5.87  -3.93    +55.2002
iter: 163 09:58:07  -804.990298c -6.79  -4.04c   +55.2162
iter: 164 10:00:14  -804.989919c -6.39  -4.12c   +55.2384
iter: 165 10:02:21  -804.992441c -5.88  -4.12c   +55.1751
iter: 166 10:04:27  -804.990878c -6.28  -4.11c   +55.2210
iter: 167 10:06:33  -804.992449c -6.07  -4.22c   +55.2094
iter: 168 10:08:41  -804.987495c -4.84  -4.18c   +55.2403
iter: 169 10:10:48  -804.985266c -4.49  -4.07c   +55.2147
iter: 170 10:12:55  -804.986848c -5.76  -3.72    +55.1605
iter: 171 10:15:03  -804.983938c -5.17  -3.76    +55.2459
iter: 172 10:17:10  -804.982427c -4.93  -3.66    +55.3020
iter: 173 10:19:18  -804.982641c -5.05  -3.57    +55.2877
iter: 174 10:21:25  -804.982806c -5.67  -3.49    +55.2389
iter: 175 10:23:32  -804.984443c -5.45  -3.54    +55.1666
iter: 176 10:25:40  -804.983276c -5.93  -3.50    +55.1545
iter: 177 10:27:46  -804.981952c -5.65  -3.57    +55.1233
iter: 178 10:29:54  -804.984992c -5.38  -3.68    +55.1180
iter: 179 10:32:01  -804.982576c -5.71  -3.54    +55.1115
iter: 180 10:34:08  -804.984259c -5.76  -3.77    +55.0947
iter: 181 10:36:15  -804.984115c -5.91  -3.77    +55.0881
iter: 182 10:38:22  -804.985017c -5.83  -3.81    +55.0751
iter: 183 10:40:30  -804.985627c -5.97  -3.91    +55.0559
iter: 184 10:42:35  -804.985011c -6.43  -3.97    +55.0707
iter: 185 10:44:40  -804.987237c -6.01  -3.98    +55.0527
iter: 186 10:46:48  -804.985937c -6.65  -3.97    +55.0581
iter: 187 10:48:55  -804.986047c -6.33  -4.04c   +55.0339
iter: 188 10:51:02  -804.987433c -5.87  -4.03c   +55.0460
iter: 189 10:53:10  -804.987438c -5.76  -3.98    +54.9976
iter: 190 10:55:17  -804.989086c -5.99  -4.02c   +54.9630
iter: 191 10:57:24  -804.981928c -4.89  -3.99    +55.1409
iter: 192 10:59:31  -804.977460c -4.83  -3.99    +55.3336
iter: 193 11:01:39  -804.975099c -4.91  -3.93    +55.5375
iter: 194 11:03:46  -804.974682c -5.54  -3.78    +55.6142
iter: 195 11:05:54  -804.975189c -6.08  -3.77    +55.6237
iter: 196 11:08:01  -804.975658c -6.33  -3.80    +55.6309
iter: 197 11:10:09  -804.976566c -5.91  -3.72    +55.6280
iter: 198 11:12:16  -804.976762c -5.18  -3.62    +55.6714
iter: 199 11:14:24  -804.976118c -5.46  -3.53    +55.6621
iter: 200 11:16:31  -804.976250c -5.82  -3.79    +55.6402
iter: 201 11:18:39  -804.976943c -6.02  -3.93    +55.6345
iter: 202 11:20:47  -804.976924c -6.18  -3.88    +55.6260
iter: 203 11:22:54  -804.977539c -5.94  -4.02c   +55.6102
iter: 204 11:25:00  -804.978234c -6.10  -4.06c   +55.6044
iter: 205 11:27:07  -804.978423c -6.46  -4.01c   +55.5992
iter: 206 11:29:14  -804.979204c -6.10  -4.14c   +55.5818
iter: 207 11:31:21  -804.979197c -6.49  -4.04c   +55.5741
iter: 208 11:33:28  -804.980158c -6.24  -4.24c   +55.5561
iter: 209 11:35:35  -804.979187c -6.53  -4.15c   +55.5779
iter: 210 11:37:42  -804.976552c -5.29  -4.33c   +55.6600
iter: 211 11:39:48  -804.977289c -6.71  -4.10c   +55.6471
iter: 212 11:41:55  -804.977177c -7.43c -4.21c   +55.6509

Converged after 212 iterations.

Dipole moment: (28.938959, 17.078009, 8.403879) |e|*Ang

Total magnetic moment: (0.000000, 0.000000, 55.650914)
Local magnetic moments:
   0 Cr ( 0.000000,  0.000000, -1.571815)
   1 Al ( 0.000000,  0.000000, -0.023763)
   2 Ni ( 0.000000,  0.000000,  0.091196)
   3 Co ( 0.000000,  0.000000,  0.469972)
   4 Al ( 0.000000,  0.000000, -0.021941)
   5 Ni ( 0.000000,  0.000000,  0.130981)
   6 Co ( 0.000000,  0.000000,  1.138223)
   7 Al ( 0.000000,  0.000000, -0.018841)
   8 Al ( 0.000000,  0.000000, -0.045507)
   9 Fe ( 0.000000,  0.000000,  2.189165)
  10 Fe ( 0.000000,  0.000000,  2.097672)
  11 Fe ( 0.000000,  0.000000,  1.972280)
  12 Ni ( 0.000000,  0.000000,  0.173424)
  13 Cr ( 0.000000,  0.000000, -1.426627)
  14 Co ( 0.000000,  0.000000,  0.319215)
  15 Fe ( 0.000000,  0.000000,  2.306760)
  16 Cr ( 0.000000,  0.000000,  1.380856)
  17 Co ( 0.000000,  0.000000,  0.283285)
  18 Al ( 0.000000,  0.000000, -0.023932)
  19 Cr ( 0.000000,  0.000000,  1.067180)
  20 Co ( 0.000000,  0.000000,  0.725171)
  21 Al ( 0.000000,  0.000000, -0.000415)
  22 Cr ( 0.000000,  0.000000, -1.865235)
  23 Cr ( 0.000000,  0.000000,  1.342022)
  24 Ni ( 0.000000,  0.000000,  0.240682)
  25 Fe ( 0.000000,  0.000000,  2.310284)
  26 Fe ( 0.000000,  0.000000,  1.926990)
  27 Cr ( 0.000000,  0.000000, -1.558478)
  28 Fe ( 0.000000,  0.000000,  2.177208)
  29 Co ( 0.000000,  0.000000,  0.700766)
  30 Cr ( 0.000000,  0.000000, -1.474701)
  31 Fe ( 0.000000,  0.000000,  2.361582)
  32 Ni ( 0.000000,  0.000000,  0.289129)
  33 Co ( 0.000000,  0.000000,  1.246427)
  34 Ni ( 0.000000,  0.000000,  0.191784)
  35 Ni ( 0.000000,  0.000000,  0.133499)
  36 Fe ( 0.000000,  0.000000,  2.264570)
  37 Fe ( 0.000000,  0.000000,  1.957150)
  38 Ni ( 0.000000,  0.000000,  0.229661)
  39 Al ( 0.000000,  0.000000, -0.027650)
  40 Al ( 0.000000,  0.000000, -0.013921)
  41 Co ( 0.000000,  0.000000,  0.977162)
  42 Al ( 0.000000,  0.000000, -0.021293)
  43 Ni ( 0.000000,  0.000000,  0.113459)
  44 Cr ( 0.000000,  0.000000, -0.121669)
  45 Al ( 0.000000,  0.000000, -0.023710)
  46 Al ( 0.000000,  0.000000, -0.022088)
  47 Co ( 0.000000,  0.000000,  1.001539)
  48 Fe ( 0.000000,  0.000000,  1.517195)
  49 Cr ( 0.000000,  0.000000, -1.415370)
  50 Cr ( 0.000000,  0.000000, -1.910991)
  51 Cr ( 0.000000,  0.000000,  0.561333)
  52 Cr ( 0.000000,  0.000000,  1.815387)
  53 Co ( 0.000000,  0.000000,  0.926484)
  54 Ni ( 0.000000,  0.000000,  0.303580)
  55 Al ( 0.000000,  0.000000, -0.004368)
  56 Ni ( 0.000000,  0.000000,  0.159757)
  57 Ni ( 0.000000,  0.000000,  0.250432)
  58 Co ( 0.000000,  0.000000,  0.846176)
  59 Cr ( 0.000000,  0.000000,  1.389821)
[...]
  93 Co ( 0.000000,  0.000000,  1.170621)
  94 Fe ( 0.000000,  0.000000,  1.971379)
  95 Cr ( 0.000000,  0.000000,  0.488007)
  96 Ni ( 0.000000,  0.000000,  0.226970)
  97 Cr ( 0.000000,  0.000000, -1.880839)
  98 Ni ( 0.000000,  0.000000,  0.275598)
  99 Fe ( 0.000000,  0.000000,  2.288593)
 100 Al ( 0.000000,  0.000000, -0.039211)
 101 Ni ( 0.000000,  0.000000,  0.167996)
 102 Co ( 0.000000,  0.000000,  0.732087)
 103 Al ( 0.000000,  0.000000,  0.000180)
 104 Ni ( 0.000000,  0.000000,  0.185239)
 105 Al ( 0.000000,  0.000000, -0.025691)
 106 Fe ( 0.000000,  0.000000,  2.412775)
 107 Co ( 0.000000,  0.000000,  0.729793)

Energy contributions relative to reference atoms: (reference = -3235165.067515)

Kinetic:       +221.268445
Potential:     -216.858927
External:        +0.000000
XC:            -838.609679
Entropy (-ST):   -4.167670
Local:          +31.306819
Free energy:   -807.061012
Extrapolated:  -804.977177

Spin contamination: 25.358840 electrons
Showing only first 2 kpts
                      Up                     Down
 Kpt  Band  Eigenvalues  Occupancy  Eigenvalues  Occupancy
  0   454      9.02692    0.99291      9.89625    0.02295
  0   455      9.04388    0.99161      9.90909    0.02024
  0   456      9.06525    0.98963      9.91333    0.01941
  0   457      9.06934    0.98920      9.94178    0.01468

  1   454      9.02297    0.99318      9.89697    0.02278
  1   455      9.04257    0.99172      9.90964    0.02013
  1   456      9.06812    0.98933      9.91967    0.01824
  1   457      9.07387    0.98871      9.93207    0.01615

Fermi level: 9.52111

No gap

Forces in eV/Ang:
  0 Cr    0.38939   -0.95201   -0.36981
  1 Al    0.13537    0.16813   -0.70686
  2 Ni   -0.10869    0.09307   -0.12039
  3 Co    0.00385   -0.33364   -0.28825
  4 Al   -0.28607    0.32639    0.69610
  5 Ni    0.53055   -0.37819    0.41218
  6 Co   -0.09189    0.25980    1.05244
  7 Al   -0.29564   -0.05850    0.01456
  8 Al   -0.54129   -0.16128    2.01115
  9 Fe    0.37498   -0.18711    0.93163
 10 Fe    0.13054   -0.30856    0.30455
 11 Fe    0.51214    0.31343    0.17355
 12 Ni    0.02671   -0.36683   -0.16128
 13 Cr    0.47104   -0.04677    0.08495
 14 Co    0.42800    0.18053   -0.23747
 15 Fe    0.38841   -0.07720    0.58507
 16 Cr   -1.02952   -0.32605    0.55629
 17 Co   -0.19831    0.21599    0.39534
 18 Al   -0.36554   -1.13704    0.69665
 19 Cr   -0.18385    0.39369   -0.78619
 20 Co    0.07342    0.44890    0.00499
 21 Al    1.47607    0.14728    0.12795
 22 Cr   -1.08071   -0.25525    0.26572
 23 Cr   -0.09860   -0.49792    0.30543
 24 Ni   -0.08773    0.80604   -0.35120
 25 Fe   -0.39561    0.36677   -0.81080
 26 Fe    0.28483   -0.11031   -0.04654
 27 Cr   -0.69333   -0.54805    0.36799
 28 Fe   -0.28073    0.22533    0.13629
 29 Co    0.16126   -0.15675    0.23099
 30 Cr   -0.97512    1.05907   -0.74516
 31 Fe   -0.08855   -0.62915    0.72568
 32 Ni    0.19143    0.02974   -0.53379
 33 Co   -0.09021    0.09690    0.54951
 34 Ni    0.20645    0.47717   -0.00501
 35 Ni    0.26033    0.13850   -0.35684
 36 Fe   -0.50138   -0.31838   -0.16451
 37 Fe    0.13832    0.86180   -0.23826
 38 Ni    0.74315    0.03961   -0.23743
 39 Al    0.83007    0.03247    0.11097
 40 Al    1.47175    1.29105   -0.57947
 41 Co    0.03793   -0.03823   -0.30275
 42 Al   -0.93143    1.69478   -0.94420
 43 Ni   -0.23423   -0.66033   -0.19476
 44 Cr   -0.68058    0.04474   -1.48314
 45 Al   -0.30452    1.53119   -0.53663
 46 Al   -0.04413   -0.31395   -0.41795
 47 Co   -0.37208    0.24796   -0.16486
 48 Fe   -0.06994   -0.04069    0.42176
 49 Cr   -0.04901    0.40608    0.24072
 50 Cr    0.78179    0.32155    1.17291
 51 Cr    0.21855    0.05811    0.04832
 52 Cr   -0.84771   -0.29567    0.27999
 53 Co   -0.58840    0.17194    0.11491
 54 Ni   -0.08186   -0.49258    0.00299
 55 Al   -0.01648    0.33251    1.31865
 56 Ni    0.14866   -0.34218   -0.74026
 57 Ni    0.33847   -0.21891    0.02747
 58 Co    0.15355    0.26367   -0.19782
 59 Cr    0.24920   -0.60726    0.34024
[...]
 93 Co   -0.10270    0.56165   -0.02954
 94 Fe   -0.14048   -0.31126    0.01915
 95 Cr   -0.19134   -0.12300   -0.45865
 96 Ni    0.01625   -0.02707    0.82797
 97 Cr   -0.21658   -0.95053    0.08185
 98 Ni   -0.46725    0.02008   -0.13585
 99 Fe   -0.88945   -0.10446    0.14418
100 Al   -0.62348   -0.48312   -0.19207
101 Ni    0.22604   -0.31690    0.13845
102 Co   -0.28112   -0.76385    0.34020
103 Al   -0.27979   -0.91705    1.11867
104 Ni    0.09041   -0.23480    0.56071
105 Al    0.05341   -2.03540   -0.40256
106 Fe    0.75980    0.36177   -0.69910
107 Co    1.05481   -0.69927    0.52955

Date: Sat Apr 15 11:42:15 2023