User:   c.zeng@d0137
Date:   Sat Apr  8 08:40:56 2023
Arch:   x86_64
Pid:    26355
CWD:    /home/c.zeng/projects/hea-corrosion/hea-mlp/data-curation/volume/dft-jobs/38
Python: 3.8.1
gpaw:   /home/c.zeng/usr/installs/gpaw/source/gpaw-22.8.0/gpaw
_gpaw:  /home/c.zeng/usr/installs/gpaw/source/gpaw-22.8.0/
        _gpaw.cpython-38-x86_64-linux-gnu.so
ase:    /home/c.zeng/.local/lib/python3.8/site-packages/ase-3.22.1-py3.8.egg/ase (version 3.22.1)
numpy:  /shared/centos7/python/3.8.1/lib/python3.8/site-packages/numpy (version 1.17.4)
scipy:  /shared/centos7/python/3.8.1/lib/python3.8/site-packages/scipy (version 1.4.1)
units:  Angstrom and eV
cores: 64
OpenMP: False
OMP_NUM_THREADS: 1

Input parameters:
  convergence: {energy: 0.0001}
  kpts: [2 2 2]
  maxiter: 666
  mode: {ecut: 350.0,
         name: pw}
  occupations: {fixmagmom: False,
                name: fermi-dirac,
                width: 0.1}
  spinpol: True
  xc: PBE

System changes: positions, numbers, cell, pbc, initial_charges, initial_magmoms

Initialize ...

species:
  Cr:
    name: Chromium
    id: 33f258bda2ca9f93018e70263a35547b
    Z: 24.0
    valence: 6
    core: 18
    charge: 0.0
    file: /home/c.zeng/usr/data/gpaw-setups-0.9.20000/Cr.PBE.gz
    compensation charges: {type: gauss,
                           rc: 0.35,
                           lmax: 2}
    cutoffs: {filter: 2.14,
              core: 3.04}
    valence states:
      #              energy  rcut
      - 4s(1.00)    -4.007   1.164
      - 4p(0.00)    -0.989   1.217
      - 3d(5.00)    -2.913   1.111
      -  s          23.205   1.164
      -  p          26.223   1.217
      -  d          24.299   1.111

    # Using partial waves for Cr as LCAO basis

  Al:
    name: Aluminium
    id: 0292cae29f5d6237e50f6abdd43a7bdd
    Z: 13.0
    valence: 3
    core: 10
    charge: 0.0
    file: /home/c.zeng/usr/data/gpaw-setups-0.9.20000/Al.PBE.gz
    compensation charges: {type: gauss,
                           rc: 0.34,
                           lmax: 2}
    cutoffs: {filter: 1.91,
              core: 2.36}
    valence states:
      #              energy  rcut
      - 3s(2.00)    -7.753   1.085
      - 3p(1.00)    -2.712   1.085
      -  s          19.459   1.085
      -  p          24.499   1.085
      -  d           0.000   1.085

[...]

  Co:
    name: Cobalt
    id: 339d20d5b0b93d2de9531a1bee871d91
    Z: 27.0
    valence: 9
    core: 18
    charge: 0.0
    file: /home/c.zeng/usr/data/gpaw-setups-0.9.20000/Co.PBE.gz
    compensation charges: {type: gauss,
                           rc: 0.32,
                           lmax: 2}
    cutoffs: {filter: 1.87,
              core: 2.55}
    valence states:
      #              energy  rcut
      - 4s(2.00)    -5.469   1.005
      - 4p(0.00)    -1.277   1.058
      - 3d(7.00)    -8.205   1.005
      -  s          21.742   1.005
      -  p          25.934   1.058
      -  d          19.007   1.005

[...]

  Fe:
    name: Iron
    id: 37abbd8d6c3c35915a9b583b742da910
    Z: 26.0
    valence: 8
    core: 18
    charge: 0.0
    file: /home/c.zeng/usr/data/gpaw-setups-0.9.20000/Fe.PBE.gz
    compensation charges: {type: gauss,
                           rc: 0.33,
                           lmax: 2}
    cutoffs: {filter: 2.06,
              core: 2.67}
    valence states:
      #              energy  rcut
      - 4s(2.00)    -5.291   1.164
      - 4p(0.00)    -1.326   1.058
      - 3d(6.00)    -7.505   1.058
      -  s          21.920   1.164
      -  p          25.885   1.058
      -  d          19.706   1.058

[...]

  Ni:
    name: Nickel
    id: 0d9f38a9d6e76a2886f07bb4381f212b
    Z: 28.0
    valence: 16
    core: 12
    charge: 0.0
    file: /home/c.zeng/usr/data/gpaw-setups-0.9.20000/Ni.PBE.gz
    compensation charges: {type: gauss,
                           rc: 0.36,
                           lmax: 2}
    cutoffs: {filter: 2.14,
              core: 1.98}
    valence states:
      #              energy  rcut
      - 4s(2.00)    -5.642   1.164
      - 3p(6.00)   -71.394   1.207
      - 4p(0.00)    -1.226   1.207
      - 3d(8.00)    -8.875   1.138
      -  s          21.570   1.164
      -  d          18.337   1.138

    # Using partial waves for Ni as LCAO basis

Reference energy: -3699400.456887  # eV

Spin-polarized calculation.
Magnetic moment: 143.500000

Convergence criteria:
 Maximum [total energy] change in last 3 cyles: 0.0001 eV / electron
 Maximum integral of absolute [dens]ity change: 0.0001 electrons / valence electron
 Maximum integral of absolute [eigenst]ate change: 4e-08 eV^2 / valence electron
 Maximum number of scf [iter]ations: 666
 (Square brackets indicate name in SCF output, whereas a 'c' in
 the SCF output indicates the quantity has converged.)

Symmetries present (total): 1

  ( 1  0  0)
  ( 0  1  0)
  ( 0  0  1)

8 k-points: 2 x 2 x 2 Monkhorst-Pack grid
4 k-points in the irreducible part of the Brillouin zone
       k-points in crystal coordinates                weights
   0:     0.25000000   -0.25000000   -0.25000000          2/8
   1:     0.25000000   -0.25000000    0.25000000          2/8
   2:     0.25000000    0.25000000   -0.25000000          2/8
   3:     0.25000000    0.25000000    0.25000000          2/8

Wave functions: Plane wave expansion
  Cutoff energy: 350.000 eV
  Number of coefficients (min, max): 18052, 18052
  Pulay-stress correction: 0.000000 eV/Ang^3 (de/decut=0.000000)
  Using FFTW library
  ScaLapack parameters: grid=1x1, blocksize=None
  Wavefunction extrapolation:
    Improved wavefunction reuse through dual PAW basis

Occupation numbers: Fermi-Dirac:
  width: 0.1000  # eV

Eigensolver
   Davidson(niter=2)

Densities:
  Coarse grid: 48*48*48 grid
  Fine grid: 96*96*96 grid
  Total Charge: 0.000000

Density mixing:
  Method: difference
  Backend: pulay
  Linear mixing parameter: 0.05
  old densities: 5
  Damping of long wavelength oscillations: 50

Hamiltonian:
  XC and Coulomb potentials evaluated on a 96*96*96 grid
  Using the PBE Exchange-Correlation functional
  External potential:
    NoExternalPotential

XC parameters: PBE with 2 nearest neighbor stencil

Total number of cores used: 64
Parallelization over k-points: 4
Domain decomposition: 4 x 2 x 2

Number of atoms: 108
Number of atomic orbitals: 1025
Number of bands in calculation: 703
Number of valence electrons: 1020
Bands to converge: occupied

... initialized

Initializing position-dependent things.

Density initialized from atomic densities
Creating initial wave functions:
  703 bands from LCAO basis set

        Cr------------------------.
       /|  Ni                Cr   |
      Cr|   Fe         Al         |
     /  |      Cr       Fe       Ni
    /   CFe      Co               |
   /o   | NiFe     CrFe    CrNi   |
  /  NiCo  FeCo     CrNiFe        |
 *    FeCo  CrNiNi     CoCo       |
 |     NiCoCr  CoNi Co  AlCrFe    |
 | Ni   FeFeCoAl CoNiNiCo  Ni     |
 |   FeCr  NiCoCo   FeFeCr   Fe   |
 |    CrNi  CrCoFeCr NiNiNi   Ni  |
 |     NiNiNi  Co CrCo  CrFeCo    |
 |      .-FeCrNi-FeCoCoFe--CrFe---.
 |   CoFe    FeAl   CrNiNi       /
 |    / Fe    Co         Co     /
 |   /          CrFe           /
 |  /      Cr       Co    CrAl/
 |/            Fe           /
 *----------------Cr-------*

Positions:
   0 Cr     0.000020   -0.020521   10.639560    ( 0.0000,  0.0000,  0.0000)
   1 Al    10.665737    1.802224    1.782941    ( 0.0000,  0.0000,  0.0000)
   2 Cr     1.801082   10.627011    1.781116    ( 0.0000,  0.0000,  0.0000)
   3 Co     1.785833    1.797006   10.647052    ( 0.0000,  0.0000,  2.1000)
   4 Fe     3.533558   -0.014946    0.021181    ( 0.0000,  0.0000,  2.0000)
   5 Cr     3.530410    1.776111    1.745740    ( 0.0000,  0.0000,  0.0000)
   6 Ni     5.324844   10.639464    1.759976    ( 0.0000,  0.0000,  1.5000)
   7 Fe     5.345760    1.817367    0.005788    ( 0.0000,  0.0000,  2.0000)
   8 Cr     7.143758    0.011982    0.015586    ( 0.0000,  0.0000,  0.0000)
   9 Co     7.142840    1.791041    1.761694    ( 0.0000,  0.0000,  2.1000)
  10 Ni     8.885144   10.652057    1.781735    ( 0.0000,  0.0000,  1.5000)
  11 Fe     8.883938    1.791275   10.646689    ( 0.0000,  0.0000,  2.0000)
  12 Co     0.004513    3.579210   10.649837    ( 0.0000,  0.0000,  2.1000)
  13 Co     0.018894    5.333797    1.790368    ( 0.0000,  0.0000,  2.1000)
  14 Fe     1.780145    3.599091    1.758524    ( 0.0000,  0.0000,  2.0000)
  15 Fe     1.796462    5.342281   -0.017417    ( 0.0000,  0.0000,  2.0000)
  16 Fe     3.551859    3.582796   -0.015676    ( 0.0000,  0.0000,  2.0000)
  17 Fe     3.533985    5.361767    1.769356    ( 0.0000,  0.0000,  2.0000)
  18 Cr     5.341192    3.600148    1.751503    ( 0.0000,  0.0000,  0.0000)
  19 Co     5.303095    5.318281   -0.006807    ( 0.0000,  0.0000,  2.1000)
  20 Fe     7.116919    3.578421   10.660316    ( 0.0000,  0.0000,  2.0000)
  21 Ni     7.113120    5.312198    1.803558    ( 0.0000,  0.0000,  1.5000)
  22 Co     8.886532    3.585859    1.767254    ( 0.0000,  0.0000,  2.1000)
  23 Cr     8.917756    5.294707    0.002665    ( 0.0000,  0.0000,  0.0000)
  24 Cr     0.026167    7.100240   -0.004734    ( 0.0000,  0.0000,  0.0000)
  25 Ni     0.020054    8.875134    1.786719    ( 0.0000,  0.0000,  1.5000)
  26 Fe     1.791820    7.110282    1.779494    ( 0.0000,  0.0000,  2.0000)
  27 Ni     1.784552    8.871645   10.663166    ( 0.0000,  0.0000,  1.5000)
  28 Co     3.552393    7.101147    0.013230    ( 0.0000,  0.0000,  2.1000)
  29 Co     3.541647    8.861870    1.786206    ( 0.0000,  0.0000,  2.1000)
  30 Co     5.293822    7.104220    1.789792    ( 0.0000,  0.0000,  2.1000)
  31 Cr     5.303447    8.878997    0.036274    ( 0.0000,  0.0000,  0.0000)
  32 Al     7.098970    7.086890   10.655418    ( 0.0000,  0.0000,  0.0000)
  33 Cr     7.106259    8.910233    1.808638    ( 0.0000,  0.0000,  0.0000)
  34 Cr     8.933529    7.099055    1.804305    ( 0.0000,  0.0000,  0.0000)
  35 Cr     8.917137    8.922591   10.667541    ( 0.0000,  0.0000,  0.0000)
  36 Fe    10.677156   10.658790    3.578591    ( 0.0000,  0.0000,  2.0000)
  37 Co    10.667818    1.796632    5.335793    ( 0.0000,  0.0000,  2.1000)
  38 Cr     1.773689   10.651331    5.342601    ( 0.0000,  0.0000,  0.0000)
  39 Fe     1.790059    1.778928    3.580897    ( 0.0000,  0.0000,  2.0000)
  40 Co     3.532000   10.627373    3.558807    ( 0.0000,  0.0000,  2.1000)
  41 Ni     3.536845    1.786975    5.365822    ( 0.0000,  0.0000,  1.5000)
  42 Ni     5.313809    0.004343    5.359409    ( 0.0000,  0.0000,  1.5000)
  43 Al     5.340595    1.769505    3.578186    ( 0.0000,  0.0000,  0.0000)
  44 Fe     7.136800   10.674701    3.553471    ( 0.0000,  0.0000,  2.0000)
  45 Co     7.141165    1.793228    5.356901    ( 0.0000,  0.0000,  2.1000)
  46 Fe     8.918663   10.676942    5.343177    ( 0.0000,  0.0000,  2.0000)
  47 Ni     8.877482    1.780817    3.576094    ( 0.0000,  0.0000,  1.5000)
  48 Fe    -0.013317    3.572925    3.577994    ( 0.0000,  0.0000,  2.0000)
  49 Fe    10.682278    5.331663    5.337287    ( 0.0000,  0.0000,  2.0000)
  50 Ni     1.784808    3.582028    5.348598    ( 0.0000,  0.0000,  1.5000)
  51 Ni     1.771330    5.344373    3.567045    ( 0.0000,  0.0000,  1.5000)
  52 Cr     3.525704    3.600649    3.572829    ( 0.0000,  0.0000,  0.0000)
  53 Co     3.548786    5.348972    5.348246    ( 0.0000,  0.0000,  2.1000)
  54 Fe     5.338567    3.584247    5.360689    ( 0.0000,  0.0000,  2.0000)
  55 Cr     5.338386    5.347595    3.560781    ( 0.0000,  0.0000,  0.0000)
  56 Co     7.139522    3.563128    3.567803    ( 0.0000,  0.0000,  2.1000)
  57 Fe     7.116834    5.342036    5.344586    ( 0.0000,  0.0000,  2.0000)
  58 Ni     8.884867    3.566234    5.337980    ( 0.0000,  0.0000,  1.5000)
  59 Fe     8.901205    5.339613    3.572317    ( 0.0000,  0.0000,  2.0000)
[...]
  93 Ni     7.104882    5.302860    8.856438    ( 0.0000,  0.0000,  1.5000)
  94 Co     8.899284    3.555637    8.896019    ( 0.0000,  0.0000,  2.1000)
  95 Cr     8.910169    5.337020    7.100048    ( 0.0000,  0.0000,  0.0000)
  96 Fe     0.014288    7.108201    7.112224    ( 0.0000,  0.0000,  2.0000)
  97 Ni    -0.001973    8.898558    8.886147    ( 0.0000,  0.0000,  1.5000)
  98 Ni     1.774126    7.106771    8.891163    ( 0.0000,  0.0000,  1.5000)
  99 Fe     1.774062    8.861261    7.110730    ( 0.0000,  0.0000,  2.0000)
 100 Ni     3.535383    7.092183    7.105149    ( 0.0000,  0.0000,  1.5000)
 101 Cr     3.525490    8.852746    8.896477    ( 0.0000,  0.0000,  0.0000)
 102 Cr     5.308570    7.104220    8.871976    ( 0.0000,  0.0000,  0.0000)
 103 Cr     5.297066    8.857612    7.101990    ( 0.0000,  0.0000,  0.0000)
 104 Co     7.125126    7.082813    7.140663    ( 0.0000,  0.0000,  2.1000)
 105 Fe     7.145199    8.901749    8.859106    ( 0.0000,  0.0000,  2.0000)
 106 Cr     8.922302    7.120035    8.860963    ( 0.0000,  0.0000,  0.0000)
 107 Ni     8.929292    8.882732    7.129597    ( 0.0000,  0.0000,  1.5000)

Unit cell:
           periodic     x           y           z      points  spacing
  1. axis:    yes   10.671500    0.000000    0.000000    48     0.2223
  2. axis:    yes    0.000000   10.671500    0.000000    48     0.2223
  3. axis:    yes    0.000000    0.000000   10.671500    48     0.2223

  Lengths:  10.671500  10.671500  10.671500
  Angles:   90.000000  90.000000  90.000000

Effective grid spacing dv^(1/3) = 0.2223

     iter     time        total  log10-change:  magmom
                         energy  eigst   dens
iter:   1 08:42:56 -1058.681334                  +143.7773
iter:   2 08:43:46  -938.740440  -0.23  -1.20    +81.6281
iter:   3 08:44:36  -921.766124  -0.90  -1.22    +69.7353
iter:   4 08:45:26  -902.436404  -1.30  -1.29    +65.5790
iter:   5 08:46:17  -887.743327  -1.58  -1.32    +62.4882
iter:   6 08:47:07  -886.890064  -1.27  -1.39    +62.9644
iter:   7 08:47:57  -883.333857  -1.28  -1.48    +62.0580
iter:   8 08:48:48  -870.899752  -1.76  -1.57    +61.7599
iter:   9 08:49:38  -869.154666  -2.18  -1.76    +62.9927
iter:  10 08:50:28  -869.270543  -2.64  -1.85    +64.1148
iter:  11 08:51:18  -869.951122  -2.58  -1.87    +65.3807
iter:  12 08:52:09  -871.117462  -2.46  -1.91    +66.5345
iter:  13 08:52:59  -871.141291  -2.46  -1.93    +66.9965
iter:  14 08:53:49  -870.863231  -2.56  -2.00    +67.8617
iter:  15 08:54:40  -870.953001  -2.81  -2.06    +68.5489
iter:  16 08:55:30  -870.473150  -2.99  -2.09    +68.7419
iter:  17 08:56:20  -870.577830  -3.22  -2.19    +69.2567
iter:  18 08:57:10  -870.399563  -3.29  -2.20    +69.5761
iter:  19 08:58:00  -870.606169  -3.16  -2.32    +69.9400
iter:  20 08:58:51  -870.441147  -3.25  -2.30    +70.0130
iter:  21 08:59:41  -870.502431  -3.47  -2.41    +70.3462
iter:  22 09:00:31  -870.464854c -3.46  -2.41    +70.4037
iter:  23 09:01:21  -870.434708c -3.52  -2.46    +70.3552
iter:  24 09:02:12  -870.395773c -3.67  -2.52    +70.5052
iter:  25 09:03:02  -870.392055c -3.72  -2.57    +70.4847
iter:  26 09:03:52  -870.433771c -3.85  -2.64    +70.5063
iter:  27 09:04:42  -870.376383c -3.83  -2.60    +70.5098
iter:  28 09:05:33  -870.427654c -3.98  -2.70    +70.5681
iter:  29 09:06:24  -870.406006c -4.14  -2.69    +70.5685
iter:  30 09:07:14  -870.439757c -4.17  -2.72    +70.4968
iter:  31 09:08:04  -870.399820c -4.36  -2.71    +70.5319
iter:  32 09:08:54  -870.411110c -4.38  -2.81    +70.5255
iter:  33 09:09:45  -870.440811c -4.38  -2.88    +70.5236
iter:  34 09:10:35  -870.418572c -4.55  -2.83    +70.4845
iter:  35 09:11:25  -870.429455c -4.65  -2.95    +70.4814
iter:  36 09:12:17  -870.448462c -4.58  -2.99    +70.4383
iter:  37 09:13:07  -870.439630c -4.68  -2.97    +70.4482
iter:  38 09:13:57  -870.451724c -4.57  -3.06    +70.4192
iter:  39 09:14:47  -870.463670c -4.55  -3.07    +70.4014
iter:  40 09:15:38  -870.453651c -4.69  -3.05    +70.3365
iter:  41 09:16:29  -870.458541c -4.86  -3.17    +70.2856
iter:  42 09:17:19  -870.461240c -4.94  -3.22    +70.2745
iter:  43 09:18:09  -870.466248c -5.09  -3.27    +70.2411
iter:  44 09:18:59  -870.470676c -5.16  -3.28    +70.1974
iter:  45 09:19:50  -870.471228c -5.10  -3.29    +70.1632
iter:  46 09:20:40  -870.474394c -5.35  -3.39    +70.1103
iter:  47 09:21:30  -870.476370c -5.41  -3.42    +70.0837
iter:  48 09:22:21  -870.481052c -5.30  -3.47    +69.9965
iter:  49 09:23:11  -870.480902c -5.57  -3.48    +69.9803
iter:  50 09:24:02  -870.484526c -5.45  -3.55    +69.9291
iter:  51 09:24:52  -870.486284c -5.60  -3.57    +69.8843
iter:  52 09:25:42  -870.488630c -5.57  -3.63    +69.8264
iter:  53 09:26:33  -870.491382c -5.58  -3.66    +69.7843
iter:  54 09:27:23  -870.497344c -5.14  -3.69    +69.6402
iter:  55 09:28:14  -870.506872c -4.66  -3.68    +69.4097
iter:  56 09:29:05  -870.521405c -4.22  -3.59    +69.0339
iter:  57 09:29:55  -870.523356c -5.04  -3.39    +69.0109
iter:  58 09:30:45  -870.523558c -5.59  -3.37    +69.0099
iter:  59 09:31:36  -870.523618c -5.71  -3.37    +68.9877
iter:  60 09:32:26  -870.522746c -5.80  -3.36    +68.9671
iter:  61 09:33:17  -870.524988c -4.82  -3.40    +68.9402
iter:  62 09:34:07  -870.521455c -5.11  -3.31    +68.9173
iter:  63 09:34:58  -870.522093c -5.27  -3.36    +68.8436
iter:  64 09:35:48  -870.518978c -5.56  -3.39    +68.8261
iter:  65 09:36:38  -870.519603c -5.53  -3.52    +68.7846
iter:  66 09:37:29  -870.518609c -5.80  -3.54    +68.7743
iter:  67 09:38:19  -870.518551c -5.61  -3.57    +68.7496
iter:  68 09:39:09  -870.518720c -6.03  -3.68    +68.7394
iter:  69 09:40:00  -870.518109c -6.10  -3.74    +68.7278
iter:  70 09:40:50  -870.518217c -6.41  -3.78    +68.7176
iter:  71 09:41:41  -870.518225c -6.46  -3.84    +68.7118
iter:  72 09:42:32  -870.518198c -6.35  -3.86    +68.6990
iter:  73 09:43:22  -870.518325c -6.38  -3.90    +68.6940
iter:  74 09:44:12  -870.518313c -6.37  -3.91    +68.6935
iter:  75 09:45:03  -870.518119c -6.63  -4.02c   +68.6860
iter:  76 09:45:53  -870.518134c -6.77  -4.08c   +68.6777
iter:  77 09:46:44  -870.518355c -6.46  -4.16c   +68.6690
iter:  78 09:47:35  -870.518159c -6.94  -4.09c   +68.6622
iter:  79 09:48:25  -870.518147c -6.99  -4.25c   +68.6516
iter:  80 09:49:16  -870.518252c -7.18  -4.29c   +68.6434
iter:  81 09:50:06  -870.518204c -7.12  -4.34c   +68.6332
iter:  82 09:50:56  -870.518256c -7.28  -4.33c   +68.6258
iter:  83 09:51:47  -870.518303c -7.27  -4.44c   +68.6174
iter:  84 09:52:37  -870.518346c -7.15  -4.49c   +68.6072
iter:  85 09:53:28  -870.518379c -7.47c -4.47c   +68.6042

Converged after 85 iterations.

Dipole moment: (-6.886568, 8.134796, 5.176937) |e|*Ang

Total magnetic moment: (0.000000, 0.000000, 68.604207)
Local magnetic moments:
   0 Cr ( 0.000000,  0.000000, -0.968300)
   1 Al ( 0.000000,  0.000000, -0.041559)
   2 Cr ( 0.000000,  0.000000, -1.112273)
   3 Co ( 0.000000,  0.000000,  0.735942)
   4 Fe ( 0.000000,  0.000000,  1.745730)
   5 Cr ( 0.000000,  0.000000, -0.766675)
   6 Ni ( 0.000000,  0.000000,  0.185791)
   7 Fe ( 0.000000,  0.000000,  2.053928)
   8 Cr ( 0.000000,  0.000000, -1.105578)
   9 Co ( 0.000000,  0.000000,  1.207697)
  10 Ni ( 0.000000,  0.000000,  0.172427)
  11 Fe ( 0.000000,  0.000000,  2.227374)
  12 Co ( 0.000000,  0.000000,  1.367955)
  13 Co ( 0.000000,  0.000000,  1.007806)
  14 Fe ( 0.000000,  0.000000,  2.023309)
  15 Fe ( 0.000000,  0.000000,  2.291141)
  16 Fe ( 0.000000,  0.000000,  2.036136)
  17 Fe ( 0.000000,  0.000000,  1.910450)
  18 Cr ( 0.000000,  0.000000, -1.112787)
  19 Co ( 0.000000,  0.000000,  1.257659)
  20 Fe ( 0.000000,  0.000000,  2.273413)
  21 Ni ( 0.000000,  0.000000,  0.246022)
  22 Co ( 0.000000,  0.000000,  1.270199)
  23 Cr ( 0.000000,  0.000000, -0.985266)
  24 Cr ( 0.000000,  0.000000, -0.948534)
  25 Ni ( 0.000000,  0.000000,  0.169747)
  26 Fe ( 0.000000,  0.000000,  2.284444)
  27 Ni ( 0.000000,  0.000000,  0.220536)
  28 Co ( 0.000000,  0.000000,  1.171625)
  29 Co ( 0.000000,  0.000000,  1.140676)
  30 Co ( 0.000000,  0.000000,  1.128060)
  31 Cr ( 0.000000,  0.000000,  0.974467)
  32 Al ( 0.000000,  0.000000, -0.010580)
  33 Cr ( 0.000000,  0.000000, -1.438210)
  34 Cr ( 0.000000,  0.000000,  0.814552)
  35 Cr ( 0.000000,  0.000000,  0.985234)
  36 Fe ( 0.000000,  0.000000,  2.260986)
  37 Co ( 0.000000,  0.000000,  0.984895)
  38 Cr ( 0.000000,  0.000000, -1.232429)
  39 Fe ( 0.000000,  0.000000,  2.029589)
  40 Co ( 0.000000,  0.000000,  1.073597)
  41 Ni ( 0.000000,  0.000000,  0.150811)
  42 Ni ( 0.000000,  0.000000,  0.260874)
  43 Al ( 0.000000,  0.000000, -0.022356)
  44 Fe ( 0.000000,  0.000000,  2.305744)
  45 Co ( 0.000000,  0.000000,  1.172540)
  46 Fe ( 0.000000,  0.000000,  1.951637)
  47 Ni ( 0.000000,  0.000000,  0.494576)
  48 Fe ( 0.000000,  0.000000,  2.382650)
  49 Fe ( 0.000000,  0.000000,  2.255178)
  50 Ni ( 0.000000,  0.000000,  0.389217)
  51 Ni ( 0.000000,  0.000000,  0.406224)
  52 Cr ( 0.000000,  0.000000, -0.962921)
  53 Co ( 0.000000,  0.000000,  1.378797)
  54 Fe ( 0.000000,  0.000000,  2.211969)
  55 Cr ( 0.000000,  0.000000, -1.206877)
  56 Co ( 0.000000,  0.000000,  1.334645)
  57 Fe ( 0.000000,  0.000000,  2.310028)
  58 Ni ( 0.000000,  0.000000,  0.362952)
  59 Fe ( 0.000000,  0.000000,  2.179952)
[...]
  93 Ni ( 0.000000,  0.000000,  0.097432)
  94 Co ( 0.000000,  0.000000,  1.178701)
  95 Cr ( 0.000000,  0.000000, -1.825685)
  96 Fe ( 0.000000,  0.000000,  2.241219)
  97 Ni ( 0.000000,  0.000000,  0.156070)
  98 Ni ( 0.000000,  0.000000,  0.384847)
  99 Fe ( 0.000000,  0.000000,  1.777973)
 100 Ni ( 0.000000,  0.000000,  0.385741)
 101 Cr ( 0.000000,  0.000000, -1.160161)
 102 Cr ( 0.000000,  0.000000, -1.016419)
 103 Cr ( 0.000000,  0.000000,  1.101871)
 104 Co ( 0.000000,  0.000000,  0.896085)
 105 Fe ( 0.000000,  0.000000,  1.567095)
 106 Cr ( 0.000000,  0.000000, -0.660216)
 107 Ni ( 0.000000,  0.000000,  0.143536)

Energy contributions relative to reference atoms: (reference = -3699400.456887)

Kinetic:       +157.968415
Potential:     -206.098188
External:        +0.000000
XC:            -857.775421
Entropy (-ST):   -4.584539
Local:          +37.679085
Free energy:   -872.810648
Extrapolated:  -870.518379

Spin contamination: 27.492911 electrons
Showing only first 2 kpts
                      Up                     Down
 Kpt  Band  Eigenvalues  Occupancy  Eigenvalues  Occupancy
  0   508      9.61624    0.99557     10.56306    0.01707
  0   509      9.62663    0.99509     10.58002    0.01445
  0   510      9.64105    0.99433     10.58748    0.01342
  0   511      9.65877    0.99324     10.59264    0.01276

  1   508      9.61277    0.99572     10.56036    0.01753
  1   509      9.63215    0.99481     10.56863    0.01616
  1   510      9.64203    0.99428     10.58507    0.01375
  1   511      9.65336    0.99359     10.59045    0.01304

Fermi level: 10.15776

No gap

Forces in eV/Ang:
  0 Cr    0.11359   -0.14899   -0.60699
  1 Al   -0.23107    0.21006    0.03283
  2 Cr    0.48556   -0.21997   -0.02140
  3 Co    0.30095   -0.08201    0.02687
  4 Fe   -0.22583    0.32813    0.05719
  5 Cr   -0.41675    0.14137   -0.35598
  6 Ni   -0.09189    0.49502    0.03707
  7 Fe   -0.01209   -0.29229    0.29057
  8 Cr    0.28539    0.01354   -0.02952
  9 Co    0.04002   -0.03482    0.02208
 10 Ni    0.13020    0.17364    0.04317
 11 Fe   -0.16997   -0.25769    0.08153
 12 Co   -0.05559    0.20346   -0.13539
 13 Co   -0.04635   -0.08007   -0.05601
 14 Fe    0.29137   -0.06093    0.07495
 15 Fe   -0.36312    0.05205   -0.30099
 16 Fe    0.13697   -0.13002   -0.18009
 17 Fe    0.42397   -0.22415    0.52359
 18 Cr   -0.11238   -0.03725   -0.07912
 19 Co   -0.33567    0.04025    0.04936
 20 Fe   -0.04058    0.31438    0.04969
 21 Ni    0.06405    0.20789   -0.05270
 22 Co   -0.09567    0.04084    0.11945
 23 Cr    0.62881   -0.46064   -0.08733
 24 Cr   -0.14882    0.06990    0.15359
 25 Ni   -0.02481    0.24785   -0.11274
 26 Fe   -0.26150    0.04611    0.22891
 27 Ni   -0.16057    0.19916    0.07155
 28 Co    0.24033   -0.13355   -0.17812
 29 Co   -0.12612    0.27720   -0.00464
 30 Co    0.15330   -0.14003    0.10039
 31 Cr   -0.13933    0.08074    0.12616
 32 Al   -0.17532   -0.50745    0.35382
 33 Cr    0.02989   -0.07990    0.57238
 34 Cr   -0.11373   -0.32778   -0.05169
 35 Cr    0.25845    0.17674    0.04346
 36 Fe    0.14238   -0.01215    0.13627
 37 Co    0.04781    0.02169    0.15986
 38 Cr    0.12080   -0.08588   -0.16188
 39 Fe    0.36858   -0.00658    0.14679
 40 Co   -0.16509    0.16961   -0.06754
 41 Ni    0.09459    0.18724   -0.16096
 42 Ni    0.16325   -0.01259    0.05694
 43 Al    0.13880   -0.42739    0.14657
 44 Fe    0.19334    0.15097   -0.23610
 45 Co   -0.05708    0.01549    0.03314
 46 Fe   -0.01591    0.14534    0.22067
 47 Ni   -0.00260   -0.01594   -0.11514
 48 Fe    0.05044    0.02223    0.16222
 49 Fe   -0.00606   -0.15005    0.24220
 50 Ni    0.09400   -0.05517    0.07729
 51 Ni    0.34033   -0.12107   -0.10203
 52 Cr   -0.41480    0.08845   -0.19065
 53 Co   -0.06149   -0.23284   -0.26765
 54 Fe   -0.19094   -0.13149   -0.01981
 55 Cr   -0.16970   -0.07807   -0.14206
 56 Co   -0.05544    0.12720   -0.02797
 57 Fe   -0.01691    0.22984    0.13996
 58 Ni    0.04108   -0.14122    0.13110
 59 Fe   -0.07885   -0.02421   -0.28851
[...]
 93 Ni    0.22045    0.46547    0.34425
 94 Co    0.13505   -0.04650   -0.17887
 95 Cr   -0.10987   -0.21730    0.11339
 96 Fe   -0.15804   -0.06598    0.11582
 97 Ni    0.20778    0.03618    0.03806
 98 Ni    0.11731   -0.10117   -0.02695
 99 Fe    0.34056    0.39229    0.11631
100 Ni    0.11270    0.09512    0.12432
101 Cr   -0.60350    0.00960   -0.02908
102 Cr   -0.03607    0.05436   -0.58673
103 Cr   -0.44980   -0.03518    0.21519
104 Co   -0.23427   -0.07316    0.26913
105 Fe    0.01167   -0.08306   -0.20075
106 Cr   -0.01544    0.01374   -0.23543
107 Ni   -0.20460    0.17901   -0.09793

Date: Sat Apr  8 09:53:40 2023