User:   c.zeng@d0103
Date:   Thu Apr 13 20:11:09 2023
Arch:   x86_64
Pid:    281769
CWD:    /home/c.zeng/projects/hea-corrosion/hea-mlp/data-curation/bulk-md/dft-jobs/37
Python: 3.8.1
gpaw:   /home/c.zeng/usr/installs/gpaw/source/gpaw-22.8.0/gpaw
_gpaw:  /home/c.zeng/usr/installs/gpaw/source/gpaw-22.8.0/
        _gpaw.cpython-38-x86_64-linux-gnu.so
ase:    /home/c.zeng/.local/lib/python3.8/site-packages/ase-3.22.1-py3.8.egg/ase (version 3.22.1)
numpy:  /shared/centos7/python/3.8.1/lib/python3.8/site-packages/numpy (version 1.17.4)
scipy:  /shared/centos7/python/3.8.1/lib/python3.8/site-packages/scipy (version 1.4.1)
units:  Angstrom and eV
cores: 30
OpenMP: False
OMP_NUM_THREADS: 1

Input parameters:
  convergence: {energy: 0.0001}
  kpts: [2 2 2]
  maxiter: 666
  mode: {ecut: 350.0,
         name: pw}
  occupations: {fixmagmom: False,
                name: fermi-dirac,
                width: 0.1}
  spinpol: True
  xc: PBE

System changes: positions, numbers, cell, pbc, initial_charges, initial_magmoms

Initialize ...

species:
  Cr:
    name: Chromium
    id: 33f258bda2ca9f93018e70263a35547b
    Z: 24.0
    valence: 6
    core: 18
    charge: 0.0
    file: /home/c.zeng/usr/data/gpaw-setups-0.9.20000/Cr.PBE.gz
    compensation charges: {type: gauss,
                           rc: 0.35,
                           lmax: 2}
    cutoffs: {filter: 2.14,
              core: 3.04}
    valence states:
      #              energy  rcut
      - 4s(1.00)    -4.007   1.164
      - 4p(0.00)    -0.989   1.217
      - 3d(5.00)    -2.913   1.111
      -  s          23.205   1.164
      -  p          26.223   1.217
      -  d          24.299   1.111

    # Using partial waves for Cr as LCAO basis

  Al:
    name: Aluminium
    id: 0292cae29f5d6237e50f6abdd43a7bdd
    Z: 13.0
    valence: 3
    core: 10
    charge: 0.0
    file: /home/c.zeng/usr/data/gpaw-setups-0.9.20000/Al.PBE.gz
    compensation charges: {type: gauss,
                           rc: 0.34,
                           lmax: 2}
    cutoffs: {filter: 1.91,
              core: 2.36}
    valence states:
      #              energy  rcut
      - 3s(2.00)    -7.753   1.085
      - 3p(1.00)    -2.712   1.085
      -  s          19.459   1.085
      -  p          24.499   1.085
      -  d           0.000   1.085

[...]

  Co:
    name: Cobalt
    id: 339d20d5b0b93d2de9531a1bee871d91
    Z: 27.0
    valence: 9
    core: 18
    charge: 0.0
    file: /home/c.zeng/usr/data/gpaw-setups-0.9.20000/Co.PBE.gz
    compensation charges: {type: gauss,
                           rc: 0.32,
                           lmax: 2}
    cutoffs: {filter: 1.87,
              core: 2.55}
    valence states:
      #              energy  rcut
      - 4s(2.00)    -5.469   1.005
      - 4p(0.00)    -1.277   1.058
      - 3d(7.00)    -8.205   1.005
      -  s          21.742   1.005
      -  p          25.934   1.058
      -  d          19.007   1.005

[...]

  Fe:
    name: Iron
    id: 37abbd8d6c3c35915a9b583b742da910
    Z: 26.0
    valence: 8
    core: 18
    charge: 0.0
    file: /home/c.zeng/usr/data/gpaw-setups-0.9.20000/Fe.PBE.gz
    compensation charges: {type: gauss,
                           rc: 0.33,
                           lmax: 2}
    cutoffs: {filter: 2.06,
              core: 2.67}
    valence states:
      #              energy  rcut
      - 4s(2.00)    -5.291   1.164
      - 4p(0.00)    -1.326   1.058
      - 3d(6.00)    -7.505   1.058
      -  s          21.920   1.164
      -  p          25.885   1.058
      -  d          19.706   1.058

[...]

  Ni:
    name: Nickel
    id: 0d9f38a9d6e76a2886f07bb4381f212b
    Z: 28.0
    valence: 16
    core: 12
    charge: 0.0
    file: /home/c.zeng/usr/data/gpaw-setups-0.9.20000/Ni.PBE.gz
    compensation charges: {type: gauss,
                           rc: 0.36,
                           lmax: 2}
    cutoffs: {filter: 2.14,
              core: 1.98}
    valence states:
      #              energy  rcut
      - 4s(2.00)    -5.642   1.164
      - 3p(6.00)   -71.394   1.207
      - 4p(0.00)    -1.226   1.207
      - 3d(8.00)    -8.875   1.138
      -  s          21.570   1.164
      -  d          18.337   1.138

    # Using partial waves for Ni as LCAO basis

Reference energy: -3699400.456887  # eV

Spin-polarized calculation.
Magnetic moment: 143.500000

Convergence criteria:
 Maximum [total energy] change in last 3 cyles: 0.0001 eV / electron
 Maximum integral of absolute [dens]ity change: 0.0001 electrons / valence electron
 Maximum integral of absolute [eigenst]ate change: 4e-08 eV^2 / valence electron
 Maximum number of scf [iter]ations: 666
 (Square brackets indicate name in SCF output, whereas a 'c' in
 the SCF output indicates the quantity has converged.)

Symmetries present (total): 1

  ( 1  0  0)
  ( 0  1  0)
  ( 0  0  1)

8 k-points: 2 x 2 x 2 Monkhorst-Pack grid
4 k-points in the irreducible part of the Brillouin zone
       k-points in crystal coordinates                weights
   0:     0.25000000   -0.25000000   -0.25000000          2/8
   1:     0.25000000   -0.25000000    0.25000000          2/8
   2:     0.25000000    0.25000000   -0.25000000          2/8
   3:     0.25000000    0.25000000    0.25000000          2/8

Wave functions: Plane wave expansion
  Cutoff energy: 350.000 eV
  Number of coefficients (min, max): 18052, 18052
  Pulay-stress correction: 0.000000 eV/Ang^3 (de/decut=0.000000)
  Using FFTW library
  ScaLapack parameters: grid=1x1, blocksize=None
  Wavefunction extrapolation:
    Improved wavefunction reuse through dual PAW basis

Occupation numbers: Fermi-Dirac:
  width: 0.1000  # eV

Eigensolver
   Davidson(niter=2)

Densities:
  Coarse grid: 48*48*48 grid
  Fine grid: 96*96*96 grid
  Total Charge: 0.000000

Density mixing:
  Method: difference
  Backend: pulay
  Linear mixing parameter: 0.05
  old densities: 5
  Damping of long wavelength oscillations: 50

Hamiltonian:
  XC and Coulomb potentials evaluated on a 96*96*96 grid
  Using the PBE Exchange-Correlation functional
  External potential:
    NoExternalPotential

XC parameters: PBE with 2 nearest neighbor stencil

Total number of cores used: 30
Parallelization over k-points: 2
Domain decomposition: 5 x 3 x 1

Number of atoms: 108
Number of atomic orbitals: 1025
Number of bands in calculation: 703
Number of valence electrons: 1020
Bands to converge: occupied

... initialized

Initializing position-dependent things.

Density initialized from atomic densities
Creating initial wave functions:
  703 bands from LCAO basis set

        .-------Fe----------------Cr
       /|          Cr       Cr    |
      / |   FeCo     Al           |
     / Ni      Cr      Ale        |
    /   | Ni       Cr    Cr Cr    Cr
   /o   |  Fe        Fe     Ni    |
  /  NCo|   CCoFe  Cr Ni          |
 *      Co   NiCNi Cri Co Co   Fe |
 |      |CoCr    Ni Co  AlCrFe   Ni
 |      FeFeCo    Ni NiCo  NiNi   |
 |   FCr|  NiCoCo   FFeCr    Fe   |
 |      NiCr  CoFe     NiNi  Ni Cr|
 |     NiNiNi  CoCrCo   CrFCo     |
 |      .-FeCr----Co-Co----CrFe---.
 |  CoFe   NiFe       Fe         /
 |    Cr       Al     NiNio     /
 |   /  Fe      CrCFe      Cr  /
 |Al/      Cr       Co        /
 | /  Cr    FNi              /
 |/                     Fe  /

Positions:
   0 Cr    -0.090648   -0.043874   10.632089    ( 0.0000,  0.0000,  0.0000)
   1 Al    10.732060    1.887289    1.700661    ( 0.0000,  0.0000,  0.0000)
   2 Cr     2.061923   10.791568    1.822961    ( 0.0000,  0.0000,  0.0000)
   3 Co     1.727694    1.679872   10.586380    ( 0.0000,  0.0000,  2.1000)
   4 Fe     3.506240   -0.111980   -0.011715    ( 0.0000,  0.0000,  2.0000)
   5 Cr     3.704631    1.846487    1.531888    ( 0.0000,  0.0000,  0.0000)
   6 Ni     5.067535   10.692465    1.863425    ( 0.0000,  0.0000,  1.5000)
   7 Fe     5.485158    1.731151   -0.049048    ( 0.0000,  0.0000,  2.0000)
   8 Cr     7.324853    0.075060   -0.209627    ( 0.0000,  0.0000,  0.0000)
   9 Co     7.193741    1.945928    1.705098    ( 0.0000,  0.0000,  2.1000)
  10 Ni     8.710161   10.436938    1.563355    ( 0.0000,  0.0000,  1.5000)
  11 Fe     8.943521    1.789437   10.856970    ( 0.0000,  0.0000,  2.0000)
  12 Co     0.023611    3.605479   10.387809    ( 0.0000,  0.0000,  2.1000)
  13 Co     0.032273    5.213261    1.909768    ( 0.0000,  0.0000,  2.1000)
  14 Fe     2.036080    3.418538    1.828728    ( 0.0000,  0.0000,  2.0000)
  15 Fe     1.626229    5.370006    0.110228    ( 0.0000,  0.0000,  2.0000)
  16 Fe     3.647789    3.590158    0.084488    ( 0.0000,  0.0000,  2.0000)
  17 Fe     3.619925    5.222514    1.739440    ( 0.0000,  0.0000,  2.0000)
  18 Cr     5.412981    3.449609    1.736447    ( 0.0000,  0.0000,  0.0000)
  19 Co     5.414641    5.362713    0.126668    ( 0.0000,  0.0000,  2.1000)
  20 Fe     7.365840    3.399639   10.331653    ( 0.0000,  0.0000,  2.0000)
  21 Ni     7.206177    5.126178    1.734138    ( 0.0000,  0.0000,  1.5000)
  22 Co     9.026574    3.480866    1.835267    ( 0.0000,  0.0000,  2.1000)
  23 Cr     9.198979    5.279074    0.105660    ( 0.0000,  0.0000,  0.0000)
  24 Cr     0.206752    7.085446    0.080987    ( 0.0000,  0.0000,  0.0000)
  25 Ni     0.053853    9.094962    1.889592    ( 0.0000,  0.0000,  1.5000)
  26 Fe     1.830807    6.936374    1.912190    ( 0.0000,  0.0000,  2.0000)
  27 Ni     1.672713    9.001168   10.776820    ( 0.0000,  0.0000,  1.5000)
  28 Co     3.410695    7.167756   -0.079973    ( 0.0000,  0.0000,  2.1000)
  29 Co     3.452427    8.930951    1.781280    ( 0.0000,  0.0000,  2.1000)
  30 Co     5.120419    7.124058    1.900130    ( 0.0000,  0.0000,  2.1000)
  31 Cr     5.127147    8.916804   -0.017990    ( 0.0000,  0.0000,  0.0000)
  32 Al     7.247574    6.972466   10.585505    ( 0.0000,  0.0000,  0.0000)
  33 Cr     6.880949    8.768402    1.917279    ( 0.0000,  0.0000,  0.0000)
  34 Cr     8.793853    7.255696    1.592427    ( 0.0000,  0.0000,  0.0000)
  35 Cr     8.824472    8.967884   10.616243    ( 0.0000,  0.0000,  0.0000)
  36 Fe    10.767772   10.569345    3.630430    ( 0.0000,  0.0000,  2.0000)
  37 Co    10.397456    1.684538    5.324620    ( 0.0000,  0.0000,  2.1000)
  38 Cr     1.765134   10.642331    5.520855    ( 0.0000,  0.0000,  0.0000)
  39 Fe     1.658512    1.602741    3.708092    ( 0.0000,  0.0000,  2.0000)
  40 Co     3.502408   10.650462    3.724941    ( 0.0000,  0.0000,  2.1000)
  41 Ni     3.740634    1.610342    5.552145    ( 0.0000,  0.0000,  1.5000)
  42 Ni     5.154191   -0.242388    5.383950    ( 0.0000,  0.0000,  1.5000)
  43 Al     5.099302    1.692416    3.476086    ( 0.0000,  0.0000,  0.0000)
  44 Fe     7.279403   10.818696    3.503188    ( 0.0000,  0.0000,  2.0000)
  45 Co     6.896372    1.714824    5.246047    ( 0.0000,  0.0000,  2.1000)
  46 Fe     8.793996   10.698545    5.303953    ( 0.0000,  0.0000,  2.0000)
  47 Ni     9.090897    1.590226    3.375009    ( 0.0000,  0.0000,  1.5000)
  48 Fe    -0.038752    3.332904    3.653780    ( 0.0000,  0.0000,  2.0000)
  49 Fe    10.849321    5.239088    5.207961    ( 0.0000,  0.0000,  2.0000)
  50 Ni     1.815324    3.331830    5.488165    ( 0.0000,  0.0000,  1.5000)
  51 Ni     1.789340    5.018218    3.629638    ( 0.0000,  0.0000,  1.5000)
  52 Cr     3.585370    3.558575    3.495841    ( 0.0000,  0.0000,  0.0000)
  53 Co     3.554565    5.440907    5.201379    ( 0.0000,  0.0000,  2.1000)
  54 Fe     5.394386    3.442422    5.293183    ( 0.0000,  0.0000,  2.0000)
  55 Cr     5.364767    5.149444    3.559412    ( 0.0000,  0.0000,  0.0000)
  56 Co     7.216246    3.419986    3.698137    ( 0.0000,  0.0000,  2.1000)
  57 Fe     6.896893    5.250999    5.295346    ( 0.0000,  0.0000,  2.0000)
  58 Ni     8.954147    3.643368    5.358715    ( 0.0000,  0.0000,  1.5000)
  59 Fe     9.044383    5.208717    3.519596    ( 0.0000,  0.0000,  2.0000)
[...]
  93 Ni     7.016087    5.395673    8.856033    ( 0.0000,  0.0000,  1.5000)
  94 Co     9.034954    3.904661    8.578726    ( 0.0000,  0.0000,  2.1000)
  95 Cr     8.774487    5.418458    6.859074    ( 0.0000,  0.0000,  0.0000)
  96 Fe    -0.144625    7.054445    6.988249    ( 0.0000,  0.0000,  2.0000)
  97 Ni     0.009456    8.795801    9.101969    ( 0.0000,  0.0000,  1.5000)
  98 Ni     1.627458    7.125421    8.968641    ( 0.0000,  0.0000,  1.5000)
  99 Fe     1.666463    8.792744    7.245344    ( 0.0000,  0.0000,  2.0000)
 100 Ni     3.123747    7.137129    7.140640    ( 0.0000,  0.0000,  1.5000)
 101 Cr     3.349861    8.949177    8.913344    ( 0.0000,  0.0000,  0.0000)
 102 Cr     5.349841    7.091744    8.958808    ( 0.0000,  0.0000,  0.0000)
 103 Cr     5.228167    8.611183    7.235377    ( 0.0000,  0.0000,  0.0000)
 104 Co     7.105032    7.280667    7.109678    ( 0.0000,  0.0000,  2.1000)
 105 Fe     7.019328    8.916133    8.913121    ( 0.0000,  0.0000,  2.0000)
 106 Cr     9.120363    7.142220    8.957856    ( 0.0000,  0.0000,  0.0000)
 107 Ni     8.829863    8.943357    7.122129    ( 0.0000,  0.0000,  1.5000)

Unit cell:
           periodic     x           y           z      points  spacing
  1. axis:    yes   10.671700    0.000000    0.000000    48     0.2223
  2. axis:    yes    0.000000   10.671700    0.000000    48     0.2223
  3. axis:    yes    0.000000    0.000000   10.671700    48     0.2223

  Lengths:  10.671700  10.671700  10.671700
  Angles:   90.000000  90.000000  90.000000

Effective grid spacing dv^(1/3) = 0.2223

     iter     time        total  log10-change:  magmom
                         energy  eigst   dens
iter:   1 20:17:17 -1039.643065                  +143.7778
iter:   2 20:20:03  -923.442523  -0.24  -1.20    +81.4035
iter:   3 20:22:50  -904.994194  -0.90  -1.22    +69.0150
iter:   4 20:25:36  -885.052430  -1.31  -1.30    +64.9439
iter:   5 20:28:22  -871.549042  -1.59  -1.32    +61.3365
iter:   6 20:31:08  -874.510121  -1.31  -1.39    +61.4849
iter:   7 20:33:55  -876.980445  -1.19  -1.46    +60.2161
iter:   8 20:36:41  -856.529724  -1.65  -1.50    +58.8084
iter:   9 20:39:28  -854.716000  -2.08  -1.74    +59.4152
iter:  10 20:42:10  -854.853897  -2.40  -1.82    +60.4161
iter:  11 20:44:57  -854.782758  -2.58  -1.83    +61.2589
iter:  12 20:47:44  -855.701122  -2.48  -1.86    +62.5373
iter:  13 20:50:30  -856.228105  -2.45  -1.88    +63.1574
iter:  14 20:53:17  -855.935902  -2.31  -1.91    +63.3437
iter:  15 20:56:04  -855.415082  -2.56  -2.02    +64.0969
iter:  16 20:58:49  -856.111407  -2.65  -2.10    +64.4165
iter:  17 21:01:36  -855.160802  -2.85  -2.08    +64.6396
iter:  18 21:04:23  -855.708429  -2.84  -2.17    +64.9721
iter:  19 21:07:09  -854.955418  -3.07  -2.15    +65.2113
iter:  20 21:09:56  -854.996550  -3.33  -2.26    +65.6991
iter:  21 21:12:42  -854.899526c -3.28  -2.28    +65.8307
iter:  22 21:15:28  -855.215754  -3.25  -2.35    +66.1494
iter:  23 21:18:15  -855.105189  -3.16  -2.31    +66.3616
iter:  24 21:21:02  -855.344799  -3.16  -2.37    +66.4827
iter:  25 21:23:48  -855.151257  -3.15  -2.35    +66.5676
iter:  26 21:26:34  -855.053908  -3.34  -2.41    +66.6360
iter:  27 21:29:21  -854.911839  -3.72  -2.44    +66.9551
iter:  28 21:32:07  -854.936731  -3.79  -2.57    +66.9208
iter:  29 21:34:54  -854.929116c -3.89  -2.57    +67.0549
iter:  30 21:37:40  -854.956191c -3.96  -2.59    +67.2181
iter:  31 21:40:23  -854.982977c -3.87  -2.61    +67.2967
iter:  32 21:43:07  -855.026278c -3.73  -2.63    +67.3350
iter:  33 21:45:54  -854.984932c -3.91  -2.60    +67.3105
iter:  34 21:48:40  -855.003369c -3.87  -2.67    +67.4867
iter:  35 21:51:26  -854.989677c -3.97  -2.66    +67.4708
iter:  36 21:54:13  -854.959805c -4.21  -2.69    +67.3974
iter:  37 21:57:00  -854.948015c -4.37  -2.77    +67.3939
iter:  38 21:59:46  -854.961724c -4.45  -2.79    +67.4147
iter:  39 22:02:32  -854.962567c -4.60  -2.79    +67.4564
iter:  40 22:05:16  -854.974972c -4.30  -2.82    +67.3983
iter:  41 22:07:58  -854.999703c -4.25  -2.81    +67.4268
iter:  42 22:10:45  -854.987110c -4.26  -2.80    +67.4860
iter:  43 22:13:32  -854.992009c -4.27  -2.83    +67.4808
iter:  44 22:16:18  -854.990454c -4.36  -2.85    +67.4756
iter:  45 22:19:05  -854.972642c -4.56  -2.87    +67.4322
iter:  46 22:21:52  -854.975352c -4.71  -2.94    +67.4888
iter:  47 22:24:38  -854.976028c -4.95  -2.95    +67.4634
iter:  48 22:27:25  -854.981515c -4.82  -2.97    +67.4374
iter:  49 22:30:11  -854.986561c -4.64  -2.98    +67.4283
iter:  50 22:32:58  -854.998880c -4.61  -2.96    +67.4210
iter:  51 22:35:40  -855.001409c -4.48  -2.98    +67.4332
iter:  52 22:38:27  -855.003581c -4.40  -2.96    +67.3700
iter:  53 22:41:14  -855.002195c -4.57  -2.97    +67.3729
iter:  54 22:44:01  -854.990199c -4.66  -3.02    +67.4008
iter:  55 22:46:47  -854.989701c -4.88  -3.09    +67.3925
iter:  56 22:49:34  -854.988545c -5.37  -3.12    +67.3810
iter:  57 22:52:11  -854.991224c -5.07  -3.18    +67.3587
iter:  58 22:54:45  -854.998263c -5.01  -3.16    +67.3725
iter:  59 22:57:23  -854.998815c -4.99  -3.14    +67.3597
iter:  60 23:00:51  -855.005947c -4.77  -3.18    +67.3350
iter:  61 23:03:23  -855.010152c -4.62  -3.14    +67.3410
iter:  62 23:05:55  -854.999945c -4.88  -3.12    +67.3395
iter:  63 23:08:29  -854.999676c -5.05  -3.27    +67.3540
iter:  64 23:11:01  -854.997444c -5.39  -3.28    +67.3247
iter:  65 23:13:33  -854.998125c -5.77  -3.36    +67.3285
iter:  66 23:16:06  -854.999044c -5.68  -3.41    +67.3261
iter:  67 23:18:39  -855.002353c -5.62  -3.40    +67.3247
iter:  68 23:21:11  -855.003161c -5.44  -3.40    +67.3159
iter:  69 23:23:42  -855.008296c -5.07  -3.42    +67.3120
iter:  70 23:26:14  -855.008571c -5.09  -3.31    +67.3328
iter:  71 23:28:45  -855.006857c -5.14  -3.39    +67.3272
iter:  72 23:31:40  -855.007338c -5.34  -3.44    +67.3186
iter:  73 23:34:54  -855.006693c -5.61  -3.49    +67.3319
iter:  74 23:37:26  -855.006575c -5.85  -3.57    +67.3427
iter:  75 23:39:58  -855.007641c -6.14  -3.67    +67.3511
iter:  76 23:42:30  -855.008773c -6.15  -3.69    +67.3493
iter:  77 23:45:02  -855.013664c -5.26  -3.73    +67.3625
iter:  78 23:47:33  -855.011196c -5.63  -3.62    +67.3528
iter:  79 23:50:06  -855.012550c -5.70  -3.71    +67.3529
iter:  80 23:52:51  -855.012701c -6.12  -3.98    +67.3606
iter:  81 23:56:14  -855.013372c -6.30  -4.30c   +67.3679
iter:  82 23:58:47  -855.014198c -6.33  -4.35c   +67.3744
iter:  83 00:01:18  -855.016756c -5.56  -4.33c   +67.3906
iter:  84 00:03:51  -855.016388c -6.73  -4.16c   +67.3894
iter:  85 00:06:24  -855.018072c -5.84  -4.20c   +67.3947
iter:  86 00:08:55  -855.021301c -5.25  -4.09c   +67.4141
iter:  87 00:11:28  -855.023465c -5.46  -3.96    +67.4361
iter:  88 00:13:59  -855.025057c -5.66  -3.85    +67.4559
iter:  89 00:17:28  -855.025369c -6.29  -3.78    +67.4602
iter:  90 00:20:10  -855.026556c -5.98  -3.76    +67.4673
iter:  91 00:22:42  -855.026453c -6.09  -3.68    +67.4699
iter:  92 00:25:14  -855.026092c -6.06  -3.69    +67.4855
iter:  93 00:27:46  -855.027607c -5.36  -3.77    +67.4965
iter:  94 00:30:17  -855.026284c -5.81  -3.59    +67.5008
iter:  95 00:32:50  -855.026267c -6.19  -3.75    +67.4920
iter:  96 00:35:28  -855.026687c -6.33  -3.78    +67.5026
iter:  97 00:38:56  -855.028003c -5.64  -3.82    +67.5039
iter:  98 00:41:28  -855.026710c -5.89  -3.69    +67.4997
iter:  99 00:44:01  -855.027011c -6.04  -3.87    +67.5019
iter: 100 00:46:33  -855.027296c -6.01  -3.93    +67.5018
iter: 101 00:49:05  -855.027203c -6.16  -3.89    +67.5077
iter: 102 00:51:35  -855.026979c -6.30  -4.01c   +67.5032
iter: 103 00:54:07  -855.027023c -6.79  -4.08c   +67.5040
iter: 104 00:56:45  -855.027211c -6.78  -4.39c   +67.5041
iter: 105 01:00:16  -855.027187c -7.19  -4.29c   +67.5055
iter: 106 01:02:48  -855.027337c -7.04  -4.41c   +67.5078
iter: 107 01:05:20  -855.027385c -7.07  -4.38c   +67.5067
iter: 108 01:07:53  -855.027539c -6.97  -4.37c   +67.5097
iter: 109 01:10:23  -855.027523c -7.00  -4.41c   +67.5078
iter: 110 01:12:55  -855.027577c -7.19  -4.40c   +67.5083
iter: 111 01:15:26  -855.027672c -7.12  -4.67c   +67.5059
iter: 112 01:18:29  -855.027696c -7.50c -4.61c   +67.5083

Converged after 112 iterations.

Dipole moment: (9.656029, 19.021108, 15.420625) |e|*Ang

Total magnetic moment: (0.000000, 0.000000, 67.508305)
Local magnetic moments:
   0 Cr ( 0.000000,  0.000000, -1.094591)
   1 Al ( 0.000000,  0.000000, -0.038361)
   2 Cr ( 0.000000,  0.000000, -1.009301)
   3 Co ( 0.000000,  0.000000,  0.855986)
   4 Fe ( 0.000000,  0.000000,  1.370668)
   5 Cr ( 0.000000,  0.000000, -0.476644)
   6 Ni ( 0.000000,  0.000000,  0.156381)
   7 Fe ( 0.000000,  0.000000,  2.001609)
   8 Cr ( 0.000000,  0.000000, -0.657991)
   9 Co ( 0.000000,  0.000000,  1.139034)
  10 Ni ( 0.000000,  0.000000,  0.192750)
  11 Fe ( 0.000000,  0.000000,  1.931872)
  12 Co ( 0.000000,  0.000000,  1.174657)
  13 Co ( 0.000000,  0.000000,  1.004285)
  14 Fe ( 0.000000,  0.000000,  1.533235)
  15 Fe ( 0.000000,  0.000000,  2.003065)
  16 Fe ( 0.000000,  0.000000,  1.654930)
  17 Fe ( 0.000000,  0.000000,  1.590674)
  18 Cr ( 0.000000,  0.000000, -0.646812)
  19 Co ( 0.000000,  0.000000,  1.232087)
  20 Fe ( 0.000000,  0.000000,  2.537169)
  21 Ni ( 0.000000,  0.000000,  0.282412)
  22 Co ( 0.000000,  0.000000,  1.138663)
  23 Cr ( 0.000000,  0.000000, -0.943220)
  24 Cr ( 0.000000,  0.000000, -0.900266)
  25 Ni ( 0.000000,  0.000000,  0.256520)
  26 Fe ( 0.000000,  0.000000,  2.399522)
  27 Ni ( 0.000000,  0.000000,  0.164392)
  28 Co ( 0.000000,  0.000000,  1.279227)
  29 Co ( 0.000000,  0.000000,  1.026398)
  30 Co ( 0.000000,  0.000000,  1.284185)
  31 Cr ( 0.000000,  0.000000,  0.870666)
  32 Al ( 0.000000,  0.000000, -0.006482)
  33 Cr ( 0.000000,  0.000000, -1.679765)
  34 Cr ( 0.000000,  0.000000,  0.970188)
  35 Cr ( 0.000000,  0.000000,  0.357527)
  36 Fe ( 0.000000,  0.000000,  2.207323)
  37 Co ( 0.000000,  0.000000,  0.783262)
  38 Cr ( 0.000000,  0.000000, -0.556989)
  39 Fe ( 0.000000,  0.000000,  2.029640)
  40 Co ( 0.000000,  0.000000,  0.813128)
  41 Ni ( 0.000000,  0.000000,  0.212861)
  42 Ni ( 0.000000,  0.000000,  0.356604)
  43 Al ( 0.000000,  0.000000, -0.024449)
  44 Fe ( 0.000000,  0.000000,  2.358564)
  45 Co ( 0.000000,  0.000000,  1.340980)
  46 Fe ( 0.000000,  0.000000,  1.722267)
  47 Ni ( 0.000000,  0.000000,  0.448352)
  48 Fe ( 0.000000,  0.000000,  2.053444)
  49 Fe ( 0.000000,  0.000000,  2.018515)
  50 Ni ( 0.000000,  0.000000,  0.338506)
  51 Ni ( 0.000000,  0.000000,  0.374002)
  52 Cr ( 0.000000,  0.000000, -0.903954)
  53 Co ( 0.000000,  0.000000,  1.416882)
  54 Fe ( 0.000000,  0.000000,  1.864418)
  55 Cr ( 0.000000,  0.000000, -0.879527)
  56 Co ( 0.000000,  0.000000,  1.407892)
  57 Fe ( 0.000000,  0.000000,  2.256619)
  58 Ni ( 0.000000,  0.000000,  0.311353)
  59 Fe ( 0.000000,  0.000000,  2.323254)
[...]
  93 Ni ( 0.000000,  0.000000,  0.202793)
  94 Co ( 0.000000,  0.000000,  1.111559)
  95 Cr ( 0.000000,  0.000000, -1.686027)
  96 Fe ( 0.000000,  0.000000,  2.156083)
  97 Ni ( 0.000000,  0.000000,  0.119820)
  98 Ni ( 0.000000,  0.000000,  0.302434)
  99 Fe ( 0.000000,  0.000000,  1.668965)
 100 Ni ( 0.000000,  0.000000,  0.470217)
 101 Cr ( 0.000000,  0.000000, -1.133674)
 102 Cr ( 0.000000,  0.000000, -0.506444)
 103 Cr ( 0.000000,  0.000000,  0.617861)
 104 Co ( 0.000000,  0.000000,  0.663386)
 105 Fe ( 0.000000,  0.000000,  0.881434)
 106 Cr ( 0.000000,  0.000000,  0.832477)
 107 Ni ( 0.000000,  0.000000,  0.075457)

Energy contributions relative to reference atoms: (reference = -3699400.456887)

Kinetic:       +366.973709
Potential:     -373.372540
External:        +0.000000
XC:            -883.943394
Entropy (-ST):   -4.552190
Local:          +37.590623
Free energy:   -857.303791
Extrapolated:  -855.027696

Spin contamination: 24.252871 electrons
Showing only first 2 kpts
                      Up                     Down
 Kpt  Band  Eigenvalues  Occupancy  Eigenvalues  Occupancy
  0   508      9.64611    0.99544     10.56930    0.02091
  0   509      9.65736    0.99490     10.58384    0.01814
  0   510      9.67089    0.99416     10.60069    0.01537
  0   511      9.68428    0.99333     10.60762    0.01435

  1   508      9.64490    0.99549     10.57964    0.01890
  1   509      9.65753    0.99489     10.58970    0.01712
  1   510      9.66536    0.99448     10.60749    0.01437
  1   511      9.67898    0.99368     10.62215    0.01243

Fermi level: 10.18468

No gap

Forces in eV/Ang:
  0 Cr    0.24066    0.65919   -0.29062
  1 Al    1.21779   -0.81137    0.10539
  2 Cr   -1.15356   -0.21419   -0.09833
  3 Co    0.43782    0.68950   -0.58691
  4 Fe   -0.07172    1.34091   -1.05819
  5 Cr   -1.73729   -0.05471   -0.00824
  6 Ni    1.98105   -0.53261   -1.04057
  7 Fe   -0.34917   -0.32600   -0.17481
  8 Cr   -1.59133   -0.00565    0.52896
  9 Co   -0.48699   -1.01985    0.50499
 10 Ni    0.64858    1.64713    2.22390
 11 Fe    0.15149   -0.42733   -1.94274
 12 Co   -0.08829   -0.40267    1.62450
 13 Co    0.37921   -0.07030   -0.33822
 14 Fe   -1.45856    0.30662   -0.51335
 15 Fe    1.62099   -0.99728   -0.38933
 16 Fe   -0.58063    0.20063   -1.19057
 17 Fe   -0.38201    0.33841    0.52924
 18 Cr    0.63740    1.07039   -0.64357
 19 Co   -0.89913   -0.16832   -0.40169
 20 Fe   -0.61272    1.56379    1.06001
 21 Ni    0.29889    0.57868    0.27775
 22 Co   -0.71400    0.76960   -0.46087
 23 Cr   -0.95180   -0.13532   -0.61543
 24 Cr   -1.18995    0.39627    1.63663
 25 Ni   -0.42109   -1.29492   -0.86186
 26 Fe   -0.38024    1.14334    0.21448
 27 Ni    0.61236   -0.26117    0.07396
 28 Co    0.73892   -0.65047    0.54877
 29 Co    0.30004   -0.74195    0.19980
 30 Co    1.09216   -0.20744   -1.39099
 31 Cr    1.18277   -0.83485    0.69602
 32 Al   -1.89743    0.17452    0.27586
 33 Cr    0.34645    1.55666   -1.23113
 34 Cr    1.67567   -0.05024    1.65924
 35 Cr    0.29652   -1.08566   -0.77784
 36 Fe   -0.59044    0.70675    0.19116
 37 Co    1.59982   -0.07660    0.80759
 38 Cr   -0.50451    0.55563    0.07417
 39 Fe    1.58835    0.85982   -0.14644
 40 Co   -1.12066   -0.33281   -0.54583
 41 Ni   -2.29158    1.01286   -2.31136
 42 Ni    1.74999    0.59169    1.17563
 43 Al    2.13879   -0.68203    1.66774
 44 Fe   -2.18679   -0.47037   -0.41648
 45 Co    0.83035   -0.38552    1.05437
 46 Fe    0.04902   -0.48528    0.73083
 47 Ni   -1.25880    0.11471    0.13460
 48 Fe    0.97082    1.21359   -0.17686
 49 Fe   -1.42847   -0.24815    0.97311
 50 Ni   -0.50576    0.64087   -2.09530
 51 Ni    0.52743    1.20254   -0.89753
 52 Cr   -0.51728    0.02923    1.09132
 53 Co   -0.03500   -0.97818    1.00048
 54 Fe   -0.93372    0.68846    0.66541
 55 Cr   -0.01219    0.61086   -0.77623
 56 Co   -0.17322    0.28353   -1.31708
 57 Fe    1.02700    1.08601    0.20182
 58 Ni   -2.41584   -0.61638   -1.45413
 59 Fe   -1.62220    0.88636    0.14778
[...]
 93 Ni    0.70400    0.44060    0.07302
 94 Co   -0.16487   -0.45827    2.08647
 95 Cr    0.52592    0.63167    0.90061
 96 Fe    0.55454    0.18173    0.46118
 97 Ni   -0.60527    0.89585   -1.46358
 98 Ni    1.86964    0.38299   -0.56159
 99 Fe   -0.83938    1.29859   -0.54861
100 Ni    2.66457   -1.46099    0.21305
101 Cr   -0.00955   -0.72442   -0.16149
102 Cr   -1.05676    0.41025   -0.66142
103 Cr   -1.28949    0.64772    0.07668
104 Co   -0.00897   -2.15525    1.19244
105 Fe    1.18066   -0.51415    0.24301
106 Cr   -1.74964   -0.85174   -0.58202
107 Ni    0.82194   -0.15114    0.69718

Date: Fri Apr 14 01:19:00 2023