User:   c.zeng@d0111
Date:   Thu Apr 13 22:03:10 2023
Arch:   x86_64
Pid:    97403
CWD:    /home/c.zeng/projects/hea-corrosion/hea-mlp/data-curation/bulk-md/dft-jobs/48
Python: 3.8.1
gpaw:   /home/c.zeng/usr/installs/gpaw/source/gpaw-22.8.0/gpaw
_gpaw:  /home/c.zeng/usr/installs/gpaw/source/gpaw-22.8.0/
        _gpaw.cpython-38-x86_64-linux-gnu.so
ase:    /home/c.zeng/.local/lib/python3.8/site-packages/ase-3.22.1-py3.8.egg/ase (version 3.22.1)
numpy:  /shared/centos7/python/3.8.1/lib/python3.8/site-packages/numpy (version 1.17.4)
scipy:  /shared/centos7/python/3.8.1/lib/python3.8/site-packages/scipy (version 1.4.1)
units:  Angstrom and eV
cores: 30
OpenMP: False
OMP_NUM_THREADS: 1

Input parameters:
  convergence: {energy: 0.0001}
  kpts: [2 2 2]
  maxiter: 666
  mode: {ecut: 350.0,
         name: pw}
  occupations: {fixmagmom: False,
                name: fermi-dirac,
                width: 0.1}
  spinpol: True
  xc: PBE

System changes: positions, numbers, cell, pbc, initial_charges, initial_magmoms

Initialize ...

species:
  Co:
    name: Cobalt
    id: 339d20d5b0b93d2de9531a1bee871d91
    Z: 27.0
    valence: 9
    core: 18
    charge: 0.0
    file: /home/c.zeng/usr/data/gpaw-setups-0.9.20000/Co.PBE.gz
    compensation charges: {type: gauss,
                           rc: 0.32,
                           lmax: 2}
    cutoffs: {filter: 1.87,
              core: 2.55}
    valence states:
      #              energy  rcut
      - 4s(2.00)    -5.469   1.005
      - 4p(0.00)    -1.277   1.058
      - 3d(7.00)    -8.205   1.005
      -  s          21.742   1.005
      -  p          25.934   1.058
      -  d          19.007   1.005

    # Using partial waves for Co as LCAO basis

  Ni:
    name: Nickel
    id: 0d9f38a9d6e76a2886f07bb4381f212b
    Z: 28.0
    valence: 16
    core: 12
    charge: 0.0
    file: /home/c.zeng/usr/data/gpaw-setups-0.9.20000/Ni.PBE.gz
    compensation charges: {type: gauss,
                           rc: 0.36,
                           lmax: 2}
    cutoffs: {filter: 2.14,
              core: 1.98}
    valence states:
      #              energy  rcut
      - 4s(2.00)    -5.642   1.164
      - 3p(6.00)   -71.394   1.207
      - 4p(0.00)    -1.226   1.207
      - 3d(8.00)    -8.875   1.138
      -  s          21.570   1.164
      -  d          18.337   1.138

[...]

  Al:
    name: Aluminium
    id: 0292cae29f5d6237e50f6abdd43a7bdd
    Z: 13.0
    valence: 3
    core: 10
    charge: 0.0
    file: /home/c.zeng/usr/data/gpaw-setups-0.9.20000/Al.PBE.gz
    compensation charges: {type: gauss,
                           rc: 0.34,
                           lmax: 2}
    cutoffs: {filter: 1.91,
              core: 2.36}
    valence states:
      #              energy  rcut
      - 3s(2.00)    -7.753   1.085
      - 3p(1.00)    -2.712   1.085
      -  s          19.459   1.085
      -  p          24.499   1.085
      -  d           0.000   1.085

[...]

  Cr:
    name: Chromium
    id: 33f258bda2ca9f93018e70263a35547b
    Z: 24.0
    valence: 6
    core: 18
    charge: 0.0
    file: /home/c.zeng/usr/data/gpaw-setups-0.9.20000/Cr.PBE.gz
    compensation charges: {type: gauss,
                           rc: 0.35,
                           lmax: 2}
    cutoffs: {filter: 2.14,
              core: 3.04}
    valence states:
      #              energy  rcut
      - 4s(1.00)    -4.007   1.164
      - 4p(0.00)    -0.989   1.217
      - 3d(5.00)    -2.913   1.111
      -  s          23.205   1.164
      -  p          26.223   1.217
      -  d          24.299   1.111

[...]

  Fe:
    name: Iron
    id: 37abbd8d6c3c35915a9b583b742da910
    Z: 26.0
    valence: 8
    core: 18
    charge: 0.0
    file: /home/c.zeng/usr/data/gpaw-setups-0.9.20000/Fe.PBE.gz
    compensation charges: {type: gauss,
                           rc: 0.33,
                           lmax: 2}
    cutoffs: {filter: 2.06,
              core: 2.67}
    valence states:
      #              energy  rcut
      - 4s(2.00)    -5.291   1.164
      - 4p(0.00)    -1.326   1.058
      - 3d(6.00)    -7.505   1.058
      -  s          21.920   1.164
      -  p          25.885   1.058
      -  d          19.706   1.058

    # Using partial waves for Fe as LCAO basis

Reference energy: -3548577.034362  # eV

Spin-polarized calculation.
Magnetic moment: 136.400000

Convergence criteria:
 Maximum [total energy] change in last 3 cyles: 0.0001 eV / electron
 Maximum integral of absolute [dens]ity change: 0.0001 electrons / valence electron
 Maximum integral of absolute [eigenst]ate change: 4e-08 eV^2 / valence electron
 Maximum number of scf [iter]ations: 666
 (Square brackets indicate name in SCF output, whereas a 'c' in
 the SCF output indicates the quantity has converged.)

Symmetries present (total): 1

  ( 1  0  0)
  ( 0  1  0)
  ( 0  0  1)

8 k-points: 2 x 2 x 2 Monkhorst-Pack grid
4 k-points in the irreducible part of the Brillouin zone
       k-points in crystal coordinates                weights
   0:     0.25000000   -0.25000000   -0.25000000          2/8
   1:     0.25000000   -0.25000000    0.25000000          2/8
   2:     0.25000000    0.25000000   -0.25000000          2/8
   3:     0.25000000    0.25000000    0.25000000          2/8

Wave functions: Plane wave expansion
  Cutoff energy: 350.000 eV
  Number of coefficients (min, max): 18331, 18331
  Pulay-stress correction: 0.000000 eV/Ang^3 (de/decut=0.000000)
  Using FFTW library
  ScaLapack parameters: grid=1x1, blocksize=None
  Wavefunction extrapolation:
    Improved wavefunction reuse through dual PAW basis

Occupation numbers: Fermi-Dirac:
  width: 0.1000  # eV

Eigensolver
   Davidson(niter=2)

Densities:
  Coarse grid: 48*48*48 grid
  Fine grid: 96*96*96 grid
  Total Charge: 0.000000

Density mixing:
  Method: difference
  Backend: pulay
  Linear mixing parameter: 0.05
  old densities: 5
  Damping of long wavelength oscillations: 50

Hamiltonian:
  XC and Coulomb potentials evaluated on a 96*96*96 grid
  Using the PBE Exchange-Correlation functional
  External potential:
    NoExternalPotential

XC parameters: PBE with 2 nearest neighbor stencil

Total number of cores used: 30
Parallelization over k-points: 2
Domain decomposition: 5 x 3 x 1

Number of atoms: 108
Number of atomic orbitals: 994
Number of bands in calculation: 674
Number of valence electrons: 980
Bands to converge: occupied

... initialized

Initializing position-dependent things.

Density initialized from atomic densities
Creating initial wave functions:
  674 bands from LCAO basis set

       /|  Cr                     |
      / |   Co       FeFe      Fe |
     /  |     FeNi               Ni
    /   |Al      FeFe   Ni        |
   /    | Ni        CCo    FeCo   Al
  /  CoCr  CoFeCo    Ni Al  Fe    |
 *      NiCrCo  Al   CoCoCrCoAl Co|
 | Co   |FeFe   CCoCr   CrCr    Ni|
 |  Cr  |  CCo   CoCoFAl CrFe     |
 |   FeFe  Ni NCr   CrCNi   Ni    |
 |    NiFe     CCoNi FeCrCr       |
 |      |NiNi  NiCr     CrFeNi   Al
 |      .-Ni-------CoCr---CFeCr---.
 |     /    Nir     FCrNi    CFe /
 |    Ni       Nil       Cr     /
 NiNi/  Al       CoFe     Cr   /
 |  /      Fe                 /
 | / Al     Cr          Fe   /
 |/             Fe          /

Positions:
   0 Co    10.646335    0.140458   10.566333    ( 0.0000,  0.0000,  2.1000)
   1 Ni    10.825744    2.120398    1.881451    ( 0.0000,  0.0000,  1.5000)
   2 Al     1.708629    0.014362    1.826697    ( 0.0000,  0.0000,  0.0000)
   3 Cr     1.979523    1.918024   10.549371    ( 0.0000,  0.0000,  0.0000)
   4 Cr     3.548309    0.043468   10.644330    ( 0.0000,  0.0000,  0.0000)
   5 Fe     3.701801    1.732771    1.864752    ( 0.0000,  0.0000,  2.0000)
   6 Fe     5.299640   -0.025860    1.613420    ( 0.0000,  0.0000,  2.0000)
   7 Fe     5.667870    1.679358    0.000210    ( 0.0000,  0.0000,  2.0000)
   8 Cr     7.264156   -0.111945    0.232095    ( 0.0000,  0.0000,  0.0000)
   9 Fe     7.100502    1.629402    2.177626    ( 0.0000,  0.0000,  2.0000)
  10 Fe     9.236457    0.158178    1.924894    ( 0.0000,  0.0000,  2.0000)
  11 Al     8.920328    2.014898   -0.025696    ( 0.0000,  0.0000,  0.0000)
  12 Co    10.704492    3.604131   10.681921    ( 0.0000,  0.0000,  2.1000)
  13 Fe    10.651364    5.368076    1.701683    ( 0.0000,  0.0000,  2.0000)
  14 Al     1.914220    3.640654    1.650006    ( 0.0000,  0.0000,  0.0000)
  15 Al     1.844523    5.347536   10.512633    ( 0.0000,  0.0000,  0.0000)
  16 Cr     3.801362    3.445404   10.769375    ( 0.0000,  0.0000,  0.0000)
  17 Cr     3.526321    5.369919    1.725072    ( 0.0000,  0.0000,  0.0000)
  18 Al     5.366947    3.349004    2.037859    ( 0.0000,  0.0000,  0.0000)
  19 Co     5.228132    5.502146   10.825442    ( 0.0000,  0.0000,  2.1000)
  20 Co     7.160513    3.549636   -0.005119    ( 0.0000,  0.0000,  2.1000)
  21 Cr     6.938516    5.099375    1.910933    ( 0.0000,  0.0000,  0.0000)
  22 Cr     8.775710    3.484321    1.836101    ( 0.0000,  0.0000,  0.0000)
  23 Cr     8.848538    5.304989    0.090617    ( 0.0000,  0.0000,  0.0000)
  24 Fe    10.509864    7.200981   10.641471    ( 0.0000,  0.0000,  2.0000)
  25 Al    10.678332    8.721710    1.848323    ( 0.0000,  0.0000,  0.0000)
  26 Ni     1.738279    7.114764    1.682851    ( 0.0000,  0.0000,  1.5000)
  27 Cr     1.665077    9.029368   10.605179    ( 0.0000,  0.0000,  0.0000)
  28 Fe     3.357504    7.029135   10.510857    ( 0.0000,  0.0000,  2.0000)
  29 Ni     3.266428    8.881297    1.751077    ( 0.0000,  0.0000,  1.5000)
  30 Co     5.348190    7.239303    1.758293    ( 0.0000,  0.0000,  2.1000)
  31 Fe     5.294593    8.831463   10.724818    ( 0.0000,  0.0000,  2.0000)
  32 Fe     7.211262    7.011644   10.678814    ( 0.0000,  0.0000,  2.0000)
  33 Cr     6.995874    8.943123    1.765675    ( 0.0000,  0.0000,  0.0000)
  34 Fe     8.717252    7.037886    1.703476    ( 0.0000,  0.0000,  2.0000)
  35 Cr     9.094474    8.936369    0.177172    ( 0.0000,  0.0000,  0.0000)
  36 Ni    10.851432    0.058037    3.565507    ( 0.0000,  0.0000,  1.5000)
  37 Ni    -0.141684    2.168671    5.369429    ( 0.0000,  0.0000,  1.5000)
  38 Co     1.743784   -0.059372    5.334612    ( 0.0000,  0.0000,  2.1000)
  39 Ni     1.706027    1.827290    3.462443    ( 0.0000,  0.0000,  1.5000)
  40 Co     3.594842   -0.049185    3.292007    ( 0.0000,  0.0000,  2.1000)
  41 Ni     3.604418    1.878487    5.350971    ( 0.0000,  0.0000,  1.5000)
  42 Co     5.226661   -0.035449    5.265716    ( 0.0000,  0.0000,  2.1000)
  43 Ni     5.359544    1.439274    3.656987    ( 0.0000,  0.0000,  1.5000)
  44 Cr     7.261420   -0.273785    3.321082    ( 0.0000,  0.0000,  0.0000)
  45 Co     7.038997    1.531254    5.356675    ( 0.0000,  0.0000,  2.1000)
  46 Al     8.855112   10.525627    5.090569    ( 0.0000,  0.0000,  0.0000)
  47 Ni     8.745731    1.829690    3.750824    ( 0.0000,  0.0000,  1.5000)
  48 Cr    10.590498    3.913385    3.618950    ( 0.0000,  0.0000,  0.0000)
  49 Fe     0.103947    5.455754    5.367233    ( 0.0000,  0.0000,  2.0000)
  50 Fe     1.753190    3.634059    5.150107    ( 0.0000,  0.0000,  2.0000)
  51 Ni     2.042490    5.414817    3.523951    ( 0.0000,  0.0000,  1.5000)
  52 Ni     3.534357    3.419653    3.451699    ( 0.0000,  0.0000,  1.5000)
  53 Ni     3.707411    5.543411    5.556449    ( 0.0000,  0.0000,  1.5000)
  54 Co     5.240337    3.524172    5.348484    ( 0.0000,  0.0000,  2.1000)
  55 Cr     5.221811    5.463472    3.596318    ( 0.0000,  0.0000,  0.0000)
  56 Cr     7.145912    3.469588    3.852056    ( 0.0000,  0.0000,  0.0000)
  57 Co     7.085074    5.463591    5.343660    ( 0.0000,  0.0000,  2.1000)
  58 Cr     8.941370    3.760267    5.421091    ( 0.0000,  0.0000,  0.0000)
  59 Fe     8.792083    5.378221    3.586419    ( 0.0000,  0.0000,  2.0000)
[...]
  93 Ni     7.001433    5.380348    9.028801    ( 0.0000,  0.0000,  1.5000)
  94 Cr     8.786741    3.901010    8.949288    ( 0.0000,  0.0000,  0.0000)
  95 Cr     8.812663    5.455362    7.270835    ( 0.0000,  0.0000,  0.0000)
  96 Co    10.709907    7.292914    7.196305    ( 0.0000,  0.0000,  2.1000)
  97 Ni    10.610041    9.060047    8.882921    ( 0.0000,  0.0000,  1.5000)
  98 Ni     1.740262    7.088500    8.775579    ( 0.0000,  0.0000,  1.5000)
  99 Co     1.864205    8.888291    7.114686    ( 0.0000,  0.0000,  2.1000)
 100 Co     3.708506    7.350304    7.255199    ( 0.0000,  0.0000,  2.1000)
 101 Ni     3.531077    9.213433    8.942966    ( 0.0000,  0.0000,  1.5000)
 102 Fe     5.556526    7.135344    9.027497    ( 0.0000,  0.0000,  2.0000)
 103 Co     5.577101    8.950585    7.214258    ( 0.0000,  0.0000,  2.1000)
 104 Co     7.046111    7.007799    7.044651    ( 0.0000,  0.0000,  2.1000)
 105 Ni     7.284605    8.898798    8.772976    ( 0.0000,  0.0000,  1.5000)
 106 Fe     9.004022    7.053502    8.847450    ( 0.0000,  0.0000,  2.0000)
 107 Fe     8.909119    8.862539    7.153369    ( 0.0000,  0.0000,  2.0000)

Unit cell:
           periodic     x           y           z      points  spacing
  1. axis:    yes   10.722400    0.000000    0.000000    48     0.2234
  2. axis:    yes    0.000000   10.722400    0.000000    48     0.2234
  3. axis:    yes    0.000000    0.000000   10.722400    48     0.2234

  Lengths:  10.722400  10.722400  10.722400
  Angles:   90.000000  90.000000  90.000000

Effective grid spacing dv^(1/3) = 0.2234

     iter     time        total  log10-change:  magmom
                         energy  eigst   dens
iter:   1 22:06:36 -1015.356778                  +136.6833
iter:   2 22:07:54  -900.238214  -0.23  -1.18    +76.3146
iter:   3 22:09:13  -894.429670  -0.81  -1.20    +64.9586
iter:   4 22:10:32  -870.725412  -1.20  -1.26    +60.7841
iter:   5 22:11:51  -855.497152  -1.59  -1.29    +57.5464
iter:   6 22:13:09  -855.727631  -1.24  -1.37    +58.2238
iter:   7 22:14:28  -850.720621  -1.27  -1.45    +56.9899
iter:   8 22:15:47  -839.966717  -1.65  -1.54    +56.2781
iter:   9 22:17:06  -839.786807  -2.04  -1.73    +57.2106
iter:  10 22:18:24  -837.835416  -2.38  -1.75    +57.9922
iter:  11 22:19:43  -838.728661  -2.57  -1.84    +59.2838
iter:  12 22:21:02  -838.992830  -2.40  -1.84    +60.9936
iter:  13 22:22:21  -840.049504  -2.41  -1.89    +61.9008
iter:  14 22:23:39  -839.403782  -2.40  -1.92    +62.0459
iter:  15 22:24:58  -840.176220  -2.49  -2.00    +63.0143
iter:  16 22:26:17  -839.110749  -2.61  -2.00    +63.4396
iter:  17 22:27:35  -838.708747  -2.94  -2.07    +64.1707
iter:  18 22:28:54  -839.669872  -2.73  -2.17    +64.6093
iter:  19 22:30:13  -838.787309  -2.90  -2.11    +65.1439
iter:  20 22:31:32  -839.248438  -2.93  -2.23    +65.7448
iter:  21 22:32:50  -838.764375  -3.02  -2.21    +65.6931
iter:  22 22:34:09  -838.800621  -3.10  -2.34    +66.0791
iter:  23 22:35:28  -838.726325c -3.18  -2.38    +66.2781
iter:  24 22:36:47  -838.582510  -3.37  -2.43    +66.6432
iter:  25 22:38:06  -838.703563  -3.43  -2.57    +66.8701
iter:  26 22:39:25  -838.607806  -3.67  -2.52    +67.0719
iter:  27 22:40:44  -838.593986  -3.80  -2.62    +67.3157
iter:  28 22:42:03  -838.599866c -3.96  -2.68    +67.4071
iter:  29 22:43:21  -838.600704c -4.07  -2.69    +67.5871
iter:  30 22:44:40  -838.602323c -4.14  -2.77    +67.7184
iter:  31 22:45:59  -838.612880c -4.20  -2.77    +67.7950
iter:  32 22:47:18  -838.635818c -4.15  -2.82    +67.7896
iter:  33 22:48:37  -838.643023c -4.12  -2.81    +67.8532
iter:  34 22:49:56  -838.655883c -4.08  -2.84    +67.9694
iter:  35 22:51:16  -838.628008c -4.37  -2.87    +67.9329
iter:  36 22:52:34  -838.659434c -4.20  -3.02    +67.9072
iter:  37 22:53:53  -838.635900c -4.64  -2.92    +67.9341
iter:  38 22:55:12  -838.648589c -4.60  -3.10    +67.9966
iter:  39 22:56:31  -838.650779c -4.95  -3.08    +67.9530
iter:  40 22:57:50  -838.655335c -5.03  -3.13    +67.9026
iter:  41 22:59:09  -838.664692c -5.03  -3.16    +67.8907
iter:  42 23:00:28  -838.680067c -4.83  -3.17    +67.8504
iter:  43 23:01:47  -838.733503c -3.60  -3.12    +67.6922
iter:  44 23:03:06  -838.733305c -4.42  -3.03    +67.7147
iter:  45 23:04:24  -838.720514c -4.82  -3.08    +67.7163
iter:  46 23:05:44  -838.722052c -5.21  -3.25    +67.7067
iter:  47 23:07:03  -838.721499c -5.24  -3.26    +67.7016
iter:  48 23:08:22  -838.716677c -4.68  -3.25    +67.7006
iter:  49 23:09:41  -838.716669c -5.48  -3.35    +67.6891
iter:  50 23:11:00  -838.720685c -5.20  -3.39    +67.6742
iter:  51 23:12:19  -838.719289c -5.39  -3.37    +67.6610
iter:  52 23:13:38  -838.721047c -5.12  -3.39    +67.6394
iter:  53 23:14:57  -838.719717c -5.26  -3.48    +67.6651
iter:  54 23:16:16  -838.719214c -5.50  -3.55    +67.6689
iter:  55 23:17:35  -838.720785c -5.60  -3.70    +67.6536
iter:  56 23:18:54  -838.720133c -5.82  -3.68    +67.6500
iter:  57 23:20:13  -838.721038c -5.84  -3.81    +67.6525
iter:  58 23:21:32  -838.721520c -6.13  -3.78    +67.6561
iter:  59 23:22:51  -838.722480c -5.95  -3.88    +67.6573
iter:  60 23:24:09  -838.722203c -6.39  -3.85    +67.6557
iter:  61 23:25:29  -838.722724c -6.21  -3.89    +67.6541
iter:  62 23:26:48  -838.723567c -6.22  -4.05c   +67.6570
iter:  63 23:28:07  -838.723782c -6.24  -4.04c   +67.6570
iter:  64 23:29:26  -838.724225c -6.57  -4.15c   +67.6581
iter:  65 23:30:44  -838.724953c -6.36  -4.21c   +67.6581
iter:  66 23:32:03  -838.725243c -6.75  -4.16c   +67.6632
iter:  67 23:33:23  -838.725739c -6.52  -4.23c   +67.6518
iter:  68 23:34:41  -838.726298c -6.67  -4.24c   +67.6622
iter:  69 23:36:00  -838.725710c -6.37  -4.30c   +67.6295
iter:  70 23:37:20  -838.726383c -6.06  -4.25c   +67.6105
iter:  71 23:38:39  -838.725158c -5.50  -4.23c   +67.6553
iter:  72 23:39:58  -838.722874c -4.67  -4.34c   +67.7374
iter:  73 23:41:18  -838.722986c -5.69  -3.77    +67.7290
iter:  74 23:42:37  -838.723757c -6.24  -3.76    +67.7091
iter:  75 23:43:57  -838.724525c -6.24  -3.78    +67.6963
iter:  76 23:45:17  -838.724243c -6.65  -3.79    +67.7055
iter:  77 23:46:36  -838.724983c -5.88  -3.74    +67.7173
iter:  78 23:47:56  -838.722951c -5.25  -3.52    +67.7010
iter:  79 23:49:16  -838.723144c -5.38  -3.56    +67.7026
iter:  80 23:50:36  -838.722564c -5.72  -3.60    +67.6963
iter:  81 23:51:55  -838.723496c -5.64  -3.95    +67.6761
iter:  82 23:53:15  -838.723726c -6.17  -4.12c   +67.6735
iter:  83 23:54:35  -838.724901c -6.04  -4.07c   +67.6745
iter:  84 23:55:55  -838.725104c -6.60  -4.32c   +67.6696
iter:  85 23:57:14  -838.726081c -6.04  -4.27c   +67.6550
iter:  86 23:58:34  -838.727304c -5.98  -4.34c   +67.6533
iter:  87 23:59:54  -838.725253c -5.83  -4.35c   +67.6632
iter:  88 00:01:14  -838.716706c -4.15  -4.43c   +67.7055
iter:  89 00:02:34  -838.716518c -5.11  -3.69    +67.6757
iter:  90 00:03:54  -838.716648c -5.70  -3.68    +67.6299
iter:  91 00:05:14  -838.717412c -5.23  -3.70    +67.5118
iter:  92 00:06:34  -838.717978c -5.61  -3.73    +67.4824
iter:  93 00:07:54  -838.719235c -5.67  -3.74    +67.4688
iter:  94 00:09:14  -838.718311c -5.38  -3.67    +67.4689
iter:  95 00:10:34  -838.718918c -5.43  -3.60    +67.4653
iter:  96 00:11:54  -838.718898c -5.50  -3.59    +67.4901
iter:  97 00:13:14  -838.717735c -6.03  -3.68    +67.4740
iter:  98 00:14:35  -838.718232c -6.28  -4.03c   +67.4923
iter:  99 00:15:55  -838.719132c -6.04  -4.07c   +67.5198
iter: 100 00:17:15  -838.719535c -6.33  -4.08c   +67.5207
iter: 101 00:18:35  -838.719576c -6.37  -4.07c   +67.5161
iter: 102 00:19:55  -838.719924c -6.60  -4.23c   +67.5156
iter: 103 00:21:15  -838.720120c -6.49  -4.27c   +67.5169
iter: 104 00:22:35  -838.720338c -6.66  -4.11c   +67.5165
iter: 105 00:23:56  -838.720786c -6.46  -4.44c   +67.5153
iter: 106 00:25:16  -838.720179c -6.66  -4.40c   +67.5140
iter: 107 00:26:36  -838.719288c -6.11  -4.48c   +67.5060
iter: 108 00:27:56  -838.719989c -6.71  -4.48c   +67.5109
iter: 109 00:29:16  -838.719354c -6.51  -4.63c   +67.5106
iter: 110 00:30:37  -838.719561c -7.35  -4.57c   +67.5167
iter: 111 00:31:57  -838.719780c -7.32  -4.67c   +67.5149
iter: 112 00:33:17  -838.719911c -7.47c -4.78c   +67.5202

Converged after 112 iterations.

Dipole moment: (7.914982, 32.973715, 22.739799) |e|*Ang

Total magnetic moment: (0.000000, 0.000000, 67.520161)
Local magnetic moments:
   0 Co ( 0.000000,  0.000000,  0.818879)
   1 Ni ( 0.000000,  0.000000,  0.174977)
   2 Al ( 0.000000,  0.000000, -0.011259)
   3 Cr ( 0.000000,  0.000000,  0.090908)
   4 Cr ( 0.000000,  0.000000, -0.810507)
   5 Fe ( 0.000000,  0.000000,  1.957584)
   6 Fe ( 0.000000,  0.000000,  1.584765)
   7 Fe ( 0.000000,  0.000000,  1.609078)
   8 Cr ( 0.000000,  0.000000, -0.259969)
   9 Fe ( 0.000000,  0.000000,  1.200485)
  10 Fe ( 0.000000,  0.000000,  2.295301)
  11 Al ( 0.000000,  0.000000, -0.020343)
  12 Co ( 0.000000,  0.000000, -0.143324)
  13 Fe ( 0.000000,  0.000000,  2.021670)
  14 Al ( 0.000000,  0.000000, -0.008422)
  15 Al ( 0.000000,  0.000000, -0.032049)
  16 Cr ( 0.000000,  0.000000,  0.354284)
  17 Cr ( 0.000000,  0.000000, -0.134984)
  18 Al ( 0.000000,  0.000000, -0.020119)
  19 Co ( 0.000000,  0.000000,  1.117939)
  20 Co ( 0.000000,  0.000000,  0.665428)
  21 Cr ( 0.000000,  0.000000, -1.135323)
  22 Cr ( 0.000000,  0.000000,  0.858039)
  23 Cr ( 0.000000,  0.000000, -1.354915)
  24 Fe ( 0.000000,  0.000000,  1.825035)
  25 Al ( 0.000000,  0.000000, -0.020405)
  26 Ni ( 0.000000,  0.000000,  0.246083)
  27 Cr ( 0.000000,  0.000000, -1.866969)
  28 Fe ( 0.000000,  0.000000,  1.922148)
  29 Ni ( 0.000000,  0.000000,  0.139745)
  30 Co ( 0.000000,  0.000000,  0.908665)
  31 Fe ( 0.000000,  0.000000,  2.052917)
  32 Fe ( 0.000000,  0.000000,  1.850931)
  33 Cr ( 0.000000,  0.000000,  0.009336)
  34 Fe ( 0.000000,  0.000000,  1.737085)
  35 Cr ( 0.000000,  0.000000, -1.369246)
  36 Ni ( 0.000000,  0.000000,  0.406184)
  37 Ni ( 0.000000,  0.000000,  0.095119)
  38 Co ( 0.000000,  0.000000,  1.592277)
  39 Ni ( 0.000000,  0.000000,  0.356199)
  40 Co ( 0.000000,  0.000000,  1.284311)
  41 Ni ( 0.000000,  0.000000,  0.506973)
  42 Co ( 0.000000,  0.000000,  1.402448)
  43 Ni ( 0.000000,  0.000000,  0.391722)
  44 Cr ( 0.000000,  0.000000, -0.194125)
  45 Co ( 0.000000,  0.000000,  1.195982)
  46 Al ( 0.000000,  0.000000, -0.011370)
  47 Ni ( 0.000000,  0.000000,  0.100017)
  48 Cr ( 0.000000,  0.000000, -1.189467)
  49 Fe ( 0.000000,  0.000000,  1.864744)
  50 Fe ( 0.000000,  0.000000,  2.536947)
  51 Ni ( 0.000000,  0.000000,  0.250751)
  52 Ni ( 0.000000,  0.000000,  0.326803)
  53 Ni ( 0.000000,  0.000000,  0.375861)
  54 Co ( 0.000000,  0.000000,  1.355885)
  55 Cr ( 0.000000,  0.000000,  0.750465)
  56 Cr ( 0.000000,  0.000000, -0.946859)
  57 Co ( 0.000000,  0.000000,  0.854994)
  58 Cr ( 0.000000,  0.000000,  0.675824)
  59 Fe ( 0.000000,  0.000000,  1.323402)
[...]
  93 Ni ( 0.000000,  0.000000,  0.359640)
  94 Cr ( 0.000000,  0.000000,  1.260650)
  95 Cr ( 0.000000,  0.000000, -1.109195)
  96 Co ( 0.000000,  0.000000,  1.253272)
  97 Ni ( 0.000000,  0.000000,  0.239951)
  98 Ni ( 0.000000,  0.000000,  0.417593)
  99 Co ( 0.000000,  0.000000,  1.580503)
 100 Co ( 0.000000,  0.000000,  1.581096)
 101 Ni ( 0.000000,  0.000000,  0.375894)
 102 Fe ( 0.000000,  0.000000,  2.362607)
 103 Co ( 0.000000,  0.000000,  1.270010)
 104 Co ( 0.000000,  0.000000,  1.063228)
 105 Ni ( 0.000000,  0.000000,  0.444830)
 106 Fe ( 0.000000,  0.000000,  1.919697)
 107 Fe ( 0.000000,  0.000000,  2.082928)

Energy contributions relative to reference atoms: (reference = -3548577.034362)

Kinetic:       +355.928827
Potential:     -353.741936
External:        +0.000000
XC:            -874.563785
Entropy (-ST):   -4.418674
Local:          +35.866320
Free energy:   -840.929248
Extrapolated:  -838.719911

Spin contamination: 20.518222 electrons
Showing only first 2 kpts
                      Up                     Down
 Kpt  Band  Eigenvalues  Occupancy  Eigenvalues  Occupancy
  0   488      9.48568    0.99551     10.42599    0.01796
  0   489      9.49595    0.99503     10.45052    0.01411
  0   490      9.50564    0.99453     10.45328    0.01373
  0   491      9.52053    0.99365     10.46464    0.01228

  1   488      9.48761    0.99543     10.43596    0.01629
  1   489      9.49426    0.99511     10.44385    0.01507
  1   490      9.51215    0.99416     10.45676    0.01327
  1   491      9.52156    0.99359     10.46748    0.01194

Fermi level: 10.02587

No gap

Forces in eV/Ang:
  0 Co    0.08980   -0.63541    1.21572
  1 Ni   -1.09620   -1.03508   -0.92239
  2 Al   -0.42557    0.81042   -0.78704
  3 Cr   -0.65722   -0.71341    0.03517
  4 Cr    0.23451    0.47497    0.78575
  5 Fe   -1.32006   -0.75810   -1.25886
  6 Fe   -0.33815   -0.20699    0.41452
  7 Fe   -0.95843    0.35217    0.13176
  8 Cr    0.13358   -0.23827   -0.69887
  9 Fe    0.67782    0.57882   -2.62453
 10 Fe   -0.89860   -0.34242   -0.84029
 11 Al    0.67627   -1.74476   -0.16770
 12 Co    0.37712    0.25665   -0.61907
 13 Fe    0.28796    0.32144    0.37177
 14 Al   -1.29139   -0.87261    1.34979
 15 Al   -2.17365   -0.52523    1.10778
 16 Cr   -1.67795   -0.19851    0.57517
 17 Cr    2.10612    1.41993    0.22360
 18 Al    0.35892    0.19136   -0.72996
 19 Co    0.56934   -0.89186   -0.37946
 20 Co   -1.62128    0.51401    0.36920
 21 Cr    0.95662    2.56496    0.04166
 22 Cr   -0.01355    1.05533    1.17587
 23 Cr    0.62780    0.04419   -0.32943
 24 Fe    1.13621   -0.38206   -0.04083
 25 Al    0.96948    0.28701    2.14684
 26 Ni   -0.15316   -0.70279    0.23800
 27 Cr   -0.00438   -0.83220   -0.45171
 28 Fe    1.70621    2.75881    1.24080
 29 Ni    1.92760   -0.16898   -0.94614
 30 Co   -0.71124   -0.88775   -0.10039
 31 Fe   -0.26015   -0.12097    0.09466
 32 Fe   -0.30898    1.26895    0.79335
 33 Cr    1.87420   -0.71633   -0.50701
 34 Fe    0.67841   -0.25160    0.92374
 35 Cr   -1.76130    0.48485   -2.04415
 36 Ni   -0.63374   -0.36392    0.71251
 37 Ni    0.91749   -2.22243    0.13631
 38 Co    0.75791    0.62867    0.24385
 39 Ni    0.97797    0.10145    1.52473
 40 Co   -0.42459   -0.22632    2.23385
 41 Ni   -0.98104   -1.25154   -0.04805
 42 Co    0.62389   -0.93806    1.50274
 43 Ni   -0.08035    1.77493   -0.55870
 44 Cr   -1.37697    0.17131   -0.00423
 45 Co   -0.15965    1.30351    0.05761
 46 Al    0.85427    1.08238    1.09341
 47 Ni    2.44183   -0.03437   -0.12105
 48 Cr    0.03479   -0.63415   -0.31138
 49 Fe   -0.06147   -0.06809    0.86610
 50 Fe    0.77126    0.04032    1.04315
 51 Ni   -0.85946   -0.03609    0.34278
 52 Ni    0.26109    1.05532    1.26214
 53 Ni   -0.41605   -1.53724   -1.01838
 54 Co    0.68759    0.38278   -0.13372
 55 Cr    0.34934   -0.46608   -0.00533
 56 Cr   -0.52997    0.70696    0.43589
 57 Co   -0.63602   -0.29734   -0.69214
 58 Cr   -0.61697   -0.31546    0.19728
 59 Fe   -0.04964    0.28029   -0.24671
[...]
 93 Ni    0.09427   -0.86197   -0.70776
 94 Cr    1.53851   -1.26585   -0.79415
 95 Cr    0.69390   -0.27697   -0.79248
 96 Co   -0.07249   -0.22894   -1.11736
 97 Ni   -0.19386   -0.68202    0.14752
 98 Ni    1.05309    2.97738    1.16621
 99 Co   -0.49550    0.30479   -0.38043
100 Co   -0.15198   -0.26808    0.19815
101 Ni   -0.67696   -3.36350    0.33953
102 Fe   -1.72073    0.92938   -0.85910
103 Co   -1.29534    0.17684   -0.31946
104 Co    0.60757    0.80420    1.42722
105 Ni   -0.22024   -0.21887    1.98006
106 Fe   -1.05070    0.45937    0.68465
107 Fe   -0.24146   -0.48771   -1.27262

Date: Fri Apr 14 00:33:34 2023