User:   c.zeng@d0089
Date:   Thu Apr 13 22:21:18 2023
Arch:   x86_64
Pid:    131738
CWD:    /home/c.zeng/projects/hea-corrosion/hea-mlp/data-curation/bulk-md/dft-jobs/50
Python: 3.8.1
gpaw:   /home/c.zeng/usr/installs/gpaw/source/gpaw-22.8.0/gpaw
_gpaw:  /home/c.zeng/usr/installs/gpaw/source/gpaw-22.8.0/
        _gpaw.cpython-38-x86_64-linux-gnu.so
ase:    /home/c.zeng/.local/lib/python3.8/site-packages/ase-3.22.1-py3.8.egg/ase (version 3.22.1)
numpy:  /shared/centos7/python/3.8.1/lib/python3.8/site-packages/numpy (version 1.17.4)
scipy:  /shared/centos7/python/3.8.1/lib/python3.8/site-packages/scipy (version 1.4.1)
units:  Angstrom and eV
cores: 30
OpenMP: False
OMP_NUM_THREADS: 1

Input parameters:
  convergence: {energy: 0.0001}
  kpts: [2 2 2]
  maxiter: 666
  mode: {ecut: 350.0,
         name: pw}
  occupations: {fixmagmom: False,
                name: fermi-dirac,
                width: 0.1}
  spinpol: True
  xc: PBE

System changes: positions, numbers, cell, pbc, initial_charges, initial_magmoms

Initialize ...

species:
  Co:
    name: Cobalt
    id: 339d20d5b0b93d2de9531a1bee871d91
    Z: 27.0
    valence: 9
    core: 18
    charge: 0.0
    file: /home/c.zeng/usr/data/gpaw-setups-0.9.20000/Co.PBE.gz
    compensation charges: {type: gauss,
                           rc: 0.32,
                           lmax: 2}
    cutoffs: {filter: 1.87,
              core: 2.55}
    valence states:
      #              energy  rcut
      - 4s(2.00)    -5.469   1.005
      - 4p(0.00)    -1.277   1.058
      - 3d(7.00)    -8.205   1.005
      -  s          21.742   1.005
      -  p          25.934   1.058
      -  d          19.007   1.005

    # Using partial waves for Co as LCAO basis

  Ni:
    name: Nickel
    id: 0d9f38a9d6e76a2886f07bb4381f212b
    Z: 28.0
    valence: 16
    core: 12
    charge: 0.0
    file: /home/c.zeng/usr/data/gpaw-setups-0.9.20000/Ni.PBE.gz
    compensation charges: {type: gauss,
                           rc: 0.36,
                           lmax: 2}
    cutoffs: {filter: 2.14,
              core: 1.98}
    valence states:
      #              energy  rcut
      - 4s(2.00)    -5.642   1.164
      - 3p(6.00)   -71.394   1.207
      - 4p(0.00)    -1.226   1.207
      - 3d(8.00)    -8.875   1.138
      -  s          21.570   1.164
      -  d          18.337   1.138

[...]

  Al:
    name: Aluminium
    id: 0292cae29f5d6237e50f6abdd43a7bdd
    Z: 13.0
    valence: 3
    core: 10
    charge: 0.0
    file: /home/c.zeng/usr/data/gpaw-setups-0.9.20000/Al.PBE.gz
    compensation charges: {type: gauss,
                           rc: 0.34,
                           lmax: 2}
    cutoffs: {filter: 1.91,
              core: 2.36}
    valence states:
      #              energy  rcut
      - 3s(2.00)    -7.753   1.085
      - 3p(1.00)    -2.712   1.085
      -  s          19.459   1.085
      -  p          24.499   1.085
      -  d           0.000   1.085

[...]

  Cr:
    name: Chromium
    id: 33f258bda2ca9f93018e70263a35547b
    Z: 24.0
    valence: 6
    core: 18
    charge: 0.0
    file: /home/c.zeng/usr/data/gpaw-setups-0.9.20000/Cr.PBE.gz
    compensation charges: {type: gauss,
                           rc: 0.35,
                           lmax: 2}
    cutoffs: {filter: 2.14,
              core: 3.04}
    valence states:
      #              energy  rcut
      - 4s(1.00)    -4.007   1.164
      - 4p(0.00)    -0.989   1.217
      - 3d(5.00)    -2.913   1.111
      -  s          23.205   1.164
      -  p          26.223   1.217
      -  d          24.299   1.111

[...]

  Fe:
    name: Iron
    id: 37abbd8d6c3c35915a9b583b742da910
    Z: 26.0
    valence: 8
    core: 18
    charge: 0.0
    file: /home/c.zeng/usr/data/gpaw-setups-0.9.20000/Fe.PBE.gz
    compensation charges: {type: gauss,
                           rc: 0.33,
                           lmax: 2}
    cutoffs: {filter: 2.06,
              core: 2.67}
    valence states:
      #              energy  rcut
      - 4s(2.00)    -5.291   1.164
      - 4p(0.00)    -1.326   1.058
      - 3d(6.00)    -7.505   1.058
      -  s          21.920   1.164
      -  p          25.885   1.058
      -  d          19.706   1.058

    # Using partial waves for Fe as LCAO basis

Reference energy: -3548577.034362  # eV

Spin-polarized calculation.
Magnetic moment: 136.400000

Convergence criteria:
 Maximum [total energy] change in last 3 cyles: 0.0001 eV / electron
 Maximum integral of absolute [dens]ity change: 0.0001 electrons / valence electron
 Maximum integral of absolute [eigenst]ate change: 4e-08 eV^2 / valence electron
 Maximum number of scf [iter]ations: 666
 (Square brackets indicate name in SCF output, whereas a 'c' in
 the SCF output indicates the quantity has converged.)

Symmetries present (total): 1

  ( 1  0  0)
  ( 0  1  0)
  ( 0  0  1)

8 k-points: 2 x 2 x 2 Monkhorst-Pack grid
4 k-points in the irreducible part of the Brillouin zone
       k-points in crystal coordinates                weights
   0:     0.25000000   -0.25000000   -0.25000000          2/8
   1:     0.25000000   -0.25000000    0.25000000          2/8
   2:     0.25000000    0.25000000   -0.25000000          2/8
   3:     0.25000000    0.25000000    0.25000000          2/8

Wave functions: Plane wave expansion
  Cutoff energy: 350.000 eV
  Number of coefficients (min, max): 18331, 18331
  Pulay-stress correction: 0.000000 eV/Ang^3 (de/decut=0.000000)
  Using FFTW library
  ScaLapack parameters: grid=1x1, blocksize=None
  Wavefunction extrapolation:
    Improved wavefunction reuse through dual PAW basis

Occupation numbers: Fermi-Dirac:
  width: 0.1000  # eV

Eigensolver
   Davidson(niter=2)

Densities:
  Coarse grid: 48*48*48 grid
  Fine grid: 96*96*96 grid
  Total Charge: 0.000000

Density mixing:
  Method: difference
  Backend: pulay
  Linear mixing parameter: 0.05
  old densities: 5
  Damping of long wavelength oscillations: 50

Hamiltonian:
  XC and Coulomb potentials evaluated on a 96*96*96 grid
  Using the PBE Exchange-Correlation functional
  External potential:
    NoExternalPotential

XC parameters: PBE with 2 nearest neighbor stencil

Total number of cores used: 30
Parallelization over k-points: 2
Domain decomposition: 5 x 3 x 1

Number of atoms: 108
Number of atomic orbitals: 994
Number of bands in calculation: 674
Number of valence electrons: 980
Bands to converge: occupied

... initialized

Initializing position-dependent things.

Density initialized from atomic densities
Creating initial wave functions:
  674 bands from LCAO basis set

       /|           Fe       Cr   |
      / |  CrCo        Fe     Al  |
     /  |     FeNi      Ni     FeNi
    /   |Al       Co              |
   /    |Ni        Fe Ni NiFe     |
  /     |  Co Fe            FeCo  |
 *      NiCr  Co AlCro CoCr    Co |
 |Co    |  Fe  Co CoCr  CrCr    Ni|
 |      |Cr CoFeCo CoFe  CrFeCr   |
 |    Fe| Ni Ni     CrCoNi  NiFe  |
 Al    Fe FeACo Cr     CrCr   FNi |
 |      Ni Ni   NiCCo   CrFeNi   Al
 |    CoCoNiNi----Co-CAl---FeCr---.
 |     /     Cr       Cr       Fe/
 |Ni  /Ni     NiAl      NiCr    /
 | Ni/              Fe    Cr   /
 |  /      Fe        Co       /
 | /        CrFe             /o
 |/    Cr       Fe      Al  /

Positions:
   0 Co    10.781283   -0.042042   10.855529    ( 0.0000,  0.0000,  2.1000)
   1 Ni    10.992980    1.806904    2.005350    ( 0.0000,  0.0000,  1.5000)
   2 Al     1.900338   -0.354515    1.849442    ( 0.0000,  0.0000,  0.0000)
   3 Cr     1.899671    1.572612   10.763017    ( 0.0000,  0.0000,  0.0000)
   4 Cr     3.524036    0.104356   10.568076    ( 0.0000,  0.0000,  0.0000)
   5 Fe     3.516549    1.614080    1.661271    ( 0.0000,  0.0000,  2.0000)
   6 Fe     5.157285    0.100806    1.815079    ( 0.0000,  0.0000,  2.0000)
   7 Fe     5.529928    1.686548    0.208206    ( 0.0000,  0.0000,  2.0000)
   8 Cr     7.456296    0.070407   -0.060330    ( 0.0000,  0.0000,  0.0000)
   9 Fe     7.167761    1.813636    2.079280    ( 0.0000,  0.0000,  2.0000)
  10 Fe     9.007829   -0.007099    1.822947    ( 0.0000,  0.0000,  2.0000)
  11 Al     9.036418    1.786610    0.208673    ( 0.0000,  0.0000,  0.0000)
  12 Co    10.561025    3.533457   10.853980    ( 0.0000,  0.0000,  2.1000)
  13 Fe    10.712909    5.506895    1.788044    ( 0.0000,  0.0000,  2.0000)
  14 Al     1.603788    3.679585    1.766220    ( 0.0000,  0.0000,  0.0000)
  15 Al     1.915315    5.228567   10.496222    ( 0.0000,  0.0000,  0.0000)
  16 Cr     3.683265    3.467536   10.793140    ( 0.0000,  0.0000,  0.0000)
  17 Cr     3.404589    5.450333    1.887239    ( 0.0000,  0.0000,  0.0000)
  18 Al     5.310819    3.544909    1.886121    ( 0.0000,  0.0000,  0.0000)
  19 Co     5.521744    5.443776   10.590537    ( 0.0000,  0.0000,  2.1000)
  20 Co     7.225186    3.375945    0.262094    ( 0.0000,  0.0000,  2.1000)
  21 Cr     7.157601    5.353359    1.697466    ( 0.0000,  0.0000,  0.0000)
  22 Cr     9.162444    3.832393    1.955016    ( 0.0000,  0.0000,  0.0000)
  23 Cr     8.879484    5.216184    0.112232    ( 0.0000,  0.0000,  0.0000)
  24 Fe    10.627980    6.937416   10.649413    ( 0.0000,  0.0000,  2.0000)
  25 Al    10.644671    8.734639    1.996714    ( 0.0000,  0.0000,  0.0000)
  26 Ni     1.709976    7.321882    1.436143    ( 0.0000,  0.0000,  1.5000)
  27 Cr     1.768984    8.799822   10.479391    ( 0.0000,  0.0000,  0.0000)
  28 Fe     3.572523    7.044159   10.592646    ( 0.0000,  0.0000,  2.0000)
  29 Ni     3.763507    8.897953    1.667541    ( 0.0000,  0.0000,  1.5000)
  30 Co     5.226609    7.166252    1.519944    ( 0.0000,  0.0000,  2.1000)
  31 Fe     5.284614    9.055496   10.626768    ( 0.0000,  0.0000,  2.0000)
  32 Fe     7.098434    7.336099   10.656433    ( 0.0000,  0.0000,  2.0000)
  33 Cr     7.243134    8.969436    1.631381    ( 0.0000,  0.0000,  0.0000)
  34 Fe     8.824354    7.174517    1.632726    ( 0.0000,  0.0000,  2.0000)
  35 Cr     9.157702    8.981382   -0.021371    ( 0.0000,  0.0000,  0.0000)
  36 Ni    10.933608    0.139820    3.731720    ( 0.0000,  0.0000,  1.5000)
  37 Ni    -0.005923    1.931753    5.192257    ( 0.0000,  0.0000,  1.5000)
  38 Co     1.887072    0.142422    5.569369    ( 0.0000,  0.0000,  2.1000)
  39 Ni     2.059206    1.831345    3.536137    ( 0.0000,  0.0000,  1.5000)
  40 Co     3.514012   -0.196300    3.718398    ( 0.0000,  0.0000,  2.1000)
  41 Ni     3.664377    1.968599    5.272559    ( 0.0000,  0.0000,  1.5000)
  42 Co     5.242440   -0.353890    5.330762    ( 0.0000,  0.0000,  2.1000)
  43 Ni     5.019668    1.935279    3.395696    ( 0.0000,  0.0000,  1.5000)
  44 Cr     6.923738   -0.036785    3.545543    ( 0.0000,  0.0000,  0.0000)
  45 Co     6.973690    1.983892    5.151149    ( 0.0000,  0.0000,  2.1000)
  46 Al     8.731674   10.897372    5.308098    ( 0.0000,  0.0000,  0.0000)
  47 Ni     9.034333    1.825238    3.260047    ( 0.0000,  0.0000,  1.5000)
  48 Cr    10.645056    3.565846    3.765210    ( 0.0000,  0.0000,  0.0000)
  49 Fe    -0.189796    5.544639    5.415232    ( 0.0000,  0.0000,  2.0000)
  50 Fe     1.663074    3.656280    5.449863    ( 0.0000,  0.0000,  2.0000)
  51 Ni     1.654337    5.189588    3.547338    ( 0.0000,  0.0000,  1.5000)
  52 Ni     3.433957    3.701681    3.653457    ( 0.0000,  0.0000,  1.5000)
  53 Ni     3.373268    5.597090    5.225510    ( 0.0000,  0.0000,  1.5000)
  54 Co     5.244269    3.843012    5.461496    ( 0.0000,  0.0000,  2.1000)
  55 Cr     5.488271    5.568079    3.533267    ( 0.0000,  0.0000,  0.0000)
  56 Cr     7.404256    3.835765    3.444692    ( 0.0000,  0.0000,  0.0000)
  57 Co     7.230855    5.181190    5.445416    ( 0.0000,  0.0000,  2.1000)
  58 Cr     8.972392    3.646957    5.259387    ( 0.0000,  0.0000,  0.0000)
  59 Fe     8.948356    5.389574    3.661071    ( 0.0000,  0.0000,  2.0000)
[...]
  93 Ni     7.116797    5.203570    9.200060    ( 0.0000,  0.0000,  1.5000)
  94 Cr     8.946722    3.672950    8.883203    ( 0.0000,  0.0000,  0.0000)
  95 Cr     8.866902    5.344755    7.120416    ( 0.0000,  0.0000,  0.0000)
  96 Co    10.366993    7.328233    7.164639    ( 0.0000,  0.0000,  2.1000)
  97 Ni    10.686946    8.921246    8.884361    ( 0.0000,  0.0000,  1.5000)
  98 Ni     1.578206    7.106583    8.870208    ( 0.0000,  0.0000,  1.5000)
  99 Co     1.583658    8.860887    7.026567    ( 0.0000,  0.0000,  2.1000)
 100 Co     3.626447    6.921844    7.369426    ( 0.0000,  0.0000,  2.1000)
 101 Ni     3.562296    9.008390    8.827227    ( 0.0000,  0.0000,  1.5000)
 102 Fe     5.530811    7.235430    8.857925    ( 0.0000,  0.0000,  2.0000)
 103 Co     5.157243    8.869248    7.188620    ( 0.0000,  0.0000,  2.1000)
 104 Co     7.118935    7.120532    6.984340    ( 0.0000,  0.0000,  2.1000)
 105 Ni     7.233486    9.062923    8.964588    ( 0.0000,  0.0000,  1.5000)
 106 Fe     8.694168    7.040481    8.920264    ( 0.0000,  0.0000,  2.0000)
 107 Fe     8.713013    8.794343    7.201190    ( 0.0000,  0.0000,  2.0000)

Unit cell:
           periodic     x           y           z      points  spacing
  1. axis:    yes   10.722400    0.000000    0.000000    48     0.2234
  2. axis:    yes    0.000000   10.722400    0.000000    48     0.2234
  3. axis:    yes    0.000000    0.000000   10.722400    48     0.2234

  Lengths:  10.722400  10.722400  10.722400
  Angles:   90.000000  90.000000  90.000000

Effective grid spacing dv^(1/3) = 0.2234

     iter     time        total  log10-change:  magmom
                         energy  eigst   dens
iter:   1 22:24:42 -1009.835623                  +136.6833
iter:   2 22:26:00  -891.076090  -0.25  -1.19    +77.1499
iter:   3 22:27:19  -881.029826  -0.88  -1.23    +65.3942
iter:   4 22:28:38  -872.939795  -1.20  -1.29    +61.0141
iter:   5 22:29:57  -854.551244  -1.58  -1.28    +57.6177
iter:   6 22:31:16  -854.557535  -1.30  -1.37    +57.1650
iter:   7 22:32:35  -853.478562  -1.20  -1.44    +55.7814
iter:   8 22:33:54  -838.168808  -1.63  -1.53    +55.2129
iter:   9 22:35:12  -837.198406  -2.21  -1.75    +55.5002
iter:  10 22:36:31  -838.374693  -2.27  -1.79    +56.7782
iter:  11 22:37:50  -837.652227  -2.48  -1.80    +57.1627
iter:  12 22:39:09  -838.188301  -2.41  -1.84    +58.4733
iter:  13 22:40:28  -839.504483  -2.36  -1.88    +58.8325
iter:  14 22:41:46  -838.057481  -2.28  -1.89    +58.9706
iter:  15 22:43:05  -837.625206  -2.68  -2.04    +59.8872
iter:  16 22:44:24  -838.463023  -2.66  -2.09    +59.7014
iter:  17 22:45:42  -837.553075  -2.88  -2.06    +60.0070
iter:  18 22:47:01  -838.168778  -2.83  -2.19    +60.2109
iter:  19 22:48:20  -837.709062  -2.98  -2.16    +60.5571
iter:  20 22:49:39  -838.001968  -2.99  -2.24    +60.6089
iter:  21 22:50:58  -837.679676  -3.04  -2.26    +60.4472
iter:  22 22:52:16  -837.635391  -3.23  -2.39    +61.0390
iter:  23 22:53:35  -837.810208  -3.17  -2.44    +61.0174
iter:  24 22:54:54  -837.557370  -3.34  -2.39    +61.1190
iter:  25 22:56:13  -837.647847  -3.42  -2.60    +61.2122
iter:  26 22:57:31  -837.570376c -3.68  -2.57    +61.4164
iter:  27 22:58:50  -837.547944  -3.97  -2.64    +61.5177
iter:  28 23:00:09  -837.568224c -4.09  -2.73    +61.4882
iter:  29 23:01:27  -837.575956c -4.18  -2.73    +61.6713
iter:  30 23:02:46  -837.582999c -4.19  -2.79    +61.7718
iter:  31 23:04:05  -837.594323c -4.22  -2.77    +61.8249
iter:  32 23:05:24  -837.638143c -3.97  -2.84    +61.7370
iter:  33 23:06:43  -837.603960c -4.14  -2.77    +61.8051
iter:  34 23:08:01  -837.624595c -4.07  -2.90    +62.0008
iter:  35 23:09:20  -837.595288c -4.42  -2.86    +61.9200
iter:  36 23:10:39  -837.609571c -4.37  -3.02    +61.9147
iter:  37 23:11:58  -837.593212c -4.84  -2.97    +61.9035
iter:  38 23:13:16  -837.597817c -4.97  -3.12    +61.9777
iter:  39 23:14:35  -837.598906c -5.20  -3.13    +61.9346
iter:  40 23:15:54  -837.603344c -5.27  -3.16    +61.9175
iter:  41 23:17:13  -837.604213c -5.33  -3.17    +61.9400
iter:  42 23:18:32  -837.613829c -4.84  -3.20    +61.9209
iter:  43 23:19:51  -837.613037c -4.87  -3.12    +61.9130
iter:  44 23:21:09  -837.617494c -4.78  -3.19    +61.8543
iter:  45 23:22:28  -837.619900c -4.71  -3.20    +61.8841
iter:  46 23:23:47  -837.615323c -4.81  -3.19    +61.9264
iter:  47 23:25:05  -837.613352c -5.04  -3.26    +61.8463
iter:  48 23:26:24  -837.614342c -5.50  -3.36    +61.8445
iter:  49 23:27:43  -837.614073c -5.73  -3.43    +61.8447
iter:  50 23:29:02  -837.615440c -5.93  -3.48    +61.8608
iter:  51 23:30:21  -837.617960c -5.59  -3.50    +61.8414
iter:  52 23:31:40  -837.619070c -5.68  -3.50    +61.8537
iter:  53 23:32:58  -837.620662c -5.23  -3.59    +61.8627
iter:  54 23:34:17  -837.619593c -5.48  -3.49    +61.8507
iter:  55 23:35:36  -837.620419c -5.69  -3.66    +61.8308
iter:  56 23:36:55  -837.621560c -5.69  -3.80    +61.8180
iter:  57 23:38:13  -837.621471c -5.99  -3.74    +61.8351
iter:  58 23:39:33  -837.621933c -6.17  -3.88    +61.8460
iter:  59 23:40:51  -837.623103c -6.02  -3.97    +61.8501
iter:  60 23:42:10  -837.623205c -6.72  -3.90    +61.8488
iter:  61 23:43:29  -837.624153c -6.42  -3.91    +61.8518
iter:  62 23:44:48  -837.624886c -5.93  -3.90    +61.8539
iter:  63 23:46:06  -837.625157c -6.40  -4.06c   +61.8573
iter:  64 23:47:25  -837.626817c -5.89  -4.17c   +61.8540
iter:  65 23:48:44  -837.626959c -6.09  -3.96    +61.8707
iter:  66 23:50:03  -837.627482c -6.45  -4.24c   +61.8707
iter:  67 23:51:21  -837.628345c -6.19  -4.21c   +61.8751
iter:  68 23:52:40  -837.627185c -6.07  -4.11c   +61.8640
iter:  69 23:53:59  -837.630720c -5.03  -4.14c   +61.9007
iter:  70 23:55:18  -837.630040c -6.40  -3.92    +61.8940
iter:  71 23:56:37  -837.631465c -5.86  -3.94    +61.9071
iter:  72 23:57:56  -837.633468c -5.40  -3.92    +61.9437
iter:  73 23:59:15  -837.632893c -6.62  -3.74    +61.9332
iter:  74 00:00:34  -837.635599c -5.36  -3.75    +61.9736
iter:  75 00:01:52  -837.634499c -6.19  -3.72    +61.9608
iter:  76 00:03:11  -837.636410c -5.78  -3.74    +61.9937
iter:  77 00:04:30  -837.638322c -5.82  -3.70    +62.0103
iter:  78 00:05:49  -837.638130c -5.49  -3.61    +61.9937
iter:  79 00:07:08  -837.638763c -5.52  -3.54    +62.0065
iter:  80 00:08:26  -837.637181c -6.32  -3.53    +62.0127
iter:  81 00:09:45  -837.638406c -5.51  -3.67    +62.0309
iter:  82 00:11:04  -837.636389c -5.70  -3.59    +62.0271
iter:  83 00:12:23  -837.637246c -6.04  -3.66    +62.0135
iter:  84 00:13:41  -837.637665c -6.10  -3.80    +62.0257
iter:  85 00:15:00  -837.637788c -5.88  -3.81    +62.0245
iter:  86 00:16:19  -837.637909c -6.09  -3.73    +62.0279
iter:  87 00:17:37  -837.638904c -5.87  -3.84    +62.0344
iter:  88 00:18:56  -837.639600c -5.83  -3.78    +62.0413
iter:  89 00:20:15  -837.638203c -5.90  -3.82    +62.0493
iter:  90 00:21:34  -837.638726c -6.13  -3.83    +62.0456
iter:  91 00:22:53  -837.639082c -6.27  -3.90    +62.0577
iter:  92 00:24:12  -837.639149c -6.28  -4.04c   +62.0651
iter:  93 00:25:30  -837.639250c -6.81  -3.99    +62.0691
iter:  94 00:26:49  -837.639598c -6.35  -4.08c   +62.0788
iter:  95 00:28:08  -837.640498c -6.47  -4.10c   +62.0783
iter:  96 00:29:27  -837.640196c -6.33  -4.02c   +62.0978
iter:  97 00:30:46  -837.640186c -6.65  -4.13c   +62.0997
iter:  98 00:32:05  -837.640720c -6.52  -4.20c   +62.1053
iter:  99 00:33:24  -837.640811c -6.55  -4.23c   +62.1121
iter: 100 00:34:43  -837.640982c -6.92  -4.27c   +62.1149
iter: 101 00:36:01  -837.641416c -6.54  -4.34c   +62.1299
iter: 102 00:37:20  -837.641515c -7.27  -4.36c   +62.1320
iter: 103 00:38:39  -837.642146c -6.14  -4.38c   +62.1590
iter: 104 00:39:57  -837.641433c -6.11  -4.30c   +62.1267
iter: 105 00:41:16  -837.641238c -6.77  -4.22c   +62.1146
iter: 106 00:42:35  -837.641611c -6.82  -4.43c   +62.1273
iter: 107 00:43:53  -837.641630c -6.99  -4.45c   +62.1163
iter: 108 00:45:12  -837.641931c -6.53  -4.40c   +62.1373
iter: 109 00:46:31  -837.641993c -7.48c -4.46c   +62.1355

Converged after 109 iterations.

Dipole moment: (41.011969, -2.465020, 0.348518) |e|*Ang

Total magnetic moment: (0.000000, 0.000000, 62.135452)
Local magnetic moments:
   0 Co ( 0.000000,  0.000000,  0.305210)
   1 Ni ( 0.000000,  0.000000,  0.102513)
   2 Al ( 0.000000,  0.000000, -0.005576)
   3 Cr ( 0.000000,  0.000000, -0.269492)
   4 Cr ( 0.000000,  0.000000, -0.535177)
   5 Fe ( 0.000000,  0.000000,  0.977679)
   6 Fe ( 0.000000,  0.000000,  1.856374)
   7 Fe ( 0.000000,  0.000000,  1.605809)
   8 Cr ( 0.000000,  0.000000, -0.298542)
   9 Fe ( 0.000000,  0.000000,  1.900907)
  10 Fe ( 0.000000,  0.000000,  1.881029)
  11 Al ( 0.000000,  0.000000, -0.015081)
  12 Co ( 0.000000,  0.000000,  0.049598)
  13 Fe ( 0.000000,  0.000000,  1.545976)
  14 Al ( 0.000000,  0.000000, -0.008041)
  15 Al ( 0.000000,  0.000000, -0.022578)
  16 Cr ( 0.000000,  0.000000, -0.023277)
  17 Cr ( 0.000000,  0.000000, -1.577654)
  18 Al ( 0.000000,  0.000000, -0.012129)
  19 Co ( 0.000000,  0.000000,  1.360103)
  20 Co ( 0.000000,  0.000000,  0.897577)
  21 Cr ( 0.000000,  0.000000, -0.291027)
  22 Cr ( 0.000000,  0.000000,  0.103608)
  23 Cr ( 0.000000,  0.000000, -0.541628)
  24 Fe ( 0.000000,  0.000000,  1.896489)
  25 Al ( 0.000000,  0.000000, -0.012581)
  26 Ni ( 0.000000,  0.000000,  0.119634)
  27 Cr ( 0.000000,  0.000000, -1.755475)
  28 Fe ( 0.000000,  0.000000,  2.242781)
  29 Ni ( 0.000000,  0.000000,  0.269224)
  30 Co ( 0.000000,  0.000000,  1.060436)
  31 Fe ( 0.000000,  0.000000,  2.203985)
  32 Fe ( 0.000000,  0.000000,  1.642766)
  33 Cr ( 0.000000,  0.000000, -0.916272)
  34 Fe ( 0.000000,  0.000000,  1.205302)
  35 Cr ( 0.000000,  0.000000, -1.124783)
  36 Ni ( 0.000000,  0.000000,  0.248768)
  37 Ni ( 0.000000,  0.000000,  0.147522)
  38 Co ( 0.000000,  0.000000,  1.591658)
  39 Ni ( 0.000000,  0.000000,  0.367661)
  40 Co ( 0.000000,  0.000000,  1.539122)
  41 Ni ( 0.000000,  0.000000,  0.420266)
  42 Co ( 0.000000,  0.000000,  1.227041)
  43 Ni ( 0.000000,  0.000000,  0.271580)
  44 Cr ( 0.000000,  0.000000, -0.808023)
  45 Co ( 0.000000,  0.000000,  0.959545)
  46 Al ( 0.000000,  0.000000, -0.006488)
  47 Ni ( 0.000000,  0.000000,  0.204955)
  48 Cr ( 0.000000,  0.000000, -0.468573)
  49 Fe ( 0.000000,  0.000000,  1.395601)
  50 Fe ( 0.000000,  0.000000,  2.266625)
  51 Ni ( 0.000000,  0.000000,  0.205357)
  52 Ni ( 0.000000,  0.000000,  0.286443)
  53 Ni ( 0.000000,  0.000000,  0.216430)
  54 Co ( 0.000000,  0.000000,  1.512528)
  55 Cr ( 0.000000,  0.000000,  1.084354)
  56 Cr ( 0.000000,  0.000000, -0.242901)
  57 Co ( 0.000000,  0.000000,  0.600020)
  58 Cr ( 0.000000,  0.000000,  0.389004)
  59 Fe ( 0.000000,  0.000000, -0.482230)
[...]
  93 Ni ( 0.000000,  0.000000,  0.402540)
  94 Cr ( 0.000000,  0.000000,  0.096606)
  95 Cr ( 0.000000,  0.000000, -0.931939)
  96 Co ( 0.000000,  0.000000,  1.250681)
  97 Ni ( 0.000000,  0.000000,  0.090555)
  98 Ni ( 0.000000,  0.000000,  0.400820)
  99 Co ( 0.000000,  0.000000,  1.551469)
 100 Co ( 0.000000,  0.000000,  1.673012)
 101 Ni ( 0.000000,  0.000000,  0.402107)
 102 Fe ( 0.000000,  0.000000,  2.425141)
 103 Co ( 0.000000,  0.000000,  1.505068)
 104 Co ( 0.000000,  0.000000,  1.160455)
 105 Ni ( 0.000000,  0.000000,  0.285159)
 106 Fe ( 0.000000,  0.000000,  2.178990)
 107 Fe ( 0.000000,  0.000000,  2.034598)

Energy contributions relative to reference atoms: (reference = -3548577.034362)

Kinetic:       +372.862433
Potential:     -367.763557
External:        +0.000000
XC:            -876.412047
Entropy (-ST):   -4.362107
Local:          +35.852232
Free energy:   -839.823046
Extrapolated:  -837.641993

Spin contamination: 20.846578 electrons
Showing only first 2 kpts
                      Up                     Down
 Kpt  Band  Eigenvalues  Occupancy  Eigenvalues  Occupancy
  0   488      9.50602    0.99466     10.40886    0.02187
  0   489      9.51947    0.99390     10.42773    0.01817
  0   490      9.53430    0.99293     10.43318    0.01723
  0   491      9.54734    0.99195     10.44701    0.01504

  1   488      9.49340    0.99529     10.41170    0.02127
  1   489      9.52060    0.99383     10.41663    0.02027
  1   490      9.52711    0.99342     10.42415    0.01882
  1   491      9.54116    0.99243     10.43841    0.01636

Fermi level: 10.02879

No gap

Forces in eV/Ang:
  0 Co    0.46241   -0.51201   -0.28359
  1 Ni   -0.61470   -0.76475   -1.51968
  2 Al   -0.32296    1.24427    0.37348
  3 Cr   -0.84202    1.31630   -0.93006
  4 Cr    0.62039   -0.42106   -0.09342
  5 Fe   -0.63171    1.06904    0.18989
  6 Fe    1.35023   -1.16832    0.46530
  7 Fe   -0.72907   -0.11401   -0.89427
  8 Cr   -2.36414   -0.95485    0.86898
  9 Fe   -1.10172   -0.64226   -0.86792
 10 Fe    0.00605   -0.45601    0.44961
 11 Al    1.97790    0.87820    0.87191
 12 Co    1.40333    0.11919   -1.07114
 13 Fe   -0.07042    0.55363   -0.10054
 14 Al    0.91576   -1.36749    0.18606
 15 Al   -1.45862    0.84419    0.18112
 16 Cr   -0.61226   -0.55190   -0.37658
 17 Cr    1.51493    0.26053   -0.51905
 18 Al   -0.07250    1.06730   -0.26715
 19 Co   -1.91729   -0.80849    1.82339
 20 Co   -0.28578    0.60479   -0.41651
 21 Cr   -0.67212    1.23303    0.00731
 22 Cr    0.39446   -1.22135   -0.57885
 23 Cr   -0.08140    1.00716    0.00390
 24 Fe   -0.38605    1.13490   -0.46853
 25 Al   -0.49942    1.16870   -0.81105
 26 Ni    0.48014   -1.19753    1.34470
 27 Cr    0.03480    1.35217   -0.17046
 28 Fe    0.36102    0.54987   -0.77042
 29 Ni   -1.60576    0.53822   -0.11691
 30 Co    1.12322   -0.69280    0.73287
 31 Fe    0.74910   -0.10461    0.15921
 32 Fe    0.34554   -0.34659    0.76133
 33 Cr   -0.92764    0.52644    0.33430
 34 Fe    0.38646   -0.73724    0.26088
 35 Cr   -1.02451   -1.14739    0.01621
 36 Ni   -0.64104   -0.98436   -0.69746
 37 Ni    0.60337   -1.54325    1.12522
 38 Co    0.15743   -0.76352   -0.82979
 39 Ni   -0.87224   -0.56690    0.72391
 40 Co    0.23982   -0.00078    0.14844
 41 Ni   -0.25365   -0.87571    1.62602
 42 Co    0.77016    1.29188   -0.70987
 43 Ni    1.60017   -1.40513    1.80486
 44 Cr   -0.32113    0.17865   -0.63643
 45 Co    0.42072   -0.32480   -0.27362
 46 Al    1.33256   -0.27174   -1.08924
 47 Ni    0.02919   -0.29420    2.60476
 48 Cr    0.17985    1.35921   -0.95299
 49 Fe    0.72892   -0.82104    0.37123
 50 Fe    1.01798    0.92547   -0.54776
 51 Ni   -0.44986    1.99024    0.51974
 52 Ni    1.01418    0.52787   -0.38412
 53 Ni    0.88934   -0.53697    0.31687
 54 Co    1.06822   -0.57478   -1.23565
 55 Cr   -0.93672    0.43922    0.01456
 56 Cr   -1.78576   -0.81818    0.17751
 57 Co   -0.70982    1.03439   -0.11842
 58 Cr   -0.46972   -1.40652    0.80579
 59 Fe    0.28897    0.65597   -0.44829
[...]
 93 Ni    1.00244    0.20065   -1.92365
 94 Cr    0.28053   -1.36794    0.68626
 95 Cr    0.14045    0.76065    0.35925
 96 Co    1.55044   -1.10612   -0.00572
 97 Ni    0.20570    0.11657   -0.02834
 98 Ni    0.58855    0.43234    0.41459
 99 Co    1.26893   -0.23760   -0.21708
100 Co   -0.32153    0.36631   -0.55987
101 Ni   -0.35977   -0.67294    0.41188
102 Fe   -0.39720   -0.55278    0.40761
103 Co    2.07309    0.05465   -0.33632
104 Co    0.25449   -0.40494    1.01159
105 Ni   -0.75691   -0.19929   -0.04105
106 Fe    0.93164   -0.01923    0.40661
107 Fe    0.77532    0.65233   -0.99146

Date: Fri Apr 14 00:46:47 2023