User:   c.zeng@d0100
Date:   Thu Apr 13 20:03:06 2023
Arch:   x86_64
Pid:    272127
CWD:    /home/c.zeng/projects/hea-corrosion/hea-mlp/data-curation/bulk-md/dft-jobs/28
Python: 3.8.1
gpaw:   /home/c.zeng/usr/installs/gpaw/source/gpaw-22.8.0/gpaw
_gpaw:  /home/c.zeng/usr/installs/gpaw/source/gpaw-22.8.0/
        _gpaw.cpython-38-x86_64-linux-gnu.so
ase:    /home/c.zeng/.local/lib/python3.8/site-packages/ase-3.22.1-py3.8.egg/ase (version 3.22.1)
numpy:  /shared/centos7/python/3.8.1/lib/python3.8/site-packages/numpy (version 1.17.4)
scipy:  /shared/centos7/python/3.8.1/lib/python3.8/site-packages/scipy (version 1.4.1)
units:  Angstrom and eV
cores: 30
OpenMP: False
OMP_NUM_THREADS: 1

Input parameters:
  convergence: {energy: 0.0001}
  kpts: [2 2 2]
  maxiter: 666
  mode: {ecut: 350.0,
         name: pw}
  occupations: {fixmagmom: False,
                name: fermi-dirac,
                width: 0.1}
  spinpol: True
  xc: PBE

System changes: positions, numbers, cell, pbc, initial_charges, initial_magmoms

Initialize ...

species:
  Cr:
    name: Chromium
    id: 33f258bda2ca9f93018e70263a35547b
    Z: 24.0
    valence: 6
    core: 18
    charge: 0.0
    file: /home/c.zeng/usr/data/gpaw-setups-0.9.20000/Cr.PBE.gz
    compensation charges: {type: gauss,
                           rc: 0.35,
                           lmax: 2}
    cutoffs: {filter: 2.14,
              core: 3.04}
    valence states:
      #              energy  rcut
      - 4s(1.00)    -4.007   1.164
      - 4p(0.00)    -0.989   1.217
      - 3d(5.00)    -2.913   1.111
      -  s          23.205   1.164
      -  p          26.223   1.217
      -  d          24.299   1.111

    # Using partial waves for Cr as LCAO basis

  Al:
    name: Aluminium
    id: 0292cae29f5d6237e50f6abdd43a7bdd
    Z: 13.0
    valence: 3
    core: 10
    charge: 0.0
    file: /home/c.zeng/usr/data/gpaw-setups-0.9.20000/Al.PBE.gz
    compensation charges: {type: gauss,
                           rc: 0.34,
                           lmax: 2}
    cutoffs: {filter: 1.91,
              core: 2.36}
    valence states:
      #              energy  rcut
      - 3s(2.00)    -7.753   1.085
      - 3p(1.00)    -2.712   1.085
      -  s          19.459   1.085
      -  p          24.499   1.085
      -  d           0.000   1.085

[...]

  Co:
    name: Cobalt
    id: 339d20d5b0b93d2de9531a1bee871d91
    Z: 27.0
    valence: 9
    core: 18
    charge: 0.0
    file: /home/c.zeng/usr/data/gpaw-setups-0.9.20000/Co.PBE.gz
    compensation charges: {type: gauss,
                           rc: 0.32,
                           lmax: 2}
    cutoffs: {filter: 1.87,
              core: 2.55}
    valence states:
      #              energy  rcut
      - 4s(2.00)    -5.469   1.005
      - 4p(0.00)    -1.277   1.058
      - 3d(7.00)    -8.205   1.005
      -  s          21.742   1.005
      -  p          25.934   1.058
      -  d          19.007   1.005

[...]

  Fe:
    name: Iron
    id: 37abbd8d6c3c35915a9b583b742da910
    Z: 26.0
    valence: 8
    core: 18
    charge: 0.0
    file: /home/c.zeng/usr/data/gpaw-setups-0.9.20000/Fe.PBE.gz
    compensation charges: {type: gauss,
                           rc: 0.33,
                           lmax: 2}
    cutoffs: {filter: 2.06,
              core: 2.67}
    valence states:
      #              energy  rcut
      - 4s(2.00)    -5.291   1.164
      - 4p(0.00)    -1.326   1.058
      - 3d(6.00)    -7.505   1.058
      -  s          21.920   1.164
      -  p          25.885   1.058
      -  d          19.706   1.058

[...]

  Ni:
    name: Nickel
    id: 0d9f38a9d6e76a2886f07bb4381f212b
    Z: 28.0
    valence: 16
    core: 12
    charge: 0.0
    file: /home/c.zeng/usr/data/gpaw-setups-0.9.20000/Ni.PBE.gz
    compensation charges: {type: gauss,
                           rc: 0.36,
                           lmax: 2}
    cutoffs: {filter: 2.14,
              core: 1.98}
    valence states:
      #              energy  rcut
      - 4s(2.00)    -5.642   1.164
      - 3p(6.00)   -71.394   1.207
      - 4p(0.00)    -1.226   1.207
      - 3d(8.00)    -8.875   1.138
      -  s          21.570   1.164
      -  d          18.337   1.138

    # Using partial waves for Ni as LCAO basis

Reference energy: -3699400.456887  # eV

Spin-polarized calculation.
Magnetic moment: 143.500000

Convergence criteria:
 Maximum [total energy] change in last 3 cyles: 0.0001 eV / electron
 Maximum integral of absolute [dens]ity change: 0.0001 electrons / valence electron
 Maximum integral of absolute [eigenst]ate change: 4e-08 eV^2 / valence electron
 Maximum number of scf [iter]ations: 666
 (Square brackets indicate name in SCF output, whereas a 'c' in
 the SCF output indicates the quantity has converged.)

Symmetries present (total): 1

  ( 1  0  0)
  ( 0  1  0)
  ( 0  0  1)

8 k-points: 2 x 2 x 2 Monkhorst-Pack grid
4 k-points in the irreducible part of the Brillouin zone
       k-points in crystal coordinates                weights
   0:     0.25000000   -0.25000000   -0.25000000          2/8
   1:     0.25000000   -0.25000000    0.25000000          2/8
   2:     0.25000000    0.25000000   -0.25000000          2/8
   3:     0.25000000    0.25000000    0.25000000          2/8

Wave functions: Plane wave expansion
  Cutoff energy: 350.000 eV
  Number of coefficients (min, max): 18052, 18052
  Pulay-stress correction: 0.000000 eV/Ang^3 (de/decut=0.000000)
  Using FFTW library
  ScaLapack parameters: grid=1x1, blocksize=None
  Wavefunction extrapolation:
    Improved wavefunction reuse through dual PAW basis

Occupation numbers: Fermi-Dirac:
  width: 0.1000  # eV

Eigensolver
   Davidson(niter=2)

Densities:
  Coarse grid: 48*48*48 grid
  Fine grid: 96*96*96 grid
  Total Charge: 0.000000

Density mixing:
  Method: difference
  Backend: pulay
  Linear mixing parameter: 0.05
  old densities: 5
  Damping of long wavelength oscillations: 50

Hamiltonian:
  XC and Coulomb potentials evaluated on a 96*96*96 grid
  Using the PBE Exchange-Correlation functional
  External potential:
    NoExternalPotential

XC parameters: PBE with 2 nearest neighbor stencil

Total number of cores used: 30
Parallelization over k-points: 2
Domain decomposition: 5 x 3 x 1

Number of atoms: 108
Number of atomic orbitals: 1025
Number of bands in calculation: 703
Number of valence electrons: 1020
Bands to converge: occupied

... initialized

Initializing position-dependent things.

Density initialized from atomic densities
Creating initial wave functions:
  703 bands from LCAO basis set

       /|                    Cr   |
      / |                     CCr |
     /  |   FeCoCr      FeCr     Ni
    /   |Fe        Cr             |
   /    | NiFe       Fei   Cr     |
  /   Co|  FeCo     Cr       NNi  |
 *      CFe CrNiNi    Co Co    Fe |
 |Fe   NiCoCr  Co NiCo  AlCr      |
 | Ni   FeFeCoAlCoNi Ni  FeNi     |
 |    Cr|  NiCo Co Fe FeCr  FeFe  |
 |    CNi Cr CCoFeCrNiNi NiCr     |
 |     NiNiNi  Co CCo   CrFeCo    |
 |  Fe  CrFeCr----CoCo-Fe--Cr-----.
 |   CoFe  NiNi    Cr Ni         /
 |    /Fe      Al      ANio     /
 |Al /           Cro           /
 |  Co     Cr       Co        /
 | /                   Ni    /
 |/            Fe        Fe /
 *-----------------Cr------*

Positions:
   0 Cr     0.042281   -0.092539   10.747794    ( 0.0000,  0.0000,  0.0000)
   1 Al    10.746358    1.750348    1.940026    ( 0.0000,  0.0000,  0.0000)
   2 Cr     1.890836   10.631097    1.921741    ( 0.0000,  0.0000,  0.0000)
   3 Co     1.646440    2.061968   10.583653    ( 0.0000,  0.0000,  2.1000)
   4 Fe     3.222230    0.134650   -0.059325    ( 0.0000,  0.0000,  2.0000)
   5 Cr     3.442653    1.834868    1.699807    ( 0.0000,  0.0000,  0.0000)
   6 Ni     5.120871   10.661350    1.542390    ( 0.0000,  0.0000,  1.5000)
   7 Fe     5.215788    1.792909    0.097017    ( 0.0000,  0.0000,  2.0000)
   8 Cr     7.185137    0.141414    0.076912    ( 0.0000,  0.0000,  0.0000)
   9 Co     7.340962    2.044356    1.769146    ( 0.0000,  0.0000,  2.1000)
  10 Ni     9.136746   10.674342    1.866444    ( 0.0000,  0.0000,  1.5000)
  11 Fe     9.197737    1.755757   10.888961    ( 0.0000,  0.0000,  2.0000)
  12 Co     0.020919    3.810444   10.754190    ( 0.0000,  0.0000,  2.1000)
  13 Co     0.022791    5.453147    2.187069    ( 0.0000,  0.0000,  2.1000)
  14 Fe     1.622767    3.577875    1.893444    ( 0.0000,  0.0000,  2.0000)
  15 Fe     1.643449    5.406879   -0.085234    ( 0.0000,  0.0000,  2.0000)
  16 Fe     3.496471    3.646284   -0.086224    ( 0.0000,  0.0000,  2.0000)
  17 Fe     3.491988    5.171856    1.861389    ( 0.0000,  0.0000,  2.0000)
  18 Cr     5.496194    3.494059    1.743569    ( 0.0000,  0.0000,  0.0000)
  19 Co     5.354640    5.287518    0.062046    ( 0.0000,  0.0000,  2.1000)
  20 Fe     7.323679    3.440192   10.575469    ( 0.0000,  0.0000,  2.0000)
  21 Ni     7.025549    5.379668    1.739586    ( 0.0000,  0.0000,  1.5000)
  22 Co     8.914691    3.851748    1.898223    ( 0.0000,  0.0000,  2.1000)
  23 Cr     8.679200    5.365991   -0.015795    ( 0.0000,  0.0000,  0.0000)
  24 Cr    -0.240658    7.167807   -0.146262    ( 0.0000,  0.0000,  0.0000)
  25 Ni     0.101556    8.731789    1.735582    ( 0.0000,  0.0000,  1.5000)
  26 Fe     1.812478    7.002415    1.734772    ( 0.0000,  0.0000,  2.0000)
  27 Ni     1.757640    8.787806   10.782633    ( 0.0000,  0.0000,  1.5000)
  28 Co     3.555519    7.081856   -0.140243    ( 0.0000,  0.0000,  2.1000)
  29 Co     3.446563    8.775919    1.841167    ( 0.0000,  0.0000,  2.1000)
  30 Co     5.034122    7.003314    1.659829    ( 0.0000,  0.0000,  2.1000)
  31 Cr     5.169646    8.821575    0.115486    ( 0.0000,  0.0000,  0.0000)
  32 Al     7.069692    7.040662   11.035889    ( 0.0000,  0.0000,  0.0000)
  33 Cr     7.035009    9.028593    1.554653    ( 0.0000,  0.0000,  0.0000)
  34 Cr     8.695899    7.245519    1.778781    ( 0.0000,  0.0000,  0.0000)
  35 Cr     8.897614    9.054089   10.534562    ( 0.0000,  0.0000,  0.0000)
  36 Fe    10.678103   10.583641    3.625320    ( 0.0000,  0.0000,  2.0000)
  37 Co    10.528441    1.828353    5.198056    ( 0.0000,  0.0000,  2.1000)
  38 Cr     1.725556   10.388562    5.078016    ( 0.0000,  0.0000,  0.0000)
  39 Fe     1.841982    1.725052    3.679008    ( 0.0000,  0.0000,  2.0000)
  40 Co     3.439010   10.655783    3.574293    ( 0.0000,  0.0000,  2.1000)
  41 Ni     3.607155    1.887500    5.175977    ( 0.0000,  0.0000,  1.5000)
  42 Ni     5.106693    0.038785    5.205417    ( 0.0000,  0.0000,  1.5000)
  43 Al     5.369962    1.648868    3.421874    ( 0.0000,  0.0000,  0.0000)
  44 Fe     7.077992   10.661075    3.341405    ( 0.0000,  0.0000,  2.0000)
  45 Co     6.785425    1.858473    5.266002    ( 0.0000,  0.0000,  2.1000)
  46 Fe     8.881385   10.889399    5.308706    ( 0.0000,  0.0000,  2.0000)
  47 Ni     8.911157    1.593100    3.520631    ( 0.0000,  0.0000,  1.5000)
  48 Fe     0.075020    3.615759    3.560881    ( 0.0000,  0.0000,  2.0000)
  49 Fe    10.598179    5.411443    5.381596    ( 0.0000,  0.0000,  2.0000)
  50 Ni     1.649549    3.476785    5.350372    ( 0.0000,  0.0000,  1.5000)
  51 Ni     1.699287    5.124934    3.719591    ( 0.0000,  0.0000,  1.5000)
  52 Cr     3.497105    3.571503    3.649254    ( 0.0000,  0.0000,  0.0000)
  53 Co     3.461549    5.136835    5.438609    ( 0.0000,  0.0000,  2.1000)
  54 Fe     5.335560    3.600620    5.462240    ( 0.0000,  0.0000,  2.0000)
  55 Cr     5.307643    5.556483    3.457324    ( 0.0000,  0.0000,  0.0000)
  56 Co     6.943524    3.778962    3.641888    ( 0.0000,  0.0000,  2.1000)
  57 Fe     7.115099    5.337458    5.233272    ( 0.0000,  0.0000,  2.0000)
  58 Ni     8.859124    3.487876    5.205029    ( 0.0000,  0.0000,  1.5000)
  59 Fe     8.985668    5.388293    3.793201    ( 0.0000,  0.0000,  2.0000)
[...]
  93 Ni     7.220045    5.572406    8.983541    ( 0.0000,  0.0000,  1.5000)
  94 Co     8.937988    3.553750    8.934915    ( 0.0000,  0.0000,  2.1000)
  95 Cr     8.759190    5.206953    6.991320    ( 0.0000,  0.0000,  0.0000)
  96 Fe    -0.053383    7.022455    7.257596    ( 0.0000,  0.0000,  2.0000)
  97 Ni    -0.014788    8.867840    8.882138    ( 0.0000,  0.0000,  1.5000)
  98 Ni     1.725119    7.178545    8.822156    ( 0.0000,  0.0000,  1.5000)
  99 Fe     1.865240    8.665612    7.140942    ( 0.0000,  0.0000,  2.0000)
 100 Ni     3.549531    6.949322    7.152093    ( 0.0000,  0.0000,  1.5000)
 101 Cr     3.550708    8.944314    8.918843    ( 0.0000,  0.0000,  0.0000)
 102 Cr     5.527140    7.034783    9.046045    ( 0.0000,  0.0000,  0.0000)
 103 Cr     5.316662    8.941032    6.902040    ( 0.0000,  0.0000,  0.0000)
 104 Co     6.812282    7.172311    6.988408    ( 0.0000,  0.0000,  2.1000)
 105 Fe     7.004463    9.012833    8.903215    ( 0.0000,  0.0000,  2.0000)
 106 Cr     8.796626    7.348828    8.580541    ( 0.0000,  0.0000,  0.0000)
 107 Ni     8.997292    8.856439    6.995582    ( 0.0000,  0.0000,  1.5000)

Unit cell:
           periodic     x           y           z      points  spacing
  1. axis:    yes   10.671700    0.000000    0.000000    48     0.2223
  2. axis:    yes    0.000000   10.671700    0.000000    48     0.2223
  3. axis:    yes    0.000000    0.000000   10.671700    48     0.2223

  Lengths:  10.671700  10.671700  10.671700
  Angles:   90.000000  90.000000  90.000000

Effective grid spacing dv^(1/3) = 0.2223

     iter     time        total  log10-change:  magmom
                         energy  eigst   dens
iter:   1 20:06:54 -1045.387799                  +143.7778
iter:   2 20:08:21  -928.217461  -0.22  -1.19    +80.5726
iter:   3 20:09:48  -910.672138  -0.86  -1.21    +67.7310
iter:   4 20:11:15  -885.168094  -1.29  -1.28    +63.4624
iter:   5 20:12:42  -870.965440  -1.58  -1.32    +59.9116
iter:   6 20:14:09  -871.055791  -1.29  -1.39    +60.0464
iter:   7 20:15:36  -874.968042  -1.23  -1.47    +59.3248
iter:   8 20:17:03  -856.341593  -1.70  -1.52    +58.0257
iter:   9 20:18:30  -854.283257  -2.08  -1.73    +58.8428
iter:  10 20:19:57  -854.743474  -2.49  -1.82    +59.5528
iter:  11 20:21:24  -854.901194  -2.53  -1.83    +60.6011
iter:  12 20:22:51  -856.059354  -2.52  -1.87    +61.6429
iter:  13 20:24:18  -856.899580  -2.41  -1.89    +62.0702
iter:  14 20:25:45  -855.646951  -2.31  -1.90    +62.6207
iter:  15 20:27:12  -855.875444  -2.64  -2.05    +63.1063
iter:  16 20:28:39  -855.008013  -2.90  -2.07    +63.5232
iter:  17 20:30:07  -855.086671  -3.26  -2.22    +64.0415
iter:  18 20:31:34  -855.486894  -3.13  -2.28    +64.6510
iter:  19 20:33:02  -855.239331  -3.14  -2.25    +64.7360
iter:  20 20:34:30  -855.244925  -3.40  -2.37    +65.0732
iter:  21 20:35:58  -855.212614c -3.47  -2.42    +65.2721
iter:  22 20:37:25  -855.222842c -3.61  -2.49    +65.4598
iter:  23 20:38:53  -855.262533c -3.55  -2.54    +65.6448
iter:  24 20:40:21  -855.289615c -3.67  -2.58    +65.7716
iter:  25 20:41:49  -855.293738c -3.82  -2.60    +65.8746
iter:  26 20:43:17  -855.326071c -3.89  -2.65    +65.9488
iter:  27 20:44:46  -855.329849c -4.03  -2.67    +65.9887
iter:  28 20:46:14  -855.346505c -4.09  -2.71    +66.1108
iter:  29 20:47:42  -855.358266c -4.20  -2.73    +66.1002
iter:  30 20:49:10  -855.367010c -4.34  -2.77    +66.1523
iter:  31 20:50:38  -855.402905c -4.34  -2.82    +66.1801
iter:  32 20:52:06  -855.404755c -4.42  -2.82    +66.2013
iter:  33 20:53:34  -855.418560c -4.52  -2.87    +66.2121
iter:  34 20:55:02  -855.437664c -4.46  -2.92    +66.2779
iter:  35 20:56:30  -855.445697c -4.66  -2.95    +66.2441
iter:  36 20:57:58  -855.457770c -4.59  -2.98    +66.2722
iter:  37 20:59:26  -855.475610c -4.56  -3.03    +66.2557
iter:  38 21:00:54  -855.474613c -4.72  -3.03    +66.2458
iter:  39 21:02:22  -855.483431c -4.79  -3.10    +66.2369
iter:  40 21:03:50  -855.494054c -4.74  -3.13    +66.2681
iter:  41 21:05:18  -855.498331c -4.87  -3.16    +66.2377
iter:  42 21:06:46  -855.503133c -4.94  -3.19    +66.2467
iter:  43 21:08:14  -855.511291c -4.88  -3.24    +66.2330
iter:  44 21:09:42  -855.509081c -5.10  -3.22    +66.2364
iter:  45 21:11:10  -855.513707c -5.20  -3.30    +66.2360
iter:  46 21:12:38  -855.514939c -5.15  -3.30    +66.2448
iter:  47 21:14:07  -855.515701c -5.34  -3.35    +66.2312
iter:  48 21:15:35  -855.516747c -5.47  -3.37    +66.2440
iter:  49 21:17:03  -855.518843c -5.44  -3.44    +66.2401
iter:  50 21:18:31  -855.520041c -5.54  -3.45    +66.2452
iter:  51 21:19:59  -855.520870c -5.59  -3.48    +66.2510
iter:  52 21:21:27  -855.521551c -5.69  -3.51    +66.2576
iter:  53 21:22:55  -855.522336c -5.88  -3.55    +66.2559
iter:  54 21:24:23  -855.523358c -5.88  -3.57    +66.2687
iter:  55 21:25:52  -855.524658c -5.72  -3.61    +66.2719
iter:  56 21:27:20  -855.525090c -5.78  -3.62    +66.2732
iter:  57 21:28:48  -855.525589c -5.99  -3.66    +66.2796
iter:  58 21:30:16  -855.526573c -5.98  -3.72    +66.2902
iter:  59 21:31:44  -855.527333c -6.03  -3.74    +66.2958
iter:  60 21:33:12  -855.527944c -6.12  -3.77    +66.3046
iter:  61 21:34:40  -855.528351c -6.04  -3.82    +66.3098
iter:  62 21:36:09  -855.528904c -6.29  -3.86    +66.3147
iter:  63 21:37:37  -855.529494c -6.27  -3.90    +66.3243
iter:  64 21:39:05  -855.530144c -6.28  -3.93    +66.3300
iter:  65 21:40:33  -855.530863c -6.19  -3.96    +66.3404
iter:  66 21:42:01  -855.531081c -6.50  -3.95    +66.3440
iter:  67 21:43:29  -855.531489c -6.44  -4.02c   +66.3482
iter:  68 21:44:57  -855.531881c -6.51  -4.02c   +66.3547
iter:  69 21:46:25  -855.532148c -6.65  -4.07c   +66.3602
iter:  70 21:47:53  -855.532715c -6.41  -4.10c   +66.3671
iter:  71 21:49:22  -855.533097c -6.46  -4.11c   +66.3782
iter:  72 21:50:49  -855.533478c -6.61  -4.12c   +66.3864
iter:  73 21:52:18  -855.533943c -6.46  -4.15c   +66.3969
iter:  74 21:53:46  -855.535541c -5.62  -4.16c   +66.4385
iter:  75 21:55:14  -855.538144c -5.14  -4.11c   +66.5156
iter:  76 21:56:42  -855.540226c -5.09  -3.94    +66.6036
iter:  77 21:58:10  -855.541723c -5.18  -3.83    +66.6850
iter:  78 21:59:38  -855.541539c -6.09  -3.76    +66.6817
iter:  79 22:01:06  -855.541685c -6.35  -3.77    +66.6926
iter:  80 22:02:34  -855.541604c -6.62  -3.77    +66.6991
iter:  81 22:04:02  -855.542652c -6.15  -3.77    +66.7032
iter:  82 22:05:30  -855.541269c -5.38  -3.66    +66.7048
iter:  83 22:06:57  -855.540946c -6.02  -3.62    +66.7031
iter:  84 22:08:25  -855.540364c -6.43  -3.83    +66.6943
iter:  85 22:09:53  -855.540875c -6.25  -3.83    +66.6847
iter:  86 22:11:22  -855.540117c -6.08  -3.81    +66.6721
iter:  87 22:12:50  -855.540250c -6.12  -3.79    +66.6586
iter:  88 22:14:18  -855.540113c -6.10  -3.93    +66.6572
iter:  89 22:15:45  -855.539569c -6.30  -3.95    +66.6582
iter:  90 22:17:14  -855.540006c -6.50  -3.92    +66.6535
iter:  91 22:18:41  -855.539571c -6.71  -4.00c   +66.6469
iter:  92 22:20:10  -855.539575c -6.82  -4.07c   +66.6456
iter:  93 22:21:37  -855.539273c -6.78  -4.10c   +66.6431
iter:  94 22:23:05  -855.539447c -6.84  -4.09c   +66.6395
iter:  95 22:24:33  -855.539388c -6.95  -4.15c   +66.6374
iter:  96 22:26:01  -855.539015c -6.97  -4.17c   +66.6359
iter:  97 22:27:29  -855.539230c -7.05  -4.26c   +66.6319
iter:  98 22:28:57  -855.539037c -7.00  -4.29c   +66.6303
iter:  99 22:30:25  -855.539028c -7.19  -4.28c   +66.6289
iter: 100 22:31:53  -855.538890c -7.21  -4.37c   +66.6256
iter: 101 22:33:21  -855.538917c -7.25  -4.47c   +66.6232
iter: 102 22:34:49  -855.538919c -7.45c -4.42c   +66.6234

Converged after 102 iterations.

Dipole moment: (3.500300, -18.250492, -5.315167) |e|*Ang

Total magnetic moment: (0.000000, 0.000000, 66.623397)
Local magnetic moments:
   0 Cr ( 0.000000,  0.000000, -1.433946)
   1 Al ( 0.000000,  0.000000, -0.036391)
   2 Cr ( 0.000000,  0.000000, -0.378444)
   3 Co ( 0.000000,  0.000000,  1.187170)
   4 Fe ( 0.000000,  0.000000,  1.450055)
   5 Cr ( 0.000000,  0.000000, -0.832539)
   6 Ni ( 0.000000,  0.000000,  0.201594)
   7 Fe ( 0.000000,  0.000000,  1.674587)
   8 Cr ( 0.000000,  0.000000, -0.338514)
   9 Co ( 0.000000,  0.000000,  1.078273)
  10 Ni ( 0.000000,  0.000000,  0.228458)
  11 Fe ( 0.000000,  0.000000,  2.198561)
  12 Co ( 0.000000,  0.000000,  1.488926)
  13 Co ( 0.000000,  0.000000,  0.961666)
  14 Fe ( 0.000000,  0.000000,  1.890964)
  15 Fe ( 0.000000,  0.000000,  2.555450)
  16 Fe ( 0.000000,  0.000000,  2.343635)
  17 Fe ( 0.000000,  0.000000,  1.781129)
  18 Cr ( 0.000000,  0.000000, -1.387568)
  19 Co ( 0.000000,  0.000000,  1.164436)
  20 Fe ( 0.000000,  0.000000,  2.265845)
  21 Ni ( 0.000000,  0.000000,  0.162805)
  22 Co ( 0.000000,  0.000000,  1.389621)
  23 Cr ( 0.000000,  0.000000, -1.295831)
  24 Cr ( 0.000000,  0.000000,  1.072130)
  25 Ni ( 0.000000,  0.000000,  0.210657)
  26 Fe ( 0.000000,  0.000000,  2.308682)
  27 Ni ( 0.000000,  0.000000,  0.189092)
  28 Co ( 0.000000,  0.000000,  1.129237)
  29 Co ( 0.000000,  0.000000,  1.051291)
  30 Co ( 0.000000,  0.000000,  0.914122)
  31 Cr ( 0.000000,  0.000000,  0.972735)
  32 Al ( 0.000000,  0.000000, -0.001484)
  33 Cr ( 0.000000,  0.000000, -0.975146)
  34 Cr ( 0.000000,  0.000000,  0.823447)
  35 Cr ( 0.000000,  0.000000,  0.486348)
  36 Fe ( 0.000000,  0.000000,  1.894183)
  37 Co ( 0.000000,  0.000000,  0.717864)
  38 Cr ( 0.000000,  0.000000, -1.524352)
  39 Fe ( 0.000000,  0.000000,  1.810212)
  40 Co ( 0.000000,  0.000000,  0.490356)
  41 Ni ( 0.000000,  0.000000,  0.195945)
  42 Ni ( 0.000000,  0.000000,  0.251081)
  43 Al ( 0.000000,  0.000000, -0.018841)
  44 Fe ( 0.000000,  0.000000,  2.277823)
  45 Co ( 0.000000,  0.000000,  1.224454)
  46 Fe ( 0.000000,  0.000000,  1.852951)
  47 Ni ( 0.000000,  0.000000,  0.409837)
  48 Fe ( 0.000000,  0.000000,  1.828186)
  49 Fe ( 0.000000,  0.000000,  2.077938)
  50 Ni ( 0.000000,  0.000000,  0.387198)
  51 Ni ( 0.000000,  0.000000,  0.374139)
  52 Cr ( 0.000000,  0.000000, -1.342443)
  53 Co ( 0.000000,  0.000000,  1.374149)
  54 Fe ( 0.000000,  0.000000,  2.323683)
  55 Cr ( 0.000000,  0.000000, -1.171671)
  56 Co ( 0.000000,  0.000000,  1.110575)
  57 Fe ( 0.000000,  0.000000,  2.073125)
  58 Ni ( 0.000000,  0.000000,  0.250237)
  59 Fe ( 0.000000,  0.000000,  1.887051)
[...]
  93 Ni ( 0.000000,  0.000000, -0.092567)
  94 Co ( 0.000000,  0.000000,  1.075178)
  95 Cr ( 0.000000,  0.000000, -1.960839)
  96 Fe ( 0.000000,  0.000000,  2.037786)
  97 Ni ( 0.000000,  0.000000,  0.193524)
  98 Ni ( 0.000000,  0.000000,  0.462133)
  99 Fe ( 0.000000,  0.000000,  2.052759)
 100 Ni ( 0.000000,  0.000000,  0.460397)
 101 Cr ( 0.000000,  0.000000, -1.686822)
 102 Cr ( 0.000000,  0.000000, -1.596808)
 103 Cr ( 0.000000,  0.000000,  1.381959)
 104 Co ( 0.000000,  0.000000,  0.587899)
 105 Fe ( 0.000000,  0.000000,  1.740297)
 106 Cr ( 0.000000,  0.000000, -1.249347)
 107 Ni ( 0.000000,  0.000000,  0.081366)

Energy contributions relative to reference atoms: (reference = -3699400.456887)

Kinetic:       +381.788197
Potential:     -384.098324
External:        +0.000000
XC:            -888.605489
Entropy (-ST):   -4.423856
Local:          +37.588626
Free energy:   -857.750847
Extrapolated:  -855.538919

Spin contamination: 27.697707 electrons
Showing only first 2 kpts
                      Up                     Down
 Kpt  Band  Eigenvalues  Occupancy  Eigenvalues  Occupancy
  0   508      9.66046    0.99541     10.58625    0.02024
  0   509      9.66790    0.99505     10.60124    0.01747
  0   510      9.67961    0.99444     10.61060    0.01594
  0   511      9.69284    0.99366     10.61667    0.01501

  1   508      9.65962    0.99544     10.58890    0.01972
  1   509      9.67047    0.99492     10.60194    0.01735
  1   510      9.68709    0.99401     10.61783    0.01484
  1   511      9.69026    0.99382     10.63169    0.01295

Fermi level: 10.19829

No gap

Forces in eV/Ang:
  0 Cr    0.62581    0.10861   -1.31278
  1 Al    0.39441    0.63908    0.14241
  2 Cr   -0.18848   -0.53724   -0.77636
  3 Co    0.64904   -1.22099    0.95947
  4 Fe    0.40605   -0.37506    0.51937
  5 Cr   -0.66839    0.32675   -0.06182
  6 Ni    0.19517    0.16830    1.03689
  7 Fe    0.63225    1.14271    0.27855
  8 Cr    0.54168   -0.35168    0.95691
  9 Co   -0.55768   -1.44370    0.26008
 10 Ni   -1.55689   -1.36720   -0.90934
 11 Fe   -1.17901    0.40058   -1.65625
 12 Co   -1.08555   -0.08974   -0.09105
 13 Co   -0.68288   -0.00669   -3.14841
 14 Fe    1.43004    0.49440   -1.19824
 15 Fe    0.72397   -0.03405    0.05731
 16 Fe   -0.00983    0.03662    0.23934
 17 Fe   -0.00898   -0.16831   -0.47101
 18 Cr   -1.07632    0.55343   -0.47582
 19 Co   -0.90445   -0.69903   -0.85371
 20 Fe   -1.25027    1.10329    0.48370
 21 Ni    0.32496   -1.30848    2.19895
 22 Co   -0.04354   -0.78556   -0.00191
 23 Cr    3.61069   -0.55832    0.38751
 24 Cr   -0.21647   -0.81002    0.45666
 25 Ni   -1.24573    0.29937    0.53036
 26 Fe    0.08064   -0.53644    0.18905
 27 Ni    0.32228    0.26911   -1.29695
 28 Co   -0.37814   -0.86448   -0.08671
 29 Co    0.11871    0.49391   -0.52093
 30 Co    0.55008    0.21898    1.06883
 31 Cr    0.24410    0.76881   -0.77066
 32 Al   -2.21685    1.37965   -4.22568
 33 Cr    0.23217    0.60710    1.68557
 34 Cr    3.03001    0.07464    2.19659
 35 Cr    0.18013   -0.15353    0.85370
 36 Fe    0.37283   -0.87193    0.51835
 37 Co    1.69014   -0.25095    0.36429
 38 Cr    0.76218    1.97319    1.82030
 39 Fe   -0.52570    0.33321   -0.29334
 40 Co    0.19298   -0.47254   -0.67175
 41 Ni   -0.24842   -0.80688    0.99621
 42 Ni    1.69866   -0.52639    0.76311
 43 Al   -0.69232    0.48880   -0.28607
 44 Fe    0.47405   -0.47113    0.20216
 45 Co    2.36171   -0.39966   -0.22635
 46 Fe   -0.89155   -1.48541    0.59357
 47 Ni   -0.77116    2.13839   -0.12598
 48 Fe   -1.90280   -1.22239    0.93524
 49 Fe    0.58766   -0.73364    1.19997
 50 Ni    0.79964    0.04655    0.66484
 51 Ni    1.72182    2.21453   -0.03185
 52 Cr    0.33214    0.40825   -0.97578
 53 Co    0.83426    0.45859   -0.94175
 54 Fe   -0.47469   -0.00908   -0.59981
 55 Cr   -0.22203   -1.56415    0.24031
 56 Co    0.45351   -1.25758   -0.85411
 57 Fe   -0.54867    0.82768    0.91383
 58 Ni   -0.50005    0.02222    0.00875
 59 Fe   -1.53090    0.46718   -1.48937
[...]
 93 Ni   -0.17788   -1.50212   -0.95267
 94 Co    0.21015   -0.23274   -0.24925
 95 Cr    0.41567    0.30397    0.57786
 96 Fe    0.02731    0.14169   -1.15412
 97 Ni    0.82968    0.75530   -0.47108
 98 Ni    0.49394   -1.41585    1.21914
 99 Fe    0.39631    1.87455   -0.57028
100 Ni    1.29263    1.34659    0.50485
101 Cr    0.36139   -0.60234   -0.72576
102 Cr   -1.56990    0.97526   -1.16710
103 Cr   -1.91708    0.06657    1.91155
104 Co    0.97154   -0.18729    1.26259
105 Fe    0.34060   -0.34826   -0.29663
106 Cr   -0.67843   -1.45863    1.75008
107 Ni   -0.70397    1.92233   -0.17522

Date: Thu Apr 13 22:35:09 2023