User:   c.zeng@d0114
Date:   Sat Apr 15 02:51:20 2023
Arch:   x86_64
Pid:    254596
CWD:    /home/c.zeng/projects/hea-corrosion/hea-mlp/data-curation/bulk-mcmc/dft-jobs/204
Python: 3.8.1
gpaw:   /home/c.zeng/usr/installs/gpaw/source/gpaw-22.8.0/gpaw
_gpaw:  /home/c.zeng/usr/installs/gpaw/source/gpaw-22.8.0/
        _gpaw.cpython-38-x86_64-linux-gnu.so
ase:    /home/c.zeng/.local/lib/python3.8/site-packages/ase-3.22.1-py3.8.egg/ase (version 3.22.1)
numpy:  /shared/centos7/python/3.8.1/lib/python3.8/site-packages/numpy (version 1.17.4)
scipy:  /shared/centos7/python/3.8.1/lib/python3.8/site-packages/scipy (version 1.4.1)
units:  Angstrom and eV
cores: 30
OpenMP: False
OMP_NUM_THREADS: 1

Input parameters:
  convergence: {energy: 0.0001}
  kpts: [2 2 2]
  maxiter: 666
  mode: {ecut: 350.0,
         name: pw}
  occupations: {fixmagmom: False,
                name: fermi-dirac,
                width: 0.1}
  spinpol: True
  xc: PBE

System changes: positions, numbers, cell, pbc, initial_charges, initial_magmoms

Initialize ...

species:
  Ni:
    name: Nickel
    id: 0d9f38a9d6e76a2886f07bb4381f212b
    Z: 28.0
    valence: 16
    core: 12
    charge: 0.0
    file: /home/c.zeng/usr/data/gpaw-setups-0.9.20000/Ni.PBE.gz
    compensation charges: {type: gauss,
                           rc: 0.36,
                           lmax: 2}
    cutoffs: {filter: 2.14,
              core: 1.98}
    valence states:
      #              energy  rcut
      - 4s(2.00)    -5.642   1.164
      - 3p(6.00)   -71.394   1.207
      - 4p(0.00)    -1.226   1.207
      - 3d(8.00)    -8.875   1.138
      -  s          21.570   1.164
      -  d          18.337   1.138

    # Using partial waves for Ni as LCAO basis

  Al:
    name: Aluminium
    id: 0292cae29f5d6237e50f6abdd43a7bdd
    Z: 13.0
    valence: 3
    core: 10
    charge: 0.0
    file: /home/c.zeng/usr/data/gpaw-setups-0.9.20000/Al.PBE.gz
    compensation charges: {type: gauss,
                           rc: 0.34,
                           lmax: 2}
    cutoffs: {filter: 1.91,
              core: 2.36}
    valence states:
      #              energy  rcut
      - 3s(2.00)    -7.753   1.085
      - 3p(1.00)    -2.712   1.085
      -  s          19.459   1.085
      -  p          24.499   1.085
      -  d           0.000   1.085

[...]

  Co:
    name: Cobalt
    id: 339d20d5b0b93d2de9531a1bee871d91
    Z: 27.0
    valence: 9
    core: 18
    charge: 0.0
    file: /home/c.zeng/usr/data/gpaw-setups-0.9.20000/Co.PBE.gz
    compensation charges: {type: gauss,
                           rc: 0.32,
                           lmax: 2}
    cutoffs: {filter: 1.87,
              core: 2.55}
    valence states:
      #              energy  rcut
      - 4s(2.00)    -5.469   1.005
      - 4p(0.00)    -1.277   1.058
      - 3d(7.00)    -8.205   1.005
      -  s          21.742   1.005
      -  p          25.934   1.058
      -  d          19.007   1.005

[...]

  Fe:
    name: Iron
    id: 37abbd8d6c3c35915a9b583b742da910
    Z: 26.0
    valence: 8
    core: 18
    charge: 0.0
    file: /home/c.zeng/usr/data/gpaw-setups-0.9.20000/Fe.PBE.gz
    compensation charges: {type: gauss,
                           rc: 0.33,
                           lmax: 2}
    cutoffs: {filter: 2.06,
              core: 2.67}
    valence states:
      #              energy  rcut
      - 4s(2.00)    -5.291   1.164
      - 4p(0.00)    -1.326   1.058
      - 3d(6.00)    -7.505   1.058
      -  s          21.920   1.164
      -  p          25.885   1.058
      -  d          19.706   1.058

[...]

  Cr:
    name: Chromium
    id: 33f258bda2ca9f93018e70263a35547b
    Z: 24.0
    valence: 6
    core: 18
    charge: 0.0
    file: /home/c.zeng/usr/data/gpaw-setups-0.9.20000/Cr.PBE.gz
    compensation charges: {type: gauss,
                           rc: 0.35,
                           lmax: 2}
    cutoffs: {filter: 2.14,
              core: 3.04}
    valence states:
      #              energy  rcut
      - 4s(1.00)    -4.007   1.164
      - 4p(0.00)    -0.989   1.217
      - 3d(5.00)    -2.913   1.111
      -  s          23.205   1.164
      -  p          26.223   1.217
      -  d          24.299   1.111

    # Using partial waves for Cr as LCAO basis

Reference energy: -3235165.067515  # eV

Spin-polarized calculation.
Magnetic moment: 121.100000

Convergence criteria:
 Maximum [total energy] change in last 3 cyles: 0.0001 eV / electron
 Maximum integral of absolute [dens]ity change: 0.0001 electrons / valence electron
 Maximum integral of absolute [eigenst]ate change: 4e-08 eV^2 / valence electron
 Maximum number of scf [iter]ations: 666
 (Square brackets indicate name in SCF output, whereas a 'c' in
 the SCF output indicates the quantity has converged.)

Symmetries present (total): 1

  ( 1  0  0)
  ( 0  1  0)
  ( 0  0  1)

8 k-points: 2 x 2 x 2 Monkhorst-Pack grid
4 k-points in the irreducible part of the Brillouin zone
       k-points in crystal coordinates                weights
   0:     0.25000000   -0.25000000   -0.25000000          2/8
   1:     0.25000000   -0.25000000    0.25000000          2/8
   2:     0.25000000    0.25000000   -0.25000000          2/8
   3:     0.25000000    0.25000000    0.25000000          2/8

Wave functions: Plane wave expansion
  Cutoff energy: 350.000 eV
  Number of coefficients (min, max): 19084, 19084
  Pulay-stress correction: 0.000000 eV/Ang^3 (de/decut=0.000000)
  Using FFTW library
  ScaLapack parameters: grid=1x1, blocksize=None
  Wavefunction extrapolation:
    Improved wavefunction reuse through dual PAW basis

Occupation numbers: Fermi-Dirac:
  width: 0.1000  # eV

Eigensolver
   Davidson(niter=2)

Densities:
  Coarse grid: 48*48*48 grid
  Fine grid: 96*96*96 grid
  Total Charge: 0.000000

Density mixing:
  Method: difference
  Backend: pulay
  Linear mixing parameter: 0.05
  old densities: 5
  Damping of long wavelength oscillations: 50

Hamiltonian:
  XC and Coulomb potentials evaluated on a 96*96*96 grid
  Using the PBE Exchange-Correlation functional
  External potential:
    NoExternalPotential

XC parameters: PBE with 2 nearest neighbor stencil

Total number of cores used: 30
Parallelization over k-points: 2
Domain decomposition: 5 x 3 x 1

Number of atoms: 108
Number of atomic orbitals: 933
Number of bands in calculation: 624
Number of valence electrons: 912
Bands to converge: occupied

... initialized

Initializing position-dependent things.

Density initialized from atomic densities
Creating initial wave functions:
  624 bands from LCAO basis set

        .--------Al----------------.
       /|           Fe             |
      / |    FeFe     Ni           |
     / Cr       Cr       Al        |
    /   |Fe      CrCo       Fe     |
   /    | CrNi      ACo            |
  /    Co  FeiAlAl    Co Fe  CoAl  |
 *      Fe     AlCoAl   CrFe     Ni|
 |      |FeCr   NiFeFe   AlCrCr   Co
 |      | CoNi   AlCoCoAl NiNiFe   |
 |     Fe  Al CoCo  CrCr Cr  CrNi  |
 |      Cr  Ni CrNiCo CoNiCoAl   Fe|
 |      |NiCo   CoAlAl   CoNiFe   Fe
 |      .-FeCr-----CrCr-Al--NiFe---.
 |     Al  Cr CoCr    Al Co  Ni Cr/
 |    / Co              Ni       Cr
 |   /           Alr      NiFe  /
 |  /      Ni       Fe     NiAl/
 | /                   Fe     /i
 *--------------------------Ni

Positions:
   0 Ni    10.797848    0.093654    0.085777    ( 0.0000,  0.0000,  0.0000)
   1 Al    10.831824    1.844742    1.870716    ( 0.0000,  0.0000,  2.0000)
   2 Ni     1.786803   10.847372    1.827335    ( 0.0000,  0.0000,  0.0000)
   3 Co     1.769614    1.870531   -0.031264    ( 0.0000,  0.0000,  0.0000)
   4 Al     3.620857   10.822050   10.833629    ( 0.0000,  0.0000,  1.5000)
   5 Ni     3.571246    1.883176    1.708402    ( 0.0000,  0.0000,  0.0000)
   6 Co     5.521103   10.788063    1.666217    ( 0.0000,  0.0000,  0.0000)
   7 Al     5.520831    1.813973   10.830911    ( 0.0000,  0.0000,  1.5000)
   8 Al     7.330846    0.011025   10.815657    ( 0.0000,  0.0000,  2.0000)
   9 Fe     7.282018    1.809483    1.793250    ( 0.0000,  0.0000,  2.1000)
  10 Fe     9.029996    0.022005    1.811918    ( 0.0000,  0.0000,  1.5000)
  11 Fe     9.007196    1.868639   10.825714    ( 0.0000,  0.0000,  2.0000)
  12 Ni    10.861310    3.649723    0.014171    ( 0.0000,  0.0000,  2.0000)
  13 Cr    10.867442    5.463468    1.819235    ( 0.0000,  0.0000,  2.1000)
  14 Co     1.756088    3.650267    1.845949    ( 0.0000,  0.0000,  0.0000)
  15 Fe     1.790358    5.439092   10.869084    ( 0.0000,  0.0000,  2.1000)
  16 Ni     3.687842    3.622792   -0.049287    ( 0.0000,  0.0000,  2.0000)
  17 Co     3.667347    5.391145    1.745368    ( 0.0000,  0.0000,  0.0000)
  18 Al     5.497977    3.634415    1.792370    ( 0.0000,  0.0000,  2.0000)
  19 Cr     5.524908    5.448029    0.002551    ( 0.0000,  0.0000,  2.0000)
  20 Co     7.223340    3.611877   10.834270    ( 0.0000,  0.0000,  0.0000)
  21 Al     7.217762    5.474830    1.807776    ( 0.0000,  0.0000,  2.1000)
  22 Ni     9.073442    3.654344    1.775148    ( 0.0000,  0.0000,  0.0000)
  23 Ni     9.008740    5.418608    0.007692    ( 0.0000,  0.0000,  2.0000)
  24 Cr    10.859190    7.178720    0.014480    ( 0.0000,  0.0000,  1.5000)
  25 Fe    -0.018106    8.970948    1.875391    ( 0.0000,  0.0000,  0.0000)
  26 Fe     1.817615    7.224025    1.802546    ( 0.0000,  0.0000,  1.5000)
  27 Cr     1.880729    8.993464   10.874031    ( 0.0000,  0.0000,  0.0000)
  28 Fe     3.684428    7.260447   -0.001356    ( 0.0000,  0.0000,  2.0000)
  29 Co     3.612616    9.025636    1.761807    ( 0.0000,  0.0000,  1.5000)
  30 Cr     5.481440    7.275114    1.811211    ( 0.0000,  0.0000,  1.5000)
  31 Fe     5.461261    9.048153   10.833988    ( 0.0000,  0.0000,  1.5000)
  32 Ni     7.245704    7.257881    0.056891    ( 0.0000,  0.0000,  2.1000)
  33 Co     7.301969    9.004609    1.790315    ( 0.0000,  0.0000,  0.0000)
  34 Ni     9.029343    7.181775    1.815549    ( 0.0000,  0.0000,  2.0000)
  35 Ni     9.030561    9.042010    0.020232    ( 0.0000,  0.0000,  1.5000)
  36 Fe    -0.031046    0.001947    3.645701    ( 0.0000,  0.0000,  2.0000)
  37 Fe    10.825910    1.804351    5.434602    ( 0.0000,  0.0000,  2.1000)
  38 Ni     1.743552   10.849296    5.484376    ( 0.0000,  0.0000,  0.0000)
  39 Al     1.769755    1.791891    3.636068    ( 0.0000,  0.0000,  1.5000)
  40 Al     3.516667   10.719828    3.663227    ( 0.0000,  0.0000,  0.0000)
  41 Co     3.644244    1.785205    5.586728    ( 0.0000,  0.0000,  0.0000)
  42 Al     5.484778   10.815439    5.504022    ( 0.0000,  0.0000,  0.0000)
  43 Cr     5.457934    1.842230    3.658769    ( 0.0000,  0.0000,  0.0000)
  44 Ni     7.360615   10.815439    3.672229    ( 0.0000,  0.0000,  0.0000)
  45 Al     7.266884    1.811614    5.485528    ( 0.0000,  0.0000,  2.1000)
  46 Al     9.077986    0.023590    5.491921    ( 0.0000,  0.0000,  0.0000)
  47 Co     9.066788    1.824226    3.671175    ( 0.0000,  0.0000,  1.5000)
  48 Fe    -0.047135    3.649615    3.617291    ( 0.0000,  0.0000,  2.0000)
  49 Ni    10.809264    5.435993    5.379805    ( 0.0000,  0.0000,  2.0000)
  50 Cr     1.752316    3.624989    5.344676    ( 0.0000,  0.0000,  0.0000)
  51 Ni     1.805786    5.472046    3.619389    ( 0.0000,  0.0000,  2.1000)
[...]
 102 Co     5.530605    7.331890    9.040129    ( 0.0000,  0.0000,  0.0000)
 103 Al     5.476232    9.097209    7.250467    ( 0.0000,  0.0000,  2.0000)
 104 Cr     7.256827    7.264242    7.208456    ( 0.0000,  0.0000,  2.1000)
 105 Al     7.272548    9.136437    9.056861    ( 0.0000,  0.0000,  1.5000)
 106 Fe     8.936493    7.190875    9.109767    ( 0.0000,  0.0000,  0.0000)
 107 Co     8.994682    9.112169    7.218480    ( 0.0000,  0.0000,  0.0000)

Unit cell:
           periodic     x           y           z      points  spacing
  1. axis:    yes   10.872400    0.000000    0.000000    48     0.2265
  2. axis:    yes    0.000000   10.872400    0.000000    48     0.2265
  3. axis:    yes    0.000000    0.000000   10.872400    48     0.2265

  Lengths:  10.872400  10.872400  10.872400
  Angles:   90.000000  90.000000  90.000000

Effective grid spacing dv^(1/3) = 0.2265

     iter     time        total  log10-change:  magmom
                         energy  eigst   dens
iter:   1 02:56:35  -914.664518                  +120.1257
iter:   2 02:58:48  -850.042370  -0.31  -1.25    +82.5382
iter:   3 03:00:45  -844.042379  -0.71  -1.25    +49.2582
iter:   4 03:02:41  -813.335491  -1.19  -1.26    +43.6792
iter:   5 03:04:38  -807.323458  -1.70  -1.38    +39.6483
iter:   6 03:06:35  -810.701062  -1.71  -1.42    +38.9137
iter:   7 03:08:31  -807.875065  -1.54  -1.44    +38.4868
iter:   8 03:10:28  -806.095595  -1.71  -1.50    +38.7945
iter:   9 03:12:25  -810.759159  -1.68  -1.57    +39.2070
iter:  10 03:14:21  -801.885016  -1.86  -1.57    +38.8159
iter:  11 03:16:17  -803.015823  -2.16  -1.76    +39.6896
iter:  12 03:19:05  -801.357600  -2.37  -1.77    +41.0516
iter:  13 03:21:20  -802.108855  -2.60  -1.88    +42.6536
iter:  14 03:23:16  -802.900445  -2.47  -1.91    +43.8715
iter:  15 03:25:13  -802.683942  -2.62  -1.93    +45.3073
iter:  16 03:27:10  -802.831338  -2.69  -2.00    +46.3729
iter:  17 03:29:06  -802.869827  -2.88  -2.04    +47.6646
iter:  18 03:31:03  -803.037179  -2.95  -2.09    +48.9328
iter:  19 03:33:00  -803.189617  -2.99  -2.15    +50.0975
iter:  20 03:34:56  -803.614701  -2.95  -2.21    +51.2670
iter:  21 03:36:53  -803.553028  -3.05  -2.22    +51.9077
iter:  22 03:38:49  -803.751603  -3.11  -2.30    +53.1830
iter:  23 03:40:45  -803.992353  -3.11  -2.34    +54.0026
iter:  24 03:42:41  -804.062138  -3.35  -2.35    +54.6542
iter:  25 03:44:59  -804.167057  -3.41  -2.41    +55.4255
iter:  26 03:47:44  -804.367048  -3.29  -2.45    +56.1001
iter:  27 03:49:41  -804.413381  -3.59  -2.45    +56.4210
iter:  28 03:51:38  -804.471339  -3.53  -2.48    +56.8247
iter:  29 03:53:35  -804.550775  -3.56  -2.54    +57.0343
iter:  30 03:55:31  -804.538781c -3.72  -2.54    +56.9656
iter:  31 03:57:28  -804.529003c -3.91  -2.61    +57.0298
iter:  32 03:59:24  -804.549560c -4.10  -2.69    +57.0325
iter:  33 04:01:20  -804.551560c -4.23  -2.71    +57.0251
iter:  34 04:03:27  -804.557065c -4.47  -2.76    +57.0481
iter:  35 04:06:17  -804.575021c -4.49  -2.81    +57.0442
iter:  36 04:08:17  -804.579987c -4.61  -2.84    +57.0240
iter:  37 04:10:14  -804.591977c -4.62  -2.88    +57.0080
iter:  38 04:12:10  -804.607690c -4.60  -2.92    +56.9847
iter:  39 04:14:08  -804.614804c -4.64  -2.95    +56.9686
iter:  40 04:16:04  -804.623708c -4.61  -2.96    +56.9376
iter:  41 04:18:01  -804.636571c -4.73  -3.02    +56.9135
iter:  42 04:19:56  -804.644643c -4.84  -3.06    +56.8951
iter:  43 04:21:52  -804.660805c -4.74  -3.08    +56.8594
iter:  44 04:24:12  -804.676802c -4.74  -3.11    +56.8300
iter:  45 04:26:55  -804.683555c -4.90  -3.14    +56.8210
iter:  46 04:28:53  -804.695800c -4.77  -3.14    +56.7695
iter:  47 04:30:49  -804.709421c -4.86  -3.20    +56.7489
iter:  48 04:32:46  -804.723951c -4.79  -3.25    +56.7388
iter:  49 04:34:43  -804.746312c -4.51  -3.27    +56.7117
iter:  50 04:36:38  -804.787937c -4.01  -3.28    +56.6649
iter:  51 04:38:35  -804.849036  -3.33  -3.19    +56.6491
iter:  52 04:40:32  -804.834993c -4.58  -3.00    +56.7524
iter:  53 04:42:27  -804.838234c -4.90  -3.09    +56.8134
iter:  54 04:45:16  -804.840991c -5.15  -3.06    +56.8743
iter:  55 04:47:32  -804.860788c -4.80  -3.05    +56.9053
iter:  56 04:49:28  -804.830549c -4.62  -2.94    +56.9139
iter:  57 04:51:25  -804.830905c -4.45  -3.08    +56.8946
iter:  58 04:53:22  -804.837827c -4.41  -3.00    +56.8709
iter:  59 04:55:17  -804.817592c -4.97  -2.98    +56.8475
iter:  60 04:57:13  -804.813402c -4.73  -3.19    +56.8221
iter:  61 04:59:09  -804.817716c -4.83  -3.27    +56.8201
iter:  62 05:01:05  -804.812637c -5.26  -3.26    +56.8311
iter:  63 05:03:38  -804.813565c -5.55  -3.34    +56.8229
iter:  64 05:05:48  -804.815122c -5.44  -3.36    +56.8174
iter:  65 05:07:22  -804.815214c -5.64  -3.36    +56.8109
iter:  66 05:09:30  -804.814662c -5.55  -3.40    +56.8054
iter:  67 05:11:38  -804.815915c -5.55  -3.42    +56.8061
iter:  68 05:13:45  -804.813915c -5.59  -3.51    +56.7970
iter:  69 05:15:51  -804.816206c -5.66  -3.52    +56.7898
iter:  70 05:17:58  -804.814715c -5.72  -3.58    +56.7922
iter:  71 05:20:05  -804.815388c -5.93  -3.64    +56.7855
iter:  72 05:22:12  -804.816084c -5.91  -3.72    +56.7768
iter:  73 05:24:19  -804.815513c -6.25  -3.73    +56.7732
iter:  74 05:26:26  -804.816016c -6.09  -3.78    +56.7665
iter:  75 05:28:33  -804.815761c -6.27  -3.87    +56.7571
iter:  76 05:30:40  -804.816628c -6.23  -3.95    +56.7483
iter:  77 05:32:47  -804.816550c -6.36  -3.94    +56.7388
iter:  78 05:34:54  -804.817200c -6.31  -4.02c   +56.7278
iter:  79 05:37:01  -804.816899c -6.29  -4.02c   +56.7227
iter:  80 05:39:08  -804.817195c -6.49  -4.03c   +56.7176
iter:  81 05:41:15  -804.817532c -6.36  -4.19c   +56.7044
iter:  82 05:43:21  -804.817752c -6.53  -4.20c   +56.6983
iter:  83 05:45:28  -804.818103c -6.64  -4.26c   +56.6921
iter:  84 05:47:34  -804.818946c -5.95  -4.28c   +56.6692
iter:  85 05:49:41  -804.818502c -6.73  -4.25c   +56.6817
iter:  86 05:51:47  -804.819751c -5.76  -4.22c   +56.6505
iter:  87 05:53:53  -804.819609c -6.99  -4.14c   +56.6561
iter:  88 05:56:00  -804.821214c -5.47  -4.16c   +56.6114
iter:  89 05:58:07  -804.823030c -5.32  -4.03c   +56.5687
iter:  90 06:00:14  -804.821462c -5.73  -3.92    +56.6110
iter:  91 06:02:21  -804.822878c -5.68  -3.96    +56.5681
iter:  92 06:04:27  -804.823056c -6.47  -3.95    +56.5694
iter:  93 06:06:34  -804.824312c -5.96  -3.83    +56.5519
iter:  94 06:08:39  -804.823559c -6.10  -3.79    +56.5453
iter:  95 06:10:46  -804.824019c -6.21  -3.80    +56.5273
iter:  96 06:12:52  -804.824840c -5.76  -3.84    +56.4981
iter:  97 06:14:59  -804.824232c -6.46  -3.79    +56.5023
iter:  98 06:17:07  -804.824672c -6.00  -3.95    +56.4865
iter:  99 06:19:14  -804.824528c -6.27  -3.82    +56.4865
iter: 100 06:21:22  -804.824959c -6.36  -3.92    +56.4826
iter: 101 06:23:30  -804.824701c -6.33  -4.02c   +56.4772
iter: 102 06:25:38  -804.825565c -6.06  -3.98    +56.4668
iter: 103 06:27:46  -804.825334c -6.14  -3.92    +56.4596
iter: 104 06:29:54  -804.825685c -6.31  -3.96    +56.4592
iter: 105 06:32:02  -804.825691c -6.23  -4.04c   +56.4500
iter: 106 06:34:10  -804.825441c -6.43  -4.03c   +56.4451
iter: 107 06:36:17  -804.826053c -6.60  -4.09c   +56.4390
iter: 108 06:38:25  -804.826001c -6.86  -4.15c   +56.4355
iter: 109 06:40:33  -804.826289c -6.65  -4.19c   +56.4280
iter: 110 06:42:41  -804.826553c -6.78  -4.19c   +56.4220
iter: 111 06:44:49  -804.826511c -6.59  -4.08c   +56.4198
iter: 112 06:46:57  -804.826406c -6.53  -4.02c   +56.4083
iter: 113 06:49:04  -804.827147c -6.50  -4.09c   +56.4007
iter: 114 06:51:11  -804.826971c -6.50  -4.10c   +56.3974
iter: 115 06:53:19  -804.827041c -6.89  -4.08c   +56.3908
iter: 116 06:55:27  -804.827237c -6.51  -4.20c   +56.3721
iter: 117 06:57:34  -804.827331c -7.04  -4.17c   +56.3705
iter: 118 06:59:41  -804.827444c -6.50  -4.19c   +56.3595
iter: 119 07:01:49  -804.827618c -6.32  -4.33c   +56.3429
iter: 120 07:03:56  -804.827949c -6.52  -4.43c   +56.3316
iter: 121 07:06:04  -804.827945c -6.75  -4.45c   +56.3223
iter: 122 07:08:07  -804.828100c -6.72  -4.54c   +56.3094
iter: 123 07:10:15  -804.828377c -6.20  -4.54c   +56.2828
iter: 124 07:12:23  -804.829245c -5.35  -4.53c   +56.2063
iter: 125 07:14:30  -804.829892c -5.42  -4.22c   +56.1543
iter: 126 07:16:38  -804.830086c -5.73  -4.10c   +56.1251
iter: 127 07:18:46  -804.830436c -5.68  -4.07c   +56.0888
iter: 128 07:20:54  -804.830877c -5.49  -3.98    +56.0393
iter: 129 07:23:02  -804.830742c -6.38  -3.88    +56.0557
iter: 130 07:25:10  -804.830829c -6.52  -3.93    +56.0441
iter: 131 07:27:18  -804.830819c -6.94  -3.90    +56.0437
iter: 132 07:29:25  -804.830958c -6.82  -3.91    +56.0439
iter: 133 07:31:33  -804.830519c -5.66  -3.86    +56.0440
iter: 134 07:33:39  -804.830806c -5.87  -3.70    +56.0417
iter: 135 07:35:45  -804.830499c -5.71  -3.90    +56.0386
iter: 136 07:37:53  -804.829769c -6.25  -3.82    +56.0348
iter: 137 07:40:00  -804.829743c -6.83  -4.15c   +56.0365
iter: 138 07:42:08  -804.829590c -7.00  -4.22c   +56.0360
iter: 139 07:44:16  -804.829609c -6.76  -4.27c   +56.0394
iter: 140 07:46:24  -804.829763c -7.05  -4.26c   +56.0441
iter: 141 07:48:32  -804.829706c -7.16  -4.29c   +56.0470
iter: 142 07:50:39  -804.829590c -7.11  -4.42c   +56.0501
iter: 143 07:52:46  -804.829673c -7.25  -4.42c   +56.0529
iter: 144 07:54:54  -804.829698c -7.32  -4.49c   +56.0579
iter: 145 07:57:02  -804.829636c -7.60c -4.55c   +56.0599

Converged after 145 iterations.

Dipole moment: (27.653192, 17.494702, 8.860751) |e|*Ang

Total magnetic moment: (0.000000, 0.000000, 56.059855)
Local magnetic moments:
   0 Ni ( 0.000000,  0.000000,  0.288593)
   1 Al ( 0.000000,  0.000000, -0.040592)
   2 Ni ( 0.000000,  0.000000,  0.195393)
   3 Co ( 0.000000,  0.000000,  1.337493)
   4 Al ( 0.000000,  0.000000, -0.023105)
   5 Ni ( 0.000000,  0.000000,  0.137308)
   6 Co ( 0.000000,  0.000000,  1.153722)
   7 Al ( 0.000000,  0.000000, -0.023799)
   8 Al ( 0.000000,  0.000000, -0.050626)
   9 Fe ( 0.000000,  0.000000,  2.259538)
  10 Fe ( 0.000000,  0.000000,  2.355930)
  11 Fe ( 0.000000,  0.000000,  2.338931)
  12 Ni ( 0.000000,  0.000000,  0.270075)
  13 Cr ( 0.000000,  0.000000, -1.707588)
  14 Co ( 0.000000,  0.000000,  0.990279)
  15 Fe ( 0.000000,  0.000000,  2.020362)
  16 Ni ( 0.000000,  0.000000,  0.215119)
  17 Co ( 0.000000,  0.000000,  0.474688)
  18 Al ( 0.000000,  0.000000, -0.024453)
  19 Cr ( 0.000000,  0.000000,  1.442886)
  20 Co ( 0.000000,  0.000000,  0.979665)
  21 Al ( 0.000000,  0.000000, -0.008895)
  22 Ni ( 0.000000,  0.000000,  0.298193)
  23 Ni ( 0.000000,  0.000000,  0.213388)
  24 Cr ( 0.000000,  0.000000, -1.216684)
  25 Fe ( 0.000000,  0.000000,  2.332001)
  26 Fe ( 0.000000,  0.000000,  2.055336)
  27 Cr ( 0.000000,  0.000000,  0.815174)
  28 Fe ( 0.000000,  0.000000,  1.779129)
  29 Co ( 0.000000,  0.000000,  0.679085)
  30 Cr ( 0.000000,  0.000000, -1.680104)
  31 Fe ( 0.000000,  0.000000,  2.197320)
  32 Ni ( 0.000000,  0.000000,  0.231211)
  33 Co ( 0.000000,  0.000000,  1.337413)
  34 Ni ( 0.000000,  0.000000,  0.159252)
  35 Ni ( 0.000000,  0.000000,  0.180124)
  36 Fe ( 0.000000,  0.000000,  2.232661)
  37 Fe ( 0.000000,  0.000000,  1.894816)
  38 Ni ( 0.000000,  0.000000,  0.239627)
  39 Al ( 0.000000,  0.000000, -0.027743)
  40 Al ( 0.000000,  0.000000, -0.009927)
  41 Co ( 0.000000,  0.000000,  0.903824)
  42 Al ( 0.000000,  0.000000, -0.012725)
  43 Cr ( 0.000000,  0.000000, -2.297570)
  44 Ni ( 0.000000,  0.000000, -0.015931)
  45 Al ( 0.000000,  0.000000, -0.012576)
  46 Al ( 0.000000,  0.000000, -0.022223)
  47 Co ( 0.000000,  0.000000,  1.189413)
  48 Fe ( 0.000000,  0.000000,  2.316205)
  49 Ni ( 0.000000,  0.000000,  0.390939)
  50 Cr ( 0.000000,  0.000000, -2.209452)
  51 Ni ( 0.000000,  0.000000,  0.347087)
  52 Cr ( 0.000000,  0.000000,  1.959910)
  53 Co ( 0.000000,  0.000000,  1.061012)
  54 Ni ( 0.000000,  0.000000,  0.191353)
  55 Al ( 0.000000,  0.000000, -0.004299)
  56 Cr ( 0.000000,  0.000000,  1.981231)
  57 Cr ( 0.000000,  0.000000, -1.294523)
  58 Co ( 0.000000,  0.000000,  0.674966)
  59 Ni ( 0.000000,  0.000000,  0.267522)
[...]
  93 Co ( 0.000000,  0.000000,  1.184376)
  94 Fe ( 0.000000,  0.000000,  2.104522)
  95 Cr ( 0.000000,  0.000000, -1.640181)
  96 Ni ( 0.000000,  0.000000,  0.245355)
  97 Cr ( 0.000000,  0.000000, -1.831853)
  98 Cr ( 0.000000,  0.000000,  0.435713)
  99 Fe ( 0.000000,  0.000000,  2.031406)
 100 Al ( 0.000000,  0.000000, -0.030553)
 101 Cr ( 0.000000,  0.000000, -1.449622)
 102 Co ( 0.000000,  0.000000,  0.447295)
 103 Al ( 0.000000,  0.000000,  0.001824)
 104 Cr ( 0.000000,  0.000000,  1.230595)
 105 Al ( 0.000000,  0.000000, -0.026558)
 106 Fe ( 0.000000,  0.000000,  2.396080)
 107 Co ( 0.000000,  0.000000,  0.626927)

Energy contributions relative to reference atoms: (reference = -3235165.067515)

Kinetic:       +267.225536
Potential:     -254.007486
External:        +0.000000
XC:            -847.252349
Entropy (-ST):   -4.061025
Local:          +31.235175
Free energy:   -806.860149
Extrapolated:  -804.829636

Spin contamination: 28.553740 electrons
Showing only first 2 kpts
                      Up                     Down
 Kpt  Band  Eigenvalues  Occupancy  Eigenvalues  Occupancy
  0   454      8.99990    0.99512      9.88550    0.02824
  0   455      9.02578    0.99369      9.90615    0.02310
  0   456      9.03201    0.99329      9.91565    0.02105
  0   457      9.04470    0.99238      9.92760    0.01872

  1   454      9.00730    0.99475      9.89557    0.02561
  1   455      9.03299    0.99322      9.90274    0.02388
  1   456      9.04815    0.99212      9.92301    0.01958
  1   457      9.06179    0.99098      9.93738    0.01701

Fermi level: 9.53168

No gap

Forces in eV/Ang:
  0 Ni    0.40097   -0.63055   -0.62601
  1 Al   -0.43001    0.10998   -1.21120
  2 Ni   -0.07385    0.00478    0.03171
  3 Co    0.16805    0.04461   -0.26879
  4 Al   -0.16793    0.62457    1.16976
  5 Ni    0.43632   -0.54672    0.49995
  6 Co    0.00495    0.17825    1.01059
  7 Al   -0.61846    0.28188    0.02284
  8 Al   -0.70889   -0.18773    1.89822
  9 Fe    0.25506   -0.46889    0.60053
 10 Fe    0.02635   -0.31545    0.50292
 11 Fe    0.39078    0.42845    0.02819
 12 Ni   -0.04096   -0.26692   -0.14936
 13 Cr   -0.00152   -0.15930    0.06305
 14 Co    0.35712    0.01727   -0.41427
 15 Fe    0.58234    0.03665    0.64123
 16 Ni   -0.41542   -0.04367    0.16843
 17 Co   -0.29358    0.50002    0.33369
 18 Al   -1.05092   -0.61078   -0.30418
 19 Cr   -0.42258    0.59120   -0.50163
 20 Co    0.26208    0.15789    0.11013
 21 Al    2.45571    0.11280   -0.22075
 22 Ni   -0.43065   -0.06580    0.38865
 23 Ni    0.19128   -0.12597   -0.15889
 24 Cr   -0.35225    0.95618    0.32350
 25 Fe   -0.35854    0.37069   -0.84463
 26 Fe    0.46817   -0.39505   -0.10998
 27 Cr   -0.57699   -0.12055   -0.02180
 28 Fe   -0.28401   -0.06442    0.28127
 29 Co    0.11233   -0.16626    0.21101
 30 Cr   -0.99845    1.25486   -0.79955
 31 Fe   -0.30766   -0.73825    0.52013
 32 Ni    0.17489    0.11808   -0.57297
 33 Co   -0.21872    0.19320    0.50604
 34 Ni    0.37912    0.54922   -0.00633
 35 Ni    0.28303    0.25643   -0.19483
 36 Fe   -0.33704   -0.29578   -0.08635
 37 Fe    0.00880    0.46355   -0.13445
 38 Ni    0.68118    0.07447   -0.27123
 39 Al    0.97350   -0.07728    0.12902
 40 Al    1.17997    1.12920   -0.61056
 41 Co    0.02682   -0.14927   -0.32296
 42 Al   -0.82404    1.41908   -0.77993
 43 Cr   -0.35851   -0.10625   -0.73843
 44 Ni   -0.64352    0.17985   -0.16900
 45 Al   -0.21618    0.99305   -0.41460
 46 Al   -0.22562   -0.58696   -1.06284
 47 Co   -0.13886    0.17636   -0.40321
 48 Fe   -0.27837    0.52564    0.49762
 49 Ni    0.30793   -0.07565    0.45245
 50 Cr    0.39921    0.52903    1.06464
 51 Ni    0.23961   -0.09703   -0.09172
 52 Cr   -0.59141   -0.32309    0.20836
 53 Co   -0.39412    0.33325    0.23049
 54 Ni   -0.15211   -0.44654    0.10867
 55 Al   -0.71082    0.65887    0.87429
 56 Cr    0.92255   -0.94579    0.17755
 57 Cr    0.13613   -0.14443    0.29325
 58 Co    0.09329    0.28338   -0.01772
 59 Ni   -0.10821   -0.59843   -0.05523
[...]
 93 Co    0.03298    0.26195   -0.16628
 94 Fe   -0.26451   -0.03723    0.07691
 95 Cr    0.02582   -0.12759   -0.22756
 96 Ni    0.03166   -0.06001    0.86831
 97 Cr    0.17673   -1.22724    0.20520
 98 Cr   -0.98402    0.44810    0.21062
 99 Fe   -0.84155   -0.11846    0.08214
100 Al   -0.21371   -0.86374   -0.84561
101 Cr   -0.16314   -0.46669    0.39923
102 Co   -0.13294   -0.51016    0.16229
103 Al   -0.34522   -0.61875    0.82138
104 Cr    0.26699   -1.32387    0.80733
105 Al   -0.03119   -1.86309   -0.10678
106 Fe    0.87105    0.13124   -0.41132
107 Co    0.77711   -0.93670    0.33285

Date: Sat Apr 15 07:57:22 2023