User:   c.zeng@d0017
Date:   Mon Apr 17 04:12:24 2023
Arch:   x86_64
Pid:    34491
CWD:    /home/c.zeng/projects/hea-corrosion/hea-mlp/data-curation/bulk-mcmc/dft-jobs/198
Python: 3.8.1
gpaw:   /home/c.zeng/usr/installs/gpaw/source/gpaw-22.8.0/gpaw
_gpaw:  /home/c.zeng/usr/installs/gpaw/source/gpaw-22.8.0/
        _gpaw.cpython-38-x86_64-linux-gnu.so
ase:    /home/c.zeng/.local/lib/python3.8/site-packages/ase-3.22.1-py3.8.egg/ase (version 3.22.1)
numpy:  /home/c.zeng/.local/lib/python3.8/site-packages/numpy (version 1.24.2)
scipy:  /home/c.zeng/.local/lib/python3.8/site-packages/scipy (version 1.10.1)
units:  Angstrom and eV
cores: 30
OpenMP: False
OMP_NUM_THREADS: 1

Input parameters:
  convergence: {energy: 0.0001}
  kpts: [2 2 2]
  maxiter: 666
  mode: {ecut: 350.0,
         name: pw}
  occupations: {fixmagmom: False,
                name: fermi-dirac,
                width: 0.1}
  spinpol: True
  xc: PBE

System changes: positions, numbers, cell, pbc, initial_charges, initial_magmoms

Initialize ...

species:
  Fe:
    name: Iron
    id: 37abbd8d6c3c35915a9b583b742da910
    Z: 26.0
    valence: 8
    core: 18
    charge: 0.0
    file: /home/c.zeng/usr/data/gpaw-setups-0.9.20000/Fe.PBE.gz
    compensation charges: {type: gauss,
                           rc: 0.33,
                           lmax: 2}
    cutoffs: {filter: 2.06,
              core: 2.67}
    valence states:
      #              energy  rcut
      - 4s(2.00)    -5.291   1.164
      - 4p(0.00)    -1.326   1.058
      - 3d(6.00)    -7.505   1.058
      -  s          21.920   1.164
      -  p          25.885   1.058
      -  d          19.706   1.058

    # Using partial waves for Fe as LCAO basis

  Co:
    name: Cobalt
    id: 339d20d5b0b93d2de9531a1bee871d91
    Z: 27.0
    valence: 9
    core: 18
    charge: 0.0
    file: /home/c.zeng/usr/data/gpaw-setups-0.9.20000/Co.PBE.gz
    compensation charges: {type: gauss,
                           rc: 0.32,
                           lmax: 2}
    cutoffs: {filter: 1.87,
              core: 2.55}
    valence states:
      #              energy  rcut
      - 4s(2.00)    -5.469   1.005
      - 4p(0.00)    -1.277   1.058
      - 3d(7.00)    -8.205   1.005
      -  s          21.742   1.005
      -  p          25.934   1.058
      -  d          19.007   1.005

[...]

  Al:
    name: Aluminium
    id: 0292cae29f5d6237e50f6abdd43a7bdd
    Z: 13.0
    valence: 3
    core: 10
    charge: 0.0
    file: /home/c.zeng/usr/data/gpaw-setups-0.9.20000/Al.PBE.gz
    compensation charges: {type: gauss,
                           rc: 0.34,
                           lmax: 2}
    cutoffs: {filter: 1.91,
              core: 2.36}
    valence states:
      #              energy  rcut
      - 3s(2.00)    -7.753   1.085
      - 3p(1.00)    -2.712   1.085
      -  s          19.459   1.085
      -  p          24.499   1.085
      -  d           0.000   1.085

[...]

  Cr:
    name: Chromium
    id: 33f258bda2ca9f93018e70263a35547b
    Z: 24.0
    valence: 6
    core: 18
    charge: 0.0
    file: /home/c.zeng/usr/data/gpaw-setups-0.9.20000/Cr.PBE.gz
    compensation charges: {type: gauss,
                           rc: 0.35,
                           lmax: 2}
    cutoffs: {filter: 2.14,
              core: 3.04}
    valence states:
      #              energy  rcut
      - 4s(1.00)    -4.007   1.164
      - 4p(0.00)    -0.989   1.217
      - 3d(5.00)    -2.913   1.111
      -  s          23.205   1.164
      -  p          26.223   1.217
      -  d          24.299   1.111

[...]

  Ni:
    name: Nickel
    id: 0d9f38a9d6e76a2886f07bb4381f212b
    Z: 28.0
    valence: 16
    core: 12
    charge: 0.0
    file: /home/c.zeng/usr/data/gpaw-setups-0.9.20000/Ni.PBE.gz
    compensation charges: {type: gauss,
                           rc: 0.36,
                           lmax: 2}
    cutoffs: {filter: 2.14,
              core: 1.98}
    valence states:
      #              energy  rcut
      - 4s(2.00)    -5.642   1.164
      - 3p(6.00)   -71.394   1.207
      - 4p(0.00)    -1.226   1.207
      - 3d(8.00)    -8.875   1.138
      -  s          21.570   1.164
      -  d          18.337   1.138

    # Using partial waves for Ni as LCAO basis

Reference energy: -3382523.201499  # eV

Spin-polarized calculation.
Magnetic moment: 128.800000

Convergence criteria:
 Maximum [total energy] change in last 3 cyles: 0.0001 eV / electron
 Maximum integral of absolute [dens]ity change: 0.0001 electrons / valence electron
 Maximum integral of absolute [eigenst]ate change: 4e-08 eV^2 / valence electron
 Maximum number of scf [iter]ations: 666
 (Square brackets indicate name in SCF output, whereas a 'c' in
 the SCF output indicates the quantity has converged.)

Symmetries present (total): 1

  ( 1  0  0)
  ( 0  1  0)
  ( 0  0  1)

8 k-points: 2 x 2 x 2 Monkhorst-Pack grid
4 k-points in the irreducible part of the Brillouin zone
       k-points in crystal coordinates                weights
   0:     0.25000000   -0.25000000   -0.25000000          2/8
   1:     0.25000000   -0.25000000    0.25000000          2/8
   2:     0.25000000    0.25000000   -0.25000000          2/8
   3:     0.25000000    0.25000000    0.25000000          2/8

Wave functions: Plane wave expansion
  Cutoff energy: 350.000 eV
  Number of coefficients (min, max): 18865, 18865
  Pulay-stress correction: 0.000000 eV/Ang^3 (de/decut=0.000000)
  Using FFTW library
  ScaLapack parameters: grid=1x1, blocksize=None
  Wavefunction extrapolation:
    Improved wavefunction reuse through dual PAW basis

Occupation numbers: Fermi-Dirac:
  width: 0.1000  # eV

Eigensolver
   Davidson(niter=2)

Densities:
  Coarse grid: 48*48*48 grid
  Fine grid: 96*96*96 grid
  Total Charge: 0.000000

Density mixing:
  Method: difference
  Backend: pulay
  Linear mixing parameter: 0.05
  old densities: 5
  Damping of long wavelength oscillations: 50

Hamiltonian:
  XC and Coulomb potentials evaluated on a 96*96*96 grid
  Using the PBE Exchange-Correlation functional
  External potential:
    NoExternalPotential

XC parameters: PBE with 2 nearest neighbor stencil

Total number of cores used: 30
Parallelization over k-points: 2
Domain decomposition: 5 x 3 x 1

Number of atoms: 108
Number of atomic orbitals: 961
Number of bands in calculation: 649
Number of valence electrons: 945
Bands to converge: occupied

... initialized

Initializing position-dependent things.

Density initialized from atomic densities
Creating initial wave functions:
  649 bands from LCAO basis set

       /|                     Co   |
      / |            Fe Co     CrFe|
     /  |       Cr       Ni       Cr
    /   |Fe       Fel     FFer     |
   /i   | Coo        Fe      Co    |
  /  CrAl   NCr       Ni           |
 *      Ni     FeCo   AlFeCrFe   Cr|
 |      |CoNi   CrNiAl   NiAlNi   Co
 | CrCo | AlNi   AlAlCo     Ni     |
 |     Fe  FeCr Cr  Co FeNi  CrNi  |
 |      FeNi   AlCr   FeCoCoNi  Fe |
 |Al    |FeCr   AlCrCo   CrFe     Co
 |      .-CrCo-----NiCr-FeCoCrNi---.
 |     /   Ni Co    Cr CoNi    Al /
 |    Co       AFei       Al     /
 |   /  Co         Al       Cr  /
 |  /      Fe       Al       Co/
 | / Fe     Co       Ni Ni    /
 |/             Cr       Ni  /
 *--------Fe----------------*

Positions:
   0 Fe    10.764147   10.861293   10.805330    ( 0.0000,  0.0000,  2.0000)
   1 Co    10.786221    1.792513    1.813624    ( 0.0000,  0.0000,  0.0000)
   2 Fe     1.744156    0.036560    1.851269    ( 0.0000,  0.0000,  1.5000)
   3 Al     1.736571    1.831142   10.798805    ( 0.0000,  0.0000,  0.0000)
   4 Fe     3.575126    0.057318    0.061759    ( 0.0000,  0.0000,  0.0000)
   5 Fe     3.594289    1.817617    1.845577    ( 0.0000,  0.0000,  2.0000)
   6 Fe     5.429813   10.817005    1.865054    ( 0.0000,  0.0000,  1.5000)
   7 Cr     5.429608    1.929425    0.057134    ( 0.0000,  0.0000,  0.0000)
   8 Co     7.316909   10.723332    0.087382    ( 0.0000,  0.0000,  0.0000)
   9 Al     7.263142    1.825786    1.869404    ( 0.0000,  0.0000,  2.1000)
  10 Ni     9.063554    0.025226    1.863474    ( 0.0000,  0.0000,  1.5000)
  11 Ni     9.049217    1.829703    0.033106    ( 0.0000,  0.0000,  2.1000)
  12 Ni     0.004792    3.558981   10.794801    ( 0.0000,  0.0000,  1.5000)
  13 Al    10.759710    5.390697    1.778165    ( 0.0000,  0.0000,  0.0000)
  14 Co     1.733585    3.561849    1.761112    ( 0.0000,  0.0000,  2.0000)
  15 Fe     1.776899    5.391834   10.795505    ( 0.0000,  0.0000,  0.0000)
  16 Co     3.565452    3.619360   10.832619    ( 0.0000,  0.0000,  2.1000)
  17 Co     3.633221    5.394614    1.719551    ( 0.0000,  0.0000,  0.0000)
  18 Ni     5.471624    3.659114    1.836033    ( 0.0000,  0.0000,  2.1000)
  19 Fe     5.440212    5.373060   -0.002773    ( 0.0000,  0.0000,  2.0000)
  20 Ni     7.258997    3.609080    0.031294    ( 0.0000,  0.0000,  0.0000)
  21 Co     7.268941    5.378362    1.785274    ( 0.0000,  0.0000,  2.0000)
  22 Al     9.030724    3.577636    1.833728    ( 0.0000,  0.0000,  2.1000)
  23 Fe     9.040420    5.372281   10.801110    ( 0.0000,  0.0000,  0.0000)
  24 Fe    10.791663    7.196206   10.792486    ( 0.0000,  0.0000,  1.5000)
  25 Co    10.758434    9.040387    1.848239    ( 0.0000,  0.0000,  0.0000)
  26 Cr     1.690487    7.202493    1.786032    ( 0.0000,  0.0000,  0.0000)
  27 Ni     1.652691    8.981047    0.027217    ( 0.0000,  0.0000,  0.0000)
  28 Al     3.631241    7.164437    0.034633    ( 0.0000,  0.0000,  0.0000)
  29 Al     3.625452    9.063759    1.801678    ( 0.0000,  0.0000,  0.0000)
  30 Ni     5.490852    7.187095    1.746342    ( 0.0000,  0.0000,  2.0000)
  31 Cr     5.426935    8.989152    0.009861    ( 0.0000,  0.0000,  2.0000)
  32 Co     7.229122    7.237075   -0.008698    ( 0.0000,  0.0000,  1.5000)
  33 Cr     7.249194    8.995850    1.810713    ( 0.0000,  0.0000,  0.0000)
  34 Cr     9.052073    7.204300    1.764218    ( 0.0000,  0.0000,  2.1000)
  35 Co     9.092553    8.989639   10.808760    ( 0.0000,  0.0000,  1.5000)
  36 Cr    -0.000975   10.826235    3.639789    ( 0.0000,  0.0000,  1.5000)
  37 Al    10.822772    1.771770    5.422044    ( 0.0000,  0.0000,  2.1000)
  38 Ni     1.754263   10.802084    5.428872    ( 0.0000,  0.0000,  2.1000)
  39 Co     1.741873    1.774270    3.610801    ( 0.0000,  0.0000,  0.0000)
  40 Al     3.591183   10.794152    3.612143    ( 0.0000,  0.0000,  2.0000)
  41 Cr     3.593088    1.736744    5.455177    ( 0.0000,  0.0000,  0.0000)
  42 Al     5.437150   10.794563    5.400804    ( 0.0000,  0.0000,  2.0000)
  43 Fe     5.451931    1.783251    3.601387    ( 0.0000,  0.0000,  1.5000)
  44 Al     7.226222    0.007781    3.626209    ( 0.0000,  0.0000,  0.0000)
  45 Co     7.236069    1.766512    5.381392    ( 0.0000,  0.0000,  2.1000)
  46 Fe     9.034587   10.848850    5.403844    ( 0.0000,  0.0000,  2.1000)
  47 Ni     9.031558    1.804946    3.616730    ( 0.0000,  0.0000,  1.5000)
  48 Ni    10.773885    3.543973    3.617867    ( 0.0000,  0.0000,  1.5000)
  49 Ni    10.772186    5.358409    5.454917    ( 0.0000,  0.0000,  0.0000)
  50 Fe     1.757531    3.575678    5.428937    ( 0.0000,  0.0000,  2.1000)
  51 Fe     1.621766    5.386986    3.572550    ( 0.0000,  0.0000,  0.0000)
  52 Co     3.634303    3.633188    3.540792    ( 0.0000,  0.0000,  0.0000)
  53 Cr     3.550606    5.397969    5.404753    ( 0.0000,  0.0000,  2.0000)
  54 Cr     5.402221    3.610887    5.370193    ( 0.0000,  0.0000,  2.0000)
  55 Cr     5.460241    5.433590    3.575613    ( 0.0000,  0.0000,  2.0000)
  56 Cr     7.250157    3.615183    3.623169    ( 0.0000,  0.0000,  1.5000)
  57 Fe     7.248707    5.410715    5.362099    ( 0.0000,  0.0000,  1.5000)
  58 Co     9.058230    3.565236    5.380082    ( 0.0000,  0.0000,  2.1000)
  59 Fe     9.074071    5.365323    3.589008    ( 0.0000,  0.0000,  2.1000)
[...]
  93 Ni     7.211073    5.388295    9.040181    ( 0.0000,  0.0000,  0.0000)
  94 Cr     9.095052    3.598119    8.980636    ( 0.0000,  0.0000,  2.0000)
  95 Al     9.078205    5.402416    7.227759    ( 0.0000,  0.0000,  0.0000)
  96 Cr    10.763411    7.244682    7.260285    ( 0.0000,  0.0000,  1.5000)
  97 Cr    10.795093    9.034566    8.977574    ( 0.0000,  0.0000,  2.0000)
  98 Co     1.740045    7.178947    8.984662    ( 0.0000,  0.0000,  2.1000)
  99 Co     1.734429    9.080207    7.236696    ( 0.0000,  0.0000,  1.5000)
 100 Fe     3.580482    7.154277    7.248285    ( 0.0000,  0.0000,  0.0000)
 101 Cr     3.612835    8.970898    8.958086    ( 0.0000,  0.0000,  0.0000)
 102 Al     5.410943    7.155878    9.067049    ( 0.0000,  0.0000,  0.0000)
 103 Fe     5.466441    9.064062    7.220963    ( 0.0000,  0.0000,  2.1000)
 104 Fe     7.307203    7.271549    7.289738    ( 0.0000,  0.0000,  0.0000)
 105 Ni     7.271073    9.044683    9.027879    ( 0.0000,  0.0000,  1.5000)
 106 Cr     9.081743    7.219805    9.041166    ( 0.0000,  0.0000,  2.1000)
 107 Co     9.063684    9.083009    7.213865    ( 0.0000,  0.0000,  2.0000)

Unit cell:
           periodic     x           y           z      points  spacing
  1. axis:    yes   10.820500    0.000000    0.000000    48     0.2254
  2. axis:    yes    0.000000   10.820500    0.000000    48     0.2254
  3. axis:    yes    0.000000    0.000000   10.820500    48     0.2254

  Lengths:  10.820500  10.820500  10.820500
  Angles:   90.000000  90.000000  90.000000

Effective grid spacing dv^(1/3) = 0.2254

     iter     time        total  log10-change:  magmom
                         energy  eigst   dens
iter:   1 04:15:45  -895.464267                  +128.4417
iter:   2 04:17:03  -865.416032  -0.40  -1.31    +96.2214
iter:   3 04:18:22  -844.305129  -0.94  -1.29    +68.6786
iter:   4 04:19:41  -832.696911  -1.26  -1.38    +58.7043
iter:   5 04:20:59  -826.349895  -1.85  -1.41    +53.7876
iter:   6 04:22:18  -827.187957  -1.98  -1.47    +51.7992
iter:   7 04:23:36  -826.099159  -1.66  -1.50    +50.3234
iter:   8 04:24:55  -825.599664  -1.76  -1.56    +50.2093
iter:   9 04:26:14  -828.062422  -1.82  -1.66    +50.4666
iter:  10 04:27:33  -823.307719  -2.06  -1.68    +50.0069
iter:  11 04:28:51  -824.526090  -2.29  -1.82    +50.7708
iter:  12 04:30:10  -823.128792  -2.41  -1.82    +51.2756
iter:  13 04:31:28  -823.385138  -2.65  -1.90    +52.3551
iter:  14 04:32:47  -824.479461  -2.52  -1.95    +53.2753
iter:  15 04:34:09  -824.906194  -2.52  -1.96    +53.8973
iter:  16 04:35:30  -825.161207  -2.45  -1.96    +55.0501
iter:  17 04:36:51  -824.023945  -2.77  -1.98    +55.3577
iter:  18 04:38:13  -824.866114  -2.75  -2.16    +56.2846
iter:  19 04:39:34  -824.312213  -2.95  -2.14    +56.6102
iter:  20 04:40:56  -824.459594  -3.17  -2.24    +57.4542
iter:  21 04:42:17  -824.820600  -3.03  -2.30    +57.9506
iter:  22 04:43:38  -824.757709  -3.18  -2.29    +58.1381
iter:  23 04:45:00  -824.926502  -3.20  -2.38    +58.4534
iter:  24 04:46:21  -824.895895  -3.38  -2.38    +58.5181
iter:  25 04:47:43  -824.931491c -3.39  -2.46    +58.6546
iter:  26 04:49:04  -825.028938  -3.56  -2.56    +58.6477
iter:  27 04:50:26  -825.049997  -3.81  -2.56    +58.7018
iter:  28 04:51:47  -825.150181  -3.84  -2.62    +58.6558
iter:  29 04:53:09  -825.178749  -4.04  -2.60    +58.6112
iter:  30 04:54:30  -825.265593  -3.97  -2.63    +58.5233
iter:  31 04:55:52  -825.340705  -4.04  -2.66    +58.4053
iter:  32 04:57:13  -825.380159  -4.09  -2.65    +58.2732
iter:  33 04:58:35  -825.472558  -3.91  -2.72    +57.9406
iter:  34 04:59:56  -825.508424  -3.88  -2.75    +57.8277
iter:  35 05:01:18  -825.554676c -3.97  -2.89    +57.5075
iter:  36 05:02:39  -825.605281  -4.24  -2.98    +57.3247
iter:  37 05:04:01  -825.638805c -4.33  -2.99    +57.1502
iter:  38 05:05:22  -825.747979  -3.88  -3.03    +56.6771
iter:  39 05:06:44  -825.912879  -3.63  -2.95    +56.1462
iter:  40 05:08:06  -825.871407  -4.82  -2.81    +56.3576
iter:  41 05:09:27  -826.020851  -3.71  -2.83    +55.7768
iter:  42 05:10:49  -826.132628  -3.49  -2.72    +55.1790
iter:  43 05:12:10  -826.149682  -3.71  -2.68    +54.8877
iter:  44 05:13:32  -826.270156  -3.82  -2.66    +54.6973
iter:  45 05:14:53  -826.275082  -4.33  -2.53    +54.7499
iter:  46 05:16:15  -826.233005c -3.51  -2.53    +54.6166
iter:  47 05:17:36  -826.155390  -3.34  -2.53    +54.6325
iter:  48 05:18:57  -826.013698  -3.81  -2.60    +54.3797
iter:  49 05:20:19  -826.045948  -4.11  -2.78    +54.3533
iter:  50 05:21:40  -826.029268c -4.31  -2.76    +54.3117
iter:  51 05:23:02  -826.036698c -4.31  -2.82    +54.3625
iter:  52 05:24:23  -826.032221c -4.23  -2.83    +54.3699
iter:  53 05:25:44  -826.020576c -4.43  -2.96    +54.3857
iter:  54 05:27:06  -826.024927c -4.35  -3.14    +54.4460
iter:  55 05:28:28  -826.018214c -4.65  -3.09    +54.4507
iter:  56 05:29:50  -826.015103c -5.00  -3.18    +54.4836
iter:  57 05:31:11  -826.017340c -5.25  -3.29    +54.5342
iter:  58 05:32:33  -826.019493c -5.35  -3.31    +54.5614
iter:  59 05:33:54  -826.021465c -5.19  -3.34    +54.6089
iter:  60 05:35:16  -826.020454c -5.56  -3.35    +54.6443
iter:  61 05:36:37  -826.022255c -5.48  -3.43    +54.6663
iter:  62 05:37:59  -826.022571c -5.44  -3.49    +54.6847
iter:  63 05:39:20  -826.021760c -5.80  -3.54    +54.7039
iter:  64 05:40:42  -826.023061c -5.81  -3.63    +54.7468
iter:  65 05:42:03  -826.023737c -6.03  -3.66    +54.7730
iter:  66 05:43:25  -826.024586c -5.87  -3.68    +54.8191
iter:  67 05:44:47  -826.025661c -5.95  -3.67    +54.8608
iter:  68 05:46:08  -826.027150c -5.65  -3.72    +54.9154
iter:  69 05:47:30  -826.027388c -6.26  -3.70    +54.9335
iter:  70 05:48:51  -826.028960c -5.77  -3.72    +54.9925
iter:  71 05:50:13  -826.029321c -6.09  -3.67    +54.9834
iter:  72 05:51:34  -826.030348c -5.79  -3.66    +55.0264
iter:  73 05:52:56  -826.031091c -6.25  -3.63    +55.0479
iter:  74 05:54:18  -826.032174c -5.89  -3.62    +55.0588
iter:  75 05:55:39  -826.031206c -5.63  -3.62    +55.0941
iter:  76 05:57:00  -826.031215c -6.17  -3.61    +55.0942
iter:  77 05:58:22  -826.033339c -5.54  -3.67    +55.0997
iter:  78 05:59:44  -826.032269c -5.76  -3.61    +55.0974
iter:  79 06:01:05  -826.032030c -6.14  -3.73    +55.1002
iter:  80 06:02:27  -826.032287c -6.09  -3.82    +55.1005
iter:  81 06:03:49  -826.032306c -6.39  -3.96    +55.1026
iter:  82 06:05:10  -826.032905c -6.30  -3.93    +55.1012
iter:  83 06:06:32  -826.032729c -6.57  -3.94    +55.1020
iter:  84 06:07:54  -826.033122c -6.61  -3.98    +55.1067
iter:  85 06:09:15  -826.033394c -6.50  -4.00    +55.1138
iter:  86 06:10:37  -826.033643c -6.43  -4.00    +55.1189
iter:  87 06:11:59  -826.034116c -6.22  -4.07c   +55.1322
iter:  88 06:13:21  -826.034071c -6.58  -4.00c   +55.1291
iter:  89 06:14:42  -826.033951c -6.54  -4.10c   +55.1278
iter:  90 06:16:04  -826.034283c -6.87  -4.15c   +55.1338
iter:  91 06:17:26  -826.034360c -6.80  -4.18c   +55.1446
iter:  92 06:18:48  -826.034631c -6.64  -4.26c   +55.1564
iter:  93 06:20:09  -826.034744c -6.83  -4.25c   +55.1600
iter:  94 06:21:31  -826.034961c -6.70  -4.35c   +55.1660
iter:  95 06:22:53  -826.034806c -7.22  -4.39c   +55.1615
iter:  96 06:24:15  -826.034852c -7.37  -4.43c   +55.1580
iter:  97 06:25:36  -826.035064c -7.05  -4.45c   +55.1690
iter:  98 06:26:58  -826.035335c -6.56  -4.49c   +55.1846
iter:  99 06:28:19  -826.035357c -7.22  -4.50c   +55.1860
iter: 100 06:29:41  -826.035646c -6.80  -4.60c   +55.1950
iter: 101 06:31:03  -826.035722c -7.15  -4.53c   +55.1989
iter: 102 06:32:25  -826.036064c -6.51  -4.59c   +55.2107
iter: 103 06:33:46  -826.035974c -7.60c -4.54c   +55.2085

Converged after 103 iterations.

Dipole moment: (28.623951, -2.628639, -10.614419) |e|*Ang

Total magnetic moment: (0.000000, 0.000000, 55.208507)
Local magnetic moments:
   0 Fe ( 0.000000,  0.000000,  2.278108)
   1 Co ( 0.000000,  0.000000,  1.360527)
   2 Fe ( 0.000000,  0.000000,  2.281248)
   3 Al ( 0.000000,  0.000000, -0.045171)
   4 Fe ( 0.000000,  0.000000,  2.392303)
   5 Fe ( 0.000000,  0.000000,  2.428657)
   6 Fe ( 0.000000,  0.000000,  2.029022)
   7 Cr ( 0.000000,  0.000000, -2.380832)
   8 Co ( 0.000000,  0.000000,  0.933132)
   9 Al ( 0.000000,  0.000000, -0.009505)
  10 Ni ( 0.000000,  0.000000,  0.138603)
  11 Ni ( 0.000000,  0.000000,  0.087157)
  12 Ni ( 0.000000,  0.000000,  0.197259)
  13 Al ( 0.000000,  0.000000, -0.039171)
  14 Co ( 0.000000,  0.000000,  1.293808)
  15 Fe ( 0.000000,  0.000000,  2.114925)
  16 Co ( 0.000000,  0.000000,  1.296253)
  17 Co ( 0.000000,  0.000000,  1.087530)
  18 Ni ( 0.000000,  0.000000,  0.252632)
  19 Fe ( 0.000000,  0.000000,  2.348534)
  20 Ni ( 0.000000,  0.000000,  0.099929)
  21 Co ( 0.000000,  0.000000,  1.206599)
  22 Al ( 0.000000,  0.000000, -0.023463)
  23 Fe ( 0.000000,  0.000000,  2.088304)
  24 Fe ( 0.000000,  0.000000,  1.674560)
  25 Co ( 0.000000,  0.000000,  0.880596)
  26 Cr ( 0.000000,  0.000000, -1.880760)
  27 Ni ( 0.000000,  0.000000,  0.101582)
  28 Al ( 0.000000,  0.000000, -0.006700)
  29 Al ( 0.000000,  0.000000, -0.027725)
  30 Ni ( 0.000000,  0.000000,  0.298923)
  31 Cr ( 0.000000,  0.000000,  1.646560)
  32 Co ( 0.000000,  0.000000,  0.939658)
  33 Cr ( 0.000000,  0.000000, -1.045294)
  34 Cr ( 0.000000,  0.000000, -1.578346)
  35 Co ( 0.000000,  0.000000,  0.930912)
  36 Cr ( 0.000000,  0.000000, -1.177560)
  37 Al ( 0.000000,  0.000000, -0.031220)
  38 Ni ( 0.000000,  0.000000,  0.110785)
  39 Co ( 0.000000,  0.000000,  1.083669)
  40 Al ( 0.000000,  0.000000, -0.027967)
  41 Cr ( 0.000000,  0.000000, -1.996403)
  42 Al ( 0.000000,  0.000000, -0.016829)
  43 Fe ( 0.000000,  0.000000,  1.881114)
  44 Al ( 0.000000,  0.000000, -0.026013)
  45 Co ( 0.000000,  0.000000,  0.880999)
  46 Fe ( 0.000000,  0.000000,  2.047140)
  47 Ni ( 0.000000,  0.000000,  0.153839)
  48 Ni ( 0.000000,  0.000000,  0.362362)
  49 Ni ( 0.000000,  0.000000,  0.241579)
  50 Fe ( 0.000000,  0.000000,  2.304872)
  51 Fe ( 0.000000,  0.000000,  2.330898)
  52 Co ( 0.000000,  0.000000,  1.221276)
  53 Cr ( 0.000000,  0.000000, -2.002891)
  54 Cr ( 0.000000,  0.000000,  1.234498)
  55 Cr ( 0.000000,  0.000000,  1.176836)
  56 Cr ( 0.000000,  0.000000, -1.647147)
  57 Fe ( 0.000000,  0.000000,  2.237616)
  58 Co ( 0.000000,  0.000000,  1.181121)
  59 Fe ( 0.000000,  0.000000,  2.121486)
[...]
  93 Ni ( 0.000000,  0.000000,  0.322556)
  94 Cr ( 0.000000,  0.000000,  1.470421)
  95 Al ( 0.000000,  0.000000, -0.011364)
  96 Cr ( 0.000000,  0.000000,  1.242061)
  97 Cr ( 0.000000,  0.000000, -0.832759)
  98 Co ( 0.000000,  0.000000,  0.115890)
  99 Co ( 0.000000,  0.000000,  0.781504)
 100 Fe ( 0.000000,  0.000000,  1.919953)
 101 Cr ( 0.000000,  0.000000, -2.240156)
 102 Al ( 0.000000,  0.000000, -0.026072)
 103 Fe ( 0.000000,  0.000000,  2.074509)
 104 Fe ( 0.000000,  0.000000,  2.428638)
 105 Ni ( 0.000000,  0.000000,  0.268710)
 106 Cr ( 0.000000,  0.000000, -1.419998)
 107 Co ( 0.000000,  0.000000,  0.899846)

Energy contributions relative to reference atoms: (reference = -3382523.201499)

Kinetic:       +222.971098
Potential:     -230.896949
External:        +0.000000
XC:            -849.308568
Entropy (-ST):   -4.161896
Local:          +33.279394
Free energy:   -828.116922
Extrapolated:  -826.035974

Spin contamination: 31.499064 electrons
Showing only first 2 kpts
                      Up                     Down
 Kpt  Band  Eigenvalues  Occupancy  Eigenvalues  Occupancy
  0   470      9.15439    0.99510     10.00757    0.03849
  0   471      9.16683    0.99445     10.03724    0.02889
  0   472      9.18955    0.99305     10.04350    0.02719
  0   473      9.20681    0.99175     10.06078    0.02297

  1   470      9.14989    0.99531     10.03270    0.03019
  1   471      9.18146    0.99359     10.04263    0.02742
  1   472      9.18872    0.99311     10.06495    0.02205
  1   473      9.20255    0.99209     10.08020    0.01899

Fermi level: 9.68575

No gap

Forces in eV/Ang:
  0 Fe    0.00588   -0.70075    0.17594
  1 Co    0.61710   -0.20883    0.17295
  2 Fe   -0.20534   -0.22106   -0.38192
  3 Al    0.28323    0.07924   -0.21086
  4 Fe    0.08905   -0.18243   -0.73562
  5 Fe    0.02462    0.77971   -0.18410
  6 Fe    0.39139    0.26869   -0.79542
  7 Cr   -1.04098   -0.90146   -0.85011
  8 Co   -0.56870    0.33198   -0.48143
  9 Al   -0.24212   -0.68832   -1.44089
 10 Ni   -0.19251   -0.28593   -0.26283
 11 Ni   -0.26288   -0.25157   -0.41613
 12 Ni   -0.30784    0.51349    0.09396
 13 Al    0.89735   -0.47697   -0.21895
 14 Co    0.56658    0.15482    0.83006
 15 Fe   -0.10002   -0.23636    0.04770
 16 Co    0.44412    0.09539    0.27211
 17 Co   -0.42571   -0.57826    0.67236
 18 Ni   -0.46461   -0.15488    0.00757
 19 Fe    0.29009   -0.60502    0.50081
 20 Ni   -0.17532   -0.05780   -0.40456
 21 Co    0.03291    0.59321    0.09185
 22 Al    0.44912   -0.23437   -0.70913
 23 Fe   -0.55632    0.73470   -0.43273
 24 Fe    0.28589    0.23281   -0.09974
 25 Co    0.16466   -0.08564   -0.17835
 26 Cr   -0.61523    0.19921    0.11380
 27 Ni    0.79735    0.39729   -0.31682
 28 Al   -1.02648    0.14093    0.32199
 29 Al   -0.39733    0.25424   -0.75110
 30 Ni   -0.07809    0.12539    0.43270
 31 Cr    0.90402    1.02906   -0.51077
 32 Co    0.45743   -0.18513    0.14531
 33 Cr    0.05910    0.01304   -0.46112
 34 Cr   -0.67128    0.49517   -0.14651
 35 Co   -0.28316    0.07846    0.19615
 36 Cr    0.02378   -0.81805   -0.93811
 37 Al   -0.07402    0.17727   -0.28800
 38 Ni    0.25548   -0.06288    0.11762
 39 Co    0.35218    0.58764   -0.21928
 40 Al   -0.54590    0.83801   -0.24726
 41 Cr   -0.38650    1.47907    0.09199
 42 Al    0.35154   -0.04187    0.61285
 43 Fe   -0.46979    0.55340    0.04036
 44 Al    0.71714   -0.36375    0.05719
 45 Co    0.14184    0.53721    0.45176
 46 Fe    0.00048   -0.43974    0.10260
 47 Ni   -0.11615   -0.11440    0.06022
 48 Ni    0.55476    0.31595   -0.18954
 49 Ni    0.25417    0.15371   -0.36192
 50 Fe    0.79267    0.42427   -0.32995
 51 Fe    1.28139   -0.22372    0.16071
 52 Co   -0.35540   -0.00512    0.01687
 53 Cr   -0.01275   -0.87213   -0.11116
 54 Cr   -0.13634    0.11174    0.38822
 55 Cr   -0.12205   -0.44936   -0.38851
 56 Cr   -0.92601    0.61820    1.27864
 57 Fe    0.25720    0.08783    0.18379
 58 Co   -0.64009    0.06790    0.31544
 59 Fe   -0.48939    0.56119    0.68709
[...]
 93 Ni    0.30470   -0.17787   -0.25887
 94 Cr    0.27054    0.18557    0.40739
 95 Al   -1.34815   -0.17148   -0.91976
 96 Cr    0.13743    0.43887    0.83343
 97 Cr    0.63039    0.15007    0.31954
 98 Co    0.19512    0.28320   -0.14092
 99 Co    0.33658   -0.22037    0.26343
100 Fe   -0.53010    0.51476    0.10407
101 Cr   -0.65015    1.00644    0.25294
102 Al    1.37982    0.10849   -1.22123
103 Fe   -0.30923   -0.47305    0.42585
104 Fe   -0.07245   -0.00946   -0.48607
105 Ni    0.14871    0.16585    0.17017
106 Cr   -0.92901    0.53353    0.47081
107 Co   -0.45655   -0.17213   -0.05515

Date: Mon Apr 17 06:34:05 2023