User:   c.zeng@d0127
Date:   Fri Apr 14 01:24:47 2023
Arch:   x86_64
Pid:    134356
CWD:    /home/c.zeng/projects/hea-corrosion/hea-mlp/data-curation/bulk-md/dft-jobs/81
Python: 3.8.1
gpaw:   /home/c.zeng/usr/installs/gpaw/source/gpaw-22.8.0/gpaw
_gpaw:  /home/c.zeng/usr/installs/gpaw/source/gpaw-22.8.0/
        _gpaw.cpython-38-x86_64-linux-gnu.so
ase:    /home/c.zeng/.local/lib/python3.8/site-packages/ase-3.22.1-py3.8.egg/ase (version 3.22.1)
numpy:  /shared/centos7/python/3.8.1/lib/python3.8/site-packages/numpy (version 1.17.4)
scipy:  /shared/centos7/python/3.8.1/lib/python3.8/site-packages/scipy (version 1.4.1)
units:  Angstrom and eV
cores: 30
OpenMP: False
OMP_NUM_THREADS: 1

Input parameters:
  convergence: {energy: 0.0001}
  kpts: [2 2 2]
  maxiter: 666
  mode: {ecut: 350.0,
         name: pw}
  occupations: {fixmagmom: False,
                name: fermi-dirac,
                width: 0.1}
  spinpol: True
  xc: PBE

System changes: positions, numbers, cell, pbc, initial_charges, initial_magmoms

Initialize ...

species:
  Al:
    name: Aluminium
    id: 0292cae29f5d6237e50f6abdd43a7bdd
    Z: 13.0
    valence: 3
    core: 10
    charge: 0.0
    file: /home/c.zeng/usr/data/gpaw-setups-0.9.20000/Al.PBE.gz
    compensation charges: {type: gauss,
                           rc: 0.34,
                           lmax: 2}
    cutoffs: {filter: 1.91,
              core: 2.36}
    valence states:
      #              energy  rcut
      - 3s(2.00)    -7.753   1.085
      - 3p(1.00)    -2.712   1.085
      -  s          19.459   1.085
      -  p          24.499   1.085
      -  d           0.000   1.085

    # Using partial waves for Al as LCAO basis

  Fe:
    name: Iron
    id: 37abbd8d6c3c35915a9b583b742da910
    Z: 26.0
    valence: 8
    core: 18
    charge: 0.0
    file: /home/c.zeng/usr/data/gpaw-setups-0.9.20000/Fe.PBE.gz
    compensation charges: {type: gauss,
                           rc: 0.33,
                           lmax: 2}
    cutoffs: {filter: 2.06,
              core: 2.67}
    valence states:
      #              energy  rcut
      - 4s(2.00)    -5.291   1.164
      - 4p(0.00)    -1.326   1.058
      - 3d(6.00)    -7.505   1.058
      -  s          21.920   1.164
      -  p          25.885   1.058
      -  d          19.706   1.058

[...]

  Cr:
    name: Chromium
    id: 33f258bda2ca9f93018e70263a35547b
    Z: 24.0
    valence: 6
    core: 18
    charge: 0.0
    file: /home/c.zeng/usr/data/gpaw-setups-0.9.20000/Cr.PBE.gz
    compensation charges: {type: gauss,
                           rc: 0.35,
                           lmax: 2}
    cutoffs: {filter: 2.14,
              core: 3.04}
    valence states:
      #              energy  rcut
      - 4s(1.00)    -4.007   1.164
      - 4p(0.00)    -0.989   1.217
      - 3d(5.00)    -2.913   1.111
      -  s          23.205   1.164
      -  p          26.223   1.217
      -  d          24.299   1.111

[...]

  Ni:
    name: Nickel
    id: 0d9f38a9d6e76a2886f07bb4381f212b
    Z: 28.0
    valence: 16
    core: 12
    charge: 0.0
    file: /home/c.zeng/usr/data/gpaw-setups-0.9.20000/Ni.PBE.gz
    compensation charges: {type: gauss,
                           rc: 0.36,
                           lmax: 2}
    cutoffs: {filter: 2.14,
              core: 1.98}
    valence states:
      #              energy  rcut
      - 4s(2.00)    -5.642   1.164
      - 3p(6.00)   -71.394   1.207
      - 4p(0.00)    -1.226   1.207
      - 3d(8.00)    -8.875   1.138
      -  s          21.570   1.164
      -  d          18.337   1.138

[...]

  Co:
    name: Cobalt
    id: 339d20d5b0b93d2de9531a1bee871d91
    Z: 27.0
    valence: 9
    core: 18
    charge: 0.0
    file: /home/c.zeng/usr/data/gpaw-setups-0.9.20000/Co.PBE.gz
    compensation charges: {type: gauss,
                           rc: 0.32,
                           lmax: 2}
    cutoffs: {filter: 1.87,
              core: 2.55}
    valence states:
      #              energy  rcut
      - 4s(2.00)    -5.469   1.005
      - 4p(0.00)    -1.277   1.058
      - 3d(7.00)    -8.205   1.005
      -  s          21.742   1.005
      -  p          25.934   1.058
      -  d          19.007   1.005

    # Using partial waves for Co as LCAO basis

Reference energy: -3235165.067515  # eV

Spin-polarized calculation.
Magnetic moment: 121.100000

Convergence criteria:
 Maximum [total energy] change in last 3 cyles: 0.0001 eV / electron
 Maximum integral of absolute [dens]ity change: 0.0001 electrons / valence electron
 Maximum integral of absolute [eigenst]ate change: 4e-08 eV^2 / valence electron
 Maximum number of scf [iter]ations: 666
 (Square brackets indicate name in SCF output, whereas a 'c' in
 the SCF output indicates the quantity has converged.)

Symmetries present (total): 1

  ( 1  0  0)
  ( 0  1  0)
  ( 0  0  1)

8 k-points: 2 x 2 x 2 Monkhorst-Pack grid
4 k-points in the irreducible part of the Brillouin zone
       k-points in crystal coordinates                weights
   0:     0.25000000   -0.25000000   -0.25000000          2/8
   1:     0.25000000   -0.25000000    0.25000000          2/8
   2:     0.25000000    0.25000000   -0.25000000          2/8
   3:     0.25000000    0.25000000    0.25000000          2/8

Wave functions: Plane wave expansion
  Cutoff energy: 350.000 eV
  Number of coefficients (min, max): 19084, 19084
  Pulay-stress correction: 0.000000 eV/Ang^3 (de/decut=0.000000)
  Using FFTW library
  ScaLapack parameters: grid=1x1, blocksize=None
  Wavefunction extrapolation:
    Improved wavefunction reuse through dual PAW basis

Occupation numbers: Fermi-Dirac:
  width: 0.1000  # eV

Eigensolver
   Davidson(niter=2)

Densities:
  Coarse grid: 48*48*48 grid
  Fine grid: 96*96*96 grid
  Total Charge: 0.000000

Density mixing:
  Method: difference
  Backend: pulay
  Linear mixing parameter: 0.05
  old densities: 5
  Damping of long wavelength oscillations: 50

Hamiltonian:
  XC and Coulomb potentials evaluated on a 96*96*96 grid
  Using the PBE Exchange-Correlation functional
  External potential:
    NoExternalPotential

XC parameters: PBE with 2 nearest neighbor stencil

Total number of cores used: 30
Parallelization over k-points: 2
Domain decomposition: 5 x 3 x 1

Number of atoms: 108
Number of atomic orbitals: 933
Number of bands in calculation: 624
Number of valence electrons: 912
Bands to converge: occupied

... initialized

Initializing position-dependent things.

Density initialized from atomic densities
Creating initial wave functions:
  624 bands from LCAO basis set

        .--------Ni----------------.
       /|  Cr       Ni        Ni   |
      / |   Cr Fe                  |
     /  |Co     Co       Ni        |
    /  Al         Co               |
   /Fe  | FeFe      Ale    AlCr    |
  /    Cr   CrAl      Co       Cr  |
 *      Cr     FeCoFe CrCoNi    Al |
 |      Al Al   NiNi Fe  NiFeAl   Cr
 |      | FeCr CoAlCo CrNiAlFeCr   Fe
 |     Co  Fe NiCr   CrCFe   CrFe  |
 |      Al   CrAlNiNi AlNiNi    Co |
 |     AlCoAl   NCo Co   CrCCo     |
 |CoFe  AlNiCo-----NiAlCr---Fe-----.
 |   Co/     AlAl      CoNi       /
 |    Ni                Co       /
 |   /  Cr       Fee      AlFe  /
 |  /      Al       Co       Fe/
 | /                 CrNi     /
 |/             Ni       Fe  /

Positions:
   0 Al    11.043705   -0.087009    0.063332    ( 0.0000,  0.0000,  0.0000)
   1 Fe    10.852800    1.697176    1.991759    ( 0.0000,  0.0000,  2.0000)
   2 Cr     1.993368   10.579077    1.858505    ( 0.0000,  0.0000,  0.0000)
   3 Cr     1.793829    1.769854   -0.292972    ( 0.0000,  0.0000,  0.0000)
   4 Ni     3.497557   10.766469   10.842697    ( 0.0000,  0.0000,  1.5000)
   5 Al     3.482023    1.770608    1.670919    ( 0.0000,  0.0000,  0.0000)
   6 Al     5.464920   10.774135    1.679698    ( 0.0000,  0.0000,  0.0000)
   7 Ni     5.550587    1.781601   10.880652    ( 0.0000,  0.0000,  1.5000)
   8 Fe     7.299747    0.017104   10.781257    ( 0.0000,  0.0000,  2.0000)
   9 Co     7.235636    1.873775    1.805399    ( 0.0000,  0.0000,  2.1000)
  10 Ni     8.832763    0.055676    1.734595    ( 0.0000,  0.0000,  1.5000)
  11 Fe     9.080613    1.906749   10.872864    ( 0.0000,  0.0000,  2.0000)
  12 Fe    11.101107    3.683078   -0.095551    ( 0.0000,  0.0000,  2.0000)
  13 Co    10.968257    5.422059    2.061472    ( 0.0000,  0.0000,  2.1000)
  14 Cr     1.915345    3.527780    1.863912    ( 0.0000,  0.0000,  0.0000)
  15 Co     1.673969    5.611428   10.837617    ( 0.0000,  0.0000,  2.1000)
  16 Fe     3.409058    3.753397   -0.029587    ( 0.0000,  0.0000,  2.0000)
  17 Al     3.497943    5.520661    1.761405    ( 0.0000,  0.0000,  0.0000)
  18 Fe     5.447215    3.692819    1.681950    ( 0.0000,  0.0000,  2.0000)
  19 Fe     5.510967    5.437983    0.072951    ( 0.0000,  0.0000,  2.0000)
  20 Cr     7.081062    3.692149   10.907904    ( 0.0000,  0.0000,  0.0000)
  21 Co     7.289553    5.459701    1.671651    ( 0.0000,  0.0000,  2.1000)
  22 Al     9.165460    3.630653    1.767105    ( 0.0000,  0.0000,  0.0000)
  23 Fe     9.273124    5.529360    0.093261    ( 0.0000,  0.0000,  2.0000)
  24 Ni    10.880301    7.343367    0.109956    ( 0.0000,  0.0000,  1.5000)
  25 Al     0.049386    9.007938    1.967928    ( 0.0000,  0.0000,  0.0000)
  26 Ni     1.863895    7.253950    1.960410    ( 0.0000,  0.0000,  1.5000)
  27 Cr     1.869725    8.900247   10.773638    ( 0.0000,  0.0000,  0.0000)
  28 Fe     3.697954    7.259176   -0.046464    ( 0.0000,  0.0000,  2.0000)
  29 Ni     3.628366    9.092837    1.723922    ( 0.0000,  0.0000,  1.5000)
  30 Ni     5.483612    7.387602    1.699493    ( 0.0000,  0.0000,  1.5000)
  31 Ni     5.298124    9.203245   10.805525    ( 0.0000,  0.0000,  1.5000)
  32 Co     7.277142    7.292627    0.070120    ( 0.0000,  0.0000,  2.1000)
  33 Cr     7.400569    9.119876    1.605898    ( 0.0000,  0.0000,  0.0000)
  34 Fe     9.111203    7.147167    1.851078    ( 0.0000,  0.0000,  2.0000)
  35 Ni     9.161691    9.080971   -0.126817    ( 0.0000,  0.0000,  1.5000)
  36 Fe    -0.058795   -0.087136    3.664171    ( 0.0000,  0.0000,  2.0000)
  37 Co    10.942590    1.618361    5.382818    ( 0.0000,  0.0000,  2.1000)
  38 Cr     1.804941   10.784801    5.716020    ( 0.0000,  0.0000,  0.0000)
  39 Ni     1.699847    1.689245    3.676681    ( 0.0000,  0.0000,  1.5000)
  40 Al     3.591671   10.598345    3.717010    ( 0.0000,  0.0000,  0.0000)
  41 Al     3.560248    1.879784    5.540324    ( 0.0000,  0.0000,  0.0000)
  42 Cr     5.593863   10.745243    5.477832    ( 0.0000,  0.0000,  0.0000)
  43 Al     5.267366    1.791375    3.668712    ( 0.0000,  0.0000,  0.0000)
  44 Al     7.327422   10.748577    3.574605    ( 0.0000,  0.0000,  0.0000)
  45 Co     7.168481    1.807746    5.524870    ( 0.0000,  0.0000,  2.1000)
  46 Cr     8.934228    0.016730    5.441740    ( 0.0000,  0.0000,  0.0000)
  47 Ni     9.003687    1.893946    3.841081    ( 0.0000,  0.0000,  1.5000)
  48 Fe     0.124960    3.663158    3.594695    ( 0.0000,  0.0000,  2.0000)
  49 Fe    10.714509    5.584435    5.315583    ( 0.0000,  0.0000,  2.0000)
  50 Al     1.718080    3.706940    5.334732    ( 0.0000,  0.0000,  0.0000)
  51 Co     1.861570    5.415621    3.672639    ( 0.0000,  0.0000,  2.1000)
[...]
  54 Ni     5.330183    3.640325    5.475342    ( 0.0000,  0.0000,  1.5000)
  55 Co     5.183485    5.448263    3.608497    ( 0.0000,  0.0000,  2.1000)
  56 Al     7.107350    3.577449    3.610913    ( 0.0000,  0.0000,  0.0000)
  57 Cr     7.267383    5.370733    5.353952    ( 0.0000,  0.0000,  0.0000)
  58 Ni     9.144417    3.677621    5.372230    ( 0.0000,  0.0000,  1.5000)
  59 Cr     8.985498    5.475519    3.532784    ( 0.0000,  0.0000,  0.0000)
[...]
  93 Co     7.269261    5.331303    9.036332    ( 0.0000,  0.0000,  2.1000)
  94 Ni     9.042627    3.705390    9.246666    ( 0.0000,  0.0000,  1.5000)
  95 Fe     8.963667    5.289572    7.185187    ( 0.0000,  0.0000,  2.0000)
  96 Al    -0.336102    7.306076    7.057378    ( 0.0000,  0.0000,  0.0000)
  97 Al     0.007585    8.941124    8.898724    ( 0.0000,  0.0000,  0.0000)
  98 Fe     1.770810    7.071182    9.112819    ( 0.0000,  0.0000,  2.0000)
  99 Co     1.780157    8.817828    7.430347    ( 0.0000,  0.0000,  2.1000)
 100 Fe     3.891867    7.376982    7.243192    ( 0.0000,  0.0000,  2.0000)
 101 Co     3.625506    9.047913    8.955405    ( 0.0000,  0.0000,  2.1000)
 102 Al     5.667224    7.272691    9.005620    ( 0.0000,  0.0000,  0.0000)
 103 Fe     5.716263    9.121893    7.237185    ( 0.0000,  0.0000,  2.0000)
 104 Co     7.379112    7.237880    7.094484    ( 0.0000,  0.0000,  2.1000)
 105 Ni     7.341903    9.334054    9.069567    ( 0.0000,  0.0000,  1.5000)
 106 Al     8.660163    7.072277    9.125388    ( 0.0000,  0.0000,  0.0000)
 107 Cr     8.960693    9.132497    7.265779    ( 0.0000,  0.0000,  0.0000)

Unit cell:
           periodic     x           y           z      points  spacing
  1. axis:    yes   10.872400    0.000000    0.000000    48     0.2265
  2. axis:    yes    0.000000   10.872400    0.000000    48     0.2265
  3. axis:    yes    0.000000    0.000000   10.872400    48     0.2265

  Lengths:  10.872400  10.872400  10.872400
  Angles:   90.000000  90.000000  90.000000

Effective grid spacing dv^(1/3) = 0.2265

     iter     time        total  log10-change:  magmom
                         energy  eigst   dens
iter:   1 01:28:38  -965.611123                  +121.3864
iter:   2 01:30:05  -851.964427  -0.19  -1.17    +64.5009
iter:   3 01:31:33  -839.102229  -0.85  -1.20    +55.2149
iter:   4 01:33:00  -821.633577  -1.24  -1.26    +51.2408
iter:   5 01:34:28  -811.877209  -1.51  -1.29    +49.0359
iter:   6 01:35:55  -804.636698  -1.35  -1.35    +49.2538
iter:   7 01:37:23  -807.915975  -1.33  -1.48    +48.9557
iter:   8 01:38:51  -802.938186  -1.63  -1.52    +49.5976
iter:   9 01:40:18  -798.622207  -2.05  -1.63    +50.4244
iter:  10 01:41:46  -798.493627  -2.47  -1.76    +51.1748
iter:  11 01:43:13  -798.757381  -2.48  -1.79    +52.1713
iter:  12 01:44:41  -799.491792  -2.44  -1.84    +53.4380
iter:  13 01:46:08  -799.742109  -2.45  -1.88    +53.8023
iter:  14 01:47:36  -799.119046  -2.69  -1.90    +54.5704
iter:  15 01:49:03  -799.234827  -2.92  -1.99    +55.2803
iter:  16 01:50:31  -799.397997  -2.95  -2.04    +55.4934
iter:  17 01:51:58  -799.358398  -2.93  -2.08    +55.9836
iter:  18 01:53:26  -799.279175  -3.05  -2.14    +56.1792
iter:  19 01:54:53  -799.388739  -3.12  -2.23    +56.3069
iter:  20 01:56:21  -799.288851  -3.29  -2.25    +56.4158
iter:  21 01:57:49  -799.361894  -3.33  -2.33    +56.4376
iter:  22 01:59:16  -799.382045  -3.34  -2.37    +56.3662
iter:  23 02:00:44  -799.379966c -3.56  -2.41    +56.3716
iter:  24 02:02:11  -799.419248c -3.65  -2.46    +56.2159
iter:  25 02:03:39  -799.472928  -3.73  -2.48    +56.1536
iter:  26 02:05:06  -799.503455c -3.82  -2.52    +55.9617
iter:  27 02:06:34  -799.541301c -3.85  -2.54    +55.7255
iter:  28 02:08:02  -799.560562c -3.99  -2.57    +55.6412
iter:  29 02:09:29  -799.585966c -3.98  -2.60    +55.4327
iter:  30 02:10:56  -799.601528c -4.10  -2.65    +55.2770
iter:  31 02:12:24  -799.617792c -4.19  -2.67    +55.1891
iter:  32 02:13:51  -799.633425c -4.35  -2.72    +55.0603
iter:  33 02:15:19  -799.656808c -4.28  -2.75    +54.8685
iter:  34 02:16:46  -799.667653c -4.49  -2.78    +54.8344
iter:  35 02:18:13  -799.689354c -4.41  -2.81    +54.6989
iter:  36 02:19:41  -799.691287c -4.44  -2.85    +54.6691
iter:  37 02:21:09  -799.703891c -4.56  -2.87    +54.6079
iter:  38 02:22:36  -799.712193c -4.65  -2.92    +54.5648
iter:  39 02:24:04  -799.724098c -4.61  -2.94    +54.5300
iter:  40 02:25:31  -799.730605c -4.78  -2.98    +54.5033
iter:  41 02:26:59  -799.743371c -4.69  -3.01    +54.4503
iter:  42 02:28:26  -799.744947c -4.86  -3.04    +54.4468
iter:  43 02:29:54  -799.756722c -4.80  -3.07    +54.3989
iter:  44 02:31:21  -799.755319c -5.04  -3.10    +54.3981
iter:  45 02:32:49  -799.766205c -4.92  -3.13    +54.3938
iter:  46 02:34:16  -799.766810c -5.18  -3.18    +54.3916
iter:  47 02:35:44  -799.777107c -4.94  -3.19    +54.3601
iter:  48 02:37:11  -799.774621c -5.28  -3.24    +54.3566
iter:  49 02:38:39  -799.784089c -5.08  -3.26    +54.3052
iter:  50 02:40:06  -799.777880c -5.49  -3.30    +54.3328
iter:  51 02:41:34  -799.774646c -5.25  -3.32    +54.3552
iter:  52 02:43:01  -799.788491c -5.06  -3.35    +54.3227
iter:  53 02:44:29  -799.769152c -4.72  -3.38    +54.3789
iter:  54 02:45:57  -799.758116c -4.57  -3.39    +54.3495
iter:  55 02:47:24  -799.757063c -4.91  -3.32    +54.3446
iter:  56 02:48:52  -799.763696c -4.52  -3.34    +54.3589
iter:  57 02:50:19  -799.774269c -4.25  -3.36    +54.3904
iter:  58 02:51:47  -799.782460c -4.57  -3.30    +54.4503
iter:  59 02:53:14  -799.783997c -4.88  -3.27    +54.4564
iter:  60 02:54:41  -799.785250c -4.84  -3.21    +54.5796
iter:  61 02:56:09  -799.787994c -4.87  -3.29    +54.7308
iter:  62 02:57:37  -799.787592c -5.24  -3.26    +54.6733
iter:  63 02:59:04  -799.788793c -4.96  -3.32    +54.7625
iter:  64 03:00:32  -799.788136c -5.58  -3.27    +54.7464
iter:  65 03:01:59  -799.790507c -5.39  -3.38    +54.7968
iter:  66 03:03:27  -799.792008c -5.51  -3.38    +54.8036
iter:  67 03:04:54  -799.791995c -5.53  -3.40    +54.8333
iter:  68 03:06:22  -799.792212c -5.72  -3.45    +54.8217
iter:  69 03:07:49  -799.795689c -5.30  -3.46    +54.8819
iter:  70 03:09:17  -799.794183c -5.70  -3.48    +54.8947
iter:  71 03:10:44  -799.797678c -5.48  -3.53    +54.9611
iter:  72 03:12:12  -799.797315c -5.92  -3.52    +54.9675
iter:  73 03:13:40  -799.800094c -5.61  -3.61    +55.0439
iter:  74 03:15:07  -799.794778c -5.27  -3.62    +54.8646
iter:  75 03:16:34  -799.784988c -4.31  -3.67    +54.3532
iter:  76 03:18:02  -799.783921c -5.07  -3.61    +54.2618
iter:  77 03:19:30  -799.784425c -5.34  -3.61    +54.2113
iter:  78 03:20:57  -799.785111c -5.59  -3.62    +54.1933
iter:  79 03:22:25  -799.786329c -5.25  -3.60    +54.1699
iter:  80 03:23:52  -799.786543c -5.59  -3.54    +54.1756
iter:  81 03:25:20  -799.785912c -6.07  -3.55    +54.1732
iter:  82 03:26:47  -799.785523c -5.68  -3.63    +54.1691
iter:  83 03:28:15  -799.784905c -5.91  -3.60    +54.1848
iter:  84 03:29:43  -799.786640c -5.85  -3.67    +54.1978
iter:  85 03:31:10  -799.785851c -6.32  -3.69    +54.1991
iter:  86 03:32:38  -799.785616c -6.12  -3.79    +54.2013
iter:  87 03:34:05  -799.785457c -6.33  -3.90    +54.1984
iter:  88 03:35:33  -799.786274c -6.19  -3.97    +54.2060
iter:  89 03:37:00  -799.785805c -6.69  -3.99    +54.2056
iter:  90 03:38:28  -799.786235c -6.35  -4.07c   +54.2084
iter:  91 03:39:55  -799.785819c -6.40  -4.06c   +54.2146
iter:  92 03:41:23  -799.784570c -5.32  -4.13c   +54.2385
iter:  93 03:42:50  -799.784704c -5.94  -4.12c   +54.2529
iter:  94 03:44:18  -799.784894c -6.17  -4.13c   +54.2808
iter:  95 03:45:45  -799.785160c -6.43  -4.17c   +54.3025
iter:  96 03:47:13  -799.785341c -6.26  -4.23c   +54.3319
iter:  97 03:48:41  -799.785611c -7.01  -4.24c   +54.3300
iter:  98 03:50:09  -799.785470c -6.83  -4.26c   +54.3436
iter:  99 03:51:36  -799.785743c -6.94  -4.27c   +54.3431
iter: 100 03:53:04  -799.785742c -6.89  -4.29c   +54.3552
iter: 101 03:54:32  -799.785715c -6.99  -4.36c   +54.3585
iter: 102 03:55:59  -799.785945c -7.08  -4.44c   +54.3639
iter: 103 03:57:27  -799.785748c -6.82  -4.48c   +54.3768
iter: 104 03:58:54  -799.785924c -7.25  -4.47c   +54.3633
iter: 105 04:00:22  -799.785781c -7.17  -4.57c   +54.3507
iter: 106 04:01:50  -799.785922c -7.04  -4.56c   +54.3699
iter: 107 04:03:17  -799.785763c -6.59  -4.62c   +54.3336
iter: 108 04:04:45  -799.785633c -5.82  -4.56c   +54.2592
iter: 109 04:06:12  -799.785629c -6.05  -4.32c   +54.2178
iter: 110 04:07:40  -799.785834c -6.57  -4.25c   +54.2092
iter: 111 04:09:08  -799.785985c -6.62  -4.22c   +54.2023
iter: 112 04:10:35  -799.786199c -6.61  -4.22c   +54.1975
iter: 113 04:12:03  -799.786162c -6.81  -4.20c   +54.1950
iter: 114 04:13:31  -799.785781c -6.77  -4.18c   +54.1973
iter: 115 04:14:58  -799.786103c -6.71  -4.11c   +54.1944
iter: 116 04:16:26  -799.786301c -6.57  -4.14c   +54.2002
iter: 117 04:17:55  -799.786253c -6.55  -4.05c   +54.1990
iter: 118 04:19:23  -799.786463c -6.85  -4.15c   +54.2009
iter: 119 04:20:50  -799.786253c -7.26  -4.22c   +54.2028
iter: 120 04:22:18  -799.786536c -6.79  -4.27c   +54.2037
iter: 121 04:23:45  -799.786449c -7.13  -4.24c   +54.2044
iter: 122 04:25:12  -799.786460c -6.92  -4.32c   +54.2043
iter: 123 04:26:40  -799.786361c -6.95  -4.26c   +54.2053
iter: 124 04:28:08  -799.786316c -7.00  -4.37c   +54.2061
iter: 125 04:29:35  -799.786779c -7.07  -4.44c   +54.2067
iter: 126 04:31:01  -799.786447c -7.48c -4.47c   +54.2071

Converged after 126 iterations.

Dipole moment: (22.365069, 32.070469, 19.127568) |e|*Ang

Total magnetic moment: (0.000000, 0.000000, 54.207135)
Local magnetic moments:
   0 Al ( 0.000000,  0.000000, -0.002140)
   1 Fe ( 0.000000,  0.000000,  2.423449)
   2 Cr ( 0.000000,  0.000000, -0.025295)
   3 Cr ( 0.000000,  0.000000,  1.514626)
   4 Ni ( 0.000000,  0.000000,  0.127813)
   5 Al ( 0.000000,  0.000000, -0.013260)
   6 Al ( 0.000000,  0.000000, -0.011919)
   7 Ni ( 0.000000,  0.000000,  0.308572)
   8 Fe ( 0.000000,  0.000000,  2.161933)
   9 Co ( 0.000000,  0.000000,  0.891478)
  10 Ni ( 0.000000,  0.000000,  0.181341)
  11 Fe ( 0.000000,  0.000000,  2.200620)
  12 Fe ( 0.000000,  0.000000,  2.071976)
  13 Co ( 0.000000,  0.000000,  1.287219)
  14 Cr ( 0.000000,  0.000000, -1.907338)
  15 Co ( 0.000000,  0.000000,  1.205272)
  16 Fe ( 0.000000,  0.000000,  2.041589)
  17 Al ( 0.000000,  0.000000, -0.040145)
  18 Fe ( 0.000000,  0.000000,  2.133584)
  19 Fe ( 0.000000,  0.000000,  2.034999)
  20 Cr ( 0.000000,  0.000000, -1.712078)
  21 Co ( 0.000000,  0.000000,  0.956504)
  22 Al ( 0.000000,  0.000000, -0.039564)
  23 Fe ( 0.000000,  0.000000,  2.156720)
  24 Ni ( 0.000000,  0.000000,  0.055791)
  25 Al ( 0.000000,  0.000000, -0.017420)
  26 Ni ( 0.000000,  0.000000,  0.277194)
  27 Cr ( 0.000000,  0.000000, -1.333124)
  28 Fe ( 0.000000,  0.000000,  2.314544)
  29 Ni ( 0.000000,  0.000000,  0.155561)
  30 Ni ( 0.000000,  0.000000,  0.343993)
  31 Ni ( 0.000000,  0.000000,  0.293014)
  32 Co ( 0.000000,  0.000000,  0.967582)
  33 Cr ( 0.000000,  0.000000, -1.713150)
  34 Fe ( 0.000000,  0.000000,  1.841621)
  35 Ni ( 0.000000,  0.000000,  0.078072)
  36 Fe ( 0.000000,  0.000000,  2.001369)
  37 Co ( 0.000000,  0.000000,  0.969330)
  38 Cr ( 0.000000,  0.000000, -2.032455)
  39 Ni ( 0.000000,  0.000000,  0.132471)
  40 Al ( 0.000000,  0.000000, -0.001400)
  41 Al ( 0.000000,  0.000000, -0.004430)
  42 Cr ( 0.000000,  0.000000, -1.831275)
  43 Al ( 0.000000,  0.000000, -0.001161)
  44 Al ( 0.000000,  0.000000,  0.001359)
  45 Co ( 0.000000,  0.000000,  0.411803)
  46 Cr ( 0.000000,  0.000000, -1.496361)
  47 Ni ( 0.000000,  0.000000,  0.173020)
  48 Fe ( 0.000000,  0.000000,  2.148344)
  49 Fe ( 0.000000,  0.000000,  1.950759)
  50 Al ( 0.000000,  0.000000, -0.030952)
  51 Co ( 0.000000,  0.000000,  1.162281)
  52 Co ( 0.000000,  0.000000,  0.874559)
  53 Ni ( 0.000000,  0.000000,  0.357327)
  54 Ni ( 0.000000,  0.000000,  0.107507)
  55 Co ( 0.000000,  0.000000,  1.254918)
  56 Al ( 0.000000,  0.000000, -0.012941)
  57 Cr ( 0.000000,  0.000000, -1.562074)
  58 Ni ( 0.000000,  0.000000,  0.108372)
  59 Cr ( 0.000000,  0.000000, -1.063203)
[...]
  93 Co ( 0.000000,  0.000000,  1.014380)
  94 Ni ( 0.000000,  0.000000,  0.299613)
  95 Fe ( 0.000000,  0.000000,  1.745396)
  96 Al ( 0.000000,  0.000000, -0.030343)
  97 Al ( 0.000000,  0.000000, -0.008867)
  98 Fe ( 0.000000,  0.000000,  1.956065)
  99 Co ( 0.000000,  0.000000,  1.028249)
 100 Fe ( 0.000000,  0.000000,  2.454180)
 101 Co ( 0.000000,  0.000000,  1.368566)
 102 Al ( 0.000000,  0.000000, -0.042909)
 103 Fe ( 0.000000,  0.000000,  2.330530)
 104 Co ( 0.000000,  0.000000,  1.054099)
 105 Ni ( 0.000000,  0.000000,  0.367293)
 106 Al ( 0.000000,  0.000000, -0.036457)
 107 Cr ( 0.000000,  0.000000,  1.517265)

Energy contributions relative to reference atoms: (reference = -3235165.067515)

Kinetic:       +340.400426
Potential:     -314.831617
External:        +0.000000
XC:            -854.560113
Entropy (-ST):   -3.995574
Local:          +31.202644
Free energy:   -801.784234
Extrapolated:  -799.786447

Spin contamination: 27.961399 electrons
Showing only first 2 kpts
                      Up                     Down
 Kpt  Band  Eigenvalues  Occupancy  Eigenvalues  Occupancy
  0   454      9.02357    0.99520      9.91364    0.02748
  0   455      9.03837    0.99444      9.93065    0.02328
  0   456      9.06039    0.99308      9.94243    0.02074
  0   457      9.07174    0.99225      9.95983    0.01749

  1   454      9.03715    0.99450      9.90882    0.02880
  1   455      9.04592    0.99400      9.93006    0.02341
  1   456      9.06575    0.99270      9.94699    0.01984
  1   457      9.08333    0.99131      9.95205    0.01888

Fermi level: 9.55698

No gap

Forces in eV/Ang:
  0 Al   -1.44463    0.34830   -0.03293
  1 Fe    0.32896    0.17474   -0.89457
  2 Cr   -1.94424    1.14365   -0.08483
  3 Cr    0.08616   -0.01324    1.48465
  4 Ni   -0.04775    0.74187   -0.94298
  5 Al    0.87741   -0.29419   -0.16451
  6 Al   -0.33563    0.53918   -0.47084
  7 Ni   -0.94269    0.31983   -0.20931
  8 Fe   -0.03594    0.29758    0.30168
  9 Co   -0.09303   -0.04648    0.10329
 10 Ni    1.87160    0.28221    0.33092
 11 Fe    0.17857   -0.49287    0.76494
 12 Fe   -0.93477    0.00882    0.83720
 13 Co    0.33329    0.33052   -1.18106
 14 Cr   -2.20476    0.90619   -0.01463
 15 Co    0.36815   -0.80135    0.90327
 16 Fe    0.91848   -0.47985    0.07705
 17 Al    0.81076   -0.00713    0.19817
 18 Fe   -0.96394   -0.38556    0.82818
 19 Fe   -0.39863    0.65879   -0.66188
 20 Cr    0.79007   -0.33601   -0.51217
 21 Co   -0.20262   -0.09049    0.60368
 22 Al    0.02741   -0.36189    0.08975
 23 Fe   -0.85405   -0.69964   -0.14240
 24 Ni    0.05396   -0.13084   -0.34982
 25 Al   -0.78414   -0.37299   -0.75761
 26 Ni   -0.39825    0.29909   -0.43867
 27 Cr    0.50465   -0.02116    0.05485
 28 Fe   -0.30000    0.64604   -0.09185
 29 Ni    0.53279   -1.25594    0.74280
 30 Ni   -0.18491   -1.00579   -0.03791
 31 Ni    1.28086   -1.18032   -0.51818
 32 Co   -0.27853   -0.03475    0.77040
 33 Cr   -0.43950   -1.56000    0.06771
 34 Fe   -0.44224    0.47238   -0.63339
 35 Ni    0.01262    0.02953    0.30860
 36 Fe    0.03080    0.39040    0.46087
 37 Co   -0.55807    1.36445   -0.03557
 38 Cr   -0.20212   -0.06994   -0.03917
 39 Ni    1.29437   -0.27502   -0.24279
 40 Al   -0.03872    0.30338    0.62052
 41 Al   -0.18306   -1.07608    0.19803
 42 Cr   -0.46421    0.50427    0.08149
 43 Al    1.10101    0.45133   -0.21606
 44 Al   -0.41088    1.97289    0.03328
 45 Co   -0.19906   -0.15998   -0.68744
 46 Cr    0.38452   -0.06879    0.09393
 47 Ni    0.39482   -0.55817   -1.54044
 48 Fe   -1.21843   -0.57045   -0.12555
 49 Fe    0.33788   -1.29521    0.04950
 50 Al   -0.11619   -0.52973    0.43485
 51 Co   -0.01617    0.82165   -0.00749
 52 Co    0.30768    0.09759   -0.15008
 53 Ni   -0.50238    0.37419    0.43186
 54 Ni    1.02853   -0.25693   -0.32493
 55 Co    1.25939   -0.08016   -0.52263
 56 Al    0.50703    0.34673   -0.07097
 57 Cr   -0.44228    0.79797    0.51759
 58 Ni   -0.22679   -0.34683    0.42868
 59 Cr    0.97644    0.01867    0.48976
[...]
 93 Co   -0.85168   -1.00792    0.18874
 94 Ni    0.26636   -0.16848   -0.87846
 95 Fe    0.39065    0.30610    0.28568
 96 Al    0.79902   -1.56082    0.70738
 97 Al   -0.85477    0.68529    1.42877
 98 Fe   -0.04207    1.05284   -0.66004
 99 Co    0.66066    0.12891   -1.44365
100 Fe   -0.97900   -0.81393   -0.02310
101 Co    0.21864    0.34693    0.22726
102 Al    0.53438    0.42468    0.60286
103 Fe   -1.04241   -0.03710    0.09374
104 Co   -0.30851   -0.38691    0.28434
105 Ni   -0.89976   -1.74182    0.25768
106 Al    1.48077    1.97970   -0.39117
107 Cr   -0.57986    0.54606   -0.93088

Date: Fri Apr 14 04:31:21 2023