User:   c.zeng@d0039
Date:   Fri Apr 14 00:58:37 2023
Arch:   x86_64
Pid:    135983
CWD:    /home/c.zeng/projects/hea-corrosion/hea-mlp/data-curation/bulk-md/dft-jobs/71
Python: 3.8.1
gpaw:   /home/c.zeng/usr/installs/gpaw/source/gpaw-22.8.0/gpaw
_gpaw:  /home/c.zeng/usr/installs/gpaw/source/gpaw-22.8.0/
        _gpaw.cpython-38-x86_64-linux-gnu.so
ase:    /home/c.zeng/.local/lib/python3.8/site-packages/ase-3.22.1-py3.8.egg/ase (version 3.22.1)
numpy:  /shared/centos7/python/3.8.1/lib/python3.8/site-packages/numpy (version 1.17.4)
scipy:  /shared/centos7/python/3.8.1/lib/python3.8/site-packages/scipy (version 1.4.1)
units:  Angstrom and eV
cores: 30
OpenMP: False
OMP_NUM_THREADS: 1

Input parameters:
  convergence: {energy: 0.0001}
  kpts: [2 2 2]
  maxiter: 666
  mode: {ecut: 350.0,
         name: pw}
  occupations: {fixmagmom: False,
                name: fermi-dirac,
                width: 0.1}
  spinpol: True
  xc: PBE

System changes: positions, numbers, cell, pbc, initial_charges, initial_magmoms

Initialize ...

species:
  Fe:
    name: Iron
    id: 37abbd8d6c3c35915a9b583b742da910
    Z: 26.0
    valence: 8
    core: 18
    charge: 0.0
    file: /home/c.zeng/usr/data/gpaw-setups-0.9.20000/Fe.PBE.gz
    compensation charges: {type: gauss,
                           rc: 0.33,
                           lmax: 2}
    cutoffs: {filter: 2.06,
              core: 2.67}
    valence states:
      #              energy  rcut
      - 4s(2.00)    -5.291   1.164
      - 4p(0.00)    -1.326   1.058
      - 3d(6.00)    -7.505   1.058
      -  s          21.920   1.164
      -  p          25.885   1.058
      -  d          19.706   1.058

    # Using partial waves for Fe as LCAO basis

  Cr:
    name: Chromium
    id: 33f258bda2ca9f93018e70263a35547b
    Z: 24.0
    valence: 6
    core: 18
    charge: 0.0
    file: /home/c.zeng/usr/data/gpaw-setups-0.9.20000/Cr.PBE.gz
    compensation charges: {type: gauss,
                           rc: 0.35,
                           lmax: 2}
    cutoffs: {filter: 2.14,
              core: 3.04}
    valence states:
      #              energy  rcut
      - 4s(1.00)    -4.007   1.164
      - 4p(0.00)    -0.989   1.217
      - 3d(5.00)    -2.913   1.111
      -  s          23.205   1.164
      -  p          26.223   1.217
      -  d          24.299   1.111

[...]

  Ni:
    name: Nickel
    id: 0d9f38a9d6e76a2886f07bb4381f212b
    Z: 28.0
    valence: 16
    core: 12
    charge: 0.0
    file: /home/c.zeng/usr/data/gpaw-setups-0.9.20000/Ni.PBE.gz
    compensation charges: {type: gauss,
                           rc: 0.36,
                           lmax: 2}
    cutoffs: {filter: 2.14,
              core: 1.98}
    valence states:
      #              energy  rcut
      - 4s(2.00)    -5.642   1.164
      - 3p(6.00)   -71.394   1.207
      - 4p(0.00)    -1.226   1.207
      - 3d(8.00)    -8.875   1.138
      -  s          21.570   1.164
      -  d          18.337   1.138

[...]

  Al:
    name: Aluminium
    id: 0292cae29f5d6237e50f6abdd43a7bdd
    Z: 13.0
    valence: 3
    core: 10
    charge: 0.0
    file: /home/c.zeng/usr/data/gpaw-setups-0.9.20000/Al.PBE.gz
    compensation charges: {type: gauss,
                           rc: 0.34,
                           lmax: 2}
    cutoffs: {filter: 1.91,
              core: 2.36}
    valence states:
      #              energy  rcut
      - 3s(2.00)    -7.753   1.085
      - 3p(1.00)    -2.712   1.085
      -  s          19.459   1.085
      -  p          24.499   1.085
      -  d           0.000   1.085

[...]

  Co:
    name: Cobalt
    id: 339d20d5b0b93d2de9531a1bee871d91
    Z: 27.0
    valence: 9
    core: 18
    charge: 0.0
    file: /home/c.zeng/usr/data/gpaw-setups-0.9.20000/Co.PBE.gz
    compensation charges: {type: gauss,
                           rc: 0.32,
                           lmax: 2}
    cutoffs: {filter: 1.87,
              core: 2.55}
    valence states:
      #              energy  rcut
      - 4s(2.00)    -5.469   1.005
      - 4p(0.00)    -1.277   1.058
      - 3d(7.00)    -8.205   1.005
      -  s          21.742   1.005
      -  p          25.934   1.058
      -  d          19.007   1.005

    # Using partial waves for Co as LCAO basis

Reference energy: -3382523.201499  # eV

Spin-polarized calculation.
Magnetic moment: 128.800000

Convergence criteria:
 Maximum [total energy] change in last 3 cyles: 0.0001 eV / electron
 Maximum integral of absolute [dens]ity change: 0.0001 electrons / valence electron
 Maximum integral of absolute [eigenst]ate change: 4e-08 eV^2 / valence electron
 Maximum number of scf [iter]ations: 666
 (Square brackets indicate name in SCF output, whereas a 'c' in
 the SCF output indicates the quantity has converged.)

Symmetries present (total): 1

  ( 1  0  0)
  ( 0  1  0)
  ( 0  0  1)

8 k-points: 2 x 2 x 2 Monkhorst-Pack grid
4 k-points in the irreducible part of the Brillouin zone
       k-points in crystal coordinates                weights
   0:     0.25000000   -0.25000000   -0.25000000          2/8
   1:     0.25000000   -0.25000000    0.25000000          2/8
   2:     0.25000000    0.25000000   -0.25000000          2/8
   3:     0.25000000    0.25000000    0.25000000          2/8

Wave functions: Plane wave expansion
  Cutoff energy: 350.000 eV
  Number of coefficients (min, max): 18865, 18865
  Pulay-stress correction: 0.000000 eV/Ang^3 (de/decut=0.000000)
  Using FFTW library
  ScaLapack parameters: grid=1x1, blocksize=None
  Wavefunction extrapolation:
    Improved wavefunction reuse through dual PAW basis

Occupation numbers: Fermi-Dirac:
  width: 0.1000  # eV

Eigensolver
   Davidson(niter=2)

Densities:
  Coarse grid: 48*48*48 grid
  Fine grid: 96*96*96 grid
  Total Charge: 0.000000

Density mixing:
  Method: difference
  Backend: pulay
  Linear mixing parameter: 0.05
  old densities: 5
  Damping of long wavelength oscillations: 50

Hamiltonian:
  XC and Coulomb potentials evaluated on a 96*96*96 grid
  Using the PBE Exchange-Correlation functional
  External potential:
    NoExternalPotential

XC parameters: PBE with 2 nearest neighbor stencil

Total number of cores used: 30
Parallelization over k-points: 2
Domain decomposition: 5 x 3 x 1

Number of atoms: 108
Number of atomic orbitals: 961
Number of bands in calculation: 649
Number of valence electrons: 945
Bands to converge: occupied

... initialized

Initializing position-dependent things.

Density initialized from atomic densities
Creating initial wave functions:
  649 bands from LCAO basis set

        Fe--------Al------Al-------.
       /|                     Ni   |
     /  |   Co          Nii      Fe|
    /   | Co    Al          Co     |
   /Ni  |     Fe    CCr      Fe    |
  /  FCr|  Ni        FCr           |
 *    NiCor Co CNi      AlFe       |
 | Co   |  Fe    Co Al     Cr     Co
 |      | AlNiCr  FAl ANi    Cr    Ni
 | Ni   |   NiFFe    NNi Ni  CrCr  |
 |    CoCo  Ni AlFeCo NiAlCoFeNiFe |
 |     CrAFel   CrFeCo  Cr  Co     |
 |      .--Cr-------FNi-----CCo----.
 |     Cr  AlAlrNi   FeCo     Nir /
 |    /Fe     Cr Co     NiCo    Ni
 |   /   Cr       FCr      Al   /
 | Cr      Feo      Co         /
 |/            Al        Co  /

Positions:
   0 Fe    10.960757   10.751571   10.634598    ( 0.0000,  0.0000,  2.0000)
   1 Cr    10.974618    1.929024    1.512948    ( 0.0000,  0.0000,  0.0000)
   2 Ni     1.748991   -0.013558    1.641357    ( 0.0000,  0.0000,  1.5000)
   3 Cr     1.729782    1.786066   10.648707    ( 0.0000,  0.0000,  0.0000)
   4 Al     3.968216   -0.232067   -0.046565    ( 0.0000,  0.0000,  0.0000)
   5 Fe     3.313458    1.923921    1.838433    ( 0.0000,  0.0000,  2.0000)
   6 Ni     5.461337   10.736620    1.796910    ( 0.0000,  0.0000,  1.5000)
   7 Al     5.203848    1.935834    0.129025    ( 0.0000,  0.0000,  0.0000)
   8 Al     7.254384   10.670854   -0.173379    ( 0.0000,  0.0000,  0.0000)
   9 Co     7.227654    1.820910    1.767970    ( 0.0000,  0.0000,  2.1000)
  10 Ni     8.870365   -0.140246    1.708893    ( 0.0000,  0.0000,  1.5000)
  11 Co     9.064797    1.919888    0.088397    ( 0.0000,  0.0000,  2.1000)
  12 Ni     0.321035    3.627129   10.650424    ( 0.0000,  0.0000,  1.5000)
  13 Cr    10.786478    5.364663    1.780801    ( 0.0000,  0.0000,  0.0000)
  14 Fe     1.629543    3.580586    2.039954    ( 0.0000,  0.0000,  2.0000)
  15 Cr     1.762485    5.577128   10.824174    ( 0.0000,  0.0000,  0.0000)
  16 Co     3.314511    3.688371   10.943280    ( 0.0000,  0.0000,  2.1000)
  17 Cr     3.619370    5.433168    1.939824    ( 0.0000,  0.0000,  0.0000)
  18 Co     5.528380    3.724924    1.785452    ( 0.0000,  0.0000,  2.1000)
  19 Fe     5.346449    5.414810    0.063511    ( 0.0000,  0.0000,  2.0000)
  20 Cr     7.112316    3.651245   -0.280155    ( 0.0000,  0.0000,  0.0000)
  21 Fe     7.535472    5.430417    1.854980    ( 0.0000,  0.0000,  2.0000)
  22 Co     8.945618    3.385092    2.066635    ( 0.0000,  0.0000,  2.1000)
  23 Al     9.032436    5.143039   10.991221    ( 0.0000,  0.0000,  0.0000)
  24 Ni    10.684033    7.156263   10.958080    ( 0.0000,  0.0000,  1.5000)
  25 Cr    10.830080    9.106692    1.976562    ( 0.0000,  0.0000,  0.0000)
  26 Cr     2.086069    7.212821    1.976684    ( 0.0000,  0.0000,  0.0000)
  27 Al     1.689202    9.079767    0.119374    ( 0.0000,  0.0000,  0.0000)
  28 Cr     3.564771    7.070883    0.163721    ( 0.0000,  0.0000,  0.0000)
  29 Cr     3.655902    8.987879    1.874226    ( 0.0000,  0.0000,  0.0000)
  30 Fe     5.648455    6.969038    1.850395    ( 0.0000,  0.0000,  2.0000)
  31 Fe     5.698527    8.646600    0.080476    ( 0.0000,  0.0000,  2.0000)
  32 Ni     7.450179    6.857083   -0.046867    ( 0.0000,  0.0000,  1.5000)
  33 Cr     7.097729    8.863031    1.733709    ( 0.0000,  0.0000,  0.0000)
  34 Co     9.041631    7.550896    1.525342    ( 0.0000,  0.0000,  2.1000)
  35 Ni     9.066390    9.142993   10.752034    ( 0.0000,  0.0000,  1.5000)
  36 Ni    -0.089955   10.756902    3.577737    ( 0.0000,  0.0000,  1.5000)
  37 Co    10.726949    1.739655    5.286522    ( 0.0000,  0.0000,  2.1000)
  38 Co     1.773139   10.749160    5.366115    ( 0.0000,  0.0000,  2.1000)
  39 Cr     1.919312    1.649502    3.778751    ( 0.0000,  0.0000,  0.0000)
  40 Fe     3.914215   10.722544    3.552654    ( 0.0000,  0.0000,  2.0000)
  41 Al     3.504363    1.780242    5.467088    ( 0.0000,  0.0000,  0.0000)
  42 Fe     5.399965   10.774471    5.462950    ( 0.0000,  0.0000,  2.0000)
  43 Ni     5.674850    1.945858    3.668241    ( 0.0000,  0.0000,  1.5000)
  44 Cr     7.260317    0.002768    3.610836    ( 0.0000,  0.0000,  0.0000)
  45 Co     7.327735    1.789782    5.454368    ( 0.0000,  0.0000,  2.1000)
  46 Co     8.970369   10.864485    5.335538    ( 0.0000,  0.0000,  2.1000)
  47 Ni     8.785450    1.676885    3.597623    ( 0.0000,  0.0000,  1.5000)
  48 Ni    10.681856    3.307640    3.613568    ( 0.0000,  0.0000,  1.5000)
  49 Cr    10.780437    5.115355    5.701589    ( 0.0000,  0.0000,  0.0000)
  50 Co     1.839642    3.693192    5.377097    ( 0.0000,  0.0000,  2.1000)
  51 Al     1.799155    5.378275    3.591677    ( 0.0000,  0.0000,  0.0000)
  52 Al     3.769264    3.526499    3.411537    ( 0.0000,  0.0000,  0.0000)
  53 Fe     3.636111    5.456870    5.238045    ( 0.0000,  0.0000,  2.0000)
  54 Fe     5.291583    3.560517    5.721203    ( 0.0000,  0.0000,  2.0000)
  55 Fe     5.518007    5.244206    3.655530    ( 0.0000,  0.0000,  2.0000)
  56 Ni     7.213189    3.663111    4.089664    ( 0.0000,  0.0000,  1.5000)
  57 Ni     7.171861    5.402836    5.515340    ( 0.0000,  0.0000,  1.5000)
  58 Co     8.958342    3.516712    5.454572    ( 0.0000,  0.0000,  2.1000)
  59 Co     9.329216    5.302079    3.562319    ( 0.0000,  0.0000,  2.1000)
[...]
  93 Cr     7.054710    5.315727    8.993535    ( 0.0000,  0.0000,  0.0000)
  94 Fe     9.136527    3.349191    8.846083    ( 0.0000,  0.0000,  2.0000)
  95 Cr     9.201820    5.276310    7.237341    ( 0.0000,  0.0000,  0.0000)
  96 Ni    11.003417    7.208157    7.187799    ( 0.0000,  0.0000,  1.5000)
  97 Fe    10.637995    9.164250    8.876553    ( 0.0000,  0.0000,  2.0000)
  98 Co     1.536050    7.437477    9.101567    ( 0.0000,  0.0000,  2.1000)
  99 Ni     1.544804    8.933324    7.121841    ( 0.0000,  0.0000,  1.5000)
 100 Cr     3.519489    7.316175    6.963997    ( 0.0000,  0.0000,  0.0000)
 101 Al     3.614012    8.886218    8.630257    ( 0.0000,  0.0000,  0.0000)
 102 Cr     5.618966    7.206080    8.918126    ( 0.0000,  0.0000,  0.0000)
 103 Co     5.588708    9.215933    7.445402    ( 0.0000,  0.0000,  2.1000)
 104 Al     7.566252    6.977835    7.185257    ( 0.0000,  0.0000,  0.0000)
 105 Ni     7.263430    8.947934    8.915947    ( 0.0000,  0.0000,  1.5000)
 106 Co     9.119190    7.185523    9.066967    ( 0.0000,  0.0000,  2.1000)
 107 Fe     8.999393    9.094858    7.322732    ( 0.0000,  0.0000,  2.0000)

Unit cell:
           periodic     x           y           z      points  spacing
  1. axis:    yes   10.820500    0.000000    0.000000    48     0.2254
  2. axis:    yes    0.000000   10.820500    0.000000    48     0.2254
  3. axis:    yes    0.000000    0.000000   10.820500    48     0.2254

  Lengths:  10.820500  10.820500  10.820500
  Angles:   90.000000  90.000000  90.000000

Effective grid spacing dv^(1/3) = 0.2254

     iter     time        total  log10-change:  magmom
                         energy  eigst   dens
iter:   1 01:03:24  -969.332605                  +129.0867
iter:   2 01:05:32  -866.301426  -0.21  -1.18    +71.1587
iter:   3 01:07:41  -854.732919  -0.85  -1.20    +59.2908
iter:   4 01:09:51  -834.212040  -1.25  -1.27    +55.8364
iter:   5 01:12:00  -825.265631  -1.59  -1.29    +53.2126
iter:   6 01:14:09  -826.262472  -1.37  -1.34    +53.5682
iter:   7 01:16:19  -820.120086  -1.23  -1.38    +52.1557
iter:   8 01:18:28  -812.856349  -1.55  -1.51    +51.1726
iter:   9 01:20:38  -809.040979  -1.87  -1.63    +51.9701
iter:  10 01:22:47  -807.399424  -2.32  -1.72    +52.8477
iter:  11 01:24:57  -807.978538  -2.42  -1.80    +55.1004
iter:  12 01:27:12  -809.386721  -2.36  -1.84    +56.1449
iter:  13 01:30:26  -808.309676  -2.40  -1.84    +57.1390
iter:  14 01:32:38  -809.103980  -2.44  -1.94    +58.3985
iter:  15 01:34:47  -808.088085  -2.69  -1.94    +58.9363
iter:  16 01:36:58  -807.997400  -2.98  -2.04    +59.6709
iter:  17 01:39:08  -808.313657  -2.99  -2.09    +60.3484
iter:  18 01:41:17  -808.064359  -3.02  -2.10    +60.7291
iter:  19 01:43:28  -808.054974  -3.07  -2.19    +60.9898
iter:  20 01:45:38  -808.294302  -2.99  -2.27    +61.3537
iter:  21 01:47:47  -808.021765  -3.27  -2.25    +61.5988
iter:  22 01:49:57  -808.021482  -3.33  -2.35    +61.6984
iter:  23 01:52:07  -808.031328c -3.48  -2.42    +61.8410
iter:  24 01:54:16  -808.023966c -3.59  -2.46    +61.9003
iter:  25 01:56:25  -808.035205c -3.66  -2.51    +61.9448
iter:  26 01:58:34  -808.050295c -3.72  -2.54    +61.9087
iter:  27 02:00:44  -808.076834c -3.90  -2.59    +61.9528
iter:  28 02:02:53  -808.084743c -3.90  -2.60    +61.8686
iter:  29 02:05:03  -808.103238c -4.07  -2.66    +61.8176
iter:  30 02:07:43  -808.119743c -4.15  -2.68    +61.7485
iter:  31 02:10:35  -808.140650c -4.27  -2.73    +61.6965
iter:  32 02:12:44  -808.167514c -4.27  -2.76    +61.6213
iter:  33 02:14:53  -808.195022c -4.22  -2.79    +61.5555
iter:  34 02:17:04  -808.199057c -4.33  -2.80    +61.4775
iter:  35 02:19:13  -808.231627c -4.32  -2.88    +61.3846
iter:  36 02:21:23  -808.240431c -4.50  -2.89    +61.2659
iter:  37 02:23:33  -808.261804c -4.52  -2.94    +61.1880
iter:  38 02:25:43  -808.286844c -4.35  -2.96    +60.9685
iter:  39 02:27:53  -808.312994c -4.34  -2.99    +60.8626
iter:  40 02:30:02  -808.329058c -4.40  -3.02    +60.7193
iter:  41 02:32:12  -808.359659c -4.18  -3.06    +60.4991
iter:  42 02:34:21  -808.363395c -4.57  -3.04    +60.4140
iter:  43 02:36:31  -808.369128c -4.80  -3.09    +60.3917
iter:  44 02:38:40  -808.370703c -4.78  -3.10    +60.3129
iter:  45 02:40:51  -808.373579c -4.90  -3.15    +60.3050
iter:  46 02:43:00  -808.373774c -4.97  -3.22    +60.2752
iter:  47 02:45:10  -808.375401c -5.31  -3.24    +60.2603
iter:  48 02:47:25  -808.379140c -5.21  -3.29    +60.2385
iter:  49 02:50:08  -808.378719c -5.34  -3.29    +60.2368
iter:  50 02:52:14  -808.379492c -5.29  -3.34    +60.2014
iter:  51 02:54:19  -808.382476c -5.41  -3.39    +60.1956
iter:  52 02:56:25  -808.385363c -5.34  -3.43    +60.1753
iter:  53 02:58:30  -808.385881c -5.32  -3.45    +60.1697
iter:  54 03:00:36  -808.386841c -5.43  -3.43    +60.1481
iter:  55 03:02:41  -808.388063c -5.42  -3.46    +60.1417
iter:  56 03:04:49  -808.389801c -5.52  -3.63    +60.1042
iter:  57 03:06:54  -808.390173c -5.81  -3.68    +60.0966
iter:  58 03:09:00  -808.392278c -5.66  -3.67    +60.0802
iter:  59 03:11:05  -808.393499c -5.91  -3.75    +60.0552
iter:  60 03:13:10  -808.395948c -5.51  -3.78    +60.0076
iter:  61 03:15:15  -808.399864c -5.20  -3.80    +59.9403
iter:  62 03:17:22  -808.410094c -4.40  -3.75    +59.7585
iter:  63 03:19:29  -808.415220c -4.49  -3.51    +59.6506
iter:  64 03:21:34  -808.414994c -5.25  -3.43    +59.6683
iter:  65 03:23:41  -808.414196c -5.59  -3.44    +59.6719
iter:  66 03:26:09  -808.413941c -5.91  -3.47    +59.6852
iter:  67 03:28:40  -808.415858c -5.35  -3.49    +59.6933
iter:  68 03:30:47  -808.410081c -4.71  -3.35    +59.6951
iter:  69 03:32:53  -808.409829c -5.60  -3.48    +59.6957
iter:  70 03:34:58  -808.409444c -5.92  -3.61    +59.7000
iter:  71 03:37:03  -808.409509c -5.61  -3.60    +59.6943
iter:  72 03:39:11  -808.410904c -5.48  -3.57    +59.6972
iter:  73 03:41:19  -808.408486c -5.93  -3.59    +59.6861
iter:  74 03:43:24  -808.408476c -5.87  -3.78    +59.6979
iter:  75 03:45:31  -808.408539c -6.20  -3.83    +59.7009
iter:  76 03:47:37  -808.408410c -6.51  -3.93    +59.7086
iter:  77 03:49:44  -808.408222c -6.48  -4.00    +59.7148
iter:  78 03:51:53  -808.408532c -6.51  -4.02c   +59.7245
iter:  79 03:53:59  -808.408316c -6.58  -4.04c   +59.7324
iter:  80 03:56:04  -808.408185c -6.59  -4.13c   +59.7381
iter:  81 03:58:09  -808.408101c -6.70  -4.13c   +59.7425
iter:  82 04:00:20  -808.408204c -6.73  -4.27c   +59.7542
iter:  83 04:02:28  -808.408080c -6.99  -4.30c   +59.7538
iter:  84 04:04:34  -808.408179c -6.98  -4.36c   +59.7587
iter:  85 04:06:43  -808.408112c -7.15  -4.35c   +59.7613
iter:  86 04:09:19  -808.408115c -7.33  -4.45c   +59.7648
iter:  87 04:11:48  -808.408037c -7.31  -4.51c   +59.7671
iter:  88 04:13:53  -808.408100c -7.50c -4.51c   +59.7697

Converged after 88 iterations.

Dipole moment: (-0.245110, 13.387217, -2.388014) |e|*Ang

Total magnetic moment: (0.000000, 0.000000, 59.769707)
Local magnetic moments:
   0 Fe ( 0.000000,  0.000000,  1.992639)
   1 Cr ( 0.000000,  0.000000,  0.978314)
   2 Ni ( 0.000000,  0.000000, -0.023445)
   3 Cr ( 0.000000,  0.000000, -1.017805)
   4 Al ( 0.000000,  0.000000, -0.005356)
   5 Fe ( 0.000000,  0.000000,  2.156052)
   6 Ni ( 0.000000,  0.000000,  0.067045)
   7 Al ( 0.000000,  0.000000, -0.022600)
   8 Al ( 0.000000,  0.000000, -0.013170)
   9 Co ( 0.000000,  0.000000,  1.511569)
  10 Ni ( 0.000000,  0.000000, -0.000307)
  11 Co ( 0.000000,  0.000000,  1.248827)
  12 Ni ( 0.000000,  0.000000,  0.242291)
  13 Cr ( 0.000000,  0.000000,  1.197373)
  14 Fe ( 0.000000,  0.000000,  1.298477)
  15 Cr ( 0.000000,  0.000000, -1.379382)
  16 Co ( 0.000000,  0.000000,  0.971484)
  17 Cr ( 0.000000,  0.000000, -0.537124)
  18 Co ( 0.000000,  0.000000,  1.149552)
  19 Fe ( 0.000000,  0.000000,  2.061110)
  20 Cr ( 0.000000,  0.000000, -1.992617)
  21 Fe ( 0.000000,  0.000000,  2.282544)
  22 Co ( 0.000000,  0.000000,  1.362709)
  23 Al ( 0.000000,  0.000000, -0.027820)
  24 Ni ( 0.000000,  0.000000,  0.167419)
  25 Cr ( 0.000000,  0.000000, -1.615036)
  26 Cr ( 0.000000,  0.000000,  0.624982)
  27 Al ( 0.000000,  0.000000, -0.013014)
  28 Cr ( 0.000000,  0.000000, -0.278331)
  29 Cr ( 0.000000,  0.000000, -1.795826)
  30 Fe ( 0.000000,  0.000000,  1.760276)
  31 Fe ( 0.000000,  0.000000,  1.808644)
  32 Ni ( 0.000000,  0.000000,  0.382239)
  33 Cr ( 0.000000,  0.000000, -1.332375)
  34 Co ( 0.000000,  0.000000,  0.711756)
  35 Ni ( 0.000000,  0.000000,  0.306539)
  36 Ni ( 0.000000,  0.000000,  0.123784)
  37 Co ( 0.000000,  0.000000,  1.450962)
  38 Co ( 0.000000,  0.000000,  1.167088)
  39 Cr ( 0.000000,  0.000000, -1.950676)
  40 Fe ( 0.000000,  0.000000,  2.349501)
  41 Al ( 0.000000,  0.000000, -0.041264)
  42 Fe ( 0.000000,  0.000000,  1.834138)
  43 Ni ( 0.000000,  0.000000,  0.323138)
  44 Cr ( 0.000000,  0.000000, -1.619223)
  45 Co ( 0.000000,  0.000000,  1.403388)
  46 Co ( 0.000000,  0.000000,  1.182725)
  47 Ni ( 0.000000,  0.000000,  0.382856)
  48 Ni ( 0.000000,  0.000000,  0.466501)
  49 Cr ( 0.000000,  0.000000,  1.175676)
  50 Co ( 0.000000,  0.000000,  0.792518)
  51 Al ( 0.000000,  0.000000, -0.025074)
  52 Al ( 0.000000,  0.000000, -0.032890)
  53 Fe ( 0.000000,  0.000000,  1.748117)
  54 Fe ( 0.000000,  0.000000,  2.269361)
  55 Fe ( 0.000000,  0.000000,  2.178334)
  56 Ni ( 0.000000,  0.000000,  0.566376)
  57 Ni ( 0.000000,  0.000000,  0.130822)
  58 Co ( 0.000000,  0.000000,  1.061186)
  59 Co ( 0.000000,  0.000000,  1.063010)
[...]
  93 Cr ( 0.000000,  0.000000,  1.575518)
  94 Fe ( 0.000000,  0.000000,  2.228060)
  95 Cr ( 0.000000,  0.000000, -1.391440)
  96 Ni ( 0.000000,  0.000000,  0.103165)
  97 Fe ( 0.000000,  0.000000,  2.173497)
  98 Co ( 0.000000,  0.000000,  0.552268)
  99 Ni ( 0.000000,  0.000000,  0.372853)
 100 Cr ( 0.000000,  0.000000,  1.128713)
 101 Al ( 0.000000,  0.000000, -0.003039)
 102 Cr ( 0.000000,  0.000000, -1.666603)
 103 Co ( 0.000000,  0.000000,  0.542735)
 104 Al ( 0.000000,  0.000000, -0.019775)
 105 Ni ( 0.000000,  0.000000,  0.245591)
 106 Co ( 0.000000,  0.000000,  1.191450)
 107 Fe ( 0.000000,  0.000000,  2.216174)

Energy contributions relative to reference atoms: (reference = -3382523.201499)

Kinetic:       +449.150991
Potential:     -412.991429
External:        +0.000000
XC:            -875.568090
Entropy (-ST):   -4.233445
Local:          +33.117150
Free energy:   -810.524822
Extrapolated:  -808.408100

Spin contamination: 25.817781 electrons
Showing only first 2 kpts
                      Up                     Down
 Kpt  Band  Eigenvalues  Occupancy  Eigenvalues  Occupancy
  0   470      9.17073    0.99572     10.08070    0.02531
  0   471      9.17162    0.99568     10.08931    0.02327
  0   472      9.19000    0.99481     10.10826    0.01933
  0   473      9.20088    0.99422     10.12112    0.01703

  1   470      9.16754    0.99585     10.08912    0.02331
  1   471      9.17552    0.99551     10.09275    0.02250
  1   472      9.18278    0.99517     10.10775    0.01942
  1   473      9.20969    0.99369     10.12128    0.01701

Fermi level: 9.71559

No gap

Forces in eV/Ang:
  0 Fe   -1.90556    0.78775    0.58903
  1 Cr   -0.71157   -1.31032    1.35862
  2 Ni    0.78318    0.42616    1.26391
  3 Cr    2.01289   -0.63038    1.73040
  4 Al   -1.92342   -0.31436    0.82151
  5 Fe    0.62324   -1.52135   -0.66478
  6 Ni    0.68016    0.73451   -0.17285
  7 Al    0.79642    0.76016    0.24770
  8 Al   -1.06315    0.68081    1.51749
  9 Co   -0.37724   -0.00015   -0.25666
 10 Ni    0.47826    0.83994    0.69103
 11 Co    0.02730   -0.04421   -0.31446
 12 Ni   -1.40989    0.49622    1.26915
 13 Cr    0.57152    0.12131    1.04834
 14 Fe    0.63901    0.22232   -1.66461
 15 Cr    0.00895   -0.37191   -0.01076
 16 Co    0.81754    0.49533   -0.16030
 17 Cr    0.20917   -0.12078   -1.84443
 18 Co    0.58891   -0.37317   -0.00519
 19 Fe   -0.20345   -0.19154    0.02763
 20 Cr   -0.01182    0.52195    1.65109
 21 Fe   -1.27564   -1.61992    0.45626
 22 Co   -0.21648    1.01656   -1.55873
 23 Al    1.48306   -0.15520   -2.36614
 24 Ni    1.58354    0.55355   -1.09894
 25 Cr   -0.65028   -0.61752   -0.31399
 26 Cr   -2.88454    0.65685   -2.29750
 27 Al    0.88455   -1.73914   -1.33286
 28 Cr    0.50856    0.96115   -0.43062
 29 Cr    0.56818    0.05247    0.38686
 30 Fe   -0.85624    0.24991   -0.02807
 31 Fe   -1.29563    0.61739   -0.54227
 32 Ni   -1.28435    1.55100   -0.37729
 33 Cr    0.69901   -0.12508    0.28179
 34 Co   -0.48341   -1.39084    3.59238
 35 Ni    0.30143   -1.03152   -0.36457
 36 Ni    0.16025    0.78013   -0.15484
 37 Co   -0.18325   -0.77452   -0.07215
 38 Co    0.09088   -0.00508    0.27090
 39 Cr   -2.00832   -0.01316   -1.96433
 40 Fe   -1.49506    0.75992    0.13278
 41 Al    1.67921    0.87991   -0.46919
 42 Fe    1.15280    0.57606   -0.94032
 43 Ni   -1.27785   -0.85464   -0.25534
 44 Cr   -0.77745   -0.39381    0.03204
 45 Co   -1.48356   -0.65579    0.46296
 46 Co   -0.00848   -0.72492    0.31566
 47 Ni    1.26439    0.38450   -0.19957
 48 Ni    0.80798    0.74415    0.31980
 49 Cr   -0.22406    2.03653   -2.16263
 50 Co   -0.37938   -0.66387   -2.07598
 51 Al   -2.01312   -1.08072    0.56771
 52 Al   -0.12673   -0.06740    2.17692
 53 Fe   -0.28066   -0.64047    0.35478
 54 Fe    0.17611    0.41997   -1.18600
 55 Fe   -0.36477    0.73351    0.15650
 56 Ni    0.07845   -0.23501   -3.03856
 57 Ni    0.41800    1.05037    0.24321
 58 Co    1.55072    0.17755   -0.07162
 59 Co   -0.68085    0.63756    0.90750
[...]
 93 Cr    0.86975    0.12235    0.05180
 94 Fe    0.57937    0.80002    0.93907
 95 Cr    1.57046   -0.33162    0.61551
 96 Ni   -2.50000   -0.76261    0.22294
 97 Fe    0.97294   -0.93251    0.77714
 98 Co    1.17949   -0.61635    0.37218
 99 Ni    1.98194    1.55969   -0.12701
100 Cr    0.15539   -1.49050    0.39940
101 Al   -0.95423    0.88981    2.17010
102 Cr   -0.79622   -0.31768    0.44192
103 Co   -0.69456   -1.06579   -1.93767
104 Al   -1.53162    1.95500    0.25559
105 Ni    0.71410    0.15250    0.88433
106 Co    0.36264   -0.37557   -0.34522
107 Fe   -0.09740    0.26013   -1.09557

Date: Fri Apr 14 04:14:15 2023