User:   c.zeng@d0025
Date:   Fri Apr 14 04:56:27 2023
Arch:   x86_64
Pid:    112093
CWD:    /home/c.zeng/projects/hea-corrosion/hea-mlp/data-curation/bulk-mcmc/dft-jobs/105
Python: 3.8.1
gpaw:   /home/c.zeng/usr/installs/gpaw/source/gpaw-22.8.0/gpaw
_gpaw:  /home/c.zeng/usr/installs/gpaw/source/gpaw-22.8.0/
        _gpaw.cpython-38-x86_64-linux-gnu.so
ase:    /home/c.zeng/.local/lib/python3.8/site-packages/ase-3.22.1-py3.8.egg/ase (version 3.22.1)
numpy:  /shared/centos7/python/3.8.1/lib/python3.8/site-packages/numpy (version 1.17.4)
scipy:  /shared/centos7/python/3.8.1/lib/python3.8/site-packages/scipy (version 1.4.1)
units:  Angstrom and eV
cores: 30
OpenMP: False
OMP_NUM_THREADS: 1

Input parameters:
  convergence: {energy: 0.0001}
  kpts: [2 2 2]
  maxiter: 666
  mode: {ecut: 350.0,
         name: pw}
  occupations: {fixmagmom: False,
                name: fermi-dirac,
                width: 0.1}
  spinpol: True
  xc: PBE

System changes: positions, numbers, cell, pbc, initial_charges, initial_magmoms

Initialize ...

species:
  Co:
    name: Cobalt
    id: 339d20d5b0b93d2de9531a1bee871d91
    Z: 27.0
    valence: 9
    core: 18
    charge: 0.0
    file: /home/c.zeng/usr/data/gpaw-setups-0.9.20000/Co.PBE.gz
    compensation charges: {type: gauss,
                           rc: 0.32,
                           lmax: 2}
    cutoffs: {filter: 1.87,
              core: 2.55}
    valence states:
      #              energy  rcut
      - 4s(2.00)    -5.469   1.005
      - 4p(0.00)    -1.277   1.058
      - 3d(7.00)    -8.205   1.005
      -  s          21.742   1.005
      -  p          25.934   1.058
      -  d          19.007   1.005

    # Using partial waves for Co as LCAO basis

  Fe:
    name: Iron
    id: 37abbd8d6c3c35915a9b583b742da910
    Z: 26.0
    valence: 8
    core: 18
    charge: 0.0
    file: /home/c.zeng/usr/data/gpaw-setups-0.9.20000/Fe.PBE.gz
    compensation charges: {type: gauss,
                           rc: 0.33,
                           lmax: 2}
    cutoffs: {filter: 2.06,
              core: 2.67}
    valence states:
      #              energy  rcut
      - 4s(2.00)    -5.291   1.164
      - 4p(0.00)    -1.326   1.058
      - 3d(6.00)    -7.505   1.058
      -  s          21.920   1.164
      -  p          25.885   1.058
      -  d          19.706   1.058

[...]

  Ni:
    name: Nickel
    id: 0d9f38a9d6e76a2886f07bb4381f212b
    Z: 28.0
    valence: 16
    core: 12
    charge: 0.0
    file: /home/c.zeng/usr/data/gpaw-setups-0.9.20000/Ni.PBE.gz
    compensation charges: {type: gauss,
                           rc: 0.36,
                           lmax: 2}
    cutoffs: {filter: 2.14,
              core: 1.98}
    valence states:
      #              energy  rcut
      - 4s(2.00)    -5.642   1.164
      - 3p(6.00)   -71.394   1.207
      - 4p(0.00)    -1.226   1.207
      - 3d(8.00)    -8.875   1.138
      -  s          21.570   1.164
      -  d          18.337   1.138

[...]

  Al:
    name: Aluminium
    id: 0292cae29f5d6237e50f6abdd43a7bdd
    Z: 13.0
    valence: 3
    core: 10
    charge: 0.0
    file: /home/c.zeng/usr/data/gpaw-setups-0.9.20000/Al.PBE.gz
    compensation charges: {type: gauss,
                           rc: 0.34,
                           lmax: 2}
    cutoffs: {filter: 1.91,
              core: 2.36}
    valence states:
      #              energy  rcut
      - 3s(2.00)    -7.753   1.085
      - 3p(1.00)    -2.712   1.085
      -  s          19.459   1.085
      -  p          24.499   1.085
      -  d           0.000   1.085

[...]

  Cr:
    name: Chromium
    id: 33f258bda2ca9f93018e70263a35547b
    Z: 24.0
    valence: 6
    core: 18
    charge: 0.0
    file: /home/c.zeng/usr/data/gpaw-setups-0.9.20000/Cr.PBE.gz
    compensation charges: {type: gauss,
                           rc: 0.35,
                           lmax: 2}
    cutoffs: {filter: 2.14,
              core: 3.04}
    valence states:
      #              energy  rcut
      - 4s(1.00)    -4.007   1.164
      - 4p(0.00)    -0.989   1.217
      - 3d(5.00)    -2.913   1.111
      -  s          23.205   1.164
      -  p          26.223   1.217
      -  d          24.299   1.111

    # Using partial waves for Cr as LCAO basis

Reference energy: -3548577.034362  # eV

Spin-polarized calculation.
Magnetic moment: 136.400000

Convergence criteria:
 Maximum [total energy] change in last 3 cyles: 0.0001 eV / electron
 Maximum integral of absolute [dens]ity change: 0.0001 electrons / valence electron
 Maximum integral of absolute [eigenst]ate change: 4e-08 eV^2 / valence electron
 Maximum number of scf [iter]ations: 666
 (Square brackets indicate name in SCF output, whereas a 'c' in
 the SCF output indicates the quantity has converged.)

Symmetries present (total): 1

  ( 1  0  0)
  ( 0  1  0)
  ( 0  0  1)

8 k-points: 2 x 2 x 2 Monkhorst-Pack grid
4 k-points in the irreducible part of the Brillouin zone
       k-points in crystal coordinates                weights
   0:     0.25000000   -0.25000000   -0.25000000          2/8
   1:     0.25000000   -0.25000000    0.25000000          2/8
   2:     0.25000000    0.25000000   -0.25000000          2/8
   3:     0.25000000    0.25000000    0.25000000          2/8

Wave functions: Plane wave expansion
  Cutoff energy: 350.000 eV
  Number of coefficients (min, max): 18331, 18331
  Pulay-stress correction: 0.000000 eV/Ang^3 (de/decut=0.000000)
  Using FFTW library
  ScaLapack parameters: grid=1x1, blocksize=None
  Wavefunction extrapolation:
    Improved wavefunction reuse through dual PAW basis

Occupation numbers: Fermi-Dirac:
  width: 0.1000  # eV

Eigensolver
   Davidson(niter=2)

Densities:
  Coarse grid: 48*48*48 grid
  Fine grid: 96*96*96 grid
  Total Charge: 0.000000

Density mixing:
  Method: difference
  Backend: pulay
  Linear mixing parameter: 0.05
  old densities: 5
  Damping of long wavelength oscillations: 50

Hamiltonian:
  XC and Coulomb potentials evaluated on a 96*96*96 grid
  Using the PBE Exchange-Correlation functional
  External potential:
    NoExternalPotential

XC parameters: PBE with 2 nearest neighbor stencil

Total number of cores used: 30
Parallelization over k-points: 2
Domain decomposition: 5 x 3 x 1

Number of atoms: 108
Number of atomic orbitals: 994
Number of bands in calculation: 674
Number of valence electrons: 980
Bands to converge: occupied

... initialized

Initializing position-dependent things.

Density initialized from atomic densities
Creating initial wave functions:
  674 bands from LCAO basis set

        Co-------Co---------------.
       /|  Co       Fe            |
      / |   AlCr     CrCo     CrCo|
     / Ni       CAl     Ni        |
    /   CCo      Ni      FAl      |
   /    | CoCo     Co      CoCo   |
  /   Co|  NiFeAl   NiNi    CrCr  |
 *      Cr  CrCoNi   CoNiNi   FeNi|
 |Fe   NiNiCr   CrACr   FeCr      |
 | Fe   | NiNi   NiNiCr    Cr     |
 |     Co  CoFeAl   FeNiAl  NiNi  |
 |      Fe    FeNi   FeAlFe   AlCr|
 |Cr    |CoNi   NFeFe   FeFe     Fe
 |      .-FeCr-----FeCr--FeCoNi---.
 |     Cr    CoCr     FeCo  Cr Fe/
 |    / Al      Co       Cr     /
 Cr  /            Cr           /
 |  /      Ni      Cr       Fe/
 | / Co              Fe      /
 |/                     Co  /

Positions:
   0 Co    10.732479   -0.010418   10.721263    ( 0.0000,  0.0000,  2.1000)
   1 Fe    10.706231    1.787006    1.816653    ( 0.0000,  0.0000,  1.5000)
   2 Co     1.827923    0.046024    1.820803    ( 0.0000,  0.0000,  0.0000)
   3 Co     1.781666    1.794790   10.668295    ( 0.0000,  0.0000,  0.0000)
   4 Co     3.605675   -0.024615   10.696977    ( 0.0000,  0.0000,  0.0000)
   5 Ni     3.626284    1.755611    1.827590    ( 0.0000,  0.0000,  2.0000)
   6 Fe     5.347186   -0.032870    1.798425    ( 0.0000,  0.0000,  2.0000)
   7 Al     5.383406    1.755353   -0.004078    ( 0.0000,  0.0000,  2.0000)
   8 Fe     7.108694   -0.021619    0.052076    ( 0.0000,  0.0000,  0.0000)
   9 Cr     7.129131    1.783639    1.838109    ( 0.0000,  0.0000,  2.0000)
  10 Al     8.928414   -0.004386    1.840918    ( 0.0000,  0.0000,  2.0000)
  11 Co     8.945645    1.852509    0.063651    ( 0.0000,  0.0000,  0.0000)
  12 Co    10.721403    3.615743   10.707625    ( 0.0000,  0.0000,  2.1000)
  13 Fe    10.714905    5.407607    1.816064    ( 0.0000,  0.0000,  2.0000)
  14 Al     1.786931    3.537020    1.885127    ( 0.0000,  0.0000,  0.0000)
  15 Co     1.774396    5.426328   10.657058    ( 0.0000,  0.0000,  0.0000)
  16 Co     3.564340    3.564490   10.690115    ( 0.0000,  0.0000,  0.0000)
  17 Co     3.570334    5.434059    1.813919    ( 0.0000,  0.0000,  0.0000)
  18 Co     5.350145    3.574934    1.808708    ( 0.0000,  0.0000,  0.0000)
  19 Al     5.345084    5.410577   10.703464    ( 0.0000,  0.0000,  2.1000)
  20 Fe     7.157695    3.624514    0.002553    ( 0.0000,  0.0000,  2.1000)
  21 Fe     7.157792    5.380200    1.803904    ( 0.0000,  0.0000,  0.0000)
  22 Cr     8.944980    3.620622    1.842988    ( 0.0000,  0.0000,  0.0000)
  23 Al     8.940316    5.370571   -0.005231    ( 0.0000,  0.0000,  0.0000)
  24 Co    10.674578    7.138041   10.683446    ( 0.0000,  0.0000,  2.0000)
  25 Fe    10.668413    8.869012    1.800001    ( 0.0000,  0.0000,  0.0000)
  26 Fe     1.807904    7.157309    1.806960    ( 0.0000,  0.0000,  1.5000)
  27 Co     1.808086    8.895217   10.689064    ( 0.0000,  0.0000,  0.0000)
  28 Cr     3.612462    7.185391   10.698339    ( 0.0000,  0.0000,  2.0000)
  29 Ni     3.598277    8.905404    1.808097    ( 0.0000,  0.0000,  1.5000)
  30 Fe     5.362229    7.149643    1.778835    ( 0.0000,  0.0000,  2.1000)
  31 Fe     5.368084    8.904170   10.708750    ( 0.0000,  0.0000,  2.0000)
  32 Co     7.127640    7.124156   10.700741    ( 0.0000,  0.0000,  2.0000)
  33 Fe     7.139982    8.914904    1.783157    ( 0.0000,  0.0000,  0.0000)
  34 Co     8.884516    7.107975    1.798232    ( 0.0000,  0.0000,  2.0000)
  35 Cr     8.895410    8.880302    0.005476    ( 0.0000,  0.0000,  0.0000)
  36 Cr    10.737840    0.006469    3.587908    ( 0.0000,  0.0000,  1.5000)
  37 Cr     0.009110    1.816214    5.359506    ( 0.0000,  0.0000,  1.5000)
  38 Cr     1.833434   -0.010553    5.335488    ( 0.0000,  0.0000,  2.1000)
  39 Cr     1.814369    1.777409    3.664755    ( 0.0000,  0.0000,  1.5000)
  40 Ni     3.608002   -0.027958    3.615958    ( 0.0000,  0.0000,  2.1000)
  41 Ni     3.597397    1.774364    5.368180    ( 0.0000,  0.0000,  1.5000)
  42 Co     5.355185   -0.018813    5.365682    ( 0.0000,  0.0000,  2.1000)
  43 Cr     5.354005    1.762698    3.609396    ( 0.0000,  0.0000,  1.5000)
  44 Cr     7.096449    0.004839    3.553950    ( 0.0000,  0.0000,  0.0000)
  45 Fe     7.124574    1.817747    5.354692    ( 0.0000,  0.0000,  2.1000)
  46 Fe     8.888698   10.712332    5.289714    ( 0.0000,  0.0000,  0.0000)
  47 Co     8.931727    1.815495    3.558979    ( 0.0000,  0.0000,  1.5000)
  48 Ni    10.700248    3.599864    3.631730    ( 0.0000,  0.0000,  0.0000)
  49 Ni    -0.007893    5.382698    5.388017    ( 0.0000,  0.0000,  2.0000)
  50 Fe     1.794265    3.594073    5.365264    ( 0.0000,  0.0000,  2.0000)
  51 Co     1.782020    5.398675    3.628600    ( 0.0000,  0.0000,  1.5000)
[...]
  55 Fe     5.348633    5.403146    3.628053    ( 0.0000,  0.0000,  0.0000)
  56 Cr     7.166745    3.584809    3.633875    ( 0.0000,  0.0000,  0.0000)
  57 Ni     7.149503    5.367108    5.369102    ( 0.0000,  0.0000,  2.1000)
  58 Fe     8.930869    3.577164    5.375332    ( 0.0000,  0.0000,  0.0000)
  59 Fe     8.940702    5.382345    3.619239    ( 0.0000,  0.0000,  2.0000)
[...]
  93 Ni     7.158199    5.390858    8.905983    ( 0.0000,  0.0000,  1.5000)
  94 Ni     8.930826    3.597912    8.885374    ( 0.0000,  0.0000,  0.0000)
  95 Cr     8.935737    5.388735    7.127651    ( 0.0000,  0.0000,  0.0000)
  96 Ni    10.717929    7.165190    7.144378    ( 0.0000,  0.0000,  2.1000)
  97 Ni    10.739341    8.898756    8.943093    ( 0.0000,  0.0000,  1.5000)
  98 Co     1.793750    7.182882    8.888666    ( 0.0000,  0.0000,  1.5000)
  99 Ni     1.836501    8.904825    7.123094    ( 0.0000,  0.0000,  2.1000)
 100 Co     3.587511    7.157223    7.133645    ( 0.0000,  0.0000,  2.1000)
 101 Co     3.596025    8.923803    8.905018    ( 0.0000,  0.0000,  1.5000)
 102 Co     5.369413    7.149278    8.921112    ( 0.0000,  0.0000,  2.0000)
 103 Ni     5.343776    8.916533    7.143070    ( 0.0000,  0.0000,  2.1000)
 104 Ni     7.139778    7.140400    7.139349    ( 0.0000,  0.0000,  2.1000)
 105 Ni     7.106892    8.889835    8.908727    ( 0.0000,  0.0000,  1.5000)
 106 Co     8.907419    7.146362    8.906765    ( 0.0000,  0.0000,  2.0000)
 107 Cr     8.922313    8.892279    7.115031    ( 0.0000,  0.0000,  2.0000)

Unit cell:
           periodic     x           y           z      points  spacing
  1. axis:    yes   10.722400    0.000000    0.000000    48     0.2234
  2. axis:    yes    0.000000   10.722400    0.000000    48     0.2234
  3. axis:    yes    0.000000    0.000000   10.722400    48     0.2234

  Lengths:  10.722400  10.722400  10.722400
  Angles:   90.000000  90.000000  90.000000

Effective grid spacing dv^(1/3) = 0.2234

     iter     time        total  log10-change:  magmom
                         energy  eigst   dens
iter:   1 05:02:05  -927.528027                  +135.9363
iter:   2 05:04:32  -901.493464  -0.45  -1.32    +98.8517
iter:   3 05:07:05  -886.709170  -0.86  -1.29    +70.8642
iter:   4 05:09:38  -857.764794  -1.42  -1.32    +60.7811
iter:   5 05:12:10  -856.198505  -1.79  -1.45    +54.4017
iter:   6 05:14:43  -855.719059  -1.92  -1.46    +51.5040
iter:   7 05:17:16  -856.051514  -1.69  -1.50    +49.9712
iter:   8 05:19:48  -851.202802  -1.72  -1.52    +49.2828
iter:   9 05:22:20  -861.624630  -1.66  -1.67    +49.2437
iter:  10 05:24:51  -849.872049  -1.90  -1.60    +48.5967
iter:  11 05:27:18  -850.098988  -2.27  -1.84    +49.0071
iter:  12 05:29:50  -849.016651  -2.57  -1.84    +49.4439
iter:  13 05:32:23  -850.195748  -2.46  -1.91    +50.0158
iter:  14 05:34:56  -849.579264  -2.60  -1.89    +50.7459
iter:  15 05:37:28  -851.743796  -2.46  -1.97    +51.2007
iter:  16 05:40:03  -851.383513  -2.38  -1.93    +52.0744
iter:  17 05:42:36  -851.843815  -2.44  -1.95    +52.0610
iter:  18 05:45:06  -850.322154  -2.62  -1.96    +52.5576
iter:  19 05:47:38  -850.505755  -2.68  -2.07    +53.1642
iter:  20 05:50:11  -849.678070  -3.07  -2.07    +53.6105
iter:  21 05:52:44  -849.832627  -3.30  -2.20    +54.5595
iter:  22 05:55:16  -850.017770  -3.31  -2.22    +55.0326
iter:  23 05:57:49  -850.101860  -3.39  -2.21    +55.7380
iter:  24 06:00:21  -850.478911  -3.15  -2.25    +56.4319
iter:  25 06:02:54  -851.018499  -3.01  -2.26    +56.6284
iter:  26 06:05:24  -850.940821  -2.98  -2.18    +57.3795
iter:  27 06:07:51  -851.043824  -3.04  -2.26    +57.7861
iter:  28 06:10:24  -851.051054  -3.10  -2.26    +58.4330
iter:  29 06:12:57  -850.898549  -3.36  -2.31    +58.5191
iter:  30 06:15:30  -850.901055  -3.77  -2.37    +58.9977
iter:  31 06:18:03  -850.998579  -3.73  -2.42    +59.3234
iter:  32 06:20:35  -851.060905  -4.06  -2.42    +59.7600
iter:  33 06:23:08  -851.304187  -3.55  -2.44    +60.2230
iter:  34 06:25:39  -851.418063  -3.47  -2.41    +60.2941
iter:  35 06:28:07  -851.732276  -3.20  -2.50    +60.4546
iter:  36 06:30:41  -851.552836  -3.33  -2.42    +60.1789
iter:  37 06:33:13  -851.471173  -3.50  -2.50    +60.2459
iter:  38 06:35:46  -851.522333c -3.62  -2.71    +60.2060
iter:  39 06:38:18  -851.488428c -3.84  -2.62    +60.2381
iter:  40 06:40:50  -851.488903c -4.13  -2.75    +60.3105
iter:  41 06:43:23  -851.512782c -4.30  -2.86    +60.2166
iter:  42 06:45:53  -851.529807c -4.49  -2.89    +60.2969
iter:  43 06:48:23  -851.573633c -4.41  -2.93    +60.2422
iter:  44 06:50:56  -851.671662  -3.76  -2.91    +59.9140
iter:  45 06:53:29  -851.699085  -4.47  -2.84    +59.9931
iter:  46 06:56:01  -851.716360c -4.90  -2.82    +59.9720
iter:  47 06:58:33  -851.731517c -4.96  -2.82    +60.0820
iter:  48 07:01:06  -851.776884c -3.92  -2.80    +60.2534
iter:  49 07:03:39  -851.743481c -4.11  -2.80    +60.0868
iter:  50 07:06:09  -851.895380  -3.64  -2.96    +59.9671
iter:  51 07:08:41  -851.724550  -4.10  -2.69    +60.0038
iter:  52 07:11:13  -851.734599  -4.79  -3.29    +59.9903
iter:  53 07:13:46  -851.737828c -4.98  -3.30    +59.9666
iter:  54 07:16:18  -851.744141c -5.10  -3.34    +60.0442
iter:  55 07:18:50  -851.749756c -5.22  -3.38    +60.0851
iter:  56 07:21:22  -851.753827c -5.32  -3.37    +60.1173
iter:  57 07:23:55  -851.759836c -5.18  -3.41    +60.1515
iter:  58 07:26:25  -851.761611c -5.39  -3.45    +60.1575
iter:  59 07:28:58  -851.765168c -5.24  -3.48    +60.1619
iter:  60 07:31:34  -851.767135c -5.52  -3.52    +60.1832
iter:  61 07:34:10  -851.771813c -5.40  -3.55    +60.2120
iter:  62 07:36:46  -851.773586c -5.75  -3.59    +60.2225
iter:  63 07:39:23  -851.779338c -5.41  -3.63    +60.2791
iter:  64 07:41:58  -851.778764c -6.25  -3.62    +60.2756
iter:  65 07:44:33  -851.785927c -5.38  -3.64    +60.3141
iter:  66 07:47:07  -851.795904c -4.95  -3.61    +60.3645
iter:  67 07:49:43  -851.788056c -5.57  -3.61    +60.3267
iter:  68 07:52:18  -851.783887c -5.51  -3.65    +60.2926
iter:  69 07:54:54  -851.788145c -5.68  -3.75    +60.3153
iter:  70 07:57:29  -851.787061c -5.88  -3.72    +60.2976
iter:  71 08:00:04  -851.791285c -5.50  -3.92    +60.2953
iter:  72 08:02:38  -851.791499c -6.31  -3.81    +60.3188
iter:  73 08:05:08  -851.797613c -5.43  -4.02c   +60.3759
iter:  74 08:07:44  -851.798384c -6.09  -3.87    +60.3998
iter:  75 08:10:19  -851.805004c -5.36  -4.06c   +60.4708
iter:  76 08:12:55  -851.795063c -5.18  -3.92    +60.3734
iter:  77 08:15:30  -851.799511c -5.97  -3.91    +60.4039
iter:  78 08:18:06  -851.799766c -6.85  -3.99    +60.4046
iter:  79 08:20:41  -851.806300c -5.38  -4.09c   +60.4118
iter:  80 08:23:14  -851.801147c -5.53  -3.91    +60.4576
iter:  81 08:25:47  -851.805325c -5.89  -3.97    +60.5299
iter:  82 08:28:22  -851.806875c -6.21  -4.03c   +60.5223
iter:  83 08:30:57  -851.809552c -5.89  -3.97    +60.5981
iter:  84 08:33:33  -851.810679c -5.53  -3.85    +60.4825
iter:  85 08:36:08  -851.815440c -4.92  -3.84    +60.2601
iter:  86 08:38:42  -851.818498c -5.66  -3.67    +60.4161
iter:  87 08:41:16  -851.819244c -5.26  -3.74    +60.2049
iter:  88 08:43:46  -851.824241c -5.41  -3.58    +60.3745
iter:  89 08:46:21  -851.827002c -5.71  -3.55    +60.3758
iter:  90 08:48:57  -851.832555c -5.20  -3.50    +60.4662
iter:  91 08:51:33  -851.835640c -5.36  -3.47    +60.5128
iter:  92 08:54:09  -851.842319c -4.89  -3.53    +60.5726
iter:  93 08:56:44  -851.838329c -5.34  -3.39    +60.5972
iter:  94 08:59:19  -851.843649c -5.41  -3.58    +60.6429
iter:  95 09:01:51  -851.849587c -5.06  -3.51    +60.6793
iter:  96 09:04:27  -851.853394c -5.22  -3.52    +60.7435
iter:  97 09:07:02  -851.862781c -4.87  -3.56    +60.8531
iter:  98 09:09:38  -851.866444c -5.18  -3.43    +60.8297
iter:  99 09:12:13  -851.866691c -4.97  -3.35    +60.9393
iter: 100 09:14:49  -851.868540c -5.12  -3.39    +61.1028
iter: 101 09:17:23  -851.868303c -5.41  -3.41    +61.1039
iter: 102 09:19:58  -851.875335c -4.82  -3.44    +61.1228
iter: 103 09:22:34  -851.867796c -5.37  -3.25    +61.0724
iter: 104 09:24:55  -851.870388c -5.39  -3.47    +61.0436
iter: 105 09:27:15  -851.868223c -5.59  -3.44    +61.0506
iter: 106 09:29:36  -851.868126c -5.46  -3.49    +61.0165
iter: 107 09:31:54  -851.866787c -5.23  -3.52    +60.9794
iter: 108 09:34:14  -851.866616c -5.61  -3.60    +60.9690
iter: 109 09:36:35  -851.866787c -5.84  -3.67    +60.9579
iter: 110 09:39:07  -851.866780c -6.07  -3.68    +60.9636
iter: 111 09:42:22  -851.866673c -6.35  -3.76    +60.9529
iter: 112 09:44:42  -851.867215c -6.23  -3.80    +60.9364
iter: 113 09:47:02  -851.867398c -6.18  -3.83    +60.9222
iter: 114 09:49:23  -851.867425c -6.11  -3.77    +60.9140
iter: 115 09:51:42  -851.867532c -6.14  -3.82    +60.9106
iter: 116 09:54:01  -851.867650c -6.16  -3.90    +60.8874
iter: 117 09:56:21  -851.868207c -6.16  -3.90    +60.8806
iter: 118 09:58:53  -851.867819c -6.47  -3.90    +60.8855
iter: 119 10:02:10  -851.868007c -6.56  -4.04c   +60.8735
iter: 120 10:04:31  -851.868134c -6.90  -4.08c   +60.8599
iter: 121 10:06:50  -851.868232c -7.17  -4.11c   +60.8509
iter: 122 10:09:11  -851.868449c -6.65  -4.13c   +60.8312
iter: 123 10:11:31  -851.868590c -6.74  -4.20c   +60.8450
iter: 124 10:13:51  -851.868585c -6.56  -4.26c   +60.8236
iter: 125 10:16:10  -851.868716c -7.11  -4.39c   +60.8237
iter: 126 10:18:30  -851.868923c -6.92  -4.62c   +60.8079
iter: 127 10:21:27  -851.868794c -7.67c -4.61c   +60.8151

Converged after 127 iterations.

Dipole moment: (-1.733604, 12.946246, 14.392649) |e|*Ang

Total magnetic moment: (0.000000, 0.000000, 60.815055)
Local magnetic moments:
   0 Co ( 0.000000,  0.000000,  1.087814)
   1 Fe ( 0.000000,  0.000000,  2.158984)
   2 Co ( 0.000000,  0.000000,  1.444221)
   3 Co ( 0.000000,  0.000000,  1.112239)
   4 Co ( 0.000000,  0.000000,  1.119646)
   5 Ni ( 0.000000,  0.000000,  0.204404)
   6 Fe ( 0.000000,  0.000000,  1.961629)
   7 Al ( 0.000000,  0.000000, -0.018703)
   8 Fe ( 0.000000,  0.000000, -1.488579)
   9 Cr ( 0.000000,  0.000000,  0.937874)
  10 Al ( 0.000000,  0.000000, -0.015102)
  11 Co ( 0.000000,  0.000000,  1.012057)
  12 Co ( 0.000000,  0.000000,  1.009087)
  13 Fe ( 0.000000,  0.000000,  2.264499)
  14 Al ( 0.000000,  0.000000, -0.030096)
  15 Co ( 0.000000,  0.000000,  1.268678)
  16 Co ( 0.000000,  0.000000,  1.232403)
  17 Co ( 0.000000,  0.000000,  1.150646)
  18 Co ( 0.000000,  0.000000,  1.042993)
  19 Al ( 0.000000,  0.000000, -0.041218)
  20 Fe ( 0.000000,  0.000000,  2.159650)
  21 Fe ( 0.000000,  0.000000,  2.071254)
  22 Cr ( 0.000000,  0.000000, -1.262859)
  23 Al ( 0.000000,  0.000000, -0.037457)
  24 Co ( 0.000000,  0.000000,  1.263397)
  25 Fe ( 0.000000,  0.000000,  2.242365)
  26 Fe ( 0.000000,  0.000000,  2.328012)
  27 Co ( 0.000000,  0.000000,  1.478929)
  28 Cr ( 0.000000,  0.000000, -2.072936)
  29 Ni ( 0.000000,  0.000000,  0.489252)
  30 Fe ( 0.000000,  0.000000,  1.985191)
  31 Fe ( 0.000000,  0.000000,  2.137833)
  32 Co ( 0.000000,  0.000000,  1.141036)
  33 Fe ( 0.000000,  0.000000,  1.843811)
  34 Co ( 0.000000,  0.000000,  1.232872)
  35 Cr ( 0.000000,  0.000000, -1.557748)
  36 Cr ( 0.000000,  0.000000, -1.656017)
  37 Cr ( 0.000000,  0.000000,  0.873097)
  38 Cr ( 0.000000,  0.000000,  1.049398)
  39 Cr ( 0.000000,  0.000000,  0.045822)
  40 Ni ( 0.000000,  0.000000,  0.267256)
  41 Ni ( 0.000000,  0.000000,  0.085185)
  42 Co ( 0.000000,  0.000000,  1.011693)
  43 Cr ( 0.000000,  0.000000,  0.490329)
  44 Cr ( 0.000000,  0.000000, -1.437789)
  45 Fe ( 0.000000,  0.000000,  1.535719)
  46 Fe ( 0.000000,  0.000000,  2.005798)
  47 Co ( 0.000000,  0.000000,  0.427293)
  48 Ni ( 0.000000,  0.000000,  0.274155)
  49 Ni ( 0.000000,  0.000000,  0.186517)
  50 Fe ( 0.000000,  0.000000,  2.084977)
  51 Co ( 0.000000,  0.000000,  1.189635)
  52 Cr ( 0.000000,  0.000000, -1.703967)
  53 Fe ( 0.000000,  0.000000,  2.229509)
  54 Ni ( 0.000000,  0.000000,  0.123728)
  55 Fe ( 0.000000,  0.000000,  2.194436)
  56 Cr ( 0.000000,  0.000000, -1.441474)
  57 Ni ( 0.000000,  0.000000,  0.199497)
  58 Fe ( 0.000000,  0.000000,  1.591048)
  59 Fe ( 0.000000,  0.000000,  1.695441)
[...]
  93 Ni ( 0.000000,  0.000000,  0.221891)
  94 Ni ( 0.000000,  0.000000,  0.146136)
  95 Cr ( 0.000000,  0.000000, -1.176713)
  96 Ni ( 0.000000,  0.000000,  0.098919)
  97 Ni ( 0.000000,  0.000000,  0.233722)
  98 Co ( 0.000000,  0.000000,  1.357014)
  99 Ni ( 0.000000,  0.000000,  0.189881)
 100 Co ( 0.000000,  0.000000,  1.393126)
 101 Co ( 0.000000,  0.000000,  1.244677)
 102 Co ( 0.000000,  0.000000,  1.242803)
 103 Ni ( 0.000000,  0.000000,  0.342750)
 104 Ni ( 0.000000,  0.000000,  0.211865)
 105 Ni ( 0.000000,  0.000000,  0.225556)
 106 Co ( 0.000000,  0.000000,  0.997634)
 107 Cr ( 0.000000,  0.000000, -1.508642)

Energy contributions relative to reference atoms: (reference = -3548577.034362)

Kinetic:       +198.511390
Potential:     -227.342183
External:        +0.000000
XC:            -856.712402
Entropy (-ST):   -4.519030
Local:          +35.933916
Free energy:   -854.128309
Extrapolated:  -851.868794

Spin contamination: 29.777905 electrons
Showing only first 2 kpts
                      Up                     Down
 Kpt  Band  Eigenvalues  Occupancy  Eigenvalues  Occupancy
  0   488      9.50430    0.99313     10.35893    0.02731
  0   489      9.51789    0.99213     10.36912    0.02472
  0   490      9.53184    0.99097     10.38120    0.02197
  0   491      9.54196    0.99002     10.39179    0.01981

  1   488      9.50138    0.99332     10.36141    0.02665
  1   489      9.51175    0.99260     10.37512    0.02332
  1   490      9.53528    0.99065     10.38256    0.02168
  1   491      9.54268    0.98994     10.40637    0.01717

Fermi level: 10.00163

No gap

Forces in eV/Ang:
  0 Co   -0.13458    0.10483    0.17117
  1 Fe    0.16797    0.06314   -0.27107
  2 Co   -0.19762   -0.45402   -0.20701
  3 Co    0.10056    0.04974    0.44471
  4 Co   -0.34714   -0.09519    0.45904
  5 Ni   -0.47300    0.09304   -0.25034
  6 Fe   -0.23210   -0.45257    0.08428
  7 Al   -0.71290    0.80725    0.45160
  8 Fe    0.32807    0.25575   -0.49646
  9 Cr    0.05045    0.57229   -0.08932
 10 Al    0.30252   -0.01814   -0.83818
 11 Co   -0.07624    0.01869   -0.73768
 12 Co    0.10549   -0.37404    0.10408
 13 Fe    0.16448   -0.07844   -0.25875
 14 Al   -0.00493    0.67681   -1.35918
 15 Co    0.15496   -0.32724    0.19672
 16 Co   -0.26259    0.26579    0.28280
 17 Co   -0.18684   -0.40696   -0.01842
 18 Co   -0.03692    0.24863    0.16218
 19 Al    0.37337   -1.16413    0.00482
 20 Fe    0.03793   -0.57923   -0.13492
 21 Fe   -0.17591   -0.51687    0.05703
 22 Cr    0.34412   -0.76196    0.07624
 23 Al   -0.26678    0.42425   -0.51243
 24 Co    0.48947    0.29454    0.20643
 25 Fe    0.57657    0.14281   -0.29478
 26 Fe   -0.05275    0.07724   -0.39578
 27 Co   -0.08305   -0.10362    0.57137
 28 Cr   -1.09315    0.57163   -0.04934
 29 Ni   -0.41415    0.42553   -0.13136
 30 Fe   -0.28635    0.23640    0.01560
 31 Fe    0.03082    0.09424   -0.02525
 32 Co    0.16100    0.61311    0.08401
 33 Fe   -0.02326    0.04569   -0.23629
 34 Co    0.36009    0.34582   -0.04857
 35 Cr    0.01087   -0.48901   -0.55372
 36 Cr    0.48027   -0.35016    0.77960
 37 Cr    0.02448   -0.05822   -0.33991
 38 Cr   -0.39437    0.25928    0.15720
 39 Cr    0.11101   -0.77729   -0.19039
 40 Ni   -0.12315    0.26710   -0.37969
 41 Ni   -0.19928   -0.02990   -0.07440
 42 Co    0.27208   -0.36759   -0.28727
 43 Cr   -0.13178    0.09643    0.04532
 44 Cr   -0.34490    0.04633    0.73677
 45 Fe    0.50199   -0.24646   -0.49662
 46 Fe    0.43888   -0.44588    0.25902
 47 Co    0.08634    0.20398    0.43646
 48 Ni    0.07379   -0.03409   -0.15943
 49 Ni   -0.04522   -0.37665   -0.05079
 50 Fe    0.02777   -0.02163    0.18835
 51 Co    0.21827    0.06661   -0.11226
 52 Cr    0.71287    0.13019   -0.08862
 53 Fe   -0.56709   -0.06631   -0.37035
 54 Ni    0.14325    0.04446   -0.26980
 55 Fe   -0.37636   -0.99211   -0.49281
 56 Cr   -0.38515    0.09071    0.10355
 57 Ni    0.00664   -0.09131   -0.19201
 58 Fe    0.06953    0.39062   -0.40666
 59 Fe    0.08923   -0.65439   -0.02996
[...]
 93 Ni    0.02185   -0.21787   -0.06759
 94 Ni    0.14008   -0.31994    0.48605
 95 Cr   -0.16363   -0.15604    0.12859
 96 Ni    0.02568   -0.00792    0.04455
 97 Ni   -0.14737    0.08880   -0.08274
 98 Co    0.17517   -0.29383    0.46734
 99 Ni   -0.39694   -0.00577    0.16161
100 Co   -0.25641    0.08616    0.25243
101 Co    0.16506   -0.34872    0.22048
102 Co   -0.25448    0.48789   -0.06413
103 Ni   -0.04881    0.10729    0.05036
104 Ni    0.17509    0.21162    0.15788
105 Ni    0.39529    0.22868    0.03145
106 Co    0.05239    0.32467    0.03172
107 Cr   -0.20194    0.14310    0.26869

Date: Fri Apr 14 10:21:57 2023