User:   c.zeng@d0135
Date:   Sat Apr  8 12:34:05 2023
Arch:   x86_64
Pid:    49149
CWD:    /home/c.zeng/projects/hea-corrosion/hea-mlp/data-curation/volume/dft-jobs/66
Python: 3.8.1
gpaw:   /home/c.zeng/usr/installs/gpaw/source/gpaw-22.8.0/gpaw
_gpaw:  /home/c.zeng/usr/installs/gpaw/source/gpaw-22.8.0/
        _gpaw.cpython-38-x86_64-linux-gnu.so
ase:    /home/c.zeng/.local/lib/python3.8/site-packages/ase-3.22.1-py3.8.egg/ase (version 3.22.1)
numpy:  /shared/centos7/python/3.8.1/lib/python3.8/site-packages/numpy (version 1.17.4)
scipy:  /shared/centos7/python/3.8.1/lib/python3.8/site-packages/scipy (version 1.4.1)
units:  Angstrom and eV
cores: 64
OpenMP: False
OMP_NUM_THREADS: 1

Input parameters:
  convergence: {energy: 0.0001}
  kpts: [2 2 2]
  maxiter: 666
  mode: {ecut: 350.0,
         name: pw}
  occupations: {fixmagmom: False,
                name: fermi-dirac,
                width: 0.1}
  spinpol: True
  xc: PBE

System changes: positions, numbers, cell, pbc, initial_charges, initial_magmoms

Initialize ...

species:
  Co:
    name: Cobalt
    id: 339d20d5b0b93d2de9531a1bee871d91
    Z: 27.0
    valence: 9
    core: 18
    charge: 0.0
    file: /home/c.zeng/usr/data/gpaw-setups-0.9.20000/Co.PBE.gz
    compensation charges: {type: gauss,
                           rc: 0.32,
                           lmax: 2}
    cutoffs: {filter: 1.87,
              core: 2.55}
    valence states:
      #              energy  rcut
      - 4s(2.00)    -5.469   1.005
      - 4p(0.00)    -1.277   1.058
      - 3d(7.00)    -8.205   1.005
      -  s          21.742   1.005
      -  p          25.934   1.058
      -  d          19.007   1.005

    # Using partial waves for Co as LCAO basis

  Ni:
    name: Nickel
    id: 0d9f38a9d6e76a2886f07bb4381f212b
    Z: 28.0
    valence: 16
    core: 12
    charge: 0.0
    file: /home/c.zeng/usr/data/gpaw-setups-0.9.20000/Ni.PBE.gz
    compensation charges: {type: gauss,
                           rc: 0.36,
                           lmax: 2}
    cutoffs: {filter: 2.14,
              core: 1.98}
    valence states:
      #              energy  rcut
      - 4s(2.00)    -5.642   1.164
      - 3p(6.00)   -71.394   1.207
      - 4p(0.00)    -1.226   1.207
      - 3d(8.00)    -8.875   1.138
      -  s          21.570   1.164
      -  d          18.337   1.138

[...]

  Al:
    name: Aluminium
    id: 0292cae29f5d6237e50f6abdd43a7bdd
    Z: 13.0
    valence: 3
    core: 10
    charge: 0.0
    file: /home/c.zeng/usr/data/gpaw-setups-0.9.20000/Al.PBE.gz
    compensation charges: {type: gauss,
                           rc: 0.34,
                           lmax: 2}
    cutoffs: {filter: 1.91,
              core: 2.36}
    valence states:
      #              energy  rcut
      - 3s(2.00)    -7.753   1.085
      - 3p(1.00)    -2.712   1.085
      -  s          19.459   1.085
      -  p          24.499   1.085
      -  d           0.000   1.085

[...]

  Cr:
    name: Chromium
    id: 33f258bda2ca9f93018e70263a35547b
    Z: 24.0
    valence: 6
    core: 18
    charge: 0.0
    file: /home/c.zeng/usr/data/gpaw-setups-0.9.20000/Cr.PBE.gz
    compensation charges: {type: gauss,
                           rc: 0.35,
                           lmax: 2}
    cutoffs: {filter: 2.14,
              core: 3.04}
    valence states:
      #              energy  rcut
      - 4s(1.00)    -4.007   1.164
      - 4p(0.00)    -0.989   1.217
      - 3d(5.00)    -2.913   1.111
      -  s          23.205   1.164
      -  p          26.223   1.217
      -  d          24.299   1.111

[...]

  Fe:
    name: Iron
    id: 37abbd8d6c3c35915a9b583b742da910
    Z: 26.0
    valence: 8
    core: 18
    charge: 0.0
    file: /home/c.zeng/usr/data/gpaw-setups-0.9.20000/Fe.PBE.gz
    compensation charges: {type: gauss,
                           rc: 0.33,
                           lmax: 2}
    cutoffs: {filter: 2.06,
              core: 2.67}
    valence states:
      #              energy  rcut
      - 4s(2.00)    -5.291   1.164
      - 4p(0.00)    -1.326   1.058
      - 3d(6.00)    -7.505   1.058
      -  s          21.920   1.164
      -  p          25.885   1.058
      -  d          19.706   1.058

    # Using partial waves for Fe as LCAO basis

Reference energy: -3548577.034362  # eV

Spin-polarized calculation.
Magnetic moment: 136.400000

Convergence criteria:
 Maximum [total energy] change in last 3 cyles: 0.0001 eV / electron
 Maximum integral of absolute [dens]ity change: 0.0001 electrons / valence electron
 Maximum integral of absolute [eigenst]ate change: 4e-08 eV^2 / valence electron
 Maximum number of scf [iter]ations: 666
 (Square brackets indicate name in SCF output, whereas a 'c' in
 the SCF output indicates the quantity has converged.)

Symmetries present (total): 1

  ( 1  0  0)
  ( 0  1  0)
  ( 0  0  1)

8 k-points: 2 x 2 x 2 Monkhorst-Pack grid
4 k-points in the irreducible part of the Brillouin zone
       k-points in crystal coordinates                weights
   0:     0.25000000   -0.25000000   -0.25000000          2/8
   1:     0.25000000   -0.25000000    0.25000000          2/8
   2:     0.25000000    0.25000000   -0.25000000          2/8
   3:     0.25000000    0.25000000    0.25000000          2/8

Wave functions: Plane wave expansion
  Cutoff energy: 350.000 eV
  Number of coefficients (min, max): 24387, 24387
  Pulay-stress correction: 0.000000 eV/Ang^3 (de/decut=0.000000)
  Using FFTW library
  ScaLapack parameters: grid=1x1, blocksize=None
  Wavefunction extrapolation:
    Improved wavefunction reuse through dual PAW basis

Occupation numbers: Fermi-Dirac:
  width: 0.1000  # eV

Eigensolver
   Davidson(niter=2)

Densities:
  Coarse grid: 54*54*54 grid
  Fine grid: 108*108*108 grid
  Total Charge: 0.000000

Density mixing:
  Method: difference
  Backend: pulay
  Linear mixing parameter: 0.05
  old densities: 5
  Damping of long wavelength oscillations: 50

Hamiltonian:
  XC and Coulomb potentials evaluated on a 108*108*108 grid
  Using the PBE Exchange-Correlation functional
  External potential:
    NoExternalPotential

XC parameters: PBE with 2 nearest neighbor stencil

Total number of cores used: 64
Parallelization over k-points: 4
Domain decomposition: 4 x 2 x 2

Number of atoms: 108
Number of atomic orbitals: 994
Number of bands in calculation: 674
Number of valence electrons: 980
Bands to converge: occupied

... initialized

Initializing position-dependent things.

Density initialized from atomic densities
Creating initial wave functions:
  674 bands from LCAO basis set

       /|   Cr       Fe              |
      / |      Fe        Fe     Al   |
     /  |          Co                |
    /   |Al      Ni       Ni        Ni
   /    Al NiCr     Fe     Ni FeCo   |
  /  CoCr   CoFe     Co Ni     Fe    |
 *      Ni Cr  Co Al     CoCr CoAl Co|
 |Co    |Fe Fe  Co CoCr   Cr Cr     Ni
 | Cr Co| Cr Co Fe  Co Fe     Fe     |
 |     Fe   NiNi                     |
 |   Fe |        Cr  Cr CoNi   Ni    |
 |      Fe Fe  Co Co     CrCr      Ni|
 |Ni    |Ni Ni   NiCrCo   Cr Fe     Al
 |    Co.-Ni-Ni-Co--Co-Cr-----FeCr---.
 |     Ni     Cr Ni     CrNi   CrFe /
 |    / Al Co     AlCr      CrNi   Fe
 |   /      Fe       Fe      CrNi /
 | /  Al        Fe     CoFe     /
 |/              Fe       Al   /
 *------------------Cr--------*

Positions:
   0 Co    -0.000001    0.000002   -0.000001    ( 0.0000,  0.0000,  2.1000)
   1 Ni    -0.000010    1.964242    1.964254    ( 0.0000,  0.0000,  1.5000)
   2 Al     1.964266    0.000020    1.964266    ( 0.0000,  0.0000,  0.0000)
   3 Cr     1.964254    1.964254   -0.000013    ( 0.0000,  0.0000,  0.0000)
   4 Cr     3.928520    0.000007   -0.000005    ( 0.0000,  0.0000,  0.0000)
   5 Fe     3.928508    1.964242    1.964254    ( 0.0000,  0.0000,  2.0000)
   6 Fe     5.892750    0.000011    1.964242    ( 0.0000,  0.0000,  2.0000)
   7 Fe     5.892750    1.964242    0.000006    ( 0.0000,  0.0000,  2.0000)
   8 Cr     7.856980    0.000002    0.000014    ( 0.0000,  0.0000,  0.0000)
   9 Fe     7.856992    1.964242    1.964254    ( 0.0000,  0.0000,  2.0000)
  10 Fe     9.821246    0.000004    1.964254    ( 0.0000,  0.0000,  2.0000)
  11 Al     9.821246    1.964254    0.000033    ( 0.0000,  0.0000,  0.0000)
  12 Co    -0.000003    3.928508   -0.000002    ( 0.0000,  0.0000,  2.1000)
  13 Fe    -0.000006    5.892762    1.964254    ( 0.0000,  0.0000,  2.0000)
  14 Al     1.964242    3.928484    1.964277    ( 0.0000,  0.0000,  0.0000)
  15 Al     1.964242    5.892774   -0.000019    ( 0.0000,  0.0000,  0.0000)
  16 Cr     3.928508    3.928484   -0.000010    ( 0.0000,  0.0000,  0.0000)
  17 Cr     3.928508    5.892762    1.964254    ( 0.0000,  0.0000,  0.0000)
  18 Al     5.892750    3.928473    1.964242    ( 0.0000,  0.0000,  0.0000)
  19 Co     5.892750    5.892774   -0.000008    ( 0.0000,  0.0000,  2.1000)
  20 Co     7.856992    3.928496    0.000002    ( 0.0000,  0.0000,  2.1000)
  21 Cr     7.857016    5.892762    1.964242    ( 0.0000,  0.0000,  0.0000)
  22 Cr     9.821258    3.928508    1.964254    ( 0.0000,  0.0000,  0.0000)
  23 Cr     9.821258    5.892762    0.000006    ( 0.0000,  0.0000,  0.0000)
  24 Fe    -0.000006    7.856992    0.000001    ( 0.0000,  0.0000,  2.0000)
  25 Al    -0.000031    9.821234    1.964242    ( 0.0000,  0.0000,  0.0000)
  26 Ni     1.964242    7.856992    1.964254    ( 0.0000,  0.0000,  1.5000)
  27 Cr     1.964254    9.821234   -0.000013    ( 0.0000,  0.0000,  0.0000)
  28 Fe     3.928508    7.857004   -0.000005    ( 0.0000,  0.0000,  2.0000)
  29 Ni     3.928508    9.821246    1.964254    ( 0.0000,  0.0000,  1.5000)
  30 Co     5.892750    7.857004    1.964242    ( 0.0000,  0.0000,  2.1000)
  31 Fe     5.892750    9.821246   -0.000003    ( 0.0000,  0.0000,  2.0000)
  32 Fe     7.856992    7.857004   -0.000004    ( 0.0000,  0.0000,  2.0000)
  33 Cr     7.857004    9.821246    1.964242    ( 0.0000,  0.0000,  0.0000)
  34 Fe     9.821258    7.856992    1.964254    ( 0.0000,  0.0000,  2.0000)
  35 Cr     9.821246    9.821234    0.000003    ( 0.0000,  0.0000,  0.0000)
  36 Ni    -0.000003    0.000005    3.928496    ( 0.0000,  0.0000,  1.5000)
  37 Ni     0.000011    1.964254    5.892750    ( 0.0000,  0.0000,  1.5000)
  38 Co     1.964254    0.000004    5.892750    ( 0.0000,  0.0000,  2.1000)
  39 Ni     1.964254    1.964254    3.928508    ( 0.0000,  0.0000,  1.5000)
  40 Co     3.928508    0.000004    3.928508    ( 0.0000,  0.0000,  2.1000)
  41 Ni     3.928496    1.964254    5.892750    ( 0.0000,  0.0000,  1.5000)
  42 Co     5.892750    0.000001    5.892750    ( 0.0000,  0.0000,  2.1000)
  43 Ni     5.892750    1.964242    3.928496    ( 0.0000,  0.0000,  1.5000)
  44 Cr     7.856992    0.000013    3.928484    ( 0.0000,  0.0000,  0.0000)
  45 Co     7.856992    1.964254    5.892750    ( 0.0000,  0.0000,  2.1000)
  46 Al     9.821234   -0.000004    5.892726    ( 0.0000,  0.0000,  0.0000)
  47 Ni     9.821246    1.964242    3.928484    ( 0.0000,  0.0000,  1.5000)
  48 Cr    -0.000001    3.928508    3.928508    ( 0.0000,  0.0000,  0.0000)
  49 Fe     0.000002    5.892750    5.892750    ( 0.0000,  0.0000,  2.0000)
  50 Fe     1.964254    3.928496    5.892750    ( 0.0000,  0.0000,  2.0000)
  51 Ni     1.964242    5.892750    3.928508    ( 0.0000,  0.0000,  1.5000)
  52 Ni     3.928496    3.928496    3.928508    ( 0.0000,  0.0000,  1.5000)
  53 Ni     3.928496    5.892750    5.892762    ( 0.0000,  0.0000,  1.5000)
  54 Co     5.892750    3.928496    5.892750    ( 0.0000,  0.0000,  2.1000)
  55 Cr     5.892750    5.892762    3.928508    ( 0.0000,  0.0000,  0.0000)
  56 Cr     7.857004    3.928496    3.928508    ( 0.0000,  0.0000,  0.0000)
  57 Co     7.857004    5.892750    5.892750    ( 0.0000,  0.0000,  2.1000)
  58 Cr     9.821246    3.928508    5.892750    ( 0.0000,  0.0000,  0.0000)
  59 Fe     9.821258    5.892762    3.928496    ( 0.0000,  0.0000,  2.0000)
[...]
  93 Ni     7.857004    5.892762    9.821246    ( 0.0000,  0.0000,  1.5000)
  94 Cr     9.821246    3.928508    9.821246    ( 0.0000,  0.0000,  0.0000)
  95 Cr     9.821246    5.892762    7.856992    ( 0.0000,  0.0000,  0.0000)
  96 Co    -0.000004    7.857004    7.857004    ( 0.0000,  0.0000,  2.1000)
  97 Ni    -0.000001    9.821234    9.821246    ( 0.0000,  0.0000,  1.5000)
  98 Ni     1.964254    7.856992    9.821246    ( 0.0000,  0.0000,  1.5000)
  99 Co     1.964254    9.821246    7.857004    ( 0.0000,  0.0000,  2.1000)
 100 Co     3.928508    7.856992    7.857004    ( 0.0000,  0.0000,  2.1000)
 101 Ni     3.928508    9.821246    9.821246    ( 0.0000,  0.0000,  1.5000)
 102 Fe     5.892750    7.857004    9.821258    ( 0.0000,  0.0000,  2.0000)
 103 Co     5.892750    9.821246    7.857004    ( 0.0000,  0.0000,  2.1000)
 104 Co     7.857004    7.857004    7.857004    ( 0.0000,  0.0000,  2.1000)
 105 Ni     7.856992    9.821234    9.821246    ( 0.0000,  0.0000,  1.5000)
 106 Fe     9.821246    7.857004    9.821246    ( 0.0000,  0.0000,  2.0000)
 107 Fe     9.821246    9.821234    7.857004    ( 0.0000,  0.0000,  2.0000)

Unit cell:
           periodic     x           y           z      points  spacing
  1. axis:    yes   11.785500    0.000000    0.000000    54     0.2183
  2. axis:    yes    0.000000   11.785500    0.000000    54     0.2183
  3. axis:    yes    0.000000    0.000000   11.785500    54     0.2183

  Lengths:  11.785500  11.785500  11.785500
  Angles:   90.000000  90.000000  90.000000

Effective grid spacing dv^(1/3) = 0.2182

     iter     time        total  log10-change:  magmom
                         energy  eigst   dens
iter:   1 12:36:44 -1051.004108                  +136.6830
iter:   2 12:37:53  -894.988393  +0.01  -1.15    +73.1883
iter:   3 12:39:03  -927.582460  -0.39  -1.07    +75.4282
iter:   4 12:40:11  -829.272424  -1.02  -1.14    +68.9481
iter:   5 12:41:20  -818.062415  -1.66  -1.29    +71.2105
iter:   6 12:42:28  -821.266259  -1.70  -1.33    +80.6715
iter:   7 12:43:37  -817.365900  -1.28  -1.33    +86.2551
iter:   8 12:44:46  -816.980728  -1.45  -1.39    +91.2636
iter:   9 12:45:52  -812.372035  -1.35  -1.43    +91.6323
iter:  10 12:46:59  -809.036773  -1.54  -1.55    +92.7450
iter:  11 12:48:08  -809.721448  -1.79  -1.66    +91.8024
iter:  12 12:49:15  -806.157312  -2.04  -1.63    +90.1270
iter:  13 12:50:21  -806.341707  -2.46  -1.77    +90.7993
iter:  14 12:51:28  -808.640033  -2.37  -1.85    +90.5158
iter:  15 12:52:34  -808.222927  -2.68  -1.81    +89.2370
iter:  16 12:53:42  -809.684438  -2.58  -1.89    +87.0968
iter:  17 12:54:48  -810.854762  -2.53  -1.90    +86.6978
iter:  18 12:55:54  -811.264282  -2.48  -1.89    +84.8461
iter:  19 12:57:01  -811.168888  -2.70  -1.96    +82.4147
iter:  20 12:58:07  -813.540545  -2.43  -2.00    +81.8242
iter:  21 12:59:13  -812.311987  -2.61  -1.91    +82.4284
iter:  22 13:00:21  -812.271042  -2.80  -2.02    +82.6022
iter:  23 13:01:28  -812.595541  -2.96  -2.06    +81.2707
iter:  24 13:02:35  -812.705673  -3.21  -2.09    +81.1690
iter:  25 13:03:43  -813.152938  -3.27  -2.12    +81.3004
iter:  26 13:04:50  -813.401906  -3.31  -2.13    +81.1355
iter:  27 13:05:56  -814.059865  -3.05  -2.16    +81.1205
iter:  28 13:07:02  -814.078860  -2.88  -2.13    +80.4082
iter:  29 13:08:08  -814.417329  -2.79  -2.24    +80.2305
iter:  30 13:09:15  -814.358198  -2.91  -2.22    +80.0143
iter:  31 13:10:21  -814.331652c -3.24  -2.30    +79.5336
iter:  32 13:11:28  -814.481450  -3.58  -2.39    +79.3746
iter:  33 13:12:32  -814.652196  -3.72  -2.42    +79.0388
iter:  34 13:13:31  -814.751450  -3.79  -2.44    +78.6061
iter:  35 13:14:39  -814.874640  -3.86  -2.47    +77.8685
iter:  36 13:15:48  -815.018610  -3.71  -2.52    +77.1894
iter:  37 13:17:00  -815.059660  -3.92  -2.54    +76.7553
iter:  38 13:18:10  -815.154151  -3.77  -2.58    +76.0720
iter:  39 13:19:22  -815.178904  -4.05  -2.60    +75.7328
iter:  40 13:20:33  -815.238031c -4.05  -2.66    +75.1057
iter:  41 13:21:41  -815.286569  -4.08  -2.69    +74.5021
iter:  42 13:22:51  -815.290877c -4.24  -2.70    +74.2932
iter:  43 13:24:01  -815.305603c -3.88  -2.76    +74.0509
iter:  44 13:25:11  -815.333494c -3.71  -2.77    +74.0290
iter:  45 13:26:22  -815.283376c -4.14  -2.80    +74.0487
iter:  46 13:27:33  -815.287296c -4.48  -2.97    +74.0464
iter:  47 13:28:44  -815.283637c -4.67  -3.01    +74.0653
iter:  48 13:29:55  -815.279898c -4.80  -3.05    +74.0955
iter:  49 13:31:06  -815.279334c -4.54  -3.10    +74.0569
iter:  50 13:32:16  -815.275468c -4.86  -3.25    +74.0639
iter:  51 13:33:23  -815.278490c -5.04  -3.37    +74.0550
iter:  52 13:34:32  -815.275234c -5.37  -3.32    +74.0354
iter:  53 13:35:45  -815.275854c -5.53  -3.46    +74.0282
iter:  54 13:36:56  -815.275772c -5.64  -3.50    +74.0242
iter:  55 13:38:07  -815.275683c -5.59  -3.56    +74.0242
iter:  56 13:39:20  -815.276744c -5.58  -3.56    +74.0153
iter:  57 13:40:28  -815.275822c -5.81  -3.60    +74.0125
iter:  58 13:41:38  -815.275657c -5.88  -3.73    +74.0177
iter:  59 13:42:46  -815.276017c -6.24  -3.71    +74.0104
iter:  60 13:43:55  -815.275791c -6.34  -3.80    +74.0088
iter:  61 13:45:07  -815.276073c -6.30  -3.84    +74.0084
iter:  62 13:46:18  -815.276096c -6.37  -3.85    +74.0031
iter:  63 13:47:29  -815.275919c -6.50  -3.92    +74.0007
iter:  64 13:48:38  -815.276041c -6.71  -3.98    +73.9992
iter:  65 13:49:47  -815.276245c -6.71  -4.01c   +73.9966
iter:  66 13:50:57  -815.275872c -6.69  -4.04c   +73.9969
iter:  67 13:52:08  -815.276107c -6.75  -4.06c   +73.9948
iter:  68 13:53:16  -815.276025c -6.96  -4.15c   +73.9933
iter:  69 13:54:25  -815.276096c -7.04  -4.20c   +73.9926
iter:  70 13:55:35  -815.275957c -7.02  -4.21c   +73.9923
iter:  71 13:56:45  -815.276221c -7.02  -4.23c   +73.9909
iter:  72 13:57:54  -815.275943c -7.21  -4.27c   +73.9909
iter:  73 13:59:03  -815.276056c -7.41c -4.36c   +73.9910

Converged after 73 iterations.

Dipole moment: (0.049484, 0.154300, -0.661212) |e|*Ang

Total magnetic moment: (0.000000, 0.000000, 73.991048)
Local magnetic moments:
   0 Co ( 0.000000,  0.000000,  1.188133)
   1 Ni ( 0.000000,  0.000000,  0.291125)
   2 Al ( 0.000000,  0.000000,  0.009978)
   3 Cr ( 0.000000,  0.000000, -3.090231)
   4 Cr ( 0.000000,  0.000000, -3.017252)
   5 Fe ( 0.000000,  0.000000,  2.675893)
   6 Fe ( 0.000000,  0.000000,  2.803264)
   7 Fe ( 0.000000,  0.000000,  2.622172)
   8 Cr ( 0.000000,  0.000000, -2.923610)
   9 Fe ( 0.000000,  0.000000,  2.690748)
  10 Fe ( 0.000000,  0.000000,  2.712019)
  11 Al ( 0.000000,  0.000000, -0.045505)
  12 Co ( 0.000000,  0.000000,  1.413698)
  13 Fe ( 0.000000,  0.000000,  2.818823)
  14 Al ( 0.000000,  0.000000,  0.009558)
  15 Al ( 0.000000,  0.000000, -0.024048)
  16 Cr ( 0.000000,  0.000000, -2.907337)
  17 Cr ( 0.000000,  0.000000, -3.010234)
  18 Al ( 0.000000,  0.000000,  0.012191)
  19 Co ( 0.000000,  0.000000,  1.494865)
  20 Co ( 0.000000,  0.000000,  1.571047)
  21 Cr ( 0.000000,  0.000000, -2.784141)
  22 Cr ( 0.000000,  0.000000,  2.875105)
  23 Cr ( 0.000000,  0.000000, -3.035260)
  24 Fe ( 0.000000,  0.000000,  2.751091)
  25 Al ( 0.000000,  0.000000, -0.015410)
  26 Ni ( 0.000000,  0.000000,  0.339869)
  27 Cr ( 0.000000,  0.000000, -3.089980)
  28 Fe ( 0.000000,  0.000000,  2.917983)
  29 Ni ( 0.000000,  0.000000,  0.258391)
  30 Co ( 0.000000,  0.000000,  1.547186)
  31 Fe ( 0.000000,  0.000000,  2.830790)
  32 Fe ( 0.000000,  0.000000,  2.815316)
  33 Cr ( 0.000000,  0.000000, -2.909459)
  34 Fe ( 0.000000,  0.000000,  2.719939)
  35 Cr ( 0.000000,  0.000000, -2.959915)
  36 Ni ( 0.000000,  0.000000,  0.476338)
  37 Ni ( 0.000000,  0.000000,  0.295578)
  38 Co ( 0.000000,  0.000000,  1.907163)
  39 Ni ( 0.000000,  0.000000,  0.488579)
  40 Co ( 0.000000,  0.000000,  1.864981)
  41 Ni ( 0.000000,  0.000000,  0.650032)
  42 Co ( 0.000000,  0.000000,  1.750748)
  43 Ni ( 0.000000,  0.000000,  0.422340)
  44 Cr ( 0.000000,  0.000000,  2.825240)
  45 Co ( 0.000000,  0.000000,  1.671025)
  46 Al ( 0.000000,  0.000000, -0.016866)
  47 Ni ( 0.000000,  0.000000,  0.444132)
  48 Cr ( 0.000000,  0.000000, -3.002602)
  49 Fe ( 0.000000,  0.000000,  2.867989)
  50 Fe ( 0.000000,  0.000000,  3.022564)
  51 Ni ( 0.000000,  0.000000,  0.420001)
  52 Ni ( 0.000000,  0.000000,  0.216324)
  53 Ni ( 0.000000,  0.000000,  0.587063)
  54 Co ( 0.000000,  0.000000,  1.796851)
  55 Cr ( 0.000000,  0.000000, -2.883065)
  56 Cr ( 0.000000,  0.000000, -2.898147)
  57 Co ( 0.000000,  0.000000,  1.606071)
  58 Cr ( 0.000000,  0.000000,  2.880782)
  59 Fe ( 0.000000,  0.000000,  2.810185)
[...]
  93 Ni ( 0.000000,  0.000000,  0.504703)
  94 Cr ( 0.000000,  0.000000,  2.760744)
  95 Cr ( 0.000000,  0.000000, -3.046338)
  96 Co ( 0.000000,  0.000000,  1.766516)
  97 Ni ( 0.000000,  0.000000,  0.399342)
  98 Ni ( 0.000000,  0.000000,  0.552872)
  99 Co ( 0.000000,  0.000000,  1.891966)
 100 Co ( 0.000000,  0.000000,  1.908679)
 101 Ni ( 0.000000,  0.000000,  0.556797)
 102 Fe ( 0.000000,  0.000000,  3.014938)
 103 Co ( 0.000000,  0.000000,  1.899563)
 104 Co ( 0.000000,  0.000000,  1.813173)
 105 Ni ( 0.000000,  0.000000,  0.385890)
 106 Fe ( 0.000000,  0.000000,  2.888901)
 107 Fe ( 0.000000,  0.000000,  2.802627)

Energy contributions relative to reference atoms: (reference = -3548577.034362)

Kinetic:       -320.063053
Potential:     +189.088225
External:        +0.000000
XC:            -713.635952
Entropy (-ST):   -4.703420
Local:          +31.686435
Free energy:   -817.627766
Extrapolated:  -815.276056

Spin contamination: 68.386419 electrons
Showing only first 2 kpts
                      Up                     Down
 Kpt  Band  Eigenvalues  Occupancy  Eigenvalues  Occupancy
  0   488      6.01377    0.99957      7.11776    0.03577
  0   489      6.02353    0.99952      7.12215    0.03428
  0   490      6.03351    0.99947      7.13279    0.03093
  0   491      6.04864    0.99939      7.13986    0.02888

  1   488      6.00004    0.99962      7.12221    0.03426
  1   489      6.01587    0.99956      7.12819    0.03234
  1   490      6.02064    0.99954      7.13525    0.03020
  1   491      6.03779    0.99945      7.14200    0.02829

Fermi level: 6.78833

No gap

Forces in eV/Ang:
  0 Co    0.00440   -0.07962   -0.06108
  1 Ni   -0.07587   -0.09966    0.04425
  2 Al   -0.01313    0.27199    0.77301
  3 Cr   -0.94866   -0.05442   -0.58422
  4 Cr    1.05752   -0.10747   -0.34038
  5 Fe    0.25080   -0.20625    0.16795
  6 Fe   -0.29711    0.13366   -0.03992
  7 Fe   -0.16104    0.06706    0.16508
  8 Cr   -0.78617    0.23585   -0.23846
  9 Fe   -0.22466   -0.13010   -0.09665
 10 Fe    0.21651    0.23989   -0.03378
 11 Al    0.64146    0.37229    0.36403
 12 Co    0.36009    0.04506   -0.23260
 13 Fe    0.18927    0.44185    0.19101
 14 Al   -0.20162   -0.32499    0.58019
 15 Al   -0.38057    0.33277   -0.50903
 16 Cr    0.30896   -0.16769   -0.59438
 17 Cr   -0.17280    0.91725    0.20059
 18 Al    0.17423   -0.29689    0.10030
 19 Co   -0.05524    0.22260   -0.08613
 20 Co   -0.42669   -0.10662   -0.05307
 21 Cr    0.06008    0.51169   -0.18859
 22 Cr   -0.04727   -0.03029    0.07528
 23 Cr    0.26814   -0.03861   -0.42973
 24 Fe   -0.01065    0.05113   -0.30305
 25 Al   -0.14206   -0.29636    0.81824
 26 Ni   -0.04215   -0.10990    0.05684
 27 Cr   -0.21628   -0.53643   -0.57221
 28 Fe    0.25221    0.12940    0.06431
 29 Ni    0.05622   -0.08944    0.06041
 30 Co   -0.30296   -0.07067   -0.41084
 31 Fe   -0.11037   -0.12784    0.05834
 32 Fe   -0.24440   -0.09105    0.00338
 33 Cr    0.09960   -0.33619    0.36290
 34 Fe    0.12830   -0.17254    0.09050
 35 Cr    0.51247   -0.60719   -0.36797
 36 Ni    0.03040    0.08987   -0.02796
 37 Ni    0.21426   -0.15333   -0.07128
 38 Co    0.32996   -0.11427   -0.16708
 39 Ni    0.04769   -0.07236    0.10767
 40 Co    0.12303    0.11701    0.40322
 41 Ni   -0.13418   -0.04424   -0.08032
 42 Co   -0.30367    0.07916    0.09491
 43 Ni   -0.06252   -0.06098    0.10450
 44 Cr   -0.25892   -0.24716    0.30368
 45 Co   -0.27180    0.12274    0.20621
 46 Al    0.12188    0.44855   -0.40538
 47 Ni    0.07405   -0.20678   -0.12868
 48 Cr   -0.34358   -0.07392    0.37827
 49 Fe    0.32537    0.48075   -0.04739
 50 Fe    0.34913   -0.08129   -0.23103
 51 Ni    0.02612    0.01285    0.07134
 52 Ni    0.00102   -0.00675    0.02070
 53 Ni    0.00582   -0.01778    0.09269
 54 Co    0.07951    0.07824    0.15105
 55 Cr   -0.24040    0.57838    0.92988
 56 Cr    0.48294   -0.67582    0.60817
 57 Co   -0.24415    0.10859    0.11751
 58 Cr    0.09595   -0.51121    0.04917
 59 Fe    0.04714    0.42091    0.16147
[...]
 93 Ni   -0.13095    0.07822   -0.00367
 94 Cr    0.32802    0.46520   -0.12281
 95 Cr   -0.35560    0.38053    0.14287
 96 Co    0.03297    0.20423    0.17835
 97 Ni    0.00402   -0.00800   -0.05958
 98 Ni   -0.03737   -0.04877   -0.11428
 99 Co    0.18873   -0.10217    0.03815
100 Co    0.17944    0.17175    0.02296
101 Ni   -0.06412   -0.02287   -0.10653
102 Fe    0.23208    0.01872   -0.15531
103 Co   -0.02592    0.04680   -0.06032
104 Co   -0.13293   -0.09434    0.07171
105 Ni   -0.05447    0.02938    0.05236
106 Fe   -0.04210   -0.13249   -0.25868
107 Fe   -0.04605   -0.56028    0.00994

Date: Sat Apr  8 13:59:21 2023