User:   c.zeng@d0139
Date:   Sat Apr  8 01:46:25 2023
Arch:   x86_64
Pid:    79136
CWD:    /home/c.zeng/projects/hea-corrosion/hea-mlp/data-curation/volume/dft-jobs/116
Python: 3.8.1
gpaw:   /home/c.zeng/usr/installs/gpaw/source/gpaw-22.8.0/gpaw
_gpaw:  /home/c.zeng/usr/installs/gpaw/source/gpaw-22.8.0/
        _gpaw.cpython-38-x86_64-linux-gnu.so
ase:    /home/c.zeng/.local/lib/python3.8/site-packages/ase-3.22.1-py3.8.egg/ase (version 3.22.1)
numpy:  /shared/centos7/python/3.8.1/lib/python3.8/site-packages/numpy (version 1.17.4)
scipy:  /shared/centos7/python/3.8.1/lib/python3.8/site-packages/scipy (version 1.4.1)
units:  Angstrom and eV
cores: 64
OpenMP: False
OMP_NUM_THREADS: 1

Input parameters:
  convergence: {energy: 0.0001}
  kpts: [2 2 2]
  maxiter: 666
  mode: {ecut: 350.0,
         name: pw}
  occupations: {fixmagmom: False,
                name: fermi-dirac,
                width: 0.1}
  spinpol: True
  xc: PBE

System changes: positions, numbers, cell, pbc, initial_charges, initial_magmoms

Initialize ...

species:
  Al:
    name: Aluminium
    id: 0292cae29f5d6237e50f6abdd43a7bdd
    Z: 13.0
    valence: 3
    core: 10
    charge: 0.0
    file: /home/c.zeng/usr/data/gpaw-setups-0.9.20000/Al.PBE.gz
    compensation charges: {type: gauss,
                           rc: 0.34,
                           lmax: 2}
    cutoffs: {filter: 1.91,
              core: 2.36}
    valence states:
      #              energy  rcut
      - 3s(2.00)    -7.753   1.085
      - 3p(1.00)    -2.712   1.085
      -  s          19.459   1.085
      -  p          24.499   1.085
      -  d           0.000   1.085

    # Using partial waves for Al as LCAO basis

  Fe:
    name: Iron
    id: 37abbd8d6c3c35915a9b583b742da910
    Z: 26.0
    valence: 8
    core: 18
    charge: 0.0
    file: /home/c.zeng/usr/data/gpaw-setups-0.9.20000/Fe.PBE.gz
    compensation charges: {type: gauss,
                           rc: 0.33,
                           lmax: 2}
    cutoffs: {filter: 2.06,
              core: 2.67}
    valence states:
      #              energy  rcut
      - 4s(2.00)    -5.291   1.164
      - 4p(0.00)    -1.326   1.058
      - 3d(6.00)    -7.505   1.058
      -  s          21.920   1.164
      -  p          25.885   1.058
      -  d          19.706   1.058

[...]

  Cr:
    name: Chromium
    id: 33f258bda2ca9f93018e70263a35547b
    Z: 24.0
    valence: 6
    core: 18
    charge: 0.0
    file: /home/c.zeng/usr/data/gpaw-setups-0.9.20000/Cr.PBE.gz
    compensation charges: {type: gauss,
                           rc: 0.35,
                           lmax: 2}
    cutoffs: {filter: 2.14,
              core: 3.04}
    valence states:
      #              energy  rcut
      - 4s(1.00)    -4.007   1.164
      - 4p(0.00)    -0.989   1.217
      - 3d(5.00)    -2.913   1.111
      -  s          23.205   1.164
      -  p          26.223   1.217
      -  d          24.299   1.111

[...]

  Ni:
    name: Nickel
    id: 0d9f38a9d6e76a2886f07bb4381f212b
    Z: 28.0
    valence: 16
    core: 12
    charge: 0.0
    file: /home/c.zeng/usr/data/gpaw-setups-0.9.20000/Ni.PBE.gz
    compensation charges: {type: gauss,
                           rc: 0.36,
                           lmax: 2}
    cutoffs: {filter: 2.14,
              core: 1.98}
    valence states:
      #              energy  rcut
      - 4s(2.00)    -5.642   1.164
      - 3p(6.00)   -71.394   1.207
      - 4p(0.00)    -1.226   1.207
      - 3d(8.00)    -8.875   1.138
      -  s          21.570   1.164
      -  d          18.337   1.138

[...]

  Co:
    name: Cobalt
    id: 339d20d5b0b93d2de9531a1bee871d91
    Z: 27.0
    valence: 9
    core: 18
    charge: 0.0
    file: /home/c.zeng/usr/data/gpaw-setups-0.9.20000/Co.PBE.gz
    compensation charges: {type: gauss,
                           rc: 0.32,
                           lmax: 2}
    cutoffs: {filter: 1.87,
              core: 2.55}
    valence states:
      #              energy  rcut
      - 4s(2.00)    -5.469   1.005
      - 4p(0.00)    -1.277   1.058
      - 3d(7.00)    -8.205   1.005
      -  s          21.742   1.005
      -  p          25.934   1.058
      -  d          19.007   1.005

    # Using partial waves for Co as LCAO basis

Reference energy: -3235165.067515  # eV

Spin-polarized calculation.
Magnetic moment: 121.100000

Convergence criteria:
 Maximum [total energy] change in last 3 cyles: 0.0001 eV / electron
 Maximum integral of absolute [dens]ity change: 0.0001 electrons / valence electron
 Maximum integral of absolute [eigenst]ate change: 4e-08 eV^2 / valence electron
 Maximum number of scf [iter]ations: 666
 (Square brackets indicate name in SCF output, whereas a 'c' in
 the SCF output indicates the quantity has converged.)

Symmetries present (total): 1

  ( 1  0  0)
  ( 0  1  0)
  ( 0  0  1)

8 k-points: 2 x 2 x 2 Monkhorst-Pack grid
4 k-points in the irreducible part of the Brillouin zone
       k-points in crystal coordinates                weights
   0:     0.25000000   -0.25000000   -0.25000000          2/8
   1:     0.25000000   -0.25000000    0.25000000          2/8
   2:     0.25000000    0.25000000   -0.25000000          2/8
   3:     0.25000000    0.25000000    0.25000000          2/8

Wave functions: Plane wave expansion
  Cutoff energy: 350.000 eV
  Number of coefficients (min, max): 25080, 25080
  Pulay-stress correction: 0.000000 eV/Ang^3 (de/decut=0.000000)
  Using FFTW library
  ScaLapack parameters: grid=1x1, blocksize=None
  Wavefunction extrapolation:
    Improved wavefunction reuse through dual PAW basis

Occupation numbers: Fermi-Dirac:
  width: 0.1000  # eV

Eigensolver
   Davidson(niter=2)

Densities:
  Coarse grid: 54*54*54 grid
  Fine grid: 108*108*108 grid
  Total Charge: 0.000000

Density mixing:
  Method: difference
  Backend: pulay
  Linear mixing parameter: 0.05
  old densities: 5
  Damping of long wavelength oscillations: 50

Hamiltonian:
  XC and Coulomb potentials evaluated on a 108*108*108 grid
  Using the PBE Exchange-Correlation functional
  External potential:
    NoExternalPotential

XC parameters: PBE with 2 nearest neighbor stencil

Total number of cores used: 64
Parallelization over k-points: 4
Domain decomposition: 4 x 2 x 2

Number of atoms: 108
Number of atomic orbitals: 933
Number of bands in calculation: 624
Number of valence electrons: 912
Bands to converge: occupied

... initialized

Initializing position-dependent things.

Density initialized from atomic densities
Creating initial wave functions:
  624 bands from LCAO basis set

        .---------Ni-----------------.
       /|   Cr       Ni              |
      / |              Co            |
     /  |    Cr                      |
    /  AlCo     Co        Ni         |
   /    |  Fe     CoAl Cr     Al     |
  /     |   CoAl Ni  Fe CoFe   CrCr  |
 *    AlCr     Fe CoFeCr CoNi        |
 |      |Al Alr       Fe       Al    |
 |     Cr       Ni Ni    Nii Fe      |
 |      |  FeCr   AlCo Cr  Al FeCr   |
 |     Co   FeNi Cr  Cr CrFe   CrFe  |
 |    CoAl   CrAl NiNi   Ni NiCo     |
 |      |Co Al        Col    CrCo    |
 |     Al       Ni Co    Crr         |
 |      .-Ni-Co-----Ni-Al-----FeFe---.
 |   CoNi     Al Al     CoNi   Ni   /
 Fe   NiCr     Fe Fe     Co Al     /
 |   /      Al     Fe Co     FeFe /
 | /         Fe          Ni     /e
 |/    Cr                      /
 *----------------------------Al

Positions:
   0 Al    -0.000014    0.000024    0.000018    ( 0.0000,  0.0000,  0.0000)
   1 Fe    -0.000002    1.984504    1.984504    ( 0.0000,  0.0000,  2.0000)
   2 Cr     1.984492   -0.000002    1.984504    ( 0.0000,  0.0000,  0.0000)
   3 Cr     1.984492    1.984516    0.000007    ( 0.0000,  0.0000,  0.0000)
   4 Ni     3.969008   -0.000007   -0.000005    ( 0.0000,  0.0000,  1.5000)
   5 Al     3.968984    1.984528    1.984480    ( 0.0000,  0.0000,  0.0000)
   6 Al     5.953512   -0.000012    1.984468    ( 0.0000,  0.0000,  0.0000)
   7 Ni     5.953512    1.984504   -0.000003    ( 0.0000,  0.0000,  1.5000)
   8 Fe     7.938004    0.000004   -0.000003    ( 0.0000,  0.0000,  2.0000)
   9 Co     7.938004    1.984504    1.984492    ( 0.0000,  0.0000,  2.1000)
  10 Ni     9.922496    0.000010    1.984492    ( 0.0000,  0.0000,  1.5000)
  11 Fe     9.922496    1.984504   -0.000002    ( 0.0000,  0.0000,  2.0000)
  12 Fe    -0.000004    3.968996    0.000005    ( 0.0000,  0.0000,  2.0000)
  13 Co     0.000000    5.953500    1.984492    ( 0.0000,  0.0000,  2.1000)
  14 Cr     1.984492    3.968996    1.984492    ( 0.0000,  0.0000,  0.0000)
  15 Co     1.984492    5.953500   -0.000001    ( 0.0000,  0.0000,  2.1000)
  16 Fe     3.969008    3.969008    0.000002    ( 0.0000,  0.0000,  2.0000)
  17 Al     3.969008    5.953488    1.984480    ( 0.0000,  0.0000,  0.0000)
  18 Fe     5.953500    3.969008    1.984492    ( 0.0000,  0.0000,  2.0000)
  19 Fe     5.953500    5.953500    0.000003    ( 0.0000,  0.0000,  2.0000)
  20 Cr     7.937992    3.968996   -0.000004    ( 0.0000,  0.0000,  0.0000)
  21 Co     7.937992    5.953512    1.984492    ( 0.0000,  0.0000,  2.1000)
  22 Al     9.922520    3.968996    1.984480    ( 0.0000,  0.0000,  0.0000)
  23 Fe     9.922496    5.953500    0.000002    ( 0.0000,  0.0000,  2.0000)
  24 Ni     0.000001    7.937992    0.000006    ( 0.0000,  0.0000,  1.5000)
  25 Al     0.000000    9.922496    1.984528    ( 0.0000,  0.0000,  0.0000)
  26 Ni     1.984492    7.938004    1.984504    ( 0.0000,  0.0000,  1.5000)
  27 Cr     1.984516    9.922484   -0.000002    ( 0.0000,  0.0000,  0.0000)
  28 Fe     3.968996    7.938004    0.000001    ( 0.0000,  0.0000,  2.0000)
  29 Ni     3.968996    9.922496    1.984492    ( 0.0000,  0.0000,  1.5000)
  30 Ni     5.953500    7.937992    1.984492    ( 0.0000,  0.0000,  1.5000)
  31 Ni     5.953500    9.922496   -0.000003    ( 0.0000,  0.0000,  1.5000)
  32 Co     7.938004    7.937992    0.000006    ( 0.0000,  0.0000,  2.1000)
  33 Cr     7.938004    9.922496    1.984492    ( 0.0000,  0.0000,  0.0000)
  34 Fe     9.922496    7.937992    1.984492    ( 0.0000,  0.0000,  2.0000)
  35 Ni     9.922484    9.922496    0.000004    ( 0.0000,  0.0000,  1.5000)
  36 Fe     0.000002    0.000005    3.968996    ( 0.0000,  0.0000,  2.0000)
  37 Co    -0.000004    1.984504    5.953500    ( 0.0000,  0.0000,  2.1000)
  38 Cr     1.984492   -0.000007    5.953500    ( 0.0000,  0.0000,  0.0000)
  39 Ni     1.984480    1.984504    3.968996    ( 0.0000,  0.0000,  1.5000)
  40 Al     3.968960   -0.000029    3.969008    ( 0.0000,  0.0000,  0.0000)
  41 Al     3.968996    1.984504    5.953512    ( 0.0000,  0.0000,  0.0000)
  42 Cr     5.953500   -0.000009    5.953512    ( 0.0000,  0.0000,  0.0000)
  43 Al     5.953512    1.984528    3.969008    ( 0.0000,  0.0000,  0.0000)
  44 Al     7.938028   -0.000005    3.969008    ( 0.0000,  0.0000,  0.0000)
  45 Co     7.938004    1.984504    5.953512    ( 0.0000,  0.0000,  2.1000)
  46 Cr     9.922508    0.000006    5.953500    ( 0.0000,  0.0000,  0.0000)
  47 Ni     9.922520    1.984492    3.968996    ( 0.0000,  0.0000,  1.5000)
  48 Fe    -0.000002    3.968996    3.968996    ( 0.0000,  0.0000,  2.0000)
  49 Fe    -0.000004    5.953500    5.953500    ( 0.0000,  0.0000,  2.0000)
  50 Al     1.984492    3.969008    5.953476    ( 0.0000,  0.0000,  0.0000)
  51 Co     1.984492    5.953500    3.969008    ( 0.0000,  0.0000,  2.1000)
  52 Co     3.969008    3.969008    3.968996    ( 0.0000,  0.0000,  2.1000)
  53 Ni     3.969008    5.953512    5.953500    ( 0.0000,  0.0000,  1.5000)
  54 Ni     5.953500    3.969008    5.953500    ( 0.0000,  0.0000,  1.5000)
  55 Co     5.953500    5.953500    3.968996    ( 0.0000,  0.0000,  2.1000)
  56 Al     7.937992    3.969008    3.969008    ( 0.0000,  0.0000,  0.0000)
  57 Cr     7.938004    5.953512    5.953512    ( 0.0000,  0.0000,  0.0000)
  58 Ni     9.922508    3.968996    5.953500    ( 0.0000,  0.0000,  1.5000)
  59 Cr     9.922508    5.953512    3.969008    ( 0.0000,  0.0000,  0.0000)
[...]
  93 Co     7.938004    5.953500    9.922508    ( 0.0000,  0.0000,  2.1000)
  94 Ni     9.922496    3.968996    9.922508    ( 0.0000,  0.0000,  1.5000)
  95 Fe     9.922496    5.953500    7.937992    ( 0.0000,  0.0000,  2.0000)
  96 Al     0.000007    7.937992    7.937968    ( 0.0000,  0.0000,  0.0000)
  97 Al     0.000016    9.922508    9.922496    ( 0.0000,  0.0000,  0.0000)
  98 Fe     1.984504    7.938004    9.922496    ( 0.0000,  0.0000,  2.0000)
  99 Co     1.984516    9.922496    7.937992    ( 0.0000,  0.0000,  2.1000)
 100 Fe     3.968996    7.938004    7.937992    ( 0.0000,  0.0000,  2.0000)
 101 Co     3.968996    9.922496    9.922496    ( 0.0000,  0.0000,  2.1000)
 102 Al     5.953500    7.938004    9.922496    ( 0.0000,  0.0000,  0.0000)
 103 Fe     5.953500    9.922496    7.938004    ( 0.0000,  0.0000,  2.0000)
 104 Co     7.938004    7.938004    7.937992    ( 0.0000,  0.0000,  2.1000)
 105 Ni     7.937992    9.922508    9.922496    ( 0.0000,  0.0000,  1.5000)
 106 Al     9.922484    7.937980    9.922508    ( 0.0000,  0.0000,  0.0000)
 107 Cr     9.922484    9.922508    7.937992    ( 0.0000,  0.0000,  0.0000)

Unit cell:
           periodic     x           y           z      points  spacing
  1. axis:    yes   11.907000    0.000000    0.000000    54     0.2205
  2. axis:    yes    0.000000   11.907000    0.000000    54     0.2205
  3. axis:    yes    0.000000    0.000000   11.907000    54     0.2205

  Lengths:  11.907000  11.907000  11.907000
  Angles:   90.000000  90.000000  90.000000

Effective grid spacing dv^(1/3) = 0.2205

     iter     time        total  log10-change:  magmom
                         energy  eigst   dens
iter:   1 01:49:08  -982.133597                  +121.3861
iter:   2 01:50:30  -826.310765  +0.00  -1.14    +63.2697
iter:   3 01:51:52  -830.235575  -0.53  -1.08    +66.5523
iter:   4 01:53:12  -777.907722  -1.04  -1.16    +63.0191
iter:   5 01:54:34  -766.097096  -1.64  -1.28    +65.1561
iter:   6 01:55:55  -767.456187  -1.60  -1.34    +72.6798
iter:   7 01:57:16  -768.992343  -1.33  -1.35    +76.9030
iter:   8 01:58:37  -768.271899  -1.54  -1.39    +82.3672
iter:   9 01:59:56  -764.265113  -1.42  -1.43    +83.2879
iter:  10 02:01:19  -763.910657  -1.68  -1.58    +82.5568
iter:  11 02:02:40  -764.628829  -1.88  -1.62    +81.5371
iter:  12 02:04:01  -760.836291  -2.08  -1.62    +80.3676
iter:  13 02:05:23  -761.113507  -2.49  -1.75    +79.2951
iter:  14 02:06:35  -762.426779  -2.46  -1.81    +78.3286
iter:  15 02:07:54  -762.999502  -2.59  -1.83    +76.7729
iter:  16 02:09:15  -764.166113  -2.54  -1.86    +74.5206
iter:  17 02:10:36  -765.659417  -2.38  -1.88    +73.9167
iter:  18 02:11:59  -765.297417  -2.50  -1.87    +72.0489
iter:  19 02:13:22  -765.833408  -2.70  -2.00    +69.7703
iter:  20 02:14:44  -766.799258  -2.76  -2.05    +68.3111
iter:  21 02:16:07  -767.628874  -2.74  -2.08    +67.3108
iter:  22 02:17:30  -768.069054  -2.97  -2.09    +65.8992
iter:  23 02:18:53  -768.801588  -3.00  -2.13    +64.0062
iter:  24 02:20:15  -769.819384  -2.78  -2.14    +62.1938
iter:  25 02:21:37  -771.034817  -2.68  -2.10    +62.0441
iter:  26 02:22:59  -771.360992  -2.74  -2.04    +63.1137
iter:  27 02:24:22  -771.266315  -2.89  -2.05    +63.3892
iter:  28 02:25:44  -771.087087  -3.03  -2.07    +63.7459
iter:  29 02:27:07  -770.840336  -2.92  -2.11    +63.9437
iter:  30 02:28:31  -770.620420  -2.77  -2.10    +64.0765
iter:  31 02:29:54  -770.430246  -3.33  -2.14    +63.7847
iter:  32 02:31:18  -770.390482  -3.39  -2.19    +63.5593
iter:  33 02:32:43  -770.485694  -3.02  -2.24    +63.6548
iter:  34 02:34:04  -770.199077  -3.07  -2.25    +63.8022
iter:  35 02:35:28  -770.200668  -3.35  -2.44    +64.1579
iter:  36 02:36:51  -770.204107c -3.78  -2.49    +64.2910
iter:  37 02:38:15  -770.212496c -3.82  -2.54    +64.5058
iter:  38 02:39:37  -770.212966c -3.82  -2.55    +64.5762
iter:  39 02:40:58  -770.226266c -3.64  -2.63    +64.5973
iter:  40 02:42:21  -770.175892c -3.93  -2.63    +64.6162
iter:  41 02:43:44  -770.169203c -4.04  -2.76    +64.7211
iter:  42 02:45:06  -770.156645c -4.31  -2.84    +64.6775
iter:  43 02:46:29  -770.161175c -4.33  -2.93    +64.6525
iter:  44 02:47:52  -770.152680c -4.51  -2.94    +64.6415
iter:  45 02:49:15  -770.148963c -4.62  -3.07    +64.6274
iter:  46 02:50:40  -770.153244c -4.70  -3.12    +64.6225
iter:  47 02:52:02  -770.150204c -4.87  -3.17    +64.6010
iter:  48 02:53:23  -770.150668c -5.06  -3.26    +64.5984
iter:  49 02:54:46  -770.151465c -5.04  -3.32    +64.6034
iter:  50 02:56:09  -770.150226c -5.34  -3.31    +64.5962
iter:  51 02:57:34  -770.149834c -5.41  -3.43    +64.5921
iter:  52 02:58:55  -770.150056c -5.75  -3.50    +64.5924
iter:  53 03:00:18  -770.149831c -5.88  -3.58    +64.5887
iter:  54 03:01:41  -770.150780c -5.79  -3.64    +64.5881
iter:  55 03:03:04  -770.150174c -5.95  -3.63    +64.5876
iter:  56 03:04:26  -770.150225c -5.95  -3.73    +64.5837
iter:  57 03:05:48  -770.150079c -6.15  -3.74    +64.5854
iter:  58 03:07:11  -770.150108c -6.16  -3.85    +64.5883
iter:  59 03:08:35  -770.149762c -6.24  -3.89    +64.5874
iter:  60 03:09:57  -770.150208c -6.29  -3.95    +64.5879
iter:  61 03:11:20  -770.149693c -6.36  -3.98    +64.5892
iter:  62 03:12:42  -770.149937c -6.48  -4.00c   +64.5892
iter:  63 03:14:05  -770.149970c -6.55  -4.04c   +64.5911
iter:  64 03:15:29  -770.149798c -6.70  -4.11c   +64.5926
iter:  65 03:16:52  -770.149723c -6.85  -4.20c   +64.5936
iter:  66 03:18:14  -770.149718c -7.03  -4.23c   +64.5942
iter:  67 03:19:38  -770.149827c -7.08  -4.28c   +64.5949
iter:  68 03:21:01  -770.149596c -7.02  -4.30c   +64.5949
iter:  69 03:22:26  -770.149555c -7.24  -4.32c   +64.5958
iter:  70 03:23:48  -770.149682c -7.41c -4.43c   +64.5962

Converged after 70 iterations.

Dipole moment: (0.238196, -0.312651, 0.082244) |e|*Ang

Total magnetic moment: (0.000000, 0.000000, 64.596186)
Local magnetic moments:
   0 Al ( 0.000000,  0.000000,  0.007506)
   1 Fe ( 0.000000,  0.000000,  2.827457)
   2 Cr ( 0.000000,  0.000000, -2.970234)
   3 Cr ( 0.000000,  0.000000,  2.686431)
   4 Ni ( 0.000000,  0.000000,  0.152048)
   5 Al ( 0.000000,  0.000000, -0.010565)
   6 Al ( 0.000000,  0.000000, -0.015739)
   7 Ni ( 0.000000,  0.000000,  0.495633)
   8 Fe ( 0.000000,  0.000000,  3.013204)
   9 Co ( 0.000000,  0.000000,  1.430065)
  10 Ni ( 0.000000,  0.000000,  0.239367)
  11 Fe ( 0.000000,  0.000000,  2.789466)
  12 Fe ( 0.000000,  0.000000,  2.789256)
  13 Co ( 0.000000,  0.000000,  1.772435)
  14 Cr ( 0.000000,  0.000000, -3.158866)
  15 Co ( 0.000000,  0.000000,  1.624055)
  16 Fe ( 0.000000,  0.000000,  2.688123)
  17 Al ( 0.000000,  0.000000, -0.038999)
  18 Fe ( 0.000000,  0.000000,  2.779016)
  19 Fe ( 0.000000,  0.000000,  2.800201)
  20 Cr ( 0.000000,  0.000000, -3.212504)
  21 Co ( 0.000000,  0.000000,  1.640695)
  22 Al ( 0.000000,  0.000000, -0.030052)
  23 Fe ( 0.000000,  0.000000,  2.868511)
  24 Ni ( 0.000000,  0.000000,  0.220238)
  25 Al ( 0.000000,  0.000000, -0.003076)
  26 Ni ( 0.000000,  0.000000,  0.374998)
  27 Cr ( 0.000000,  0.000000, -2.938856)
  28 Fe ( 0.000000,  0.000000,  2.902338)
  29 Ni ( 0.000000,  0.000000,  0.309541)
  30 Ni ( 0.000000,  0.000000,  0.456391)
  31 Ni ( 0.000000,  0.000000,  0.377083)
  32 Co ( 0.000000,  0.000000,  1.790971)
  33 Cr ( 0.000000,  0.000000, -3.142780)
  34 Fe ( 0.000000,  0.000000,  2.899983)
  35 Ni ( 0.000000,  0.000000,  0.247730)
  36 Fe ( 0.000000,  0.000000,  2.760719)
  37 Co ( 0.000000,  0.000000,  1.678090)
  38 Cr ( 0.000000,  0.000000, -3.152632)
  39 Ni ( 0.000000,  0.000000,  0.111003)
  40 Al ( 0.000000,  0.000000,  0.008348)
  41 Al ( 0.000000,  0.000000, -0.010500)
  42 Cr ( 0.000000,  0.000000, -3.007615)
  43 Al ( 0.000000,  0.000000,  0.000505)
  44 Al ( 0.000000,  0.000000,  0.012570)
  45 Co ( 0.000000,  0.000000,  1.385968)
  46 Cr ( 0.000000,  0.000000, -3.128196)
  47 Ni ( 0.000000,  0.000000,  0.425023)
  48 Fe ( 0.000000,  0.000000,  2.876800)
  49 Fe ( 0.000000,  0.000000,  2.751724)
  50 Al ( 0.000000,  0.000000, -0.031349)
  51 Co ( 0.000000,  0.000000,  1.666984)
  52 Co ( 0.000000,  0.000000,  1.501309)
  53 Ni ( 0.000000,  0.000000,  0.530759)
  54 Ni ( 0.000000,  0.000000,  0.224215)
  55 Co ( 0.000000,  0.000000,  1.700156)
  56 Al ( 0.000000,  0.000000, -0.009146)
  57 Cr ( 0.000000,  0.000000, -3.180969)
  58 Ni ( 0.000000,  0.000000,  0.241272)
  59 Cr ( 0.000000,  0.000000, -3.106993)
[...]
  93 Co ( 0.000000,  0.000000,  1.719340)
  94 Ni ( 0.000000,  0.000000,  0.380105)
  95 Fe ( 0.000000,  0.000000,  2.778961)
  96 Al ( 0.000000,  0.000000, -0.028568)
  97 Al ( 0.000000,  0.000000, -0.009287)
  98 Fe ( 0.000000,  0.000000,  2.735879)
  99 Co ( 0.000000,  0.000000,  1.588951)
 100 Fe ( 0.000000,  0.000000,  2.875446)
 101 Co ( 0.000000,  0.000000,  1.786074)
 102 Al ( 0.000000,  0.000000, -0.050932)
 103 Fe ( 0.000000,  0.000000,  3.009526)
 104 Co ( 0.000000,  0.000000,  1.683524)
 105 Ni ( 0.000000,  0.000000,  0.540361)
 106 Al ( 0.000000,  0.000000, -0.027204)
 107 Cr ( 0.000000,  0.000000,  2.896097)

Energy contributions relative to reference atoms: (reference = -3235165.067515)

Kinetic:       -278.471731
Potential:     +177.768648
External:        +0.000000
XC:            -695.045818
Entropy (-ST):   -4.356399
Local:          +27.777418
Free energy:   -772.327882
Extrapolated:  -770.149682

Spin contamination: 60.518631 electrons
Showing only first 2 kpts
                      Up                     Down
 Kpt  Band  Eigenvalues  Occupancy  Eigenvalues  Occupancy
  0   454      5.82747    0.99945      6.89761    0.03933
  0   455      5.83917    0.99938      6.90658    0.03608
  0   456      5.85087    0.99931      6.91319    0.03385
  0   457      5.86111    0.99923      6.92659    0.02973

  1   454      5.82518    0.99946      6.89001    0.04230
  1   455      5.83219    0.99942      6.90570    0.03638
  1   456      5.84148    0.99937      6.90940    0.03511
  1   457      5.86406    0.99921      6.91973    0.03177

Fermi level: 6.57804

No gap

Forces in eV/Ang:
  0 Al   -0.65898    0.07055    0.33771
  1 Fe   -0.18975    0.05837    0.35140
  2 Cr   -0.01481    0.21698    0.13771
  3 Cr    0.04671   -0.29738    0.00509
  4 Ni   -0.06489   -0.14628   -0.12359
  5 Al   -0.28768    0.50500   -0.50388
  6 Al   -0.09847   -0.37933   -1.25515
  7 Ni    0.08832    0.02806   -0.03215
  8 Fe    0.20178   -0.00181   -0.23149
  9 Co   -0.02118   -0.09818   -0.09220
 10 Ni   -0.10525    0.01819    0.01547
 11 Fe   -0.21684   -0.01785    0.08658
 12 Fe   -0.18245    0.18399    0.14804
 13 Co    0.29143    0.16389   -0.08114
 14 Cr   -0.43640   -0.08017   -0.01326
 15 Co    0.01359    0.04310    0.05747
 16 Fe    0.32158    0.33664   -0.02428
 17 Al    0.12849    0.05538   -0.06864
 18 Fe    0.03903    0.15759    0.00696
 19 Fe    0.35378    0.00905    0.04647
 20 Cr   -0.29286   -0.04873   -0.24774
 21 Co   -0.24347    0.36393    0.02509
 22 Al    0.31514   -0.24561   -0.20733
 23 Fe   -0.22635    0.08313    0.03762
 24 Ni    0.04973   -0.22293   -0.01343
 25 Al   -0.18688   -0.55063   -0.02970
 26 Ni    0.01313   -0.19339    0.03410
 27 Cr    0.56324   -0.66968   -0.00307
 28 Fe   -0.11216    0.27274    0.06671
 29 Ni   -0.01119    0.00779    0.03816
 30 Ni    0.01680   -0.28037   -0.17260
 31 Ni    0.01172    0.00777   -0.02663
 32 Co   -0.04147   -0.19238    0.20409
 33 Cr   -0.18200   -0.32191   -0.63507
 34 Fe   -0.21678   -0.22195   -0.05638
 35 Ni    0.01081    0.03065   -0.03308
 36 Fe   -0.16088    0.27176    0.35098
 37 Co   -0.08106   -0.16136    0.00539
 38 Cr   -0.18091    0.05938    0.32313
 39 Ni    0.00098   -0.04250   -0.02235
 40 Al   -0.50868   -0.75243    0.20867
 41 Al   -0.15169    0.29630    0.29693
 42 Cr    0.26055   -0.28394    0.49206
 43 Al    0.40813    0.87574    0.34781
 44 Al    0.76164    0.22681    0.11116
 45 Co    0.23241   -0.07203    0.06712
 46 Cr   -0.12261    0.81740    0.65639
 47 Ni    0.18295    0.04884   -0.06934
 48 Fe    0.02120    0.01476    0.15217
 49 Fe   -0.11535    0.05166   -0.36737
 50 Al   -0.04031   -0.14402   -0.71413
 51 Co   -0.26841    0.02867    0.17563
 52 Co    0.18682    0.31923   -0.06679
 53 Ni    0.02975    0.01948   -0.05305
 54 Ni   -0.06729   -0.00635   -0.05067
 55 Co   -0.03497   -0.00154   -0.07498
 56 Al   -0.04106   -0.07932    0.29558
 57 Cr   -0.50073    0.68602    0.18301
 58 Ni   -0.05985   -0.02341    0.03791
 59 Cr    0.57414    0.51733   -0.13673
[...]
 93 Co    0.08287   -0.06474   -0.01868
 94 Ni    0.00556    0.01279   -0.02270
 95 Fe   -0.23194   -0.14538   -0.01779
 96 Al    0.15769   -0.09909   -0.54313
 97 Al    0.00917    0.37392    0.09358
 98 Fe    0.24061    0.13118    0.12823
 99 Co    0.23017   -0.09357   -0.04826
100 Fe    0.02762    0.32824   -0.26941
101 Co   -0.00442    0.20803   -0.15604
102 Al    0.64903    0.38465    0.03881
103 Fe    0.14611    0.23345   -0.16453
104 Co   -0.13363   -0.09049   -0.25600
105 Ni   -0.13935    0.05837    0.07429
106 Al   -0.90823    0.00030    0.61762
107 Cr   -0.31010    0.55843   -0.22723

Date: Sat Apr  8 03:24:14 2023