User:   c.zeng@d0017
Date:   Fri Apr 14 20:28:18 2023
Arch:   x86_64
Pid:    251848
CWD:    /home/c.zeng/projects/hea-corrosion/hea-mlp/data-curation/bulk-mcmc/dft-jobs/17
Python: 3.8.1
gpaw:   /home/c.zeng/usr/installs/gpaw/source/gpaw-22.8.0/gpaw
_gpaw:  /home/c.zeng/usr/installs/gpaw/source/gpaw-22.8.0/
        _gpaw.cpython-38-x86_64-linux-gnu.so
ase:    /home/c.zeng/.local/lib/python3.8/site-packages/ase-3.22.1-py3.8.egg/ase (version 3.22.1)
numpy:  /shared/centos7/python/3.8.1/lib/python3.8/site-packages/numpy (version 1.17.4)
scipy:  /shared/centos7/python/3.8.1/lib/python3.8/site-packages/scipy (version 1.4.1)
units:  Angstrom and eV
cores: 30
OpenMP: False
OMP_NUM_THREADS: 1

Input parameters:
  convergence: {energy: 0.0001}
  kpts: [2 2 2]
  maxiter: 666
  mode: {ecut: 350.0,
         name: pw}
  occupations: {fixmagmom: False,
                name: fermi-dirac,
                width: 0.1}
  spinpol: True
  xc: PBE

System changes: positions, numbers, cell, pbc, initial_charges, initial_magmoms

Initialize ...

species:
  Co:
    name: Cobalt
    id: 339d20d5b0b93d2de9531a1bee871d91
    Z: 27.0
    valence: 9
    core: 18
    charge: 0.0
    file: /home/c.zeng/usr/data/gpaw-setups-0.9.20000/Co.PBE.gz
    compensation charges: {type: gauss,
                           rc: 0.32,
                           lmax: 2}
    cutoffs: {filter: 1.87,
              core: 2.55}
    valence states:
      #              energy  rcut
      - 4s(2.00)    -5.469   1.005
      - 4p(0.00)    -1.277   1.058
      - 3d(7.00)    -8.205   1.005
      -  s          21.742   1.005
      -  p          25.934   1.058
      -  d          19.007   1.005

    # Using partial waves for Co as LCAO basis

  Fe:
    name: Iron
    id: 37abbd8d6c3c35915a9b583b742da910
    Z: 26.0
    valence: 8
    core: 18
    charge: 0.0
    file: /home/c.zeng/usr/data/gpaw-setups-0.9.20000/Fe.PBE.gz
    compensation charges: {type: gauss,
                           rc: 0.33,
                           lmax: 2}
    cutoffs: {filter: 2.06,
              core: 2.67}
    valence states:
      #              energy  rcut
      - 4s(2.00)    -5.291   1.164
      - 4p(0.00)    -1.326   1.058
      - 3d(6.00)    -7.505   1.058
      -  s          21.920   1.164
      -  p          25.885   1.058
      -  d          19.706   1.058

[...]

  Cr:
    name: Chromium
    id: 33f258bda2ca9f93018e70263a35547b
    Z: 24.0
    valence: 6
    core: 18
    charge: 0.0
    file: /home/c.zeng/usr/data/gpaw-setups-0.9.20000/Cr.PBE.gz
    compensation charges: {type: gauss,
                           rc: 0.35,
                           lmax: 2}
    cutoffs: {filter: 2.14,
              core: 3.04}
    valence states:
      #              energy  rcut
      - 4s(1.00)    -4.007   1.164
      - 4p(0.00)    -0.989   1.217
      - 3d(5.00)    -2.913   1.111
      -  s          23.205   1.164
      -  p          26.223   1.217
      -  d          24.299   1.111

[...]

  Ni:
    name: Nickel
    id: 0d9f38a9d6e76a2886f07bb4381f212b
    Z: 28.0
    valence: 16
    core: 12
    charge: 0.0
    file: /home/c.zeng/usr/data/gpaw-setups-0.9.20000/Ni.PBE.gz
    compensation charges: {type: gauss,
                           rc: 0.36,
                           lmax: 2}
    cutoffs: {filter: 2.14,
              core: 1.98}
    valence states:
      #              energy  rcut
      - 4s(2.00)    -5.642   1.164
      - 3p(6.00)   -71.394   1.207
      - 4p(0.00)    -1.226   1.207
      - 3d(8.00)    -8.875   1.138
      -  s          21.570   1.164
      -  d          18.337   1.138

    # Using partial waves for Ni as LCAO basis

Reference energy: -3846758.590871  # eV

Spin-polarized calculation.
Magnetic moment: 151.200000

Convergence criteria:
 Maximum [total energy] change in last 3 cyles: 0.0001 eV / electron
 Maximum integral of absolute [dens]ity change: 0.0001 electrons / valence electron
 Maximum integral of absolute [eigenst]ate change: 4e-08 eV^2 / valence electron
 Maximum number of scf [iter]ations: 666
 (Square brackets indicate name in SCF output, whereas a 'c' in
 the SCF output indicates the quantity has converged.)

Symmetries present (total): 1

  ( 1  0  0)
  ( 0  1  0)
  ( 0  0  1)

8 k-points: 2 x 2 x 2 Monkhorst-Pack grid
4 k-points in the irreducible part of the Brillouin zone
       k-points in crystal coordinates                weights
   0:     0.25000000   -0.25000000   -0.25000000          2/8
   1:     0.25000000   -0.25000000    0.25000000          2/8
   2:     0.25000000    0.25000000   -0.25000000          2/8
   3:     0.25000000    0.25000000    0.25000000          2/8

Wave functions: Plane wave expansion
  Cutoff energy: 350.000 eV
  Number of coefficients (min, max): 17755, 17755
  Pulay-stress correction: 0.000000 eV/Ang^3 (de/decut=0.000000)
  Using FFTW library
  ScaLapack parameters: grid=1x1, blocksize=None
  Wavefunction extrapolation:
    Improved wavefunction reuse through dual PAW basis

Occupation numbers: Fermi-Dirac:
  width: 0.1000  # eV

Eigensolver
   Davidson(niter=2)

Densities:
  Coarse grid: 48*48*48 grid
  Fine grid: 96*96*96 grid
  Total Charge: 0.000000

Density mixing:
  Method: difference
  Backend: pulay
  Linear mixing parameter: 0.05
  old densities: 5
  Damping of long wavelength oscillations: 50

Hamiltonian:
  XC and Coulomb potentials evaluated on a 96*96*96 grid
  Using the PBE Exchange-Correlation functional
  External potential:
    NoExternalPotential

XC parameters: PBE with 2 nearest neighbor stencil

Total number of cores used: 30
Parallelization over k-points: 2
Domain decomposition: 5 x 3 x 1

Number of atoms: 108
Number of atomic orbitals: 1053
Number of bands in calculation: 727
Number of valence electrons: 1053
Bands to converge: occupied

... initialized

Initializing position-dependent things.

Density initialized from atomic densities
Creating initial wave functions:
  727 bands from LCAO basis set

       /|  Cr       Cr      Ni    |
      / |   CrFe     Ni           |
     /  |       Co      Fe       Fe
    /   |Cr      CFe       Co     Cr
   /    | Co       Ni       NFe   |
  /  CCo|  FeNi     CoNi          |
 *    NiNi    FeCr   FeCrCo       |
 |      |CoCr   FeFeCr  CoCrFe   Ni
 |      | CrCo     CoNiFeCrCrCr   |
 |    Co|  CoFeNi   CoCrFe   NiCo |
 |      Ni    CrCrNi CrNiNi     Ni|
 |      |FeFe  CoFeNi   FeNiFe   Ni
 |      .-FeCo-----NiNiFe--CrCr---Co
 |   Cro     Fe       Cr         /
 |    NiCo     Coi     CCre     /
 |   /    Co               Ni  /
 |  /      Fe       Fe    NiFe/
 | / Fe     Cr       NiCr    /
 |/            Co       Cr  /
 *--------Co------Co-------*

Positions:
   0 Co    -0.012479   -0.003723   10.616104    ( 0.0000,  0.0000,  2.1000)
   1 Fe    -0.011321    1.761305    1.763386    ( 0.0000,  0.0000,  2.1000)
   2 Fe     1.758365    0.001326    1.769011    ( 0.0000,  0.0000,  2.0000)
   3 Co     1.752686    1.779222   10.610436    ( 0.0000,  0.0000,  2.0000)
   4 Co     3.541196    0.004726   10.616104    ( 0.0000,  0.0000,  0.0000)
   5 Fe     3.534711    1.782438    1.778999    ( 0.0000,  0.0000,  0.0000)
   6 Cr     5.305717   10.600629    1.767950    ( 0.0000,  0.0000,  2.1000)
   7 Co     5.324780    1.765604   10.614618    ( 0.0000,  0.0000,  0.0000)
   8 Co     7.089121    0.014598   10.619926    ( 0.0000,  0.0000,  2.0000)
   9 Fe     7.085279    1.771219    1.773543    ( 0.0000,  0.0000,  1.5000)
  10 Cr     8.850554    0.011470    1.768756    ( 0.0000,  0.0000,  1.5000)
  11 Cr     8.842381    1.777333   10.615680    ( 0.0000,  0.0000,  2.1000)
  12 Fe    10.590535    3.538203   -0.001956    ( 0.0000,  0.0000,  0.0000)
  13 Cr    10.624277    5.310674    1.769786    ( 0.0000,  0.0000,  2.0000)
  14 Co     1.761379    3.535623    1.784572    ( 0.0000,  0.0000,  0.0000)
  15 Cr     1.770200    5.301408   10.611753    ( 0.0000,  0.0000,  2.0000)
  16 Cr     3.556003    3.551407   10.618333    ( 0.0000,  0.0000,  1.5000)
  17 Fe     3.539370    5.311290    1.775199    ( 0.0000,  0.0000,  2.1000)
  18 Ni     5.320142    3.545059    1.779678    ( 0.0000,  0.0000,  1.5000)
  19 Fe     5.306980    5.314654   10.602720    ( 0.0000,  0.0000,  0.0000)
  20 Ni     7.081585    3.529127   10.614725    ( 0.0000,  0.0000,  2.1000)
  21 Cr     7.069241    5.303361    1.781271    ( 0.0000,  0.0000,  1.5000)
  22 Fe     8.841447    3.542671    1.781600    ( 0.0000,  0.0000,  2.1000)
  23 Ni     8.850893    5.290379    0.000220    ( 0.0000,  0.0000,  0.0000)
  24 Ni     0.005868    7.083411   10.614937    ( 0.0000,  0.0000,  2.0000)
  25 Ni    10.601043    8.849694    1.772960    ( 0.0000,  0.0000,  2.1000)
  26 Fe     1.773713    7.072329    1.777184    ( 0.0000,  0.0000,  0.0000)
  27 Cr     1.755520    8.842943   10.608324    ( 0.0000,  0.0000,  0.0000)
  28 Fe     3.544009    7.063116   10.610489    ( 0.0000,  0.0000,  2.0000)
  29 Co     3.542225    8.826820    1.785580    ( 0.0000,  0.0000,  0.0000)
  30 Ni     5.309835    7.081776    1.776600    ( 0.0000,  0.0000,  2.1000)
  31 Cr     5.331945    8.840321   10.604673    ( 0.0000,  0.0000,  2.1000)
  32 Co     7.068434    7.069028   10.623110    ( 0.0000,  0.0000,  0.0000)
  33 Fe     7.083750    8.846796    1.774509    ( 0.0000,  0.0000,  1.5000)
  34 Cr     8.841404    7.058180    1.777173    ( 0.0000,  0.0000,  1.5000)
  35 Ni     8.835524    8.853600   10.611753    ( 0.0000,  0.0000,  0.0000)
  36 Ni    -0.009351   10.618864    3.531070    ( 0.0000,  0.0000,  2.0000)
  37 Fe    10.602508    1.764818    5.300452    ( 0.0000,  0.0000,  1.5000)
  38 Cr     1.756720    0.001379    5.295867    ( 0.0000,  0.0000,  0.0000)
  39 Co     1.766506    1.767154    3.539222    ( 0.0000,  0.0000,  2.0000)
  40 Co     3.539742    0.013881    3.542873    ( 0.0000,  0.0000,  2.0000)
  41 Fe     3.548944    1.788658    5.306237    ( 0.0000,  0.0000,  2.1000)
  42 Fe     5.320174   -0.004685    5.301386    ( 0.0000,  0.0000,  0.0000)
  43 Co     5.316862    1.765551    3.538935    ( 0.0000,  0.0000,  2.0000)
  44 Cr     7.081086   -0.000289    3.531325    ( 0.0000,  0.0000,  2.0000)
  45 Ni     7.072902    1.777407    5.300537    ( 0.0000,  0.0000,  2.0000)
  46 Fe     8.840544    0.012372    5.307851    ( 0.0000,  0.0000,  1.5000)
  47 Cr     8.833592    1.767928    3.534318    ( 0.0000,  0.0000,  2.1000)
  48 Cr    -0.004066    3.525285    3.545951    ( 0.0000,  0.0000,  0.0000)
  49 Co    -0.001689    5.317934    5.307787    ( 0.0000,  0.0000,  1.5000)
  50 Ni     1.769043    3.555101    5.297279    ( 0.0000,  0.0000,  2.0000)
  51 Fe     1.773692    5.305929    3.538266    ( 0.0000,  0.0000,  2.1000)
  52 Co     3.542746    3.537364    3.547575    ( 0.0000,  0.0000,  2.1000)
  53 Fe     3.548477    5.306927    5.301153    ( 0.0000,  0.0000,  2.0000)
  54 Cr     5.316246    3.553031    5.303637    ( 0.0000,  0.0000,  2.0000)
  55 Fe     5.303286    5.303531    3.542385    ( 0.0000,  0.0000,  1.5000)
  56 Ni     7.074962    3.533023    3.537215    ( 0.0000,  0.0000,  1.5000)
  57 Cr     7.066046    5.306046    5.300081    ( 0.0000,  0.0000,  2.0000)
  58 Ni     8.834526    3.538160    5.294530    ( 0.0000,  0.0000,  2.1000)
  59 Ni     8.846255    5.300452    3.537672    ( 0.0000,  0.0000,  1.5000)
[...]
  93 Ni     7.071130    5.304220    8.839313    ( 0.0000,  0.0000,  1.5000)
  94 Co     8.837997    3.524669    8.843389    ( 0.0000,  0.0000,  1.5000)
  95 Cr     8.833772    5.299051    7.076862    ( 0.0000,  0.0000,  0.0000)
  96 Ni     0.012168    7.080333    7.083835    ( 0.0000,  0.0000,  1.5000)
  97 Fe    -0.017034    8.848707    8.843941    ( 0.0000,  0.0000,  2.1000)
  98 Co     1.777938    7.075503    8.840194    ( 0.0000,  0.0000,  2.0000)
  99 Fe     1.758800    8.840035    7.069803    ( 0.0000,  0.0000,  0.0000)
 100 Fe     3.549921    7.066194    7.070090    ( 0.0000,  0.0000,  2.1000)
 101 Co     3.553137    8.839111    8.836776    ( 0.0000,  0.0000,  0.0000)
 102 Ni     5.304189    7.079929    8.840215    ( 0.0000,  0.0000,  2.0000)
 103 Co     5.321946    8.832180    7.082997    ( 0.0000,  0.0000,  2.1000)
 104 Cr     7.057077    7.072149    7.064167    ( 0.0000,  0.0000,  1.5000)
 105 Fe     7.082402    8.855500    8.837487    ( 0.0000,  0.0000,  2.1000)
 106 Co     8.846786    7.077881    8.846732    ( 0.0000,  0.0000,  0.0000)
 107 Ni     8.839313    8.848272    7.075153    ( 0.0000,  0.0000,  0.0000)

Unit cell:
           periodic     x           y           z      points  spacing
  1. axis:    yes   10.614300    0.000000    0.000000    48     0.2211
  2. axis:    yes    0.000000   10.614300    0.000000    48     0.2211
  3. axis:    yes    0.000000    0.000000   10.614300    48     0.2211

  Lengths:  10.614300  10.614300  10.614300
  Angles:   90.000000  90.000000  90.000000

Effective grid spacing dv^(1/3) = 0.2211

     iter     time        total  log10-change:  magmom
                         energy  eigst   dens
iter:   1 20:33:02  -949.404440                  +151.1203
iter:   2 20:34:49  -937.912019  -0.54  -1.38    +115.4035
iter:   3 20:36:37  -919.919722  -1.00  -1.34    +85.6131
iter:   4 20:38:25  -896.506452  -1.42  -1.40    +71.3738
iter:   5 20:40:13  -891.540609  -1.92  -1.48    +63.4668
iter:   6 20:42:00  -894.161644  -2.03  -1.53    +58.8580
iter:   7 20:43:48  -895.957340  -1.78  -1.55    +56.8771
iter:   8 20:45:36  -887.011729  -1.86  -1.56    +54.8107
iter:   9 20:47:23  -896.624586  -1.79  -1.77    +53.8953
iter:  10 20:49:11  -887.544117  -2.03  -1.71    +52.9505
iter:  11 20:50:59  -888.602707  -2.45  -1.91    +52.5388
iter:  12 20:52:46  -887.437945  -2.62  -1.89    +52.8010
iter:  13 20:54:34  -887.504682  -2.78  -1.95    +53.0814
iter:  14 20:56:22  -888.971061  -2.73  -2.01    +53.6248
iter:  15 20:58:09  -890.265173  -2.54  -2.02    +53.7290
iter:  16 20:59:57  -890.516343  -2.45  -2.01    +54.0979
iter:  17 21:01:44  -889.285798  -2.74  -1.99    +54.5100
iter:  18 21:03:32  -890.099388  -2.68  -2.17    +54.8083
iter:  19 21:05:20  -889.058259  -2.79  -2.13    +54.9518
iter:  20 21:07:07  -889.162645  -3.14  -2.23    +55.5870
iter:  21 21:08:55  -889.291687  -3.16  -2.30    +56.5699
iter:  22 21:10:41  -889.664323  -3.07  -2.34    +56.8715
iter:  23 21:12:24  -889.234357  -3.39  -2.29    +57.3942
iter:  24 21:14:06  -889.529898  -3.43  -2.48    +58.2288
iter:  25 21:15:48  -889.541081  -3.57  -2.45    +58.7166
iter:  26 21:17:31  -889.675514  -3.63  -2.50    +59.1706
iter:  27 21:19:13  -889.792707  -3.64  -2.54    +59.6125
iter:  28 21:20:56  -889.822307  -3.77  -2.52    +60.0528
iter:  29 21:22:38  -889.905942  -3.75  -2.57    +60.3212
iter:  30 21:24:20  -890.019890  -3.71  -2.59    +60.5472
iter:  31 21:26:03  -889.981094  -3.62  -2.54    +60.6816
iter:  32 21:27:46  -890.105273  -3.63  -2.66    +60.9113
iter:  33 21:29:29  -890.096183  -3.52  -2.58    +60.9460
iter:  34 21:31:11  -890.030890c -3.80  -2.65    +60.8287
iter:  35 21:32:53  -890.037296c -4.01  -2.76    +60.9319
iter:  36 21:34:36  -890.062474c -4.01  -2.78    +60.9214
iter:  37 21:36:19  -890.021342c -4.44  -2.78    +60.9414
iter:  38 21:38:01  -890.041553c -4.43  -2.91    +60.9007
iter:  39 21:39:44  -890.042247c -4.94  -2.88    +60.9403
iter:  40 21:41:27  -890.064728c -4.51  -2.94    +60.9683
iter:  41 21:43:10  -890.096222c -4.38  -2.91    +60.9385
iter:  42 21:44:52  -890.087774c -4.24  -2.90    +60.9441
iter:  43 21:46:35  -890.094117c -4.25  -3.00    +60.8634
iter:  44 21:48:18  -890.107784c -4.24  -2.99    +60.8421
iter:  45 21:50:00  -890.074666c -4.56  -2.98    +60.8420
iter:  46 21:51:43  -890.081682c -4.83  -3.23    +60.8169
iter:  47 21:53:26  -890.077162c -5.26  -3.21    +60.8518
iter:  48 21:55:09  -890.081770c -5.45  -3.34    +60.8246
iter:  49 21:56:52  -890.090669c -5.02  -3.40    +60.8154
iter:  50 21:58:35  -890.087057c -5.45  -3.31    +60.7847
iter:  51 22:00:18  -890.090821c -5.45  -3.57    +60.7427
iter:  52 22:02:01  -890.092337c -5.58  -3.59    +60.7397
iter:  53 22:03:44  -890.093286c -5.68  -3.63    +60.7323
iter:  54 22:05:27  -890.095747c -5.81  -3.71    +60.7007
iter:  55 22:07:10  -890.098800c -5.67  -3.74    +60.6801
iter:  56 22:08:53  -890.106054c -5.11  -3.74    +60.6352
iter:  57 22:10:35  -890.118912c -4.50  -3.63    +60.5882
iter:  58 22:12:18  -890.122853c -4.81  -3.48    +60.5910
iter:  59 22:14:01  -890.125225c -5.31  -3.44    +60.6068
iter:  60 22:15:45  -890.126034c -5.70  -3.40    +60.6307
iter:  61 22:17:27  -890.125848c -5.71  -3.39    +60.6714
iter:  62 22:19:10  -890.129626c -5.14  -3.41    +60.6733
iter:  63 22:20:53  -890.121493c -5.28  -3.30    +60.6698
iter:  64 22:22:35  -890.127866c -5.05  -3.48    +60.6458
iter:  65 22:24:18  -890.119138c -5.21  -3.30    +60.6321
iter:  66 22:26:01  -890.118032c -5.84  -3.54    +60.5576
iter:  67 22:27:43  -890.118221c -6.01  -3.64    +60.5181
iter:  68 22:29:26  -890.118608c -5.85  -3.66    +60.5034
iter:  69 22:31:09  -890.117471c -5.90  -3.65    +60.4943
iter:  70 22:32:51  -890.118807c -5.70  -3.67    +60.4802
iter:  71 22:34:34  -890.119145c -5.68  -3.65    +60.4755
iter:  72 22:36:17  -890.118233c -5.69  -3.70    +60.4877
iter:  73 22:37:59  -890.116940c -6.02  -3.69    +60.4753
iter:  74 22:39:42  -890.116758c -6.21  -3.82    +60.4573
iter:  75 22:41:24  -890.116660c -6.43  -3.89    +60.4518
iter:  76 22:43:07  -890.116370c -6.84  -3.98    +60.4525
iter:  77 22:44:49  -890.116229c -6.90  -4.01c   +60.4491
iter:  78 22:46:32  -890.116790c -6.35  -4.04c   +60.4503
iter:  79 22:48:14  -890.116739c -6.35  -3.92    +60.4543
iter:  80 22:49:56  -890.116086c -6.60  -3.99    +60.4611
iter:  81 22:51:39  -890.116088c -6.37  -4.17c   +60.4608
iter:  82 22:53:21  -890.116186c -6.52  -3.99    +60.4599
iter:  83 22:55:04  -890.115954c -6.82  -4.15c   +60.4680
iter:  84 22:56:47  -890.115793c -7.23  -4.31c   +60.4702
iter:  85 22:58:29  -890.115698c -7.43c -4.33c   +60.4694

Converged after 85 iterations.

Dipole moment: (6.538716, -2.073158, 0.739927) |e|*Ang

Total magnetic moment: (0.000000, 0.000000, 60.469358)
Local magnetic moments:
   0 Co ( 0.000000,  0.000000,  0.735179)
   1 Fe ( 0.000000,  0.000000,  1.869458)
   2 Fe ( 0.000000,  0.000000,  2.304712)
   3 Co ( 0.000000,  0.000000,  0.854084)
   4 Co ( 0.000000,  0.000000,  0.468369)
   5 Fe ( 0.000000,  0.000000,  2.285365)
   6 Cr ( 0.000000,  0.000000, -1.001430)
   7 Co ( 0.000000,  0.000000,  0.648818)
   8 Co ( 0.000000,  0.000000,  0.405451)
   9 Fe ( 0.000000,  0.000000,  1.937435)
  10 Cr ( 0.000000,  0.000000,  0.417798)
  11 Cr ( 0.000000,  0.000000, -1.353253)
  12 Fe ( 0.000000,  0.000000, -1.606401)
  13 Cr ( 0.000000,  0.000000,  0.325666)
  14 Co ( 0.000000,  0.000000,  0.933012)
  15 Cr ( 0.000000,  0.000000, -1.077133)
  16 Cr ( 0.000000,  0.000000, -1.220305)
  17 Fe ( 0.000000,  0.000000,  1.868998)
  18 Ni ( 0.000000,  0.000000,  0.323226)
  19 Fe ( 0.000000,  0.000000,  2.182968)
  20 Ni ( 0.000000,  0.000000,  0.259668)
  21 Cr ( 0.000000,  0.000000, -1.508216)
  22 Fe ( 0.000000,  0.000000,  1.860925)
  23 Ni ( 0.000000,  0.000000,  0.201579)
  24 Ni ( 0.000000,  0.000000,  0.290309)
  25 Ni ( 0.000000,  0.000000,  0.306841)
  26 Fe ( 0.000000,  0.000000,  2.048055)
  27 Cr ( 0.000000,  0.000000, -1.597366)
  28 Fe ( 0.000000,  0.000000,  2.036618)
  29 Co ( 0.000000,  0.000000,  1.172875)
  30 Ni ( 0.000000,  0.000000,  0.324399)
  31 Cr ( 0.000000,  0.000000, -1.602852)
  32 Co ( 0.000000,  0.000000,  1.157582)
  33 Fe ( 0.000000,  0.000000,  1.908233)
  34 Cr ( 0.000000,  0.000000,  1.076115)
  35 Ni ( 0.000000,  0.000000,  0.333310)
  36 Ni ( 0.000000,  0.000000,  0.308891)
  37 Fe ( 0.000000,  0.000000,  1.959781)
  38 Cr ( 0.000000,  0.000000, -1.699966)
  39 Co ( 0.000000,  0.000000,  1.235993)
  40 Co ( 0.000000,  0.000000,  1.179843)
  41 Fe ( 0.000000,  0.000000,  2.272613)
  42 Fe ( 0.000000,  0.000000,  2.395146)
  43 Co ( 0.000000,  0.000000,  0.989743)
  44 Cr ( 0.000000,  0.000000, -1.246404)
  45 Ni ( 0.000000,  0.000000,  0.310395)
  46 Fe ( 0.000000,  0.000000,  2.161575)
  47 Cr ( 0.000000,  0.000000, -0.290780)
  48 Cr ( 0.000000,  0.000000, -1.351464)
  49 Co ( 0.000000,  0.000000,  0.972438)
  50 Ni ( 0.000000,  0.000000,  0.351554)
  51 Fe ( 0.000000,  0.000000,  1.853907)
  52 Co ( 0.000000,  0.000000,  1.205644)
  53 Fe ( 0.000000,  0.000000,  1.964380)
  54 Cr ( 0.000000,  0.000000, -1.618832)
  55 Fe ( 0.000000,  0.000000,  1.964402)
  56 Ni ( 0.000000,  0.000000,  0.190859)
  57 Cr ( 0.000000,  0.000000, -0.168384)
  58 Ni ( 0.000000,  0.000000,  0.126731)
  59 Ni ( 0.000000,  0.000000,  0.084414)
[...]
  93 Ni ( 0.000000,  0.000000,  0.265665)
  94 Co ( 0.000000,  0.000000,  0.545093)
  95 Cr ( 0.000000,  0.000000,  0.703552)
  96 Ni ( 0.000000,  0.000000,  0.243276)
  97 Fe ( 0.000000,  0.000000,  1.971622)
  98 Co ( 0.000000,  0.000000,  1.185834)
  99 Fe ( 0.000000,  0.000000,  1.897641)
 100 Fe ( 0.000000,  0.000000,  2.171783)
 101 Co ( 0.000000,  0.000000,  1.159285)
 102 Ni ( 0.000000,  0.000000,  0.360085)
 103 Co ( 0.000000,  0.000000,  1.285945)
 104 Cr ( 0.000000,  0.000000, -1.324440)
 105 Fe ( 0.000000,  0.000000,  2.331482)
 106 Co ( 0.000000,  0.000000,  1.278985)
 107 Ni ( 0.000000,  0.000000,  0.331442)

Energy contributions relative to reference atoms: (reference = -3846758.590871)

Kinetic:       +113.628735
Potential:     -181.774452
External:        +0.000000
XC:            -859.553294
Entropy (-ST):   -4.712210
Local:          +39.939418
Free energy:   -892.471803
Extrapolated:  -890.115698

Spin contamination: 32.017803 electrons
Showing only first 2 kpts
                      Up                     Down
 Kpt  Band  Eigenvalues  Occupancy  Eigenvalues  Occupancy
  0   524      9.85937    0.99254     10.69653    0.02987
  0   525      9.87467    0.99132     10.70291    0.02808
  0   526      9.88877    0.99002     10.71831    0.02417
  0   527      9.90064    0.98878     10.73430    0.02067

  1   524      9.86885    0.99181     10.69792    0.02947
  1   525      9.87197    0.99155     10.71577    0.02478
  1   526      9.89518    0.98937     10.73135    0.02128
  1   527      9.90522    0.98826     10.73660    0.02021

Fermi level: 10.34849

No gap

Forces in eV/Ang:
  0 Co    0.11215   -0.26956   -0.05317
  1 Fe    0.35573    0.26310   -0.18270
  2 Fe    0.16793   -0.17377   -0.20716
  3 Co   -0.10780    0.20396    0.06673
  4 Co    0.07752   -0.07070   -0.09751
  5 Fe    0.08649    0.06969   -0.01571
  6 Cr   -0.10627    0.21561   -0.00866
  7 Co    0.11030    0.00171   -0.04771
  8 Co   -0.23183   -0.09429    0.29284
  9 Fe   -0.34369   -0.00434   -0.35791
 10 Cr   -0.21922   -0.21904   -0.33349
 11 Cr    0.02286    0.21355    0.06697
 12 Fe    0.43051    0.30308    0.04453
 13 Cr   -0.00920   -0.26395   -0.26311
 14 Co   -0.04800   -0.01397   -0.23482
 15 Cr   -0.35935    0.25031   -0.00373
 16 Cr   -0.17219   -0.47730    0.51254
 17 Fe   -0.11505   -0.43612   -0.02642
 18 Ni   -0.20026   -0.14837   -0.14578
 19 Fe    0.12543   -0.15342    0.16283
 20 Ni   -0.12873    0.05074    0.04399
 21 Cr    0.19257    0.09830   -0.01275
 22 Fe    0.12260   -0.07455   -0.19599
 23 Ni    0.06784    0.09036   -0.09519
 24 Ni   -0.11016   -0.14881   -0.05017
 25 Ni    0.14461    0.01390    0.04201
 26 Fe   -0.09895    0.20974   -0.11284
 27 Cr    0.32134   -0.27578    0.23856
 28 Fe   -0.17483    0.30700   -0.08161
 29 Co   -0.02503    0.26627    0.13163
 30 Ni   -0.13208    0.06877   -0.09774
 31 Cr   -0.24602   -0.02561   -0.10978
 32 Co    0.33110    0.01566   -0.10807
 33 Fe   -0.24043    0.22944   -0.21021
 34 Cr   -0.18075   -0.11226   -0.22820
 35 Ni    0.01649    0.02010    0.04058
 36 Ni    0.04913   -0.27311    0.09120
 37 Fe    0.38577    0.03105   -0.00312
 38 Cr    0.61193    0.09101    0.02954
 39 Co   -0.02399    0.22849    0.03840
 40 Co    0.14878   -0.41596   -0.08061
 41 Fe   -0.46036   -0.04289    0.01664
 42 Fe    0.20774   -0.06808   -0.06400
 43 Co   -0.08979    0.01728   -0.05755
 44 Cr    0.05700    0.02543    0.20490
 45 Ni    0.07538    0.00013    0.05440
 46 Fe   -0.09035   -0.24028    0.11560
 47 Cr   -0.21737    0.11888    0.07050
 48 Cr    0.07108    0.08035    0.18240
 49 Co   -0.00915   -0.04295    0.02545
 50 Ni   -0.02349   -0.21230    0.07634
 51 Fe   -0.00148   -0.14217    0.03606
 52 Co   -0.10348    0.06961   -0.25813
 53 Fe   -0.16238   -0.14557    0.14674
 54 Cr   -0.04567   -0.14968    0.15725
 55 Fe    0.14452    0.07374    0.03199
 56 Ni    0.14111   -0.15470    0.09512
 57 Cr    0.26254    0.25075   -0.24921
 58 Ni   -0.04750    0.04913    0.08977
 59 Ni    0.00935    0.24143    0.18408
[...]
 93 Ni    0.05498    0.07281   -0.03712
 94 Co    0.05766   -0.02723    0.07253
 95 Cr   -0.29404    0.28977    0.13787
 96 Ni   -0.21835   -0.11014   -0.05623
 97 Fe    0.06684    0.01703    0.05439
 98 Co   -0.01153   -0.00558    0.07495
 99 Fe    0.21154    0.28848    0.01251
100 Fe   -0.01822    0.18036    0.32434
101 Co   -0.21947    0.05069   -0.01815
102 Ni    0.06035   -0.06160    0.12474
103 Co   -0.15097    0.09692   -0.19180
104 Cr    0.17400   -0.11676    0.24430
105 Fe    0.09028   -0.11427    0.11555
106 Co   -0.08488   -0.19934    0.03832
107 Ni   -0.03902   -0.22714   -0.09659

Date: Fri Apr 14 22:58:49 2023