User:   c.zeng@d0038
Date:   Fri Apr 14 04:18:07 2023
Arch:   x86_64
Pid:    126223
CWD:    /home/c.zeng/projects/hea-corrosion/hea-mlp/data-curation/bulk-md/dft-jobs/97
Python: 3.8.1
gpaw:   /home/c.zeng/usr/installs/gpaw/source/gpaw-22.8.0/gpaw
_gpaw:  /home/c.zeng/usr/installs/gpaw/source/gpaw-22.8.0/
        _gpaw.cpython-38-x86_64-linux-gnu.so
ase:    /home/c.zeng/.local/lib/python3.8/site-packages/ase-3.22.1-py3.8.egg/ase (version 3.22.1)
numpy:  /shared/centos7/python/3.8.1/lib/python3.8/site-packages/numpy (version 1.17.4)
scipy:  /shared/centos7/python/3.8.1/lib/python3.8/site-packages/scipy (version 1.4.1)
units:  Angstrom and eV
cores: 30
OpenMP: False
OMP_NUM_THREADS: 1

Input parameters:
  convergence: {energy: 0.0001}
  kpts: [2 2 2]
  maxiter: 666
  mode: {ecut: 350.0,
         name: pw}
  occupations: {fixmagmom: False,
                name: fermi-dirac,
                width: 0.1}
  spinpol: True
  xc: PBE

System changes: positions, numbers, cell, pbc, initial_charges, initial_magmoms

Initialize ...

species:
  Al:
    name: Aluminium
    id: 0292cae29f5d6237e50f6abdd43a7bdd
    Z: 13.0
    valence: 3
    core: 10
    charge: 0.0
    file: /home/c.zeng/usr/data/gpaw-setups-0.9.20000/Al.PBE.gz
    compensation charges: {type: gauss,
                           rc: 0.34,
                           lmax: 2}
    cutoffs: {filter: 1.91,
              core: 2.36}
    valence states:
      #              energy  rcut
      - 3s(2.00)    -7.753   1.085
      - 3p(1.00)    -2.712   1.085
      -  s          19.459   1.085
      -  p          24.499   1.085
      -  d           0.000   1.085

    # Using partial waves for Al as LCAO basis

  Fe:
    name: Iron
    id: 37abbd8d6c3c35915a9b583b742da910
    Z: 26.0
    valence: 8
    core: 18
    charge: 0.0
    file: /home/c.zeng/usr/data/gpaw-setups-0.9.20000/Fe.PBE.gz
    compensation charges: {type: gauss,
                           rc: 0.33,
                           lmax: 2}
    cutoffs: {filter: 2.06,
              core: 2.67}
    valence states:
      #              energy  rcut
      - 4s(2.00)    -5.291   1.164
      - 4p(0.00)    -1.326   1.058
      - 3d(6.00)    -7.505   1.058
      -  s          21.920   1.164
      -  p          25.885   1.058
      -  d          19.706   1.058

[...]

  Cr:
    name: Chromium
    id: 33f258bda2ca9f93018e70263a35547b
    Z: 24.0
    valence: 6
    core: 18
    charge: 0.0
    file: /home/c.zeng/usr/data/gpaw-setups-0.9.20000/Cr.PBE.gz
    compensation charges: {type: gauss,
                           rc: 0.35,
                           lmax: 2}
    cutoffs: {filter: 2.14,
              core: 3.04}
    valence states:
      #              energy  rcut
      - 4s(1.00)    -4.007   1.164
      - 4p(0.00)    -0.989   1.217
      - 3d(5.00)    -2.913   1.111
      -  s          23.205   1.164
      -  p          26.223   1.217
      -  d          24.299   1.111

[...]

  Ni:
    name: Nickel
    id: 0d9f38a9d6e76a2886f07bb4381f212b
    Z: 28.0
    valence: 16
    core: 12
    charge: 0.0
    file: /home/c.zeng/usr/data/gpaw-setups-0.9.20000/Ni.PBE.gz
    compensation charges: {type: gauss,
                           rc: 0.36,
                           lmax: 2}
    cutoffs: {filter: 2.14,
              core: 1.98}
    valence states:
      #              energy  rcut
      - 4s(2.00)    -5.642   1.164
      - 3p(6.00)   -71.394   1.207
      - 4p(0.00)    -1.226   1.207
      - 3d(8.00)    -8.875   1.138
      -  s          21.570   1.164
      -  d          18.337   1.138

[...]

  Co:
    name: Cobalt
    id: 339d20d5b0b93d2de9531a1bee871d91
    Z: 27.0
    valence: 9
    core: 18
    charge: 0.0
    file: /home/c.zeng/usr/data/gpaw-setups-0.9.20000/Co.PBE.gz
    compensation charges: {type: gauss,
                           rc: 0.32,
                           lmax: 2}
    cutoffs: {filter: 1.87,
              core: 2.55}
    valence states:
      #              energy  rcut
      - 4s(2.00)    -5.469   1.005
      - 4p(0.00)    -1.277   1.058
      - 3d(7.00)    -8.205   1.005
      -  s          21.742   1.005
      -  p          25.934   1.058
      -  d          19.007   1.005

    # Using partial waves for Co as LCAO basis

Reference energy: -3235165.067515  # eV

Spin-polarized calculation.
Magnetic moment: 121.100000

Convergence criteria:
 Maximum [total energy] change in last 3 cyles: 0.0001 eV / electron
 Maximum integral of absolute [dens]ity change: 0.0001 electrons / valence electron
 Maximum integral of absolute [eigenst]ate change: 4e-08 eV^2 / valence electron
 Maximum number of scf [iter]ations: 666
 (Square brackets indicate name in SCF output, whereas a 'c' in
 the SCF output indicates the quantity has converged.)

Symmetries present (total): 1

  ( 1  0  0)
  ( 0  1  0)
  ( 0  0  1)

8 k-points: 2 x 2 x 2 Monkhorst-Pack grid
4 k-points in the irreducible part of the Brillouin zone
       k-points in crystal coordinates                weights
   0:     0.25000000   -0.25000000   -0.25000000          2/8
   1:     0.25000000   -0.25000000    0.25000000          2/8
   2:     0.25000000    0.25000000   -0.25000000          2/8
   3:     0.25000000    0.25000000    0.25000000          2/8

Wave functions: Plane wave expansion
  Cutoff energy: 350.000 eV
  Number of coefficients (min, max): 19084, 19084
  Pulay-stress correction: 0.000000 eV/Ang^3 (de/decut=0.000000)
  Using FFTW library
  ScaLapack parameters: grid=1x1, blocksize=None
  Wavefunction extrapolation:
    Improved wavefunction reuse through dual PAW basis

Occupation numbers: Fermi-Dirac:
  width: 0.1000  # eV

Eigensolver
   Davidson(niter=2)

Densities:
  Coarse grid: 48*48*48 grid
  Fine grid: 96*96*96 grid
  Total Charge: 0.000000

Density mixing:
  Method: difference
  Backend: pulay
  Linear mixing parameter: 0.05
  old densities: 5
  Damping of long wavelength oscillations: 50

Hamiltonian:
  XC and Coulomb potentials evaluated on a 96*96*96 grid
  Using the PBE Exchange-Correlation functional
  External potential:
    NoExternalPotential

XC parameters: PBE with 2 nearest neighbor stencil

Total number of cores used: 30
Parallelization over k-points: 2
Domain decomposition: 5 x 3 x 1

Number of atoms: 108
Number of atomic orbitals: 933
Number of bands in calculation: 624
Number of valence electrons: 912
Bands to converge: occupied

... initialized

Initializing position-dependent things.

Density initialized from atomic densities
Creating initial wave functions:
  624 bands from LCAO basis set

        .-----------------Fe-------.
       /|           Ni       Ni    |
      / |                     Ni   |
     /  |       Co       Ni     NiAl
    /   |                  Fe     Co
   /    |  FeAl    AlFCr      Fe   |
  /  Cr |   Cr   Ni   Co Fe  Cr    |
 *     Cr     FeNCo    CoNi    CAlCr
 |      |AlAl    Ni  Fe    FeAl    |
 |   Cr | FeCr CoAlCoCr   AlFeCr   Fe
 |   FeCo  FeNi Cr     CrFe  Cr    |
 |    Co|  Cor ANi  NiANi Ni  Ni   |
 |Co   AAl Al  Ni CoCo   Cr Cr     |
 |      .-Ni--Cr---Ni-Al----Fe-----.
 |     /    CoAAl      CoNi   Feo /
 |    NiCr     Fe      Co        /
 |   /   Co      Fee      Al    /
 |Fe/       Al       Co        /
 | /         Fe               /
 |/   Cr                     /
 *--------Ni----------------Al

Positions:
   0 Al    10.844524    0.049229    0.003548    ( 0.0000,  0.0000,  0.0000)
   1 Fe    10.951902    1.669705    1.939320    ( 0.0000,  0.0000,  2.0000)
   2 Cr     1.626461   10.647911    1.970093    ( 0.0000,  0.0000,  0.0000)
   3 Cr     1.634264    2.050217    0.009816    ( 0.0000,  0.0000,  0.0000)
   4 Ni     3.683457   10.917098   11.002763    ( 0.0000,  0.0000,  1.5000)
   5 Al     3.855365    1.780904    1.678398    ( 0.0000,  0.0000,  0.0000)
   6 Al     5.623918   10.649923    1.582052    ( 0.0000,  0.0000,  0.0000)
   7 Ni     6.027684    1.864335   10.807720    ( 0.0000,  0.0000,  1.5000)
   8 Fe     7.295076   -0.032606   10.706846    ( 0.0000,  0.0000,  2.0000)
   9 Co     7.643710    1.762513    1.781182    ( 0.0000,  0.0000,  2.1000)
  10 Ni     9.122303   -0.387348    1.928671    ( 0.0000,  0.0000,  1.5000)
  11 Fe     9.154311    1.949723   10.689138    ( 0.0000,  0.0000,  2.0000)
  12 Fe    10.857483    3.501214   -0.041759    ( 0.0000,  0.0000,  2.0000)
  13 Co    10.811919    5.552485    1.716469    ( 0.0000,  0.0000,  2.1000)
  14 Cr     1.753604    3.439278    2.007064    ( 0.0000,  0.0000,  0.0000)
  15 Co     1.777192    5.120659   11.087116    ( 0.0000,  0.0000,  2.1000)
  16 Fe     3.768436    3.604047    0.067638    ( 0.0000,  0.0000,  2.0000)
  17 Al     3.635836    5.681319    1.772341    ( 0.0000,  0.0000,  0.0000)
  18 Fe     5.641053    3.354941    1.909867    ( 0.0000,  0.0000,  2.0000)
  19 Fe     5.534208    5.436298    0.159611    ( 0.0000,  0.0000,  2.0000)
  20 Cr     7.352563    3.762054   10.673769    ( 0.0000,  0.0000,  0.0000)
  21 Co     7.481719    5.591414    1.720456    ( 0.0000,  0.0000,  2.1000)
  22 Al     9.193683    3.695262    1.717606    ( 0.0000,  0.0000,  0.0000)
  23 Fe     9.081747    5.352126   -0.289235    ( 0.0000,  0.0000,  2.0000)
  24 Ni    10.800047    7.013606   -0.106159    ( 0.0000,  0.0000,  1.5000)
  25 Al     0.209310    8.856235    1.516901    ( 0.0000,  0.0000,  0.0000)
  26 Ni     1.753049    7.251874    2.054865    ( 0.0000,  0.0000,  1.5000)
  27 Cr     1.989725    8.870223   10.909281    ( 0.0000,  0.0000,  0.0000)
  28 Fe     3.721026    7.313633    0.073777    ( 0.0000,  0.0000,  2.0000)
  29 Ni     3.430288    9.052402    1.823124    ( 0.0000,  0.0000,  1.5000)
  30 Ni     5.380828    7.669735    1.762858    ( 0.0000,  0.0000,  1.5000)
  31 Ni     5.434823    8.976508   10.710531    ( 0.0000,  0.0000,  1.5000)
  32 Co     7.088355    7.248142    0.098763    ( 0.0000,  0.0000,  2.1000)
  33 Cr     7.263973    8.848253    1.757858    ( 0.0000,  0.0000,  0.0000)
  34 Fe     9.136064    7.247527    2.088567    ( 0.0000,  0.0000,  2.0000)
  35 Ni     9.086875    8.977176   -0.121975    ( 0.0000,  0.0000,  1.5000)
  36 Fe    -0.083319   -0.223641    3.723710    ( 0.0000,  0.0000,  2.0000)
  37 Co    10.952846    1.737843    5.393876    ( 0.0000,  0.0000,  2.1000)
  38 Cr     1.760386   10.850001    5.525345    ( 0.0000,  0.0000,  0.0000)
  39 Ni     1.603356    1.623815    3.672970    ( 0.0000,  0.0000,  1.5000)
  40 Al     3.538422   10.626763    3.693544    ( 0.0000,  0.0000,  0.0000)
  41 Al     3.588499    1.811968    5.646038    ( 0.0000,  0.0000,  0.0000)
  42 Cr     5.303409   10.980776    5.585781    ( 0.0000,  0.0000,  0.0000)
  43 Al     5.389364    1.714463    3.763680    ( 0.0000,  0.0000,  0.0000)
  44 Al     7.354859   10.794265    3.505892    ( 0.0000,  0.0000,  0.0000)
  45 Co     7.216038    1.731757    5.355635    ( 0.0000,  0.0000,  2.1000)
  46 Cr     9.167507   -0.105246    5.454837    ( 0.0000,  0.0000,  0.0000)
  47 Ni     9.136819    1.772330    3.741561    ( 0.0000,  0.0000,  1.5000)
  48 Fe    -0.106854    3.542324    3.490882    ( 0.0000,  0.0000,  2.0000)
  49 Fe    11.067355    5.364014    5.360478    ( 0.0000,  0.0000,  2.0000)
  50 Al     1.775465    3.469144    5.142358    ( 0.0000,  0.0000,  0.0000)
  51 Co     1.613030    5.422629    3.603020    ( 0.0000,  0.0000,  2.1000)
  52 Co     3.629836    3.676588    3.361851    ( 0.0000,  0.0000,  2.1000)
  53 Ni     3.473599    5.393359    5.107940    ( 0.0000,  0.0000,  1.5000)
  54 Ni     5.145239    3.786268    5.153048    ( 0.0000,  0.0000,  1.5000)
  55 Co     5.441501    5.559172    3.600801    ( 0.0000,  0.0000,  2.1000)
  56 Al     7.368568    3.610782    3.767204    ( 0.0000,  0.0000,  0.0000)
  57 Cr     7.302192    5.401848    5.067606    ( 0.0000,  0.0000,  0.0000)
  58 Ni     9.316320    3.663541    5.388686    ( 0.0000,  0.0000,  1.5000)
  59 Cr     9.322843    5.218803    3.691932    ( 0.0000,  0.0000,  0.0000)
[...]
  93 Co     7.226631    5.365331    9.117161    ( 0.0000,  0.0000,  2.1000)
  94 Ni     8.861882    3.545205    8.691262    ( 0.0000,  0.0000,  1.5000)
  95 Fe     9.090895    5.440574    7.022251    ( 0.0000,  0.0000,  2.0000)
  96 Al    -0.125029    7.243808    7.350181    ( 0.0000,  0.0000,  0.0000)
  97 Al    -0.027551    9.000609    9.171981    ( 0.0000,  0.0000,  0.0000)
  98 Fe     2.016269    7.342704    9.007450    ( 0.0000,  0.0000,  2.0000)
  99 Co     1.695598    9.123239    7.300494    ( 0.0000,  0.0000,  2.1000)
 100 Fe     3.444780    7.309611    7.352546    ( 0.0000,  0.0000,  2.0000)
 101 Co     3.717898    9.185706    9.104981    ( 0.0000,  0.0000,  2.1000)
 102 Al     5.437131    7.024617    9.131732    ( 0.0000,  0.0000,  0.0000)
 103 Fe     5.569615    9.105571    7.440256    ( 0.0000,  0.0000,  2.0000)
 104 Co     7.142650    7.093707    7.020609    ( 0.0000,  0.0000,  2.1000)
 105 Ni     7.222653    9.162527    8.973503    ( 0.0000,  0.0000,  1.5000)
 106 Al     8.622610    7.281904    9.065891    ( 0.0000,  0.0000,  0.0000)
 107 Cr     8.939897    8.838179    7.087300    ( 0.0000,  0.0000,  0.0000)

Unit cell:
           periodic     x           y           z      points  spacing
  1. axis:    yes   10.872400    0.000000    0.000000    48     0.2265
  2. axis:    yes    0.000000   10.872400    0.000000    48     0.2265
  3. axis:    yes    0.000000    0.000000   10.872400    48     0.2265

  Lengths:  10.872400  10.872400  10.872400
  Angles:   90.000000  90.000000  90.000000

Effective grid spacing dv^(1/3) = 0.2265

     iter     time        total  log10-change:  magmom
                         energy  eigst   dens
iter:   1 04:22:24  -949.194048                  +121.3865
iter:   2 04:24:18  -838.785725  -0.20  -1.17    +65.5259
iter:   3 04:26:12  -823.229361  -0.89  -1.21    +56.2561
iter:   4 04:28:48  -815.136867  -1.25  -1.27    +52.5471
iter:   5 04:30:55  -803.837392  -1.54  -1.28    +50.5271
iter:   6 04:32:49  -797.031430  -1.36  -1.35    +50.5755
iter:   7 04:34:45  -799.637802  -1.32  -1.48    +50.1507
iter:   8 04:36:40  -794.721837  -1.64  -1.52    +51.1780
iter:   9 04:38:34  -790.486694  -2.08  -1.63    +51.9618
iter:  10 04:40:30  -790.811757  -2.44  -1.76    +52.7863
iter:  11 04:42:24  -791.489581  -2.40  -1.79    +53.5756
iter:  12 04:44:19  -791.733733  -2.34  -1.82    +54.3157
iter:  13 04:46:14  -791.186053  -2.42  -1.86    +54.4743
iter:  14 04:48:09  -790.881012  -2.70  -1.95    +54.9154
iter:  15 04:50:04  -791.052661  -2.89  -2.01    +55.3295
iter:  16 04:51:58  -791.029445  -2.94  -2.04    +55.4207
iter:  17 04:53:53  -790.927259  -2.97  -2.09    +55.6579
iter:  18 04:55:48  -790.900699  -3.06  -2.17    +55.6055
iter:  19 04:57:43  -790.965013c -3.17  -2.24    +55.5612
iter:  20 04:59:38  -790.891333c -3.34  -2.27    +55.5504
iter:  21 05:01:33  -790.982249c -3.27  -2.34    +55.4124
iter:  22 05:03:28  -790.906002c -3.40  -2.35    +55.2751
iter:  23 05:05:22  -790.915215c -3.58  -2.42    +55.2043
iter:  24 05:07:18  -790.933971c -3.68  -2.47    +54.9784
iter:  25 05:09:12  -790.951531c -3.81  -2.50    +54.8791
iter:  26 05:11:07  -790.978283c -3.77  -2.54    +54.7169
iter:  27 05:13:01  -790.998855c -3.85  -2.57    +54.6269
iter:  28 05:14:56  -790.995794c -4.01  -2.59    +54.4710
iter:  29 05:16:51  -791.011121c -4.14  -2.65    +54.4108
iter:  30 05:18:45  -791.025954c -4.24  -2.68    +54.2474
iter:  31 05:20:40  -791.045201c -4.23  -2.72    +54.1548
iter:  32 05:22:34  -791.060683c -4.30  -2.75    +54.0652
iter:  33 05:24:38  -791.072535c -4.35  -2.79    +54.0046
iter:  34 05:27:16  -791.076881c -4.48  -2.81    +53.9130
iter:  35 05:29:11  -791.085409c -4.58  -2.86    +53.8929
iter:  36 05:31:06  -791.090664c -4.58  -2.89    +53.8192
iter:  37 05:33:01  -791.098904c -4.65  -2.93    +53.7913
iter:  38 05:34:56  -791.105862c -4.64  -2.96    +53.7590
iter:  39 05:36:51  -791.108941c -4.79  -3.00    +53.7460
iter:  40 05:38:47  -791.114988c -4.81  -3.02    +53.6984
iter:  41 05:40:41  -791.117999c -4.82  -3.06    +53.6933
iter:  42 05:42:36  -791.119759c -4.95  -3.08    +53.6620
iter:  43 05:44:31  -791.124539c -4.96  -3.14    +53.6448
iter:  44 05:46:26  -791.126833c -5.05  -3.17    +53.6250
iter:  45 05:48:21  -791.128157c -5.11  -3.20    +53.6188
iter:  46 05:50:16  -791.130408c -5.20  -3.23    +53.5916
iter:  47 05:52:11  -791.131536c -5.34  -3.28    +53.5832
iter:  48 05:54:06  -791.133216c -5.37  -3.30    +53.5700
iter:  49 05:56:01  -791.136335c -5.30  -3.35    +53.5574
iter:  50 05:57:48  -791.137064c -5.46  -3.37    +53.5459
iter:  51 05:59:10  -791.138510c -5.47  -3.40    +53.5414
iter:  52 06:00:33  -791.140158c -5.53  -3.42    +53.5194
iter:  53 06:01:55  -791.141055c -5.71  -3.46    +53.5133
iter:  54 06:03:18  -791.142743c -5.57  -3.48    +53.4965
iter:  55 06:04:40  -791.145310c -5.52  -3.52    +53.4835
iter:  56 06:06:03  -791.146422c -5.60  -3.54    +53.4636
iter:  57 06:07:25  -791.147481c -5.74  -3.57    +53.4567
iter:  58 06:08:48  -791.149206c -5.68  -3.59    +53.4307
iter:  59 06:10:11  -791.150073c -5.82  -3.63    +53.4230
iter:  60 06:11:33  -791.150889c -5.80  -3.64    +53.4059
iter:  61 06:12:56  -791.152138c -5.86  -3.71    +53.3960
iter:  62 06:14:18  -791.152769c -5.86  -3.74    +53.3789
iter:  63 06:15:41  -791.153289c -6.11  -3.78    +53.3732
iter:  64 06:17:03  -791.154304c -6.02  -3.82    +53.3550
iter:  65 06:18:26  -791.155067c -5.93  -3.85    +53.3424
iter:  66 06:19:48  -791.155560c -6.20  -3.83    +53.3291
iter:  67 06:21:11  -791.156337c -6.19  -3.92    +53.3157
iter:  68 06:22:34  -791.156871c -6.16  -3.95    +53.2998
iter:  69 06:24:33  -791.157276c -6.46  -3.96    +53.2922
iter:  70 06:26:40  -791.157964c -6.25  -3.99    +53.2755
iter:  71 06:28:47  -791.158713c -6.02  -4.03c   +53.2546
iter:  72 06:30:54  -791.158954c -6.58  -3.99    +53.2461
iter:  73 06:33:00  -791.159696c -6.25  -4.06c   +53.2282
iter:  74 06:35:07  -791.159992c -6.38  -4.07c   +53.2160
iter:  75 06:37:13  -791.160365c -6.57  -4.11c   +53.2074
iter:  76 06:39:20  -791.160845c -6.38  -4.16c   +53.1936
iter:  77 06:41:26  -791.161520c -6.26  -4.22c   +53.1765
iter:  78 06:43:32  -791.161507c -6.99  -4.19c   +53.1752
iter:  79 06:45:39  -791.162153c -6.49  -4.24c   +53.1590
iter:  80 06:47:45  -791.162049c -7.12  -4.24c   +53.1592
iter:  81 06:49:50  -791.162561c -6.52  -4.32c   +53.1439
iter:  82 06:51:56  -791.162804c -6.74  -4.26c   +53.1399
iter:  83 06:54:02  -791.163261c -6.60  -4.33c   +53.1298
iter:  84 06:56:08  -791.163676c -6.64  -4.37c   +53.1182
iter:  85 06:58:13  -791.165551c -5.58  -4.37c   +53.0659
iter:  86 07:00:19  -791.163971c -6.04  -4.13c   +53.1074
iter:  87 07:02:25  -791.166169c -5.63  -4.20c   +53.0447
iter:  88 07:04:30  -791.167846c -5.57  -4.17c   +52.9988
iter:  89 07:06:36  -791.174136c -4.48  -4.04c   +52.8043
iter:  90 07:08:41  -791.175162c -5.15  -3.70    +52.7764
iter:  91 07:10:47  -791.175268c -5.67  -3.64    +52.7709
iter:  92 07:12:52  -791.175455c -5.99  -3.64    +52.7737
iter:  93 07:14:58  -791.175640c -6.10  -3.63    +52.7769
iter:  94 07:17:04  -791.177315c -5.92  -3.61    +52.7779
iter:  95 07:19:09  -791.178593c -5.22  -3.51    +52.7792
iter:  96 07:21:15  -791.177991c -5.38  -3.36    +52.7796
iter:  97 07:23:21  -791.175265c -5.26  -3.39    +52.7569
iter:  98 07:25:26  -791.177293c -5.11  -3.53    +52.7572
iter:  99 07:27:32  -791.174314c -5.72  -3.41    +52.7662
iter: 100 07:29:37  -791.173908c -5.75  -3.69    +52.7773
iter: 101 07:31:43  -791.178436c -5.20  -3.64    +52.7743
iter: 102 07:33:49  -791.174774c -5.36  -3.44    +52.7767
iter: 103 07:35:55  -791.174480c -5.50  -3.72    +52.8020
iter: 104 07:38:01  -791.173435c -5.78  -3.67    +52.7979
iter: 105 07:40:07  -791.173492c -6.06  -3.91    +52.8003
iter: 106 07:42:12  -791.173332c -6.56  -3.93    +52.8053
iter: 107 07:44:18  -791.173019c -6.73  -4.11c   +52.8144
iter: 108 07:46:24  -791.173162c -6.80  -4.11c   +52.8158
iter: 109 07:48:30  -791.173339c -6.52  -4.14c   +52.8183
iter: 110 07:50:35  -791.173132c -6.61  -4.08c   +52.8230
iter: 111 07:52:41  -791.172924c -6.55  -4.15c   +52.8274
iter: 112 07:54:47  -791.172840c -6.60  -4.19c   +52.8261
iter: 113 07:56:53  -791.173095c -6.81  -4.17c   +52.8267
iter: 114 07:58:59  -791.172905c -6.90  -4.27c   +52.8297
iter: 115 08:01:05  -791.172806c -7.26  -4.30c   +52.8326
iter: 116 08:03:11  -791.172821c -7.21  -4.43c   +52.8324
iter: 117 08:05:16  -791.172832c -7.69c -4.44c   +52.8344

Converged after 117 iterations.

Dipole moment: (7.145362, 30.739932, 17.439256) |e|*Ang

Total magnetic moment: (0.000000, 0.000000, 52.834370)
Local magnetic moments:
   0 Al ( 0.000000,  0.000000, -0.000713)
   1 Fe ( 0.000000,  0.000000,  1.830585)
   2 Cr ( 0.000000,  0.000000, -1.903489)
   3 Cr ( 0.000000,  0.000000,  0.876083)
   4 Ni ( 0.000000,  0.000000,  0.118995)
   5 Al ( 0.000000,  0.000000, -0.012602)
   6 Al ( 0.000000,  0.000000, -0.011793)
   7 Ni ( 0.000000,  0.000000,  0.340413)
   8 Fe ( 0.000000,  0.000000,  2.326133)
   9 Co ( 0.000000,  0.000000,  1.195357)
  10 Ni ( 0.000000,  0.000000,  0.002390)
  11 Fe ( 0.000000,  0.000000,  2.099939)
  12 Fe ( 0.000000,  0.000000,  1.725634)
  13 Co ( 0.000000,  0.000000,  1.392097)
  14 Cr ( 0.000000,  0.000000, -1.505250)
  15 Co ( 0.000000,  0.000000,  1.181479)
  16 Fe ( 0.000000,  0.000000,  2.239089)
  17 Al ( 0.000000,  0.000000, -0.037629)
  18 Fe ( 0.000000,  0.000000,  2.301608)
  19 Fe ( 0.000000,  0.000000,  2.244381)
  20 Cr ( 0.000000,  0.000000, -1.684087)
  21 Co ( 0.000000,  0.000000,  1.405491)
  22 Al ( 0.000000,  0.000000, -0.036786)
  23 Fe ( 0.000000,  0.000000,  2.229218)
  24 Ni ( 0.000000,  0.000000,  0.118429)
  25 Al ( 0.000000,  0.000000, -0.006863)
  26 Ni ( 0.000000,  0.000000,  0.238499)
  27 Cr ( 0.000000,  0.000000, -1.473387)
  28 Fe ( 0.000000,  0.000000,  2.086542)
  29 Ni ( 0.000000,  0.000000,  0.102296)
  30 Ni ( 0.000000,  0.000000,  0.166073)
  31 Ni ( 0.000000,  0.000000,  0.351009)
  32 Co ( 0.000000,  0.000000,  1.123372)
  33 Cr ( 0.000000,  0.000000, -1.549139)
  34 Fe ( 0.000000,  0.000000,  2.211952)
  35 Ni ( 0.000000,  0.000000,  0.090738)
  36 Fe ( 0.000000,  0.000000,  1.718680)
  37 Co ( 0.000000,  0.000000,  0.529421)
  38 Cr ( 0.000000,  0.000000, -1.506905)
  39 Ni ( 0.000000,  0.000000, -0.014383)
  40 Al ( 0.000000,  0.000000,  0.009402)
  41 Al ( 0.000000,  0.000000, -0.000294)
  42 Cr ( 0.000000,  0.000000, -1.291622)
  43 Al ( 0.000000,  0.000000, -0.009941)
  44 Al ( 0.000000,  0.000000,  0.000160)
  45 Co ( 0.000000,  0.000000,  0.035474)
  46 Cr ( 0.000000,  0.000000, -0.385771)
  47 Ni ( 0.000000,  0.000000,  0.197938)
  48 Fe ( 0.000000,  0.000000,  1.357437)
  49 Fe ( 0.000000,  0.000000,  1.521773)
  50 Al ( 0.000000,  0.000000, -0.021196)
  51 Co ( 0.000000,  0.000000,  1.311170)
  52 Co ( 0.000000,  0.000000,  0.964188)
  53 Ni ( 0.000000,  0.000000,  0.441781)
  54 Ni ( 0.000000,  0.000000,  0.138615)
  55 Co ( 0.000000,  0.000000,  1.175133)
  56 Al ( 0.000000,  0.000000, -0.015174)
  57 Cr ( 0.000000,  0.000000, -1.406141)
  58 Ni ( 0.000000,  0.000000,  0.119739)
  59 Cr ( 0.000000,  0.000000, -0.625933)
[...]
  93 Co ( 0.000000,  0.000000,  0.945438)
  94 Ni ( 0.000000,  0.000000,  0.214252)
  95 Fe ( 0.000000,  0.000000,  2.233317)
  96 Al ( 0.000000,  0.000000, -0.025379)
  97 Al ( 0.000000,  0.000000, -0.007540)
  98 Fe ( 0.000000,  0.000000,  2.022380)
  99 Co ( 0.000000,  0.000000,  0.813358)
 100 Fe ( 0.000000,  0.000000,  2.187759)
 101 Co ( 0.000000,  0.000000,  1.365347)
 102 Al ( 0.000000,  0.000000, -0.042186)
 103 Fe ( 0.000000,  0.000000,  2.651106)
 104 Co ( 0.000000,  0.000000,  1.294430)
 105 Ni ( 0.000000,  0.000000,  0.403249)
 106 Al ( 0.000000,  0.000000, -0.030159)
 107 Cr ( 0.000000,  0.000000,  0.851652)

Energy contributions relative to reference atoms: (reference = -3235165.067515)

Kinetic:       +436.232270
Potential:     -391.277921
External:        +0.000000
XC:            -865.378441
Entropy (-ST):   -3.999710
Local:          +31.251116
Free energy:   -793.172686
Extrapolated:  -791.172832

Spin contamination: 25.566186 electrons
Showing only first 2 kpts
                      Up                     Down
 Kpt  Band  Eigenvalues  Occupancy  Eigenvalues  Occupancy
  0   454      9.02633    0.99529      9.89340    0.03501
  0   455      9.04829    0.99415      9.90452    0.03144
  0   456      9.07357    0.99247      9.92120    0.02674
  0   457      9.07778    0.99215      9.92567    0.02560

  1   454      9.03519    0.99486      9.89195    0.03550
  1   455      9.04263    0.99447      9.90597    0.03101
  1   456      9.06275    0.99324      9.91629    0.02805
  1   457      9.07964    0.99201      9.92587    0.02555

Fermi level: 9.56176

No gap

Forces in eV/Ang:
  0 Al   -0.34149   -0.07456    0.41138
  1 Fe   -1.33831    0.07510   -0.61568
  2 Cr    1.09115    2.02547   -0.55876
  3 Cr    1.56304   -0.87558   -0.08529
  4 Ni   -0.73288   -0.20281   -1.10420
  5 Al   -1.65807   -0.15231   -0.18590
  6 Al   -1.18583    0.79911   -0.38570
  7 Ni   -2.02613    0.46949    0.59028
  8 Fe    1.56726   -0.70623    0.66008
  9 Co   -0.42336    0.03707   -0.04551
 10 Ni    0.30913    0.98962   -1.12377
 11 Fe   -0.99927   -0.81553    1.09784
 12 Fe   -0.43572    1.11048   -0.25392
 13 Co    0.29796   -0.73088    0.67644
 14 Cr   -0.45292    0.86712   -0.54612
 15 Co   -0.00948    0.69122   -0.58206
 16 Fe    0.17945   -0.26492    0.73625
 17 Al   -0.03723   -1.51731    0.94613
 18 Fe    0.41470    1.71361   -0.40766
 19 Fe    0.28298   -0.64170    0.09420
 20 Cr   -0.51720   -0.54827    0.78590
 21 Co   -0.62234   -0.69831    0.93797
 22 Al   -0.67970   -0.69889   -0.37407
 23 Fe    0.20127    0.00356    0.88357
 24 Ni    0.89021    1.01409   -0.19168
 25 Al   -3.35317   -1.02114    1.68351
 26 Ni    0.95938   -0.82946   -1.16775
 27 Cr    0.62479    0.83975   -2.17067
 28 Fe   -0.94760    0.00003   -0.94668
 29 Ni    1.16153    0.42560    0.46595
 30 Ni   -0.55851   -2.15879    1.35190
 31 Ni    0.24155    1.16063   -0.22499
 32 Co    1.14322   -0.23659   -0.18139
 33 Cr    1.41046    0.74164   -0.51464
 34 Fe   -0.29346    0.07271   -0.91620
 35 Ni   -0.48680   -0.35459    1.27183
 36 Fe    0.20603    0.54835   -0.30123
 37 Co   -0.69348   -0.64455    1.02886
 38 Cr   -1.14893   -0.27430    0.97365
 39 Ni    1.98974   -0.29536   -0.42838
 40 Al   -1.63722    2.21611    0.01880
 41 Al   -0.20470   -0.26767   -0.45003
 42 Cr    1.77961   -0.69382    0.67385
 43 Al    0.60910    0.67875   -0.44026
 44 Al    0.62529    1.34182    0.93770
 45 Co    0.20063   -0.06103    0.88699
 46 Cr   -0.97808    0.45451   -0.44219
 47 Ni   -0.09023   -0.57447   -0.52709
 48 Fe    0.90889   -0.29235    0.40985
 49 Fe   -2.13293    0.82120   -0.84756
 50 Al    0.28212    0.50114   -0.14618
 51 Co    0.26652    0.09740   -0.68290
 52 Co   -0.17075   -0.27686   -0.63677
 53 Ni    0.06177    0.54953    0.88556
 54 Ni    1.78249   -1.12527    1.54917
 55 Co   -0.12464   -0.22212   -0.85368
 56 Al   -0.37722   -2.35092   -1.85267
 57 Cr   -0.72644    2.50912    2.29567
 58 Ni   -2.21737   -1.16523    0.27221
 59 Cr   -0.10698    2.55036   -0.52725
[...]
 93 Co   -0.26805   -0.00807   -1.43291
 94 Ni    2.04831    1.27415    0.66417
 95 Fe   -0.56626   -0.28220    0.81643
 96 Al    1.04017   -0.23149   -1.44631
 97 Al    0.40125   -0.17273   -0.30740
 98 Fe   -1.69714   -0.76446    1.31904
 99 Co    0.39452   -0.12648    0.58195
100 Fe    1.39034   -0.10474   -0.90091
101 Co   -0.66801    0.04221   -0.41450
102 Al    0.65559    1.33606   -0.93445
103 Fe   -1.08949    0.08309   -0.69169
104 Co    0.17980    0.40028    0.04729
105 Ni   -0.07815   -0.34252    0.43577
106 Al    0.85335   -0.44661   -0.02924
107 Cr   -0.71012    1.16507   -0.12166

Date: Fri Apr 14 08:05:36 2023