User:   c.zeng@d0098
Date:   Fri Apr 14 04:59:29 2023
Arch:   x86_64
Pid:    59876
CWD:    /home/c.zeng/projects/hea-corrosion/hea-mlp/data-curation/bulk-mcmc/dft-jobs/107
Python: 3.8.1
gpaw:   /home/c.zeng/usr/installs/gpaw/source/gpaw-22.8.0/gpaw
_gpaw:  /home/c.zeng/usr/installs/gpaw/source/gpaw-22.8.0/
        _gpaw.cpython-38-x86_64-linux-gnu.so
ase:    /home/c.zeng/.local/lib/python3.8/site-packages/ase-3.22.1-py3.8.egg/ase (version 3.22.1)
numpy:  /shared/centos7/python/3.8.1/lib/python3.8/site-packages/numpy (version 1.17.4)
scipy:  /shared/centos7/python/3.8.1/lib/python3.8/site-packages/scipy (version 1.4.1)
units:  Angstrom and eV
cores: 30
OpenMP: False
OMP_NUM_THREADS: 1

Input parameters:
  convergence: {energy: 0.0001}
  kpts: [2 2 2]
  maxiter: 666
  mode: {ecut: 350.0,
         name: pw}
  occupations: {fixmagmom: False,
                name: fermi-dirac,
                width: 0.1}
  spinpol: True
  xc: PBE

System changes: positions, numbers, cell, pbc, initial_charges, initial_magmoms

Initialize ...

species:
  Co:
    name: Cobalt
    id: 339d20d5b0b93d2de9531a1bee871d91
    Z: 27.0
    valence: 9
    core: 18
    charge: 0.0
    file: /home/c.zeng/usr/data/gpaw-setups-0.9.20000/Co.PBE.gz
    compensation charges: {type: gauss,
                           rc: 0.32,
                           lmax: 2}
    cutoffs: {filter: 1.87,
              core: 2.55}
    valence states:
      #              energy  rcut
      - 4s(2.00)    -5.469   1.005
      - 4p(0.00)    -1.277   1.058
      - 3d(7.00)    -8.205   1.005
      -  s          21.742   1.005
      -  p          25.934   1.058
      -  d          19.007   1.005

    # Using partial waves for Co as LCAO basis

  Fe:
    name: Iron
    id: 37abbd8d6c3c35915a9b583b742da910
    Z: 26.0
    valence: 8
    core: 18
    charge: 0.0
    file: /home/c.zeng/usr/data/gpaw-setups-0.9.20000/Fe.PBE.gz
    compensation charges: {type: gauss,
                           rc: 0.33,
                           lmax: 2}
    cutoffs: {filter: 2.06,
              core: 2.67}
    valence states:
      #              energy  rcut
      - 4s(2.00)    -5.291   1.164
      - 4p(0.00)    -1.326   1.058
      - 3d(6.00)    -7.505   1.058
      -  s          21.920   1.164
      -  p          25.885   1.058
      -  d          19.706   1.058

[...]

  Ni:
    name: Nickel
    id: 0d9f38a9d6e76a2886f07bb4381f212b
    Z: 28.0
    valence: 16
    core: 12
    charge: 0.0
    file: /home/c.zeng/usr/data/gpaw-setups-0.9.20000/Ni.PBE.gz
    compensation charges: {type: gauss,
                           rc: 0.36,
                           lmax: 2}
    cutoffs: {filter: 2.14,
              core: 1.98}
    valence states:
      #              energy  rcut
      - 4s(2.00)    -5.642   1.164
      - 3p(6.00)   -71.394   1.207
      - 4p(0.00)    -1.226   1.207
      - 3d(8.00)    -8.875   1.138
      -  s          21.570   1.164
      -  d          18.337   1.138

[...]

  Al:
    name: Aluminium
    id: 0292cae29f5d6237e50f6abdd43a7bdd
    Z: 13.0
    valence: 3
    core: 10
    charge: 0.0
    file: /home/c.zeng/usr/data/gpaw-setups-0.9.20000/Al.PBE.gz
    compensation charges: {type: gauss,
                           rc: 0.34,
                           lmax: 2}
    cutoffs: {filter: 1.91,
              core: 2.36}
    valence states:
      #              energy  rcut
      - 3s(2.00)    -7.753   1.085
      - 3p(1.00)    -2.712   1.085
      -  s          19.459   1.085
      -  p          24.499   1.085
      -  d           0.000   1.085

[...]

  Cr:
    name: Chromium
    id: 33f258bda2ca9f93018e70263a35547b
    Z: 24.0
    valence: 6
    core: 18
    charge: 0.0
    file: /home/c.zeng/usr/data/gpaw-setups-0.9.20000/Cr.PBE.gz
    compensation charges: {type: gauss,
                           rc: 0.35,
                           lmax: 2}
    cutoffs: {filter: 2.14,
              core: 3.04}
    valence states:
      #              energy  rcut
      - 4s(1.00)    -4.007   1.164
      - 4p(0.00)    -0.989   1.217
      - 3d(5.00)    -2.913   1.111
      -  s          23.205   1.164
      -  p          26.223   1.217
      -  d          24.299   1.111

    # Using partial waves for Cr as LCAO basis

Reference energy: -3548577.034362  # eV

Spin-polarized calculation.
Magnetic moment: 136.400000

Convergence criteria:
 Maximum [total energy] change in last 3 cyles: 0.0001 eV / electron
 Maximum integral of absolute [dens]ity change: 0.0001 electrons / valence electron
 Maximum integral of absolute [eigenst]ate change: 4e-08 eV^2 / valence electron
 Maximum number of scf [iter]ations: 666
 (Square brackets indicate name in SCF output, whereas a 'c' in
 the SCF output indicates the quantity has converged.)

Symmetries present (total): 1

  ( 1  0  0)
  ( 0  1  0)
  ( 0  0  1)

8 k-points: 2 x 2 x 2 Monkhorst-Pack grid
4 k-points in the irreducible part of the Brillouin zone
       k-points in crystal coordinates                weights
   0:     0.25000000   -0.25000000   -0.25000000          2/8
   1:     0.25000000   -0.25000000    0.25000000          2/8
   2:     0.25000000    0.25000000   -0.25000000          2/8
   3:     0.25000000    0.25000000    0.25000000          2/8

Wave functions: Plane wave expansion
  Cutoff energy: 350.000 eV
  Number of coefficients (min, max): 18331, 18331
  Pulay-stress correction: 0.000000 eV/Ang^3 (de/decut=0.000000)
  Using FFTW library
  ScaLapack parameters: grid=1x1, blocksize=None
  Wavefunction extrapolation:
    Improved wavefunction reuse through dual PAW basis

Occupation numbers: Fermi-Dirac:
  width: 0.1000  # eV

Eigensolver
   Davidson(niter=2)

Densities:
  Coarse grid: 48*48*48 grid
  Fine grid: 96*96*96 grid
  Total Charge: 0.000000

Density mixing:
  Method: difference
  Backend: pulay
  Linear mixing parameter: 0.05
  old densities: 5
  Damping of long wavelength oscillations: 50

Hamiltonian:
  XC and Coulomb potentials evaluated on a 96*96*96 grid
  Using the PBE Exchange-Correlation functional
  External potential:
    NoExternalPotential

XC parameters: PBE with 2 nearest neighbor stencil

Total number of cores used: 30
Parallelization over k-points: 2
Domain decomposition: 5 x 3 x 1

Number of atoms: 108
Number of atomic orbitals: 994
Number of bands in calculation: 674
Number of valence electrons: 980
Bands to converge: occupied

... initialized

Initializing position-dependent things.

Density initialized from atomic densities
Creating initial wave functions:
  674 bands from LCAO basis set

        Co-------Co---------------.
       /|  Co       Fe            |
      / |   NiCr     CrCo     CrCo|
     / Al       CAl     Ni        |
    /   CCo      Ni      FAl      |
   /    | CoCo     Co      CoCo   |
  /   Co|  NiFeAl   NiNi    CrCr  |
 *      Cr  CrCoNi   CoNiNi   FeNi|
 |Fe   NiNiCr   CrACr   FeCr      |
 | Fe   | NiNi   NiNiCr    Cr     |
 |     Co  CoFeNi   FeNiAl  NiAl  |
 |      Fe    FeNi   FeAlFe   AlCr|
 |Cr    |CoNi   NFeFe   FeFe     Fe
 |      .-FeCr-----FeCr--FeCoNi---.
 |     Cr    CoCr     FeCo  Cr Fe/
 |    / Al      Co       Cr     /
 Cr  /            Cr           /
 |  /      Ni      Cr       Fe/
 | / Co              Fe      /
 |/                     Co  /

Positions:
   0 Co    10.732479   -0.010418   10.721263    ( 0.0000,  0.0000,  2.1000)
   1 Fe    10.706231    1.787006    1.816653    ( 0.0000,  0.0000,  1.5000)
   2 Co     1.827923    0.046024    1.820803    ( 0.0000,  0.0000,  0.0000)
   3 Co     1.781666    1.794790   10.668295    ( 0.0000,  0.0000,  0.0000)
   4 Co     3.605675   -0.024615   10.696977    ( 0.0000,  0.0000,  0.0000)
   5 Ni     3.626284    1.755611    1.827590    ( 0.0000,  0.0000,  2.0000)
   6 Fe     5.347186   -0.032870    1.798425    ( 0.0000,  0.0000,  2.0000)
   7 Al     5.383406    1.755353   -0.004078    ( 0.0000,  0.0000,  2.0000)
   8 Fe     7.108694   -0.021619    0.052076    ( 0.0000,  0.0000,  0.0000)
   9 Cr     7.129131    1.783639    1.838109    ( 0.0000,  0.0000,  2.0000)
  10 Al     8.928414   -0.004386    1.840918    ( 0.0000,  0.0000,  2.0000)
  11 Co     8.945645    1.852509    0.063651    ( 0.0000,  0.0000,  0.0000)
  12 Co    10.721403    3.615743   10.707625    ( 0.0000,  0.0000,  2.1000)
  13 Fe    10.714905    5.407607    1.816064    ( 0.0000,  0.0000,  2.0000)
  14 Al     1.786931    3.537020    1.885127    ( 0.0000,  0.0000,  0.0000)
  15 Co     1.774396    5.426328   10.657058    ( 0.0000,  0.0000,  0.0000)
  16 Co     3.564340    3.564490   10.690115    ( 0.0000,  0.0000,  0.0000)
  17 Co     3.570334    5.434059    1.813919    ( 0.0000,  0.0000,  0.0000)
  18 Co     5.350145    3.574934    1.808708    ( 0.0000,  0.0000,  0.0000)
  19 Al     5.345084    5.410577   10.703464    ( 0.0000,  0.0000,  2.1000)
  20 Fe     7.157695    3.624514    0.002553    ( 0.0000,  0.0000,  2.1000)
  21 Fe     7.157792    5.380200    1.803904    ( 0.0000,  0.0000,  0.0000)
  22 Cr     8.944980    3.620622    1.842988    ( 0.0000,  0.0000,  0.0000)
  23 Al     8.940316    5.370571   -0.005231    ( 0.0000,  0.0000,  0.0000)
  24 Co    10.674578    7.138041   10.683446    ( 0.0000,  0.0000,  2.0000)
  25 Fe    10.668413    8.869012    1.800001    ( 0.0000,  0.0000,  0.0000)
  26 Fe     1.807904    7.157309    1.806960    ( 0.0000,  0.0000,  1.5000)
  27 Co     1.808086    8.895217   10.689064    ( 0.0000,  0.0000,  0.0000)
  28 Cr     3.612462    7.185391   10.698339    ( 0.0000,  0.0000,  2.0000)
  29 Ni     3.598277    8.905404    1.808097    ( 0.0000,  0.0000,  1.5000)
  30 Fe     5.362229    7.149643    1.778835    ( 0.0000,  0.0000,  2.1000)
  31 Fe     5.368084    8.904170   10.708750    ( 0.0000,  0.0000,  2.0000)
  32 Co     7.127640    7.124156   10.700741    ( 0.0000,  0.0000,  2.0000)
  33 Fe     7.139982    8.914904    1.783157    ( 0.0000,  0.0000,  0.0000)
  34 Co     8.884516    7.107975    1.798232    ( 0.0000,  0.0000,  2.0000)
  35 Cr     8.895410    8.880302    0.005476    ( 0.0000,  0.0000,  0.0000)
  36 Cr    10.737840    0.006469    3.587908    ( 0.0000,  0.0000,  1.5000)
  37 Cr     0.009110    1.816214    5.359506    ( 0.0000,  0.0000,  1.5000)
  38 Cr     1.833434   -0.010553    5.335488    ( 0.0000,  0.0000,  2.1000)
  39 Cr     1.814369    1.777409    3.664755    ( 0.0000,  0.0000,  1.5000)
  40 Ni     3.608002   -0.027958    3.615958    ( 0.0000,  0.0000,  2.1000)
  41 Ni     3.597397    1.774364    5.368180    ( 0.0000,  0.0000,  1.5000)
  42 Co     5.355185   -0.018813    5.365682    ( 0.0000,  0.0000,  2.1000)
  43 Cr     5.354005    1.762698    3.609396    ( 0.0000,  0.0000,  1.5000)
  44 Cr     7.096449    0.004839    3.553950    ( 0.0000,  0.0000,  0.0000)
  45 Fe     7.124574    1.817747    5.354692    ( 0.0000,  0.0000,  2.1000)
  46 Fe     8.888698   10.712332    5.289714    ( 0.0000,  0.0000,  0.0000)
  47 Co     8.931727    1.815495    3.558979    ( 0.0000,  0.0000,  1.5000)
  48 Ni    10.700248    3.599864    3.631730    ( 0.0000,  0.0000,  0.0000)
  49 Al    -0.007893    5.382698    5.388017    ( 0.0000,  0.0000,  2.0000)
  50 Fe     1.794265    3.594073    5.365264    ( 0.0000,  0.0000,  2.0000)
  51 Co     1.782020    5.398675    3.628600    ( 0.0000,  0.0000,  1.5000)
[...]
  93 Ni     7.158199    5.390858    8.905983    ( 0.0000,  0.0000,  1.5000)
  94 Ni     8.930826    3.597912    8.885374    ( 0.0000,  0.0000,  0.0000)
  95 Cr     8.935737    5.388735    7.127651    ( 0.0000,  0.0000,  0.0000)
  96 Ni    10.717929    7.165190    7.144378    ( 0.0000,  0.0000,  2.1000)
  97 Al    10.739341    8.898756    8.943093    ( 0.0000,  0.0000,  1.5000)
  98 Co     1.793750    7.182882    8.888666    ( 0.0000,  0.0000,  1.5000)
  99 Ni     1.836501    8.904825    7.123094    ( 0.0000,  0.0000,  2.1000)
 100 Co     3.587511    7.157223    7.133645    ( 0.0000,  0.0000,  2.1000)
 101 Co     3.596025    8.923803    8.905018    ( 0.0000,  0.0000,  1.5000)
 102 Co     5.369413    7.149278    8.921112    ( 0.0000,  0.0000,  2.0000)
 103 Ni     5.343776    8.916533    7.143070    ( 0.0000,  0.0000,  2.1000)
 104 Ni     7.139778    7.140400    7.139349    ( 0.0000,  0.0000,  2.1000)
 105 Ni     7.106892    8.889835    8.908727    ( 0.0000,  0.0000,  1.5000)
 106 Co     8.907419    7.146362    8.906765    ( 0.0000,  0.0000,  2.0000)
 107 Cr     8.922313    8.892279    7.115031    ( 0.0000,  0.0000,  2.0000)

Unit cell:
           periodic     x           y           z      points  spacing
  1. axis:    yes   10.722400    0.000000    0.000000    48     0.2234
  2. axis:    yes    0.000000   10.722400    0.000000    48     0.2234
  3. axis:    yes    0.000000    0.000000   10.722400    48     0.2234

  Lengths:  10.722400  10.722400  10.722400
  Angles:   90.000000  90.000000  90.000000

Effective grid spacing dv^(1/3) = 0.2234

     iter     time        total  log10-change:  magmom
                         energy  eigst   dens
iter:   1 05:05:02  -925.090522                  +135.8721
iter:   2 05:07:33  -896.074502  -0.47  -1.32    +98.3236
iter:   3 05:10:05  -890.828668  -0.86  -1.31    +68.0670
iter:   4 05:12:38  -857.375148  -1.40  -1.31    +59.2444
iter:   5 05:15:10  -854.933178  -1.84  -1.45    +53.3958
iter:   6 05:17:42  -857.019884  -1.88  -1.47    +50.8489
iter:   7 05:20:15  -858.563884  -1.62  -1.50    +49.4444
iter:   8 05:22:46  -850.434108  -1.69  -1.51    +48.6071
iter:   9 05:25:18  -866.209664  -1.60  -1.70    +48.7075
iter:  10 05:27:51  -848.874067  -1.89  -1.58    +48.1017
iter:  11 05:30:22  -849.969755  -2.35  -1.86    +48.5896
iter:  12 05:32:50  -848.903393  -2.60  -1.85    +49.1340
iter:  13 05:35:23  -850.040994  -2.52  -1.93    +49.8557
iter:  14 05:37:55  -849.799345  -2.61  -1.92    +50.6535
iter:  15 05:40:27  -851.399266  -2.51  -2.03    +51.1335
iter:  16 05:43:00  -851.592437  -2.50  -1.98    +51.9551
iter:  17 05:45:32  -851.451757  -2.54  -1.98    +52.0983
iter:  18 05:48:04  -850.345192  -2.72  -2.03    +52.6274
iter:  19 05:50:38  -850.647985  -2.70  -2.16    +53.2422
iter:  20 05:53:10  -850.022020  -3.08  -2.14    +53.4016
iter:  21 05:55:43  -850.245156  -3.15  -2.27    +54.2633
iter:  22 05:58:15  -850.318747  -3.17  -2.28    +54.4692
iter:  23 06:00:48  -850.285540c -3.32  -2.28    +55.5868
iter:  24 06:03:21  -850.440671  -3.29  -2.35    +56.2847
iter:  25 06:05:53  -850.399244  -3.74  -2.38    +56.4342
iter:  26 06:08:27  -850.619490  -3.48  -2.42    +57.2075
iter:  27 06:10:59  -850.693671  -3.56  -2.42    +57.4402
iter:  28 06:13:30  -851.032167  -3.22  -2.45    +58.2349
iter:  29 06:16:02  -850.978448  -3.41  -2.40    +58.4864
iter:  30 06:18:34  -851.052290c -3.35  -2.47    +58.9411
iter:  31 06:21:07  -851.054011c -3.60  -2.45    +59.4322
iter:  32 06:23:40  -851.085155c -3.69  -2.52    +59.9779
iter:  33 06:26:13  -851.143895c -4.07  -2.55    +60.2416
iter:  34 06:28:46  -851.319813  -3.46  -2.58    +60.9683
iter:  35 06:31:19  -851.430678  -3.60  -2.58    +61.3128
iter:  36 06:33:52  -851.432698  -3.80  -2.60    +61.3572
iter:  37 06:36:25  -851.519764c -3.74  -2.70    +61.4871
iter:  38 06:38:57  -851.488422c -3.91  -2.68    +61.5558
iter:  39 06:41:29  -851.519740c -4.02  -2.80    +61.7781
iter:  40 06:44:02  -851.543219c -4.32  -2.87    +61.9427
iter:  41 06:46:35  -851.585079c -4.30  -2.95    +62.1852
iter:  42 06:49:08  -851.608608c -4.46  -2.94    +62.2884
iter:  43 06:51:41  -851.648061c -4.37  -2.99    +62.5525
iter:  44 06:54:14  -851.708798  -4.02  -3.02    +62.9628
iter:  45 06:56:47  -851.759956  -4.08  -3.02    +63.2629
iter:  46 06:59:20  -851.873712  -3.59  -2.95    +63.8757
iter:  47 07:01:53  -851.892674  -4.06  -2.80    +64.0491
iter:  48 07:04:26  -851.895539c -4.49  -2.79    +64.1586
iter:  49 07:06:59  -851.897853c -4.56  -2.79    +64.1871
iter:  50 07:09:32  -851.890712c -4.49  -2.77    +64.2147
iter:  51 07:12:05  -851.999961  -3.54  -2.80    +64.1888
iter:  52 07:14:36  -851.852466  -3.84  -2.58    +64.1423
iter:  53 07:17:05  -851.852446  -4.17  -2.84    +64.0800
iter:  54 07:19:38  -851.848849c -4.20  -2.83    +64.0127
iter:  55 07:22:11  -851.822710c -4.42  -2.87    +64.0110
iter:  56 07:24:45  -851.834793c -4.55  -2.99    +64.1244
iter:  57 07:27:19  -851.843036c -4.38  -2.99    +64.1233
iter:  58 07:29:52  -851.826501c -4.60  -2.98    +64.0741
iter:  59 07:32:25  -851.839966c -4.48  -3.08    +64.1112
iter:  60 07:34:59  -851.835630c -4.52  -3.00    +64.1682
iter:  61 07:37:31  -851.831786c -4.63  -3.09    +64.2011
iter:  62 07:40:05  -851.824737c -4.95  -3.14    +64.1709
iter:  63 07:42:38  -851.828854c -4.99  -3.24    +64.2151
iter:  64 07:45:11  -851.826606c -5.25  -3.23    +64.2496
iter:  65 07:47:44  -851.828306c -5.36  -3.30    +64.2561
iter:  66 07:50:17  -851.828339c -5.52  -3.30    +64.2611
iter:  67 07:52:50  -851.831914c -5.14  -3.34    +64.2842
iter:  68 07:55:22  -851.833745c -5.26  -3.29    +64.3064
iter:  69 07:57:55  -851.836030c -5.09  -3.33    +64.2944
iter:  70 08:00:27  -851.835220c -5.03  -3.33    +64.2946
iter:  71 08:02:58  -851.835991c -5.17  -3.33    +64.3407
iter:  72 08:05:31  -851.835972c -5.36  -3.38    +64.3695
iter:  73 08:08:04  -851.836902c -5.40  -3.46    +64.3693
iter:  74 08:10:37  -851.836257c -5.80  -3.48    +64.3715
iter:  75 08:13:10  -851.838015c -5.82  -3.55    +64.4052
iter:  76 08:15:43  -851.842325c -5.36  -3.59    +64.4274
iter:  77 08:18:16  -851.841262c -5.73  -3.49    +64.4235
iter:  78 08:20:49  -851.843189c -5.49  -3.63    +64.4297
iter:  79 08:23:22  -851.844831c -5.39  -3.58    +64.4449
iter:  80 08:25:55  -851.845270c -5.52  -3.58    +64.4613
iter:  81 08:28:28  -851.845445c -5.58  -3.75    +64.4456
iter:  82 08:31:00  -851.846413c -5.75  -3.75    +64.4573
iter:  83 08:33:33  -851.847268c -5.86  -3.79    +64.4916
iter:  84 08:36:06  -851.848779c -5.84  -3.95    +64.5106
iter:  85 08:38:39  -851.849780c -6.06  -3.95    +64.5187
iter:  86 08:41:11  -851.851258c -5.90  -3.88    +64.5291
iter:  87 08:43:43  -851.852505c -5.82  -3.88    +64.5240
iter:  88 08:46:16  -851.853632c -5.99  -3.92    +64.5324
iter:  89 08:48:49  -851.853795c -6.35  -3.79    +64.5342
iter:  90 08:51:16  -851.855988c -5.74  -3.80    +64.5555
iter:  91 08:53:49  -851.856188c -5.82  -3.70    +64.5657
iter:  92 08:56:22  -851.857155c -5.86  -3.80    +64.5713
iter:  93 08:58:55  -851.858664c -5.68  -3.93    +64.5656
iter:  94 09:01:29  -851.859379c -5.87  -3.81    +64.5770
iter:  95 09:04:04  -851.859832c -6.18  -3.83    +64.5872
iter:  96 09:06:39  -851.861897c -5.76  -3.97    +64.5936
iter:  97 09:09:15  -851.859382c -5.77  -3.82    +64.5699
iter:  98 09:11:50  -851.864580c -5.10  -3.87    +64.6271
iter:  99 09:14:25  -851.865249c -5.66  -3.75    +64.6211
iter: 100 09:17:01  -851.865978c -5.83  -3.73    +64.6356
iter: 101 09:19:36  -851.866196c -5.96  -3.77    +64.6491
iter: 102 09:22:12  -851.867261c -5.52  -3.93    +64.6470
iter: 103 09:24:47  -851.867163c -5.95  -3.83    +64.6343
iter: 104 09:27:22  -851.867672c -6.15  -4.17c   +64.6246
iter: 105 09:29:58  -851.868421c -6.18  -4.20c   +64.6245
iter: 106 09:32:33  -851.868860c -6.18  -4.20c   +64.6112
iter: 107 09:35:07  -851.869857c -5.88  -4.30c   +64.6021
iter: 108 09:37:43  -851.872479c -5.17  -4.20c   +64.5913
iter: 109 09:40:17  -851.876476c -4.68  -3.98    +64.5963
iter: 110 09:42:48  -851.881171c -4.37  -3.78    +64.6140
iter: 111 09:45:24  -851.881832c -5.12  -3.56    +64.6344
iter: 112 09:47:59  -851.882201c -5.72  -3.54    +64.6418
iter: 113 09:50:35  -851.881813c -6.00  -3.53    +64.6474
iter: 114 09:53:10  -851.882157c -5.99  -3.55    +64.6555
iter: 115 09:55:46  -851.882923c -4.92  -3.54    +64.6613
iter: 116 09:58:21  -851.881736c -5.04  -3.37    +64.6595
iter: 117 10:00:57  -851.877663c -5.64  -3.41    +64.5793
iter: 118 10:03:32  -851.879435c -5.62  -3.82    +64.5347
iter: 119 10:06:07  -851.878139c -6.00  -3.62    +64.5069
iter: 120 10:08:42  -851.877577c -6.03  -3.80    +64.4874
iter: 121 10:11:18  -851.878754c -5.88  -3.94    +64.4677
iter: 122 10:13:53  -851.877556c -6.21  -3.78    +64.4546
iter: 123 10:16:28  -851.877519c -6.54  -4.05c   +64.4365
iter: 124 10:19:04  -851.877485c -6.37  -4.06c   +64.4191
iter: 125 10:21:38  -851.877591c -6.62  -4.03c   +64.4198
iter: 126 10:24:13  -851.877678c -6.75  -4.10c   +64.4081
iter: 127 10:26:49  -851.877401c -6.86  -4.12c   +64.3991
iter: 128 10:29:23  -851.877638c -6.67  -4.18c   +64.3911
iter: 129 10:31:58  -851.877588c -6.87  -4.11c   +64.3864
iter: 130 10:34:32  -851.877588c -6.95  -4.18c   +64.3809
iter: 131 10:37:06  -851.877524c -6.96  -4.23c   +64.3726
iter: 132 10:39:42  -851.877484c -7.10  -4.19c   +64.3702
iter: 133 10:42:17  -851.877607c -7.19  -4.24c   +64.3647
iter: 134 10:44:52  -851.877598c -7.40c -4.28c   +64.3606

Converged after 134 iterations.

Dipole moment: (-1.694244, 13.283131, 14.379010) |e|*Ang

Total magnetic moment: (0.000000, 0.000000, 64.360579)
Local magnetic moments:
   0 Co ( 0.000000,  0.000000,  1.113994)
   1 Fe ( 0.000000,  0.000000,  2.215368)
   2 Co ( 0.000000,  0.000000,  1.438781)
   3 Co ( 0.000000,  0.000000,  1.278174)
   4 Co ( 0.000000,  0.000000,  1.284924)
   5 Ni ( 0.000000,  0.000000,  0.209650)
   6 Fe ( 0.000000,  0.000000,  1.974852)
   7 Al ( 0.000000,  0.000000, -0.018019)
   8 Fe ( 0.000000,  0.000000, -1.502688)
   9 Cr ( 0.000000,  0.000000,  0.898273)
  10 Al ( 0.000000,  0.000000, -0.014974)
  11 Co ( 0.000000,  0.000000,  1.036328)
  12 Co ( 0.000000,  0.000000,  1.064277)
  13 Fe ( 0.000000,  0.000000,  2.247549)
  14 Al ( 0.000000,  0.000000, -0.030191)
  15 Co ( 0.000000,  0.000000,  1.232187)
  16 Co ( 0.000000,  0.000000,  1.270217)
  17 Co ( 0.000000,  0.000000,  1.128015)
  18 Co ( 0.000000,  0.000000,  1.079883)
  19 Al ( 0.000000,  0.000000, -0.040943)
  20 Fe ( 0.000000,  0.000000,  2.206474)
  21 Fe ( 0.000000,  0.000000,  2.068148)
  22 Cr ( 0.000000,  0.000000, -1.214060)
  23 Al ( 0.000000,  0.000000, -0.035890)
  24 Co ( 0.000000,  0.000000,  1.033681)
  25 Fe ( 0.000000,  0.000000,  2.233269)
  26 Fe ( 0.000000,  0.000000,  2.271847)
  27 Co ( 0.000000,  0.000000,  1.456814)
  28 Cr ( 0.000000,  0.000000, -2.081842)
  29 Ni ( 0.000000,  0.000000,  0.505081)
  30 Fe ( 0.000000,  0.000000,  1.985913)
  31 Fe ( 0.000000,  0.000000,  2.152708)
  32 Co ( 0.000000,  0.000000,  1.111467)
  33 Fe ( 0.000000,  0.000000,  1.820919)
  34 Co ( 0.000000,  0.000000,  1.164394)
  35 Cr ( 0.000000,  0.000000, -1.575429)
  36 Cr ( 0.000000,  0.000000, -1.615886)
  37 Cr ( 0.000000,  0.000000,  0.078957)
  38 Cr ( 0.000000,  0.000000,  0.911780)
  39 Cr ( 0.000000,  0.000000,  0.279379)
  40 Ni ( 0.000000,  0.000000,  0.289343)
  41 Ni ( 0.000000,  0.000000,  0.187736)
  42 Co ( 0.000000,  0.000000,  1.074824)
  43 Cr ( 0.000000,  0.000000,  0.471243)
  44 Cr ( 0.000000,  0.000000, -1.403742)
  45 Fe ( 0.000000,  0.000000,  1.522051)
  46 Fe ( 0.000000,  0.000000,  2.034696)
  47 Co ( 0.000000,  0.000000,  0.380725)
  48 Ni ( 0.000000,  0.000000,  0.273063)
  49 Al ( 0.000000,  0.000000, -0.022912)
  50 Fe ( 0.000000,  0.000000,  2.071347)
  51 Co ( 0.000000,  0.000000,  1.027076)
  52 Cr ( 0.000000,  0.000000, -1.697969)
  53 Fe ( 0.000000,  0.000000,  2.262532)
  54 Ni ( 0.000000,  0.000000,  0.133455)
  55 Fe ( 0.000000,  0.000000,  2.189259)
  56 Cr ( 0.000000,  0.000000, -1.425743)
  57 Ni ( 0.000000,  0.000000,  0.197383)
  58 Fe ( 0.000000,  0.000000,  1.762041)
  59 Fe ( 0.000000,  0.000000,  1.593547)
[...]
  93 Ni ( 0.000000,  0.000000,  0.234466)
  94 Ni ( 0.000000,  0.000000,  0.164286)
  95 Cr ( 0.000000,  0.000000, -0.928057)
  96 Ni ( 0.000000,  0.000000,  0.046888)
  97 Al ( 0.000000,  0.000000, -0.014228)
  98 Co ( 0.000000,  0.000000,  1.196488)
  99 Ni ( 0.000000,  0.000000,  0.185996)
 100 Co ( 0.000000,  0.000000,  1.349934)
 101 Co ( 0.000000,  0.000000,  1.328350)
 102 Co ( 0.000000,  0.000000,  1.238417)
 103 Ni ( 0.000000,  0.000000,  0.346952)
 104 Ni ( 0.000000,  0.000000,  0.236438)
 105 Ni ( 0.000000,  0.000000,  0.237877)
 106 Co ( 0.000000,  0.000000,  0.627623)
 107 Cr ( 0.000000,  0.000000, -1.267870)

Energy contributions relative to reference atoms: (reference = -3548577.034362)

Kinetic:       +193.394759
Potential:     -223.464899
External:        +0.000000
XC:            -855.470030
Entropy (-ST):   -4.523606
Local:          +35.924375
Free energy:   -854.139401
Extrapolated:  -851.877598

Spin contamination: 27.087218 electrons
Showing only first 2 kpts
                      Up                     Down
 Kpt  Band  Eigenvalues  Occupancy  Eigenvalues  Occupancy
  0   488      9.48404    0.99404     10.37345    0.02236
  0   489      9.49862    0.99311     10.38527    0.01992
  0   490      9.51223    0.99211     10.39716    0.01772
  0   491      9.51976    0.99150     10.39937    0.01734

  1   488      9.48004    0.99427     10.38214    0.02054
  1   489      9.49628    0.99327     10.39321    0.01843
  1   490      9.50556    0.99262     10.40064    0.01713
  1   491      9.52707    0.99086     10.41103    0.01546

Fermi level: 9.99566

No gap

Forces in eV/Ang:
  0 Co    0.05699    0.22646    0.10611
  1 Fe    0.13108   -0.00296   -0.34115
  2 Co   -0.13695   -0.45182   -0.15501
  3 Co    0.15514   -0.16150    0.29609
  4 Co   -0.43113   -0.13759    0.24932
  5 Ni   -0.45413    0.08248   -0.20191
  6 Fe   -0.20897   -0.46978    0.12918
  7 Al   -0.79570    0.76772    0.41795
  8 Fe    0.22915    0.20766   -0.52422
  9 Cr    0.05923    0.57822   -0.05907
 10 Al    0.27420   -0.03858   -0.77193
 11 Co    0.01395    0.02169   -0.61052
 12 Co    0.09804   -0.38901    0.09897
 13 Fe    0.14161   -0.01558   -0.21868
 14 Al    0.01903    0.74389   -1.29067
 15 Co    0.16575   -0.30348    0.23193
 16 Co   -0.25571    0.19084    0.26870
 17 Co   -0.20616   -0.36417    0.04225
 18 Co   -0.01558    0.21460    0.14156
 19 Al    0.37430   -1.17857    0.00278
 20 Fe    0.05104   -0.59745   -0.12484
 21 Fe   -0.14845   -0.45649    0.09975
 22 Cr    0.32653   -0.76842    0.12860
 23 Al   -0.25944    0.46041   -0.51797
 24 Co    0.43569   -0.00939    0.37794
 25 Fe    0.59337    0.08885   -0.28532
 26 Fe   -0.03037    0.03352   -0.40933
 27 Co    0.28356    0.25610    0.54361
 28 Cr   -1.16739    0.55897   -0.03624
 29 Ni   -0.43613    0.42367   -0.14174
 30 Fe   -0.27831    0.25162    0.01839
 31 Fe    0.00573   -0.02587    0.04066
 32 Co    0.19768    0.59161    0.08573
 33 Fe    0.04851    0.07669   -0.32177
 34 Co    0.38043    0.28498   -0.03538
 35 Cr   -0.59663   -0.43001   -0.04997
 36 Cr    0.54241   -0.39190    0.74837
 37 Cr    0.20288   -0.04550   -0.08678
 38 Cr   -0.56132    0.30287    0.14132
 39 Cr    0.03792   -0.83707   -0.17042
 40 Ni   -0.12239    0.28857   -0.40345
 41 Ni   -0.13548   -0.05373    0.02383
 42 Co    0.18963   -0.00935    0.09372
 43 Cr   -0.09902    0.09738   -0.09583
 44 Cr   -0.31978    0.10503    0.75363
 45 Fe    0.11825   -0.28474   -0.39570
 46 Fe    0.37849   -0.37910    0.19690
 47 Co    0.10848    0.22028    0.41525
 48 Ni    0.04518   -0.22823   -0.30874
 49 Al    0.94968   -0.55028    0.15394
 50 Fe    0.26905   -0.51434    0.27089
 51 Co    0.39501    0.05249   -0.34967
 52 Cr    0.65156    0.11301   -0.04101
 53 Fe   -0.56323    0.03196   -0.33604
 54 Ni    0.11002   -0.08731   -0.17079
 55 Fe   -0.38630   -0.98453   -0.49252
 56 Cr   -0.38425    0.01393    0.13657
 57 Ni    0.02484   -0.05519   -0.21990
 58 Fe   -0.13044   -0.00664   -0.48519
 59 Fe   -0.34867   -0.53207   -0.33678
[...]
 93 Ni    0.12821   -0.18320   -0.17249
 94 Ni    0.15857   -0.26247    0.56027
 95 Cr   -0.64938   -0.15560    0.63248
 96 Ni    0.18089    0.00154    0.10365
 97 Al    0.70020   -0.32149    0.08070
 98 Co    0.44335   -0.57684    0.38231
 99 Ni   -0.29031    0.12903    0.17380
100 Co   -0.25741    0.09365    0.25389
101 Co   -0.07841   -0.09999    0.32482
102 Co   -0.22416    0.51666   -0.07152
103 Ni   -0.00780    0.05588    0.08082
104 Ni    0.19518    0.21807    0.18880
105 Ni    0.37234    0.25636    0.00723
106 Co   -0.09314    0.19779   -0.06387
107 Cr   -0.56425    0.21537   -0.06838

Date: Fri Apr 14 10:45:17 2023