User:   c.zeng@d0028
Date:   Sat Apr 15 20:55:44 2023
Arch:   x86_64
Pid:    162221
CWD:    /home/c.zeng/projects/hea-corrosion/hea-mlp/data-curation/bulk-mcmc/dft-jobs/80
Python: 3.8.1
gpaw:   /home/c.zeng/usr/installs/gpaw/source/gpaw-22.8.0/gpaw
_gpaw:  /home/c.zeng/usr/installs/gpaw/source/gpaw-22.8.0/
        _gpaw.cpython-38-x86_64-linux-gnu.so
ase:    /home/c.zeng/.local/lib/python3.8/site-packages/ase-3.22.1-py3.8.egg/ase (version 3.22.1)
numpy:  /shared/centos7/python/3.8.1/lib/python3.8/site-packages/numpy (version 1.17.4)
scipy:  /shared/centos7/python/3.8.1/lib/python3.8/site-packages/scipy (version 1.4.1)
units:  Angstrom and eV
cores: 30
OpenMP: False
OMP_NUM_THREADS: 1

Input parameters:
  convergence: {energy: 0.0001}
  kpts: [2 2 2]
  maxiter: 666
  mode: {ecut: 350.0,
         name: pw}
  occupations: {fixmagmom: False,
                name: fermi-dirac,
                width: 0.1}
  spinpol: True
  xc: PBE

System changes: positions, numbers, cell, pbc, initial_charges, initial_magmoms

Initialize ...

species:
  Ni:
    name: Nickel
    id: 0d9f38a9d6e76a2886f07bb4381f212b
    Z: 28.0
    valence: 16
    core: 12
    charge: 0.0
    file: /home/c.zeng/usr/data/gpaw-setups-0.9.20000/Ni.PBE.gz
    compensation charges: {type: gauss,
                           rc: 0.36,
                           lmax: 2}
    cutoffs: {filter: 2.14,
              core: 1.98}
    valence states:
      #              energy  rcut
      - 4s(2.00)    -5.642   1.164
      - 3p(6.00)   -71.394   1.207
      - 4p(0.00)    -1.226   1.207
      - 3d(8.00)    -8.875   1.138
      -  s          21.570   1.164
      -  d          18.337   1.138

    # Using partial waves for Ni as LCAO basis

  Cr:
    name: Chromium
    id: 33f258bda2ca9f93018e70263a35547b
    Z: 24.0
    valence: 6
    core: 18
    charge: 0.0
    file: /home/c.zeng/usr/data/gpaw-setups-0.9.20000/Cr.PBE.gz
    compensation charges: {type: gauss,
                           rc: 0.35,
                           lmax: 2}
    cutoffs: {filter: 2.14,
              core: 3.04}
    valence states:
      #              energy  rcut
      - 4s(1.00)    -4.007   1.164
      - 4p(0.00)    -0.989   1.217
      - 3d(5.00)    -2.913   1.111
      -  s          23.205   1.164
      -  p          26.223   1.217
      -  d          24.299   1.111

[...]

  Fe:
    name: Iron
    id: 37abbd8d6c3c35915a9b583b742da910
    Z: 26.0
    valence: 8
    core: 18
    charge: 0.0
    file: /home/c.zeng/usr/data/gpaw-setups-0.9.20000/Fe.PBE.gz
    compensation charges: {type: gauss,
                           rc: 0.33,
                           lmax: 2}
    cutoffs: {filter: 2.06,
              core: 2.67}
    valence states:
      #              energy  rcut
      - 4s(2.00)    -5.291   1.164
      - 4p(0.00)    -1.326   1.058
      - 3d(6.00)    -7.505   1.058
      -  s          21.920   1.164
      -  p          25.885   1.058
      -  d          19.706   1.058

[...]

  Co:
    name: Cobalt
    id: 339d20d5b0b93d2de9531a1bee871d91
    Z: 27.0
    valence: 9
    core: 18
    charge: 0.0
    file: /home/c.zeng/usr/data/gpaw-setups-0.9.20000/Co.PBE.gz
    compensation charges: {type: gauss,
                           rc: 0.32,
                           lmax: 2}
    cutoffs: {filter: 1.87,
              core: 2.55}
    valence states:
      #              energy  rcut
      - 4s(2.00)    -5.469   1.005
      - 4p(0.00)    -1.277   1.058
      - 3d(7.00)    -8.205   1.005
      -  s          21.742   1.005
      -  p          25.934   1.058
      -  d          19.007   1.005

[...]

  Al:
    name: Aluminium
    id: 0292cae29f5d6237e50f6abdd43a7bdd
    Z: 13.0
    valence: 3
    core: 10
    charge: 0.0
    file: /home/c.zeng/usr/data/gpaw-setups-0.9.20000/Al.PBE.gz
    compensation charges: {type: gauss,
                           rc: 0.34,
                           lmax: 2}
    cutoffs: {filter: 1.91,
              core: 2.36}
    valence states:
      #              energy  rcut
      - 3s(2.00)    -7.753   1.085
      - 3p(1.00)    -2.712   1.085
      -  s          19.459   1.085
      -  p          24.499   1.085
      -  d           0.000   1.085

    # Using partial waves for Al as LCAO basis

Reference energy: -3699400.456887  # eV

Spin-polarized calculation.
Magnetic moment: 143.500000

Convergence criteria:
 Maximum [total energy] change in last 3 cyles: 0.0001 eV / electron
 Maximum integral of absolute [dens]ity change: 0.0001 electrons / valence electron
 Maximum integral of absolute [eigenst]ate change: 4e-08 eV^2 / valence electron
 Maximum number of scf [iter]ations: 666
 (Square brackets indicate name in SCF output, whereas a 'c' in
 the SCF output indicates the quantity has converged.)

Symmetries present (total): 1

  ( 1  0  0)
  ( 0  1  0)
  ( 0  0  1)

8 k-points: 2 x 2 x 2 Monkhorst-Pack grid
4 k-points in the irreducible part of the Brillouin zone
       k-points in crystal coordinates                weights
   0:     0.25000000   -0.25000000   -0.25000000          2/8
   1:     0.25000000   -0.25000000    0.25000000          2/8
   2:     0.25000000    0.25000000   -0.25000000          2/8
   3:     0.25000000    0.25000000    0.25000000          2/8

Wave functions: Plane wave expansion
  Cutoff energy: 350.000 eV
  Number of coefficients (min, max): 18052, 18052
  Pulay-stress correction: 0.000000 eV/Ang^3 (de/decut=0.000000)
  Using FFTW library
  ScaLapack parameters: grid=1x1, blocksize=None
  Wavefunction extrapolation:
    Improved wavefunction reuse through dual PAW basis

Occupation numbers: Fermi-Dirac:
  width: 0.1000  # eV

Eigensolver
   Davidson(niter=2)

Densities:
  Coarse grid: 48*48*48 grid
  Fine grid: 96*96*96 grid
  Total Charge: 0.000000

Density mixing:
  Method: difference
  Backend: pulay
  Linear mixing parameter: 0.05
  old densities: 5
  Damping of long wavelength oscillations: 50

Hamiltonian:
  XC and Coulomb potentials evaluated on a 96*96*96 grid
  Using the PBE Exchange-Correlation functional
  External potential:
    NoExternalPotential

XC parameters: PBE with 2 nearest neighbor stencil

Total number of cores used: 30
Parallelization over k-points: 2
Domain decomposition: 5 x 3 x 1

Number of atoms: 108
Number of atomic orbitals: 1025
Number of bands in calculation: 703
Number of valence electrons: 1020
Bands to converge: occupied

... initialized

Initializing position-dependent things.

Density initialized from atomic densities
Creating initial wave functions:
  703 bands from LCAO basis set

        Ni------------------------.
       /|  Co                Co   |
      Cr|   Cr         Ni         |
     / Fe      Fe       Al        |
    /   CCo      Ni       Fe      |
   /e   | CoNi     CoAl    NiNi   |
  /  FeNi  NiCo     NiNiCo        |
 *    FeFe  FeCoCr     CoAl       |
 |     CoFeNi  CoFe Ni  CrFeNi    |
 | Fe   NiNiNiCo NiCrCrFe  Cr     |
 |   CoCr  CrAlCr   NiCrNi   Fe   |
 |    FeNi  FeFeCoCr CoFeCr   Cr  |
 |     CrFeFe  Cr NiCr  CoFeFe    |
 |      .-CoCrCo-FeCrNiCo--CoCr---.
 |   NiCo    CoAl   NiCrFe       /
 |    / Ni    CrFe       Cr     /
 |   /            Ni           /
 |Cr/      Co       Co        /
 |/            Cr           /
 *----------------Cr-------*

Positions:
   0 Ni     0.005316   -0.016350   10.639749    ( 0.0000,  0.0000,  0.0000)
   1 Cr    10.672340    1.801276    1.786848    ( 0.0000,  0.0000,  0.0000)
   2 Fe     1.795727   10.625972    1.782259    ( 0.0000,  0.0000,  0.0000)
   3 Ni     1.780787    1.796175   10.644605    ( 0.0000,  0.0000,  2.1000)
   4 Fe     3.523539   -0.014558    0.017268    ( 0.0000,  0.0000,  2.0000)
   5 Co     3.522568    1.781672    1.746648    ( 0.0000,  0.0000,  0.0000)
   6 Co     5.320952   10.642342    1.763136    ( 0.0000,  0.0000,  1.5000)
   7 Cr     5.342082    1.828767    0.007462    ( 0.0000,  0.0000,  2.0000)
   8 Cr     7.144895    0.019195    0.012033    ( 0.0000,  0.0000,  0.0000)
   9 Co     7.143497    1.798064    1.764939    ( 0.0000,  0.0000,  2.1000)
  10 Cr     8.891362   10.651627    1.788353    ( 0.0000,  0.0000,  1.5000)
  11 Co     8.888779    1.804777   10.642609    ( 0.0000,  0.0000,  2.0000)
  12 Fe     0.008694    3.581540   10.650250    ( 0.0000,  0.0000,  2.1000)
  13 Ni     0.018979    5.332745    1.789751    ( 0.0000,  0.0000,  2.1000)
  14 Ni     1.778129    3.600941    1.760019    ( 0.0000,  0.0000,  2.0000)
  15 Co     1.790423    5.343267   -0.017766    ( 0.0000,  0.0000,  2.0000)
  16 Ni     3.542802    3.589864   -0.015614    ( 0.0000,  0.0000,  2.0000)
  17 Co     3.526837    5.358538    1.765793    ( 0.0000,  0.0000,  2.0000)
  18 Fe     5.336650    3.606501    1.755815    ( 0.0000,  0.0000,  0.0000)
  19 Ni     5.300399    5.323642   -0.012797    ( 0.0000,  0.0000,  2.1000)
  20 Al     7.122858    3.584816   10.659524    ( 0.0000,  0.0000,  2.0000)
  21 Cr     7.120500    5.315168    1.805502    ( 0.0000,  0.0000,  1.5000)
  22 Cr     8.892034    3.590952    1.773146    ( 0.0000,  0.0000,  2.1000)
  23 Fe     8.925340    5.301487   -0.003100    ( 0.0000,  0.0000,  0.0000)
  24 Cr     0.023055    7.096680   -0.007939    ( 0.0000,  0.0000,  0.0000)
  25 Cr     0.019141    8.871245    1.787510    ( 0.0000,  0.0000,  1.5000)
  26 Co     1.784372    7.104567    1.776443    ( 0.0000,  0.0000,  2.0000)
  27 Co     1.779944    8.867628   10.659406    ( 0.0000,  0.0000,  1.5000)
  28 Cr     3.547785    7.097897    0.009215    ( 0.0000,  0.0000,  2.1000)
  29 Cr     3.541137    8.858109    1.788225    ( 0.0000,  0.0000,  2.1000)
  30 Cr     5.295105    7.099391    1.787894    ( 0.0000,  0.0000,  2.1000)
  31 Ni     5.303685    8.873828    0.029898    ( 0.0000,  0.0000,  0.0000)
  32 Ni     7.106883    7.088719   10.645159    ( 0.0000,  0.0000,  0.0000)
  33 Co     7.111055    8.901137    1.809472    ( 0.0000,  0.0000,  0.0000)
  34 Co     8.939384    7.093404    1.799238    ( 0.0000,  0.0000,  0.0000)
  35 Co     8.919972    8.915853   10.664881    ( 0.0000,  0.0000,  0.0000)
  36 Ni    10.679704   10.658873    3.584517    ( 0.0000,  0.0000,  2.0000)
  37 Fe    10.670921    1.796367    5.340289    ( 0.0000,  0.0000,  2.1000)
  38 Fe     1.770350   10.649001    5.343491    ( 0.0000,  0.0000,  0.0000)
  39 Co     1.791800    1.784671    3.584891    ( 0.0000,  0.0000,  2.0000)
  40 Ni     3.529718   10.626388    3.565234    ( 0.0000,  0.0000,  2.1000)
  41 Fe     3.535716    1.793465    5.367289    ( 0.0000,  0.0000,  1.5000)
  42 Co     5.311497    0.001574    5.366254    ( 0.0000,  0.0000,  1.5000)
  43 Al     5.332627    1.768055    3.580793    ( 0.0000,  0.0000,  0.0000)
  44 Ni     7.136966   10.673941    3.563804    ( 0.0000,  0.0000,  2.0000)
  45 Cr     7.136774    1.794126    5.358944    ( 0.0000,  0.0000,  2.1000)
  46 Co     8.925938   10.673621    5.347589    ( 0.0000,  0.0000,  2.0000)
  47 Fe     8.883827    1.779111    3.582404    ( 0.0000,  0.0000,  1.5000)
  48 Cr    -0.010038    3.572341    3.580996    ( 0.0000,  0.0000,  2.0000)
  49 Co    10.685573    5.328935    5.338550    ( 0.0000,  0.0000,  2.0000)
  50 Ni     1.784180    3.582949    5.348357    ( 0.0000,  0.0000,  1.5000)
  51 Fe     1.766326    5.339510    3.565255    ( 0.0000,  0.0000,  1.5000)
  52 Cr     3.522387    3.605007    3.574059    ( 0.0000,  0.0000,  0.0000)
  53 Al     3.543581    5.347343    5.347962    ( 0.0000,  0.0000,  2.1000)
  54 Co     5.333950    3.591678    5.360630    ( 0.0000,  0.0000,  2.0000)
  55 Ni     5.336458    5.346308    3.560132    ( 0.0000,  0.0000,  0.0000)
  56 Ni     7.143102    3.570089    3.572138    ( 0.0000,  0.0000,  2.1000)
  57 Cr     7.120265    5.347471    5.345689    ( 0.0000,  0.0000,  2.0000)
  58 Cr     8.888299    3.570665    5.342018    ( 0.0000,  0.0000,  1.5000)
  59 Fe     8.904573    5.339084    3.577453    ( 0.0000,  0.0000,  2.0000)
[...]
  93 Ni     7.108740    5.307762    8.854395    ( 0.0000,  0.0000,  1.5000)
  94 Al     8.907593    3.561296    8.890348    ( 0.0000,  0.0000,  2.1000)
  95 Fe     8.917806    5.336309    7.100224    ( 0.0000,  0.0000,  0.0000)
  96 Fe     0.016270    7.102027    7.111664    ( 0.0000,  0.0000,  2.0000)
  97 Fe     0.000822    8.895150    8.883817    ( 0.0000,  0.0000,  1.5000)
  98 Co     1.771182    7.105090    8.888608    ( 0.0000,  0.0000,  1.5000)
  99 Ni     1.775184    8.850318    7.108494    ( 0.0000,  0.0000,  2.0000)
 100 Co     3.530401    7.086478    7.104972    ( 0.0000,  0.0000,  1.5000)
 101 Fe     3.524841    8.851001    8.894798    ( 0.0000,  0.0000,  0.0000)
 102 Co     5.310654    7.102827    8.871128    ( 0.0000,  0.0000,  0.0000)
 103 Ni     5.290613    8.850286    7.104876    ( 0.0000,  0.0000,  0.0000)
 104 Co     7.129016    7.083330    7.142750    ( 0.0000,  0.0000,  2.1000)
 105 Al     7.143241    8.903186    8.854384    ( 0.0000,  0.0000,  2.0000)
 106 Ni     8.926504    7.115858    8.862313    ( 0.0000,  0.0000,  0.0000)
 107 Ni     8.932896    8.877648    7.127479    ( 0.0000,  0.0000,  1.5000)

Unit cell:
           periodic     x           y           z      points  spacing
  1. axis:    yes   10.671700    0.000000    0.000000    48     0.2223
  2. axis:    yes    0.000000   10.671700    0.000000    48     0.2223
  3. axis:    yes    0.000000    0.000000   10.671700    48     0.2223

  Lengths:  10.671700  10.671700  10.671700
  Angles:   90.000000  90.000000  90.000000

Effective grid spacing dv^(1/3) = 0.2223

     iter     time        total  log10-change:  magmom
                         energy  eigst   dens
iter:   1 20:59:49  -950.393437                  +143.1489
iter:   2 21:01:23  -972.107423  -0.44  -1.32    +107.4367
iter:   3 21:02:57  -901.485176  -0.85  -1.24    +76.7647
iter:   4 21:04:31  -875.298486  -1.40  -1.37    +63.8610
iter:   5 21:06:06  -873.350233  -1.89  -1.47    +56.9767
iter:   6 21:07:40  -876.071875  -1.95  -1.50    +53.8340
iter:   7 21:09:14  -870.530246  -1.91  -1.50    +51.8342
iter:   8 21:10:47  -867.650658  -1.82  -1.58    +51.1585
iter:   9 21:12:22  -875.551095  -1.75  -1.73    +50.9455
iter:  10 21:13:56  -868.195748  -2.10  -1.69    +50.3671
iter:  11 21:15:31  -869.120642  -2.43  -1.87    +50.9617
iter:  12 21:17:05  -868.221611  -2.60  -1.86    +51.4481
iter:  13 21:18:39  -868.492994  -2.71  -1.94    +52.0993
iter:  14 21:20:13  -868.292681  -2.79  -1.94    +52.5661
iter:  15 21:21:47  -871.477698  -2.50  -2.00    +53.3747
iter:  16 21:23:21  -869.997713  -2.42  -1.91    +53.6842
iter:  17 21:24:56  -871.122237  -2.50  -1.97    +53.7169
iter:  18 21:26:30  -869.526250  -2.63  -1.95    +54.4561
iter:  19 21:28:04  -869.327424  -2.68  -2.06    +54.8729
iter:  20 21:29:39  -868.572963  -3.18  -2.08    +55.3909
iter:  21 21:31:13  -869.154007  -3.24  -2.19    +56.0869
iter:  22 21:32:47  -869.379769  -3.01  -2.17    +56.6670
iter:  23 21:34:21  -869.619787  -3.06  -2.16    +57.2703
iter:  24 21:35:55  -869.606662  -3.12  -2.17    +57.5849
iter:  25 21:37:29  -870.712814  -2.80  -2.26    +58.0340
iter:  26 21:39:04  -869.841969  -2.99  -2.12    +58.4181
iter:  27 21:40:38  -869.973786  -3.17  -2.28    +59.0287
iter:  28 21:42:12  -870.007803  -3.22  -2.29    +59.3015
iter:  29 21:43:46  -869.892245  -3.47  -2.29    +59.5596
iter:  30 21:45:21  -869.906183  -3.82  -2.36    +60.1170
iter:  31 21:46:55  -870.074097  -3.62  -2.41    +60.5799
iter:  32 21:48:29  -870.100967  -4.03  -2.40    +60.7621
iter:  33 21:50:03  -870.459198  -3.47  -2.43    +61.0499
iter:  34 21:51:37  -870.844058  -3.16  -2.39    +61.1274
iter:  35 21:53:11  -870.780702  -3.10  -2.33    +61.1718
iter:  36 21:54:45  -870.690903  -3.22  -2.39    +60.8741
iter:  37 21:56:19  -870.837790  -3.21  -2.44    +61.1262
iter:  38 21:57:53  -870.458565  -3.49  -2.42    +61.2187
iter:  39 21:59:26  -870.414853  -4.17  -2.61    +61.1775
iter:  40 22:01:00  -870.443716c -4.44  -2.71    +61.1566
iter:  41 22:02:34  -870.499470c -4.33  -2.73    +61.2014
iter:  42 22:04:08  -870.639068  -3.78  -2.75    +61.1518
iter:  43 22:05:42  -870.561505  -4.07  -2.68    +61.0349
iter:  44 22:07:16  -870.579023c -4.28  -2.99    +60.9297
iter:  45 22:08:51  -870.599083c -4.29  -3.03    +60.9403
iter:  46 22:10:25  -870.588790c -4.67  -3.09    +60.9226
iter:  47 22:11:59  -870.604153c -4.82  -3.40    +60.8763
iter:  48 22:13:34  -870.615274c -4.92  -3.38    +60.8494
iter:  49 22:15:08  -870.631102c -4.78  -3.41    +60.8217
iter:  50 22:16:42  -870.677266c -3.89  -3.36    +60.7051
iter:  51 22:18:16  -870.690945c -4.31  -3.18    +60.6893
iter:  52 22:19:50  -870.694342c -5.04  -3.13    +60.7100
iter:  53 22:21:24  -870.695971c -5.35  -3.11    +60.7116
iter:  54 22:22:58  -870.701469c -5.25  -3.10    +60.7178
iter:  55 22:24:32  -870.703833c -4.76  -3.09    +60.7171
iter:  56 22:26:07  -870.694318c -4.74  -3.02    +60.7228
iter:  57 22:27:41  -870.703628c -4.94  -3.03    +60.6818
iter:  58 22:29:15  -870.712171c -4.51  -2.99    +60.6610
iter:  59 22:30:49  -870.718968c -4.25  -2.97    +60.6304
iter:  60 22:32:24  -870.684970c -4.73  -2.95    +60.5423
iter:  61 22:33:58  -870.687078c -5.00  -3.20    +60.5088
iter:  62 22:35:31  -870.683114c -5.18  -3.18    +60.5213
iter:  63 22:37:05  -870.684403c -5.27  -3.25    +60.5040
iter:  64 22:38:39  -870.686016c -5.08  -3.24    +60.4960
iter:  65 22:40:13  -870.680790c -5.38  -3.22    +60.5107
iter:  66 22:41:47  -870.681726c -5.55  -3.32    +60.5047
iter:  67 22:43:21  -870.681306c -5.58  -3.32    +60.5075
iter:  68 22:44:55  -870.682213c -5.58  -3.34    +60.4983
iter:  69 22:46:29  -870.680181c -5.78  -3.35    +60.5021
iter:  70 22:48:02  -870.680652c -5.98  -3.43    +60.5023
iter:  71 22:49:37  -870.680971c -6.07  -3.45    +60.5080
iter:  72 22:51:11  -870.680419c -6.09  -3.47    +60.5116
iter:  73 22:52:45  -870.680888c -5.86  -3.50    +60.5127
iter:  74 22:54:19  -870.680857c -6.08  -3.51    +60.5139
iter:  75 22:55:53  -870.680221c -6.33  -3.55    +60.5150
iter:  76 22:57:27  -870.680496c -6.22  -3.61    +60.5128
iter:  77 22:59:01  -870.680212c -6.19  -3.63    +60.5093
iter:  78 23:00:35  -870.680009c -6.14  -3.67    +60.5130
iter:  79 23:02:10  -870.679989c -6.30  -3.72    +60.5092
iter:  80 23:03:44  -870.679797c -6.45  -3.75    +60.5047
iter:  81 23:05:18  -870.679615c -6.49  -3.81    +60.5014
iter:  82 23:06:52  -870.679861c -6.44  -3.85    +60.4980
iter:  83 23:08:26  -870.679656c -6.30  -3.86    +60.4948
iter:  84 23:10:00  -870.679670c -6.64  -3.90    +60.4942
iter:  85 23:11:34  -870.679614c -6.71  -3.97    +60.4882
iter:  86 23:13:08  -870.679704c -7.01  -3.98    +60.4878
iter:  87 23:14:42  -870.679781c -6.84  -4.02c   +60.4849
iter:  88 23:16:16  -870.679764c -6.92  -4.02c   +60.4846
iter:  89 23:17:50  -870.679963c -6.89  -4.05c   +60.4828
iter:  90 23:19:24  -870.679879c -7.12  -4.06c   +60.4820
iter:  91 23:20:58  -870.680066c -7.03  -4.12c   +60.4795
iter:  92 23:22:32  -870.680010c -7.20  -4.14c   +60.4782
iter:  93 23:24:06  -870.680162c -7.10  -4.15c   +60.4770
iter:  94 23:25:40  -870.680141c -7.12  -4.21c   +60.4758
iter:  95 23:27:15  -870.680272c -7.15  -4.22c   +60.4752
iter:  96 23:28:49  -870.680272c -7.41c -4.24c   +60.4751

Converged after 96 iterations.

Dipole moment: (-10.477722, 7.513096, 7.993112) |e|*Ang

Total magnetic moment: (0.000000, 0.000000, 60.475101)
Local magnetic moments:
   0 Ni ( 0.000000,  0.000000,  0.211656)
   1 Cr ( 0.000000,  0.000000, -0.814777)
   2 Fe ( 0.000000,  0.000000, -1.580210)
   3 Ni ( 0.000000,  0.000000,  0.268593)
   4 Fe ( 0.000000,  0.000000,  2.268464)
   5 Co ( 0.000000,  0.000000,  1.242294)
   6 Co ( 0.000000,  0.000000,  1.235625)
   7 Cr ( 0.000000,  0.000000, -1.725026)
   8 Cr ( 0.000000,  0.000000, -1.469268)
   9 Co ( 0.000000,  0.000000,  0.697332)
  10 Cr ( 0.000000,  0.000000,  0.421417)
  11 Co ( 0.000000,  0.000000,  0.804774)
  12 Fe ( 0.000000,  0.000000,  2.167789)
  13 Ni ( 0.000000,  0.000000,  0.283921)
  14 Ni ( 0.000000,  0.000000,  0.265277)
  15 Co ( 0.000000,  0.000000,  1.278299)
  16 Ni ( 0.000000,  0.000000,  0.294234)
  17 Co ( 0.000000,  0.000000,  0.892659)
  18 Fe ( 0.000000,  0.000000,  2.169585)
  19 Ni ( 0.000000,  0.000000,  0.159524)
  20 Al ( 0.000000,  0.000000, -0.014842)
  21 Cr ( 0.000000,  0.000000, -1.168433)
  22 Cr ( 0.000000,  0.000000,  0.058050)
  23 Fe ( 0.000000,  0.000000,  1.909606)
  24 Cr ( 0.000000,  0.000000, -1.769233)
  25 Cr ( 0.000000,  0.000000,  0.697889)
  26 Co ( 0.000000,  0.000000,  0.883844)
  27 Co ( 0.000000,  0.000000,  0.649375)
  28 Cr ( 0.000000,  0.000000, -1.297929)
  29 Cr ( 0.000000,  0.000000,  0.496666)
  30 Cr ( 0.000000,  0.000000, -0.764918)
  31 Ni ( 0.000000,  0.000000,  0.177385)
  32 Ni ( 0.000000,  0.000000,  0.279161)
  33 Co ( 0.000000,  0.000000,  1.299121)
  34 Co ( 0.000000,  0.000000,  1.090104)
  35 Co ( 0.000000,  0.000000,  0.643073)
  36 Ni ( 0.000000,  0.000000,  0.212588)
  37 Fe ( 0.000000,  0.000000,  2.132995)
  38 Fe ( 0.000000,  0.000000,  2.223338)
  39 Co ( 0.000000,  0.000000,  1.124978)
  40 Ni ( 0.000000,  0.000000,  0.323774)
  41 Fe ( 0.000000,  0.000000,  2.106264)
  42 Co ( 0.000000,  0.000000,  0.951127)
  43 Al ( 0.000000,  0.000000, -0.026990)
  44 Ni ( 0.000000,  0.000000,  0.165787)
  45 Cr ( 0.000000,  0.000000,  0.958290)
  46 Co ( 0.000000,  0.000000,  1.160898)
  47 Fe ( 0.000000,  0.000000,  1.729077)
  48 Cr ( 0.000000,  0.000000, -0.723402)
  49 Co ( 0.000000,  0.000000,  0.959097)
  50 Ni ( 0.000000,  0.000000,  0.220412)
  51 Fe ( 0.000000,  0.000000,  2.077506)
  52 Cr ( 0.000000,  0.000000, -1.882211)
  53 Al ( 0.000000,  0.000000, -0.029490)
  54 Co ( 0.000000,  0.000000,  0.220947)
  55 Ni ( 0.000000,  0.000000,  0.068294)
  56 Ni ( 0.000000,  0.000000,  0.088636)
  57 Cr ( 0.000000,  0.000000,  0.365949)
  58 Cr ( 0.000000,  0.000000, -0.949426)
  59 Fe ( 0.000000,  0.000000,  1.633483)
[...]
  93 Ni ( 0.000000,  0.000000,  0.252193)
  94 Al ( 0.000000,  0.000000, -0.037081)
  95 Fe ( 0.000000,  0.000000,  1.615181)
  96 Fe ( 0.000000,  0.000000,  2.318476)
  97 Fe ( 0.000000,  0.000000,  2.253536)
  98 Co ( 0.000000,  0.000000,  1.247426)
  99 Ni ( 0.000000,  0.000000,  0.483948)
 100 Co ( 0.000000,  0.000000,  1.337445)
 101 Fe ( 0.000000,  0.000000,  2.299062)
 102 Co ( 0.000000,  0.000000,  1.420900)
 103 Ni ( 0.000000,  0.000000,  0.323599)
 104 Co ( 0.000000,  0.000000,  0.877164)
 105 Al ( 0.000000,  0.000000, -0.023580)
 106 Ni ( 0.000000,  0.000000,  0.391282)
 107 Ni ( 0.000000,  0.000000,  0.292824)

Energy contributions relative to reference atoms: (reference = -3699400.456887)

Kinetic:       +149.392640
Potential:     -198.425334
External:        +0.000000
XC:            -856.755218
Entropy (-ST):   -4.561790
Local:          +37.388534
Free energy:   -872.961168
Extrapolated:  -870.680272

Spin contamination: 30.129466 electrons
Showing only first 2 kpts
                      Up                     Down
 Kpt  Band  Eigenvalues  Occupancy  Eigenvalues  Occupancy
  0   508      9.66893    0.99161     10.49911    0.02848
  0   509      9.67466    0.99112     10.50476    0.02696
  0   510      9.69859    0.98875     10.51669    0.02400
  0   511      9.70747    0.98771     10.53403    0.02026

  1   508      9.65745    0.99251     10.49632    0.02926
  1   509      9.67639    0.99097     10.51023    0.02556
  1   510      9.69274    0.98938     10.52298    0.02257
  1   511      9.69771    0.98884     10.52890    0.02130

Fermi level: 10.14616

Gap: 0.002 eV
Transition (v -> c):
  (s=1, k=3, n=479, [0.25, 0.25, 0.25]) -> (s=1, k=2, n=480, [0.25, 0.25, -0.25])

Forces in eV/Ang:
  0 Ni   -0.00225    0.20853    0.60789
  1 Cr   -0.12643   -0.28161   -0.13582
  2 Fe   -0.32312   -0.09340   -0.01806
  3 Ni   -0.17939   -0.15476    0.26786
  4 Fe    0.34523    0.35991   -0.21393
  5 Co   -0.01071    0.05010    0.26658
  6 Co    0.09395    0.00168   -0.25679
  7 Cr   -0.85955   -0.70195    0.04852
  8 Cr    0.03419    0.32125    0.43004
  9 Co    0.23660   -0.08398   -0.12316
 10 Cr    0.03816    0.49052    0.01016
 11 Co    0.29035   -0.58706    0.70380
 12 Fe    0.30737   -0.26951    0.52258
 13 Ni   -0.02699    0.13382   -0.13462
 14 Ni   -0.20732   -0.35750    0.24211
 15 Co   -0.01978    0.20513    0.17961
 16 Ni    0.01625   -0.23041    0.16934
 17 Co    0.25576    0.20862   -0.02815
 18 Fe   -0.36964   -0.22328    0.18800
 19 Ni    0.16533    0.32501    0.04082
 20 Al   -0.21856   -0.28419    0.07497
 21 Cr    0.17100    0.90534    0.35213
 22 Cr    0.22596   -0.64009    0.54820
 23 Fe   -0.13564    1.10978    0.18801
 24 Cr   -0.00629   -0.06423   -0.02662
 25 Cr    0.22590    0.54204   -0.25251
 26 Co   -0.07427   -0.10866   -0.32381
 27 Co    0.03645   -0.01574    0.19221
 28 Cr   -0.48492   -0.06660   -0.35242
 29 Cr   -0.05107    0.11935   -0.23938
 30 Cr    0.16392    0.12028    0.20527
 31 Ni    0.29090    0.20619   -0.21696
 32 Ni    0.14576    0.06167    0.42665
 33 Co    0.12449   -0.33502   -0.36481
 34 Co   -0.28462    0.11006   -0.21725
 35 Co   -0.17751   -0.23706    0.34990
 36 Ni   -0.08216    0.17692   -0.29303
 37 Fe   -0.02205   -0.14721   -0.08493
 38 Fe   -0.04294    0.04520   -0.08670
 39 Co   -0.15014    0.01769   -0.23478
 40 Ni    0.14554    0.36885    0.01528
 41 Fe   -0.07906    0.00005    0.12191
 42 Co   -0.16716   -0.35202   -0.00818
 43 Al    0.11529   -0.29103   -0.69028
 44 Ni   -0.08837   -0.19213    0.01753
 45 Cr    0.38067   -0.35384    0.70100
 46 Co   -0.04261   -0.16371    0.00208
 47 Fe   -0.13866   -0.07400   -0.29595
 48 Cr    0.43039   -0.02596   -0.03725
 49 Co   -0.05051   -0.01259    0.02861
 50 Ni   -0.22597   -0.22693   -0.09270
 51 Fe   -0.03149   -0.11227   -0.44083
 52 Cr   -0.25267   -0.65811   -0.93549
 53 Al   -0.26972   -0.34590    0.28040
 54 Co    0.17462   -0.06820   -0.19705
 55 Ni    0.09278   -0.17758   -0.07527
 56 Ni   -0.26016    0.04604   -0.05173
 57 Cr   -0.30101   -0.29077   -0.41459
 58 Cr    0.07417    0.25417    0.20405
 59 Fe    0.04223   -0.03610   -0.00436
[...]
 93 Ni    0.25615    0.48094    0.38272
 94 Al    0.48939   -0.37388   -0.48521
 95 Fe   -0.23656    0.42219    0.12816
 96 Fe   -0.10809    0.16917   -0.22250
 97 Fe    0.25794   -0.16073    0.29659
 98 Co    0.08445   -0.07040    0.27139
 99 Ni   -0.01180    0.17448   -0.03668
100 Co    0.09714    0.39474    0.31490
101 Fe    0.32013    0.13359   -0.10079
102 Co   -0.19428   -0.33404    0.04497
103 Ni    0.13373    0.26853    0.11639
104 Co   -0.02353   -0.32468   -0.61542
105 Al   -0.50644   -1.01425    0.31162
106 Ni   -0.00135   -0.38958    0.23739
107 Ni   -0.03866    0.10122   -0.33940

Date: Sat Apr 15 23:29:07 2023