User:   c.zeng@d0068
Date:   Thu Apr 13 19:35:45 2023
Arch:   x86_64
Pid:    203882
CWD:    /home/c.zeng/projects/hea-corrosion/hea-mlp/data-curation/bulk-md/dft-jobs/22
Python: 3.8.1
gpaw:   /home/c.zeng/usr/installs/gpaw/source/gpaw-22.8.0/gpaw
_gpaw:  /home/c.zeng/usr/installs/gpaw/source/gpaw-22.8.0/
        _gpaw.cpython-38-x86_64-linux-gnu.so
ase:    /home/c.zeng/.local/lib/python3.8/site-packages/ase-3.22.1-py3.8.egg/ase (version 3.22.1)
numpy:  /shared/centos7/python/3.8.1/lib/python3.8/site-packages/numpy (version 1.17.4)
scipy:  /shared/centos7/python/3.8.1/lib/python3.8/site-packages/scipy (version 1.4.1)
units:  Angstrom and eV
cores: 30
OpenMP: False
OMP_NUM_THREADS: 1

Input parameters:
  convergence: {energy: 0.0001}
  kpts: [2 2 2]
  maxiter: 666
  mode: {ecut: 350.0,
         name: pw}
  occupations: {fixmagmom: False,
                name: fermi-dirac,
                width: 0.1}
  spinpol: True
  xc: PBE

System changes: positions, numbers, cell, pbc, initial_charges, initial_magmoms

Initialize ...

species:
  Cr:
    name: Chromium
    id: 33f258bda2ca9f93018e70263a35547b
    Z: 24.0
    valence: 6
    core: 18
    charge: 0.0
    file: /home/c.zeng/usr/data/gpaw-setups-0.9.20000/Cr.PBE.gz
    compensation charges: {type: gauss,
                           rc: 0.35,
                           lmax: 2}
    cutoffs: {filter: 2.14,
              core: 3.04}
    valence states:
      #              energy  rcut
      - 4s(1.00)    -4.007   1.164
      - 4p(0.00)    -0.989   1.217
      - 3d(5.00)    -2.913   1.111
      -  s          23.205   1.164
      -  p          26.223   1.217
      -  d          24.299   1.111

    # Using partial waves for Cr as LCAO basis

  Al:
    name: Aluminium
    id: 0292cae29f5d6237e50f6abdd43a7bdd
    Z: 13.0
    valence: 3
    core: 10
    charge: 0.0
    file: /home/c.zeng/usr/data/gpaw-setups-0.9.20000/Al.PBE.gz
    compensation charges: {type: gauss,
                           rc: 0.34,
                           lmax: 2}
    cutoffs: {filter: 1.91,
              core: 2.36}
    valence states:
      #              energy  rcut
      - 3s(2.00)    -7.753   1.085
      - 3p(1.00)    -2.712   1.085
      -  s          19.459   1.085
      -  p          24.499   1.085
      -  d           0.000   1.085

[...]

  Co:
    name: Cobalt
    id: 339d20d5b0b93d2de9531a1bee871d91
    Z: 27.0
    valence: 9
    core: 18
    charge: 0.0
    file: /home/c.zeng/usr/data/gpaw-setups-0.9.20000/Co.PBE.gz
    compensation charges: {type: gauss,
                           rc: 0.32,
                           lmax: 2}
    cutoffs: {filter: 1.87,
              core: 2.55}
    valence states:
      #              energy  rcut
      - 4s(2.00)    -5.469   1.005
      - 4p(0.00)    -1.277   1.058
      - 3d(7.00)    -8.205   1.005
      -  s          21.742   1.005
      -  p          25.934   1.058
      -  d          19.007   1.005

[...]

  Fe:
    name: Iron
    id: 37abbd8d6c3c35915a9b583b742da910
    Z: 26.0
    valence: 8
    core: 18
    charge: 0.0
    file: /home/c.zeng/usr/data/gpaw-setups-0.9.20000/Fe.PBE.gz
    compensation charges: {type: gauss,
                           rc: 0.33,
                           lmax: 2}
    cutoffs: {filter: 2.06,
              core: 2.67}
    valence states:
      #              energy  rcut
      - 4s(2.00)    -5.291   1.164
      - 4p(0.00)    -1.326   1.058
      - 3d(6.00)    -7.505   1.058
      -  s          21.920   1.164
      -  p          25.885   1.058
      -  d          19.706   1.058

[...]

  Ni:
    name: Nickel
    id: 0d9f38a9d6e76a2886f07bb4381f212b
    Z: 28.0
    valence: 16
    core: 12
    charge: 0.0
    file: /home/c.zeng/usr/data/gpaw-setups-0.9.20000/Ni.PBE.gz
    compensation charges: {type: gauss,
                           rc: 0.36,
                           lmax: 2}
    cutoffs: {filter: 2.14,
              core: 1.98}
    valence states:
      #              energy  rcut
      - 4s(2.00)    -5.642   1.164
      - 3p(6.00)   -71.394   1.207
      - 4p(0.00)    -1.226   1.207
      - 3d(8.00)    -8.875   1.138
      -  s          21.570   1.164
      -  d          18.337   1.138

    # Using partial waves for Ni as LCAO basis

Reference energy: -3699400.456887  # eV

Spin-polarized calculation.
Magnetic moment: 143.500000

Convergence criteria:
 Maximum [total energy] change in last 3 cyles: 0.0001 eV / electron
 Maximum integral of absolute [dens]ity change: 0.0001 electrons / valence electron
 Maximum integral of absolute [eigenst]ate change: 4e-08 eV^2 / valence electron
 Maximum number of scf [iter]ations: 666
 (Square brackets indicate name in SCF output, whereas a 'c' in
 the SCF output indicates the quantity has converged.)

Symmetries present (total): 1

  ( 1  0  0)
  ( 0  1  0)
  ( 0  0  1)

8 k-points: 2 x 2 x 2 Monkhorst-Pack grid
4 k-points in the irreducible part of the Brillouin zone
       k-points in crystal coordinates                weights
   0:     0.25000000   -0.25000000   -0.25000000          2/8
   1:     0.25000000   -0.25000000    0.25000000          2/8
   2:     0.25000000    0.25000000   -0.25000000          2/8
   3:     0.25000000    0.25000000    0.25000000          2/8

Wave functions: Plane wave expansion
  Cutoff energy: 350.000 eV
  Number of coefficients (min, max): 18052, 18052
  Pulay-stress correction: 0.000000 eV/Ang^3 (de/decut=0.000000)
  Using FFTW library
  ScaLapack parameters: grid=1x1, blocksize=None
  Wavefunction extrapolation:
    Improved wavefunction reuse through dual PAW basis

Occupation numbers: Fermi-Dirac:
  width: 0.1000  # eV

Eigensolver
   Davidson(niter=2)

Densities:
  Coarse grid: 48*48*48 grid
  Fine grid: 96*96*96 grid
  Total Charge: 0.000000

Density mixing:
  Method: difference
  Backend: pulay
  Linear mixing parameter: 0.05
  old densities: 5
  Damping of long wavelength oscillations: 50

Hamiltonian:
  XC and Coulomb potentials evaluated on a 96*96*96 grid
  Using the PBE Exchange-Correlation functional
  External potential:
    NoExternalPotential

XC parameters: PBE with 2 nearest neighbor stencil

Total number of cores used: 30
Parallelization over k-points: 2
Domain decomposition: 5 x 3 x 1

Number of atoms: 108
Number of atomic orbitals: 1025
Number of bands in calculation: 703
Number of valence electrons: 1020
Bands to converge: occupied

... initialized

Initializing position-dependent things.

Density initialized from atomic densities
Creating initial wave functions:
  703 bands from LCAO basis set

       /|                    Cr   |
      / |   Fe         Al         |
     / Ni       Cr      Fe        |
    /   |Fe       Cr     CCr      |
   /    |   Fe       Fei    CCo   |
  /  NCo|  Fe Co   CrNi           |
 Cr   FeCo   CNiNi     CoCo  Fe   |
 |     NiCoCr  CoNi Co  AlCrFe    |
 |  Ni  | FeCoAlCoNi NiCo  Ni     Fe
 |    Cr|  NiCoCo   FeFCr   FeFe  |
 Cr    Ni Cr  Co Fe  NiNiNi    Cr |
 |      |NiNi  CoCr Co  CrFeCo  Ni|
 |      .-FeCr--FeCo-Co----CrFe---.
 |    Fe   NiFeAl   CrNiNi       /
 |   Co       Co                Cr
 |   /  Fe       CFe     Co    /
 |  /     Cr        Co      Al/
 | / Cr                Ni    /
 |/            Fe       Fe  /
 *----------------Cr-------*

Positions:
   0 Cr     0.005482    0.074513   10.545985    ( 0.0000,  0.0000,  0.0000)
   1 Al    10.526325    1.778566    1.866854    ( 0.0000,  0.0000,  0.0000)
   2 Cr     1.658701   10.731350    1.779956    ( 0.0000,  0.0000,  0.0000)
   3 Co     1.740488    1.802427   10.534105    ( 0.0000,  0.0000,  2.1000)
   4 Fe     3.451772   -0.067413    0.012846    ( 0.0000,  0.0000,  2.0000)
   5 Cr     3.440680    1.611250    1.842493    ( 0.0000,  0.0000,  0.0000)
   6 Ni     5.317185   10.611520    1.829923    ( 0.0000,  0.0000,  1.5000)
   7 Fe     5.373570    2.038920    0.073329    ( 0.0000,  0.0000,  2.0000)
   8 Cr     7.002899    0.112723    0.162963    ( 0.0000,  0.0000,  0.0000)
   9 Co     7.301122    1.833294    1.784386    ( 0.0000,  0.0000,  2.1000)
  10 Ni     9.112875   10.798853    1.859055    ( 0.0000,  0.0000,  1.5000)
  11 Fe     8.836389    1.721721   10.754182    ( 0.0000,  0.0000,  2.0000)
  12 Co    -0.172356    3.527501   10.619587    ( 0.0000,  0.0000,  2.1000)
  13 Co     0.121946    5.255422    1.631572    ( 0.0000,  0.0000,  2.1000)
  14 Fe     2.011478    3.452488    1.734712    ( 0.0000,  0.0000,  2.0000)
  15 Fe     1.867117    5.268135   -0.014555    ( 0.0000,  0.0000,  2.0000)
  16 Fe     3.657480    3.535771   -0.155362    ( 0.0000,  0.0000,  2.0000)
  17 Fe     3.628679    5.190843    1.794662    ( 0.0000,  0.0000,  2.0000)
  18 Cr     5.497209    3.539495    1.749408    ( 0.0000,  0.0000,  0.0000)
  19 Co     5.328300    5.388048    0.092136    ( 0.0000,  0.0000,  2.1000)
  20 Fe     7.296358    3.595762   10.359143    ( 0.0000,  0.0000,  2.0000)
  21 Ni     6.975274    5.509971    1.671657    ( 0.0000,  0.0000,  1.5000)
  22 Co     8.921810    3.597309    1.547704    ( 0.0000,  0.0000,  2.1000)
  23 Cr     8.899932    5.486695   -0.106316    ( 0.0000,  0.0000,  0.0000)
  24 Cr    -0.064511    7.227194    0.199518    ( 0.0000,  0.0000,  0.0000)
  25 Ni    -0.342559    8.863411    2.091812    ( 0.0000,  0.0000,  1.5000)
  26 Fe     1.893621    6.865122    1.764480    ( 0.0000,  0.0000,  2.0000)
  27 Ni     1.761157    8.984971   10.847425    ( 0.0000,  0.0000,  1.5000)
  28 Co     3.619061    6.965112    0.136151    ( 0.0000,  0.0000,  2.1000)
  29 Co     3.391361    8.747964    1.736168    ( 0.0000,  0.0000,  2.1000)
  30 Co     5.258652    7.137176    1.888601    ( 0.0000,  0.0000,  2.1000)
  31 Cr     5.212035    8.951315    0.034590    ( 0.0000,  0.0000,  0.0000)
  32 Al     6.964343    7.202925   10.538392    ( 0.0000,  0.0000,  0.0000)
  33 Cr     6.832484    9.014134    1.754758    ( 0.0000,  0.0000,  0.0000)
  34 Cr     8.729458    7.188014    1.864432    ( 0.0000,  0.0000,  0.0000)
  35 Cr     8.885839    9.111015   10.392110    ( 0.0000,  0.0000,  0.0000)
  36 Fe    10.630965   10.649128    3.624198    ( 0.0000,  0.0000,  2.0000)
  37 Co    10.591695    1.949171    5.128305    ( 0.0000,  0.0000,  2.1000)
  38 Cr     1.908533   10.497304    5.269630    ( 0.0000,  0.0000,  0.0000)
  39 Fe     1.715106    1.846140    3.557843    ( 0.0000,  0.0000,  2.0000)
  40 Co     3.492116   10.456101    3.495517    ( 0.0000,  0.0000,  2.1000)
  41 Ni     3.611432    1.754004    5.303751    ( 0.0000,  0.0000,  1.5000)
  42 Ni     5.312458   -0.151911    5.513607    ( 0.0000,  0.0000,  1.5000)
  43 Al     5.272413    1.948099    3.653639    ( 0.0000,  0.0000,  0.0000)
  44 Fe     7.004719   10.853358    3.578316    ( 0.0000,  0.0000,  2.0000)
  45 Co     7.181353    1.850596    5.302362    ( 0.0000,  0.0000,  2.1000)
  46 Fe     8.800293   10.663732    5.284653    ( 0.0000,  0.0000,  2.0000)
  47 Ni     8.804271    1.791519    3.565786    ( 0.0000,  0.0000,  1.5000)
  48 Fe    -0.003582    3.663402    3.568382    ( 0.0000,  0.0000,  2.0000)
  49 Fe    10.669967    5.253668    5.396556    ( 0.0000,  0.0000,  2.0000)
  50 Ni     1.676429    3.497309    5.374092    ( 0.0000,  0.0000,  1.5000)
  51 Ni     1.693225    5.262103    3.477274    ( 0.0000,  0.0000,  1.5000)
  52 Cr     3.452188    3.560682    3.480921    ( 0.0000,  0.0000,  0.0000)
  53 Co     3.604254    5.108357    5.315538    ( 0.0000,  0.0000,  2.1000)
  54 Fe     5.439710    3.582308    5.343362    ( 0.0000,  0.0000,  2.0000)
  55 Cr     5.311045    5.253458    3.409012    ( 0.0000,  0.0000,  0.0000)
  56 Co     7.097385    3.657157    3.655139    ( 0.0000,  0.0000,  2.1000)
  57 Fe     7.168911    5.396885    5.620851    ( 0.0000,  0.0000,  2.0000)
  58 Ni     8.765177    3.599348    5.257835    ( 0.0000,  0.0000,  1.5000)
  59 Fe     8.820297    5.263773    3.489333    ( 0.0000,  0.0000,  2.0000)
[...]
  93 Ni     6.943806    5.587242    8.979617    ( 0.0000,  0.0000,  1.5000)
  94 Co     8.989730    3.613572    8.796191    ( 0.0000,  0.0000,  2.1000)
  95 Cr     8.976227    5.443992    7.242322    ( 0.0000,  0.0000,  0.0000)
  96 Fe     0.046412    6.985270    7.205066    ( 0.0000,  0.0000,  2.0000)
  97 Ni     0.043560    8.818668    8.870773    ( 0.0000,  0.0000,  1.5000)
  98 Ni     1.561402    6.949743    9.060156    ( 0.0000,  0.0000,  1.5000)
  99 Fe     1.675418    8.619376    7.150361    ( 0.0000,  0.0000,  2.0000)
 100 Ni     3.513005    7.092114    6.991784    ( 0.0000,  0.0000,  1.5000)
 101 Cr     3.620419    8.791349    8.968074    ( 0.0000,  0.0000,  0.0000)
 102 Cr     5.059852    7.264918    8.921516    ( 0.0000,  0.0000,  0.0000)
 103 Cr     5.151029    8.714750    7.081203    ( 0.0000,  0.0000,  0.0000)
 104 Co     6.928661    7.091133    7.146028    ( 0.0000,  0.0000,  2.1000)
 105 Fe     7.019291    8.969293    8.732575    ( 0.0000,  0.0000,  2.0000)
 106 Cr     8.966124    7.217050    8.820169    ( 0.0000,  0.0000,  0.0000)
 107 Ni     9.011879    8.908365    7.267049    ( 0.0000,  0.0000,  1.5000)

Unit cell:
           periodic     x           y           z      points  spacing
  1. axis:    yes   10.671700    0.000000    0.000000    48     0.2223
  2. axis:    yes    0.000000   10.671700    0.000000    48     0.2223
  3. axis:    yes    0.000000    0.000000   10.671700    48     0.2223

  Lengths:  10.671700  10.671700  10.671700
  Angles:   90.000000  90.000000  90.000000

Effective grid spacing dv^(1/3) = 0.2223

     iter     time        total  log10-change:  magmom
                         energy  eigst   dens
iter:   1 19:41:50 -1043.621706                  +143.7777
iter:   2 19:44:37  -928.225732  -0.22  -1.20    +81.6290
iter:   3 19:47:22  -908.893712  -0.89  -1.22    +68.5061
iter:   4 19:50:06  -886.606186  -1.33  -1.29    +64.2264
iter:   5 19:52:51  -874.329468  -1.66  -1.32    +61.5099
iter:   6 19:55:38  -878.501919  -1.26  -1.38    +61.7573
iter:   7 19:58:24  -872.307378  -1.25  -1.44    +61.2058
iter:   8 20:01:11  -858.813365  -1.69  -1.56    +60.8692
iter:   9 20:03:58  -857.437282  -2.00  -1.73    +61.9427
iter:  10 20:06:44  -856.860009  -2.50  -1.81    +63.0069
iter:  11 20:09:27  -857.113179  -2.54  -1.83    +64.6422
iter:  12 20:12:10  -858.801167  -2.46  -1.88    +66.1133
iter:  13 20:14:56  -859.157021  -2.34  -1.88    +66.5532
iter:  14 20:17:43  -858.370519  -2.36  -1.91    +67.4792
iter:  15 20:20:30  -858.114735  -2.59  -2.03    +68.2748
iter:  16 20:23:17  -857.311708  -2.89  -2.07    +68.6336
iter:  17 20:26:03  -857.606507  -3.16  -2.22    +69.3728
iter:  18 20:28:50  -857.466454  -3.28  -2.21    +69.6512
iter:  19 20:31:34  -857.696965  -3.18  -2.29    +70.1492
iter:  20 20:34:18  -857.529506  -3.09  -2.27    +70.3837
iter:  21 20:37:05  -857.438358  -3.40  -2.38    +70.6509
iter:  22 20:39:51  -857.436863c -3.44  -2.47    +70.7732
iter:  23 20:42:38  -857.420541c -3.65  -2.51    +70.8910
iter:  24 20:45:25  -857.426794c -3.58  -2.57    +71.0530
iter:  25 20:48:11  -857.412556c -3.75  -2.61    +71.1818
iter:  26 20:50:58  -857.419813c -3.89  -2.65    +71.2895
iter:  27 20:53:42  -857.405532c -3.98  -2.68    +71.3953
iter:  28 20:56:24  -857.443342c -4.04  -2.74    +71.4813
iter:  29 20:59:11  -857.426334c -4.12  -2.73    +71.5296
iter:  30 21:01:58  -857.431667c -4.32  -2.78    +71.5787
iter:  31 21:04:45  -857.436473c -4.42  -2.81    +71.6478
iter:  32 21:07:31  -857.452571c -4.49  -2.86    +71.6936
iter:  33 21:10:18  -857.447909c -4.58  -2.86    +71.7178
iter:  34 21:13:04  -857.459300c -4.53  -2.94    +71.7819
iter:  35 21:15:51  -857.465533c -4.69  -2.97    +71.8179
iter:  36 21:18:37  -857.469519c -4.76  -3.00    +71.8367
iter:  37 21:21:19  -857.480814c -4.72  -3.05    +71.8812
iter:  38 21:24:05  -857.490981c -4.66  -3.07    +71.9172
iter:  39 21:26:52  -857.489886c -4.73  -3.07    +71.9300
iter:  40 21:29:38  -857.496416c -4.83  -3.16    +71.9732
iter:  41 21:32:25  -857.502381c -4.96  -3.20    +72.0069
iter:  42 21:35:11  -857.510123c -4.90  -3.23    +72.0175
iter:  43 21:37:57  -857.514444c -5.04  -3.26    +72.0535
iter:  44 21:40:39  -857.521207c -4.93  -3.30    +72.0722
iter:  45 21:43:25  -857.522403c -5.15  -3.29    +72.0815
iter:  46 21:46:11  -857.526336c -5.22  -3.37    +72.1141
iter:  47 21:48:57  -857.531675c -5.26  -3.43    +72.1374
iter:  48 21:51:43  -857.535877c -5.26  -3.43    +72.1577
iter:  49 21:54:28  -857.539888c -5.27  -3.48    +72.1719
iter:  50 21:57:11  -857.545229c -5.21  -3.52    +72.1956
iter:  51 21:59:53  -857.548635c -5.37  -3.53    +72.2009
iter:  52 22:02:39  -857.552041c -5.39  -3.55    +72.2245
iter:  53 22:05:26  -857.559052c -5.00  -3.58    +72.2447
iter:  54 22:08:12  -857.565430c -4.93  -3.59    +72.2683
iter:  55 22:10:59  -857.580010c -4.29  -3.56    +72.3219
iter:  56 22:13:45  -857.581430c -5.12  -3.40    +72.3411
iter:  57 22:16:31  -857.583437c -5.47  -3.39    +72.3550
iter:  58 22:19:18  -857.581640c -5.91  -3.36    +72.3501
iter:  59 22:22:05  -857.580368c -5.96  -3.39    +72.3331
iter:  60 22:24:51  -857.589672c -4.87  -3.41    +72.3468
iter:  61 22:27:38  -857.578396c -5.12  -3.24    +72.3271
iter:  62 22:30:23  -857.577608c -5.58  -3.45    +72.2967
iter:  63 22:33:09  -857.578192c -5.61  -3.54    +72.2677
iter:  64 22:35:54  -857.578478c -5.54  -3.56    +72.2522
iter:  65 22:38:37  -857.578318c -5.66  -3.54    +72.2591
iter:  66 22:41:23  -857.578592c -5.55  -3.60    +72.2393
iter:  67 22:44:10  -857.579650c -5.52  -3.59    +72.2285
iter:  68 22:46:56  -857.578708c -5.66  -3.60    +72.2216
iter:  69 22:49:42  -857.578633c -5.76  -3.66    +72.2234
iter:  70 22:52:29  -857.578720c -5.96  -3.70    +72.2173
iter:  71 22:55:15  -857.578487c -6.07  -3.78    +72.2046
iter:  72 22:58:07  -857.578738c -6.45  -3.77    +72.2112
iter:  73 23:00:59  -857.578791c -6.33  -3.86    +72.2117
iter:  74 23:03:30  -857.579288c -6.33  -3.86    +72.2158
iter:  75 23:06:02  -857.579377c -6.51  -3.86    +72.2163
iter:  76 23:08:34  -857.579828c -6.12  -3.93    +72.2219
iter:  77 23:11:06  -857.580559c -5.92  -3.85    +72.2220
iter:  78 23:13:38  -857.579874c -6.05  -3.79    +72.2128
iter:  79 23:16:10  -857.580381c -6.22  -3.92    +72.2118
iter:  80 23:18:41  -857.580244c -6.28  -3.96    +72.2162
iter:  81 23:21:13  -857.580240c -6.67  -3.99    +72.2219
iter:  82 23:23:44  -857.580472c -6.93  -4.14c   +72.2250
iter:  83 23:26:15  -857.581410c -6.14  -4.15c   +72.2327
iter:  84 23:28:47  -857.581023c -6.68  -3.98    +72.2275
iter:  85 23:31:18  -857.581637c -6.41  -4.01c   +72.2295
iter:  86 23:34:31  -857.581545c -6.72  -4.01c   +72.2324
iter:  87 23:37:29  -857.581737c -6.92  -4.02c   +72.2380
iter:  88 23:40:01  -857.582159c -6.20  -4.07c   +72.2414
iter:  89 23:42:33  -857.582069c -6.75  -3.90    +72.2422
iter:  90 23:45:05  -857.582017c -6.56  -4.01c   +72.2379
iter:  91 23:47:37  -857.582170c -7.05  -4.00    +72.2410
iter:  92 23:50:09  -857.582402c -7.02  -4.06c   +72.2440
iter:  93 23:52:42  -857.583546c -5.88  -4.04c   +72.2607
iter:  94 23:55:13  -857.583043c -6.28  -3.91    +72.2520
iter:  95 23:57:44  -857.583442c -6.40  -3.95    +72.2705
iter:  96 00:00:16  -857.584133c -6.18  -4.03c   +72.2964
iter:  97 00:02:48  -857.584519c -5.92  -4.02c   +72.3105
iter:  98 00:05:18  -857.584241c -6.33  -4.10c   +72.3004
iter:  99 00:07:50  -857.584388c -6.46  -4.04c   +72.3025
iter: 100 00:10:21  -857.584454c -6.96  -4.23c   +72.2986
iter: 101 00:12:53  -857.584351c -6.83  -4.23c   +72.2897
iter: 102 00:16:06  -857.584547c -6.77  -4.31c   +72.2914
iter: 103 00:19:06  -857.584406c -6.70  -4.18c   +72.2874
iter: 104 00:21:38  -857.584511c -7.08  -4.32c   +72.2861
iter: 105 00:24:10  -857.584436c -7.30  -4.51c   +72.2853
iter: 106 00:26:41  -857.584520c -7.41c -4.58c   +72.2852

Converged after 106 iterations.

Dipole moment: (17.956537, -1.495026, 11.478840) |e|*Ang

Total magnetic moment: (0.000000, 0.000000, 72.285195)
Local magnetic moments:
   0 Cr ( 0.000000,  0.000000, -1.120211)
   1 Al ( 0.000000,  0.000000, -0.036312)
   2 Cr ( 0.000000,  0.000000, -0.805231)
   3 Co ( 0.000000,  0.000000,  0.788518)
   4 Fe ( 0.000000,  0.000000,  1.527375)
   5 Cr ( 0.000000,  0.000000, -0.776545)
   6 Ni ( 0.000000,  0.000000,  0.074390)
   7 Fe ( 0.000000,  0.000000,  1.748194)
   8 Cr ( 0.000000,  0.000000, -0.441349)
   9 Co ( 0.000000,  0.000000,  1.050580)
  10 Ni ( 0.000000,  0.000000,  0.293553)
  11 Fe ( 0.000000,  0.000000,  2.029595)
  12 Co ( 0.000000,  0.000000,  1.355076)
  13 Co ( 0.000000,  0.000000,  0.993118)
  14 Fe ( 0.000000,  0.000000,  1.542832)
  15 Fe ( 0.000000,  0.000000,  2.296403)
  16 Fe ( 0.000000,  0.000000,  1.842585)
  17 Fe ( 0.000000,  0.000000,  1.153278)
  18 Cr ( 0.000000,  0.000000, -1.092756)
  19 Co ( 0.000000,  0.000000,  1.157218)
  20 Fe ( 0.000000,  0.000000,  2.477865)
  21 Ni ( 0.000000,  0.000000,  0.189912)
  22 Co ( 0.000000,  0.000000,  1.308633)
  23 Cr ( 0.000000,  0.000000, -1.462557)
  24 Cr ( 0.000000,  0.000000,  0.901881)
  25 Ni ( 0.000000,  0.000000,  0.305314)
  26 Fe ( 0.000000,  0.000000,  2.168620)
  27 Ni ( 0.000000,  0.000000,  0.184605)
  28 Co ( 0.000000,  0.000000,  1.151386)
  29 Co ( 0.000000,  0.000000,  1.220360)
  30 Co ( 0.000000,  0.000000,  1.117899)
  31 Cr ( 0.000000,  0.000000,  0.128127)
  32 Al ( 0.000000,  0.000000, -0.008132)
  33 Cr ( 0.000000,  0.000000, -0.857713)
  34 Cr ( 0.000000,  0.000000,  0.731822)
  35 Cr ( 0.000000,  0.000000,  0.544521)
  36 Fe ( 0.000000,  0.000000,  2.186677)
  37 Co ( 0.000000,  0.000000,  1.420767)
  38 Cr ( 0.000000,  0.000000, -1.554781)
  39 Fe ( 0.000000,  0.000000,  1.895641)
  40 Co ( 0.000000,  0.000000,  1.029781)
  41 Ni ( 0.000000,  0.000000,  0.094128)
  42 Ni ( 0.000000,  0.000000,  0.185224)
  43 Al ( 0.000000,  0.000000, -0.019145)
  44 Fe ( 0.000000,  0.000000,  2.266353)
  45 Co ( 0.000000,  0.000000,  1.183791)
  46 Fe ( 0.000000,  0.000000,  1.977282)
  47 Ni ( 0.000000,  0.000000,  0.478114)
  48 Fe ( 0.000000,  0.000000,  2.305823)
  49 Fe ( 0.000000,  0.000000,  2.309965)
  50 Ni ( 0.000000,  0.000000,  0.425446)
  51 Ni ( 0.000000,  0.000000,  0.400135)
  52 Cr ( 0.000000,  0.000000, -0.899820)
  53 Co ( 0.000000,  0.000000,  1.377751)
  54 Fe ( 0.000000,  0.000000,  2.104545)
  55 Cr ( 0.000000,  0.000000, -0.459287)
  56 Co ( 0.000000,  0.000000,  1.138135)
  57 Fe ( 0.000000,  0.000000,  2.311416)
  58 Ni ( 0.000000,  0.000000,  0.507463)
  59 Fe ( 0.000000,  0.000000,  2.361716)
[...]
  93 Ni ( 0.000000,  0.000000,  0.187238)
  94 Co ( 0.000000,  0.000000,  0.918742)
  95 Cr ( 0.000000,  0.000000, -1.525231)
  96 Fe ( 0.000000,  0.000000,  1.813641)
  97 Ni ( 0.000000,  0.000000,  0.293135)
  98 Ni ( 0.000000,  0.000000,  0.462481)
  99 Fe ( 0.000000,  0.000000,  2.407637)
 100 Ni ( 0.000000,  0.000000,  0.401072)
 101 Cr ( 0.000000,  0.000000, -0.411160)
 102 Cr ( 0.000000,  0.000000, -0.098976)
 103 Cr ( 0.000000,  0.000000,  0.233742)
 104 Co ( 0.000000,  0.000000,  0.895617)
 105 Fe ( 0.000000,  0.000000,  1.232083)
 106 Cr ( 0.000000,  0.000000,  0.175625)
 107 Ni ( 0.000000,  0.000000,  0.086730)

Energy contributions relative to reference atoms: (reference = -3699400.456887)

Kinetic:       +339.084770
Potential:     -350.577300
External:        +0.000000
XC:            -881.269710
Entropy (-ST):   -4.490908
Local:          +37.423173
Free energy:   -859.829974
Extrapolated:  -857.584520

Spin contamination: 22.368015 electrons
Showing only first 2 kpts
                      Up                     Down
 Kpt  Band  Eigenvalues  Occupancy  Eigenvalues  Occupancy
  0   508      9.63635    0.99569     10.60711    0.01386
  0   509      9.65224    0.99495     10.61788    0.01246
  0   510      9.65356    0.99489     10.64093    0.00992
  0   511      9.66489    0.99428     10.65405    0.00871

  1   508      9.62932    0.99598     10.61165    0.01325
  1   509      9.63602    0.99571     10.62369    0.01177
  1   510      9.65199    0.99497     10.63366    0.01066
  1   511      9.66784    0.99411     10.64056    0.00996

Fermi level: 10.18063

No gap

Forces in eV/Ang:
  0 Cr    0.10700   -0.78165    0.00223
  1 Al    1.65052    2.13492   -0.28868
  2 Cr    0.66463   -0.85577    0.36537
  3 Co    0.74168    0.09035    0.71252
  4 Fe    0.70360    1.26290    0.57505
  5 Cr    0.10235    0.42494   -1.22423
  6 Ni   -1.56250    2.01306    0.09952
  7 Fe    0.22814   -1.72255    0.78905
  8 Cr    1.59672   -0.68662   -0.26447
  9 Co   -1.67483    0.19113   -0.01043
 10 Ni   -2.66849   -1.74168   -0.80512
 11 Fe   -0.00448   -0.37629   -1.64543
 12 Co    1.35476    0.59747    0.06893
 13 Co   -0.92960    0.06647    0.20532
 14 Fe   -1.23280    0.26908   -0.69546
 15 Fe   -0.34934   -0.61575   -0.05236
 16 Fe   -1.65880    0.57815    2.04686
 17 Fe    0.14050    0.09392    0.21251
 18 Cr   -0.36290    0.37075   -0.59051
 19 Co   -0.85248   -1.01286   -0.56507
 20 Fe   -0.97230    0.47087    1.12993
 21 Ni    1.65924   -0.99796    0.68174
 22 Co   -1.15122    0.85037    1.53537
 23 Cr    0.44462   -0.31260    0.55344
 24 Cr   -0.32052   -0.23008   -0.30763
 25 Ni    2.31407   -0.08959   -2.45621
 26 Fe   -0.76827    1.53669    0.28173
 27 Ni   -1.35316   -1.52092   -0.93346
 28 Co   -0.64571    0.59989   -0.64973
 29 Co    1.11470    0.84862    1.03445
 30 Co    0.06260    0.40045   -0.06417
 31 Cr   -0.10849    0.18062    0.41808
 32 Al    0.76494    0.74733    1.27481
 33 Cr    2.12507   -1.33421    0.54410
 34 Cr    0.21055   -0.46696   -1.06807
 35 Cr   -0.72928   -0.36943    2.13432
 36 Fe    0.58680    0.26932    1.34277
 37 Co   -0.03444   -1.36200    1.23389
 38 Cr   -1.01756    1.38541    0.33048
 39 Fe    0.70751   -0.84232    0.74148
 40 Co   -0.11093    0.75274    0.14768
 41 Ni   -0.78749    0.24819    0.12083
 42 Ni   -0.12641    1.57982   -0.40823
 43 Al    0.61286   -2.01372   -0.54593
 44 Fe    0.78050   -0.77176   -0.15133
 45 Co   -0.74932   -0.35862    1.08168
 46 Fe    0.37990   -0.04911    0.51846
 47 Ni    0.46030    0.73558    0.37876
 48 Fe   -0.64516   -0.21572   -0.83034
 49 Fe   -0.34318    0.51618   -0.11003
 50 Ni    1.87911    0.33926   -0.53913
 51 Ni    1.15799   -0.56969    0.27761
 52 Cr   -0.15292    0.15662    0.74160
 53 Co   -0.29323    0.61999   -0.53697
 54 Fe   -0.37347    0.45848    0.66987
 55 Cr    0.04257    0.00457    0.73592
 56 Co   -0.06215   -0.10021   -1.18580
 57 Fe   -0.26172    0.28483   -2.17137
 58 Ni    1.00927    0.02263    1.30878
 59 Fe    0.01172    0.47522   -0.09424
[...]
 93 Ni    0.57301   -1.06674   -0.89017
 94 Co   -0.69963   -0.07522   -0.12906
 95 Cr   -0.74846   -1.08877    0.10813
 96 Fe   -0.13667    0.20556   -1.07099
 97 Ni    0.91037    0.88961    0.68610
 98 Ni    2.23646    1.40668   -0.14329
 99 Fe    1.01431    1.35022   -0.40776
100 Ni   -0.15093   -0.94371    0.73648
101 Cr   -1.29151    0.02857   -0.43093
102 Cr    0.77289   -0.83499   -0.76486
103 Cr   -0.17012    1.21530    0.05532
104 Co    0.70052    0.71374    0.47802
105 Fe    0.31595    0.18254    0.73060
106 Cr   -0.86159   -0.97574    0.41825
107 Ni   -0.21702   -0.45118   -2.24350

Date: Fri Apr 14 00:27:04 2023