User:   c.zeng@d0088
Date:   Fri Apr 14 06:50:22 2023
Arch:   x86_64
Pid:    45540
CWD:    /home/c.zeng/projects/hea-corrosion/hea-mlp/data-curation/bulk-mcmc/dft-jobs/116
Python: 3.8.1
gpaw:   /home/c.zeng/usr/installs/gpaw/source/gpaw-22.8.0/gpaw
_gpaw:  /home/c.zeng/usr/installs/gpaw/source/gpaw-22.8.0/
        _gpaw.cpython-38-x86_64-linux-gnu.so
ase:    /home/c.zeng/.local/lib/python3.8/site-packages/ase-3.22.1-py3.8.egg/ase (version 3.22.1)
numpy:  /shared/centos7/python/3.8.1/lib/python3.8/site-packages/numpy (version 1.17.4)
scipy:  /shared/centos7/python/3.8.1/lib/python3.8/site-packages/scipy (version 1.4.1)
units:  Angstrom and eV
cores: 30
OpenMP: False
OMP_NUM_THREADS: 1

Input parameters:
  convergence: {energy: 0.0001}
  kpts: [2 2 2]
  maxiter: 666
  mode: {ecut: 350.0,
         name: pw}
  occupations: {fixmagmom: False,
                name: fermi-dirac,
                width: 0.1}
  spinpol: True
  xc: PBE

System changes: positions, numbers, cell, pbc, initial_charges, initial_magmoms

Initialize ...

species:
  Co:
    name: Cobalt
    id: 339d20d5b0b93d2de9531a1bee871d91
    Z: 27.0
    valence: 9
    core: 18
    charge: 0.0
    file: /home/c.zeng/usr/data/gpaw-setups-0.9.20000/Co.PBE.gz
    compensation charges: {type: gauss,
                           rc: 0.32,
                           lmax: 2}
    cutoffs: {filter: 1.87,
              core: 2.55}
    valence states:
      #              energy  rcut
      - 4s(2.00)    -5.469   1.005
      - 4p(0.00)    -1.277   1.058
      - 3d(7.00)    -8.205   1.005
      -  s          21.742   1.005
      -  p          25.934   1.058
      -  d          19.007   1.005

    # Using partial waves for Co as LCAO basis

  Fe:
    name: Iron
    id: 37abbd8d6c3c35915a9b583b742da910
    Z: 26.0
    valence: 8
    core: 18
    charge: 0.0
    file: /home/c.zeng/usr/data/gpaw-setups-0.9.20000/Fe.PBE.gz
    compensation charges: {type: gauss,
                           rc: 0.33,
                           lmax: 2}
    cutoffs: {filter: 2.06,
              core: 2.67}
    valence states:
      #              energy  rcut
      - 4s(2.00)    -5.291   1.164
      - 4p(0.00)    -1.326   1.058
      - 3d(6.00)    -7.505   1.058
      -  s          21.920   1.164
      -  p          25.885   1.058
      -  d          19.706   1.058

[...]

  Ni:
    name: Nickel
    id: 0d9f38a9d6e76a2886f07bb4381f212b
    Z: 28.0
    valence: 16
    core: 12
    charge: 0.0
    file: /home/c.zeng/usr/data/gpaw-setups-0.9.20000/Ni.PBE.gz
    compensation charges: {type: gauss,
                           rc: 0.36,
                           lmax: 2}
    cutoffs: {filter: 2.14,
              core: 1.98}
    valence states:
      #              energy  rcut
      - 4s(2.00)    -5.642   1.164
      - 3p(6.00)   -71.394   1.207
      - 4p(0.00)    -1.226   1.207
      - 3d(8.00)    -8.875   1.138
      -  s          21.570   1.164
      -  d          18.337   1.138

[...]

  Al:
    name: Aluminium
    id: 0292cae29f5d6237e50f6abdd43a7bdd
    Z: 13.0
    valence: 3
    core: 10
    charge: 0.0
    file: /home/c.zeng/usr/data/gpaw-setups-0.9.20000/Al.PBE.gz
    compensation charges: {type: gauss,
                           rc: 0.34,
                           lmax: 2}
    cutoffs: {filter: 1.91,
              core: 2.36}
    valence states:
      #              energy  rcut
      - 3s(2.00)    -7.753   1.085
      - 3p(1.00)    -2.712   1.085
      -  s          19.459   1.085
      -  p          24.499   1.085
      -  d           0.000   1.085

[...]

  Cr:
    name: Chromium
    id: 33f258bda2ca9f93018e70263a35547b
    Z: 24.0
    valence: 6
    core: 18
    charge: 0.0
    file: /home/c.zeng/usr/data/gpaw-setups-0.9.20000/Cr.PBE.gz
    compensation charges: {type: gauss,
                           rc: 0.35,
                           lmax: 2}
    cutoffs: {filter: 2.14,
              core: 3.04}
    valence states:
      #              energy  rcut
      - 4s(1.00)    -4.007   1.164
      - 4p(0.00)    -0.989   1.217
      - 3d(5.00)    -2.913   1.111
      -  s          23.205   1.164
      -  p          26.223   1.217
      -  d          24.299   1.111

    # Using partial waves for Cr as LCAO basis

Reference energy: -3548577.034362  # eV

Spin-polarized calculation.
Magnetic moment: 136.400000

Convergence criteria:
 Maximum [total energy] change in last 3 cyles: 0.0001 eV / electron
 Maximum integral of absolute [dens]ity change: 0.0001 electrons / valence electron
 Maximum integral of absolute [eigenst]ate change: 4e-08 eV^2 / valence electron
 Maximum number of scf [iter]ations: 666
 (Square brackets indicate name in SCF output, whereas a 'c' in
 the SCF output indicates the quantity has converged.)

Symmetries present (total): 1

  ( 1  0  0)
  ( 0  1  0)
  ( 0  0  1)

8 k-points: 2 x 2 x 2 Monkhorst-Pack grid
4 k-points in the irreducible part of the Brillouin zone
       k-points in crystal coordinates                weights
   0:     0.25000000   -0.25000000   -0.25000000          2/8
   1:     0.25000000   -0.25000000    0.25000000          2/8
   2:     0.25000000    0.25000000   -0.25000000          2/8
   3:     0.25000000    0.25000000    0.25000000          2/8

Wave functions: Plane wave expansion
  Cutoff energy: 350.000 eV
  Number of coefficients (min, max): 18331, 18331
  Pulay-stress correction: 0.000000 eV/Ang^3 (de/decut=0.000000)
  Using FFTW library
  ScaLapack parameters: grid=1x1, blocksize=None
  Wavefunction extrapolation:
    Improved wavefunction reuse through dual PAW basis

Occupation numbers: Fermi-Dirac:
  width: 0.1000  # eV

Eigensolver
   Davidson(niter=2)

Densities:
  Coarse grid: 48*48*48 grid
  Fine grid: 96*96*96 grid
  Total Charge: 0.000000

Density mixing:
  Method: difference
  Backend: pulay
  Linear mixing parameter: 0.05
  old densities: 5
  Damping of long wavelength oscillations: 50

Hamiltonian:
  XC and Coulomb potentials evaluated on a 96*96*96 grid
  Using the PBE Exchange-Correlation functional
  External potential:
    NoExternalPotential

XC parameters: PBE with 2 nearest neighbor stencil

Total number of cores used: 30
Parallelization over k-points: 2
Domain decomposition: 5 x 3 x 1

Number of atoms: 108
Number of atomic orbitals: 994
Number of bands in calculation: 674
Number of valence electrons: 980
Bands to converge: occupied

... initialized

Initializing position-dependent things.

Density initialized from atomic densities
Creating initial wave functions:
  674 bands from LCAO basis set

        Co-------Co---------------.
       /|  Co       Fe            |
      / |   NiCr     CrCo     CrCo|
     / Ni       CAl     Ni        |
    /   CCo      Ni      FAl      |
   /    | CoCo     Co      CoCo   |
  /   Co|  AlFeAl   NiNi    CrCr  |
 *      Cr  CrCoNi   CoNiNi   FeNi|
 |Fe   NiNiCr   CrNCr   FeCr      |
 | Fe   | NiAl   NiNiCr    Cr     |
 |     Co  CoFeNi   FeNiAl  NiAl  |
 |      Fe    FeNi   FeAlFe   AlCr|
 |Cr    |CoNi   NFeFe   FeFe     Fe
 |      .-FeCr-----FeCr--FeCoNi---.
 |     Cr    CoCr     FeCo  Cr Fe/
 |    / Al      Co       Cr     /
 Cr  /            Cr           /
 |  /      Ni      Cr       Fe/
 | / Co              Fe      /
 |/                     Co  /

Positions:
   0 Co    10.732479   -0.010418   10.721263    ( 0.0000,  0.0000,  2.1000)
   1 Fe    10.706231    1.787006    1.816653    ( 0.0000,  0.0000,  1.5000)
   2 Co     1.827923    0.046024    1.820803    ( 0.0000,  0.0000,  0.0000)
   3 Co     1.781666    1.794790   10.668295    ( 0.0000,  0.0000,  0.0000)
   4 Co     3.605675   -0.024615   10.696977    ( 0.0000,  0.0000,  0.0000)
   5 Ni     3.626284    1.755611    1.827590    ( 0.0000,  0.0000,  2.0000)
   6 Fe     5.347186   -0.032870    1.798425    ( 0.0000,  0.0000,  2.0000)
   7 Al     5.383406    1.755353   -0.004078    ( 0.0000,  0.0000,  2.0000)
   8 Fe     7.108694   -0.021619    0.052076    ( 0.0000,  0.0000,  0.0000)
   9 Cr     7.129131    1.783639    1.838109    ( 0.0000,  0.0000,  2.0000)
  10 Al     8.928414   -0.004386    1.840918    ( 0.0000,  0.0000,  2.0000)
  11 Co     8.945645    1.852509    0.063651    ( 0.0000,  0.0000,  0.0000)
  12 Co    10.721403    3.615743   10.707625    ( 0.0000,  0.0000,  2.1000)
  13 Fe    10.714905    5.407607    1.816064    ( 0.0000,  0.0000,  2.0000)
  14 Al     1.786931    3.537020    1.885127    ( 0.0000,  0.0000,  0.0000)
  15 Co     1.774396    5.426328   10.657058    ( 0.0000,  0.0000,  0.0000)
  16 Co     3.564340    3.564490   10.690115    ( 0.0000,  0.0000,  0.0000)
  17 Co     3.570334    5.434059    1.813919    ( 0.0000,  0.0000,  0.0000)
  18 Co     5.350145    3.574934    1.808708    ( 0.0000,  0.0000,  0.0000)
  19 Al     5.345084    5.410577   10.703464    ( 0.0000,  0.0000,  2.1000)
  20 Fe     7.157695    3.624514    0.002553    ( 0.0000,  0.0000,  2.1000)
  21 Fe     7.157792    5.380200    1.803904    ( 0.0000,  0.0000,  0.0000)
  22 Cr     8.944980    3.620622    1.842988    ( 0.0000,  0.0000,  0.0000)
  23 Al     8.940316    5.370571   -0.005231    ( 0.0000,  0.0000,  0.0000)
  24 Co    10.674578    7.138041   10.683446    ( 0.0000,  0.0000,  2.0000)
  25 Fe    10.668413    8.869012    1.800001    ( 0.0000,  0.0000,  0.0000)
  26 Fe     1.807904    7.157309    1.806960    ( 0.0000,  0.0000,  1.5000)
  27 Co     1.808086    8.895217   10.689064    ( 0.0000,  0.0000,  0.0000)
  28 Cr     3.612462    7.185391   10.698339    ( 0.0000,  0.0000,  2.0000)
  29 Ni     3.598277    8.905404    1.808097    ( 0.0000,  0.0000,  1.5000)
  30 Fe     5.362229    7.149643    1.778835    ( 0.0000,  0.0000,  2.1000)
  31 Fe     5.368084    8.904170   10.708750    ( 0.0000,  0.0000,  2.0000)
  32 Co     7.127640    7.124156   10.700741    ( 0.0000,  0.0000,  2.0000)
  33 Fe     7.139982    8.914904    1.783157    ( 0.0000,  0.0000,  0.0000)
  34 Co     8.884516    7.107975    1.798232    ( 0.0000,  0.0000,  2.0000)
  35 Cr     8.895410    8.880302    0.005476    ( 0.0000,  0.0000,  0.0000)
  36 Cr    10.737840    0.006469    3.587908    ( 0.0000,  0.0000,  1.5000)
  37 Cr     0.009110    1.816214    5.359506    ( 0.0000,  0.0000,  1.5000)
  38 Cr     1.833434   -0.010553    5.335488    ( 0.0000,  0.0000,  2.1000)
  39 Cr     1.814369    1.777409    3.664755    ( 0.0000,  0.0000,  1.5000)
  40 Ni     3.608002   -0.027958    3.615958    ( 0.0000,  0.0000,  2.1000)
  41 Ni     3.597397    1.774364    5.368180    ( 0.0000,  0.0000,  1.5000)
  42 Co     5.355185   -0.018813    5.365682    ( 0.0000,  0.0000,  2.1000)
  43 Cr     5.354005    1.762698    3.609396    ( 0.0000,  0.0000,  1.5000)
  44 Cr     7.096449    0.004839    3.553950    ( 0.0000,  0.0000,  0.0000)
  45 Fe     7.124574    1.817747    5.354692    ( 0.0000,  0.0000,  2.1000)
  46 Fe     8.888698   10.712332    5.289714    ( 0.0000,  0.0000,  0.0000)
  47 Co     8.931727    1.815495    3.558979    ( 0.0000,  0.0000,  1.5000)
  48 Ni    10.700248    3.599864    3.631730    ( 0.0000,  0.0000,  0.0000)
  49 Al    -0.007893    5.382698    5.388017    ( 0.0000,  0.0000,  2.0000)
  50 Fe     1.794265    3.594073    5.365264    ( 0.0000,  0.0000,  2.0000)
  51 Co     1.782020    5.398675    3.628600    ( 0.0000,  0.0000,  1.5000)
  52 Cr     3.583351    3.582086    3.661657    ( 0.0000,  0.0000,  1.5000)
  53 Fe     3.572253    5.392895    5.375354    ( 0.0000,  0.0000,  1.5000)
  54 Ni     5.361747    3.593312    5.376780    ( 0.0000,  0.0000,  2.1000)
  55 Fe     5.348633    5.403146    3.628053    ( 0.0000,  0.0000,  0.0000)
  56 Cr     7.166745    3.584809    3.633875    ( 0.0000,  0.0000,  0.0000)
  57 Ni     7.149503    5.367108    5.369102    ( 0.0000,  0.0000,  2.1000)
  58 Fe     8.930869    3.577164    5.375332    ( 0.0000,  0.0000,  0.0000)
  59 Fe     8.940702    5.382345    3.619239    ( 0.0000,  0.0000,  2.0000)
[...]
  93 Ni     7.158199    5.390858    8.905983    ( 0.0000,  0.0000,  1.5000)
  94 Ni     8.930826    3.597912    8.885374    ( 0.0000,  0.0000,  0.0000)
  95 Cr     8.935737    5.388735    7.127651    ( 0.0000,  0.0000,  0.0000)
  96 Ni    10.717929    7.165190    7.144378    ( 0.0000,  0.0000,  2.1000)
  97 Ni    10.739341    8.898756    8.943093    ( 0.0000,  0.0000,  1.5000)
  98 Co     1.793750    7.182882    8.888666    ( 0.0000,  0.0000,  1.5000)
  99 Al     1.836501    8.904825    7.123094    ( 0.0000,  0.0000,  2.1000)
 100 Co     3.587511    7.157223    7.133645    ( 0.0000,  0.0000,  2.1000)
 101 Co     3.596025    8.923803    8.905018    ( 0.0000,  0.0000,  1.5000)
 102 Co     5.369413    7.149278    8.921112    ( 0.0000,  0.0000,  2.0000)
 103 Ni     5.343776    8.916533    7.143070    ( 0.0000,  0.0000,  2.1000)
 104 Ni     7.139778    7.140400    7.139349    ( 0.0000,  0.0000,  2.1000)
 105 Ni     7.106892    8.889835    8.908727    ( 0.0000,  0.0000,  1.5000)
 106 Co     8.907419    7.146362    8.906765    ( 0.0000,  0.0000,  2.0000)
 107 Cr     8.922313    8.892279    7.115031    ( 0.0000,  0.0000,  2.0000)

Unit cell:
           periodic     x           y           z      points  spacing
  1. axis:    yes   10.722400    0.000000    0.000000    48     0.2234
  2. axis:    yes    0.000000   10.722400    0.000000    48     0.2234
  3. axis:    yes    0.000000    0.000000   10.722400    48     0.2234

  Lengths:  10.722400  10.722400  10.722400
  Angles:   90.000000  90.000000  90.000000

Effective grid spacing dv^(1/3) = 0.2234

     iter     time        total  log10-change:  magmom
                         energy  eigst   dens
iter:   1 06:54:25  -929.133634                  +135.8661
iter:   2 06:55:58  -912.220623  -0.42  -1.31    +98.9181
iter:   3 06:57:31  -887.404411  -0.85  -1.28    +70.5176
iter:   4 06:59:04  -857.383793  -1.42  -1.33    +59.7029
iter:   5 07:00:37  -855.073777  -1.81  -1.45    +53.2672
iter:   6 07:02:10  -855.868857  -1.92  -1.46    +50.6816
iter:   7 07:03:43  -857.321941  -1.68  -1.50    +49.2109
iter:   8 07:05:16  -850.799359  -1.76  -1.50    +48.5940
iter:   9 07:06:49  -863.294832  -1.59  -1.66    +48.5146
iter:  10 07:08:22  -849.317307  -1.87  -1.59    +47.8350
iter:  11 07:09:56  -851.155123  -2.19  -1.84    +48.4517
iter:  12 07:11:29  -848.936421  -2.48  -1.81    +48.7331
iter:  13 07:13:02  -849.586629  -2.45  -1.90    +49.5386
iter:  14 07:14:35  -849.653664  -2.61  -1.91    +50.5134
iter:  15 07:16:08  -851.656160  -2.45  -1.99    +51.0016
iter:  16 07:17:41  -851.077997  -2.44  -1.93    +51.9596
iter:  17 07:19:15  -851.563794  -2.50  -1.97    +52.1552
iter:  18 07:20:48  -850.583232  -2.62  -2.00    +52.8279
iter:  19 07:22:21  -850.508235  -2.59  -2.06    +53.5121
iter:  20 07:23:54  -849.754976  -3.04  -2.07    +53.9844
iter:  21 07:25:27  -850.104607  -3.11  -2.22    +54.9002
iter:  22 07:27:01  -850.095563  -3.10  -2.21    +55.2097
iter:  23 07:28:34  -850.120361c -3.27  -2.21    +56.4825
iter:  24 07:30:07  -850.396340  -3.20  -2.29    +57.3147
iter:  25 07:31:39  -850.688021  -3.14  -2.29    +57.6518
iter:  26 07:33:13  -850.582817  -3.23  -2.23    +58.5364
iter:  27 07:34:46  -850.830055  -3.17  -2.34    +59.3150
iter:  28 07:36:19  -850.986701  -3.13  -2.31    +59.8287
iter:  29 07:37:53  -850.859707  -3.38  -2.34    +60.0566
iter:  30 07:39:26  -850.863611  -3.51  -2.41    +60.5022
iter:  31 07:40:59  -850.969760  -3.48  -2.43    +60.8410
iter:  32 07:42:32  -850.919846  -3.86  -2.41    +61.1972
iter:  33 07:44:05  -851.040204  -3.72  -2.49    +61.6791
iter:  34 07:45:39  -851.062905  -4.03  -2.47    +61.8825
iter:  35 07:47:12  -851.184258  -3.67  -2.51    +62.3585
iter:  36 07:48:45  -851.399697  -3.51  -2.49    +62.4497
iter:  37 07:50:18  -851.474296  -3.35  -2.46    +62.6755
iter:  38 07:51:51  -851.391372c -3.40  -2.50    +62.7785
iter:  39 07:53:24  -851.603134  -3.29  -2.52    +62.8798
iter:  40 07:54:57  -851.368184  -3.59  -2.45    +63.1641
iter:  41 07:56:31  -851.366025  -3.80  -2.68    +63.2713
iter:  42 07:58:04  -851.348386c -4.29  -2.71    +63.4780
iter:  43 07:59:37  -851.377576c -4.40  -2.77    +63.6107
iter:  44 08:01:10  -851.507606  -3.84  -2.83    +63.9453
iter:  45 08:02:43  -851.427246  -4.23  -2.70    +63.8287
iter:  46 08:04:17  -851.465123c -4.18  -3.01    +63.9058
iter:  47 08:05:50  -851.454590c -4.37  -2.95    +63.9205
iter:  48 08:07:24  -851.479812c -4.48  -3.14    +63.9036
iter:  49 08:08:57  -851.490616c -4.82  -3.17    +63.9918
iter:  50 08:10:30  -851.511181c -4.70  -3.18    +64.0372
iter:  51 08:12:03  -851.555741c -4.29  -3.14    +64.1829
iter:  52 08:13:36  -851.595115c -4.11  -3.04    +64.3745
iter:  53 08:15:09  -851.624912c -4.25  -2.99    +64.4775
iter:  54 08:16:42  -851.629538c -4.72  -2.89    +64.4546
iter:  55 08:18:15  -851.632435c -4.98  -2.90    +64.5254
iter:  56 08:19:49  -851.731650  -3.93  -2.90    +64.5905
iter:  57 08:21:22  -851.681756  -3.93  -2.74    +64.5802
iter:  58 08:22:56  -851.680300c -3.93  -2.80    +64.4732
iter:  59 08:24:29  -851.637055c -4.30  -2.82    +64.4289
iter:  60 08:26:02  -851.649968c -4.28  -2.94    +64.3064
iter:  61 08:27:35  -851.629680c -4.76  -2.96    +64.3512
iter:  62 08:29:08  -851.637447c -4.89  -3.10    +64.3186
iter:  63 08:30:41  -851.639094c -5.07  -3.08    +64.2978
iter:  64 08:32:15  -851.646761c -4.82  -3.11    +64.2873
iter:  65 08:33:48  -851.652668c -4.85  -3.10    +64.2691
iter:  66 08:35:21  -851.660592c -4.69  -3.12    +64.2577
iter:  67 08:36:54  -851.662653c -4.56  -3.12    +64.2007
iter:  68 08:38:27  -851.674560c -4.58  -3.11    +64.1862
iter:  69 08:40:01  -851.670446c -4.67  -3.11    +64.2409
iter:  70 08:41:34  -851.672945c -4.84  -3.18    +64.2067
iter:  71 08:43:07  -851.672228c -4.98  -3.27    +64.1918
iter:  72 08:44:40  -851.677052c -5.34  -3.31    +64.1573
iter:  73 08:46:13  -851.688204c -4.95  -3.39    +64.1289
iter:  74 08:47:46  -851.687099c -5.45  -3.29    +64.1030
iter:  75 08:49:19  -851.698055c -4.93  -3.41    +64.0369
iter:  76 08:50:52  -851.699383c -5.10  -3.35    +64.0179
iter:  77 08:52:25  -851.708129c -4.96  -3.40    +63.9709
iter:  78 08:53:58  -851.708447c -5.18  -3.43    +63.9384
iter:  79 08:55:31  -851.715375c -5.09  -3.56    +63.8778
iter:  80 08:57:04  -851.716826c -5.55  -3.46    +63.8633
iter:  81 08:58:38  -851.726976c -5.09  -3.60    +63.7875
iter:  82 09:00:10  -851.735271c -5.08  -3.47    +63.7515
iter:  83 09:01:43  -851.746321c -4.87  -3.42    +63.7051
iter:  84 09:03:16  -851.754404c -4.85  -3.38    +63.6666
iter:  85 09:04:49  -851.777526c -4.22  -3.37    +63.5377
iter:  86 09:06:23  -851.799727c -4.05  -3.23    +63.4193
iter:  87 09:07:55  -851.791721c -4.54  -3.08    +63.4080
iter:  88 09:09:28  -851.790204c -4.75  -3.08    +63.4125
iter:  89 09:11:01  -851.781409c -4.99  -3.12    +63.3859
iter:  90 09:12:34  -851.771886c -4.90  -3.24    +63.3911
iter:  91 09:14:06  -851.780793c -4.46  -3.39    +63.3844
iter:  92 09:15:38  -851.774564c -4.86  -3.18    +63.3641
iter:  93 09:17:11  -851.771970c -5.05  -3.34    +63.3251
iter:  94 09:18:44  -851.769870c -5.55  -3.53    +63.3216
iter:  95 09:20:16  -851.770013c -5.87  -3.66    +63.3110
iter:  96 09:21:49  -851.771303c -5.71  -3.68    +63.2979
iter:  97 09:23:22  -851.771948c -5.68  -3.67    +63.2976
iter:  98 09:24:55  -851.770605c -5.76  -3.63    +63.2955
iter:  99 09:26:27  -851.771162c -5.79  -3.71    +63.2904
iter: 100 09:28:00  -851.772892c -5.65  -3.72    +63.2861
iter: 101 09:29:33  -851.771602c -5.83  -3.67    +63.2915
iter: 102 09:31:06  -851.770864c -6.15  -3.81    +63.2933
iter: 103 09:32:38  -851.770954c -6.33  -3.86    +63.2864
iter: 104 09:34:10  -851.771277c -6.45  -3.92    +63.2821
iter: 105 09:35:43  -851.771257c -6.79  -3.97    +63.2801
iter: 106 09:37:16  -851.771368c -6.41  -4.01c   +63.2773
iter: 107 09:38:48  -851.771855c -6.15  -4.07c   +63.2702
iter: 108 09:40:21  -851.771732c -6.31  -4.10c   +63.2706
iter: 109 09:41:54  -851.772102c -6.37  -4.13c   +63.2657
iter: 110 09:43:27  -851.772137c -6.57  -4.20c   +63.2630
iter: 111 09:44:59  -851.772162c -6.83  -4.22c   +63.2588
iter: 112 09:46:32  -851.772359c -6.89  -4.41c   +63.2546
iter: 113 09:48:04  -851.772269c -7.67c -4.41c   +63.2568

Converged after 113 iterations.

Dipole moment: (-1.822083, 13.188137, 14.226718) |e|*Ang

Total magnetic moment: (0.000000, 0.000000, 63.256798)
Local magnetic moments:
   0 Co ( 0.000000,  0.000000,  1.290262)
   1 Fe ( 0.000000,  0.000000,  2.218320)
   2 Co ( 0.000000,  0.000000,  1.464558)
   3 Co ( 0.000000,  0.000000,  1.331982)
   4 Co ( 0.000000,  0.000000,  1.170144)
   5 Ni ( 0.000000,  0.000000,  0.203729)
   6 Fe ( 0.000000,  0.000000,  1.921412)
   7 Al ( 0.000000,  0.000000, -0.019576)
   8 Fe ( 0.000000,  0.000000, -1.382319)
   9 Cr ( 0.000000,  0.000000,  0.966110)
  10 Al ( 0.000000,  0.000000, -0.017079)
  11 Co ( 0.000000,  0.000000,  1.019141)
  12 Co ( 0.000000,  0.000000,  1.106778)
  13 Fe ( 0.000000,  0.000000,  2.253835)
  14 Al ( 0.000000,  0.000000, -0.031853)
  15 Co ( 0.000000,  0.000000,  1.280534)
  16 Co ( 0.000000,  0.000000,  1.321898)
  17 Co ( 0.000000,  0.000000,  1.142232)
  18 Co ( 0.000000,  0.000000,  1.061073)
  19 Al ( 0.000000,  0.000000, -0.040800)
  20 Fe ( 0.000000,  0.000000,  2.124722)
  21 Fe ( 0.000000,  0.000000,  2.055594)
  22 Cr ( 0.000000,  0.000000, -1.319446)
  23 Al ( 0.000000,  0.000000, -0.036119)
  24 Co ( 0.000000,  0.000000,  1.191310)
  25 Fe ( 0.000000,  0.000000,  2.226260)
  26 Fe ( 0.000000,  0.000000,  2.282171)
  27 Co ( 0.000000,  0.000000,  1.564291)
  28 Cr ( 0.000000,  0.000000, -2.077859)
  29 Ni ( 0.000000,  0.000000,  0.460340)
  30 Fe ( 0.000000,  0.000000,  2.001773)
  31 Fe ( 0.000000,  0.000000,  2.181225)
  32 Co ( 0.000000,  0.000000,  1.181409)
  33 Fe ( 0.000000,  0.000000,  1.838012)
  34 Co ( 0.000000,  0.000000,  1.104576)
  35 Cr ( 0.000000,  0.000000, -1.286818)
  36 Cr ( 0.000000,  0.000000, -1.462141)
  37 Cr ( 0.000000,  0.000000, -0.577978)
  38 Cr ( 0.000000,  0.000000, -0.114180)
  39 Cr ( 0.000000,  0.000000,  0.587846)
  40 Ni ( 0.000000,  0.000000,  0.244624)
  41 Ni ( 0.000000,  0.000000,  0.148936)
  42 Co ( 0.000000,  0.000000,  0.964439)
  43 Cr ( 0.000000,  0.000000,  0.537626)
  44 Cr ( 0.000000,  0.000000, -1.408964)
  45 Fe ( 0.000000,  0.000000,  1.715250)
  46 Fe ( 0.000000,  0.000000,  2.052055)
  47 Co ( 0.000000,  0.000000,  0.456380)
  48 Ni ( 0.000000,  0.000000,  0.291821)
  49 Al ( 0.000000,  0.000000, -0.022780)
  50 Fe ( 0.000000,  0.000000,  2.027094)
  51 Co ( 0.000000,  0.000000,  0.968894)
  52 Cr ( 0.000000,  0.000000, -1.750879)
  53 Fe ( 0.000000,  0.000000,  2.224211)
  54 Ni ( 0.000000,  0.000000,  0.119833)
  55 Fe ( 0.000000,  0.000000,  2.189668)
  56 Cr ( 0.000000,  0.000000, -1.416775)
  57 Ni ( 0.000000,  0.000000,  0.143127)
  58 Fe ( 0.000000,  0.000000,  1.775504)
  59 Fe ( 0.000000,  0.000000,  1.625415)
[...]
  93 Ni ( 0.000000,  0.000000,  0.218347)
  94 Ni ( 0.000000,  0.000000,  0.169215)
  95 Cr ( 0.000000,  0.000000, -0.092791)
  96 Ni ( 0.000000,  0.000000,  0.094807)
  97 Ni ( 0.000000,  0.000000,  0.236487)
  98 Co ( 0.000000,  0.000000,  1.282154)
  99 Al ( 0.000000,  0.000000, -0.015131)
 100 Co ( 0.000000,  0.000000,  1.280868)
 101 Co ( 0.000000,  0.000000,  1.325535)
 102 Co ( 0.000000,  0.000000,  1.214151)
 103 Ni ( 0.000000,  0.000000,  0.350393)
 104 Ni ( 0.000000,  0.000000,  0.275357)
 105 Ni ( 0.000000,  0.000000,  0.158928)
 106 Co ( 0.000000,  0.000000,  0.848560)
 107 Cr ( 0.000000,  0.000000, -0.789797)

Energy contributions relative to reference atoms: (reference = -3548577.034362)

Kinetic:       +192.804809
Potential:     -222.948877
External:        +0.000000
XC:            -855.327837
Entropy (-ST):   -4.511458
Local:          +35.955365
Free energy:   -854.027998
Extrapolated:  -851.772269

Spin contamination: 27.611084 electrons
Showing only first 2 kpts
                      Up                     Down
 Kpt  Band  Eigenvalues  Occupancy  Eigenvalues  Occupancy
  0   488      9.47729    0.99458     10.37154    0.02341
  0   489      9.49847    0.99331     10.38255    0.02102
  0   490      9.50447    0.99290     10.38807    0.01992
  0   491      9.52041    0.99168     10.39952    0.01780

  1   488      9.47300    0.99480     10.38386    0.02076
  1   489      9.47825    0.99453     10.38754    0.02002
  1   490      9.49172    0.99374     10.39579    0.01846
  1   491      9.51125    0.99240     10.40441    0.01697

Fermi level: 9.99847

No gap

Forces in eV/Ang:
  0 Co    0.04677    0.05658   -0.19167
  1 Fe    0.10503   -0.02269   -0.33151
  2 Co   -0.15824   -0.48780   -0.10361
  3 Co    0.07515   -0.15875    0.37154
  4 Co   -0.44259   -0.13743    0.29646
  5 Ni   -0.41710    0.09127   -0.23312
  6 Fe   -0.18057   -0.52348    0.09032
  7 Al   -0.76931    0.80228    0.46571
  8 Fe    0.53797    0.14693   -0.40714
  9 Cr    0.06424    0.52467   -0.13167
 10 Al    0.26742   -0.05183   -0.79711
 11 Co   -0.01942   -0.11231   -0.66403
 12 Co    0.16991   -0.42446   -0.00433
 13 Fe    0.15295   -0.03761   -0.21153
 14 Al    0.00742    0.75476   -1.29410
 15 Co    0.14365   -0.29189    0.22679
 16 Co   -0.29392    0.29388    0.30519
 17 Co   -0.19718   -0.38470    0.03462
 18 Co    0.00468    0.26403    0.17125
 19 Al    0.36756   -1.16012   -0.00830
 20 Fe    0.08075   -0.44621    0.00519
 21 Fe   -0.16440   -0.53143    0.04777
 22 Cr    0.27150   -0.74802    0.12878
 23 Al   -0.26551    0.45640   -0.52984
 24 Co    0.49187    0.20440    0.14349
 25 Fe    0.57925    0.09143   -0.23406
 26 Fe   -0.02780    0.03883   -0.40438
 27 Co   -0.01983    0.22959    0.23958
 28 Cr   -1.11922    0.48659   -0.09389
 29 Ni   -0.41589    0.42489   -0.15456
 30 Fe   -0.26629    0.25762    0.03127
 31 Fe   -0.02810    0.13934    0.02753
 32 Co    0.18302    0.61331    0.06972
 33 Fe    0.04001    0.06093   -0.16233
 34 Co    0.35933    0.36470   -0.04092
 35 Cr   -0.12102   -0.55018   -0.42543
 36 Cr    0.54178   -0.41617    0.72858
 37 Cr    0.16058    0.10750   -0.18726
 38 Cr   -0.50389    0.64924   -0.14115
 39 Cr    0.03908   -0.99902   -0.06428
 40 Ni   -0.08606    0.22169   -0.35696
 41 Ni   -0.05737   -0.18265   -0.08783
 42 Co    0.12657   -0.00244   -0.00538
 43 Cr   -0.22088    0.11429   -0.09811
 44 Cr   -0.30945    0.04913    0.73413
 45 Fe    0.11876   -0.15705   -0.17174
 46 Fe    0.41659   -0.38514    0.01402
 47 Co    0.14693    0.23597    0.39735
 48 Ni    0.08894   -0.23598   -0.34701
 49 Al    0.87555   -0.51636    0.18722
 50 Fe   -0.09390   -0.38669   -0.13654
 51 Co    0.32213    0.02474   -0.42435
 52 Cr    0.70784    0.11885    0.06252
 53 Fe   -0.11035    0.32411   -0.24762
 54 Ni    0.20228    0.08809   -0.19712
 55 Fe   -0.33804   -0.98072   -0.52376
 56 Cr   -0.37165    0.05301    0.04891
 57 Ni   -0.05965   -0.00923   -0.09780
 58 Fe   -0.23509   -0.05716   -0.37251
 59 Fe   -0.30051   -0.41018   -0.21613
[...]
 93 Ni    0.01580   -0.15921   -0.17662
 94 Ni    0.11131   -0.16590    0.44088
 95 Cr   -0.44329    0.07813    0.74144
 96 Ni   -0.33018   -0.00219    0.19385
 97 Ni   -0.30529    0.21420    0.06339
 98 Co    0.21190   -0.65176    0.69531
 99 Al   -0.42801   -0.49788    0.62620
100 Co    0.06153   -0.02647    0.19778
101 Co    0.28181   -0.05041    0.62984
102 Co   -0.25212    0.08231   -0.28913
103 Ni   -0.11506    0.07161    0.01715
104 Ni    0.12827    0.11965    0.11411
105 Ni    0.42524    0.24779    0.08856
106 Co    0.19766    0.31032   -0.06027
107 Cr    0.10648    0.08318    0.04678

Date: Fri Apr 14 09:48:24 2023