User:   c.zeng@d0046
Date:   Sat Apr 15 22:27:50 2023
Arch:   x86_64
Pid:    133324
CWD:    /home/c.zeng/projects/hea-corrosion/hea-mlp/data-curation/bulk-mcmc/dft-jobs/89
Python: 3.8.1
gpaw:   /home/c.zeng/usr/installs/gpaw/source/gpaw-22.8.0/gpaw
_gpaw:  /home/c.zeng/usr/installs/gpaw/source/gpaw-22.8.0/
        _gpaw.cpython-38-x86_64-linux-gnu.so
ase:    /home/c.zeng/.local/lib/python3.8/site-packages/ase-3.22.1-py3.8.egg/ase (version 3.22.1)
numpy:  /home/c.zeng/.local/lib/python3.8/site-packages/numpy (version 1.24.2)
scipy:  /home/c.zeng/.local/lib/python3.8/site-packages/scipy (version 1.10.1)
units:  Angstrom and eV
cores: 30
OpenMP: False
OMP_NUM_THREADS: 1

Input parameters:
  convergence: {energy: 0.0001}
  kpts: [2 2 2]
  maxiter: 666
  mode: {ecut: 350.0,
         name: pw}
  occupations: {fixmagmom: False,
                name: fermi-dirac,
                width: 0.1}
  spinpol: True
  xc: PBE

System changes: positions, numbers, cell, pbc, initial_charges, initial_magmoms

Initialize ...

species:
  Ni:
    name: Nickel
    id: 0d9f38a9d6e76a2886f07bb4381f212b
    Z: 28.0
    valence: 16
    core: 12
    charge: 0.0
    file: /home/c.zeng/usr/data/gpaw-setups-0.9.20000/Ni.PBE.gz
    compensation charges: {type: gauss,
                           rc: 0.36,
                           lmax: 2}
    cutoffs: {filter: 2.14,
              core: 1.98}
    valence states:
      #              energy  rcut
      - 4s(2.00)    -5.642   1.164
      - 3p(6.00)   -71.394   1.207
      - 4p(0.00)    -1.226   1.207
      - 3d(8.00)    -8.875   1.138
      -  s          21.570   1.164
      -  d          18.337   1.138

    # Using partial waves for Ni as LCAO basis

  Cr:
    name: Chromium
    id: 33f258bda2ca9f93018e70263a35547b
    Z: 24.0
    valence: 6
    core: 18
    charge: 0.0
    file: /home/c.zeng/usr/data/gpaw-setups-0.9.20000/Cr.PBE.gz
    compensation charges: {type: gauss,
                           rc: 0.35,
                           lmax: 2}
    cutoffs: {filter: 2.14,
              core: 3.04}
    valence states:
      #              energy  rcut
      - 4s(1.00)    -4.007   1.164
      - 4p(0.00)    -0.989   1.217
      - 3d(5.00)    -2.913   1.111
      -  s          23.205   1.164
      -  p          26.223   1.217
      -  d          24.299   1.111

[...]

  Fe:
    name: Iron
    id: 37abbd8d6c3c35915a9b583b742da910
    Z: 26.0
    valence: 8
    core: 18
    charge: 0.0
    file: /home/c.zeng/usr/data/gpaw-setups-0.9.20000/Fe.PBE.gz
    compensation charges: {type: gauss,
                           rc: 0.33,
                           lmax: 2}
    cutoffs: {filter: 2.06,
              core: 2.67}
    valence states:
      #              energy  rcut
      - 4s(2.00)    -5.291   1.164
      - 4p(0.00)    -1.326   1.058
      - 3d(6.00)    -7.505   1.058
      -  s          21.920   1.164
      -  p          25.885   1.058
      -  d          19.706   1.058

[...]

  Co:
    name: Cobalt
    id: 339d20d5b0b93d2de9531a1bee871d91
    Z: 27.0
    valence: 9
    core: 18
    charge: 0.0
    file: /home/c.zeng/usr/data/gpaw-setups-0.9.20000/Co.PBE.gz
    compensation charges: {type: gauss,
                           rc: 0.32,
                           lmax: 2}
    cutoffs: {filter: 1.87,
              core: 2.55}
    valence states:
      #              energy  rcut
      - 4s(2.00)    -5.469   1.005
      - 4p(0.00)    -1.277   1.058
      - 3d(7.00)    -8.205   1.005
      -  s          21.742   1.005
      -  p          25.934   1.058
      -  d          19.007   1.005

[...]

  Al:
    name: Aluminium
    id: 0292cae29f5d6237e50f6abdd43a7bdd
    Z: 13.0
    valence: 3
    core: 10
    charge: 0.0
    file: /home/c.zeng/usr/data/gpaw-setups-0.9.20000/Al.PBE.gz
    compensation charges: {type: gauss,
                           rc: 0.34,
                           lmax: 2}
    cutoffs: {filter: 1.91,
              core: 2.36}
    valence states:
      #              energy  rcut
      - 3s(2.00)    -7.753   1.085
      - 3p(1.00)    -2.712   1.085
      -  s          19.459   1.085
      -  p          24.499   1.085
      -  d           0.000   1.085

    # Using partial waves for Al as LCAO basis

Reference energy: -3699400.456887  # eV

Spin-polarized calculation.
Magnetic moment: 143.500000

Convergence criteria:
 Maximum [total energy] change in last 3 cyles: 0.0001 eV / electron
 Maximum integral of absolute [dens]ity change: 0.0001 electrons / valence electron
 Maximum integral of absolute [eigenst]ate change: 4e-08 eV^2 / valence electron
 Maximum number of scf [iter]ations: 666
 (Square brackets indicate name in SCF output, whereas a 'c' in
 the SCF output indicates the quantity has converged.)

Symmetries present (total): 1

  ( 1  0  0)
  ( 0  1  0)
  ( 0  0  1)

8 k-points: 2 x 2 x 2 Monkhorst-Pack grid
4 k-points in the irreducible part of the Brillouin zone
       k-points in crystal coordinates                weights
   0:     0.25000000   -0.25000000   -0.25000000          2/8
   1:     0.25000000   -0.25000000    0.25000000          2/8
   2:     0.25000000    0.25000000   -0.25000000          2/8
   3:     0.25000000    0.25000000    0.25000000          2/8

Wave functions: Plane wave expansion
  Cutoff energy: 350.000 eV
  Number of coefficients (min, max): 18052, 18052
  Pulay-stress correction: 0.000000 eV/Ang^3 (de/decut=0.000000)
  Using FFTW library
  ScaLapack parameters: grid=1x1, blocksize=None
  Wavefunction extrapolation:
    Improved wavefunction reuse through dual PAW basis

Occupation numbers: Fermi-Dirac:
  width: 0.1000  # eV

Eigensolver
   Davidson(niter=2)

Densities:
  Coarse grid: 48*48*48 grid
  Fine grid: 96*96*96 grid
  Total Charge: 0.000000

Density mixing:
  Method: difference
  Backend: pulay
  Linear mixing parameter: 0.05
  old densities: 5
  Damping of long wavelength oscillations: 50

Hamiltonian:
  XC and Coulomb potentials evaluated on a 96*96*96 grid
  Using the PBE Exchange-Correlation functional
  External potential:
    NoExternalPotential

XC parameters: PBE with 2 nearest neighbor stencil

Total number of cores used: 30
Parallelization over k-points: 2
Domain decomposition: 5 x 3 x 1

Number of atoms: 108
Number of atomic orbitals: 1025
Number of bands in calculation: 703
Number of valence electrons: 1020
Bands to converge: occupied

... initialized

Initializing position-dependent things.

Density initialized from atomic densities
Creating initial wave functions:
  703 bands from LCAO basis set

        Ni------------------------.
       /|  Co                Co   |
      Cr|   Cr         Ni         |
     / Fe      Fe       Al        |
    /   CCo      Cr       Fe      |
   /e   | CoNi     CoAl    NiNi   |
  /  FeCr  NiCo     NiCrCo        |
 *    FeFe  FeCoNi     CoAl       |
 |     CoFeCr  CoFe Ni  CrFeCr    |
 | Fe   CrNiCrCo NiNiCrFe  Ni     |
 |   CoCr  NiAlCr   CrCrNi   Fe   |
 |    FeCr  FeFeCoCr CoFeNi   Cr  |
 |     NiFeFe  Cr CrCr  CoFeFe    |
 |      .-CoNiCo-FeCrNiCo--CoCr---.
 |   NiCo    CoAl   NiNiFe       /
 |    / Ni    CrFe       Ni     /
 |   /            Ni           /
 |Cr/      Co       Co        /
 |/            Cr           /
 *----------------Ni-------*

Positions:
   0 Ni     0.005316   -0.016350   10.639749    ( 0.0000,  0.0000,  0.0000)
   1 Cr    10.672340    1.801276    1.786848    ( 0.0000,  0.0000,  0.0000)
   2 Fe     1.795727   10.625972    1.782259    ( 0.0000,  0.0000,  0.0000)
   3 Cr     1.780787    1.796175   10.644605    ( 0.0000,  0.0000,  2.1000)
   4 Fe     3.523539   -0.014558    0.017268    ( 0.0000,  0.0000,  2.0000)
   5 Co     3.522568    1.781672    1.746648    ( 0.0000,  0.0000,  0.0000)
   6 Co     5.320952   10.642342    1.763136    ( 0.0000,  0.0000,  1.5000)
   7 Cr     5.342082    1.828767    0.007462    ( 0.0000,  0.0000,  2.0000)
   8 Ni     7.144895    0.019195    0.012033    ( 0.0000,  0.0000,  0.0000)
   9 Co     7.143497    1.798064    1.764939    ( 0.0000,  0.0000,  2.1000)
  10 Cr     8.891362   10.651627    1.788353    ( 0.0000,  0.0000,  1.5000)
  11 Co     8.888779    1.804777   10.642609    ( 0.0000,  0.0000,  2.0000)
  12 Fe     0.008694    3.581540   10.650250    ( 0.0000,  0.0000,  2.1000)
  13 Ni     0.018979    5.332745    1.789751    ( 0.0000,  0.0000,  2.1000)
  14 Ni     1.778129    3.600941    1.760019    ( 0.0000,  0.0000,  2.0000)
  15 Co     1.790423    5.343267   -0.017766    ( 0.0000,  0.0000,  2.0000)
  16 Ni     3.542802    3.589864   -0.015614    ( 0.0000,  0.0000,  2.0000)
  17 Co     3.526837    5.358538    1.765793    ( 0.0000,  0.0000,  2.0000)
  18 Fe     5.336650    3.606501    1.755815    ( 0.0000,  0.0000,  0.0000)
  19 Cr     5.300399    5.323642   -0.012797    ( 0.0000,  0.0000,  2.1000)
  20 Al     7.122858    3.584816   10.659524    ( 0.0000,  0.0000,  2.0000)
  21 Ni     7.120500    5.315168    1.805502    ( 0.0000,  0.0000,  1.5000)
  22 Ni     8.892034    3.590952    1.773146    ( 0.0000,  0.0000,  2.1000)
  23 Fe     8.925340    5.301487   -0.003100    ( 0.0000,  0.0000,  0.0000)
  24 Cr     0.023055    7.096680   -0.007939    ( 0.0000,  0.0000,  0.0000)
  25 Ni     0.019141    8.871245    1.787510    ( 0.0000,  0.0000,  1.5000)
  26 Co     1.784372    7.104567    1.776443    ( 0.0000,  0.0000,  2.0000)
  27 Co     1.779944    8.867628   10.659406    ( 0.0000,  0.0000,  1.5000)
  28 Cr     3.547785    7.097897    0.009215    ( 0.0000,  0.0000,  2.1000)
  29 Cr     3.541137    8.858109    1.788225    ( 0.0000,  0.0000,  2.1000)
  30 Cr     5.295105    7.099391    1.787894    ( 0.0000,  0.0000,  2.1000)
  31 Ni     5.303685    8.873828    0.029898    ( 0.0000,  0.0000,  0.0000)
  32 Ni     7.106883    7.088719   10.645159    ( 0.0000,  0.0000,  0.0000)
  33 Co     7.111055    8.901137    1.809472    ( 0.0000,  0.0000,  0.0000)
  34 Co     8.939384    7.093404    1.799238    ( 0.0000,  0.0000,  0.0000)
  35 Co     8.919972    8.915853   10.664881    ( 0.0000,  0.0000,  0.0000)
  36 Cr    10.679704   10.658873    3.584517    ( 0.0000,  0.0000,  2.0000)
  37 Fe    10.670921    1.796367    5.340289    ( 0.0000,  0.0000,  2.1000)
  38 Fe     1.770350   10.649001    5.343491    ( 0.0000,  0.0000,  0.0000)
  39 Co     1.791800    1.784671    3.584891    ( 0.0000,  0.0000,  2.0000)
  40 Ni     3.529718   10.626388    3.565234    ( 0.0000,  0.0000,  2.1000)
  41 Fe     3.535716    1.793465    5.367289    ( 0.0000,  0.0000,  1.5000)
  42 Co     5.311497    0.001574    5.366254    ( 0.0000,  0.0000,  1.5000)
  43 Al     5.332627    1.768055    3.580793    ( 0.0000,  0.0000,  0.0000)
  44 Ni     7.136966   10.673941    3.563804    ( 0.0000,  0.0000,  2.0000)
  45 Cr     7.136774    1.794126    5.358944    ( 0.0000,  0.0000,  2.1000)
  46 Co     8.925938   10.673621    5.347589    ( 0.0000,  0.0000,  2.0000)
  47 Fe     8.883827    1.779111    3.582404    ( 0.0000,  0.0000,  1.5000)
  48 Cr    -0.010038    3.572341    3.580996    ( 0.0000,  0.0000,  2.0000)
  49 Co    10.685573    5.328935    5.338550    ( 0.0000,  0.0000,  2.0000)
  50 Cr     1.784180    3.582949    5.348357    ( 0.0000,  0.0000,  1.5000)
  51 Fe     1.766326    5.339510    3.565255    ( 0.0000,  0.0000,  1.5000)
[...]
iter:  65 00:11:55  -870.464213c -5.09  -3.04    +62.9405
iter:  66 00:13:29  -870.470518c -5.24  -3.06    +62.9336
iter:  67 00:15:03  -870.489572c -4.59  -3.08    +62.9598
iter:  68 00:16:37  -870.485257c -4.56  -3.00    +62.9742
iter:  69 00:18:11  -870.485559c -4.59  -3.03    +62.9202
iter:  70 00:19:45  -870.482127c -4.60  -3.03    +62.8855
iter:  71 00:21:18  -870.479904c -4.69  -3.09    +62.9215
iter:  72 00:22:52  -870.471995c -5.24  -3.12    +62.9689
iter:  73 00:24:26  -870.473139c -5.39  -3.24    +62.9551
iter:  74 00:26:00  -870.472695c -5.50  -3.26    +62.9594
iter:  75 00:27:34  -870.475308c -5.62  -3.28    +62.9887
iter:  76 00:29:07  -870.478832c -5.30  -3.28    +63.0034
iter:  77 00:30:41  -870.484405c -4.86  -3.27    +62.9945
iter:  78 00:32:16  -870.482336c -4.95  -3.18    +62.9793
iter:  79 00:33:50  -870.485409c -5.02  -3.26    +63.0338
iter:  80 00:35:24  -870.482407c -5.02  -3.29    +63.0618
iter:  81 00:36:58  -870.479379c -5.47  -3.32    +63.0558
iter:  82 00:38:32  -870.480186c -5.77  -3.43    +63.0533
iter:  83 00:40:06  -870.481600c -6.02  -3.49    +63.0653
iter:  84 00:41:40  -870.482690c -5.62  -3.50    +63.0827
iter:  85 00:43:15  -870.483822c -5.85  -3.47    +63.0820
iter:  86 00:44:49  -870.490711c -5.14  -3.56    +63.0867
iter:  87 00:46:23  -870.489546c -5.20  -3.38    +63.1055
iter:  88 00:47:57  -870.488856c -5.34  -3.47    +63.1354
iter:  89 00:49:31  -870.487900c -5.52  -3.57    +63.1185
iter:  90 00:51:05  -870.489468c -5.66  -3.67    +63.1226
iter:  91 00:52:39  -870.489573c -6.16  -3.68    +63.1464
iter:  92 00:54:13  -870.492122c -5.82  -3.87    +63.1787
iter:  93 00:55:47  -870.483034c -4.89  -3.87    +63.0647
iter:  94 00:57:21  -870.468994c -3.98  -3.92    +62.7603
iter:  95 00:58:55  -870.469955c -5.06  -3.63    +62.7437
iter:  96 01:00:29  -870.471159c -5.65  -3.63    +62.7406
iter:  97 01:02:03  -870.470900c -5.81  -3.64    +62.7227
iter:  98 01:03:37  -870.469997c -5.98  -3.63    +62.7192
iter:  99 01:05:11  -870.473252c -5.16  -3.61    +62.7175
iter: 100 01:06:45  -870.470502c -5.26  -3.42    +62.7213
iter: 101 01:08:19  -870.469253c -5.68  -3.56    +62.7733
iter: 102 01:09:54  -870.469739c -6.02  -3.68    +62.7965
iter: 103 01:11:28  -870.470353c -6.14  -3.79    +62.8203
iter: 104 01:13:02  -870.471257c -6.18  -3.83    +62.8460
iter: 105 01:14:37  -870.471312c -6.19  -3.83    +62.8591
iter: 106 01:16:11  -870.472407c -6.05  -3.80    +62.8736
iter: 107 01:17:45  -870.472635c -6.23  -3.83    +62.8763
iter: 108 01:19:20  -870.473032c -6.04  -3.90    +62.8985
iter: 109 01:20:54  -870.473227c -6.35  -3.88    +62.9024
iter: 110 01:22:29  -870.473961c -6.27  -3.93    +62.9235
iter: 111 01:24:04  -870.474873c -6.31  -4.01c   +62.9361
iter: 112 01:25:38  -870.474499c -7.11  -3.97    +62.9323
iter: 113 01:27:13  -870.474775c -6.47  -4.06c   +62.9126
iter: 114 01:28:47  -870.475233c -6.09  -4.07c   +62.9708
iter: 115 01:30:21  -870.476205c -6.18  -4.02c   +63.0037
iter: 116 01:31:56  -870.475950c -6.59  -4.04c   +62.9773
iter: 117 01:33:30  -870.476904c -6.17  -4.05c   +62.9970
iter: 118 01:35:04  -870.477602c -6.24  -4.14c   +63.0017
iter: 119 01:36:39  -870.477236c -6.66  -4.05c   +62.9958
iter: 120 01:38:13  -870.478170c -6.32  -4.52c   +62.9877
iter: 121 01:39:47  -870.477405c -6.38  -4.51c   +63.0144
iter: 122 01:41:22  -870.477433c -6.44  -4.43c   +63.0493
iter: 123 01:42:56  -870.478470c -6.32  -4.38c   +63.0340
iter: 124 01:44:30  -870.476074c -5.46  -4.46c   +63.0870
iter: 125 01:46:04  -870.474833c -5.45  -4.11c   +63.1335
iter: 126 01:47:39  -870.471420c -4.69  -3.89    +63.2624
iter: 127 01:49:13  -870.473227c -5.70  -3.58    +63.2008
iter: 128 01:50:47  -870.473887c -6.09  -3.70    +63.1848
iter: 129 01:52:21  -870.474539c -6.20  -3.74    +63.1810
iter: 130 01:53:56  -870.474184c -6.27  -3.79    +63.1814
iter: 131 01:55:30  -870.475541c -5.98  -3.74    +63.1787
iter: 132 01:57:04  -870.477908c -5.57  -3.79    +63.1690
iter: 133 01:58:38  -870.477482c -5.48  -3.58    +63.1780
iter: 134 02:00:12  -870.477151c -5.47  -3.63    +63.1617
iter: 135 02:01:47  -870.477584c -5.84  -3.75    +63.1536
iter: 136 02:03:21  -870.478072c -5.90  -3.99    +63.1372
iter: 137 02:04:55  -870.478947c -6.14  -4.35c   +63.1355
iter: 138 02:06:31  -870.479154c -6.51  -4.33c   +63.1352
iter: 139 02:08:07  -870.480416c -6.09  -4.41c   +63.1383
iter: 140 02:09:43  -870.478379c -6.03  -4.35c   +63.1226
iter: 141 02:11:19  -870.470202c -4.40  -4.49c   +63.0066
iter: 142 02:12:54  -870.467559c -4.48  -3.87    +62.8928
iter: 143 02:14:29  -870.468017c -5.44  -3.67    +62.8780
iter: 144 02:16:04  -870.468195c -5.77  -3.67    +62.8471
iter: 145 02:17:39  -870.468440c -5.71  -3.69    +62.8146
iter: 146 02:19:15  -870.468307c -5.66  -3.73    +62.7912
iter: 147 02:20:50  -870.469487c -5.32  -3.72    +62.8088
iter: 148 02:22:25  -870.471378c -5.23  -3.58    +62.8046
iter: 149 02:24:00  -870.468035c -5.71  -3.50    +62.8445
iter: 150 02:25:35  -870.468601c -5.95  -3.88    +62.8778
iter: 151 02:27:10  -870.468451c -5.91  -3.85    +62.8807
iter: 152 02:28:45  -870.468642c -6.20  -3.87    +62.8916
iter: 153 02:30:21  -870.468813c -6.13  -4.01c   +62.9065
iter: 154 02:31:56  -870.469016c -6.32  -3.96    +62.9102
iter: 155 02:33:31  -870.469341c -6.21  -4.04c   +62.9195
iter: 156 02:35:06  -870.469310c -6.33  -4.08c   +62.9185
iter: 157 02:36:41  -870.469602c -6.34  -4.06c   +62.9392
iter: 158 02:38:17  -870.469767c -6.68  -4.33c   +62.9437
iter: 159 02:39:52  -870.470040c -6.78  -4.34c   +62.9462
iter: 160 02:41:27  -870.470362c -6.61  -4.42c   +62.9598
iter: 161 02:43:02  -870.470127c -7.37  -4.51c   +62.9513
iter: 162 02:44:37  -870.469429c -6.31  -4.63c   +62.9234
iter: 163 02:46:12  -870.470232c -6.47  -4.50c   +62.9522
iter: 164 02:47:48  -870.469399c -6.38  -4.62c   +62.9250
iter: 165 02:49:23  -870.469067c -6.69  -4.54c   +62.9154
iter: 166 02:50:58  -870.469668c -6.65  -4.47c   +62.9373
iter: 167 02:52:34  -870.469187c -6.72  -4.62c   +62.9211
iter: 168 02:54:09  -870.468167c -5.85  -4.48c   +62.8914
iter: 169 02:55:45  -870.467757c -6.09  -4.20c   +62.8840
iter: 170 02:57:20  -870.466401c -4.91  -4.08c   +62.8520
iter: 171 02:58:55  -870.466424c -5.52  -3.77    +62.8629
iter: 172 03:00:30  -870.466559c -6.32  -3.73    +62.8820
iter: 173 03:02:06  -870.466841c -6.32  -3.75    +62.9086
iter: 174 03:03:41  -870.466972c -6.50  -3.77    +62.9301
iter: 175 03:05:16  -870.467275c -5.52  -3.79    +63.0019
iter: 176 03:06:51  -870.468840c -5.24  -3.71    +62.9493
iter: 177 03:08:26  -870.467268c -5.50  -3.55    +63.0365
iter: 178 03:10:02  -870.467350c -5.92  -3.77    +63.0516
iter: 179 03:11:37  -870.468063c -5.85  -4.05c   +63.0730
iter: 180 03:13:12  -870.467776c -6.19  -3.91    +63.0756
iter: 181 03:14:47  -870.468022c -6.28  -4.25c   +63.0873
iter: 182 03:16:22  -870.468313c -6.44  -4.18c   +63.0961
iter: 183 03:17:58  -870.468419c -6.64  -4.24c   +63.1067
iter: 184 03:19:33  -870.468617c -6.55  -4.38c   +63.1150
iter: 185 03:21:08  -870.468590c -7.11  -4.26c   +63.1137
iter: 186 03:22:43  -870.468833c -6.71  -4.62c   +63.1256
iter: 187 03:24:18  -870.468512c -6.66  -4.47c   +63.1077
iter: 188 03:25:53  -870.468006c -6.42  -4.51c   +63.0860
iter: 189 03:27:28  -870.468462c -6.78  -4.48c   +63.1055
iter: 190 03:29:03  -870.467752c -6.30  -4.52c   +63.0735
iter: 191 03:30:38  -870.466890c -5.78  -4.43c   +63.0373
iter: 192 03:32:13  -870.465500c -5.07  -4.20c   +62.9799
iter: 193 03:33:48  -870.465854c -6.28  -3.91    +63.0087
iter: 194 03:35:23  -870.466069c -6.51  -3.96    +63.0394
iter: 195 03:36:58  -870.466390c -6.22  -4.01c   +63.0801
iter: 196 03:38:34  -870.467133c -5.65  -4.07c   +63.1530
iter: 197 03:40:08  -870.467246c -5.75  -3.98    +63.0947
iter: 198 03:41:43  -870.467286c -5.81  -3.87    +63.1514
iter: 199 03:43:18  -870.467205c -6.38  -4.09c   +63.1578
iter: 200 03:44:53  -870.467481c -6.62  -4.31c   +63.1644
iter: 201 03:46:28  -870.467497c -6.72  -4.25c   +63.1707
iter: 202 03:48:03  -870.467590c -6.70  -4.26c   +63.1777
iter: 203 03:49:38  -870.467707c -6.76  -4.40c   +63.1814
iter: 204 03:51:13  -870.467871c -6.75  -4.32c   +63.1908
iter: 205 03:52:48  -870.468002c -6.92  -4.37c   +63.1941
iter: 206 03:54:23  -870.468053c -6.95  -4.42c   +63.2018
iter: 207 03:55:58  -870.468279c -6.87  -4.52c   +63.2081
iter: 208 03:57:33  -870.467648c -6.24  -4.58c   +63.1811
iter: 209 03:59:08  -870.465893c -4.84  -4.64c   +63.0569
iter: 210 04:00:43  -870.465803c -5.52  -4.03c   +63.0426
iter: 211 04:02:19  -870.465787c -5.96  -3.96    +63.0462
iter: 212 04:03:54  -870.465851c -6.50  -3.92    +63.0611
iter: 213 04:05:30  -870.466047c -6.07  -3.93    +63.1213
iter: 214 04:07:06  -870.466457c -5.72  -3.93    +63.2032
iter: 215 04:08:42  -870.467740c -5.64  -3.89    +63.2458
iter: 216 04:10:18  -870.467325c -5.46  -3.70    +63.2145
iter: 217 04:11:54  -870.466226c -6.05  -3.72    +63.2528
iter: 218 04:13:30  -870.466518c -6.32  -4.13c   +63.2705
iter: 219 04:15:06  -870.466397c -6.69  -4.17c   +63.2768
iter: 220 04:16:42  -870.466603c -6.47  -4.25c   +63.2909
iter: 221 04:18:17  -870.466491c -6.75  -4.23c   +63.2939
iter: 222 04:19:53  -870.466610c -6.82  -4.30c   +63.2993
iter: 223 04:21:29  -870.466598c -6.80  -4.36c   +63.3069
iter: 224 04:23:04  -870.466620c -7.28  -4.32c   +63.3082
iter: 225 04:24:40  -870.466680c -6.98  -4.62c   +63.3219
iter: 226 04:26:15  -870.466653c -7.81c -4.49c   +63.3161

Converged after 226 iterations.

Dipole moment: (-10.449646, 7.922954, 8.586226) |e|*Ang

Total magnetic moment: (0.000000, 0.000000, 63.316098)
Local magnetic moments:
   0 Ni ( 0.000000,  0.000000,  0.229652)
   1 Cr ( 0.000000,  0.000000, -0.498723)
   2 Fe ( 0.000000,  0.000000,  2.220390)
   3 Cr ( 0.000000,  0.000000, -0.575675)
   4 Fe ( 0.000000,  0.000000,  1.967824)
   5 Co ( 0.000000,  0.000000,  1.135873)
   6 Co ( 0.000000,  0.000000,  1.195282)
   7 Cr ( 0.000000,  0.000000, -1.757501)
   8 Ni ( 0.000000,  0.000000,  0.303177)
   9 Co ( 0.000000,  0.000000,  1.257486)
  10 Cr ( 0.000000,  0.000000, -0.109085)
  11 Co ( 0.000000,  0.000000,  0.856426)
  12 Fe ( 0.000000,  0.000000,  1.990188)
  13 Ni ( 0.000000,  0.000000,  0.410554)
  14 Ni ( 0.000000,  0.000000,  0.228779)
  15 Co ( 0.000000,  0.000000,  1.297928)
  16 Ni ( 0.000000,  0.000000,  0.158112)
  17 Co ( 0.000000,  0.000000,  0.695905)
  18 Fe ( 0.000000,  0.000000,  1.942338)
  19 Cr ( 0.000000,  0.000000,  0.493765)
  20 Al ( 0.000000,  0.000000, -0.022003)
  21 Ni ( 0.000000,  0.000000,  0.229738)
  22 Ni ( 0.000000,  0.000000,  0.248247)
  23 Fe ( 0.000000,  0.000000,  2.108244)
  24 Cr ( 0.000000,  0.000000, -1.918288)
  25 Ni ( 0.000000,  0.000000,  0.352057)
  26 Co ( 0.000000,  0.000000,  1.103895)
  27 Co ( 0.000000,  0.000000,  1.052320)
  28 Cr ( 0.000000,  0.000000, -1.051179)
  29 Cr ( 0.000000,  0.000000, -0.708213)
  30 Cr ( 0.000000,  0.000000,  0.109956)
  31 Ni ( 0.000000,  0.000000,  0.205185)
  32 Ni ( 0.000000,  0.000000,  0.214283)
  33 Co ( 0.000000,  0.000000,  1.233076)
  34 Co ( 0.000000,  0.000000,  1.325147)
  35 Co ( 0.000000,  0.000000,  1.259735)
  36 Cr ( 0.000000,  0.000000, -1.530110)
  37 Fe ( 0.000000,  0.000000,  2.043012)
  38 Fe ( 0.000000,  0.000000,  2.119035)
  39 Co ( 0.000000,  0.000000,  1.012278)
  40 Ni ( 0.000000,  0.000000,  0.286891)
  41 Fe ( 0.000000,  0.000000,  1.891943)
  42 Co ( 0.000000,  0.000000,  0.728617)
  43 Al ( 0.000000,  0.000000, -0.025460)
  44 Ni ( 0.000000,  0.000000,  0.204887)
  45 Cr ( 0.000000,  0.000000,  0.589908)
  46 Co ( 0.000000,  0.000000,  1.021834)
  47 Fe ( 0.000000,  0.000000,  2.023018)
  48 Cr ( 0.000000,  0.000000, -1.490770)
  49 Co ( 0.000000,  0.000000,  1.178125)
  50 Cr ( 0.000000,  0.000000, -1.018998)
  51 Fe ( 0.000000,  0.000000,  2.213891)
  52 Ni ( 0.000000,  0.000000,  0.229155)
  53 Al ( 0.000000,  0.000000, -0.029507)
  54 Co ( 0.000000,  0.000000,  0.387494)
  55 Cr ( 0.000000,  0.000000, -1.139138)
  56 Ni ( 0.000000,  0.000000,  0.219725)
  57 Cr ( 0.000000,  0.000000, -1.367804)
  58 Ni ( 0.000000,  0.000000,  0.176333)
  59 Fe ( 0.000000,  0.000000,  2.389132)
[...]
  93 Cr ( 0.000000,  0.000000, -1.245363)
  94 Al ( 0.000000,  0.000000, -0.032372)
  95 Fe ( 0.000000,  0.000000,  1.843573)
  96 Fe ( 0.000000,  0.000000,  2.488143)
  97 Fe ( 0.000000,  0.000000,  2.297608)
  98 Co ( 0.000000,  0.000000,  1.219188)
  99 Ni ( 0.000000,  0.000000,  0.405111)
 100 Co ( 0.000000,  0.000000,  1.453776)
 101 Fe ( 0.000000,  0.000000,  2.282020)
 102 Co ( 0.000000,  0.000000,  1.025192)
 103 Ni ( 0.000000,  0.000000,  0.273896)
 104 Co ( 0.000000,  0.000000,  1.074918)
 105 Al ( 0.000000,  0.000000, -0.026184)
 106 Ni ( 0.000000,  0.000000,  0.313896)
 107 Ni ( 0.000000,  0.000000,  0.283352)

Energy contributions relative to reference atoms: (reference = -3699400.456887)

Kinetic:       +129.375062
Potential:     -183.052114
External:        +0.000000
XC:            -852.362734
Entropy (-ST):   -4.582567
Local:          +37.864416
Free energy:   -872.757937
Extrapolated:  -870.466653

Spin contamination: 26.062729 electrons
Showing only first 2 kpts
                      Up                     Down
 Kpt  Band  Eigenvalues  Occupancy  Eigenvalues  Occupancy
  0   508      9.63745    0.99377     10.52180    0.02251
  0   509      9.65330    0.99271     10.53435    0.01991
  0   510      9.66537    0.99178     10.54987    0.01710
  0   511      9.67452    0.99100     10.56257    0.01509

  1   508      9.63918    0.99367     10.52281    0.02229
  1   509      9.65324    0.99272     10.53031    0.02072
  1   510      9.67232    0.99120     10.54607    0.01775
  1   511      9.68714    0.98981     10.56085    0.01535

Fermi level: 10.14472

No gap

Forces in eV/Ang:
  0 Ni   -0.05561    0.23236    0.49635
  1 Cr   -0.17280   -0.07805   -0.53421
  2 Fe   -0.31831    0.28427    0.02619
  3 Cr    0.26085    0.18734    0.17410
  4 Fe    0.54230    0.08754   -0.04491
  5 Co   -0.11935    0.10309   -0.01262
  6 Co    0.19740   -0.00614   -0.07304
  7 Cr   -0.83082   -1.24479    0.00911
  8 Ni   -0.33525    0.09432    0.17389
  9 Co    0.00642   -0.27115    0.05268
 10 Cr    0.10796    0.35465   -0.32634
 11 Co    0.57015   -0.62816    0.63516
 12 Fe    0.09846   -0.39622    0.72616
 13 Ni   -0.01270    0.01909   -0.18523
 14 Ni    0.00404   -0.40318    0.20785
 15 Co    0.03089    0.17165    0.04712
 16 Ni    0.05477   -0.16674    0.17990
 17 Co    0.28025   -0.00911    0.14265
 18 Fe   -0.50682   -0.03379    0.30790
 19 Cr   -0.32964    0.68294    0.19140
 20 Al    0.06561   -0.38430    0.87256
 21 Ni   -0.15556    0.47157   -0.19090
 22 Ni    0.34586   -0.35961    0.20052
 23 Fe   -0.12714    1.04513    0.13225
 24 Cr   -0.13155    0.02942    0.07064
 25 Ni   -0.05395    0.20987   -0.26330
 26 Co    0.15063   -0.07866   -0.23021
 27 Co    0.00398    0.01599    0.15328
 28 Cr   -0.24296   -0.23884   -0.08980
 29 Cr    0.11421    0.08429    0.00265
 30 Cr    0.66894    0.06319   -0.28948
 31 Ni    0.20188    0.15577   -0.11681
 32 Ni    0.17428    0.03020    0.41811
 33 Co    0.05505   -0.15075   -0.40694
 34 Co   -0.43243    0.13214   -0.27525
 35 Co    0.06409   -0.23620    0.49859
 36 Cr    0.00620    0.12547   -0.10764
 37 Fe    0.05589   -0.07308    0.03941
 38 Fe    0.05555   -0.07664   -0.07295
 39 Co   -0.19730    0.06582   -0.15872
 40 Ni    0.17436    0.31783   -0.02883
 41 Fe   -0.27663   -0.08251    0.03299
 42 Co    0.05234   -0.48996    0.05601
 43 Al   -0.36700   -0.01699   -0.50709
 44 Ni   -0.15024   -0.20009    0.09562
 45 Cr    0.16335   -0.12508    0.72501
 46 Co   -0.23423   -0.22390    0.14854
 47 Fe    0.29363    0.01573   -0.20525
 48 Cr    0.00123   -0.35313   -0.22074
 49 Co    0.00127   -0.00181    0.08184
 50 Cr   -0.51518   -0.71319    0.08037
 51 Fe   -0.11248   -0.07024   -0.33381
 52 Ni    0.23292   -0.36567   -0.35691
 53 Al    0.18784    0.47169   -0.16000
 54 Co    0.08896    0.05643   -0.34655
 55 Cr    0.20692   -0.08517   -0.93305
 56 Ni   -0.28859   -0.07159   -0.10282
 57 Cr    0.16316    0.21846    0.43762
 58 Ni    0.16134   -0.03994    0.15452
 59 Fe   -0.00568   -0.05389   -0.09891
[...]
 93 Cr   -0.18594    1.58542   -0.42045
 94 Al    0.50957   -0.33615   -0.47711
 95 Fe   -0.37971    0.18999   -0.23121
 96 Fe   -0.04003    0.03656   -0.25997
 97 Fe    0.28701   -0.00425    0.20654
 98 Co    0.19534   -0.08991    0.17831
 99 Ni   -0.04412    0.26308   -0.02045
100 Co    0.06598    0.32323    0.47810
101 Fe    0.28241    0.37475   -0.04942
102 Co    0.00474   -0.32633    0.03170
103 Ni    0.21276    0.39888   -0.03631
104 Co   -0.09252   -0.22207   -0.62483
105 Al   -0.49044   -0.67015    0.81632
106 Ni   -0.13506   -0.37627    0.23761
107 Ni   -0.18139    0.10324   -0.55031

Date: Sun Apr 16 04:26:35 2023