User:   c.zeng@d0038
Date:   Fri Apr 14 19:02:05 2023
Arch:   x86_64
Pid:    284533
CWD:    /home/c.zeng/projects/hea-corrosion/hea-mlp/data-curation/bulk-mcmc/dft-jobs/16
Python: 3.8.1
gpaw:   /home/c.zeng/usr/installs/gpaw/source/gpaw-22.8.0/gpaw
_gpaw:  /home/c.zeng/usr/installs/gpaw/source/gpaw-22.8.0/
        _gpaw.cpython-38-x86_64-linux-gnu.so
ase:    /home/c.zeng/.local/lib/python3.8/site-packages/ase-3.22.1-py3.8.egg/ase (version 3.22.1)
numpy:  /shared/centos7/python/3.8.1/lib/python3.8/site-packages/numpy (version 1.17.4)
scipy:  /shared/centos7/python/3.8.1/lib/python3.8/site-packages/scipy (version 1.4.1)
units:  Angstrom and eV
cores: 30
OpenMP: False
OMP_NUM_THREADS: 1

Input parameters:
  convergence: {energy: 0.0001}
  kpts: [2 2 2]
  maxiter: 666
  mode: {ecut: 350.0,
         name: pw}
  occupations: {fixmagmom: False,
                name: fermi-dirac,
                width: 0.1}
  spinpol: True
  xc: PBE

System changes: positions, numbers, cell, pbc, initial_charges, initial_magmoms

Initialize ...

species:
  Co:
    name: Cobalt
    id: 339d20d5b0b93d2de9531a1bee871d91
    Z: 27.0
    valence: 9
    core: 18
    charge: 0.0
    file: /home/c.zeng/usr/data/gpaw-setups-0.9.20000/Co.PBE.gz
    compensation charges: {type: gauss,
                           rc: 0.32,
                           lmax: 2}
    cutoffs: {filter: 1.87,
              core: 2.55}
    valence states:
      #              energy  rcut
      - 4s(2.00)    -5.469   1.005
      - 4p(0.00)    -1.277   1.058
      - 3d(7.00)    -8.205   1.005
      -  s          21.742   1.005
      -  p          25.934   1.058
      -  d          19.007   1.005

    # Using partial waves for Co as LCAO basis

  Fe:
    name: Iron
    id: 37abbd8d6c3c35915a9b583b742da910
    Z: 26.0
    valence: 8
    core: 18
    charge: 0.0
    file: /home/c.zeng/usr/data/gpaw-setups-0.9.20000/Fe.PBE.gz
    compensation charges: {type: gauss,
                           rc: 0.33,
                           lmax: 2}
    cutoffs: {filter: 2.06,
              core: 2.67}
    valence states:
      #              energy  rcut
      - 4s(2.00)    -5.291   1.164
      - 4p(0.00)    -1.326   1.058
      - 3d(6.00)    -7.505   1.058
      -  s          21.920   1.164
      -  p          25.885   1.058
      -  d          19.706   1.058

[...]

  Ni:
    name: Nickel
    id: 0d9f38a9d6e76a2886f07bb4381f212b
    Z: 28.0
    valence: 16
    core: 12
    charge: 0.0
    file: /home/c.zeng/usr/data/gpaw-setups-0.9.20000/Ni.PBE.gz
    compensation charges: {type: gauss,
                           rc: 0.36,
                           lmax: 2}
    cutoffs: {filter: 2.14,
              core: 1.98}
    valence states:
      #              energy  rcut
      - 4s(2.00)    -5.642   1.164
      - 3p(6.00)   -71.394   1.207
      - 4p(0.00)    -1.226   1.207
      - 3d(8.00)    -8.875   1.138
      -  s          21.570   1.164
      -  d          18.337   1.138

[...]

  Cr:
    name: Chromium
    id: 33f258bda2ca9f93018e70263a35547b
    Z: 24.0
    valence: 6
    core: 18
    charge: 0.0
    file: /home/c.zeng/usr/data/gpaw-setups-0.9.20000/Cr.PBE.gz
    compensation charges: {type: gauss,
                           rc: 0.35,
                           lmax: 2}
    cutoffs: {filter: 2.14,
              core: 3.04}
    valence states:
      #              energy  rcut
      - 4s(1.00)    -4.007   1.164
      - 4p(0.00)    -0.989   1.217
      - 3d(5.00)    -2.913   1.111
      -  s          23.205   1.164
      -  p          26.223   1.217
      -  d          24.299   1.111

    # Using partial waves for Cr as LCAO basis

Reference energy: -3846758.590871  # eV

Spin-polarized calculation.
Magnetic moment: 151.200000

Convergence criteria:
 Maximum [total energy] change in last 3 cyles: 0.0001 eV / electron
 Maximum integral of absolute [dens]ity change: 0.0001 electrons / valence electron
 Maximum integral of absolute [eigenst]ate change: 4e-08 eV^2 / valence electron
 Maximum number of scf [iter]ations: 666
 (Square brackets indicate name in SCF output, whereas a 'c' in
 the SCF output indicates the quantity has converged.)

Symmetries present (total): 1

  ( 1  0  0)
  ( 0  1  0)
  ( 0  0  1)

8 k-points: 2 x 2 x 2 Monkhorst-Pack grid
4 k-points in the irreducible part of the Brillouin zone
       k-points in crystal coordinates                weights
   0:     0.25000000   -0.25000000   -0.25000000          2/8
   1:     0.25000000   -0.25000000    0.25000000          2/8
   2:     0.25000000    0.25000000   -0.25000000          2/8
   3:     0.25000000    0.25000000    0.25000000          2/8

Wave functions: Plane wave expansion
  Cutoff energy: 350.000 eV
  Number of coefficients (min, max): 17755, 17755
  Pulay-stress correction: 0.000000 eV/Ang^3 (de/decut=0.000000)
  Using FFTW library
  ScaLapack parameters: grid=1x1, blocksize=None
  Wavefunction extrapolation:
    Improved wavefunction reuse through dual PAW basis

Occupation numbers: Fermi-Dirac:
  width: 0.1000  # eV

Eigensolver
   Davidson(niter=2)

Densities:
  Coarse grid: 48*48*48 grid
  Fine grid: 96*96*96 grid
  Total Charge: 0.000000

Density mixing:
  Method: difference
  Backend: pulay
  Linear mixing parameter: 0.05
  old densities: 5
  Damping of long wavelength oscillations: 50

Hamiltonian:
  XC and Coulomb potentials evaluated on a 96*96*96 grid
  Using the PBE Exchange-Correlation functional
  External potential:
    NoExternalPotential

XC parameters: PBE with 2 nearest neighbor stencil

Total number of cores used: 30
Parallelization over k-points: 2
Domain decomposition: 5 x 3 x 1

Number of atoms: 108
Number of atomic orbitals: 1053
Number of bands in calculation: 727
Number of valence electrons: 1053
Bands to converge: occupied

... initialized

Initializing position-dependent things.

Density initialized from atomic densities
Creating initial wave functions:
  727 bands from LCAO basis set

       /|  Cr       Ni      Cr    |
      / |   CrFe     Cr           |
     /  |       Co      Fe       Fe
    /   |Ni      CFe       Co     Ni
   /    | Co       Cr       CFe   |
  /  CCo|  FeCr     CoNi          |
 *    NiCr    FeNi   FeCrCo       |
 |      |CoCr   FeFeCr  CoCrFe   Ni
 |      | CrCo     CoCrFeCrNiNi   |
 |    Co|  CoFeCr   CoNiFe   NiCo |
 |      Cr    NiNiCr NiCrCr     Cr|
 |      |FeFe  CoFeCr   FeNiFe   Ni
 |      .-FeCo-----CrNiFe--NiNi---Co
 |   Cro     Fe       Ni         /
 |    NiCo     Cor     CNie     /
 |   /    Co               Cr  /
 |  /      Fe       Fe    NiFe/
 | / Fe     Cr       NiNi    /
 |/            Co       Ni  /
 *--------Co------Co-------*

Positions:
   0 Co    -0.012479   -0.003723   10.616104    ( 0.0000,  0.0000,  2.1000)
   1 Fe    -0.011321    1.761305    1.763386    ( 0.0000,  0.0000,  2.1000)
   2 Fe     1.758365    0.001326    1.769011    ( 0.0000,  0.0000,  2.0000)
   3 Co     1.752686    1.779222   10.610436    ( 0.0000,  0.0000,  2.0000)
   4 Co     3.541196    0.004726   10.616104    ( 0.0000,  0.0000,  0.0000)
   5 Fe     3.534711    1.782438    1.778999    ( 0.0000,  0.0000,  0.0000)
   6 Ni     5.305717   10.600629    1.767950    ( 0.0000,  0.0000,  2.1000)
   7 Co     5.324780    1.765604   10.614618    ( 0.0000,  0.0000,  0.0000)
   8 Co     7.089121    0.014598   10.619926    ( 0.0000,  0.0000,  2.0000)
   9 Fe     7.085279    1.771219    1.773543    ( 0.0000,  0.0000,  1.5000)
  10 Ni     8.850554    0.011470    1.768756    ( 0.0000,  0.0000,  1.5000)
  11 Ni     8.842381    1.777333   10.615680    ( 0.0000,  0.0000,  2.1000)
  12 Fe    10.590535    3.538203   -0.001956    ( 0.0000,  0.0000,  0.0000)
  13 Ni    10.624277    5.310674    1.769786    ( 0.0000,  0.0000,  2.0000)
  14 Co     1.761379    3.535623    1.784572    ( 0.0000,  0.0000,  0.0000)
  15 Ni     1.770200    5.301408   10.611753    ( 0.0000,  0.0000,  2.0000)
  16 Cr     3.556003    3.551407   10.618333    ( 0.0000,  0.0000,  1.5000)
  17 Fe     3.539370    5.311290    1.775199    ( 0.0000,  0.0000,  2.1000)
  18 Cr     5.320142    3.545059    1.779678    ( 0.0000,  0.0000,  1.5000)
  19 Fe     5.306980    5.314654   10.602720    ( 0.0000,  0.0000,  0.0000)
  20 Ni     7.081585    3.529127   10.614725    ( 0.0000,  0.0000,  2.1000)
  21 Ni     7.069241    5.303361    1.781271    ( 0.0000,  0.0000,  1.5000)
  22 Fe     8.841447    3.542671    1.781600    ( 0.0000,  0.0000,  2.1000)
  23 Ni     8.850893    5.290379    0.000220    ( 0.0000,  0.0000,  0.0000)
  24 Ni     0.005868    7.083411   10.614937    ( 0.0000,  0.0000,  2.0000)
  25 Ni    10.601043    8.849694    1.772960    ( 0.0000,  0.0000,  2.1000)
  26 Fe     1.773713    7.072329    1.777184    ( 0.0000,  0.0000,  0.0000)
  27 Cr     1.755520    8.842943   10.608324    ( 0.0000,  0.0000,  0.0000)
  28 Fe     3.544009    7.063116   10.610489    ( 0.0000,  0.0000,  2.0000)
  29 Co     3.542225    8.826820    1.785580    ( 0.0000,  0.0000,  0.0000)
  30 Cr     5.309835    7.081776    1.776600    ( 0.0000,  0.0000,  2.1000)
  31 Ni     5.331945    8.840321   10.604673    ( 0.0000,  0.0000,  2.1000)
  32 Co     7.068434    7.069028   10.623110    ( 0.0000,  0.0000,  0.0000)
  33 Fe     7.083750    8.846796    1.774509    ( 0.0000,  0.0000,  1.5000)
  34 Ni     8.841404    7.058180    1.777173    ( 0.0000,  0.0000,  1.5000)
  35 Cr     8.835524    8.853600   10.611753    ( 0.0000,  0.0000,  0.0000)
  36 Cr    -0.009351   10.618864    3.531070    ( 0.0000,  0.0000,  2.0000)
  37 Fe    10.602508    1.764818    5.300452    ( 0.0000,  0.0000,  1.5000)
  38 Cr     1.756720    0.001379    5.295867    ( 0.0000,  0.0000,  0.0000)
  39 Co     1.766506    1.767154    3.539222    ( 0.0000,  0.0000,  2.0000)
  40 Co     3.539742    0.013881    3.542873    ( 0.0000,  0.0000,  2.0000)
  41 Fe     3.548944    1.788658    5.306237    ( 0.0000,  0.0000,  2.1000)
  42 Fe     5.320174   -0.004685    5.301386    ( 0.0000,  0.0000,  0.0000)
  43 Co     5.316862    1.765551    3.538935    ( 0.0000,  0.0000,  2.0000)
  44 Cr     7.081086   -0.000289    3.531325    ( 0.0000,  0.0000,  2.0000)
  45 Cr     7.072902    1.777407    5.300537    ( 0.0000,  0.0000,  2.0000)
  46 Fe     8.840544    0.012372    5.307851    ( 0.0000,  0.0000,  1.5000)
  47 Ni     8.833592    1.767928    3.534318    ( 0.0000,  0.0000,  2.1000)
  48 Ni    -0.004066    3.525285    3.545951    ( 0.0000,  0.0000,  0.0000)
  49 Co    -0.001689    5.317934    5.307787    ( 0.0000,  0.0000,  1.5000)
  50 Cr     1.769043    3.555101    5.297279    ( 0.0000,  0.0000,  2.0000)
  51 Fe     1.773692    5.305929    3.538266    ( 0.0000,  0.0000,  2.1000)
  52 Co     3.542746    3.537364    3.547575    ( 0.0000,  0.0000,  2.1000)
  53 Fe     3.548477    5.306927    5.301153    ( 0.0000,  0.0000,  2.0000)
  54 Ni     5.316246    3.553031    5.303637    ( 0.0000,  0.0000,  2.0000)
  55 Fe     5.303286    5.303531    3.542385    ( 0.0000,  0.0000,  1.5000)
  56 Ni     7.074962    3.533023    3.537215    ( 0.0000,  0.0000,  1.5000)
  57 Ni     7.066046    5.306046    5.300081    ( 0.0000,  0.0000,  2.0000)
  58 Cr     8.834526    3.538160    5.294530    ( 0.0000,  0.0000,  2.1000)
  59 Ni     8.846255    5.300452    3.537672    ( 0.0000,  0.0000,  1.5000)
[...]
  93 Ni     7.071130    5.304220    8.839313    ( 0.0000,  0.0000,  1.5000)
  94 Co     8.837997    3.524669    8.843389    ( 0.0000,  0.0000,  1.5000)
  95 Cr     8.833772    5.299051    7.076862    ( 0.0000,  0.0000,  0.0000)
  96 Ni     0.012168    7.080333    7.083835    ( 0.0000,  0.0000,  1.5000)
  97 Fe    -0.017034    8.848707    8.843941    ( 0.0000,  0.0000,  2.1000)
  98 Co     1.777938    7.075503    8.840194    ( 0.0000,  0.0000,  2.0000)
  99 Fe     1.758800    8.840035    7.069803    ( 0.0000,  0.0000,  0.0000)
 100 Fe     3.549921    7.066194    7.070090    ( 0.0000,  0.0000,  2.1000)
 101 Co     3.553137    8.839111    8.836776    ( 0.0000,  0.0000,  0.0000)
 102 Cr     5.304189    7.079929    8.840215    ( 0.0000,  0.0000,  2.0000)
 103 Co     5.321946    8.832180    7.082997    ( 0.0000,  0.0000,  2.1000)
 104 Cr     7.057077    7.072149    7.064167    ( 0.0000,  0.0000,  1.5000)
 105 Fe     7.082402    8.855500    8.837487    ( 0.0000,  0.0000,  2.1000)
 106 Co     8.846786    7.077881    8.846732    ( 0.0000,  0.0000,  0.0000)
 107 Cr     8.839313    8.848272    7.075153    ( 0.0000,  0.0000,  0.0000)

Unit cell:
           periodic     x           y           z      points  spacing
  1. axis:    yes   10.614300    0.000000    0.000000    48     0.2211
  2. axis:    yes    0.000000   10.614300    0.000000    48     0.2211
  3. axis:    yes    0.000000    0.000000   10.614300    48     0.2211

  Lengths:  10.614300  10.614300  10.614300
  Angles:   90.000000  90.000000  90.000000

Effective grid spacing dv^(1/3) = 0.2211

     iter     time        total  log10-change:  magmom
                         energy  eigst   dens
iter:   1 19:08:09  -960.545363                  +151.1155
iter:   2 19:10:51  -958.709622  -0.54  -1.35    +115.5729
iter:   3 19:13:35  -923.051299  -0.94  -1.32    +87.7904
iter:   4 19:16:23  -896.162284  -1.42  -1.37    +72.8337
iter:   5 19:19:11  -895.200612  -1.83  -1.48    +64.6637
iter:   6 19:22:00  -896.289146  -1.97  -1.50    +59.6741
iter:   7 19:24:49  -894.246022  -1.81  -1.52    +57.1153
iter:   8 19:27:37  -889.198604  -1.79  -1.58    +55.1053
iter:   9 19:30:25  -897.264546  -1.71  -1.74    +54.1804
iter:  10 19:33:52  -891.167945  -2.05  -1.71    +53.1561
iter:  11 19:37:14  -890.077734  -2.20  -1.82    +52.3119
iter:  12 19:40:03  -888.666058  -2.52  -1.86    +52.2748
iter:  13 19:42:53  -888.240260  -2.67  -1.92    +52.3108
iter:  14 19:45:43  -887.782422  -2.92  -1.97    +52.4824
iter:  15 19:48:32  -889.025503  -2.89  -2.01    +52.8359
iter:  16 19:51:21  -889.818832  -2.65  -2.00    +53.0134
iter:  17 19:54:10  -890.921051  -2.59  -1.98    +53.2195
iter:  18 19:57:00  -890.035403  -2.57  -1.97    +53.4517
iter:  19 19:59:49  -890.307427  -2.63  -2.03    +53.6549
iter:  20 20:02:38  -889.390159  -2.77  -2.06    +53.7557
iter:  21 20:05:26  -889.487813  -3.07  -2.12    +54.0081
iter:  22 20:08:17  -889.372959  -3.15  -2.14    +54.5099
iter:  23 20:11:06  -889.466723  -3.35  -2.18    +54.9491
iter:  24 20:13:55  -889.635969  -3.28  -2.20    +55.2938
iter:  25 20:16:43  -889.956571  -3.32  -2.21    +55.5645
iter:  26 20:19:33  -890.341241  -3.00  -2.23    +56.0366
iter:  27 20:22:21  -890.927839  -2.93  -2.23    +56.1757
iter:  28 20:25:10  -890.754050  -2.90  -2.18    +56.1191
iter:  29 20:29:00  -890.705310  -3.01  -2.24    +56.1773
iter:  30 20:31:55  -890.468818  -3.12  -2.26    +56.6009
iter:  31 20:34:44  -890.186390  -3.52  -2.31    +56.7626
iter:  32 20:37:33  -890.216024  -3.95  -2.40    +56.7122
iter:  33 20:40:22  -890.311451  -3.93  -2.43    +56.7655
iter:  34 20:43:11  -890.393051  -3.91  -2.43    +56.8233
iter:  35 20:46:00  -890.668648  -3.53  -2.46    +56.8277
iter:  36 20:48:50  -890.903757  -3.25  -2.41    +56.6106
iter:  37 20:51:39  -891.034473  -3.13  -2.42    +56.5684
iter:  38 20:54:29  -890.728167  -3.36  -2.39    +56.8204
iter:  39 20:57:18  -890.917334  -3.33  -2.57    +56.7552
iter:  40 21:00:07  -890.614122  -3.71  -2.46    +56.4627
iter:  41 21:02:56  -890.575495  -4.08  -2.67    +56.2853
iter:  42 21:05:46  -890.587040c -4.82  -2.73    +56.3002
iter:  43 21:08:33  -890.668347c -4.12  -2.77    +56.2135
iter:  44 21:11:22  -890.671679c -4.23  -2.72    +56.1979
iter:  45 21:15:20  -890.767050c -3.85  -2.82    +56.1844
iter:  46 21:18:09  -890.715412c -3.99  -2.78    +56.2200
iter:  47 21:20:59  -890.764984c -3.91  -2.91    +56.1408
iter:  48 21:23:47  -890.705294c -4.18  -2.85    +55.8865
iter:  49 21:26:36  -890.698931c -4.60  -3.05    +55.8056
iter:  50 21:29:25  -890.705245c -4.93  -3.17    +55.8133
iter:  51 21:32:14  -890.711711c -5.17  -3.25    +55.7505
iter:  52 21:35:02  -890.732068c -4.58  -3.32    +55.6529
iter:  53 21:37:51  -890.741056c -4.77  -3.30    +55.6040
iter:  54 21:40:41  -890.733169c -5.10  -3.23    +55.5274
iter:  55 21:43:29  -890.738613c -5.31  -3.51    +55.4997
iter:  56 21:46:18  -890.740312c -5.50  -3.48    +55.4848
iter:  57 21:49:08  -890.745473c -5.34  -3.55    +55.4294
iter:  58 21:51:55  -890.753036c -5.06  -3.55    +55.3974
iter:  59 21:54:44  -890.766593c -4.72  -3.52    +55.3444
iter:  60 21:57:33  -890.768777c -5.39  -3.38    +55.3454
iter:  61 22:00:22  -890.768454c -5.48  -3.36    +55.3463
iter:  62 22:03:12  -890.767112c -5.59  -3.40    +55.3288
iter:  63 22:05:59  -890.768856c -5.78  -3.45    +55.2964
iter:  64 22:08:49  -890.771987c -4.95  -3.44    +55.2850
iter:  65 22:11:38  -890.766210c -5.42  -3.30    +55.2846
iter:  66 22:15:27  -890.766293c -6.03  -3.53    +55.2652
iter:  67 22:18:21  -890.767354c -5.97  -3.56    +55.2586
iter:  68 22:21:11  -890.767349c -5.91  -3.54    +55.2513
iter:  69 22:23:59  -890.767367c -5.61  -3.62    +55.2325
iter:  70 22:26:49  -890.768026c -5.81  -3.74    +55.2237
iter:  71 22:29:37  -890.767413c -6.01  -3.75    +55.2227
iter:  72 22:32:26  -890.767371c -6.44  -3.80    +55.2237
iter:  73 22:35:15  -890.767467c -6.54  -3.92    +55.2139
iter:  74 22:38:04  -890.767688c -6.59  -3.93    +55.2120
iter:  75 22:40:53  -890.767876c -6.49  -3.96    +55.2076
iter:  76 22:43:42  -890.767799c -6.16  -3.94    +55.1941
iter:  77 22:46:31  -890.768530c -6.16  -3.96    +55.1878
iter:  78 22:49:20  -890.767949c -6.31  -3.93    +55.1896
iter:  79 22:52:09  -890.768175c -6.50  -4.04c   +55.1912
iter:  80 22:54:57  -890.767990c -6.74  -4.09c   +55.1784
iter:  81 22:57:46  -890.768062c -7.19  -4.20c   +55.1671
iter:  82 23:00:33  -890.768154c -7.29  -4.30c   +55.1620
iter:  83 23:03:31  -890.768628c -6.33  -4.29c   +55.1353
iter:  84 23:07:21  -890.768774c -7.15  -4.23c   +55.1374
iter:  85 23:10:10  -890.768967c -7.16  -4.18c   +55.1390
iter:  86 23:13:00  -890.769395c -6.70  -4.16c   +55.1357
iter:  87 23:15:49  -890.769601c -6.90  -4.10c   +55.1295
iter:  88 23:18:38  -890.769717c -7.33  -4.07c   +55.1294
iter:  89 23:21:27  -890.769566c -7.07  -4.10c   +55.1259
iter:  90 23:24:16  -890.769843c -6.71  -4.14c   +55.1239
iter:  91 23:27:05  -890.769544c -6.14  -4.07c   +55.1179
iter:  92 23:29:54  -890.769426c -6.65  -4.02c   +55.1115
iter:  93 23:32:43  -890.769583c -6.96  -4.36c   +55.1046
iter:  94 23:35:32  -890.769426c -7.42c -4.30c   +55.1005

Converged after 94 iterations.

Dipole moment: (6.294900, -2.030735, 0.828116) |e|*Ang

Total magnetic moment: (0.000000, 0.000000, 55.100460)
Local magnetic moments:
   0 Co ( 0.000000,  0.000000,  0.919745)
   1 Fe ( 0.000000,  0.000000,  2.229186)
   2 Fe ( 0.000000,  0.000000,  2.332953)
   3 Co ( 0.000000,  0.000000,  0.665759)
   4 Co ( 0.000000,  0.000000,  0.917683)
   5 Fe ( 0.000000,  0.000000,  2.197293)
   6 Ni ( 0.000000,  0.000000,  0.463518)
   7 Co ( 0.000000,  0.000000,  0.831767)
   8 Co ( 0.000000,  0.000000,  1.075207)
   9 Fe ( 0.000000,  0.000000,  2.341999)
  10 Ni ( 0.000000,  0.000000,  0.275007)
  11 Ni ( 0.000000,  0.000000,  0.362909)
  12 Fe ( 0.000000,  0.000000, -1.999146)
  13 Ni ( 0.000000,  0.000000,  0.226867)
  14 Co ( 0.000000,  0.000000,  1.294381)
  15 Ni ( 0.000000,  0.000000,  0.249262)
  16 Cr ( 0.000000,  0.000000, -0.979633)
  17 Fe ( 0.000000,  0.000000,  1.886374)
  18 Cr ( 0.000000,  0.000000, -1.720537)
  19 Fe ( 0.000000,  0.000000,  1.985500)
  20 Ni ( 0.000000,  0.000000,  0.374841)
  21 Ni ( 0.000000,  0.000000,  0.186553)
  22 Fe ( 0.000000,  0.000000,  2.531583)
  23 Ni ( 0.000000,  0.000000,  0.352536)
  24 Ni ( 0.000000,  0.000000,  0.323195)
  25 Ni ( 0.000000,  0.000000,  0.199887)
  26 Fe ( 0.000000,  0.000000,  2.320451)
  27 Cr ( 0.000000,  0.000000, -1.645225)
  28 Fe ( 0.000000,  0.000000,  1.917161)
  29 Co ( 0.000000,  0.000000,  1.352304)
  30 Cr ( 0.000000,  0.000000, -1.560756)
  31 Ni ( 0.000000,  0.000000,  0.281837)
  32 Co ( 0.000000,  0.000000,  1.225267)
  33 Fe ( 0.000000,  0.000000,  2.187001)
  34 Ni ( 0.000000,  0.000000,  0.131265)
  35 Cr ( 0.000000,  0.000000, -1.648787)
  36 Cr ( 0.000000,  0.000000, -1.676843)
  37 Fe ( 0.000000,  0.000000,  2.047649)
  38 Cr ( 0.000000,  0.000000, -1.670070)
  39 Co ( 0.000000,  0.000000,  1.046779)
  40 Co ( 0.000000,  0.000000,  1.338055)
  41 Fe ( 0.000000,  0.000000,  2.186536)
  42 Fe ( 0.000000,  0.000000,  1.997954)
  43 Co ( 0.000000,  0.000000,  1.132230)
  44 Cr ( 0.000000,  0.000000, -1.817159)
  45 Cr ( 0.000000,  0.000000,  0.786998)
  46 Fe ( 0.000000,  0.000000,  1.774859)
  47 Ni ( 0.000000,  0.000000,  0.259772)
  48 Ni ( 0.000000,  0.000000,  0.347518)
  49 Co ( 0.000000,  0.000000,  0.907487)
  50 Cr ( 0.000000,  0.000000, -1.787592)
  51 Fe ( 0.000000,  0.000000,  2.050037)
  52 Co ( 0.000000,  0.000000,  1.158613)
  53 Fe ( 0.000000,  0.000000,  1.976738)
  54 Ni ( 0.000000,  0.000000,  0.264709)
  55 Fe ( 0.000000,  0.000000,  1.972948)
  56 Ni ( 0.000000,  0.000000,  0.238673)
  57 Ni ( 0.000000,  0.000000,  0.194709)
  58 Cr ( 0.000000,  0.000000, -1.106423)
  59 Ni ( 0.000000,  0.000000,  0.245567)
[...]
  93 Ni ( 0.000000,  0.000000,  0.212172)
  94 Co ( 0.000000,  0.000000,  1.034025)
  95 Cr ( 0.000000,  0.000000,  1.176895)
  96 Ni ( 0.000000,  0.000000,  0.267329)
  97 Fe ( 0.000000,  0.000000,  1.984879)
  98 Co ( 0.000000,  0.000000,  1.311350)
  99 Fe ( 0.000000,  0.000000,  2.095267)
 100 Fe ( 0.000000,  0.000000,  1.839666)
 101 Co ( 0.000000,  0.000000,  0.859630)
 102 Cr ( 0.000000,  0.000000, -1.326221)
 103 Co ( 0.000000,  0.000000,  0.791366)
 104 Cr ( 0.000000,  0.000000, -0.924207)
 105 Fe ( 0.000000,  0.000000,  1.739585)
 106 Co ( 0.000000,  0.000000,  1.032579)
 107 Cr ( 0.000000,  0.000000, -0.931989)

Energy contributions relative to reference atoms: (reference = -3846758.590871)

Kinetic:       +121.748188
Potential:     -188.485406
External:        +0.000000
XC:            -861.800643
Entropy (-ST):   -4.612015
Local:          +40.074441
Free energy:   -893.075434
Extrapolated:  -890.769426

Spin contamination: 35.760012 electrons
Showing only first 2 kpts
                      Up                     Down
 Kpt  Band  Eigenvalues  Occupancy  Eigenvalues  Occupancy
  0   524      9.87260    0.99158     10.65800    0.04373
  0   525      9.88620    0.99037     10.67085    0.03866
  0   526      9.90231    0.98870     10.69057    0.03196
  0   527      9.91833    0.98677     10.69590    0.03036

  1   524      9.87793    0.99113     10.65885    0.04338
  1   525      9.88791    0.99020     10.67754    0.03625
  1   526      9.90729    0.98813     10.68995    0.03215
  1   527      9.91242    0.98752     10.70422    0.02800

Fermi level: 10.34950

No gap

Forces in eV/Ang:
  0 Co    0.06602    0.00383   -0.14433
  1 Fe    0.47809    0.01493    0.00544
  2 Fe   -0.00403   -0.21166   -0.06366
  3 Co   -0.03976    0.12591    0.08619
  4 Co   -0.00406   -0.16089   -0.13405
  5 Fe   -0.01680    0.12548   -0.13880
  6 Ni   -0.04519    0.22413   -0.07950
  7 Co   -0.09092    0.16968    0.01435
  8 Co   -0.07399   -0.07862   -0.22517
  9 Fe   -0.39524   -0.29985   -0.11465
 10 Ni    0.04099   -0.03789   -0.05803
 11 Ni    0.06515   -0.05070    0.04904
 12 Fe    0.46487   -0.02301   -0.17551
 13 Ni   -0.09184   -0.11099    0.04044
 14 Co    0.15583   -0.07709   -0.20782
 15 Ni   -0.06315   -0.12153    0.15543
 16 Cr   -0.59758   -0.04496    0.16554
 17 Fe   -0.06989   -0.47686   -0.05159
 18 Cr    0.05090    0.01586    0.12227
 19 Fe    0.38717   -0.11590    0.31599
 20 Ni   -0.11613    0.10453   -0.08569
 21 Ni    0.02271    0.23658   -0.13908
 22 Fe    0.00476    0.14345   -0.03463
 23 Ni   -0.07117    0.11266   -0.12175
 24 Ni   -0.04218   -0.16431   -0.22686
 25 Ni    0.14038   -0.03599   -0.07492
 26 Fe   -0.11416    0.46429    0.02175
 27 Cr    0.11249   -0.23169    0.30491
 28 Fe    0.13234    0.36936   -0.19558
 29 Co   -0.02495    0.17970    0.13943
 30 Cr   -0.47052   -0.08376   -0.48725
 31 Ni   -0.20130    0.08966    0.18080
 32 Co    0.02605   -0.02741   -0.19008
 33 Fe   -0.02551   -0.11642   -0.10992
 34 Ni    0.06586    0.15674   -0.01802
 35 Cr    0.09464   -0.01078   -0.14614
 36 Cr   -0.17562   -0.18644   -0.18803
 37 Fe    0.18867    0.05194    0.20928
 38 Cr    0.56964   -0.06935    0.31085
 39 Co   -0.06145    0.23591   -0.02155
 40 Co    0.03040   -0.21301   -0.05729
 41 Fe   -0.10584   -0.13297    0.00394
 42 Fe    0.04134   -0.44990    0.04663
 43 Co   -0.15851    0.13618   -0.05059
 44 Cr   -0.04385   -0.02785    0.22467
 45 Cr   -0.20165    0.44359    0.00652
 46 Fe   -0.19564   -0.31532   -0.09516
 47 Ni    0.20323    0.17428   -0.02372
 48 Ni    0.06196    0.06894    0.02619
 49 Co    0.01994   -0.03410   -0.03355
 50 Cr   -0.10281    0.03889    0.27405
 51 Fe   -0.11335   -0.17481    0.06147
 52 Co   -0.02907    0.01699   -0.20497
 53 Fe   -0.14335   -0.06185    0.11478
 54 Ni   -0.01002   -0.16043   -0.03432
 55 Fe    0.06087    0.14811   -0.20698
 56 Ni   -0.07368   -0.04135    0.10936
 57 Ni    0.02200   -0.03423   -0.03425
 58 Cr    0.24231   -0.04258   -0.12426
 59 Ni    0.08689   -0.06587    0.02134
[...]
 93 Ni    0.08695    0.15925    0.14729
 94 Co    0.14052    0.02486    0.03144
 95 Cr    0.22384   -0.18813    0.07668
 96 Ni   -0.02362   -0.20297    0.00160
 97 Fe    0.03712   -0.17641    0.18558
 98 Co   -0.14930   -0.12898    0.04105
 99 Fe    0.27954    0.10610    0.12072
100 Fe   -0.21132    0.25419    0.30480
101 Co   -0.11519    0.23369   -0.14575
102 Cr    0.05541    0.23052    0.48180
103 Co    0.00012    0.17058   -0.18693
104 Cr   -0.03067    0.07435   -0.27399
105 Fe   -0.03736   -0.03520    0.21692
106 Co   -0.09472    0.07890   -0.03979
107 Cr    0.05639   -0.14137    0.13688

Date: Fri Apr 14 23:35:57 2023