User:   c.zeng@d0087
Date:   Fri Apr 14 20:08:07 2023
Arch:   x86_64
Pid:    215850
CWD:    /home/c.zeng/projects/hea-corrosion/hea-mlp/data-curation/bulk-mcmc/dft-jobs/165
Python: 3.8.1
gpaw:   /home/c.zeng/usr/installs/gpaw/source/gpaw-22.8.0/gpaw
_gpaw:  /home/c.zeng/usr/installs/gpaw/source/gpaw-22.8.0/
        _gpaw.cpython-38-x86_64-linux-gnu.so
ase:    /home/c.zeng/.local/lib/python3.8/site-packages/ase-3.22.1-py3.8.egg/ase (version 3.22.1)
numpy:  /shared/centos7/python/3.8.1/lib/python3.8/site-packages/numpy (version 1.17.4)
scipy:  /shared/centos7/python/3.8.1/lib/python3.8/site-packages/scipy (version 1.4.1)
units:  Angstrom and eV
cores: 30
OpenMP: False
OMP_NUM_THREADS: 1

Input parameters:
  convergence: {energy: 0.0001}
  kpts: [2 2 2]
  maxiter: 666
  mode: {ecut: 350.0,
         name: pw}
  occupations: {fixmagmom: False,
                name: fermi-dirac,
                width: 0.1}
  spinpol: True
  xc: PBE

System changes: positions, numbers, cell, pbc, initial_charges, initial_magmoms

Initialize ...

species:
  Co:
    name: Cobalt
    id: 339d20d5b0b93d2de9531a1bee871d91
    Z: 27.0
    valence: 9
    core: 18
    charge: 0.0
    file: /home/c.zeng/usr/data/gpaw-setups-0.9.20000/Co.PBE.gz
    compensation charges: {type: gauss,
                           rc: 0.32,
                           lmax: 2}
    cutoffs: {filter: 1.87,
              core: 2.55}
    valence states:
      #              energy  rcut
      - 4s(2.00)    -5.469   1.005
      - 4p(0.00)    -1.277   1.058
      - 3d(7.00)    -8.205   1.005
      -  s          21.742   1.005
      -  p          25.934   1.058
      -  d          19.007   1.005

    # Using partial waves for Co as LCAO basis

  Fe:
    name: Iron
    id: 37abbd8d6c3c35915a9b583b742da910
    Z: 26.0
    valence: 8
    core: 18
    charge: 0.0
    file: /home/c.zeng/usr/data/gpaw-setups-0.9.20000/Fe.PBE.gz
    compensation charges: {type: gauss,
                           rc: 0.33,
                           lmax: 2}
    cutoffs: {filter: 2.06,
              core: 2.67}
    valence states:
      #              energy  rcut
      - 4s(2.00)    -5.291   1.164
      - 4p(0.00)    -1.326   1.058
      - 3d(6.00)    -7.505   1.058
      -  s          21.920   1.164
      -  p          25.885   1.058
      -  d          19.706   1.058

[...]

  Al:
    name: Aluminium
    id: 0292cae29f5d6237e50f6abdd43a7bdd
    Z: 13.0
    valence: 3
    core: 10
    charge: 0.0
    file: /home/c.zeng/usr/data/gpaw-setups-0.9.20000/Al.PBE.gz
    compensation charges: {type: gauss,
                           rc: 0.34,
                           lmax: 2}
    cutoffs: {filter: 1.91,
              core: 2.36}
    valence states:
      #              energy  rcut
      - 3s(2.00)    -7.753   1.085
      - 3p(1.00)    -2.712   1.085
      -  s          19.459   1.085
      -  p          24.499   1.085
      -  d           0.000   1.085

[...]

  Cr:
    name: Chromium
    id: 33f258bda2ca9f93018e70263a35547b
    Z: 24.0
    valence: 6
    core: 18
    charge: 0.0
    file: /home/c.zeng/usr/data/gpaw-setups-0.9.20000/Cr.PBE.gz
    compensation charges: {type: gauss,
                           rc: 0.35,
                           lmax: 2}
    cutoffs: {filter: 2.14,
              core: 3.04}
    valence states:
      #              energy  rcut
      - 4s(1.00)    -4.007   1.164
      - 4p(0.00)    -0.989   1.217
      - 3d(5.00)    -2.913   1.111
      -  s          23.205   1.164
      -  p          26.223   1.217
      -  d          24.299   1.111

[...]

  Ni:
    name: Nickel
    id: 0d9f38a9d6e76a2886f07bb4381f212b
    Z: 28.0
    valence: 16
    core: 12
    charge: 0.0
    file: /home/c.zeng/usr/data/gpaw-setups-0.9.20000/Ni.PBE.gz
    compensation charges: {type: gauss,
                           rc: 0.36,
                           lmax: 2}
    cutoffs: {filter: 2.14,
              core: 1.98}
    valence states:
      #              energy  rcut
      - 4s(2.00)    -5.642   1.164
      - 3p(6.00)   -71.394   1.207
      - 4p(0.00)    -1.226   1.207
      - 3d(8.00)    -8.875   1.138
      -  s          21.570   1.164
      -  d          18.337   1.138

    # Using partial waves for Ni as LCAO basis

Reference energy: -3382523.201499  # eV

Spin-polarized calculation.
Magnetic moment: 128.800000

Convergence criteria:
 Maximum [total energy] change in last 3 cyles: 0.0001 eV / electron
 Maximum integral of absolute [dens]ity change: 0.0001 electrons / valence electron
 Maximum integral of absolute [eigenst]ate change: 4e-08 eV^2 / valence electron
 Maximum number of scf [iter]ations: 666
 (Square brackets indicate name in SCF output, whereas a 'c' in
 the SCF output indicates the quantity has converged.)

Symmetries present (total): 1

  ( 1  0  0)
  ( 0  1  0)
  ( 0  0  1)

8 k-points: 2 x 2 x 2 Monkhorst-Pack grid
4 k-points in the irreducible part of the Brillouin zone
       k-points in crystal coordinates                weights
   0:     0.25000000   -0.25000000   -0.25000000          2/8
   1:     0.25000000   -0.25000000    0.25000000          2/8
   2:     0.25000000    0.25000000   -0.25000000          2/8
   3:     0.25000000    0.25000000    0.25000000          2/8

Wave functions: Plane wave expansion
  Cutoff energy: 350.000 eV
  Number of coefficients (min, max): 18865, 18865
  Pulay-stress correction: 0.000000 eV/Ang^3 (de/decut=0.000000)
  Using FFTW library
  ScaLapack parameters: grid=1x1, blocksize=None
  Wavefunction extrapolation:
    Improved wavefunction reuse through dual PAW basis

Occupation numbers: Fermi-Dirac:
  width: 0.1000  # eV

Eigensolver
   Davidson(niter=2)

Densities:
  Coarse grid: 48*48*48 grid
  Fine grid: 96*96*96 grid
  Total Charge: 0.000000

Density mixing:
  Method: difference
  Backend: pulay
  Linear mixing parameter: 0.05
  old densities: 5
  Damping of long wavelength oscillations: 50

Hamiltonian:
  XC and Coulomb potentials evaluated on a 96*96*96 grid
  Using the PBE Exchange-Correlation functional
  External potential:
    NoExternalPotential

XC parameters: PBE with 2 nearest neighbor stencil

Total number of cores used: 30
Parallelization over k-points: 2
Domain decomposition: 5 x 3 x 1

Number of atoms: 108
Number of atomic orbitals: 961
Number of bands in calculation: 649
Number of valence electrons: 945
Bands to converge: occupied

... initialized

Initializing position-dependent things.

Density initialized from atomic densities
Creating initial wave functions:
  649 bands from LCAO basis set

       /|                     Co   |
      / |            Fe Co     CrCo|
     /  |       Cr       Ni       Cr
    /   |Fe       Fel     CFer     |
   /i   | Feo        Co      Co    |
  /  CrAl   NCr       Ni           |
 *      Ni     FeCo   AlFeCrCo   Cr|
 |      |CoNi   CrNiAl   NiAlNi   Fe
 | CrFe | AlNi   AlAlCo     Ni     |
 |     Fe  CoCr Cr  Fe CoNi  CrNi  |
 |      CoNi   AlCr   CoFeFeNi  Co |
 |Al    |FeCr   AlCrCo   CrCo     Co
 |      .-CrCo-----NiCr-FeFeCrNi---.
 |     /   Ni Fe    Cr CoNi    Al /
 |    Fe       AFei       Al     /
 |   /  Fe         Al       Cr  /
 |  /      Fe       Al       Co/
 | / Fe     Co       Ni Ni    /
 |/             Cr       Ni  /
 *--------Fe----------------*

Positions:
   0 Co    10.764147   10.861293   10.805330    ( 0.0000,  0.0000,  2.0000)
   1 Co    10.786221    1.792513    1.813624    ( 0.0000,  0.0000,  0.0000)
   2 Fe     1.744156    0.036560    1.851269    ( 0.0000,  0.0000,  1.5000)
   3 Al     1.736571    1.831142   10.798805    ( 0.0000,  0.0000,  0.0000)
   4 Fe     3.575126    0.057318    0.061759    ( 0.0000,  0.0000,  0.0000)
   5 Fe     3.594289    1.817617    1.845577    ( 0.0000,  0.0000,  2.0000)
   6 Co     5.429813   10.817005    1.865054    ( 0.0000,  0.0000,  1.5000)
   7 Cr     5.429608    1.929425    0.057134    ( 0.0000,  0.0000,  0.0000)
   8 Fe     7.316909   10.723332    0.087382    ( 0.0000,  0.0000,  0.0000)
   9 Al     7.263142    1.825786    1.869404    ( 0.0000,  0.0000,  2.1000)
  10 Ni     9.063554    0.025226    1.863474    ( 0.0000,  0.0000,  1.5000)
  11 Ni     9.049217    1.829703    0.033106    ( 0.0000,  0.0000,  2.1000)
  12 Ni     0.004792    3.558981   10.794801    ( 0.0000,  0.0000,  1.5000)
  13 Al    10.759710    5.390697    1.778165    ( 0.0000,  0.0000,  0.0000)
  14 Fe     1.733585    3.561849    1.761112    ( 0.0000,  0.0000,  2.0000)
  15 Fe     1.776899    5.391834   10.795505    ( 0.0000,  0.0000,  0.0000)
  16 Co     3.565452    3.619360   10.832619    ( 0.0000,  0.0000,  2.1000)
  17 Fe     3.633221    5.394614    1.719551    ( 0.0000,  0.0000,  0.0000)
  18 Ni     5.471624    3.659114    1.836033    ( 0.0000,  0.0000,  2.1000)
  19 Fe     5.440212    5.373060   -0.002773    ( 0.0000,  0.0000,  2.0000)
  20 Ni     7.258997    3.609080    0.031294    ( 0.0000,  0.0000,  0.0000)
  21 Co     7.268941    5.378362    1.785274    ( 0.0000,  0.0000,  2.0000)
  22 Al     9.030724    3.577636    1.833728    ( 0.0000,  0.0000,  2.1000)
  23 Fe     9.040420    5.372281   10.801110    ( 0.0000,  0.0000,  0.0000)
  24 Co    10.791663    7.196206   10.792486    ( 0.0000,  0.0000,  1.5000)
  25 Co    10.758434    9.040387    1.848239    ( 0.0000,  0.0000,  0.0000)
  26 Cr     1.690487    7.202493    1.786032    ( 0.0000,  0.0000,  0.0000)
  27 Ni     1.652691    8.981047    0.027217    ( 0.0000,  0.0000,  0.0000)
  28 Al     3.631241    7.164437    0.034633    ( 0.0000,  0.0000,  0.0000)
  29 Al     3.625452    9.063759    1.801678    ( 0.0000,  0.0000,  0.0000)
  30 Ni     5.490852    7.187095    1.746342    ( 0.0000,  0.0000,  2.0000)
  31 Cr     5.426935    8.989152    0.009861    ( 0.0000,  0.0000,  2.0000)
  32 Co     7.229122    7.237075   -0.008698    ( 0.0000,  0.0000,  1.5000)
  33 Cr     7.249194    8.995850    1.810713    ( 0.0000,  0.0000,  0.0000)
  34 Cr     9.052073    7.204300    1.764218    ( 0.0000,  0.0000,  2.1000)
  35 Co     9.092553    8.989639   10.808760    ( 0.0000,  0.0000,  1.5000)
  36 Cr    -0.000975   10.826235    3.639789    ( 0.0000,  0.0000,  1.5000)
  37 Al    10.822772    1.771770    5.422044    ( 0.0000,  0.0000,  2.1000)
  38 Ni     1.754263   10.802084    5.428872    ( 0.0000,  0.0000,  2.1000)
  39 Fe     1.741873    1.774270    3.610801    ( 0.0000,  0.0000,  0.0000)
  40 Al     3.591183   10.794152    3.612143    ( 0.0000,  0.0000,  2.0000)
  41 Cr     3.593088    1.736744    5.455177    ( 0.0000,  0.0000,  0.0000)
  42 Al     5.437150   10.794563    5.400804    ( 0.0000,  0.0000,  2.0000)
  43 Fe     5.451931    1.783251    3.601387    ( 0.0000,  0.0000,  1.5000)
  44 Al     7.226222    0.007781    3.626209    ( 0.0000,  0.0000,  0.0000)
  45 Co     7.236069    1.766512    5.381392    ( 0.0000,  0.0000,  2.1000)
  46 Fe     9.034587   10.848850    5.403844    ( 0.0000,  0.0000,  2.1000)
  47 Ni     9.031558    1.804946    3.616730    ( 0.0000,  0.0000,  1.5000)
  48 Ni    10.773885    3.543973    3.617867    ( 0.0000,  0.0000,  1.5000)
  49 Ni    10.772186    5.358409    5.454917    ( 0.0000,  0.0000,  0.0000)
  50 Co     1.757531    3.575678    5.428937    ( 0.0000,  0.0000,  2.1000)
  51 Fe     1.621766    5.386986    3.572550    ( 0.0000,  0.0000,  0.0000)
[...]
  54 Cr     5.402221    3.610887    5.370193    ( 0.0000,  0.0000,  2.0000)
  55 Cr     5.460241    5.433590    3.575613    ( 0.0000,  0.0000,  2.0000)
  56 Cr     7.250157    3.615183    3.623169    ( 0.0000,  0.0000,  1.5000)
  57 Co     7.248707    5.410715    5.362099    ( 0.0000,  0.0000,  1.5000)
  58 Fe     9.058230    3.565236    5.380082    ( 0.0000,  0.0000,  2.1000)
  59 Co     9.074071    5.365323    3.589008    ( 0.0000,  0.0000,  2.1000)
[...]
  93 Ni     7.211073    5.388295    9.040181    ( 0.0000,  0.0000,  0.0000)
  94 Cr     9.095052    3.598119    8.980636    ( 0.0000,  0.0000,  2.0000)
  95 Al     9.078205    5.402416    7.227759    ( 0.0000,  0.0000,  0.0000)
  96 Cr    10.763411    7.244682    7.260285    ( 0.0000,  0.0000,  1.5000)
  97 Cr    10.795093    9.034566    8.977574    ( 0.0000,  0.0000,  2.0000)
  98 Fe     1.740045    7.178947    8.984662    ( 0.0000,  0.0000,  2.1000)
  99 Co     1.734429    9.080207    7.236696    ( 0.0000,  0.0000,  1.5000)
 100 Fe     3.580482    7.154277    7.248285    ( 0.0000,  0.0000,  0.0000)
 101 Cr     3.612835    8.970898    8.958086    ( 0.0000,  0.0000,  0.0000)
 102 Al     5.410943    7.155878    9.067049    ( 0.0000,  0.0000,  0.0000)
 103 Co     5.466441    9.064062    7.220963    ( 0.0000,  0.0000,  2.1000)
 104 Fe     7.307203    7.271549    7.289738    ( 0.0000,  0.0000,  0.0000)
 105 Ni     7.271073    9.044683    9.027879    ( 0.0000,  0.0000,  1.5000)
 106 Cr     9.081743    7.219805    9.041166    ( 0.0000,  0.0000,  2.1000)
 107 Co     9.063684    9.083009    7.213865    ( 0.0000,  0.0000,  2.0000)

Unit cell:
           periodic     x           y           z      points  spacing
  1. axis:    yes   10.820500    0.000000    0.000000    48     0.2254
  2. axis:    yes    0.000000   10.820500    0.000000    48     0.2254
  3. axis:    yes    0.000000    0.000000   10.820500    48     0.2254

  Lengths:  10.820500  10.820500  10.820500
  Angles:   90.000000  90.000000  90.000000

Effective grid spacing dv^(1/3) = 0.2254

     iter     time        total  log10-change:  magmom
                         energy  eigst   dens
iter:   1 20:11:53  -894.329496                  +128.4417
iter:   2 20:13:22  -865.996173  -0.40  -1.31    +94.5868
iter:   3 20:14:51  -843.460032  -0.95  -1.28    +65.1511
iter:   4 20:16:21  -832.830590  -1.26  -1.38    +55.6729
iter:   5 20:17:51  -826.025022  -1.84  -1.40    +51.0713
iter:   6 20:19:21  -827.409030  -1.97  -1.47    +48.8727
iter:   7 20:20:50  -826.139569  -1.69  -1.49    +47.4459
iter:   8 20:22:20  -826.529071  -1.74  -1.54    +47.0426
iter:   9 20:23:49  -828.135759  -1.78  -1.62    +47.3897
iter:  10 20:25:19  -823.246721  -2.00  -1.66    +47.1614
iter:  11 20:26:48  -824.812778  -2.20  -1.79    +47.6865
iter:  12 20:28:18  -822.709002  -2.35  -1.79    +48.2784
iter:  13 20:29:48  -823.330316  -2.53  -1.87    +49.2681
iter:  14 20:31:18  -823.454265  -2.53  -1.89    +50.1631
iter:  15 20:32:47  -824.835296  -2.46  -1.93    +51.0353
iter:  16 20:34:17  -823.663767  -2.49  -1.90    +52.5937
iter:  17 20:35:46  -824.301050  -2.65  -1.98    +53.5869
iter:  18 20:37:16  -823.986862  -2.68  -1.99    +54.3750
iter:  19 20:38:46  -824.149354  -2.82  -2.07    +55.2163
iter:  20 20:40:15  -823.964531  -3.00  -2.06    +56.5973
iter:  21 20:41:45  -824.545284  -3.05  -2.13    +57.6123
iter:  22 20:43:14  -824.503952  -3.08  -2.13    +58.0019
iter:  23 20:44:44  -824.763668  -3.13  -2.15    +59.0168
iter:  24 20:46:14  -824.986773  -3.03  -2.18    +59.6941
iter:  25 20:47:43  -825.394178  -3.00  -2.19    +60.1011
iter:  26 20:49:13  -825.226971  -3.01  -2.18    +60.2388
iter:  27 20:50:42  -825.573761  -3.00  -2.27    +60.6408
iter:  28 20:52:12  -825.465316  -3.03  -2.21    +61.0971
iter:  29 20:53:42  -825.515055  -3.19  -2.29    +61.1433
iter:  30 20:55:11  -825.352295  -3.34  -2.30    +61.3261
iter:  31 20:56:41  -825.396583  -3.55  -2.38    +61.4831
iter:  32 20:58:11  -825.397730c -3.68  -2.40    +61.7592
iter:  33 20:59:40  -825.457693c -3.68  -2.43    +61.7936
iter:  34 21:01:10  -825.486463c -3.84  -2.44    +61.8012
iter:  35 21:02:40  -825.700926  -3.41  -2.50    +61.8930
iter:  36 21:04:09  -825.667515  -3.41  -2.41    +61.8149
iter:  37 21:05:39  -825.668351c -3.47  -2.51    +61.7628
iter:  38 21:07:08  -825.673507c -3.54  -2.60    +61.5963
iter:  39 21:08:38  -825.723786c -3.47  -2.61    +61.6169
iter:  40 21:10:08  -825.596206  -3.87  -2.56    +61.6657
iter:  41 21:11:37  -825.603390  -4.10  -2.80    +61.5146
iter:  42 21:13:07  -825.587594c -4.60  -2.80    +61.5000
iter:  43 21:14:37  -825.606458c -4.71  -2.89    +61.3714
iter:  44 21:16:06  -825.632039c -4.46  -2.92    +61.2044
iter:  45 21:17:36  -825.650913c -4.41  -2.94    +61.0046
iter:  46 21:19:06  -825.656557c -4.50  -2.99    +60.9401
iter:  47 21:20:36  -825.659626c -4.61  -3.13    +60.7826
iter:  48 21:22:06  -825.665459c -4.73  -3.27    +60.6836
iter:  49 21:23:35  -825.670016c -4.96  -3.32    +60.5677
iter:  50 21:25:05  -825.678689c -5.09  -3.52    +60.4396
iter:  51 21:26:35  -825.688880c -5.01  -3.50    +60.2783
iter:  52 21:28:04  -825.708894c -4.57  -3.50    +59.9610
iter:  53 21:29:34  -825.731654c -4.39  -3.38    +59.6184
iter:  54 21:31:04  -825.727972c -5.35  -3.28    +59.6691
iter:  55 21:32:33  -825.736004c -5.14  -3.35    +59.5662
iter:  56 21:34:03  -825.738779c -5.28  -3.34    +59.4982
iter:  57 21:35:32  -825.747447c -4.90  -3.38    +59.4069
iter:  58 21:37:02  -825.743159c -4.94  -3.25    +59.3910
iter:  59 21:38:32  -825.749311c -5.14  -3.47    +59.2538
iter:  60 21:40:02  -825.752207c -5.16  -3.42    +59.2052
iter:  61 21:41:31  -825.754557c -5.36  -3.39    +59.1016
iter:  62 21:43:01  -825.758262c -5.58  -3.52    +59.0367
iter:  63 21:44:30  -825.776510c -4.66  -3.50    +58.7869
iter:  64 21:46:00  -825.757112c -4.69  -3.30    +59.0967
iter:  65 21:47:30  -825.768987c -4.97  -3.37    +58.9112
iter:  66 21:49:00  -825.766578c -5.50  -3.35    +58.9290
iter:  67 21:50:29  -825.772554c -5.11  -3.40    +58.8468
iter:  68 21:51:59  -825.771936c -5.43  -3.42    +58.8167
iter:  69 21:53:29  -825.776897c -5.07  -3.61    +58.7029
iter:  70 21:54:58  -825.785343c -4.94  -3.61    +58.4997
iter:  71 21:56:28  -825.783665c -5.93  -3.57    +58.5148
iter:  72 21:57:57  -825.788019c -5.62  -3.66    +58.4226
iter:  73 21:59:27  -825.774657c -4.74  -3.60    +58.7390
iter:  74 22:00:57  -825.781666c -5.35  -3.62    +58.5546
iter:  75 22:02:26  -825.780584c -6.20  -3.71    +58.5768
iter:  76 22:03:56  -825.784494c -5.71  -3.70    +58.4955
iter:  77 22:05:26  -825.786108c -5.93  -3.75    +58.4558
iter:  78 22:06:55  -825.791282c -5.52  -3.79    +58.3544
iter:  79 22:08:25  -825.788964c -6.06  -3.71    +58.3996
iter:  80 22:09:54  -825.792569c -5.76  -3.71    +58.3242
iter:  81 22:11:24  -825.793701c -6.14  -3.72    +58.2989
iter:  82 22:12:54  -825.797428c -5.77  -3.72    +58.2322
iter:  83 22:14:23  -825.797448c -5.75  -3.72    +58.2594
iter:  84 22:15:53  -825.802686c -5.45  -3.54    +58.1552
iter:  85 22:17:22  -825.803572c -5.76  -3.58    +58.1292
iter:  86 22:18:52  -825.807658c -5.53  -3.63    +58.0604
iter:  87 22:20:22  -825.811076c -5.61  -3.64    +57.9797
iter:  88 22:21:52  -825.815452c -5.34  -3.65    +57.9360
iter:  89 22:23:22  -825.818646c -5.23  -3.45    +57.8908
iter:  90 22:24:51  -825.819248c -5.50  -3.42    +57.8340
iter:  91 22:26:21  -825.823776c -5.52  -3.52    +57.7507
iter:  92 22:27:51  -825.822824c -6.02  -3.47    +57.7460
iter:  93 22:29:20  -825.828141c -5.38  -3.57    +57.6390
iter:  94 22:30:50  -825.828581c -5.66  -3.52    +57.6525
iter:  95 22:32:20  -825.832353c -5.49  -3.49    +57.5865
iter:  96 22:33:50  -825.834979c -5.71  -3.52    +57.5565
iter:  97 22:35:19  -825.838741c -5.77  -3.52    +57.5060
iter:  98 22:36:49  -825.842577c -5.42  -3.46    +57.4691
iter:  99 22:38:18  -825.845745c -5.47  -3.38    +57.4080
iter: 100 22:39:48  -825.849733c -5.39  -3.38    +57.3426
iter: 101 22:41:18  -825.851746c -5.46  -3.37    +57.3071
[...]
iter: 120 23:09:42  -825.896534c -5.67  -3.35    +56.5523
iter: 121 23:11:12  -825.897719c -5.55  -3.31    +56.5204
iter: 122 23:12:41  -825.897815c -5.50  -3.30    +56.4882
iter: 123 23:14:11  -825.904248c -4.61  -3.29    +56.4673
iter: 124 23:15:41  -825.901478c -4.51  -3.24    +56.4721
iter: 125 23:17:10  -825.893894c -5.09  -3.24    +56.4859
iter: 126 23:18:40  -825.893460c -5.74  -3.59    +56.4909
iter: 127 23:20:10  -825.893114c -5.97  -3.68    +56.5013
iter: 128 23:21:40  -825.893322c -5.95  -3.69    +56.5022
iter: 129 23:23:09  -825.893897c -5.66  -3.75    +56.5099
iter: 130 23:24:39  -825.894692c -5.56  -3.66    +56.5130
iter: 131 23:26:09  -825.893461c -5.80  -3.68    +56.5113
iter: 132 23:27:38  -825.893607c -5.93  -3.80    +56.5165
iter: 133 23:29:08  -825.894265c -6.01  -3.81    +56.5129
iter: 134 23:30:38  -825.893737c -6.38  -3.83    +56.5183
iter: 135 23:32:08  -825.893860c -6.76  -4.02c   +56.5185
iter: 136 23:33:38  -825.894067c -6.91  -4.06c   +56.5226
iter: 137 23:35:07  -825.894448c -6.71  -4.08c   +56.5255
iter: 138 23:36:37  -825.894611c -6.93  -4.07c   +56.5290
iter: 139 23:38:07  -825.895454c -6.17  -4.09c   +56.5350
iter: 140 23:39:36  -825.895147c -6.27  -4.03c   +56.5362
iter: 141 23:41:06  -825.895299c -6.38  -4.01c   +56.5353
iter: 142 23:42:36  -825.895107c -6.67  -4.18c   +56.5311
iter: 143 23:44:05  -825.895301c -6.99  -4.20c   +56.5339
iter: 144 23:45:35  -825.895263c -7.44c -4.38c   +56.5361

Converged after 144 iterations.

Dipole moment: (29.490378, -3.367927, -9.700479) |e|*Ang

Total magnetic moment: (0.000000, 0.000000, 56.536132)
Local magnetic moments:
   0 Co ( 0.000000,  0.000000,  1.166323)
   1 Co ( 0.000000,  0.000000,  1.364319)
   2 Fe ( 0.000000,  0.000000,  2.320280)
   3 Al ( 0.000000,  0.000000, -0.047373)
   4 Fe ( 0.000000,  0.000000,  2.331489)
   5 Fe ( 0.000000,  0.000000,  2.380488)
   6 Co ( 0.000000,  0.000000,  0.955394)
   7 Cr ( 0.000000,  0.000000, -2.389913)
   8 Fe ( 0.000000,  0.000000,  2.155249)
   9 Al ( 0.000000,  0.000000, -0.010145)
  10 Ni ( 0.000000,  0.000000,  0.164505)
  11 Ni ( 0.000000,  0.000000,  0.187180)
  12 Ni ( 0.000000,  0.000000,  0.234094)
  13 Al ( 0.000000,  0.000000, -0.030529)
  14 Fe ( 0.000000,  0.000000,  2.267867)
  15 Fe ( 0.000000,  0.000000,  1.990389)
  16 Co ( 0.000000,  0.000000,  1.241995)
  17 Fe ( 0.000000,  0.000000,  2.181837)
  18 Ni ( 0.000000,  0.000000,  0.253010)
  19 Fe ( 0.000000,  0.000000,  2.275508)
  20 Ni ( 0.000000,  0.000000,  0.096566)
  21 Co ( 0.000000,  0.000000,  1.185965)
  22 Al ( 0.000000,  0.000000, -0.019528)
  23 Fe ( 0.000000,  0.000000,  2.101296)
  24 Co ( 0.000000,  0.000000,  0.409712)
  25 Co ( 0.000000,  0.000000,  0.987841)
  26 Cr ( 0.000000,  0.000000, -1.832208)
  27 Ni ( 0.000000,  0.000000,  0.097151)
  28 Al ( 0.000000,  0.000000, -0.018589)
  29 Al ( 0.000000,  0.000000, -0.017539)
  30 Ni ( 0.000000,  0.000000,  0.344584)
  31 Cr ( 0.000000,  0.000000,  1.619305)
  32 Co ( 0.000000,  0.000000,  0.994511)
  33 Cr ( 0.000000,  0.000000, -1.388953)
  34 Cr ( 0.000000,  0.000000, -1.539647)
  35 Co ( 0.000000,  0.000000,  0.965318)
  36 Cr ( 0.000000,  0.000000, -1.442315)
  37 Al ( 0.000000,  0.000000, -0.031589)
  38 Ni ( 0.000000,  0.000000,  0.110157)
  39 Fe ( 0.000000,  0.000000,  2.201619)
  40 Al ( 0.000000,  0.000000, -0.036097)
  41 Cr ( 0.000000,  0.000000, -2.042261)
  42 Al ( 0.000000,  0.000000, -0.025366)
  43 Fe ( 0.000000,  0.000000,  1.904129)
  44 Al ( 0.000000,  0.000000, -0.026094)
  45 Co ( 0.000000,  0.000000,  0.719132)
  46 Fe ( 0.000000,  0.000000,  2.074570)
  47 Ni ( 0.000000,  0.000000,  0.159046)
  48 Ni ( 0.000000,  0.000000,  0.348148)
  49 Ni ( 0.000000,  0.000000,  0.288729)
  50 Co ( 0.000000,  0.000000,  1.215092)
  51 Fe ( 0.000000,  0.000000,  2.342655)
  52 Co ( 0.000000,  0.000000,  1.073583)
  53 Cr ( 0.000000,  0.000000, -1.721261)
  54 Cr ( 0.000000,  0.000000, -1.244042)
  55 Cr ( 0.000000,  0.000000,  1.377027)
  56 Cr ( 0.000000,  0.000000, -1.563012)
  57 Co ( 0.000000,  0.000000,  1.194323)
  58 Fe ( 0.000000,  0.000000,  2.283314)
  59 Co ( 0.000000,  0.000000,  1.116712)
[...]
  93 Ni ( 0.000000,  0.000000,  0.306879)
  94 Cr ( 0.000000,  0.000000,  1.562701)
  95 Al ( 0.000000,  0.000000, -0.013679)
  96 Cr ( 0.000000,  0.000000,  0.815972)
  97 Cr ( 0.000000,  0.000000, -1.142116)
  98 Fe ( 0.000000,  0.000000,  1.866873)
  99 Co ( 0.000000,  0.000000,  0.673765)
 100 Fe ( 0.000000,  0.000000, -1.645522)
 101 Cr ( 0.000000,  0.000000, -2.100578)
 102 Al ( 0.000000,  0.000000, -0.004603)
 103 Co ( 0.000000,  0.000000,  1.025414)
 104 Fe ( 0.000000,  0.000000,  2.518620)
 105 Ni ( 0.000000,  0.000000,  0.218585)
 106 Cr ( 0.000000,  0.000000, -1.227565)
 107 Co ( 0.000000,  0.000000,  0.740659)

Energy contributions relative to reference atoms: (reference = -3382523.201499)

Kinetic:       +221.989422
Potential:     -229.990957
External:        +0.000000
XC:            -849.083392
Entropy (-ST):   -4.145784
Local:          +33.262557
Free energy:   -827.968155
Extrapolated:  -825.895263

Spin contamination: 30.781302 electrons
Showing only first 2 kpts
                      Up                     Down
 Kpt  Band  Eigenvalues  Occupancy  Eigenvalues  Occupancy
  0   470      9.15275    0.99527     10.04604    0.02700
  0   471      9.17148    0.99430     10.05299    0.02523
  0   472      9.17937    0.99383     10.06207    0.02309
  0   473      9.20895    0.99173     10.07828    0.01970

  1   470      9.16223    0.99480     10.04318    0.02776
  1   471      9.17995    0.99380     10.05430    0.02491
  1   472      9.18888    0.99322     10.07318    0.02071
  1   473      9.19620    0.99271     10.08376    0.01867

Fermi level: 9.68758

No gap

Forces in eV/Ang:
  0 Co    0.11339   -0.48846    0.23657
  1 Co    0.40118   -0.23950    0.04882
  2 Fe   -0.42499   -0.22349   -0.68171
  3 Al    0.16291   -0.09646   -0.23327
  4 Fe    0.26732   -0.17339   -0.57217
  5 Fe    0.34037    0.58961   -0.26153
  6 Co    0.28301    0.24843   -0.60843
  7 Cr   -1.10915   -0.93192   -0.84969
  8 Fe   -0.51814    0.49621   -0.28080
  9 Al   -0.33216   -0.58821   -1.27609
 10 Ni   -0.19962   -0.24269   -0.37661
 11 Ni   -0.20380   -0.41537   -0.43701
 12 Ni   -0.34460    0.53030    0.12135
 13 Al    0.61499   -0.12016   -0.11715
 14 Fe    0.42262    0.23760    0.70141
 15 Fe   -0.17084   -0.01428   -0.00094
 16 Co    0.46962    0.09436    0.17876
 17 Fe   -0.50925   -0.74046    0.69430
 18 Ni   -0.42488   -0.20205   -0.02079
 19 Fe    0.39466   -0.60320    0.31802
 20 Ni   -0.12765   -0.06999   -0.40291
 21 Co    0.01740    0.52031    0.06942
 22 Al    0.46674   -0.03703   -0.51237
 23 Fe   -0.46989    0.85276   -0.48619
 24 Co    0.28227   -0.07050   -0.07650
 25 Co    0.26381   -0.21182   -0.24883
 26 Cr   -0.75113    0.17636    0.17242
 27 Ni    0.75216    0.45149   -0.19756
 28 Al   -0.90684    0.32880    0.09880
 29 Al   -0.48736    0.41855   -0.85084
 30 Ni   -0.17450    0.07046    0.32890
 31 Cr    0.66749    1.00531   -0.38455
 32 Co    0.44310   -0.16298    0.23249
 33 Cr    0.05406    0.02131   -0.57104
 34 Cr   -0.44458    0.44426   -0.14086
 35 Co   -0.20731    0.04569    0.15701
 36 Cr    0.03114   -0.69197   -0.85301
 37 Al    0.10084    0.11438   -0.09621
 38 Ni    0.27065   -0.03196    0.06186
 39 Fe    0.48219    0.70368   -0.03840
 40 Al   -0.50105    0.62272   -0.31768
 41 Cr   -0.57719    1.37548    0.06505
 42 Al    0.44486   -0.21739    1.13563
 43 Fe   -0.54972    0.80911    0.29550
 44 Al    0.76191   -0.16420   -0.07212
 45 Co    0.03126    0.50744    0.38842
 46 Fe   -0.29232   -0.34592    0.30300
 47 Ni   -0.05427   -0.24543    0.00715
 48 Ni    0.59533    0.35005   -0.02383
 49 Ni    0.30289    0.27595   -0.38089
 50 Co    0.66757    0.22956   -0.33133
 51 Fe    1.24547   -0.24631    0.35698
 52 Co   -0.29388   -0.03386    0.40356
 53 Cr   -0.43977   -0.77507   -0.11493
 54 Cr    0.34033    0.22758    0.11402
 55 Cr   -0.06790   -0.76991    0.20847
 56 Cr   -0.76936    0.65222    1.14241
 57 Co    0.12326    0.10489    0.18696
 58 Fe   -0.94941    0.24825    0.20505
 59 Co   -0.43546    0.62634    0.54309
[...]
 93 Ni    0.29556   -0.18861   -0.27020
 94 Cr    0.16634    0.20816    0.35575
 95 Al   -1.47197   -0.08874   -0.88088
 96 Cr   -0.11023    0.26136    0.72646
 97 Cr    0.26753    0.11918    0.41716
 98 Fe    0.03305    0.30857   -0.17068
 99 Co    0.24908   -0.27470    0.29824
100 Fe   -0.44810    0.61846   -0.23372
101 Cr   -0.39128    0.98430    0.26554
102 Al    1.15742    0.22998   -1.39102
103 Co   -0.09414   -0.44910    0.34305
104 Fe   -0.02873    0.01463   -0.58460
105 Ni    0.08767    0.13047    0.00117
106 Cr   -0.76001    0.50965    0.33761
107 Co   -0.34154   -0.20399    0.00180

Date: Fri Apr 14 23:45:55 2023