User:   c.zeng@d0087
Date:   Sat Apr 15 22:52:07 2023
Arch:   x86_64
Pid:    35366
CWD:    /home/c.zeng/projects/hea-corrosion/hea-mlp/data-curation/bulk-mcmc/dft-jobs/90
Python: 3.8.1
gpaw:   /home/c.zeng/usr/installs/gpaw/source/gpaw-22.8.0/gpaw
_gpaw:  /home/c.zeng/usr/installs/gpaw/source/gpaw-22.8.0/
        _gpaw.cpython-38-x86_64-linux-gnu.so
ase:    /home/c.zeng/.local/lib/python3.8/site-packages/ase-3.22.1-py3.8.egg/ase (version 3.22.1)
numpy:  /home/c.zeng/.local/lib/python3.8/site-packages/numpy (version 1.24.2)
scipy:  /home/c.zeng/.local/lib/python3.8/site-packages/scipy (version 1.10.1)
units:  Angstrom and eV
cores: 30
OpenMP: False
OMP_NUM_THREADS: 1

Input parameters:
  convergence: {energy: 0.0001}
  kpts: [2 2 2]
  maxiter: 666
  mode: {ecut: 350.0,
         name: pw}
  occupations: {fixmagmom: False,
                name: fermi-dirac,
                width: 0.1}
  spinpol: True
  xc: PBE

System changes: positions, numbers, cell, pbc, initial_charges, initial_magmoms

Initialize ...

species:
  Cr:
    name: Chromium
    id: 33f258bda2ca9f93018e70263a35547b
    Z: 24.0
    valence: 6
    core: 18
    charge: 0.0
    file: /home/c.zeng/usr/data/gpaw-setups-0.9.20000/Cr.PBE.gz
    compensation charges: {type: gauss,
                           rc: 0.35,
                           lmax: 2}
    cutoffs: {filter: 2.14,
              core: 3.04}
    valence states:
      #              energy  rcut
      - 4s(1.00)    -4.007   1.164
      - 4p(0.00)    -0.989   1.217
      - 3d(5.00)    -2.913   1.111
      -  s          23.205   1.164
      -  p          26.223   1.217
      -  d          24.299   1.111

    # Using partial waves for Cr as LCAO basis

  Fe:
    name: Iron
    id: 37abbd8d6c3c35915a9b583b742da910
    Z: 26.0
    valence: 8
    core: 18
    charge: 0.0
    file: /home/c.zeng/usr/data/gpaw-setups-0.9.20000/Fe.PBE.gz
    compensation charges: {type: gauss,
                           rc: 0.33,
                           lmax: 2}
    cutoffs: {filter: 2.06,
              core: 2.67}
    valence states:
      #              energy  rcut
      - 4s(2.00)    -5.291   1.164
      - 4p(0.00)    -1.326   1.058
      - 3d(6.00)    -7.505   1.058
      -  s          21.920   1.164
      -  p          25.885   1.058
      -  d          19.706   1.058

[...]

  Ni:
    name: Nickel
    id: 0d9f38a9d6e76a2886f07bb4381f212b
    Z: 28.0
    valence: 16
    core: 12
    charge: 0.0
    file: /home/c.zeng/usr/data/gpaw-setups-0.9.20000/Ni.PBE.gz
    compensation charges: {type: gauss,
                           rc: 0.36,
                           lmax: 2}
    cutoffs: {filter: 2.14,
              core: 1.98}
    valence states:
      #              energy  rcut
      - 4s(2.00)    -5.642   1.164
      - 3p(6.00)   -71.394   1.207
      - 4p(0.00)    -1.226   1.207
      - 3d(8.00)    -8.875   1.138
      -  s          21.570   1.164
      -  d          18.337   1.138

[...]

  Co:
    name: Cobalt
    id: 339d20d5b0b93d2de9531a1bee871d91
    Z: 27.0
    valence: 9
    core: 18
    charge: 0.0
    file: /home/c.zeng/usr/data/gpaw-setups-0.9.20000/Co.PBE.gz
    compensation charges: {type: gauss,
                           rc: 0.32,
                           lmax: 2}
    cutoffs: {filter: 1.87,
              core: 2.55}
    valence states:
      #              energy  rcut
      - 4s(2.00)    -5.469   1.005
      - 4p(0.00)    -1.277   1.058
      - 3d(7.00)    -8.205   1.005
      -  s          21.742   1.005
      -  p          25.934   1.058
      -  d          19.007   1.005

[...]

  Al:
    name: Aluminium
    id: 0292cae29f5d6237e50f6abdd43a7bdd
    Z: 13.0
    valence: 3
    core: 10
    charge: 0.0
    file: /home/c.zeng/usr/data/gpaw-setups-0.9.20000/Al.PBE.gz
    compensation charges: {type: gauss,
                           rc: 0.34,
                           lmax: 2}
    cutoffs: {filter: 1.91,
              core: 2.36}
    valence states:
      #              energy  rcut
      - 3s(2.00)    -7.753   1.085
      - 3p(1.00)    -2.712   1.085
      -  s          19.459   1.085
      -  p          24.499   1.085
      -  d           0.000   1.085

    # Using partial waves for Al as LCAO basis

Reference energy: -3699400.456887  # eV

Spin-polarized calculation.
Magnetic moment: 143.500000

Convergence criteria:
 Maximum [total energy] change in last 3 cyles: 0.0001 eV / electron
 Maximum integral of absolute [dens]ity change: 0.0001 electrons / valence electron
 Maximum integral of absolute [eigenst]ate change: 4e-08 eV^2 / valence electron
 Maximum number of scf [iter]ations: 666
 (Square brackets indicate name in SCF output, whereas a 'c' in
 the SCF output indicates the quantity has converged.)

Symmetries present (total): 1

  ( 1  0  0)
  ( 0  1  0)
  ( 0  0  1)

8 k-points: 2 x 2 x 2 Monkhorst-Pack grid
4 k-points in the irreducible part of the Brillouin zone
       k-points in crystal coordinates                weights
   0:     0.25000000   -0.25000000   -0.25000000          2/8
   1:     0.25000000   -0.25000000    0.25000000          2/8
   2:     0.25000000    0.25000000   -0.25000000          2/8
   3:     0.25000000    0.25000000    0.25000000          2/8

Wave functions: Plane wave expansion
  Cutoff energy: 350.000 eV
  Number of coefficients (min, max): 18052, 18052
  Pulay-stress correction: 0.000000 eV/Ang^3 (de/decut=0.000000)
  Using FFTW library
  ScaLapack parameters: grid=1x1, blocksize=None
  Wavefunction extrapolation:
    Improved wavefunction reuse through dual PAW basis

Occupation numbers: Fermi-Dirac:
  width: 0.1000  # eV

Eigensolver
   Davidson(niter=2)

Densities:
  Coarse grid: 48*48*48 grid
  Fine grid: 96*96*96 grid
  Total Charge: 0.000000

Density mixing:
  Method: difference
  Backend: pulay
  Linear mixing parameter: 0.05
  old densities: 5
  Damping of long wavelength oscillations: 50

Hamiltonian:
  XC and Coulomb potentials evaluated on a 96*96*96 grid
  Using the PBE Exchange-Correlation functional
  External potential:
    NoExternalPotential

XC parameters: PBE with 2 nearest neighbor stencil

Total number of cores used: 30
Parallelization over k-points: 2
Domain decomposition: 5 x 3 x 1

Number of atoms: 108
Number of atomic orbitals: 1025
Number of bands in calculation: 703
Number of valence electrons: 1020
Bands to converge: occupied

... initialized

Initializing position-dependent things.

Density initialized from atomic densities
Creating initial wave functions:
  703 bands from LCAO basis set

        Cr------------------------.
       /|  Co                Co   |
      Ni|   Cr         Cr         |
     / Fe      Fe       Al        |
    /   CCo      Cr       Fe      |
   /e   | CoCr     CoAl    NiNi   |
  /  FeNi  CrCo     NiNiCo        |
 *    FeFe  FeCoCr     CoAl       |
 |     CoFeNi  CoFe Cr  NiFeNi    |
 | Fe   CrNiCrCo NiCrNiFe  Cr     |
 |   CoNi  CrAlCr   CrCrCr   Fe   |
 |    FeCr  FeFeCoNi CoFeCr   Cr  |
 |     NiFeFe  Cr NiNi  CoFeFe    |
 |      .-CoNiCo-FeCrCrCo--CoCr---.
 |   CrCo    CoAl   NiNiFe       /
 |    / Ni    NiFe       Ni     /
 |   /            Ni           /
 |Cr/      Co       Co        /
 |/            Ni           /
 *----------------Ni-------*

Positions:
   0 Cr     0.005316   -0.016350   10.639749    ( 0.0000,  0.0000,  0.0000)
   1 Cr    10.672340    1.801276    1.786848    ( 0.0000,  0.0000,  0.0000)
   2 Fe     1.795727   10.625972    1.782259    ( 0.0000,  0.0000,  0.0000)
   3 Ni     1.780787    1.796175   10.644605    ( 0.0000,  0.0000,  2.1000)
   4 Fe     3.523539   -0.014558    0.017268    ( 0.0000,  0.0000,  2.0000)
   5 Co     3.522568    1.781672    1.746648    ( 0.0000,  0.0000,  0.0000)
   6 Co     5.320952   10.642342    1.763136    ( 0.0000,  0.0000,  1.5000)
   7 Ni     5.342082    1.828767    0.007462    ( 0.0000,  0.0000,  2.0000)
   8 Ni     7.144895    0.019195    0.012033    ( 0.0000,  0.0000,  0.0000)
   9 Co     7.143497    1.798064    1.764939    ( 0.0000,  0.0000,  2.1000)
  10 Cr     8.891362   10.651627    1.788353    ( 0.0000,  0.0000,  1.5000)
  11 Co     8.888779    1.804777   10.642609    ( 0.0000,  0.0000,  2.0000)
  12 Fe     0.008694    3.581540   10.650250    ( 0.0000,  0.0000,  2.1000)
  13 Cr     0.018979    5.332745    1.789751    ( 0.0000,  0.0000,  2.1000)
  14 Ni     1.778129    3.600941    1.760019    ( 0.0000,  0.0000,  2.0000)
  15 Co     1.790423    5.343267   -0.017766    ( 0.0000,  0.0000,  2.0000)
  16 Cr     3.542802    3.589864   -0.015614    ( 0.0000,  0.0000,  2.0000)
  17 Co     3.526837    5.358538    1.765793    ( 0.0000,  0.0000,  2.0000)
  18 Fe     5.336650    3.606501    1.755815    ( 0.0000,  0.0000,  0.0000)
  19 Cr     5.300399    5.323642   -0.012797    ( 0.0000,  0.0000,  2.1000)
  20 Al     7.122858    3.584816   10.659524    ( 0.0000,  0.0000,  2.0000)
  21 Ni     7.120500    5.315168    1.805502    ( 0.0000,  0.0000,  1.5000)
  22 Ni     8.892034    3.590952    1.773146    ( 0.0000,  0.0000,  2.1000)
  23 Fe     8.925340    5.301487   -0.003100    ( 0.0000,  0.0000,  0.0000)
  24 Ni     0.023055    7.096680   -0.007939    ( 0.0000,  0.0000,  0.0000)
  25 Ni     0.019141    8.871245    1.787510    ( 0.0000,  0.0000,  1.5000)
  26 Co     1.784372    7.104567    1.776443    ( 0.0000,  0.0000,  2.0000)
  27 Co     1.779944    8.867628   10.659406    ( 0.0000,  0.0000,  1.5000)
  28 Ni     3.547785    7.097897    0.009215    ( 0.0000,  0.0000,  2.1000)
  29 Cr     3.541137    8.858109    1.788225    ( 0.0000,  0.0000,  2.1000)
  30 Cr     5.295105    7.099391    1.787894    ( 0.0000,  0.0000,  2.1000)
  31 Ni     5.303685    8.873828    0.029898    ( 0.0000,  0.0000,  0.0000)
  32 Cr     7.106883    7.088719   10.645159    ( 0.0000,  0.0000,  0.0000)
  33 Co     7.111055    8.901137    1.809472    ( 0.0000,  0.0000,  0.0000)
  34 Co     8.939384    7.093404    1.799238    ( 0.0000,  0.0000,  0.0000)
  35 Co     8.919972    8.915853   10.664881    ( 0.0000,  0.0000,  0.0000)
  36 Cr    10.679704   10.658873    3.584517    ( 0.0000,  0.0000,  2.0000)
  37 Fe    10.670921    1.796367    5.340289    ( 0.0000,  0.0000,  2.1000)
  38 Fe     1.770350   10.649001    5.343491    ( 0.0000,  0.0000,  0.0000)
  39 Co     1.791800    1.784671    3.584891    ( 0.0000,  0.0000,  2.0000)
  40 Ni     3.529718   10.626388    3.565234    ( 0.0000,  0.0000,  2.1000)
  41 Fe     3.535716    1.793465    5.367289    ( 0.0000,  0.0000,  1.5000)
  42 Co     5.311497    0.001574    5.366254    ( 0.0000,  0.0000,  1.5000)
  43 Al     5.332627    1.768055    3.580793    ( 0.0000,  0.0000,  0.0000)
  44 Ni     7.136966   10.673941    3.563804    ( 0.0000,  0.0000,  2.0000)
  45 Ni     7.136774    1.794126    5.358944    ( 0.0000,  0.0000,  2.1000)
  46 Co     8.925938   10.673621    5.347589    ( 0.0000,  0.0000,  2.0000)
  47 Fe     8.883827    1.779111    3.582404    ( 0.0000,  0.0000,  1.5000)
  48 Cr    -0.010038    3.572341    3.580996    ( 0.0000,  0.0000,  2.0000)
  49 Co    10.685573    5.328935    5.338550    ( 0.0000,  0.0000,  2.0000)
  50 Cr     1.784180    3.582949    5.348357    ( 0.0000,  0.0000,  1.5000)
  51 Fe     1.766326    5.339510    3.565255    ( 0.0000,  0.0000,  1.5000)
[...]
  59 Fe     8.904573    5.339084    3.577453    ( 0.0000,  0.0000,  2.0000)
[...]
  93 Ni     7.108740    5.307762    8.854395    ( 0.0000,  0.0000,  1.5000)
  94 Al     8.907593    3.561296    8.890348    ( 0.0000,  0.0000,  2.1000)
  95 Fe     8.917806    5.336309    7.100224    ( 0.0000,  0.0000,  0.0000)
  96 Fe     0.016270    7.102027    7.111664    ( 0.0000,  0.0000,  2.0000)
  97 Fe     0.000822    8.895150    8.883817    ( 0.0000,  0.0000,  1.5000)
  98 Co     1.771182    7.105090    8.888608    ( 0.0000,  0.0000,  1.5000)
  99 Cr     1.775184    8.850318    7.108494    ( 0.0000,  0.0000,  2.0000)
 100 Co     3.530401    7.086478    7.104972    ( 0.0000,  0.0000,  1.5000)
 101 Fe     3.524841    8.851001    8.894798    ( 0.0000,  0.0000,  0.0000)
 102 Co     5.310654    7.102827    8.871128    ( 0.0000,  0.0000,  0.0000)
 103 Ni     5.290613    8.850286    7.104876    ( 0.0000,  0.0000,  0.0000)
 104 Co     7.129016    7.083330    7.142750    ( 0.0000,  0.0000,  2.1000)
 105 Al     7.143241    8.903186    8.854384    ( 0.0000,  0.0000,  2.0000)
 106 Ni     8.926504    7.115858    8.862313    ( 0.0000,  0.0000,  0.0000)
 107 Ni     8.932896    8.877648    7.127479    ( 0.0000,  0.0000,  1.5000)

Unit cell:
           periodic     x           y           z      points  spacing
  1. axis:    yes   10.671700    0.000000    0.000000    48     0.2223
  2. axis:    yes    0.000000   10.671700    0.000000    48     0.2223
  3. axis:    yes    0.000000    0.000000   10.671700    48     0.2223

  Lengths:  10.671700  10.671700  10.671700
  Angles:   90.000000  90.000000  90.000000

Effective grid spacing dv^(1/3) = 0.2223

     iter     time        total  log10-change:  magmom
                         energy  eigst   dens
iter:   1 22:58:16  -913.010044                  +143.1198
iter:   2 23:01:04  -936.355773  -0.53  -1.36    +107.7982
iter:   3 23:03:52  -891.475358  -0.95  -1.29    +77.7382
iter:   4 23:06:41  -872.170482  -1.50  -1.41    +65.5360
iter:   5 23:09:31  -870.750811  -1.97  -1.50    +58.5729
iter:   6 23:12:21  -872.213195  -2.09  -1.53    +55.5441
iter:   7 23:15:10  -870.028937  -1.90  -1.54    +53.7852
iter:   8 23:18:00  -869.426216  -1.82  -1.60    +53.1215
iter:   9 23:20:50  -874.979013  -1.78  -1.72    +52.9993
iter:  10 23:23:40  -867.661175  -2.05  -1.71    +52.3277
iter:  11 23:26:30  -869.040530  -2.43  -1.90    +52.6402
iter:  12 23:29:20  -868.542677  -2.53  -1.87    +53.1557
iter:  13 23:32:11  -868.036648  -2.66  -1.93    +54.0864
iter:  14 23:35:00  -868.138410  -2.79  -1.97    +54.7578
iter:  15 23:37:49  -870.517891  -2.55  -2.05    +55.5315
iter:  16 23:40:39  -869.736425  -2.46  -1.97    +55.9397
iter:  17 23:43:28  -870.672917  -2.54  -2.05    +56.4295
iter:  18 23:46:18  -869.782142  -2.62  -2.04    +57.1404
iter:  19 23:49:08  -869.840684  -2.62  -2.13    +57.6165
iter:  20 23:51:58  -868.706103  -3.13  -2.12    +58.2217
iter:  21 23:54:49  -868.839718  -3.32  -2.30    +59.1426
iter:  22 23:57:39  -868.846126  -3.52  -2.32    +59.8691
iter:  23 00:00:29  -868.960123  -3.68  -2.35    +60.6702
iter:  24 00:03:19  -869.214008  -3.49  -2.39    +61.5540
iter:  25 00:06:09  -869.790978  -3.14  -2.38    +62.1630
iter:  26 00:08:58  -869.533133  -3.22  -2.29    +62.4777
iter:  27 00:11:45  -869.818449  -3.17  -2.42    +62.9549
iter:  28 00:14:35  -869.945690  -3.12  -2.36    +63.1976
iter:  29 00:17:25  -869.642541  -3.33  -2.37    +63.6103
iter:  30 00:20:15  -869.578206  -3.70  -2.50    +64.0294
iter:  31 00:23:05  -869.587662c -4.21  -2.56    +64.3747
iter:  32 00:25:55  -869.674668c -4.03  -2.61    +64.9130
iter:  33 00:28:45  -869.867221  -3.39  -2.62    +65.8843
iter:  34 00:31:35  -869.937361  -3.61  -2.63    +65.6958
iter:  35 00:34:24  -869.914651c -3.77  -2.67    +65.8514
iter:  36 00:37:13  -869.881427c -4.05  -2.77    +65.7739
iter:  37 00:39:59  -869.907936c -4.28  -2.91    +65.9011
iter:  38 00:42:33  -869.916258c -4.61  -3.01    +65.9755
iter:  39 00:45:04  -869.956259c -4.46  -3.10    +66.1073
iter:  40 00:47:35  -869.954569c -5.11  -3.09    +66.1016
iter:  41 00:50:05  -869.988265c -4.59  -3.13    +66.1721
iter:  42 00:52:35  -869.990978c -5.07  -3.14    +66.2235
iter:  43 00:55:05  -870.035450c -4.45  -3.23    +66.4060
iter:  44 00:57:36  -870.064313c -4.49  -3.20    +66.5085
iter:  45 01:00:05  -870.118793c -4.14  -3.18    +66.6917
iter:  46 01:02:36  -870.196684  -3.69  -3.11    +66.9172
iter:  47 01:05:06  -870.223200  -4.21  -2.95    +66.9039
iter:  48 01:07:36  -870.225842c -4.93  -2.89    +66.8622
iter:  49 01:10:07  -870.236927c -4.77  -2.88    +66.8577
iter:  50 01:12:37  -870.219740c -4.91  -2.86    +66.8117
iter:  51 01:15:07  -870.192607c -4.23  -2.89    +66.7904
iter:  52 01:17:37  -870.438677  -3.48  -2.90    +66.7604
iter:  53 01:20:07  -870.161157  -3.93  -2.58    +66.6966
iter:  54 01:22:37  -870.157636  -4.61  -3.08    +66.6015
iter:  55 01:25:07  -870.158134c -4.91  -3.16    +66.5431
iter:  56 01:28:13  -870.161370c -4.98  -3.21    +66.5102
iter:  57 01:31:12  -870.160354c -5.07  -3.25    +66.4788
iter:  58 01:33:42  -870.162597c -4.99  -3.28    +66.4530
iter:  59 01:36:14  -870.161572c -5.20  -3.36    +66.4441
iter:  60 01:38:44  -870.164804c -5.06  -3.34    +66.4333
iter:  61 01:41:14  -870.161852c -5.17  -3.34    +66.4275
iter:  62 01:43:44  -870.160780c -5.54  -3.53    +66.4031
iter:  63 01:46:15  -870.162040c -5.58  -3.56    +66.3971
iter:  64 01:48:46  -870.160956c -5.77  -3.56    +66.3977
iter:  65 01:51:16  -870.161231c -6.10  -3.72    +66.3890
iter:  66 01:53:48  -870.161441c -6.19  -3.70    +66.3871
iter:  67 01:56:18  -870.161858c -6.02  -3.78    +66.3812
iter:  68 01:58:48  -870.161786c -6.25  -3.73    +66.3808
iter:  69 02:01:19  -870.161863c -6.25  -3.86    +66.3742
iter:  70 02:03:49  -870.162198c -6.52  -3.85    +66.3740
iter:  71 02:06:20  -870.162015c -6.51  -3.91    +66.3726
iter:  72 02:08:50  -870.162454c -6.52  -3.96    +66.3694
iter:  73 02:11:21  -870.162445c -6.58  -4.00    +66.3672
iter:  74 02:13:50  -870.162589c -6.64  -4.01c   +66.3652
iter:  75 02:16:20  -870.162851c -6.59  -4.05c   +66.3630
iter:  76 02:18:51  -870.162858c -6.76  -4.08c   +66.3579
iter:  77 02:21:21  -870.163315c -6.77  -4.14c   +66.3552
iter:  78 02:23:52  -870.163119c -6.88  -4.15c   +66.3543
iter:  79 02:26:22  -870.163584c -6.66  -4.17c   +66.3490
iter:  80 02:28:52  -870.163609c -6.85  -4.15c   +66.3464
iter:  81 02:31:22  -870.163818c -6.66  -4.18c   +66.3413
iter:  82 02:34:31  -870.164035c -6.82  -4.16c   +66.3402
iter:  83 02:37:28  -870.164041c -6.77  -4.19c   +66.3333
iter:  84 02:39:58  -870.164476c -6.88  -4.25c   +66.3283
iter:  85 02:42:28  -870.164457c -7.21  -4.26c   +66.3262
iter:  86 02:44:59  -870.164700c -7.01  -4.32c   +66.3213
iter:  87 02:47:29  -870.165071c -6.67  -4.33c   +66.3137
iter:  88 02:50:00  -870.163169c -5.45  -4.31c   +66.3560
iter:  89 02:52:31  -870.161904c -5.44  -4.35c   +66.3904
iter:  90 02:55:01  -870.162607c -6.46  -4.24c   +66.3739
iter:  91 02:57:31  -870.162784c -6.92  -4.25c   +66.3709
iter:  92 03:00:01  -870.162841c -6.85  -4.27c   +66.3664
iter:  93 03:02:31  -870.163223c -6.80  -4.31c   +66.3660
iter:  94 03:05:01  -870.163183c -6.80  -4.21c   +66.3634
iter:  95 03:07:31  -870.163713c -6.65  -4.42c   +66.3568
iter:  96 03:10:01  -870.163199c -7.14  -4.27c   +66.3587
iter:  97 03:12:43  -870.163384c -7.18  -4.52c   +66.3570
iter:  98 03:16:03  -870.163553c -7.19  -4.46c   +66.3563
iter:  99 03:18:35  -870.163704c -7.03  -4.71c   +66.3503
iter: 100 03:21:05  -870.163860c -7.33  -4.79c   +66.3483
iter: 101 03:23:35  -870.164041c -7.24  -4.86c   +66.3448
iter: 102 03:26:07  -870.164242c -6.97  -4.87c   +66.3387
iter: 103 03:28:38  -870.163369c -6.17  -4.81c   +66.3563
iter: 104 03:31:09  -870.160422c -4.86  -4.77c   +66.4300
iter: 105 03:33:39  -870.160327c -5.67  -4.08c   +66.4425
iter: 106 03:36:10  -870.160239c -5.84  -4.05c   +66.4724
iter: 107 03:38:41  -870.160442c -5.42  -3.97    +66.5461
iter: 108 03:41:11  -870.160757c -5.92  -3.83    +66.5756
iter: 109 03:43:42  -870.161018c -6.36  -3.78    +66.5563
iter: 110 03:46:13  -870.161017c -6.36  -3.75    +66.5850
iter: 111 03:48:44  -870.162288c -6.13  -3.75    +66.5982
iter: 112 03:51:14  -870.162387c -5.76  -3.65    +66.5963
iter: 113 03:53:45  -870.164037c -5.21  -3.66    +66.6121
iter: 114 03:56:15  -870.161022c -5.66  -3.53    +66.6118
iter: 115 03:58:46  -870.163871c -5.46  -3.85    +66.6036
iter: 116 04:01:17  -870.160991c -5.95  -3.58    +66.5986
iter: 117 04:04:24  -870.160997c -6.29  -4.05c   +66.5864
iter: 118 04:07:22  -870.161350c -6.39  -4.00    +66.5791
iter: 119 04:09:53  -870.161229c -6.42  -4.03c   +66.5573
iter: 120 04:12:25  -870.161428c -6.30  -4.20c   +66.5456
iter: 121 04:14:57  -870.161386c -6.51  -4.09c   +66.5408
iter: 122 04:17:28  -870.161609c -6.50  -4.16c   +66.5337
iter: 123 04:19:59  -870.161862c -6.69  -4.21c   +66.5303
iter: 124 04:22:30  -870.161696c -6.65  -4.19c   +66.5198
iter: 125 04:25:01  -870.161768c -6.97  -4.29c   +66.5160
iter: 126 04:27:32  -870.161800c -7.01  -4.45c   +66.5055
iter: 127 04:30:03  -870.162003c -6.58  -4.50c   +66.4879
iter: 128 04:32:34  -870.162090c -6.86  -4.59c   +66.4781
iter: 129 04:35:04  -870.162267c -7.19  -4.50c   +66.4770
iter: 130 04:37:34  -870.162248c -7.04  -4.47c   +66.4716
iter: 131 04:40:06  -870.162414c -7.15  -4.69c   +66.4671
iter: 132 04:42:38  -870.162424c -7.66c -4.62c   +66.4661

Converged after 132 iterations.

Dipole moment: (-10.367924, 8.391139, 9.087054) |e|*Ang

Total magnetic moment: (0.000000, 0.000000, 66.466120)
Local magnetic moments:
   0 Cr ( 0.000000,  0.000000, -0.604747)
   1 Cr ( 0.000000,  0.000000, -0.866787)
   2 Fe ( 0.000000,  0.000000,  1.944418)
   3 Ni ( 0.000000,  0.000000,  0.278658)
   4 Fe ( 0.000000,  0.000000,  2.324228)
   5 Co ( 0.000000,  0.000000,  1.366518)
   6 Co ( 0.000000,  0.000000,  1.304492)
   7 Ni ( 0.000000,  0.000000,  0.257621)
   8 Ni ( 0.000000,  0.000000,  0.346753)
   9 Co ( 0.000000,  0.000000,  1.215410)
  10 Cr ( 0.000000,  0.000000, -0.684856)
  11 Co ( 0.000000,  0.000000,  0.634471)
  12 Fe ( 0.000000,  0.000000,  2.302113)
  13 Cr ( 0.000000,  0.000000, -1.694622)
  14 Ni ( 0.000000,  0.000000,  0.187419)
  15 Co ( 0.000000,  0.000000,  1.331325)
  16 Cr ( 0.000000,  0.000000, -1.307552)
  17 Co ( 0.000000,  0.000000,  1.123673)
  18 Fe ( 0.000000,  0.000000,  2.167933)
  19 Cr ( 0.000000,  0.000000,  0.769346)
  20 Al ( 0.000000,  0.000000, -0.022818)
  21 Ni ( 0.000000,  0.000000,  0.223065)
  22 Ni ( 0.000000,  0.000000,  0.165196)
  23 Fe ( 0.000000,  0.000000,  2.211422)
  24 Ni ( 0.000000,  0.000000,  0.517457)
  25 Ni ( 0.000000,  0.000000,  0.222066)
  26 Co ( 0.000000,  0.000000,  1.246391)
  27 Co ( 0.000000,  0.000000,  1.097268)
  28 Ni ( 0.000000,  0.000000,  0.282458)
  29 Cr ( 0.000000,  0.000000, -0.446381)
  30 Cr ( 0.000000,  0.000000, -0.206637)
  31 Ni ( 0.000000,  0.000000,  0.238303)
  32 Cr ( 0.000000,  0.000000, -1.785092)
  33 Co ( 0.000000,  0.000000,  1.090190)
  34 Co ( 0.000000,  0.000000,  1.234603)
  35 Co ( 0.000000,  0.000000,  1.210036)
  36 Cr ( 0.000000,  0.000000, -0.370446)
  37 Fe ( 0.000000,  0.000000,  1.715876)
  38 Fe ( 0.000000,  0.000000,  1.962090)
  39 Co ( 0.000000,  0.000000,  1.099162)
  40 Ni ( 0.000000,  0.000000,  0.256066)
  41 Fe ( 0.000000,  0.000000,  2.052975)
  42 Co ( 0.000000,  0.000000,  1.271190)
  43 Al ( 0.000000,  0.000000, -0.032990)
  44 Ni ( 0.000000,  0.000000,  0.367470)
  45 Ni ( 0.000000,  0.000000,  0.189896)
  46 Co ( 0.000000,  0.000000,  1.330434)
  47 Fe ( 0.000000,  0.000000,  1.619732)
  48 Cr ( 0.000000,  0.000000,  0.400270)
  49 Co ( 0.000000,  0.000000,  0.489343)
  50 Cr ( 0.000000,  0.000000, -1.399865)
  51 Fe ( 0.000000,  0.000000,  2.021826)
  52 Ni ( 0.000000,  0.000000,  0.325080)
  53 Al ( 0.000000,  0.000000, -0.025757)
  54 Co ( 0.000000,  0.000000,  0.587023)
  55 Ni ( 0.000000,  0.000000,  0.156291)
  56 Cr ( 0.000000,  0.000000, -1.219714)
  57 Cr ( 0.000000,  0.000000,  0.568754)
  58 Cr ( 0.000000,  0.000000, -0.661494)
  59 Fe ( 0.000000,  0.000000,  1.759268)
[...]
  93 Ni ( 0.000000,  0.000000,  0.295091)
  94 Al ( 0.000000,  0.000000, -0.035848)
  95 Fe ( 0.000000,  0.000000,  1.936244)
  96 Fe ( 0.000000,  0.000000,  2.206876)
  97 Fe ( 0.000000,  0.000000,  2.094845)
  98 Co ( 0.000000,  0.000000,  1.407957)
  99 Cr ( 0.000000,  0.000000, -1.707835)
 100 Co ( 0.000000,  0.000000,  1.122424)
 101 Fe ( 0.000000,  0.000000,  2.250225)
 102 Co ( 0.000000,  0.000000,  1.130112)
 103 Ni ( 0.000000,  0.000000,  0.387407)
 104 Co ( 0.000000,  0.000000,  1.150441)
 105 Al ( 0.000000,  0.000000, -0.027863)
 106 Ni ( 0.000000,  0.000000,  0.332854)
 107 Ni ( 0.000000,  0.000000,  0.380186)

Energy contributions relative to reference atoms: (reference = -3699400.456887)

Kinetic:       +130.843367
Potential:     -184.398639
External:        +0.000000
XC:            -852.180359
Entropy (-ST):   -4.665613
Local:          +37.906013
Free energy:   -872.495231
Extrapolated:  -870.162424

Spin contamination: 25.127435 electrons
Showing only first 2 kpts
                      Up                     Down
 Kpt  Band  Eigenvalues  Occupancy  Eigenvalues  Occupancy
  0   508      9.62449    0.99461     10.51708    0.02393
  0   509      9.63308    0.99413     10.52840    0.02143
  0   510      9.64005    0.99371     10.53930    0.01926
  0   511      9.65387    0.99278     10.54505    0.01820

  1   508      9.62385    0.99464     10.52842    0.02142
  1   509      9.63957    0.99374     10.54383    0.01842
  1   510      9.64917    0.99311     10.54922    0.01747
  1   511      9.66969    0.99155     10.55454    0.01658

Fermi level: 10.14626

No gap

Forces in eV/Ang:
  0 Cr    0.09382    0.14443    0.35049
  1 Cr    0.16504   -0.02196   -0.01527
  2 Fe   -0.25127    0.36147   -0.05533
  3 Ni   -0.14665   -0.16889    0.20991
  4 Fe    0.44480    0.41150   -0.27554
  5 Co   -0.07875   -0.08319    0.15068
  6 Co    0.07879   -0.02326   -0.09064
  7 Ni   -0.16350   -0.53189    0.00248
  8 Ni   -0.29285   -0.07586    0.00026
  9 Co   -0.09305   -0.41476    0.20362
 10 Cr    0.07024    0.26855   -0.41430
 11 Co    0.02812   -0.44017    0.45263
 12 Fe    0.50870   -0.39105    0.69856
 13 Cr   -0.09420    0.14615   -0.09609
 14 Ni   -0.03333   -0.54277    0.27831
 15 Co    0.16726    0.06254    0.08504
 16 Cr   -0.07731   -0.07361    0.13391
 17 Co    0.12811   -0.01387    0.15194
 18 Fe   -0.48829   -0.20724    0.40972
 19 Cr   -0.42560    0.88273   -0.34059
 20 Al   -0.06386   -0.11475    1.26433
 21 Ni    0.06624    0.47290   -0.17170
 22 Ni    0.24973   -0.46925    0.24566
 23 Fe   -0.03576    1.32313    0.27972
 24 Ni   -0.23761    0.10650   -0.00332
 25 Ni   -0.13168    0.16504   -0.23957
 26 Co    0.06125   -0.02832   -0.26608
 27 Co    0.00662    0.00827    0.15510
 28 Ni   -0.00898   -0.03394   -0.11640
 29 Cr    0.22988    0.01580   -0.33909
 30 Cr    0.06821   -0.07839    0.52793
 31 Ni    0.30754    0.11228   -0.12819
 32 Cr    0.14804   -0.59301    0.72491
 33 Co    0.05204   -0.19046   -0.13492
 34 Co   -0.41784    0.18039   -0.29527
 35 Co   -0.11286   -0.25537    0.41652
 36 Cr   -0.12746    0.32598   -0.07939
 37 Fe    0.18320   -0.13214    0.04279
 38 Fe   -0.03750    0.12628   -0.17881
 39 Co   -0.06351    0.02517   -0.44412
 40 Ni    0.17655    0.19256    0.16827
 41 Fe   -0.11538   -0.18687    0.07179
 42 Co   -0.09147   -0.33001    0.21967
 43 Al   -0.32475   -0.31073   -0.20791
 44 Ni   -0.09643   -0.15235    0.18794
 45 Ni   -0.21455   -0.23667    0.07672
 46 Co   -0.08615    0.07774    0.04391
 47 Fe    0.16235    0.02409   -0.20835
 48 Cr   -0.04002   -0.41888   -0.17147
 49 Co   -0.04040   -0.07608    0.05043
 50 Cr   -0.80590   -0.70356   -0.00688
 51 Fe   -0.11454    0.05119   -0.35096
 52 Ni    0.28671   -0.40860   -0.37490
 53 Al    0.19301    0.03114   -0.65286
 54 Co    0.38282   -0.24446    0.09904
 55 Ni    0.00806   -0.00798   -0.34363
 56 Cr    0.47054    0.51187   -0.20688
 57 Cr   -0.45531   -0.25543    0.12975
 58 Cr    0.30810    0.47795    0.06633
 59 Fe   -0.10404   -0.09437   -0.24269
[...]
 93 Ni    0.10361    0.48241    0.16764
 94 Al    0.43544    0.42119   -0.48905
 95 Fe   -0.03005    0.34713   -0.26063
 96 Fe    0.05638    0.13844   -0.25177
 97 Fe    0.03686   -0.21289    0.20114
 98 Co    0.03679   -0.05161    0.22790
 99 Cr    0.02301   -0.10614   -0.29158
100 Co    0.09434    0.39047    0.29655
101 Fe    0.26667    0.01068   -0.06725
102 Co   -0.00619   -0.23112    0.20590
103 Ni    0.08726    0.33336   -0.04253
104 Co   -0.07213   -0.24118   -0.62365
105 Al   -0.50576    0.28810   -0.18977
106 Ni   -0.07719   -0.27053    0.45925
107 Ni   -0.00601    0.16491   -0.38436

Date: Sun Apr 16 04:43:02 2023