User:   c.zeng@d0148
Date:   Sat Apr  8 06:36:42 2023
Arch:   x86_64
Pid:    10513
CWD:    /home/c.zeng/projects/hea-corrosion/hea-mlp/data-curation/volume/dft-jobs/21
Python: 3.8.1
gpaw:   /home/c.zeng/usr/installs/gpaw/source/gpaw-22.8.0/gpaw
_gpaw:  /home/c.zeng/usr/installs/gpaw/source/gpaw-22.8.0/
        _gpaw.cpython-38-x86_64-linux-gnu.so
ase:    /home/c.zeng/.local/lib/python3.8/site-packages/ase-3.22.1-py3.8.egg/ase (version 3.22.1)
numpy:  /shared/centos7/python/3.8.1/lib/python3.8/site-packages/numpy (version 1.17.4)
scipy:  /shared/centos7/python/3.8.1/lib/python3.8/site-packages/scipy (version 1.4.1)
units:  Angstrom and eV
cores: 64
OpenMP: False
OMP_NUM_THREADS: 1

Input parameters:
  convergence: {energy: 0.0001}
  kpts: [2 2 2]
  maxiter: 666
  mode: {ecut: 350.0,
         name: pw}
  occupations: {fixmagmom: False,
                name: fermi-dirac,
                width: 0.1}
  spinpol: True
  xc: PBE

System changes: positions, numbers, cell, pbc, initial_charges, initial_magmoms

Initialize ...

species:
  Co:
    name: Cobalt
    id: 339d20d5b0b93d2de9531a1bee871d91
    Z: 27.0
    valence: 9
    core: 18
    charge: 0.0
    file: /home/c.zeng/usr/data/gpaw-setups-0.9.20000/Co.PBE.gz
    compensation charges: {type: gauss,
                           rc: 0.32,
                           lmax: 2}
    cutoffs: {filter: 1.87,
              core: 2.55}
    valence states:
      #              energy  rcut
      - 4s(2.00)    -5.469   1.005
      - 4p(0.00)    -1.277   1.058
      - 3d(7.00)    -8.205   1.005
      -  s          21.742   1.005
      -  p          25.934   1.058
      -  d          19.007   1.005

    # Using partial waves for Co as LCAO basis

  Fe:
    name: Iron
    id: 37abbd8d6c3c35915a9b583b742da910
    Z: 26.0
    valence: 8
    core: 18
    charge: 0.0
    file: /home/c.zeng/usr/data/gpaw-setups-0.9.20000/Fe.PBE.gz
    compensation charges: {type: gauss,
                           rc: 0.33,
                           lmax: 2}
    cutoffs: {filter: 2.06,
              core: 2.67}
    valence states:
      #              energy  rcut
      - 4s(2.00)    -5.291   1.164
      - 4p(0.00)    -1.326   1.058
      - 3d(6.00)    -7.505   1.058
      -  s          21.920   1.164
      -  p          25.885   1.058
      -  d          19.706   1.058

[...]

  Cr:
    name: Chromium
    id: 33f258bda2ca9f93018e70263a35547b
    Z: 24.0
    valence: 6
    core: 18
    charge: 0.0
    file: /home/c.zeng/usr/data/gpaw-setups-0.9.20000/Cr.PBE.gz
    compensation charges: {type: gauss,
                           rc: 0.35,
                           lmax: 2}
    cutoffs: {filter: 2.14,
              core: 3.04}
    valence states:
      #              energy  rcut
      - 4s(1.00)    -4.007   1.164
      - 4p(0.00)    -0.989   1.217
      - 3d(5.00)    -2.913   1.111
      -  s          23.205   1.164
      -  p          26.223   1.217
      -  d          24.299   1.111

[...]

  Ni:
    name: Nickel
    id: 0d9f38a9d6e76a2886f07bb4381f212b
    Z: 28.0
    valence: 16
    core: 12
    charge: 0.0
    file: /home/c.zeng/usr/data/gpaw-setups-0.9.20000/Ni.PBE.gz
    compensation charges: {type: gauss,
                           rc: 0.36,
                           lmax: 2}
    cutoffs: {filter: 2.14,
              core: 1.98}
    valence states:
      #              energy  rcut
      - 4s(2.00)    -5.642   1.164
      - 3p(6.00)   -71.394   1.207
      - 4p(0.00)    -1.226   1.207
      - 3d(8.00)    -8.875   1.138
      -  s          21.570   1.164
      -  d          18.337   1.138

    # Using partial waves for Ni as LCAO basis

Reference energy: -3846758.590871  # eV

Spin-polarized calculation.
Magnetic moment: 151.200000

Convergence criteria:
 Maximum [total energy] change in last 3 cyles: 0.0001 eV / electron
 Maximum integral of absolute [dens]ity change: 0.0001 electrons / valence electron
 Maximum integral of absolute [eigenst]ate change: 4e-08 eV^2 / valence electron
 Maximum number of scf [iter]ations: 666
 (Square brackets indicate name in SCF output, whereas a 'c' in
 the SCF output indicates the quantity has converged.)

Symmetries present (total): 1

  ( 1  0  0)
  ( 0  1  0)
  ( 0  0  1)

8 k-points: 2 x 2 x 2 Monkhorst-Pack grid
4 k-points in the irreducible part of the Brillouin zone
       k-points in crystal coordinates                weights
   0:     0.25000000   -0.25000000   -0.25000000          2/8
   1:     0.25000000   -0.25000000    0.25000000          2/8
   2:     0.25000000    0.25000000   -0.25000000          2/8
   3:     0.25000000    0.25000000    0.25000000          2/8

Wave functions: Plane wave expansion
  Cutoff energy: 350.000 eV
  Number of coefficients (min, max): 17755, 17755
  Pulay-stress correction: 0.000000 eV/Ang^3 (de/decut=0.000000)
  Using FFTW library
  ScaLapack parameters: grid=1x1, blocksize=None
  Wavefunction extrapolation:
    Improved wavefunction reuse through dual PAW basis

Occupation numbers: Fermi-Dirac:
  width: 0.1000  # eV

Eigensolver
   Davidson(niter=2)

Densities:
  Coarse grid: 48*48*48 grid
  Fine grid: 96*96*96 grid
  Total Charge: 0.000000

Density mixing:
  Method: difference
  Backend: pulay
  Linear mixing parameter: 0.05
  old densities: 5
  Damping of long wavelength oscillations: 50

Hamiltonian:
  XC and Coulomb potentials evaluated on a 96*96*96 grid
  Using the PBE Exchange-Correlation functional
  External potential:
    NoExternalPotential

XC parameters: PBE with 2 nearest neighbor stencil

Total number of cores used: 64
Parallelization over k-points: 4
Domain decomposition: 4 x 2 x 2

Number of atoms: 108
Number of atomic orbitals: 1053
Number of bands in calculation: 727
Number of valence electrons: 1053
Bands to converge: occupied

... initialized

Initializing position-dependent things.

Density initialized from atomic densities
Creating initial wave functions:
  727 bands from LCAO basis set

       /|  Cr       Co      Cr    |
      / |   FeFe     Fe           |
     /  |       Cr      Co       Co
    /   |Fe      CCr       Cr     Co
   /    | Fe       Fe       CCr   |
  /  CFe|  CrFe     CoNi          |
 *    NiCr    CoNi   CrNiNi       |
 |      |NiCo   NiCoFe  CoCrCo   Fe
 |      | FeCr     CoNiCoFeCrCr   |
 |    Cr|  NiFeCr   NiFeNi   NiNi |
 |      Fe    FeFeNi CoFeCo     Ni|
 |      |CoCo  CrNiFe   NiNiNi   Co
 |      .-CrCo-----CoNiNi--NiCr---Co
 |   Cre     Co       Ni         /
 |    FeCr     Fei     CCoo     /
 |   /    Fe               Fe  /
 |  /      Cr       Ni    CrCo/
 | / Fe     Ni       CoNi    /
 |/            Cr       Co  /
 *--------Cr------Fe-------*

Positions:
   0 Co    -0.012480   -0.003723   10.616104    ( 0.0000,  0.0000,  2.1000)
   1 Co    -0.011321    1.761305    1.763386    ( 0.0000,  0.0000,  2.1000)
   2 Fe     1.758365    0.001326    1.769011    ( 0.0000,  0.0000,  2.0000)
   3 Fe     1.752686    1.779222   10.610436    ( 0.0000,  0.0000,  2.0000)
   4 Cr     3.541196    0.004725   10.616104    ( 0.0000,  0.0000,  0.0000)
   5 Cr     3.534711    1.782428    1.778999    ( 0.0000,  0.0000,  0.0000)
   6 Co     5.305717   10.600629    1.767950    ( 0.0000,  0.0000,  2.1000)
   7 Cr     5.324780    1.765604   10.614618    ( 0.0000,  0.0000,  0.0000)
   8 Fe     7.089121    0.014598   10.619926    ( 0.0000,  0.0000,  2.0000)
   9 Ni     7.085279    1.771219    1.773543    ( 0.0000,  0.0000,  1.5000)
  10 Ni     8.850554    0.011470    1.768756    ( 0.0000,  0.0000,  1.5000)
  11 Co     8.842381    1.777333   10.615680    ( 0.0000,  0.0000,  2.1000)
  12 Cr    10.590535    3.538203   -0.001956    ( 0.0000,  0.0000,  0.0000)
  13 Fe    10.624277    5.310674    1.769786    ( 0.0000,  0.0000,  2.0000)
  14 Cr     1.761379    3.535623    1.784572    ( 0.0000,  0.0000,  0.0000)
  15 Fe     1.770200    5.301408   10.611753    ( 0.0000,  0.0000,  2.0000)
  16 Ni     3.556003    3.551407   10.618333    ( 0.0000,  0.0000,  1.5000)
  17 Co     3.539370    5.311290    1.775199    ( 0.0000,  0.0000,  2.1000)
  18 Ni     5.320142    3.545059    1.779678    ( 0.0000,  0.0000,  1.5000)
  19 Cr     5.306980    5.314654   10.602720    ( 0.0000,  0.0000,  0.0000)
  20 Co     7.081585    3.529138   10.614725    ( 0.0000,  0.0000,  2.1000)
  21 Ni     7.069241    5.303361    1.781271    ( 0.0000,  0.0000,  1.5000)
  22 Co     8.841447    3.542671    1.781600    ( 0.0000,  0.0000,  2.1000)
  23 Cr     8.850893    5.290379    0.000221    ( 0.0000,  0.0000,  0.0000)
  24 Fe     0.005867    7.083411   10.614937    ( 0.0000,  0.0000,  2.0000)
  25 Co    10.601053    8.849694    1.772960    ( 0.0000,  0.0000,  2.1000)
  26 Cr     1.773713    7.072329    1.777184    ( 0.0000,  0.0000,  0.0000)
  27 Cr     1.755520    8.842933   10.608324    ( 0.0000,  0.0000,  0.0000)
  28 Fe     3.544009    7.063116   10.610489    ( 0.0000,  0.0000,  2.0000)
  29 Cr     3.542225    8.826820    1.785569    ( 0.0000,  0.0000,  0.0000)
  30 Co     5.309835    7.081776    1.776600    ( 0.0000,  0.0000,  2.1000)
  31 Co     5.331945    8.840321   10.604673    ( 0.0000,  0.0000,  2.1000)
  32 Cr     7.068434    7.069028   10.623110    ( 0.0000,  0.0000,  0.0000)
  33 Ni     7.083750    8.846796    1.774499    ( 0.0000,  0.0000,  1.5000)
  34 Ni     8.841404    7.058170    1.777173    ( 0.0000,  0.0000,  1.5000)
  35 Cr     8.835524    8.853600   10.611753    ( 0.0000,  0.0000,  0.0000)
  36 Fe    -0.009352   10.618864    3.531070    ( 0.0000,  0.0000,  2.0000)
  37 Ni    10.602508    1.764818    5.300452    ( 0.0000,  0.0000,  1.5000)
  38 Cr     1.756720    0.001377    5.295867    ( 0.0000,  0.0000,  0.0000)
  39 Fe     1.766506    1.767154    3.539222    ( 0.0000,  0.0000,  2.0000)
  40 Fe     3.539731    0.013880    3.542873    ( 0.0000,  0.0000,  2.0000)
  41 Co     3.548944    1.788658    5.306237    ( 0.0000,  0.0000,  2.1000)
  42 Cr     5.320174   -0.004687    5.301386    ( 0.0000,  0.0000,  0.0000)
  43 Fe     5.316862    1.765551    3.538946    ( 0.0000,  0.0000,  2.0000)
  44 Fe     7.081086   -0.000290    3.531325    ( 0.0000,  0.0000,  2.0000)
  45 Fe     7.072902    1.777407    5.300537    ( 0.0000,  0.0000,  2.0000)
  46 Ni     8.840544    0.012373    5.307851    ( 0.0000,  0.0000,  1.5000)
  47 Co     8.833592    1.767928    3.534318    ( 0.0000,  0.0000,  2.1000)
  48 Cr    -0.004064    3.525296    3.545951    ( 0.0000,  0.0000,  0.0000)
  49 Ni    -0.001689    5.317934    5.307787    ( 0.0000,  0.0000,  1.5000)
  50 Fe     1.769043    3.555101    5.297279    ( 0.0000,  0.0000,  2.0000)
  51 Co     1.773692    5.305929    3.538266    ( 0.0000,  0.0000,  2.1000)
  52 Co     3.542735    3.537364    3.547575    ( 0.0000,  0.0000,  2.1000)
  53 Fe     3.548477    5.306927    5.301153    ( 0.0000,  0.0000,  2.0000)
  54 Fe     5.316246    3.553031    5.303637    ( 0.0000,  0.0000,  2.0000)
  55 Ni     5.303286    5.303531    3.542385    ( 0.0000,  0.0000,  1.5000)
  56 Ni     7.074962    3.533023    3.537215    ( 0.0000,  0.0000,  1.5000)
  57 Fe     7.066046    5.306046    5.300081    ( 0.0000,  0.0000,  2.0000)
  58 Co     8.834526    3.538160    5.294530    ( 0.0000,  0.0000,  2.1000)
  59 Ni     8.846255    5.300452    3.537672    ( 0.0000,  0.0000,  1.5000)
[...]
  93 Ni     7.071130    5.304220    8.839313    ( 0.0000,  0.0000,  1.5000)
  94 Ni     8.837997    3.524669    8.843389    ( 0.0000,  0.0000,  1.5000)
  95 Cr     8.833772    5.299051    7.076862    ( 0.0000,  0.0000,  0.0000)
  96 Ni     0.012164    7.080322    7.083835    ( 0.0000,  0.0000,  1.5000)
  97 Co    -0.017036    8.848707    8.843941    ( 0.0000,  0.0000,  2.1000)
  98 Fe     1.777938    7.075503    8.840194    ( 0.0000,  0.0000,  2.0000)
  99 Cr     1.758800    8.840035    7.069803    ( 0.0000,  0.0000,  0.0000)
 100 Co     3.549921    7.066194    7.070090    ( 0.0000,  0.0000,  2.1000)
 101 Cr     3.553137    8.839111    8.836776    ( 0.0000,  0.0000,  0.0000)
 102 Fe     5.304199    7.079929    8.840226    ( 0.0000,  0.0000,  2.0000)
 103 Co     5.321957    8.832180    7.082997    ( 0.0000,  0.0000,  2.1000)
 104 Ni     7.057077    7.072149    7.064167    ( 0.0000,  0.0000,  1.5000)
 105 Co     7.082413    8.855500    8.837487    ( 0.0000,  0.0000,  2.1000)
 106 Cr     8.846786    7.077870    8.846732    ( 0.0000,  0.0000,  0.0000)
 107 Cr     8.839313    8.848272    7.075163    ( 0.0000,  0.0000,  0.0000)

Unit cell:
           periodic     x           y           z      points  spacing
  1. axis:    yes   10.614300    0.000000    0.000000    48     0.2211
  2. axis:    yes    0.000000   10.614300    0.000000    48     0.2211
  3. axis:    yes    0.000000    0.000000   10.614300    48     0.2211

  Lengths:  10.614300  10.614300  10.614300
  Angles:   90.000000  90.000000  90.000000

Effective grid spacing dv^(1/3) = 0.2211

     iter     time        total  log10-change:  magmom
                         energy  eigst   dens
iter:   1 06:39:43 -1089.722845                  +151.4728
iter:   2 06:41:11  -955.043230  -0.28  -1.20    +84.6199
iter:   3 06:42:37  -948.420625  -0.91  -1.24    +69.2233
iter:   4 06:44:06  -934.717087  -1.20  -1.29    +65.0527
iter:   5 06:45:34  -911.432539  -1.58  -1.29    +59.0340
iter:   6 06:46:57  -908.419369  -1.32  -1.38    +58.7710
iter:   7 06:48:22  -909.133281  -1.22  -1.48    +57.3878
iter:   8 06:49:49  -889.033991  -1.64  -1.55    +55.7367
iter:   9 06:51:17  -888.288352  -2.29  -1.83    +56.7207
iter:  10 06:52:47  -888.695856  -2.41  -1.86    +58.4016
iter:  11 06:54:16  -888.520104  -2.68  -1.89    +59.7149
iter:  12 06:55:44  -889.011209  -2.71  -1.92    +61.0766
iter:  13 06:57:05  -890.760688  -2.51  -1.96    +62.3485
iter:  14 06:58:34  -890.769749  -2.40  -1.98    +63.0565
iter:  15 07:00:01  -890.794073c -2.51  -2.03    +63.6420
iter:  16 07:01:28  -890.253525  -2.63  -2.07    +63.7396
iter:  17 07:02:56  -890.022485  -2.83  -2.14    +64.5566
iter:  18 07:04:23  -889.766685  -2.95  -2.19    +65.3668
iter:  19 07:05:52  -889.820944  -3.17  -2.25    +65.5643
iter:  20 07:07:18  -889.657003  -3.31  -2.27    +65.8538
iter:  21 07:08:45  -889.690533  -3.30  -2.35    +66.1929
iter:  22 07:10:12  -889.611885c -3.53  -2.35    +66.7419
iter:  23 07:11:42  -889.766257  -3.44  -2.41    +66.8142
iter:  24 07:13:10  -889.703338  -3.45  -2.40    +66.8922
iter:  25 07:14:37  -889.901682  -3.31  -2.46    +67.2035
iter:  26 07:16:05  -889.720971  -3.46  -2.41    +67.3955
iter:  27 07:17:30  -889.864385  -3.46  -2.52    +67.5228
iter:  28 07:18:59  -889.716111  -3.66  -2.46    +67.3628
iter:  29 07:20:27  -889.720065  -3.73  -2.57    +67.5326
iter:  30 07:21:55  -889.678949c -4.06  -2.58    +67.5975
iter:  31 07:23:25  -889.725383c -4.08  -2.64    +67.6093
iter:  32 07:24:54  -889.723378c -4.14  -2.64    +67.5324
iter:  33 07:26:21  -889.770331c -3.90  -2.67    +67.4904
iter:  34 07:27:50  -889.780852c -4.01  -2.64    +67.5927
iter:  35 07:29:21  -889.829406c -3.79  -2.67    +67.5295
iter:  36 07:30:50  -889.799239c -3.95  -2.64    +67.4606
iter:  37 07:32:19  -889.783039c -3.97  -2.69    +67.3799
iter:  38 07:33:47  -889.754561c -4.18  -2.72    +67.4283
iter:  39 07:35:15  -889.755049c -4.46  -2.78    +67.4529
iter:  40 07:36:44  -889.748901c -4.73  -2.80    +67.3457
iter:  41 07:38:13  -889.765349c -4.53  -2.84    +67.3123
iter:  42 07:39:42  -889.773285c -4.51  -2.82    +67.2885
iter:  43 07:41:10  -889.809067c -4.33  -2.84    +67.2777
iter:  44 07:42:38  -889.818019c -4.09  -2.83    +67.2042
iter:  45 07:44:06  -889.827856c -4.08  -2.79    +67.1213
iter:  46 07:45:35  -889.802286c -4.18  -2.80    +67.1860
iter:  47 07:47:03  -889.794888c -4.35  -2.87    +67.1621
iter:  48 07:48:33  -889.779518c -4.65  -2.91    +67.1195
iter:  49 07:50:01  -889.774706c -5.07  -2.97    +67.0422
iter:  50 07:51:29  -889.781976c -4.88  -3.02    +67.0247
iter:  51 07:52:59  -889.789180c -5.04  -3.01    +66.9993
iter:  52 07:54:25  -889.802931c -4.52  -3.02    +66.9397
iter:  53 07:55:55  -889.823437c -4.36  -2.97    +66.9233
iter:  54 07:57:26  -889.825542c -4.24  -2.95    +66.9040
iter:  55 07:58:54  -889.806748c -4.45  -2.94    +66.9152
iter:  56 08:00:22  -889.800831c -4.50  -3.09    +66.8653
iter:  57 08:01:51  -889.788125c -5.02  -3.07    +66.8318
iter:  58 08:03:19  -889.785420c -5.23  -3.23    +66.8215
iter:  59 08:04:46  -889.786438c -5.99  -3.28    +66.8039
iter:  60 08:06:16  -889.793747c -5.23  -3.32    +66.7800
iter:  61 08:07:44  -889.794393c -5.01  -3.25    +66.7577
iter:  62 08:09:12  -889.808463c -4.75  -3.25    +66.7478
iter:  63 08:10:27  -889.795015c -4.90  -3.21    +66.7552
iter:  64 08:11:52  -889.801844c -4.84  -3.36    +66.7184
iter:  65 08:13:16  -889.791386c -5.21  -3.24    +66.7154
iter:  66 08:14:42  -889.790408c -5.65  -3.52    +66.6949
iter:  67 08:16:11  -889.790363c -6.16  -3.60    +66.6931
iter:  68 08:17:40  -889.790782c -6.66  -3.70    +66.6713
iter:  69 08:19:07  -889.793185c -5.81  -3.72    +66.6179
iter:  70 08:20:36  -889.791721c -6.05  -3.66    +66.6343
iter:  71 08:22:04  -889.794435c -5.81  -3.89    +66.6183
iter:  72 08:23:32  -889.792386c -6.07  -3.74    +66.6116
iter:  73 08:25:01  -889.792609c -6.52  -4.31c   +66.5959
iter:  74 08:26:29  -889.792840c -6.95  -4.25c   +66.5935
iter:  75 08:27:57  -889.793056c -6.99  -4.52c   +66.5796
iter:  76 08:29:26  -889.793414c -6.92  -4.54c   +66.5608
iter:  77 08:30:55  -889.793983c -6.58  -4.54c   +66.5289
iter:  78 08:32:23  -889.796186c -5.40  -4.43c   +66.3928
iter:  79 08:33:51  -889.796448c -6.30  -4.09c   +66.3852
iter:  80 08:35:19  -889.796565c -6.76  -4.06c   +66.3813
iter:  81 08:36:47  -889.796642c -7.01  -4.07c   +66.3744
iter:  82 08:38:14  -889.796584c -7.02  -4.06c   +66.3688
iter:  83 08:39:42  -889.796461c -6.76  -4.02c   +66.3702
iter:  84 08:41:11  -889.796643c -6.37  -3.92    +66.3678
iter:  85 08:42:39  -889.796556c -6.30  -3.78    +66.3684
iter:  86 08:44:07  -889.797152c -5.92  -3.85    +66.3733
iter:  87 08:45:35  -889.797693c -5.86  -3.78    +66.3679
iter:  88 08:47:02  -889.796525c -6.18  -3.80    +66.3501
iter:  89 08:48:30  -889.796023c -6.59  -4.05c   +66.3523
iter:  90 08:49:58  -889.796409c -6.66  -4.08c   +66.3547
iter:  91 08:51:27  -889.796188c -6.93  -4.12c   +66.3506
iter:  92 08:52:55  -889.796125c -7.19  -4.22c   +66.3476
iter:  93 08:54:24  -889.796143c -7.13  -4.26c   +66.3491
iter:  94 08:55:53  -889.796536c -6.59  -4.33c   +66.3491
iter:  95 08:57:21  -889.796273c -6.70  -4.12c   +66.3460
iter:  96 08:58:49  -889.796020c -7.04  -4.30c   +66.3426
iter:  97 09:00:16  -889.796254c -6.94  -4.38c   +66.3458
iter:  98 09:01:47  -889.796284c -7.01  -4.32c   +66.3461
iter:  99 09:03:14  -889.796139c -7.46c -4.37c   +66.3424

Converged after 99 iterations.

Dipole moment: (7.025635, -1.364573, 1.055884) |e|*Ang

Total magnetic moment: (0.000000, 0.000000, 66.342423)
Local magnetic moments:
   0 Co ( 0.000000,  0.000000,  1.278837)
   1 Co ( 0.000000,  0.000000,  0.948253)
   2 Fe ( 0.000000,  0.000000,  1.947423)
   3 Fe ( 0.000000,  0.000000,  1.670161)
   4 Cr ( 0.000000,  0.000000,  0.613408)
   5 Cr ( 0.000000,  0.000000, -1.174625)
   6 Co ( 0.000000,  0.000000,  0.747907)
   7 Cr ( 0.000000,  0.000000, -1.360937)
   8 Fe ( 0.000000,  0.000000,  2.298402)
   9 Ni ( 0.000000,  0.000000,  0.443674)
  10 Ni ( 0.000000,  0.000000,  0.534443)
  11 Co ( 0.000000,  0.000000,  1.554132)
  12 Cr ( 0.000000,  0.000000, -0.469043)
  13 Fe ( 0.000000,  0.000000,  1.722843)
  14 Cr ( 0.000000,  0.000000, -0.763444)
  15 Fe ( 0.000000,  0.000000,  1.589374)
  16 Ni ( 0.000000,  0.000000,  0.109780)
  17 Co ( 0.000000,  0.000000,  1.088225)
  18 Ni ( 0.000000,  0.000000,  0.308466)
  19 Cr ( 0.000000,  0.000000, -1.736843)
  20 Co ( 0.000000,  0.000000,  1.238041)
  21 Ni ( 0.000000,  0.000000,  0.268485)
  22 Co ( 0.000000,  0.000000,  1.234329)
  23 Cr ( 0.000000,  0.000000, -1.136646)
  24 Fe ( 0.000000,  0.000000,  1.709331)
  25 Co ( 0.000000,  0.000000,  1.167373)
  26 Cr ( 0.000000,  0.000000, -1.102351)
  27 Cr ( 0.000000,  0.000000, -0.939987)
  28 Fe ( 0.000000,  0.000000,  1.739573)
  29 Cr ( 0.000000,  0.000000, -1.270323)
  30 Co ( 0.000000,  0.000000,  1.205162)
  31 Co ( 0.000000,  0.000000,  0.690319)
  32 Cr ( 0.000000,  0.000000,  0.950204)
  33 Ni ( 0.000000,  0.000000,  0.399587)
  34 Ni ( 0.000000,  0.000000,  0.274915)
  35 Cr ( 0.000000,  0.000000, -1.622926)
  36 Fe ( 0.000000,  0.000000,  2.336816)
  37 Ni ( 0.000000,  0.000000,  0.260735)
  38 Cr ( 0.000000,  0.000000, -0.987924)
  39 Fe ( 0.000000,  0.000000,  1.658129)
  40 Fe ( 0.000000,  0.000000,  2.083496)
  41 Co ( 0.000000,  0.000000,  0.490146)
  42 Cr ( 0.000000,  0.000000, -1.416826)
  43 Fe ( 0.000000,  0.000000,  2.113186)
  44 Fe ( 0.000000,  0.000000,  2.485641)
  45 Fe ( 0.000000,  0.000000,  2.238865)
  46 Ni ( 0.000000,  0.000000,  0.478986)
  47 Co ( 0.000000,  0.000000,  1.498604)
  48 Cr ( 0.000000,  0.000000, -1.395226)
  49 Ni ( 0.000000,  0.000000,  0.182375)
  50 Fe ( 0.000000,  0.000000,  1.941920)
  51 Co ( 0.000000,  0.000000,  1.098089)
  52 Co ( 0.000000,  0.000000,  1.040941)
  53 Fe ( 0.000000,  0.000000,  2.219017)
  54 Fe ( 0.000000,  0.000000,  2.103575)
  55 Ni ( 0.000000,  0.000000,  0.518521)
  56 Ni ( 0.000000,  0.000000,  0.483690)
  57 Fe ( 0.000000,  0.000000,  2.240215)
  58 Co ( 0.000000,  0.000000,  1.169486)
  59 Ni ( 0.000000,  0.000000,  0.360633)
[...]
  93 Ni ( 0.000000,  0.000000,  0.198530)
  94 Ni ( 0.000000,  0.000000,  0.139461)
  95 Cr ( 0.000000,  0.000000, -1.230145)
  96 Ni ( 0.000000,  0.000000,  0.182347)
  97 Co ( 0.000000,  0.000000,  0.661764)
  98 Fe ( 0.000000,  0.000000,  1.763503)
  99 Cr ( 0.000000,  0.000000, -1.274251)
 100 Co ( 0.000000,  0.000000,  1.183361)
 101 Cr ( 0.000000,  0.000000, -1.028125)
 102 Fe ( 0.000000,  0.000000,  2.098883)
 103 Co ( 0.000000,  0.000000,  1.174639)
 104 Ni ( 0.000000,  0.000000,  0.230381)
 105 Co ( 0.000000,  0.000000,  0.940974)
 106 Cr ( 0.000000,  0.000000,  1.115733)
 107 Cr ( 0.000000,  0.000000, -1.396715)

Energy contributions relative to reference atoms: (reference = -3846758.590871)

Kinetic:       +122.231279
Potential:     -189.061367
External:        +0.000000
XC:            -860.627738
Entropy (-ST):   -4.705222
Local:          +40.014298
Free energy:   -892.148750
Extrapolated:  -889.796139

Spin contamination: 29.600735 electrons
Showing only first 2 kpts
                      Up                     Down
 Kpt  Band  Eigenvalues  Occupancy  Eigenvalues  Occupancy
  0   524      9.82057    0.99464     10.70709    0.02553
  0   525      9.83903    0.99356     10.71778    0.02300
  0   526      9.84417    0.99322     10.73152    0.02011
  0   527      9.85551    0.99241     10.74105    0.01831

  1   524      9.81638    0.99486     10.70684    0.02559
  1   525      9.82411    0.99445     10.71561    0.02349
  1   526      9.83798    0.99363     10.72627    0.02117
  1   527      9.84618    0.99308     10.74699    0.01727

Fermi level: 10.34288

No gap

Forces in eV/Ang:
  0 Co    0.10245   -0.14551   -0.09345
  1 Co   -0.10810    0.31829    0.01317
  2 Fe   -0.13723   -0.07326   -0.10197
  3 Fe    0.00402    0.12372    0.07603
  4 Cr    0.06212   -0.08202   -0.12973
  5 Cr    0.09383   -0.29167    0.30152
  6 Co   -0.03655    0.00451   -0.06900
  7 Cr   -0.08260   -0.01273   -0.19144
  8 Fe   -0.31139   -0.36455    0.18983
  9 Ni    0.01567    0.10477   -0.09018
 10 Ni   -0.06433    0.03750   -0.07316
 11 Co    0.26494   -0.02048    0.18716
 12 Cr    0.00973   -0.07666   -0.23425
 13 Fe    0.06616   -0.11553    0.06245
 14 Cr    0.19923    0.44842   -0.25515
 15 Fe    0.03444   -0.09941    0.22925
 16 Ni   -0.18497   -0.19644   -0.00044
 17 Co   -0.06081   -0.08601    0.08641
 18 Ni   -0.04680   -0.13452   -0.12999
 19 Cr    0.00628    0.06585    0.33080
 20 Co   -0.01639    0.08859    0.04402
 21 Ni    0.24501   -0.00555   -0.12237
 22 Co    0.14011   -0.24914   -0.29157
 23 Cr   -0.02703    0.17292   -0.01719
 24 Fe    0.12788    0.13319    0.11357
 25 Co    0.12828   -0.09161   -0.10638
 26 Cr   -0.12083   -0.47219   -0.13853
 27 Cr   -0.68906    0.30656   -0.05758
 28 Fe    0.06372    0.38573    0.39519
 29 Cr    0.58906    0.30221   -0.15802
 30 Co   -0.17043    0.02515   -0.16992
 31 Co   -0.34202   -0.13447    0.33398
 32 Cr    0.01953    0.17058    0.33440
 33 Ni   -0.14660    0.02892   -0.06796
 34 Ni   -0.01362    0.15443   -0.18754
 35 Cr    0.25998   -0.27558   -0.00026
 36 Fe   -0.14603    0.03769   -0.03493
 37 Ni    0.01308    0.06236    0.03775
 38 Cr    0.21503    0.41579    0.02539
 39 Fe    0.02822    0.36473    0.10433
 40 Fe    0.02271   -0.40804    0.01826
 41 Co   -0.03491    0.04130   -0.01598
 42 Cr   -0.31798   -0.11473   -0.05436
 43 Fe   -0.17250    0.26663   -0.19610
 44 Fe    0.07107   -0.24625   -0.04549
 45 Fe    0.18154    0.24078    0.37341
 46 Ni    0.03466   -0.17608   -0.00880
 47 Co    0.15744    0.15409   -0.10872
 48 Cr   -0.13525   -0.05807   -0.07544
 49 Ni   -0.05090   -0.06378   -0.06531
 50 Fe   -0.11333   -0.28494    0.01480
 51 Co   -0.02756   -0.13362   -0.12100
 52 Co   -0.14912   -0.02068   -0.31532
 53 Fe    0.13269   -0.06339    0.16973
 54 Fe   -0.28853   -0.15955    0.24127
 55 Ni   -0.08128    0.07860   -0.10884
 56 Ni    0.04400   -0.03449    0.10581
 57 Fe    0.12416   -0.10124    0.15386
 58 Co    0.01987    0.02729    0.09805
 59 Ni    0.08188    0.05391    0.11054
[...]
 93 Ni    0.05503   -0.22545   -0.03263
 94 Ni    0.14053    0.16522    0.10856
 95 Cr    0.07838    0.15312    0.04404
 96 Ni   -0.34355    0.01897    0.02702
 97 Co    0.25366    0.11402   -0.10259
 98 Fe   -0.29028    0.24104   -0.04920
 99 Cr   -0.15723    0.17863    0.18628
100 Co    0.15370    0.35004    0.19949
101 Cr    0.69925   -0.21106    0.21181
102 Fe    0.14204    0.18222   -0.21594
103 Co   -0.12113    0.10681   -0.20591
104 Ni    0.30634    0.18212    0.13309
105 Co   -0.11408    0.04392   -0.25786
106 Cr   -0.03712   -0.10705   -0.45923
107 Cr    0.02332    0.04962    0.27704

Date: Sat Apr  8 09:03:34 2023