User:   c.zeng@d0075
Date:   Sat Apr 15 16:08:20 2023
Arch:   x86_64
Pid:    259809
CWD:    /home/c.zeng/projects/hea-corrosion/hea-mlp/data-curation/bulk-mcmc/dft-jobs/53
Python: 3.8.1
gpaw:   /home/c.zeng/usr/installs/gpaw/source/gpaw-22.8.0/gpaw
_gpaw:  /home/c.zeng/usr/installs/gpaw/source/gpaw-22.8.0/
        _gpaw.cpython-38-x86_64-linux-gnu.so
ase:    /home/c.zeng/.local/lib/python3.8/site-packages/ase-3.22.1-py3.8.egg/ase (version 3.22.1)
numpy:  /shared/centos7/python/3.8.1/lib/python3.8/site-packages/numpy (version 1.17.4)
scipy:  /shared/centos7/python/3.8.1/lib/python3.8/site-packages/scipy (version 1.4.1)
units:  Angstrom and eV
cores: 30
OpenMP: False
OMP_NUM_THREADS: 1

Input parameters:
  convergence: {energy: 0.0001}
  kpts: [2 2 2]
  maxiter: 666
  mode: {ecut: 350.0,
         name: pw}
  occupations: {fixmagmom: False,
                name: fermi-dirac,
                width: 0.1}
  spinpol: True
  xc: PBE

System changes: positions, numbers, cell, pbc, initial_charges, initial_magmoms

Initialize ...

species:
  Ni:
    name: Nickel
    id: 0d9f38a9d6e76a2886f07bb4381f212b
    Z: 28.0
    valence: 16
    core: 12
    charge: 0.0
    file: /home/c.zeng/usr/data/gpaw-setups-0.9.20000/Ni.PBE.gz
    compensation charges: {type: gauss,
                           rc: 0.36,
                           lmax: 2}
    cutoffs: {filter: 2.14,
              core: 1.98}
    valence states:
      #              energy  rcut
      - 4s(2.00)    -5.642   1.164
      - 3p(6.00)   -71.394   1.207
      - 4p(0.00)    -1.226   1.207
      - 3d(8.00)    -8.875   1.138
      -  s          21.570   1.164
      -  d          18.337   1.138

    # Using partial waves for Ni as LCAO basis

  Cr:
    name: Chromium
    id: 33f258bda2ca9f93018e70263a35547b
    Z: 24.0
    valence: 6
    core: 18
    charge: 0.0
    file: /home/c.zeng/usr/data/gpaw-setups-0.9.20000/Cr.PBE.gz
    compensation charges: {type: gauss,
                           rc: 0.35,
                           lmax: 2}
    cutoffs: {filter: 2.14,
              core: 3.04}
    valence states:
      #              energy  rcut
      - 4s(1.00)    -4.007   1.164
      - 4p(0.00)    -0.989   1.217
      - 3d(5.00)    -2.913   1.111
      -  s          23.205   1.164
      -  p          26.223   1.217
      -  d          24.299   1.111

[...]

  Fe:
    name: Iron
    id: 37abbd8d6c3c35915a9b583b742da910
    Z: 26.0
    valence: 8
    core: 18
    charge: 0.0
    file: /home/c.zeng/usr/data/gpaw-setups-0.9.20000/Fe.PBE.gz
    compensation charges: {type: gauss,
                           rc: 0.33,
                           lmax: 2}
    cutoffs: {filter: 2.06,
              core: 2.67}
    valence states:
      #              energy  rcut
      - 4s(2.00)    -5.291   1.164
      - 4p(0.00)    -1.326   1.058
      - 3d(6.00)    -7.505   1.058
      -  s          21.920   1.164
      -  p          25.885   1.058
      -  d          19.706   1.058

[...]

  Co:
    name: Cobalt
    id: 339d20d5b0b93d2de9531a1bee871d91
    Z: 27.0
    valence: 9
    core: 18
    charge: 0.0
    file: /home/c.zeng/usr/data/gpaw-setups-0.9.20000/Co.PBE.gz
    compensation charges: {type: gauss,
                           rc: 0.32,
                           lmax: 2}
    cutoffs: {filter: 1.87,
              core: 2.55}
    valence states:
      #              energy  rcut
      - 4s(2.00)    -5.469   1.005
      - 4p(0.00)    -1.277   1.058
      - 3d(7.00)    -8.205   1.005
      -  s          21.742   1.005
      -  p          25.934   1.058
      -  d          19.007   1.005

[...]

  Al:
    name: Aluminium
    id: 0292cae29f5d6237e50f6abdd43a7bdd
    Z: 13.0
    valence: 3
    core: 10
    charge: 0.0
    file: /home/c.zeng/usr/data/gpaw-setups-0.9.20000/Al.PBE.gz
    compensation charges: {type: gauss,
                           rc: 0.34,
                           lmax: 2}
    cutoffs: {filter: 1.91,
              core: 2.36}
    valence states:
      #              energy  rcut
      - 3s(2.00)    -7.753   1.085
      - 3p(1.00)    -2.712   1.085
      -  s          19.459   1.085
      -  p          24.499   1.085
      -  d           0.000   1.085

    # Using partial waves for Al as LCAO basis

Reference energy: -3699400.456887  # eV

Spin-polarized calculation.
Magnetic moment: 143.500000

Convergence criteria:
 Maximum [total energy] change in last 3 cyles: 0.0001 eV / electron
 Maximum integral of absolute [dens]ity change: 0.0001 electrons / valence electron
 Maximum integral of absolute [eigenst]ate change: 4e-08 eV^2 / valence electron
 Maximum number of scf [iter]ations: 666
 (Square brackets indicate name in SCF output, whereas a 'c' in
 the SCF output indicates the quantity has converged.)

Symmetries present (total): 1

  ( 1  0  0)
  ( 0  1  0)
  ( 0  0  1)

8 k-points: 2 x 2 x 2 Monkhorst-Pack grid
4 k-points in the irreducible part of the Brillouin zone
       k-points in crystal coordinates                weights
   0:     0.25000000   -0.25000000   -0.25000000          2/8
   1:     0.25000000   -0.25000000    0.25000000          2/8
   2:     0.25000000    0.25000000   -0.25000000          2/8
   3:     0.25000000    0.25000000    0.25000000          2/8

Wave functions: Plane wave expansion
  Cutoff energy: 350.000 eV
  Number of coefficients (min, max): 18052, 18052
  Pulay-stress correction: 0.000000 eV/Ang^3 (de/decut=0.000000)
  Using FFTW library
  ScaLapack parameters: grid=1x1, blocksize=None
  Wavefunction extrapolation:
    Improved wavefunction reuse through dual PAW basis

Occupation numbers: Fermi-Dirac:
  width: 0.1000  # eV

Eigensolver
   Davidson(niter=2)

Densities:
  Coarse grid: 48*48*48 grid
  Fine grid: 96*96*96 grid
  Total Charge: 0.000000

Density mixing:
  Method: difference
  Backend: pulay
  Linear mixing parameter: 0.05
  old densities: 5
  Damping of long wavelength oscillations: 50

Hamiltonian:
  XC and Coulomb potentials evaluated on a 96*96*96 grid
  Using the PBE Exchange-Correlation functional
  External potential:
    NoExternalPotential

XC parameters: PBE with 2 nearest neighbor stencil

Total number of cores used: 30
Parallelization over k-points: 2
Domain decomposition: 5 x 3 x 1

Number of atoms: 108
Number of atomic orbitals: 1025
Number of bands in calculation: 703
Number of valence electrons: 1020
Bands to converge: occupied

... initialized

Initializing position-dependent things.

Density initialized from atomic densities
Creating initial wave functions:
  703 bands from LCAO basis set

        Ni------------------------.
       /|  Co                Co   |
      Ni|   Cr         Cr         |
     / Fe      Fe       Al        |
    /   CCo      Cr       Fe      |
   /e   | CoCr     CoAl    NiCr   |
  /  FeNi  CrCo     NiCrCo        |
 *    FeFe  FeCoCr     CoAl       |
 |     CoFeCr  CoFe Cr  CrFeCr    |
 | Fe   CrNiNiCo CrNiCrFe  Ni     |
 |   CoNi  CrAlNi   NiCrNi   Fe   |
 |    FeCr  FeFeCoNi CoFeNi   Ni  |
 |     CrFeFe  Ni NiNi  CoFeFe    |
 |      .-CoNiCo-FeCrCrCo--CoNi---.
 |   CrCo    CoAl   NiCrFe       /
 |    / Cr    NiFe       Ni     /
 |   /            Cr           /
 |Cr/      Co       Co        /
 |/            Ni           /
 *----------------Ni-------*

Positions:
   0 Ni     0.005316   -0.016350   10.639749    ( 0.0000,  0.0000,  0.0000)
   1 Cr    10.672340    1.801276    1.786848    ( 0.0000,  0.0000,  0.0000)
   2 Fe     1.795727   10.625972    1.782259    ( 0.0000,  0.0000,  0.0000)
   3 Ni     1.780787    1.796175   10.644605    ( 0.0000,  0.0000,  2.1000)
   4 Fe     3.523539   -0.014558    0.017268    ( 0.0000,  0.0000,  2.0000)
   5 Co     3.522568    1.781672    1.746648    ( 0.0000,  0.0000,  0.0000)
   6 Co     5.320952   10.642342    1.763136    ( 0.0000,  0.0000,  1.5000)
   7 Ni     5.342082    1.828767    0.007462    ( 0.0000,  0.0000,  2.0000)
   8 Ni     7.144895    0.019195    0.012033    ( 0.0000,  0.0000,  0.0000)
   9 Co     7.143497    1.798064    1.764939    ( 0.0000,  0.0000,  2.1000)
  10 Ni     8.891362   10.651627    1.788353    ( 0.0000,  0.0000,  1.5000)
  11 Co     8.888779    1.804777   10.642609    ( 0.0000,  0.0000,  2.0000)
  12 Fe     0.008694    3.581540   10.650250    ( 0.0000,  0.0000,  2.1000)
  13 Cr     0.018979    5.332745    1.789751    ( 0.0000,  0.0000,  2.1000)
  14 Cr     1.778129    3.600941    1.760019    ( 0.0000,  0.0000,  2.0000)
  15 Co     1.790423    5.343267   -0.017766    ( 0.0000,  0.0000,  2.0000)
  16 Cr     3.542802    3.589864   -0.015614    ( 0.0000,  0.0000,  2.0000)
  17 Co     3.526837    5.358538    1.765793    ( 0.0000,  0.0000,  2.0000)
  18 Fe     5.336650    3.606501    1.755815    ( 0.0000,  0.0000,  0.0000)
  19 Cr     5.300399    5.323642   -0.012797    ( 0.0000,  0.0000,  2.1000)
  20 Al     7.122858    3.584816   10.659524    ( 0.0000,  0.0000,  2.0000)
  21 Cr     7.120500    5.315168    1.805502    ( 0.0000,  0.0000,  1.5000)
  22 Ni     8.892034    3.590952    1.773146    ( 0.0000,  0.0000,  2.1000)
  23 Fe     8.925340    5.301487   -0.003100    ( 0.0000,  0.0000,  0.0000)
  24 Ni     0.023055    7.096680   -0.007939    ( 0.0000,  0.0000,  0.0000)
  25 Cr     0.019141    8.871245    1.787510    ( 0.0000,  0.0000,  1.5000)
  26 Co     1.784372    7.104567    1.776443    ( 0.0000,  0.0000,  2.0000)
  27 Co     1.779944    8.867628   10.659406    ( 0.0000,  0.0000,  1.5000)
  28 Ni     3.547785    7.097897    0.009215    ( 0.0000,  0.0000,  2.1000)
  29 Ni     3.541137    8.858109    1.788225    ( 0.0000,  0.0000,  2.1000)
  30 Cr     5.295105    7.099391    1.787894    ( 0.0000,  0.0000,  2.1000)
  31 Ni     5.303685    8.873828    0.029898    ( 0.0000,  0.0000,  0.0000)
  32 Cr     7.106883    7.088719   10.645159    ( 0.0000,  0.0000,  0.0000)
  33 Co     7.111055    8.901137    1.809472    ( 0.0000,  0.0000,  0.0000)
  34 Co     8.939384    7.093404    1.799238    ( 0.0000,  0.0000,  0.0000)
  35 Co     8.919972    8.915853   10.664881    ( 0.0000,  0.0000,  0.0000)
  36 Cr    10.679704   10.658873    3.584517    ( 0.0000,  0.0000,  2.0000)
  37 Fe    10.670921    1.796367    5.340289    ( 0.0000,  0.0000,  2.1000)
  38 Fe     1.770350   10.649001    5.343491    ( 0.0000,  0.0000,  0.0000)
  39 Co     1.791800    1.784671    3.584891    ( 0.0000,  0.0000,  2.0000)
  40 Cr     3.529718   10.626388    3.565234    ( 0.0000,  0.0000,  2.1000)
  41 Fe     3.535716    1.793465    5.367289    ( 0.0000,  0.0000,  1.5000)
  42 Co     5.311497    0.001574    5.366254    ( 0.0000,  0.0000,  1.5000)
  43 Al     5.332627    1.768055    3.580793    ( 0.0000,  0.0000,  0.0000)
  44 Cr     7.136966   10.673941    3.563804    ( 0.0000,  0.0000,  2.0000)
  45 Ni     7.136774    1.794126    5.358944    ( 0.0000,  0.0000,  2.1000)
  46 Co     8.925938   10.673621    5.347589    ( 0.0000,  0.0000,  2.0000)
  47 Fe     8.883827    1.779111    3.582404    ( 0.0000,  0.0000,  1.5000)
  48 Ni    -0.010038    3.572341    3.580996    ( 0.0000,  0.0000,  2.0000)
  49 Co    10.685573    5.328935    5.338550    ( 0.0000,  0.0000,  2.0000)
  50 Cr     1.784180    3.582949    5.348357    ( 0.0000,  0.0000,  1.5000)
  51 Fe     1.766326    5.339510    3.565255    ( 0.0000,  0.0000,  1.5000)
[...]
  1. axis:    yes   10.671700    0.000000    0.000000    48     0.2223
  2. axis:    yes    0.000000   10.671700    0.000000    48     0.2223
  3. axis:    yes    0.000000    0.000000   10.671700    48     0.2223

  Lengths:  10.671700  10.671700  10.671700
  Angles:   90.000000  90.000000  90.000000

Effective grid spacing dv^(1/3) = 0.2223

     iter     time        total  log10-change:  magmom
                         energy  eigst   dens
iter:   1 16:13:52  -917.232486                  +143.1079
iter:   2 16:16:12  -935.766754  -0.57  -1.36    +107.7070
iter:   3 16:18:32  -891.290887  -0.96  -1.30    +78.8500
iter:   4 16:20:52  -873.238808  -1.43  -1.41    +67.7052
iter:   5 16:23:12  -869.909812  -1.95  -1.49    +60.9848
iter:   6 16:25:33  -872.633464  -2.10  -1.53    +57.1852
iter:   7 16:27:53  -869.896294  -1.95  -1.54    +55.5728
iter:   8 16:30:12  -870.224499  -1.63  -1.60    +54.5915
iter:   9 16:32:32  -872.811796  -1.85  -1.75    +53.7835
iter:  10 16:34:52  -869.269839  -2.14  -1.76    +53.1672
iter:  11 16:37:12  -868.446761  -2.40  -1.84    +53.1962
iter:  12 16:39:32  -868.444709  -2.54  -1.89    +53.5368
iter:  13 16:41:52  -868.011384  -2.68  -1.92    +53.8828
iter:  14 16:44:12  -867.656148  -2.84  -1.96    +54.2468
iter:  15 16:46:31  -869.104566  -2.74  -2.01    +54.9780
iter:  16 16:48:51  -869.202353  -2.59  -1.98    +55.1889
iter:  17 16:51:10  -869.151268c -2.64  -2.00    +55.4750
iter:  18 16:53:28  -869.290140  -2.71  -2.00    +56.0286
iter:  19 16:55:48  -868.957657  -2.71  -2.05    +56.5705
iter:  20 16:58:08  -868.451758  -2.99  -2.08    +57.0349
iter:  21 17:00:28  -868.583478  -3.21  -2.14    +57.3678
iter:  22 17:02:48  -868.827818  -3.16  -2.17    +57.9015
iter:  23 17:05:08  -868.897351  -3.17  -2.15    +58.2733
iter:  24 17:07:28  -868.981850  -3.27  -2.16    +58.6544
iter:  25 17:09:48  -869.392763  -3.06  -2.21    +58.9085
iter:  26 17:12:08  -869.366422  -3.05  -2.18    +59.1727
iter:  27 17:14:27  -869.494309  -3.10  -2.21    +59.4680
iter:  28 17:16:48  -869.717678  -3.04  -2.24    +59.6189
iter:  29 17:19:07  -869.542487  -3.09  -2.23    +59.7422
iter:  30 17:21:27  -869.381803  -3.37  -2.26    +59.8628
iter:  31 17:23:47  -869.297484  -3.58  -2.32    +60.0173
iter:  32 17:26:06  -869.321431c -3.78  -2.37    +60.0839
iter:  33 17:28:24  -869.329223c -4.02  -2.38    +60.2110
iter:  34 17:30:44  -869.575437  -3.68  -2.41    +60.2397
iter:  35 17:33:04  -869.776299  -3.39  -2.38    +60.2329
iter:  36 17:35:24  -869.828078  -3.27  -2.34    +60.2059
iter:  37 17:37:44  -869.931107  -3.27  -2.36    +60.2019
iter:  38 17:40:04  -869.976273  -3.20  -2.38    +60.2575
iter:  39 17:42:24  -869.659187  -3.48  -2.37    +60.0496
iter:  40 17:44:44  -869.578440  -3.94  -2.48    +59.9116
iter:  41 17:47:04  -869.587975c -4.29  -2.56    +59.8666
iter:  42 17:49:24  -869.612082c -4.26  -2.58    +59.7921
iter:  43 17:51:43  -869.657477c -4.31  -2.59    +59.6865
iter:  44 17:54:03  -869.883474  -3.66  -2.61    +59.5404
iter:  45 17:56:23  -869.986791  -3.40  -2.52    +59.5156
iter:  46 17:58:42  -869.940837  -3.43  -2.48    +59.4492
iter:  47 18:01:01  -869.868938  -3.59  -2.54    +59.1747
iter:  48 18:03:21  -869.789794  -3.64  -2.59    +59.0120
iter:  49 18:05:41  -869.701005  -4.24  -2.66    +58.9299
iter:  50 18:08:01  -869.706546c -4.77  -2.84    +58.8611
iter:  51 18:10:21  -869.723279c -4.81  -2.88    +58.7264
iter:  52 18:12:40  -869.743533c -4.70  -2.89    +58.6686
iter:  53 18:15:00  -869.782891c -4.34  -2.89    +58.5888
iter:  54 18:17:20  -869.854654  -3.95  -2.86    +58.4961
iter:  55 18:19:40  -869.827058c -3.95  -2.80    +58.3852
iter:  56 18:22:00  -869.811529c -4.09  -2.83    +58.2306
iter:  57 18:24:20  -869.796946c -4.34  -2.93    +58.1932
iter:  58 18:26:39  -869.788295c -4.75  -3.02    +58.1185
iter:  59 18:28:58  -869.796492c -5.03  -3.18    +57.9889
iter:  60 18:31:16  -869.807865c -5.07  -3.24    +57.9049
iter:  61 18:33:36  -869.819025c -4.99  -3.24    +57.7812
iter:  62 18:35:56  -869.822122c -5.56  -3.22    +57.7493
iter:  63 18:38:16  -869.834229c -5.22  -3.25    +57.6557
iter:  64 18:40:36  -869.838096c -5.53  -3.26    +57.6405
iter:  65 18:42:56  -869.850429c -5.26  -3.22    +57.5424
iter:  66 18:45:16  -869.826226c -4.78  -3.22    +57.7439
iter:  67 18:47:36  -869.829149c -5.05  -3.25    +57.7151
iter:  68 18:49:55  -869.842570c -4.90  -3.20    +57.6092
iter:  69 18:52:16  -869.849445c -4.88  -3.22    +57.5486
iter:  70 18:54:35  -869.866733c -4.77  -3.40    +57.4690
iter:  71 18:56:55  -869.866793c -5.01  -3.23    +57.4494
iter:  72 18:59:15  -869.877020c -4.86  -3.34    +57.3284
iter:  73 19:01:35  -869.886607c -5.15  -3.65    +57.2826
iter:  74 19:03:55  -869.894967c -5.28  -3.55    +57.2330
iter:  75 19:06:14  -869.903476c -5.30  -3.58    +57.1669
iter:  76 19:08:33  -869.931391c -4.65  -3.70    +57.0402
iter:  77 19:10:53  -869.927794c -5.86  -3.43    +57.0690
iter:  78 19:13:13  -869.945886c -4.96  -3.42    +56.9949
iter:  79 19:15:32  -869.947360c -5.55  -3.37    +56.9871
iter:  80 19:17:52  -869.963808c -5.08  -3.41    +56.9182
iter:  81 19:20:12  -870.028847c -4.13  -3.36    +56.7806
iter:  82 19:22:32  -869.989558c -4.88  -3.03    +56.8575
iter:  83 19:24:52  -870.007679c -5.08  -3.20    +56.8199
iter:  84 19:27:11  -870.019591c -5.19  -3.18    +56.8038
iter:  85 19:29:31  -870.043827c -4.52  -3.13    +56.7918
iter:  86 19:31:51  -870.077145c -4.18  -3.04    +56.7728
iter:  87 19:34:10  -870.045648c -4.56  -2.91    +56.7091
iter:  88 19:36:30  -870.066671c -4.30  -3.10    +56.6955
iter:  89 19:38:49  -870.045538c -4.82  -2.99    +56.6650
iter:  90 19:41:09  -870.055178c -4.83  -3.22    +56.6213
iter:  91 19:43:29  -870.064935c -4.74  -3.20    +56.5841
iter:  92 19:45:49  -870.060520c -4.86  -3.14    +56.5541
iter:  93 19:48:09  -870.068599c -4.96  -3.22    +56.5222
iter:  94 19:50:29  -870.069908c -5.14  -3.22    +56.5071
iter:  95 19:52:48  -870.073762c -4.94  -3.23    +56.4927
iter:  96 19:55:08  -870.083142c -4.81  -3.24    +56.4596
iter:  97 19:57:28  -870.076810c -4.93  -3.15    +56.4290
iter:  98 19:59:48  -870.088177c -4.82  -3.32    +56.4057
iter:  99 20:02:08  -870.090147c -4.80  -3.20    +56.4029
iter: 100 20:04:28  -870.081507c -5.10  -3.19    +56.4023
iter: 101 20:06:47  -870.086379c -5.30  -3.48    +56.3732
iter: 102 20:09:07  -870.085775c -5.66  -3.42    +56.3742
iter: 103 20:11:27  -870.088838c -5.51  -3.51    +56.3584
iter: 104 20:13:47  -870.091654c -5.32  -3.51    +56.3428
iter: 105 20:16:06  -870.092391c -5.48  -3.50    +56.3343
iter: 106 20:18:25  -870.093457c -5.53  -3.57    +56.3353
iter: 107 20:20:44  -870.092892c -5.68  -3.57    +56.3339
iter: 108 20:23:04  -870.094333c -5.92  -3.80    +56.3433
iter: 109 20:25:22  -870.094765c -6.32  -3.86    +56.3379
iter: 110 20:27:43  -870.095730c -6.02  -3.86    +56.3457
iter: 111 20:30:03  -870.096524c -6.19  -3.89    +56.3421
iter: 112 20:32:23  -870.097721c -5.96  -3.90    +56.3335
iter: 113 20:34:43  -870.098164c -6.28  -3.91    +56.3391
iter: 114 20:37:03  -870.098658c -6.16  -3.94    +56.3374
iter: 115 20:39:23  -870.099152c -6.28  -3.96    +56.3534
iter: 116 20:41:43  -870.100281c -6.23  -4.04c   +56.3554
iter: 117 20:44:03  -870.100080c -6.50  -3.98    +56.3576
iter: 118 20:46:23  -870.100504c -6.38  -4.04c   +56.3640
iter: 119 20:48:43  -870.100823c -6.52  -4.07c   +56.3668
iter: 120 20:51:04  -870.101292c -6.55  -4.09c   +56.3760
iter: 121 20:53:23  -870.101519c -6.73  -4.10c   +56.3775
iter: 122 20:55:43  -870.101779c -6.78  -4.14c   +56.3842
iter: 123 20:58:03  -870.102649c -6.13  -4.14c   +56.4019
iter: 124 21:00:23  -870.105039c -5.28  -4.04c   +56.4547
iter: 125 21:02:43  -870.107283c -5.23  -3.87    +56.5041
iter: 126 21:05:02  -870.105791c -5.95  -3.74    +56.4670
iter: 127 21:07:22  -870.107374c -5.79  -3.83    +56.5054
iter: 128 21:09:40  -870.108915c -5.53  -3.74    +56.5513
iter: 129 21:11:59  -870.109791c -6.02  -3.66    +56.5543
iter: 130 21:14:19  -870.109298c -6.05  -3.59    +56.5646
iter: 131 21:16:39  -870.109330c -6.39  -3.60    +56.5826
iter: 132 21:18:59  -870.109693c -6.48  -3.63    +56.5908
iter: 133 21:21:19  -870.109395c -5.41  -3.61    +56.5959
iter: 134 21:23:39  -870.108835c -5.71  -3.52    +56.6064
iter: 135 21:25:59  -870.110279c -5.54  -3.67    +56.5994
iter: 136 21:28:19  -870.108114c -5.99  -3.56    +56.6096
iter: 137 21:30:39  -870.108865c -6.23  -3.77    +56.6177
iter: 138 21:32:59  -870.108642c -6.11  -3.74    +56.6185
iter: 139 21:35:18  -870.109942c -5.70  -3.78    +56.6277
iter: 140 21:37:38  -870.108591c -6.00  -3.65    +56.6336
iter: 141 21:39:58  -870.109063c -5.82  -3.84    +56.6381
iter: 142 21:42:17  -870.109627c -5.82  -3.79    +56.6395
iter: 143 21:44:37  -870.108639c -6.20  -3.81    +56.6476
iter: 144 21:46:57  -870.108673c -6.51  -3.96    +56.6609
iter: 145 21:49:18  -870.108667c -6.69  -4.07c   +56.6644
iter: 146 21:51:58  -870.108751c -6.92  -4.09c   +56.6708
iter: 147 21:54:34  -870.108823c -7.10  -4.16c   +56.6808
iter: 148 21:57:11  -870.108930c -6.56  -4.22c   +56.6982
iter: 149 21:59:49  -870.109002c -6.93  -4.16c   +56.6953
iter: 150 22:02:28  -870.109023c -6.76  -4.32c   +56.7056
iter: 151 22:05:06  -870.109116c -6.95  -4.36c   +56.7150
iter: 152 22:07:44  -870.109107c -7.38  -4.50c   +56.7165
iter: 153 22:10:22  -870.109233c -7.30  -4.53c   +56.7215
iter: 154 22:12:59  -870.109310c -7.48c -4.54c   +56.7266

Converged after 154 iterations.

Dipole moment: (-10.652957, 8.496784, 8.829262) |e|*Ang

Total magnetic moment: (0.000000, 0.000000, 56.726612)
Local magnetic moments:
   0 Ni ( 0.000000,  0.000000,  0.164845)
   1 Cr ( 0.000000,  0.000000, -0.652555)
   2 Fe ( 0.000000,  0.000000, -1.725702)
   3 Ni ( 0.000000,  0.000000,  0.046714)
   4 Fe ( 0.000000,  0.000000,  2.232495)
   5 Co ( 0.000000,  0.000000,  0.986003)
   6 Co ( 0.000000,  0.000000,  1.235200)
   7 Ni ( 0.000000,  0.000000,  0.096159)
   8 Ni ( 0.000000,  0.000000,  0.429833)
   9 Co ( 0.000000,  0.000000,  1.022830)
  10 Ni ( 0.000000,  0.000000,  0.194319)
  11 Co ( 0.000000,  0.000000,  0.379846)
  12 Fe ( 0.000000,  0.000000,  1.627949)
  13 Cr ( 0.000000,  0.000000, -1.508750)
  14 Cr ( 0.000000,  0.000000,  0.302965)
  15 Co ( 0.000000,  0.000000,  1.152088)
  16 Cr ( 0.000000,  0.000000, -0.696305)
  17 Co ( 0.000000,  0.000000,  0.864398)
  18 Fe ( 0.000000,  0.000000,  1.864601)
  19 Cr ( 0.000000,  0.000000,  0.059855)
  20 Al ( 0.000000,  0.000000, -0.010428)
  21 Cr ( 0.000000,  0.000000, -1.147175)
  22 Ni ( 0.000000,  0.000000,  0.107062)
  23 Fe ( 0.000000,  0.000000,  1.833120)
  24 Ni ( 0.000000,  0.000000,  0.425595)
  25 Cr ( 0.000000,  0.000000, -0.937930)
  26 Co ( 0.000000,  0.000000,  1.147158)
  27 Co ( 0.000000,  0.000000,  1.149616)
  28 Ni ( 0.000000,  0.000000,  0.308180)
  29 Ni ( 0.000000,  0.000000,  0.273479)
  30 Cr ( 0.000000,  0.000000, -1.416001)
  31 Ni ( 0.000000,  0.000000,  0.345066)
  32 Cr ( 0.000000,  0.000000,  1.056626)
  33 Co ( 0.000000,  0.000000,  1.347805)
  34 Co ( 0.000000,  0.000000,  0.824519)
  35 Co ( 0.000000,  0.000000,  1.173245)
  36 Cr ( 0.000000,  0.000000, -0.493357)
  37 Fe ( 0.000000,  0.000000,  2.242881)
  38 Fe ( 0.000000,  0.000000,  1.825588)
  39 Co ( 0.000000,  0.000000,  0.852806)
  40 Cr ( 0.000000,  0.000000,  0.702007)
  41 Fe ( 0.000000,  0.000000,  2.178215)
  42 Co ( 0.000000,  0.000000,  1.005497)
  43 Al ( 0.000000,  0.000000, -0.027823)
  44 Cr ( 0.000000,  0.000000, -1.807463)
  45 Ni ( 0.000000,  0.000000, -0.000216)
  46 Co ( 0.000000,  0.000000,  0.754015)
  47 Fe ( 0.000000,  0.000000,  2.018871)
  48 Ni ( 0.000000,  0.000000,  0.276444)
  49 Co ( 0.000000,  0.000000,  1.374918)
  50 Cr ( 0.000000,  0.000000, -1.929043)
  51 Fe ( 0.000000,  0.000000,  1.922819)
  52 Ni ( 0.000000,  0.000000,  0.173399)
  53 Al ( 0.000000,  0.000000, -0.034805)
  54 Co ( 0.000000,  0.000000,  0.613831)
  55 Ni ( 0.000000,  0.000000,  0.135017)
  56 Cr ( 0.000000,  0.000000, -1.390390)
  57 Cr ( 0.000000,  0.000000, -1.453239)
  58 Ni ( 0.000000,  0.000000,  0.135772)
  59 Fe ( 0.000000,  0.000000,  2.009701)
[...]
  93 Cr ( 0.000000,  0.000000, -0.989018)
  94 Al ( 0.000000,  0.000000, -0.024242)
  95 Fe ( 0.000000,  0.000000,  1.886530)
  96 Fe ( 0.000000,  0.000000,  2.095884)
  97 Fe ( 0.000000,  0.000000,  2.140467)
  98 Co ( 0.000000,  0.000000,  1.429920)
  99 Cr ( 0.000000,  0.000000, -1.687227)
 100 Co ( 0.000000,  0.000000,  1.278641)
 101 Fe ( 0.000000,  0.000000,  2.373957)
 102 Co ( 0.000000,  0.000000,  0.930515)
 103 Ni ( 0.000000,  0.000000,  0.365803)
 104 Co ( 0.000000,  0.000000,  0.644348)
 105 Al ( 0.000000,  0.000000, -0.023993)
 106 Ni ( 0.000000,  0.000000,  0.252785)
 107 Cr ( 0.000000,  0.000000, -1.513274)

Energy contributions relative to reference atoms: (reference = -3699400.456887)

Kinetic:       +140.794953
Potential:     -191.892084
External:        +0.000000
XC:            -854.521736
Entropy (-ST):   -4.663167
Local:          +37.841140
Free energy:   -872.440894
Extrapolated:  -870.109310

Spin contamination: 30.842591 electrons
Showing only first 2 kpts
                      Up                     Down
 Kpt  Band  Eigenvalues  Occupancy  Eigenvalues  Occupancy
  0   508      9.66728    0.99233     10.46959    0.04071
  0   509      9.68668    0.99071     10.48553    0.03492
  0   510      9.69804    0.98960     10.49286    0.03253
  0   511      9.73299    0.98532     10.50664    0.02846

  1   508      9.68505    0.99086     10.48283    0.03584
  1   509      9.69519    0.98989     10.49103    0.03311
  1   510      9.71540    0.98766     10.49949    0.03051
  1   511      9.72541    0.98637     10.51020    0.02749

Fermi level: 10.15361

No gap

Forces in eV/Ang:
  0 Ni    0.01106    0.30619    0.37226
  1 Cr    0.08764   -0.13630   -0.10693
  2 Fe   -0.41300    0.44997    0.00570
  3 Ni   -0.17267   -0.19264    0.24523
  4 Fe    0.34629    0.37005   -0.18930
  5 Co    0.03538    0.09051    0.09524
  6 Co    0.11169    0.28800    0.01291
  7 Ni   -0.25161   -0.62186    0.17987
  8 Ni   -0.26174   -0.11876   -0.05852
  9 Co   -0.31375   -0.28995    0.50921
 10 Ni    0.25970    0.27290   -0.16417
 11 Co    0.20938   -0.39944    0.33934
 12 Fe    0.15155   -0.30955    0.65589
 13 Cr    0.01691    0.29534   -0.18582
 14 Cr    0.18035   -0.68688    0.32775
 15 Co    0.07624   -0.01402    0.14335
 16 Cr   -0.14005   -0.30687    0.09698
 17 Co    0.08359   -0.25250    0.10278
 18 Fe   -0.39751   -0.23888    0.33114
 19 Cr   -0.59255    0.94415   -0.13191
 20 Al    0.03661   -0.86835    1.27355
 21 Cr    0.33542    1.15788    0.04878
 22 Ni    0.33069   -0.35625    0.09820
 23 Fe    0.02227    0.92887    0.33006
 24 Ni   -0.33320    0.08569    0.10904
 25 Cr   -0.08198    0.10017   -0.36121
 26 Co   -0.22686   -0.02584   -0.10589
 27 Co   -0.08992    0.20614    0.11002
 28 Ni    0.03736   -0.14066   -0.27178
 29 Ni    0.06187    0.18697   -0.09230
 30 Cr    0.36363    0.27438   -0.00965
 31 Ni    0.32349    0.14106   -0.21213
 32 Cr    0.07167   -0.78861    0.84613
 33 Co    0.02189   -0.20980   -0.26148
 34 Co   -0.21606    0.16037   -0.27887
 35 Co   -0.18550   -0.31356    0.46941
 36 Cr    0.13625    0.16887    0.05628
 37 Fe    0.23432   -0.21493    0.00857
 38 Fe   -0.17132   -0.06471    0.06855
 39 Co    0.07910   -0.05251   -0.36966
 40 Cr   -0.58219   -0.29438   -0.16766
 41 Fe   -0.16155    0.07415    0.10867
 42 Co    0.13883   -0.30620   -0.11377
 43 Al   -0.54237    0.45776   -0.21726
 44 Cr    0.65798   -0.31417   -0.44480
 45 Ni   -0.19553   -0.12890   -0.22434
 46 Co   -0.24499   -0.34041   -0.13751
 47 Fe   -0.08735   -0.11638   -0.38452
 48 Ni    0.21360   -0.12127   -0.28007
 49 Co   -0.12331    0.21656    0.10308
 50 Cr   -0.96823   -0.78405   -0.34249
 51 Fe   -0.22563   -0.03386   -0.21359
 52 Ni    0.19311   -0.32495   -0.47084
 53 Al    0.71939    0.16615   -0.24792
 54 Co    0.46978   -0.36204    0.16576
 55 Ni    0.02193   -0.28797   -0.28844
 56 Cr    0.29093   -0.08161   -0.06076
 57 Cr   -0.12056    0.45479    0.52328
 58 Ni    0.06235   -0.07860    0.09361
 59 Fe   -0.12844   -0.19716   -0.08287
[...]
 93 Cr   -0.03770    1.33673   -0.50970
 94 Al    0.87754    0.02604   -0.34998
 95 Fe   -0.15998    0.30612   -0.23227
 96 Fe   -0.11237    0.26265   -0.40528
 97 Fe    0.30157   -0.11173    0.04605
 98 Co    0.05866   -0.02029    0.22144
 99 Cr   -0.12279    0.06299   -0.45497
100 Co    0.10173    0.37148    0.39663
101 Fe    0.26383   -0.00997   -0.07007
102 Co    0.04292   -0.31992    0.20776
103 Ni    0.20648    0.36215   -0.09800
104 Co   -0.06240   -0.18828   -0.35593
105 Al   -1.09060    0.12700    0.40313
106 Ni   -0.15724   -0.16077    0.48311
107 Cr    1.10164    0.16258   -0.78579

Date: Sat Apr 15 22:13:27 2023