User:   c.zeng@d0010
Date:   Fri Apr 14 06:32:16 2023
Arch:   x86_64
Pid:    226066
CWD:    /home/c.zeng/projects/hea-corrosion/hea-mlp/data-curation/bulk-mcmc/dft-jobs/112
Python: 3.8.1
gpaw:   /home/c.zeng/usr/installs/gpaw/source/gpaw-22.8.0/gpaw
_gpaw:  /home/c.zeng/usr/installs/gpaw/source/gpaw-22.8.0/
        _gpaw.cpython-38-x86_64-linux-gnu.so
ase:    /home/c.zeng/.local/lib/python3.8/site-packages/ase-3.22.1-py3.8.egg/ase (version 3.22.1)
numpy:  /shared/centos7/python/3.8.1/lib/python3.8/site-packages/numpy (version 1.17.4)
scipy:  /shared/centos7/python/3.8.1/lib/python3.8/site-packages/scipy (version 1.4.1)
units:  Angstrom and eV
cores: 30
OpenMP: False
OMP_NUM_THREADS: 1

Input parameters:
  convergence: {energy: 0.0001}
  kpts: [2 2 2]
  maxiter: 666
  mode: {ecut: 350.0,
         name: pw}
  occupations: {fixmagmom: False,
                name: fermi-dirac,
                width: 0.1}
  spinpol: True
  xc: PBE

System changes: positions, numbers, cell, pbc, initial_charges, initial_magmoms

Initialize ...

species:
  Co:
    name: Cobalt
    id: 339d20d5b0b93d2de9531a1bee871d91
    Z: 27.0
    valence: 9
    core: 18
    charge: 0.0
    file: /home/c.zeng/usr/data/gpaw-setups-0.9.20000/Co.PBE.gz
    compensation charges: {type: gauss,
                           rc: 0.32,
                           lmax: 2}
    cutoffs: {filter: 1.87,
              core: 2.55}
    valence states:
      #              energy  rcut
      - 4s(2.00)    -5.469   1.005
      - 4p(0.00)    -1.277   1.058
      - 3d(7.00)    -8.205   1.005
      -  s          21.742   1.005
      -  p          25.934   1.058
      -  d          19.007   1.005

    # Using partial waves for Co as LCAO basis

  Fe:
    name: Iron
    id: 37abbd8d6c3c35915a9b583b742da910
    Z: 26.0
    valence: 8
    core: 18
    charge: 0.0
    file: /home/c.zeng/usr/data/gpaw-setups-0.9.20000/Fe.PBE.gz
    compensation charges: {type: gauss,
                           rc: 0.33,
                           lmax: 2}
    cutoffs: {filter: 2.06,
              core: 2.67}
    valence states:
      #              energy  rcut
      - 4s(2.00)    -5.291   1.164
      - 4p(0.00)    -1.326   1.058
      - 3d(6.00)    -7.505   1.058
      -  s          21.920   1.164
      -  p          25.885   1.058
      -  d          19.706   1.058

[...]

  Ni:
    name: Nickel
    id: 0d9f38a9d6e76a2886f07bb4381f212b
    Z: 28.0
    valence: 16
    core: 12
    charge: 0.0
    file: /home/c.zeng/usr/data/gpaw-setups-0.9.20000/Ni.PBE.gz
    compensation charges: {type: gauss,
                           rc: 0.36,
                           lmax: 2}
    cutoffs: {filter: 2.14,
              core: 1.98}
    valence states:
      #              energy  rcut
      - 4s(2.00)    -5.642   1.164
      - 3p(6.00)   -71.394   1.207
      - 4p(0.00)    -1.226   1.207
      - 3d(8.00)    -8.875   1.138
      -  s          21.570   1.164
      -  d          18.337   1.138

[...]

  Al:
    name: Aluminium
    id: 0292cae29f5d6237e50f6abdd43a7bdd
    Z: 13.0
    valence: 3
    core: 10
    charge: 0.0
    file: /home/c.zeng/usr/data/gpaw-setups-0.9.20000/Al.PBE.gz
    compensation charges: {type: gauss,
                           rc: 0.34,
                           lmax: 2}
    cutoffs: {filter: 1.91,
              core: 2.36}
    valence states:
      #              energy  rcut
      - 3s(2.00)    -7.753   1.085
      - 3p(1.00)    -2.712   1.085
      -  s          19.459   1.085
      -  p          24.499   1.085
      -  d           0.000   1.085

[...]

  Cr:
    name: Chromium
    id: 33f258bda2ca9f93018e70263a35547b
    Z: 24.0
    valence: 6
    core: 18
    charge: 0.0
    file: /home/c.zeng/usr/data/gpaw-setups-0.9.20000/Cr.PBE.gz
    compensation charges: {type: gauss,
                           rc: 0.35,
                           lmax: 2}
    cutoffs: {filter: 2.14,
              core: 3.04}
    valence states:
      #              energy  rcut
      - 4s(1.00)    -4.007   1.164
      - 4p(0.00)    -0.989   1.217
      - 3d(5.00)    -2.913   1.111
      -  s          23.205   1.164
      -  p          26.223   1.217
      -  d          24.299   1.111

    # Using partial waves for Cr as LCAO basis

Reference energy: -3548577.034362  # eV

Spin-polarized calculation.
Magnetic moment: 136.400000

Convergence criteria:
 Maximum [total energy] change in last 3 cyles: 0.0001 eV / electron
 Maximum integral of absolute [dens]ity change: 0.0001 electrons / valence electron
 Maximum integral of absolute [eigenst]ate change: 4e-08 eV^2 / valence electron
 Maximum number of scf [iter]ations: 666
 (Square brackets indicate name in SCF output, whereas a 'c' in
 the SCF output indicates the quantity has converged.)

Symmetries present (total): 1

  ( 1  0  0)
  ( 0  1  0)
  ( 0  0  1)

8 k-points: 2 x 2 x 2 Monkhorst-Pack grid
4 k-points in the irreducible part of the Brillouin zone
       k-points in crystal coordinates                weights
   0:     0.25000000   -0.25000000   -0.25000000          2/8
   1:     0.25000000   -0.25000000    0.25000000          2/8
   2:     0.25000000    0.25000000   -0.25000000          2/8
   3:     0.25000000    0.25000000    0.25000000          2/8

Wave functions: Plane wave expansion
  Cutoff energy: 350.000 eV
  Number of coefficients (min, max): 18331, 18331
  Pulay-stress correction: 0.000000 eV/Ang^3 (de/decut=0.000000)
  Using FFTW library
  ScaLapack parameters: grid=1x1, blocksize=None
  Wavefunction extrapolation:
    Improved wavefunction reuse through dual PAW basis

Occupation numbers: Fermi-Dirac:
  width: 0.1000  # eV

Eigensolver
   Davidson(niter=2)

Densities:
  Coarse grid: 48*48*48 grid
  Fine grid: 96*96*96 grid
  Total Charge: 0.000000

Density mixing:
  Method: difference
  Backend: pulay
  Linear mixing parameter: 0.05
  old densities: 5
  Damping of long wavelength oscillations: 50

Hamiltonian:
  XC and Coulomb potentials evaluated on a 96*96*96 grid
  Using the PBE Exchange-Correlation functional
  External potential:
    NoExternalPotential

XC parameters: PBE with 2 nearest neighbor stencil

Total number of cores used: 30
Parallelization over k-points: 2
Domain decomposition: 5 x 3 x 1

Number of atoms: 108
Number of atomic orbitals: 994
Number of bands in calculation: 674
Number of valence electrons: 980
Bands to converge: occupied

... initialized

Initializing position-dependent things.

Density initialized from atomic densities
Creating initial wave functions:
  674 bands from LCAO basis set

        Co-------Co---------------.
       /|  Co       Fe            |
      / |   AlCr     CrCo     CrCo|
     / Ni       CAl     Ni        |
    /   CCo      Ni      FAl      |
   /    | CoCo     Co      CoCo   |
  /   Co|  NiFeAl   NiNi    CrCr  |
 *      Cr  CrCoNi   CoNiNi   FeNi|
 |Fe   NiAlCr   CrNCr   FeCr      |
 | Fe   | NiNi   NiNiCr    Cr     |
 |     Co  CoFeNi   FeNiAl  NiNi  |
 |      Fe    FeNi   FeAlFe   AlCr|
 |Cr    |CoAl   NFeFe   FeFe     Fe
 |      .-FeCr-----FeCr--FeCoNi---.
 |     Cr    CoCr     FeCo  Cr Fe/
 |    / Al      Co       Cr     /
 Cr  /            Cr           /
 |  /      Ni      Cr       Fe/
 | / Co              Fe      /
 |/                     Co  /

Positions:
   0 Co    10.732479   -0.010418   10.721263    ( 0.0000,  0.0000,  2.1000)
   1 Fe    10.706231    1.787006    1.816653    ( 0.0000,  0.0000,  1.5000)
   2 Co     1.827923    0.046024    1.820803    ( 0.0000,  0.0000,  0.0000)
   3 Co     1.781666    1.794790   10.668295    ( 0.0000,  0.0000,  0.0000)
   4 Co     3.605675   -0.024615   10.696977    ( 0.0000,  0.0000,  0.0000)
   5 Ni     3.626284    1.755611    1.827590    ( 0.0000,  0.0000,  2.0000)
   6 Fe     5.347186   -0.032870    1.798425    ( 0.0000,  0.0000,  2.0000)
   7 Al     5.383406    1.755353   -0.004078    ( 0.0000,  0.0000,  2.0000)
   8 Fe     7.108694   -0.021619    0.052076    ( 0.0000,  0.0000,  0.0000)
   9 Cr     7.129131    1.783639    1.838109    ( 0.0000,  0.0000,  2.0000)
  10 Al     8.928414   -0.004386    1.840918    ( 0.0000,  0.0000,  2.0000)
  11 Co     8.945645    1.852509    0.063651    ( 0.0000,  0.0000,  0.0000)
  12 Co    10.721403    3.615743   10.707625    ( 0.0000,  0.0000,  2.1000)
  13 Fe    10.714905    5.407607    1.816064    ( 0.0000,  0.0000,  2.0000)
  14 Al     1.786931    3.537020    1.885127    ( 0.0000,  0.0000,  0.0000)
  15 Co     1.774396    5.426328   10.657058    ( 0.0000,  0.0000,  0.0000)
  16 Co     3.564340    3.564490   10.690115    ( 0.0000,  0.0000,  0.0000)
  17 Co     3.570334    5.434059    1.813919    ( 0.0000,  0.0000,  0.0000)
  18 Co     5.350145    3.574934    1.808708    ( 0.0000,  0.0000,  0.0000)
  19 Al     5.345084    5.410577   10.703464    ( 0.0000,  0.0000,  2.1000)
  20 Fe     7.157695    3.624514    0.002553    ( 0.0000,  0.0000,  2.1000)
  21 Fe     7.157792    5.380200    1.803904    ( 0.0000,  0.0000,  0.0000)
  22 Cr     8.944980    3.620622    1.842988    ( 0.0000,  0.0000,  0.0000)
  23 Al     8.940316    5.370571   -0.005231    ( 0.0000,  0.0000,  0.0000)
  24 Co    10.674578    7.138041   10.683446    ( 0.0000,  0.0000,  2.0000)
  25 Fe    10.668413    8.869012    1.800001    ( 0.0000,  0.0000,  0.0000)
  26 Fe     1.807904    7.157309    1.806960    ( 0.0000,  0.0000,  1.5000)
  27 Co     1.808086    8.895217   10.689064    ( 0.0000,  0.0000,  0.0000)
  28 Cr     3.612462    7.185391   10.698339    ( 0.0000,  0.0000,  2.0000)
  29 Ni     3.598277    8.905404    1.808097    ( 0.0000,  0.0000,  1.5000)
  30 Fe     5.362229    7.149643    1.778835    ( 0.0000,  0.0000,  2.1000)
  31 Fe     5.368084    8.904170   10.708750    ( 0.0000,  0.0000,  2.0000)
  32 Co     7.127640    7.124156   10.700741    ( 0.0000,  0.0000,  2.0000)
  33 Fe     7.139982    8.914904    1.783157    ( 0.0000,  0.0000,  0.0000)
  34 Co     8.884516    7.107975    1.798232    ( 0.0000,  0.0000,  2.0000)
  35 Cr     8.895410    8.880302    0.005476    ( 0.0000,  0.0000,  0.0000)
  36 Cr    10.737840    0.006469    3.587908    ( 0.0000,  0.0000,  1.5000)
  37 Cr     0.009110    1.816214    5.359506    ( 0.0000,  0.0000,  1.5000)
  38 Cr     1.833434   -0.010553    5.335488    ( 0.0000,  0.0000,  2.1000)
  39 Cr     1.814369    1.777409    3.664755    ( 0.0000,  0.0000,  1.5000)
  40 Ni     3.608002   -0.027958    3.615958    ( 0.0000,  0.0000,  2.1000)
  41 Al     3.597397    1.774364    5.368180    ( 0.0000,  0.0000,  1.5000)
  42 Co     5.355185   -0.018813    5.365682    ( 0.0000,  0.0000,  2.1000)
  43 Cr     5.354005    1.762698    3.609396    ( 0.0000,  0.0000,  1.5000)
  44 Cr     7.096449    0.004839    3.553950    ( 0.0000,  0.0000,  0.0000)
  45 Fe     7.124574    1.817747    5.354692    ( 0.0000,  0.0000,  2.1000)
  46 Fe     8.888698   10.712332    5.289714    ( 0.0000,  0.0000,  0.0000)
  47 Co     8.931727    1.815495    3.558979    ( 0.0000,  0.0000,  1.5000)
  48 Ni    10.700248    3.599864    3.631730    ( 0.0000,  0.0000,  0.0000)
  49 Ni    -0.007893    5.382698    5.388017    ( 0.0000,  0.0000,  2.0000)
  50 Fe     1.794265    3.594073    5.365264    ( 0.0000,  0.0000,  2.0000)
  51 Co     1.782020    5.398675    3.628600    ( 0.0000,  0.0000,  1.5000)
[...]
  98 Co     1.793750    7.182882    8.888666    ( 0.0000,  0.0000,  1.5000)
  99 Ni     1.836501    8.904825    7.123094    ( 0.0000,  0.0000,  2.1000)
 100 Co     3.587511    7.157223    7.133645    ( 0.0000,  0.0000,  2.1000)
 101 Co     3.596025    8.923803    8.905018    ( 0.0000,  0.0000,  1.5000)
 102 Co     5.369413    7.149278    8.921112    ( 0.0000,  0.0000,  2.0000)
 103 Ni     5.343776    8.916533    7.143070    ( 0.0000,  0.0000,  2.1000)
 104 Ni     7.139778    7.140400    7.139349    ( 0.0000,  0.0000,  2.1000)
 105 Ni     7.106892    8.889835    8.908727    ( 0.0000,  0.0000,  1.5000)
 106 Co     8.907419    7.146362    8.906765    ( 0.0000,  0.0000,  2.0000)
 107 Cr     8.922313    8.892279    7.115031    ( 0.0000,  0.0000,  2.0000)

Unit cell:
           periodic     x           y           z      points  spacing
  1. axis:    yes   10.722400    0.000000    0.000000    48     0.2234
  2. axis:    yes    0.000000   10.722400    0.000000    48     0.2234
  3. axis:    yes    0.000000    0.000000   10.722400    48     0.2234

  Lengths:  10.722400  10.722400  10.722400
  Angles:   90.000000  90.000000  90.000000

Effective grid spacing dv^(1/3) = 0.2234

     iter     time        total  log10-change:  magmom
                         energy  eigst   dens
iter:   1 06:41:23  -929.907403                  +135.8721
iter:   2 06:45:17  -911.234394  -0.43  -1.32    +99.3818
iter:   3 06:49:11  -882.689799  -0.87  -1.27    +71.2415
iter:   4 06:53:05  -857.921896  -1.42  -1.34    +60.3143
iter:   5 06:57:24  -855.940466  -1.80  -1.44    +54.4077
iter:   6 07:01:24  -855.464261  -1.93  -1.45    +51.7010
iter:   7 07:05:17  -855.080296  -1.70  -1.50    +50.0777
iter:   8 07:09:11  -850.987618  -1.73  -1.52    +49.5473
iter:   9 07:13:04  -859.946956  -1.66  -1.67    +49.4115
iter:  10 07:16:58  -848.848159  -1.92  -1.62    +49.0060
iter:  11 07:20:51  -851.027979  -2.24  -1.85    +49.7995
iter:  12 07:24:44  -848.730374  -2.51  -1.81    +49.9938
iter:  13 07:28:38  -849.477920  -2.51  -1.90    +50.6588
iter:  14 07:32:30  -849.389639  -2.57  -1.91    +51.4759
iter:  15 07:36:24  -850.966557  -2.49  -1.97    +52.1338
iter:  16 07:40:17  -850.818265  -2.41  -1.97    +52.8274
iter:  17 07:44:11  -851.081214  -2.49  -2.01    +52.9953
iter:  18 07:48:05  -850.452559  -2.59  -2.04    +53.8611
iter:  19 07:52:03  -850.471822  -2.66  -2.09    +54.3164
iter:  20 07:56:24  -849.532474  -3.07  -2.10    +54.5549
iter:  21 08:00:19  -849.617864  -3.34  -2.25    +55.4076
iter:  22 08:04:12  -849.610136c -3.64  -2.28    +55.8249
iter:  23 08:08:05  -849.826438  -3.57  -2.31    +56.8318
iter:  24 08:11:59  -850.399189  -3.17  -2.33    +57.6866
iter:  25 08:15:53  -850.444557  -3.19  -2.28    +57.5786
iter:  26 08:19:46  -850.456162c -3.07  -2.29    +58.3544
iter:  27 08:23:40  -850.822903  -3.11  -2.36    +58.7436
iter:  28 08:27:33  -850.641428  -3.12  -2.31    +59.2523
iter:  29 08:31:52  -850.587513  -3.41  -2.43    +59.5640
iter:  30 08:35:51  -850.566980c -3.75  -2.45    +60.2662
iter:  31 08:39:45  -850.686133  -3.79  -2.53    +60.7960
iter:  32 08:43:39  -850.793290  -3.90  -2.54    +61.4706
iter:  33 08:47:33  -851.116789  -3.04  -2.54    +63.4928
iter:  34 08:51:26  -851.303834  -3.45  -2.48    +64.0218
iter:  35 08:55:20  -851.315490  -3.90  -2.42    +63.6233
iter:  36 08:59:14  -851.448176  -3.53  -2.44    +63.9186
iter:  37 09:03:11  -851.556820  -3.43  -2.45    +64.0055
iter:  38 09:07:09  -851.612511  -3.09  -2.44    +64.2560
iter:  39 09:11:17  -851.381079  -3.37  -2.41    +63.6810
iter:  40 09:15:17  -851.632221  -3.18  -2.58    +63.5431
iter:  41 09:19:12  -851.245835  -3.76  -2.42    +63.4374
iter:  42 09:23:08  -851.292183  -4.05  -2.81    +63.4782
iter:  43 09:27:05  -851.323157c -3.92  -2.76    +63.3364
iter:  44 09:31:01  -851.291631c -4.07  -2.75    +63.2490
iter:  45 09:34:56  -851.285942c -4.50  -2.84    +63.3125
iter:  46 09:38:49  -851.318295c -4.29  -2.92    +63.2640
iter:  47 09:42:51  -851.313884c -4.38  -2.90    +63.2797
iter:  48 09:46:46  -851.325921c -4.46  -2.90    +63.2452
iter:  49 09:50:40  -851.324098c -4.47  -2.94    +63.2952
iter:  50 09:54:30  -851.370671c -4.10  -3.05    +63.2344
iter:  51 09:58:19  -851.334568c -4.38  -2.87    +63.2065
iter:  52 10:02:09  -851.327212c -4.75  -3.07    +63.2716
iter:  53 10:05:59  -851.347171c -4.58  -3.23    +63.2752
iter:  54 10:09:48  -851.335433c -4.99  -3.10    +63.2918
iter:  55 10:13:39  -851.339392c -5.19  -3.24    +63.2668
iter:  56 10:17:29  -851.344581c -5.21  -3.31    +63.2946
iter:  57 10:21:19  -851.351468c -5.02  -3.32    +63.3049
iter:  58 10:25:09  -851.353121c -5.18  -3.25    +63.3013
iter:  59 10:29:01  -851.356763c -5.02  -3.32    +63.3286
iter:  60 10:32:51  -851.361289c -5.08  -3.39    +63.3300
iter:  61 10:36:41  -851.364577c -5.12  -3.37    +63.3417
iter:  62 10:40:32  -851.366524c -5.31  -3.38    +63.3417
iter:  63 10:44:23  -851.371313c -5.40  -3.51    +63.3526
iter:  64 10:48:12  -851.372177c -5.93  -3.50    +63.3702
iter:  65 10:52:03  -851.378112c -5.42  -3.52    +63.3913
iter:  66 10:55:55  -851.379686c -5.56  -3.45    +63.4034
iter:  67 10:59:49  -851.384560c -5.33  -3.46    +63.4224
iter:  68 11:03:42  -851.391182c -5.25  -3.53    +63.4410
iter:  69 11:07:34  -851.394957c -5.34  -3.46    +63.4530
iter:  70 11:11:25  -851.398483c -5.55  -3.49    +63.4792
iter:  71 11:15:16  -851.405979c -5.35  -3.53    +63.4997
iter:  72 11:19:05  -851.400915c -5.64  -3.41    +63.4781
iter:  73 11:22:57  -851.405749c -5.40  -3.45    +63.5329
iter:  74 11:26:48  -851.411107c -5.38  -3.46    +63.5208
iter:  75 11:30:40  -851.417567c -5.37  -3.47    +63.5246
iter:  76 11:34:30  -851.391266c -4.33  -3.44    +63.4591
iter:  77 11:38:22  -851.404828c -5.11  -3.47    +63.5242
iter:  78 11:42:13  -851.396995c -5.34  -3.44    +63.5186
iter:  79 11:46:04  -851.403601c -5.50  -3.50    +63.5621
iter:  80 11:49:55  -851.406743c -5.53  -3.55    +63.5697
iter:  81 11:53:46  -851.414529c -5.09  -3.46    +63.4552
iter:  82 11:57:39  -851.417713c -5.44  -3.49    +63.5154
iter:  83 12:01:31  -851.423704c -5.25  -3.41    +63.5178
iter:  84 12:05:26  -851.426016c -5.58  -3.44    +63.5584
iter:  85 12:09:19  -851.432816c -5.22  -3.48    +63.5844
iter:  86 12:13:09  -851.437969c -5.37  -3.48    +63.6124
iter:  87 12:17:01  -851.452608c -4.80  -3.46    +63.5821
iter:  88 12:20:52  -851.467380c -4.77  -3.37    +63.5704
iter:  89 12:24:42  -851.460213c -5.79  -3.27    +63.5772
iter:  90 12:28:33  -851.473237c -5.07  -3.29    +63.5853
iter:  91 12:32:25  -851.469675c -5.89  -3.23    +63.5802
iter:  92 12:36:18  -851.480693c -4.76  -3.25    +63.5601
iter:  93 12:40:10  -851.503309c -4.34  -3.23    +63.4848
iter:  94 12:44:03  -851.497064c -4.98  -3.14    +63.5483
iter:  95 12:47:52  -851.506064c -4.63  -3.16    +63.5109
iter:  96 12:51:45  -851.502971c -4.84  -3.13    +63.4646
iter:  97 12:55:36  -851.504525c -5.08  -3.17    +63.4938
iter:  98 12:59:27  -851.510920c -5.00  -3.24    +63.5026
iter:  99 13:03:17  -851.511940c -5.56  -3.20    +63.4823
iter: 100 13:07:10  -851.526842c -4.87  -3.24    +63.4540
iter: 101 13:11:04  -851.521484c -5.41  -3.11    +63.4515
iter: 102 13:14:55  -851.524310c -4.85  -3.16    +63.4028
[...]
iter: 135 15:22:38  -851.579378c -5.67  -3.60    +63.5791
iter: 136 15:26:31  -851.580949c -5.78  -3.67    +63.6026
iter: 137 15:30:19  -851.582907c -5.64  -3.61    +63.6567
iter: 138 15:34:10  -851.584012c -5.54  -3.65    +63.6828
iter: 139 15:38:01  -851.585282c -5.43  -3.57    +63.6842
iter: 140 15:41:54  -851.584916c -5.64  -3.54    +63.6930
iter: 141 15:45:47  -851.585213c -5.97  -3.64    +63.6740
iter: 142 15:49:39  -851.586656c -5.91  -3.75    +63.6862
iter: 143 15:53:32  -851.590005c -5.54  -3.70    +63.7061
iter: 144 15:57:22  -851.587988c -5.81  -3.54    +63.7057
iter: 145 16:01:14  -851.589019c -5.63  -3.64    +63.7288
iter: 146 16:05:09  -851.588873c -5.63  -3.59    +63.7421
iter: 147 16:09:00  -851.590912c -5.36  -3.73    +63.7477
iter: 148 16:12:52  -851.589271c -5.57  -3.56    +63.7336
iter: 149 16:16:46  -851.588945c -5.94  -3.76    +63.7560
iter: 150 16:20:37  -851.590506c -5.84  -4.01c   +63.7564
iter: 151 16:24:30  -851.589644c -6.25  -3.78    +63.7600
iter: 152 16:28:21  -851.589636c -6.31  -3.98    +63.7661
iter: 153 16:32:14  -851.590040c -6.49  -4.01c   +63.7764
iter: 154 16:36:06  -851.590241c -6.37  -4.02c   +63.7864
iter: 155 16:39:58  -851.590359c -6.47  -4.03c   +63.7831
iter: 156 16:43:52  -851.590402c -6.38  -4.08c   +63.7911
iter: 157 16:47:49  -851.590497c -6.57  -4.04c   +63.7926
iter: 158 16:51:41  -851.590923c -6.46  -4.11c   +63.7975
iter: 159 16:55:35  -851.590849c -6.65  -4.06c   +63.8033
iter: 160 16:59:29  -851.590980c -6.68  -4.12c   +63.8041
iter: 161 17:03:22  -851.591031c -6.55  -4.18c   +63.8118
iter: 162 17:07:16  -851.591133c -6.98  -4.14c   +63.8112
iter: 163 17:11:08  -851.591209c -6.81  -4.25c   +63.8133
iter: 164 17:15:02  -851.591126c -6.57  -4.24c   +63.8104
iter: 165 17:18:55  -851.591241c -6.87  -4.12c   +63.8116
iter: 166 17:22:45  -851.591252c -7.02  -4.28c   +63.8154
iter: 167 17:26:36  -851.591516c -6.57  -4.37c   +63.8156
iter: 168 17:30:30  -851.591321c -6.98  -4.16c   +63.8185
iter: 169 17:34:23  -851.591344c -7.13  -4.45c   +63.8176
iter: 170 17:38:01  -851.591476c -7.33  -4.46c   +63.8202
iter: 171 17:41:58  -851.591441c -7.35  -4.45c   +63.8247
iter: 172 17:45:55  -851.591486c -7.52c -4.54c   +63.8277

Converged after 172 iterations.

Dipole moment: (-1.898652, 12.948827, 14.411135) |e|*Ang

Total magnetic moment: (0.000000, 0.000000, 63.827736)
Local magnetic moments:
   0 Co ( 0.000000,  0.000000,  1.073945)
   1 Fe ( 0.000000,  0.000000,  2.156346)
   2 Co ( 0.000000,  0.000000,  1.422457)
   3 Co ( 0.000000,  0.000000,  1.133882)
   4 Co ( 0.000000,  0.000000,  1.097937)
   5 Ni ( 0.000000,  0.000000,  0.250612)
   6 Fe ( 0.000000,  0.000000,  1.936508)
   7 Al ( 0.000000,  0.000000, -0.019810)
   8 Fe ( 0.000000,  0.000000, -1.475682)
   9 Cr ( 0.000000,  0.000000,  0.900089)
  10 Al ( 0.000000,  0.000000, -0.015767)
  11 Co ( 0.000000,  0.000000,  1.010368)
  12 Co ( 0.000000,  0.000000,  1.070314)
  13 Fe ( 0.000000,  0.000000,  2.256732)
  14 Al ( 0.000000,  0.000000, -0.030046)
  15 Co ( 0.000000,  0.000000,  1.218428)
  16 Co ( 0.000000,  0.000000,  1.284874)
  17 Co ( 0.000000,  0.000000,  1.145511)
  18 Co ( 0.000000,  0.000000,  1.063613)
  19 Al ( 0.000000,  0.000000, -0.041530)
  20 Fe ( 0.000000,  0.000000,  2.114117)
  21 Fe ( 0.000000,  0.000000,  2.071007)
  22 Cr ( 0.000000,  0.000000, -1.265127)
  23 Al ( 0.000000,  0.000000, -0.038451)
  24 Co ( 0.000000,  0.000000,  1.236019)
  25 Fe ( 0.000000,  0.000000,  2.252158)
  26 Fe ( 0.000000,  0.000000,  2.326201)
  27 Co ( 0.000000,  0.000000,  1.492700)
  28 Cr ( 0.000000,  0.000000, -2.068579)
  29 Ni ( 0.000000,  0.000000,  0.469522)
  30 Fe ( 0.000000,  0.000000,  1.990352)
  31 Fe ( 0.000000,  0.000000,  2.112187)
  32 Co ( 0.000000,  0.000000,  1.203892)
  33 Fe ( 0.000000,  0.000000,  1.843757)
  34 Co ( 0.000000,  0.000000,  1.235019)
  35 Cr ( 0.000000,  0.000000, -1.550502)
  36 Cr ( 0.000000,  0.000000, -1.734964)
  37 Cr ( 0.000000,  0.000000,  0.751988)
  38 Cr ( 0.000000,  0.000000,  1.098077)
  39 Cr ( 0.000000,  0.000000, -0.053627)
  40 Ni ( 0.000000,  0.000000,  0.237627)
  41 Al ( 0.000000,  0.000000, -0.008700)
  42 Co ( 0.000000,  0.000000,  0.921606)
  43 Cr ( 0.000000,  0.000000,  0.694735)
  44 Cr ( 0.000000,  0.000000, -1.489561)
  45 Fe ( 0.000000,  0.000000,  1.705816)
  46 Fe ( 0.000000,  0.000000,  2.022233)
  47 Co ( 0.000000,  0.000000,  0.501820)
  48 Ni ( 0.000000,  0.000000,  0.265484)
  49 Ni ( 0.000000,  0.000000,  0.272110)
  50 Fe ( 0.000000,  0.000000,  1.964249)
  51 Co ( 0.000000,  0.000000,  1.187679)
  52 Cr ( 0.000000,  0.000000, -1.489568)
  53 Fe ( 0.000000,  0.000000,  2.263116)
  54 Ni ( 0.000000,  0.000000,  0.086092)
  55 Fe ( 0.000000,  0.000000,  2.182545)
  56 Cr ( 0.000000,  0.000000, -1.426708)
  57 Ni ( 0.000000,  0.000000,  0.153744)
  58 Fe ( 0.000000,  0.000000,  1.772434)
  59 Fe ( 0.000000,  0.000000,  1.779366)
[...]
  93 Ni ( 0.000000,  0.000000,  0.206303)
  94 Ni ( 0.000000,  0.000000,  0.196133)
  95 Cr ( 0.000000,  0.000000, -1.259081)
  96 Ni ( 0.000000,  0.000000,  0.036478)
  97 Ni ( 0.000000,  0.000000,  0.236368)
  98 Co ( 0.000000,  0.000000,  1.297098)
  99 Ni ( 0.000000,  0.000000,  0.157124)
 100 Co ( 0.000000,  0.000000,  1.436447)
 101 Co ( 0.000000,  0.000000,  1.268531)
 102 Co ( 0.000000,  0.000000,  1.261366)
 103 Ni ( 0.000000,  0.000000,  0.354082)
 104 Ni ( 0.000000,  0.000000,  0.253347)
 105 Ni ( 0.000000,  0.000000,  0.239491)
 106 Co ( 0.000000,  0.000000,  1.026252)
 107 Cr ( 0.000000,  0.000000, -1.486290)

Energy contributions relative to reference atoms: (reference = -3548577.034362)

Kinetic:       +213.136900
Potential:     -239.046302
External:        +0.000000
XC:            -859.288906
Entropy (-ST):   -4.535078
Local:          +35.874360
Free energy:   -853.859026
Extrapolated:  -851.591486

Spin contamination: 29.542303 electrons
Showing only first 2 kpts
                      Up                     Down
 Kpt  Band  Eigenvalues  Occupancy  Eigenvalues  Occupancy
  0   488      9.48250    0.99433     10.35593    0.02747
  0   489      9.49622    0.99351     10.37798    0.02216
  0   490      9.50099    0.99319     10.38719    0.02025
  0   491      9.51917    0.99184     10.39606    0.01856

  1   488      9.48692    0.99408     10.37613    0.02256
  1   489      9.49331    0.99369     10.39070    0.01956
  1   490      9.50109    0.99318     10.39794    0.01822
  1   491      9.51938    0.99183     10.41378    0.01559

Fermi level: 9.99925

No gap

Forces in eV/Ang:
  0 Co   -0.14611    0.11785    0.14946
  1 Fe    0.19292    0.05740   -0.23691
  2 Co   -0.16920   -0.48937   -0.17425
  3 Co    0.09735    0.13102    0.45046
  4 Co   -0.36484   -0.13738    0.46837
  5 Ni   -0.45640    0.07001   -0.24307
  6 Fe   -0.20524   -0.54459    0.08130
  7 Al   -0.71532    0.81598    0.43806
  8 Fe    0.43377    0.27981   -0.47897
  9 Cr    0.03345    0.51368   -0.12271
 10 Al    0.29762   -0.02504   -0.85356
 11 Co   -0.04234   -0.03400   -0.67065
 12 Co    0.11256   -0.40684    0.14200
 13 Fe    0.22146   -0.07571   -0.29259
 14 Al   -0.00579    0.70308   -1.38454
 15 Co    0.19916   -0.32143    0.26234
 16 Co   -0.24989    0.31761    0.31763
 17 Co   -0.20172   -0.44754    0.01095
 18 Co   -0.02981    0.30152    0.16312
 19 Al    0.36000   -1.17694    0.00555
 20 Fe    0.00925   -0.44254    0.01360
 21 Fe   -0.17927   -0.54949    0.00719
 22 Cr    0.29109   -0.76780    0.07016
 23 Al   -0.26795    0.41750   -0.52783
 24 Co    0.48498    0.28754    0.21187
 25 Fe    0.59116    0.18300   -0.32624
 26 Fe   -0.06207    0.07173   -0.40068
 27 Co   -0.09253   -0.12191    0.53619
 28 Cr   -1.09772    0.58121   -0.06910
 29 Ni   -0.41843    0.41055   -0.15753
 30 Fe   -0.26656    0.26482    0.00672
 31 Fe    0.04831    0.10688    0.08439
 32 Co    0.13764    0.60160    0.06016
 33 Fe   -0.04129    0.05395   -0.17912
 34 Co    0.34111    0.34834   -0.05115
 35 Cr    0.01761   -0.45866   -0.59709
 36 Cr    0.40181   -0.40511    0.75699
 37 Cr   -0.02616   -0.03777   -0.15954
 38 Cr   -1.09214   -0.47684    0.05372
 39 Cr   -0.07709   -0.57901   -0.61518
 40 Ni   -0.12429    0.07228   -0.55374
 41 Al    0.58162   -0.07628    1.44015
 42 Co    0.43789   -0.27894    0.01602
 43 Cr    0.30485    0.25324   -0.72910
 44 Cr   -0.32301   -0.03864    0.70059
 45 Fe    0.10563   -0.15083   -0.17664
 46 Fe    0.48340   -0.43308    0.22299
 47 Co    0.10866    0.19637    0.41279
 48 Ni    0.10016   -0.00437   -0.16459
 49 Ni   -0.10208   -0.46625   -0.21022
 50 Fe   -0.35910   -0.10918   -0.00673
 51 Co    0.13711    0.06320   -0.10043
 52 Cr    0.53414    0.52932   -0.63920
 53 Fe    0.32132   -0.08381   -0.15739
 54 Ni    0.07235    0.10707   -0.03457
 55 Fe   -0.33925   -1.00129   -0.49771
 56 Cr   -0.39439    0.08717    0.04694
 57 Ni   -0.05284   -0.00892   -0.07689
 58 Fe    0.00083    0.31969   -0.25764
 59 Fe    0.05625   -0.59168   -0.05756
[...]
 93 Ni   -0.01320   -0.17792   -0.13164
 94 Ni    0.13114   -0.21231    0.42804
 95 Cr    0.37726    0.01932    0.20163
 96 Ni   -0.13536    0.17912    0.01875
 97 Ni   -0.18100    0.05731   -0.08917
 98 Co    0.21502   -0.12707    0.58062
 99 Ni   -0.40318    0.07712    0.20378
100 Co    0.20519    0.20047    0.29187
101 Co    0.23565   -0.37285    0.22353
102 Co   -0.26258    0.11787   -0.28512
103 Ni   -0.07400    0.06668    0.04714
104 Ni   -0.01257    0.10382    0.11299
105 Ni    0.31740    0.26751    0.05269
106 Co    0.07381    0.37661    0.00461
107 Cr   -0.19152    0.16460    0.27023

Date: Fri Apr 14 17:46:42 2023