User:   c.zeng@d0087
Date:   Fri Apr 14 17:31:38 2023
Arch:   x86_64
Pid:    205425
CWD:    /home/c.zeng/projects/hea-corrosion/hea-mlp/data-curation/bulk-mcmc/dft-jobs/15
Python: 3.8.1
gpaw:   /home/c.zeng/usr/installs/gpaw/source/gpaw-22.8.0/gpaw
_gpaw:  /home/c.zeng/usr/installs/gpaw/source/gpaw-22.8.0/
        _gpaw.cpython-38-x86_64-linux-gnu.so
ase:    /home/c.zeng/.local/lib/python3.8/site-packages/ase-3.22.1-py3.8.egg/ase (version 3.22.1)
numpy:  /shared/centos7/python/3.8.1/lib/python3.8/site-packages/numpy (version 1.17.4)
scipy:  /shared/centos7/python/3.8.1/lib/python3.8/site-packages/scipy (version 1.4.1)
units:  Angstrom and eV
cores: 30
OpenMP: False
OMP_NUM_THREADS: 1

Input parameters:
  convergence: {energy: 0.0001}
  kpts: [2 2 2]
  maxiter: 666
  mode: {ecut: 350.0,
         name: pw}
  occupations: {fixmagmom: False,
                name: fermi-dirac,
                width: 0.1}
  spinpol: True
  xc: PBE

System changes: positions, numbers, cell, pbc, initial_charges, initial_magmoms

Initialize ...

species:
  Co:
    name: Cobalt
    id: 339d20d5b0b93d2de9531a1bee871d91
    Z: 27.0
    valence: 9
    core: 18
    charge: 0.0
    file: /home/c.zeng/usr/data/gpaw-setups-0.9.20000/Co.PBE.gz
    compensation charges: {type: gauss,
                           rc: 0.32,
                           lmax: 2}
    cutoffs: {filter: 1.87,
              core: 2.55}
    valence states:
      #              energy  rcut
      - 4s(2.00)    -5.469   1.005
      - 4p(0.00)    -1.277   1.058
      - 3d(7.00)    -8.205   1.005
      -  s          21.742   1.005
      -  p          25.934   1.058
      -  d          19.007   1.005

    # Using partial waves for Co as LCAO basis

  Fe:
    name: Iron
    id: 37abbd8d6c3c35915a9b583b742da910
    Z: 26.0
    valence: 8
    core: 18
    charge: 0.0
    file: /home/c.zeng/usr/data/gpaw-setups-0.9.20000/Fe.PBE.gz
    compensation charges: {type: gauss,
                           rc: 0.33,
                           lmax: 2}
    cutoffs: {filter: 2.06,
              core: 2.67}
    valence states:
      #              energy  rcut
      - 4s(2.00)    -5.291   1.164
      - 4p(0.00)    -1.326   1.058
      - 3d(6.00)    -7.505   1.058
      -  s          21.920   1.164
      -  p          25.885   1.058
      -  d          19.706   1.058

[...]

  Ni:
    name: Nickel
    id: 0d9f38a9d6e76a2886f07bb4381f212b
    Z: 28.0
    valence: 16
    core: 12
    charge: 0.0
    file: /home/c.zeng/usr/data/gpaw-setups-0.9.20000/Ni.PBE.gz
    compensation charges: {type: gauss,
                           rc: 0.36,
                           lmax: 2}
    cutoffs: {filter: 2.14,
              core: 1.98}
    valence states:
      #              energy  rcut
      - 4s(2.00)    -5.642   1.164
      - 3p(6.00)   -71.394   1.207
      - 4p(0.00)    -1.226   1.207
      - 3d(8.00)    -8.875   1.138
      -  s          21.570   1.164
      -  d          18.337   1.138

[...]

  Cr:
    name: Chromium
    id: 33f258bda2ca9f93018e70263a35547b
    Z: 24.0
    valence: 6
    core: 18
    charge: 0.0
    file: /home/c.zeng/usr/data/gpaw-setups-0.9.20000/Cr.PBE.gz
    compensation charges: {type: gauss,
                           rc: 0.35,
                           lmax: 2}
    cutoffs: {filter: 2.14,
              core: 3.04}
    valence states:
      #              energy  rcut
      - 4s(1.00)    -4.007   1.164
      - 4p(0.00)    -0.989   1.217
      - 3d(5.00)    -2.913   1.111
      -  s          23.205   1.164
      -  p          26.223   1.217
      -  d          24.299   1.111

    # Using partial waves for Cr as LCAO basis

Reference energy: -3846758.590871  # eV

Spin-polarized calculation.
Magnetic moment: 151.200000

Convergence criteria:
 Maximum [total energy] change in last 3 cyles: 0.0001 eV / electron
 Maximum integral of absolute [dens]ity change: 0.0001 electrons / valence electron
 Maximum integral of absolute [eigenst]ate change: 4e-08 eV^2 / valence electron
 Maximum number of scf [iter]ations: 666
 (Square brackets indicate name in SCF output, whereas a 'c' in
 the SCF output indicates the quantity has converged.)

Symmetries present (total): 1

  ( 1  0  0)
  ( 0  1  0)
  ( 0  0  1)

8 k-points: 2 x 2 x 2 Monkhorst-Pack grid
4 k-points in the irreducible part of the Brillouin zone
       k-points in crystal coordinates                weights
   0:     0.25000000   -0.25000000   -0.25000000          2/8
   1:     0.25000000   -0.25000000    0.25000000          2/8
   2:     0.25000000    0.25000000   -0.25000000          2/8
   3:     0.25000000    0.25000000    0.25000000          2/8

Wave functions: Plane wave expansion
  Cutoff energy: 350.000 eV
  Number of coefficients (min, max): 17755, 17755
  Pulay-stress correction: 0.000000 eV/Ang^3 (de/decut=0.000000)
  Using FFTW library
  ScaLapack parameters: grid=1x1, blocksize=None
  Wavefunction extrapolation:
    Improved wavefunction reuse through dual PAW basis

Occupation numbers: Fermi-Dirac:
  width: 0.1000  # eV

Eigensolver
   Davidson(niter=2)

Densities:
  Coarse grid: 48*48*48 grid
  Fine grid: 96*96*96 grid
  Total Charge: 0.000000

Density mixing:
  Method: difference
  Backend: pulay
  Linear mixing parameter: 0.05
  old densities: 5
  Damping of long wavelength oscillations: 50

Hamiltonian:
  XC and Coulomb potentials evaluated on a 96*96*96 grid
  Using the PBE Exchange-Correlation functional
  External potential:
    NoExternalPotential

XC parameters: PBE with 2 nearest neighbor stencil

Total number of cores used: 30
Parallelization over k-points: 2
Domain decomposition: 5 x 3 x 1

Number of atoms: 108
Number of atomic orbitals: 1053
Number of bands in calculation: 727
Number of valence electrons: 1053
Bands to converge: occupied

... initialized

Initializing position-dependent things.

Density initialized from atomic densities
Creating initial wave functions:
  727 bands from LCAO basis set

       /|  Ni       Ni      Ni    |
      / |   CrFe     Cr           |
     /  |       Co      Fe       Fe
    /   |Cr      CFe       Co     Ni
   /    | Co       Ni       NFe   |
  /  CCo|  FeCr     CoCr          |
 *    CrCr    FeNi   FeNiCo       |
 |      |CoCr   FeFeCr  CoNiFe   Ni
 |      | CrCo     CoNiFeCrNiCr   |
 |    Co|  CoFeCr   CoCrFe   CrCo |
 |      Cr    CrNiCr NiCrNi     Cr|
 |      |FeFe  CoFeNi   FeCrFe   Cr
 |      .-FeCo-----NiCrFe--CrNi---Co
 |   Nio     Fe       Cr         /
 |    CrCo     Cor     CNie     /
 |   /    Co               Ni  /
 |  /      Fe       Fe    NiFe/
 | / Fe     Ni       NiNi    /
 |/            Co       Ni  /
 *--------Co------Co-------*

Positions:
   0 Co    -0.012479   -0.003723   10.616104    ( 0.0000,  0.0000,  2.1000)
   1 Fe    -0.011321    1.761305    1.763386    ( 0.0000,  0.0000,  2.1000)
   2 Fe     1.758365    0.001326    1.769011    ( 0.0000,  0.0000,  2.0000)
   3 Co     1.752686    1.779222   10.610436    ( 0.0000,  0.0000,  2.0000)
   4 Co     3.541196    0.004726   10.616104    ( 0.0000,  0.0000,  0.0000)
   5 Fe     3.534711    1.782438    1.778999    ( 0.0000,  0.0000,  0.0000)
   6 Ni     5.305717   10.600629    1.767950    ( 0.0000,  0.0000,  2.1000)
   7 Co     5.324780    1.765604   10.614618    ( 0.0000,  0.0000,  0.0000)
   8 Co     7.089121    0.014598   10.619926    ( 0.0000,  0.0000,  2.0000)
   9 Fe     7.085279    1.771219    1.773543    ( 0.0000,  0.0000,  1.5000)
  10 Ni     8.850554    0.011470    1.768756    ( 0.0000,  0.0000,  1.5000)
  11 Ni     8.842381    1.777333   10.615680    ( 0.0000,  0.0000,  2.1000)
  12 Fe    10.590535    3.538203   -0.001956    ( 0.0000,  0.0000,  0.0000)
  13 Ni    10.624277    5.310674    1.769786    ( 0.0000,  0.0000,  2.0000)
  14 Co     1.761379    3.535623    1.784572    ( 0.0000,  0.0000,  0.0000)
  15 Cr     1.770200    5.301408   10.611753    ( 0.0000,  0.0000,  2.0000)
  16 Ni     3.556003    3.551407   10.618333    ( 0.0000,  0.0000,  1.5000)
  17 Fe     3.539370    5.311290    1.775199    ( 0.0000,  0.0000,  2.1000)
  18 Cr     5.320142    3.545059    1.779678    ( 0.0000,  0.0000,  1.5000)
  19 Fe     5.306980    5.314654   10.602720    ( 0.0000,  0.0000,  0.0000)
  20 Ni     7.081585    3.529127   10.614725    ( 0.0000,  0.0000,  2.1000)
  21 Cr     7.069241    5.303361    1.781271    ( 0.0000,  0.0000,  1.5000)
  22 Fe     8.841447    3.542671    1.781600    ( 0.0000,  0.0000,  2.1000)
  23 Ni     8.850893    5.290379    0.000220    ( 0.0000,  0.0000,  0.0000)
  24 Cr     0.005868    7.083411   10.614937    ( 0.0000,  0.0000,  2.0000)
  25 Cr    10.601043    8.849694    1.772960    ( 0.0000,  0.0000,  2.1000)
  26 Fe     1.773713    7.072329    1.777184    ( 0.0000,  0.0000,  0.0000)
  27 Ni     1.755520    8.842943   10.608324    ( 0.0000,  0.0000,  0.0000)
  28 Fe     3.544009    7.063116   10.610489    ( 0.0000,  0.0000,  2.0000)
  29 Co     3.542225    8.826820    1.785580    ( 0.0000,  0.0000,  0.0000)
  30 Ni     5.309835    7.081776    1.776600    ( 0.0000,  0.0000,  2.1000)
  31 Ni     5.331945    8.840321   10.604673    ( 0.0000,  0.0000,  2.1000)
  32 Co     7.068434    7.069028   10.623110    ( 0.0000,  0.0000,  0.0000)
  33 Fe     7.083750    8.846796    1.774509    ( 0.0000,  0.0000,  1.5000)
  34 Cr     8.841404    7.058180    1.777173    ( 0.0000,  0.0000,  1.5000)
  35 Ni     8.835524    8.853600   10.611753    ( 0.0000,  0.0000,  0.0000)
  36 Ni    -0.009351   10.618864    3.531070    ( 0.0000,  0.0000,  2.0000)
  37 Fe    10.602508    1.764818    5.300452    ( 0.0000,  0.0000,  1.5000)
  38 Ni     1.756720    0.001379    5.295867    ( 0.0000,  0.0000,  0.0000)
  39 Co     1.766506    1.767154    3.539222    ( 0.0000,  0.0000,  2.0000)
  40 Co     3.539742    0.013881    3.542873    ( 0.0000,  0.0000,  2.0000)
  41 Fe     3.548944    1.788658    5.306237    ( 0.0000,  0.0000,  2.1000)
  42 Fe     5.320174   -0.004685    5.301386    ( 0.0000,  0.0000,  0.0000)
  43 Co     5.316862    1.765551    3.538935    ( 0.0000,  0.0000,  2.0000)
  44 Cr     7.081086   -0.000289    3.531325    ( 0.0000,  0.0000,  2.0000)
  45 Ni     7.072902    1.777407    5.300537    ( 0.0000,  0.0000,  2.0000)
  46 Fe     8.840544    0.012372    5.307851    ( 0.0000,  0.0000,  1.5000)
  47 Ni     8.833592    1.767928    3.534318    ( 0.0000,  0.0000,  2.1000)
  48 Ni    -0.004066    3.525285    3.545951    ( 0.0000,  0.0000,  0.0000)
  49 Co    -0.001689    5.317934    5.307787    ( 0.0000,  0.0000,  1.5000)
  50 Cr     1.769043    3.555101    5.297279    ( 0.0000,  0.0000,  2.0000)
  51 Fe     1.773692    5.305929    3.538266    ( 0.0000,  0.0000,  2.1000)
  52 Co     3.542746    3.537364    3.547575    ( 0.0000,  0.0000,  2.1000)
  53 Fe     3.548477    5.306927    5.301153    ( 0.0000,  0.0000,  2.0000)
  54 Ni     5.316246    3.553031    5.303637    ( 0.0000,  0.0000,  2.0000)
  55 Fe     5.303286    5.303531    3.542385    ( 0.0000,  0.0000,  1.5000)
  56 Cr     7.074962    3.533023    3.537215    ( 0.0000,  0.0000,  1.5000)
  57 Cr     7.066046    5.306046    5.300081    ( 0.0000,  0.0000,  2.0000)
  58 Ni     8.834526    3.538160    5.294530    ( 0.0000,  0.0000,  2.1000)
  59 Cr     8.846255    5.300452    3.537672    ( 0.0000,  0.0000,  1.5000)
[...]
  93 Cr     7.071130    5.304220    8.839313    ( 0.0000,  0.0000,  1.5000)
  94 Co     8.837997    3.524669    8.843389    ( 0.0000,  0.0000,  1.5000)
  95 Ni     8.833772    5.299051    7.076862    ( 0.0000,  0.0000,  0.0000)
  96 Cr     0.012168    7.080333    7.083835    ( 0.0000,  0.0000,  1.5000)
  97 Fe    -0.017034    8.848707    8.843941    ( 0.0000,  0.0000,  2.1000)
  98 Co     1.777938    7.075503    8.840194    ( 0.0000,  0.0000,  2.0000)
  99 Fe     1.758800    8.840035    7.069803    ( 0.0000,  0.0000,  0.0000)
 100 Fe     3.549921    7.066194    7.070090    ( 0.0000,  0.0000,  2.1000)
 101 Co     3.553137    8.839111    8.836776    ( 0.0000,  0.0000,  0.0000)
 102 Ni     5.304189    7.079929    8.840215    ( 0.0000,  0.0000,  2.0000)
 103 Co     5.321946    8.832180    7.082997    ( 0.0000,  0.0000,  2.1000)
 104 Ni     7.057077    7.072149    7.064167    ( 0.0000,  0.0000,  1.5000)
 105 Fe     7.082402    8.855500    8.837487    ( 0.0000,  0.0000,  2.1000)
 106 Co     8.846786    7.077881    8.846732    ( 0.0000,  0.0000,  0.0000)
 107 Ni     8.839313    8.848272    7.075153    ( 0.0000,  0.0000,  0.0000)

Unit cell:
           periodic     x           y           z      points  spacing
  1. axis:    yes   10.614300    0.000000    0.000000    48     0.2211
  2. axis:    yes    0.000000   10.614300    0.000000    48     0.2211
  3. axis:    yes    0.000000    0.000000   10.614300    48     0.2211

  Lengths:  10.614300  10.614300  10.614300
  Angles:   90.000000  90.000000  90.000000

Effective grid spacing dv^(1/3) = 0.2211

     iter     time        total  log10-change:  magmom
                         energy  eigst   dens
iter:   1 17:36:29  -924.984566                  +151.0551
iter:   2 17:38:20  -974.211825  -0.55  -1.37    +114.9873
iter:   3 17:40:12  -905.260469  -1.01  -1.28    +88.3324
iter:   4 17:42:04  -891.334306  -1.60  -1.46    +73.9303
iter:   5 17:43:55  -889.098831  -2.14  -1.52    +66.6697
iter:   6 17:45:47  -894.054734  -2.06  -1.55    +61.6600
iter:   7 17:47:39  -894.076761  -1.79  -1.56    +61.1638
iter:   8 17:49:31  -887.762137  -1.74  -1.61    +60.1025
iter:   9 17:51:23  -889.298194  -1.94  -1.82    +60.4630
iter:  10 17:53:14  -887.984614  -2.36  -1.88    +60.5219
iter:  11 17:55:06  -887.680377  -2.74  -1.96    +61.2934
iter:  12 17:56:58  -888.213653  -2.86  -2.00    +62.2928
iter:  13 17:58:50  -889.471889  -2.77  -2.03    +62.8271
iter:  14 18:00:41  -889.599970  -2.71  -2.05    +63.3307
iter:  15 18:02:33  -889.986708  -2.73  -2.13    +64.0253
iter:  16 18:04:25  -889.535353  -2.94  -2.19    +64.2755
iter:  17 18:06:16  -889.530588  -3.20  -2.29    +64.6593
iter:  18 18:08:08  -889.571508c -3.32  -2.34    +65.0751
iter:  19 18:10:00  -889.672795  -3.41  -2.40    +65.6949
iter:  20 18:11:52  -889.859585  -3.21  -2.41    +65.8724
iter:  21 18:13:43  -889.822079  -3.29  -2.43    +66.1246
iter:  22 18:15:35  -890.084346  -3.25  -2.51    +66.5038
iter:  23 18:17:27  -889.914825  -3.44  -2.46    +66.6958
iter:  24 18:19:19  -889.916499  -3.64  -2.57    +66.9777
iter:  25 18:21:10  -890.020537  -3.73  -2.66    +67.1259
iter:  26 18:23:02  -890.024931  -3.97  -2.65    +67.4415
iter:  27 18:24:54  -890.070132c -4.10  -2.70    +67.6565
iter:  28 18:26:46  -890.207503  -3.72  -2.75    +68.0827
iter:  29 18:28:37  -890.243254  -4.17  -2.71    +68.1894
iter:  30 18:30:29  -890.339887  -4.02  -2.72    +68.3128
iter:  31 18:32:21  -890.379875  -4.42  -2.68    +68.3144
iter:  32 18:34:13  -890.422273c -4.29  -2.67    +68.2606
iter:  33 18:36:04  -890.426976c -4.31  -2.66    +68.3262
iter:  34 18:37:56  -890.524002c -3.62  -2.70    +68.2517
iter:  35 18:39:48  -890.534596  -3.57  -2.69    +68.2023
iter:  36 18:41:40  -890.406742  -3.89  -2.68    +68.1124
iter:  37 18:43:31  -890.406949  -4.30  -3.07    +68.1009
iter:  38 18:45:23  -890.406168c -4.62  -3.07    +68.0862
iter:  39 18:47:15  -890.408132c -4.78  -3.12    +68.1378
iter:  40 18:49:06  -890.411983c -5.15  -3.20    +68.0967
iter:  41 18:50:58  -890.422568c -4.90  -3.21    +68.0839
iter:  42 18:52:50  -890.424244c -5.20  -3.21    +68.0377
iter:  43 18:54:42  -890.428790c -4.89  -3.26    +67.9696
iter:  44 18:56:34  -890.436407c -4.78  -3.31    +67.9671
iter:  45 18:58:25  -890.429767c -5.10  -3.20    +67.9775
iter:  46 19:00:17  -890.429313c -5.39  -3.38    +67.9727
iter:  47 19:02:08  -890.431178c -5.62  -3.42    +67.9778
iter:  48 19:04:00  -890.430728c -5.63  -3.42    +67.9804
iter:  49 19:05:52  -890.430858c -5.78  -3.49    +67.9828
iter:  50 19:07:44  -890.433206c -5.58  -3.53    +68.0009
iter:  51 19:09:35  -890.432608c -5.80  -3.52    +68.0023
iter:  52 19:11:27  -890.433091c -5.81  -3.59    +68.0006
iter:  53 19:13:19  -890.434880c -5.76  -3.63    +68.0099
iter:  54 19:15:10  -890.434118c -6.03  -3.61    +68.0116
iter:  55 19:17:02  -890.435532c -6.08  -3.72    +68.0132
iter:  56 19:18:54  -890.435661c -6.13  -3.71    +68.0148
iter:  57 19:20:45  -890.436545c -6.23  -3.76    +68.0187
iter:  58 19:22:37  -890.437076c -6.17  -3.78    +68.0198
iter:  59 19:24:29  -890.437056c -6.28  -3.81    +68.0132
iter:  60 19:26:20  -890.438112c -6.30  -3.85    +68.0190
iter:  61 19:28:12  -890.438067c -6.39  -3.85    +68.0172
iter:  62 19:30:04  -890.438501c -6.42  -3.91    +68.0179
iter:  63 19:31:56  -890.438748c -6.36  -3.94    +68.0185
iter:  64 19:33:47  -890.439084c -6.59  -3.95    +68.0214
iter:  65 19:35:39  -890.439744c -6.41  -4.03c   +68.0239
iter:  66 19:37:30  -890.439480c -6.66  -3.98    +68.0186
iter:  67 19:39:22  -890.439808c -6.76  -4.13c   +68.0202
iter:  68 19:41:14  -890.440104c -6.73  -4.16c   +68.0210
iter:  69 19:43:05  -890.440221c -6.82  -4.13c   +68.0208
iter:  70 19:44:57  -890.440352c -6.81  -4.21c   +68.0212
iter:  71 19:46:49  -890.440932c -6.54  -4.27c   +68.0270
iter:  72 19:48:41  -890.441037c -6.78  -4.28c   +68.0258
iter:  73 19:50:33  -890.441296c -6.56  -4.34c   +68.0262
iter:  74 19:52:24  -890.441779c -6.30  -4.33c   +68.0313
iter:  75 19:54:16  -890.441910c -6.63  -4.32c   +68.0313
iter:  76 19:56:08  -890.442234c -6.28  -4.31c   +68.0322
iter:  77 19:57:59  -890.442062c -7.25  -4.20c   +68.0303
iter:  78 19:59:51  -890.442224c -6.82  -4.20c   +68.0304
iter:  79 20:01:43  -890.442202c -7.38  -4.15c   +68.0288
iter:  80 20:03:34  -890.442147c -7.36  -4.15c   +68.0279
iter:  81 20:05:26  -890.442344c -7.21  -4.22c   +68.0275
iter:  82 20:07:18  -890.442245c -7.77c -4.08c   +68.0271

Converged after 82 iterations.

Dipole moment: (6.444671, -1.962567, 0.758649) |e|*Ang

Total magnetic moment: (0.000000, 0.000000, 68.027127)
Local magnetic moments:
   0 Co ( 0.000000,  0.000000,  1.264139)
   1 Fe ( 0.000000,  0.000000,  2.467643)
   2 Fe ( 0.000000,  0.000000,  2.434416)
   3 Co ( 0.000000,  0.000000,  0.878411)
   4 Co ( 0.000000,  0.000000,  1.221438)
   5 Fe ( 0.000000,  0.000000,  2.433009)
   6 Ni ( 0.000000,  0.000000,  0.490154)
   7 Co ( 0.000000,  0.000000,  0.939654)
   8 Co ( 0.000000,  0.000000,  1.209805)
   9 Fe ( 0.000000,  0.000000,  2.241690)
  10 Ni ( 0.000000,  0.000000,  0.377441)
  11 Ni ( 0.000000,  0.000000,  0.357225)
  12 Fe ( 0.000000,  0.000000, -1.869930)
  13 Ni ( 0.000000,  0.000000,  0.078165)
  14 Co ( 0.000000,  0.000000,  1.262986)
  15 Cr ( 0.000000,  0.000000,  0.027023)
  16 Ni ( 0.000000,  0.000000,  0.181700)
  17 Fe ( 0.000000,  0.000000,  2.081099)
  18 Cr ( 0.000000,  0.000000, -1.507867)
  19 Fe ( 0.000000,  0.000000,  1.910592)
  20 Ni ( 0.000000,  0.000000,  0.243129)
  21 Cr ( 0.000000,  0.000000,  0.439179)
  22 Fe ( 0.000000,  0.000000,  1.934373)
  23 Ni ( 0.000000,  0.000000,  0.135789)
  24 Cr ( 0.000000,  0.000000, -1.121946)
  25 Cr ( 0.000000,  0.000000, -0.195489)
  26 Fe ( 0.000000,  0.000000,  1.786753)
  27 Ni ( 0.000000,  0.000000,  0.299247)
  28 Fe ( 0.000000,  0.000000,  2.181965)
  29 Co ( 0.000000,  0.000000,  1.496058)
  30 Ni ( 0.000000,  0.000000,  0.275102)
  31 Ni ( 0.000000,  0.000000,  0.452521)
  32 Co ( 0.000000,  0.000000,  1.191337)
  33 Fe ( 0.000000,  0.000000,  2.150931)
  34 Cr ( 0.000000,  0.000000, -0.199200)
  35 Ni ( 0.000000,  0.000000,  0.273889)
  36 Ni ( 0.000000,  0.000000,  0.470958)
  37 Fe ( 0.000000,  0.000000,  2.350513)
  38 Ni ( 0.000000,  0.000000,  0.566888)
  39 Co ( 0.000000,  0.000000,  1.436037)
  40 Co ( 0.000000,  0.000000,  1.570260)
  41 Fe ( 0.000000,  0.000000,  2.297525)
  42 Fe ( 0.000000,  0.000000,  2.119185)
  43 Co ( 0.000000,  0.000000,  1.086263)
  44 Cr ( 0.000000,  0.000000, -1.850395)
  45 Ni ( 0.000000,  0.000000,  0.233182)
  46 Fe ( 0.000000,  0.000000,  2.088657)
  47 Ni ( 0.000000,  0.000000,  0.322951)
  48 Ni ( 0.000000,  0.000000,  0.391609)
  49 Co ( 0.000000,  0.000000,  0.590708)
  50 Cr ( 0.000000,  0.000000, -1.541470)
  51 Fe ( 0.000000,  0.000000,  1.838067)
  52 Co ( 0.000000,  0.000000,  1.099579)
  53 Fe ( 0.000000,  0.000000,  1.946399)
  54 Ni ( 0.000000,  0.000000,  0.282190)
  55 Fe ( 0.000000,  0.000000,  1.590135)
  56 Cr ( 0.000000,  0.000000, -0.920547)
  57 Cr ( 0.000000,  0.000000,  0.463758)
  58 Ni ( 0.000000,  0.000000,  0.204472)
  59 Cr ( 0.000000,  0.000000,  0.210149)
[...]
  93 Cr ( 0.000000,  0.000000, -1.740345)
  94 Co ( 0.000000,  0.000000,  0.902374)
  95 Ni ( 0.000000,  0.000000,  0.165100)
  96 Cr ( 0.000000,  0.000000, -1.367254)
  97 Fe ( 0.000000,  0.000000,  2.254315)
  98 Co ( 0.000000,  0.000000,  0.986366)
  99 Fe ( 0.000000,  0.000000,  2.089485)
 100 Fe ( 0.000000,  0.000000,  2.057865)
 101 Co ( 0.000000,  0.000000,  1.317186)
 102 Ni ( 0.000000,  0.000000,  0.364147)
 103 Co ( 0.000000,  0.000000,  1.145966)
 104 Ni ( 0.000000,  0.000000,  0.391432)
 105 Fe ( 0.000000,  0.000000,  2.376234)
 106 Co ( 0.000000,  0.000000,  1.218062)
 107 Ni ( 0.000000,  0.000000,  0.315118)

Energy contributions relative to reference atoms: (reference = -3846758.590871)

Kinetic:       +131.107329
Potential:     -196.522973
External:        +0.000000
XC:            -862.794584
Entropy (-ST):   -4.547039
Local:          +40.041503
Free energy:   -892.715764
Extrapolated:  -890.442245

Spin contamination: 27.833242 electrons
Showing only first 2 kpts
                      Up                     Down
 Kpt  Band  Eigenvalues  Occupancy  Eigenvalues  Occupancy
  0   524      9.82040    0.99497     10.74951    0.01792
  0   525      9.83088    0.99442     10.76225    0.01581
  0   526      9.84024    0.99387     10.77039    0.01459
  0   527      9.84815    0.99337     10.78615    0.01249

  1   524      9.81909    0.99503     10.75869    0.01637
  1   525      9.83400    0.99424     10.76660    0.01514
  1   526      9.84265    0.99372     10.77503    0.01394
  1   527      9.84922    0.99330     10.78991    0.01203

Fermi level: 10.34911

No gap

Forces in eV/Ang:
  0 Co    0.04850   -0.07188    0.09757
  1 Fe    0.25607    0.19298    0.11314
  2 Fe    0.23374   -0.39474   -0.15379
  3 Co    0.01585    0.22300   -0.06400
  4 Co    0.00579   -0.11763   -0.13060
  5 Fe    0.10733    0.11941   -0.04534
  6 Ni   -0.09025    0.14280   -0.06435
  7 Co    0.02047   -0.02560   -0.04568
  8 Co   -0.03949    0.05896   -0.21868
  9 Fe   -0.31662    0.05524   -0.09301
 10 Ni    0.05628   -0.11560   -0.19286
 11 Ni   -0.02741    0.03589   -0.08475
 12 Fe    0.48403    0.14132   -0.27146
 13 Ni   -0.00048   -0.11950   -0.00250
 14 Co    0.11273   -0.04124   -0.13889
 15 Cr   -0.16776   -0.43198    0.00095
 16 Ni   -0.09089   -0.20184   -0.08674
 17 Fe    0.02512   -0.37687    0.15544
 18 Cr   -0.25217    0.05879   -0.26508
 19 Fe    0.15932   -0.00199   -0.04285
 20 Ni   -0.16792    0.11515   -0.08047
 21 Cr   -0.00601    0.15742   -0.39220
 22 Fe   -0.10050    0.20240   -0.23335
 23 Ni    0.00634    0.15551   -0.11542
 24 Cr   -0.28507   -0.17778   -0.30508
 25 Cr    0.00870   -0.02940   -0.12465
 26 Fe   -0.26161    0.36842   -0.02250
 27 Ni    0.20899   -0.00951    0.02294
 28 Fe    0.05964    0.44180   -0.14594
 29 Co   -0.13804    0.30134    0.10095
 30 Ni    0.03683    0.03190   -0.06424
 31 Ni   -0.14286    0.03894    0.18961
 32 Co    0.23509   -0.21620    0.01385
 33 Fe   -0.25209   -0.03026   -0.12760
 34 Cr   -0.04241    0.06189   -0.53518
 35 Ni    0.01747   -0.04435    0.11661
 36 Ni    0.17921   -0.11387    0.10948
 37 Fe    0.42553    0.14187    0.09153
 38 Ni    0.12481   -0.00360    0.00358
 39 Co    0.05104    0.14101    0.04191
 40 Co   -0.02907   -0.28340   -0.03143
 41 Fe   -0.35430   -0.30539    0.02292
 42 Fe    0.28238   -0.22042    0.08959
 43 Co   -0.17461    0.20301   -0.01357
 44 Cr   -0.08664   -0.06221    0.20057
 45 Ni    0.03817   -0.05080    0.15145
 46 Fe   -0.33722   -0.18680    0.13772
 47 Ni    0.14058    0.02873    0.02562
 48 Ni    0.03238    0.12283   -0.03935
 49 Co    0.08239   -0.13482   -0.07603
 50 Cr    0.26381    0.26712    0.05735
 51 Fe   -0.38802   -0.13940    0.09898
 52 Co    0.06054   -0.01334   -0.04273
 53 Fe   -0.07607   -0.24160   -0.01088
 54 Ni    0.01650   -0.14686   -0.01035
 55 Fe    0.06568    0.11325    0.08045
 56 Cr    0.29565   -0.19170    0.27285
 57 Cr    0.10568    0.26024   -0.34019
 58 Ni    0.06587   -0.04217    0.15181
 59 Cr    0.25063   -0.19612    0.51100
[...]
 93 Cr    0.10350    0.11371    0.18312
 94 Co    0.11020    0.07323   -0.20057
 95 Ni    0.20450    0.10798    0.03173
 96 Cr    0.08548   -0.43655    0.06730
 97 Fe    0.09426   -0.05103    0.22174
 98 Co   -0.21653   -0.21152   -0.03347
 99 Fe    0.25763    0.06175    0.02860
100 Fe   -0.12131    0.10853    0.27569
101 Co   -0.15222    0.21486   -0.11704
102 Ni    0.09211    0.05318    0.06004
103 Co   -0.16607    0.21512   -0.18711
104 Ni    0.15025    0.06180    0.11400
105 Fe   -0.01120    0.02964    0.05875
106 Co   -0.03416   -0.13017    0.07640
107 Ni    0.04298   -0.09946    0.04274

Date: Fri Apr 14 20:07:39 2023