User:   c.zeng@d0059
Date:   Sat Apr 15 11:20:04 2023
Arch:   x86_64
Pid:    266515
CWD:    /home/c.zeng/projects/hea-corrosion/hea-mlp/data-curation/bulk-mcmc/dft-jobs/28
Python: 3.8.1
gpaw:   /home/c.zeng/usr/installs/gpaw/source/gpaw-22.8.0/gpaw
_gpaw:  /home/c.zeng/usr/installs/gpaw/source/gpaw-22.8.0/
        _gpaw.cpython-38-x86_64-linux-gnu.so
ase:    /home/c.zeng/.local/lib/python3.8/site-packages/ase-3.22.1-py3.8.egg/ase (version 3.22.1)
numpy:  /shared/centos7/python/3.8.1/lib/python3.8/site-packages/numpy (version 1.17.4)
scipy:  /shared/centos7/python/3.8.1/lib/python3.8/site-packages/scipy (version 1.4.1)
units:  Angstrom and eV
cores: 30
OpenMP: False
OMP_NUM_THREADS: 1

Input parameters:
  convergence: {energy: 0.0001}
  kpts: [2 2 2]
  maxiter: 666
  mode: {ecut: 350.0,
         name: pw}
  occupations: {fixmagmom: False,
                name: fermi-dirac,
                width: 0.1}
  spinpol: True
  xc: PBE

System changes: positions, numbers, cell, pbc, initial_charges, initial_magmoms

Initialize ...

species:
  Co:
    name: Cobalt
    id: 339d20d5b0b93d2de9531a1bee871d91
    Z: 27.0
    valence: 9
    core: 18
    charge: 0.0
    file: /home/c.zeng/usr/data/gpaw-setups-0.9.20000/Co.PBE.gz
    compensation charges: {type: gauss,
                           rc: 0.32,
                           lmax: 2}
    cutoffs: {filter: 1.87,
              core: 2.55}
    valence states:
      #              energy  rcut
      - 4s(2.00)    -5.469   1.005
      - 4p(0.00)    -1.277   1.058
      - 3d(7.00)    -8.205   1.005
      -  s          21.742   1.005
      -  p          25.934   1.058
      -  d          19.007   1.005

    # Using partial waves for Co as LCAO basis

  Fe:
    name: Iron
    id: 37abbd8d6c3c35915a9b583b742da910
    Z: 26.0
    valence: 8
    core: 18
    charge: 0.0
    file: /home/c.zeng/usr/data/gpaw-setups-0.9.20000/Fe.PBE.gz
    compensation charges: {type: gauss,
                           rc: 0.33,
                           lmax: 2}
    cutoffs: {filter: 2.06,
              core: 2.67}
    valence states:
      #              energy  rcut
      - 4s(2.00)    -5.291   1.164
      - 4p(0.00)    -1.326   1.058
      - 3d(6.00)    -7.505   1.058
      -  s          21.920   1.164
      -  p          25.885   1.058
      -  d          19.706   1.058

[...]

  Cr:
    name: Chromium
    id: 33f258bda2ca9f93018e70263a35547b
    Z: 24.0
    valence: 6
    core: 18
    charge: 0.0
    file: /home/c.zeng/usr/data/gpaw-setups-0.9.20000/Cr.PBE.gz
    compensation charges: {type: gauss,
                           rc: 0.35,
                           lmax: 2}
    cutoffs: {filter: 2.14,
              core: 3.04}
    valence states:
      #              energy  rcut
      - 4s(1.00)    -4.007   1.164
      - 4p(0.00)    -0.989   1.217
      - 3d(5.00)    -2.913   1.111
      -  s          23.205   1.164
      -  p          26.223   1.217
      -  d          24.299   1.111

[...]

  Ni:
    name: Nickel
    id: 0d9f38a9d6e76a2886f07bb4381f212b
    Z: 28.0
    valence: 16
    core: 12
    charge: 0.0
    file: /home/c.zeng/usr/data/gpaw-setups-0.9.20000/Ni.PBE.gz
    compensation charges: {type: gauss,
                           rc: 0.36,
                           lmax: 2}
    cutoffs: {filter: 2.14,
              core: 1.98}
    valence states:
      #              energy  rcut
      - 4s(2.00)    -5.642   1.164
      - 3p(6.00)   -71.394   1.207
      - 4p(0.00)    -1.226   1.207
      - 3d(8.00)    -8.875   1.138
      -  s          21.570   1.164
      -  d          18.337   1.138

    # Using partial waves for Ni as LCAO basis

Reference energy: -3846758.590871  # eV

Spin-polarized calculation.
Magnetic moment: 151.200000

Convergence criteria:
 Maximum [total energy] change in last 3 cyles: 0.0001 eV / electron
 Maximum integral of absolute [dens]ity change: 0.0001 electrons / valence electron
 Maximum integral of absolute [eigenst]ate change: 4e-08 eV^2 / valence electron
 Maximum number of scf [iter]ations: 666
 (Square brackets indicate name in SCF output, whereas a 'c' in
 the SCF output indicates the quantity has converged.)

Symmetries present (total): 1

  ( 1  0  0)
  ( 0  1  0)
  ( 0  0  1)

8 k-points: 2 x 2 x 2 Monkhorst-Pack grid
4 k-points in the irreducible part of the Brillouin zone
       k-points in crystal coordinates                weights
   0:     0.25000000   -0.25000000   -0.25000000          2/8
   1:     0.25000000   -0.25000000    0.25000000          2/8
   2:     0.25000000    0.25000000   -0.25000000          2/8
   3:     0.25000000    0.25000000    0.25000000          2/8

Wave functions: Plane wave expansion
  Cutoff energy: 350.000 eV
  Number of coefficients (min, max): 17755, 17755
  Pulay-stress correction: 0.000000 eV/Ang^3 (de/decut=0.000000)
  Using FFTW library
  ScaLapack parameters: grid=1x1, blocksize=None
  Wavefunction extrapolation:
    Improved wavefunction reuse through dual PAW basis

Occupation numbers: Fermi-Dirac:
  width: 0.1000  # eV

Eigensolver
   Davidson(niter=2)

Densities:
  Coarse grid: 48*48*48 grid
  Fine grid: 96*96*96 grid
  Total Charge: 0.000000

Density mixing:
  Method: difference
  Backend: pulay
  Linear mixing parameter: 0.05
  old densities: 5
  Damping of long wavelength oscillations: 50

Hamiltonian:
  XC and Coulomb potentials evaluated on a 96*96*96 grid
  Using the PBE Exchange-Correlation functional
  External potential:
    NoExternalPotential

XC parameters: PBE with 2 nearest neighbor stencil

Total number of cores used: 30
Parallelization over k-points: 2
Domain decomposition: 5 x 3 x 1

Number of atoms: 108
Number of atomic orbitals: 1053
Number of bands in calculation: 727
Number of valence electrons: 1053
Bands to converge: occupied

... initialized

Initializing position-dependent things.

Density initialized from atomic densities
Creating initial wave functions:
  727 bands from LCAO basis set

       /|  Ni       Ni      Cr    |
      / |   CrFe     Ni           |
     /  |       Co      Fe       Fe
    /   |Ni      CFe       Co     Ni
   /    | Co       Cr       NFe   |
  /  CCo|  FeCr     CoNi          |
 *    NiCr    FeCr   FeCrCo       |
 |      |CoNi   FeFeNi  CoNiFe   Ni
 |      | NiCo     CoCrFeNiNiNi   |
 |    Co|  CoFeNi   CoCrFe   NiCo |
 |      Cr    CrNiCr CrCrCr     Cr|
 |      |FeFe  CoFeCr   FeNiFe   Cr
 |      .-FeCo-----NiCrFe--NiNi---Co
 |   Cro     Fe       Cr         /
 |    CrCo     Coi     CNie     /
 |   /    Co               Ni  /
 |  /      Fe       Fe    CrFe/
 | / Fe     Cr       NiCr    /
 |/            Co       Cr  /
 *--------Co------Co-------*

Positions:
   0 Co    -0.012479   -0.003723   10.616104    ( 0.0000,  0.0000,  2.1000)
   1 Fe    -0.011321    1.761305    1.763386    ( 0.0000,  0.0000,  2.1000)
   2 Fe     1.758365    0.001326    1.769011    ( 0.0000,  0.0000,  2.0000)
   3 Co     1.752686    1.779222   10.610436    ( 0.0000,  0.0000,  2.0000)
   4 Co     3.541196    0.004726   10.616104    ( 0.0000,  0.0000,  0.0000)
   5 Fe     3.534711    1.782438    1.778999    ( 0.0000,  0.0000,  0.0000)
   6 Cr     5.305717   10.600629    1.767950    ( 0.0000,  0.0000,  2.1000)
   7 Co     5.324780    1.765604   10.614618    ( 0.0000,  0.0000,  0.0000)
   8 Co     7.089121    0.014598   10.619926    ( 0.0000,  0.0000,  2.0000)
   9 Fe     7.085279    1.771219    1.773543    ( 0.0000,  0.0000,  1.5000)
  10 Cr     8.850554    0.011470    1.768756    ( 0.0000,  0.0000,  1.5000)
  11 Cr     8.842381    1.777333   10.615680    ( 0.0000,  0.0000,  2.1000)
  12 Fe    10.590535    3.538203   -0.001956    ( 0.0000,  0.0000,  0.0000)
  13 Cr    10.624277    5.310674    1.769786    ( 0.0000,  0.0000,  2.0000)
  14 Co     1.761379    3.535623    1.784572    ( 0.0000,  0.0000,  0.0000)
  15 Ni     1.770200    5.301408   10.611753    ( 0.0000,  0.0000,  2.0000)
  16 Cr     3.556003    3.551407   10.618333    ( 0.0000,  0.0000,  1.5000)
  17 Fe     3.539370    5.311290    1.775199    ( 0.0000,  0.0000,  2.1000)
  18 Ni     5.320142    3.545059    1.779678    ( 0.0000,  0.0000,  1.5000)
  19 Fe     5.306980    5.314654   10.602720    ( 0.0000,  0.0000,  0.0000)
  20 Ni     7.081585    3.529127   10.614725    ( 0.0000,  0.0000,  2.1000)
  21 Cr     7.069241    5.303361    1.781271    ( 0.0000,  0.0000,  1.5000)
  22 Fe     8.841447    3.542671    1.781600    ( 0.0000,  0.0000,  2.1000)
  23 Cr     8.850893    5.290379    0.000220    ( 0.0000,  0.0000,  0.0000)
  24 Cr     0.005868    7.083411   10.614937    ( 0.0000,  0.0000,  2.0000)
  25 Cr    10.601043    8.849694    1.772960    ( 0.0000,  0.0000,  2.1000)
  26 Fe     1.773713    7.072329    1.777184    ( 0.0000,  0.0000,  0.0000)
  27 Ni     1.755520    8.842943   10.608324    ( 0.0000,  0.0000,  0.0000)
  28 Fe     3.544009    7.063116   10.610489    ( 0.0000,  0.0000,  2.0000)
  29 Co     3.542225    8.826820    1.785580    ( 0.0000,  0.0000,  0.0000)
  30 Ni     5.309835    7.081776    1.776600    ( 0.0000,  0.0000,  2.1000)
  31 Ni     5.331945    8.840321   10.604673    ( 0.0000,  0.0000,  2.1000)
  32 Co     7.068434    7.069028   10.623110    ( 0.0000,  0.0000,  0.0000)
  33 Fe     7.083750    8.846796    1.774509    ( 0.0000,  0.0000,  1.5000)
  34 Ni     8.841404    7.058180    1.777173    ( 0.0000,  0.0000,  1.5000)
  35 Cr     8.835524    8.853600   10.611753    ( 0.0000,  0.0000,  0.0000)
  36 Ni    -0.009351   10.618864    3.531070    ( 0.0000,  0.0000,  2.0000)
  37 Fe    10.602508    1.764818    5.300452    ( 0.0000,  0.0000,  1.5000)
  38 Cr     1.756720    0.001379    5.295867    ( 0.0000,  0.0000,  0.0000)
  39 Co     1.766506    1.767154    3.539222    ( 0.0000,  0.0000,  2.0000)
  40 Co     3.539742    0.013881    3.542873    ( 0.0000,  0.0000,  2.0000)
  41 Fe     3.548944    1.788658    5.306237    ( 0.0000,  0.0000,  2.1000)
  42 Fe     5.320174   -0.004685    5.301386    ( 0.0000,  0.0000,  0.0000)
  43 Co     5.316862    1.765551    3.538935    ( 0.0000,  0.0000,  2.0000)
  44 Ni     7.081086   -0.000289    3.531325    ( 0.0000,  0.0000,  2.0000)
  45 Cr     7.072902    1.777407    5.300537    ( 0.0000,  0.0000,  2.0000)
  46 Fe     8.840544    0.012372    5.307851    ( 0.0000,  0.0000,  1.5000)
  47 Ni     8.833592    1.767928    3.534318    ( 0.0000,  0.0000,  2.1000)
  48 Ni    -0.004066    3.525285    3.545951    ( 0.0000,  0.0000,  0.0000)
  49 Co    -0.001689    5.317934    5.307787    ( 0.0000,  0.0000,  1.5000)
  50 Cr     1.769043    3.555101    5.297279    ( 0.0000,  0.0000,  2.0000)
  51 Fe     1.773692    5.305929    3.538266    ( 0.0000,  0.0000,  2.1000)
  52 Co     3.542746    3.537364    3.547575    ( 0.0000,  0.0000,  2.1000)
  53 Fe     3.548477    5.306927    5.301153    ( 0.0000,  0.0000,  2.0000)
  54 Ni     5.316246    3.553031    5.303637    ( 0.0000,  0.0000,  2.0000)
  55 Fe     5.303286    5.303531    3.542385    ( 0.0000,  0.0000,  1.5000)
  56 Cr     7.074962    3.533023    3.537215    ( 0.0000,  0.0000,  1.5000)
  57 Cr     7.066046    5.306046    5.300081    ( 0.0000,  0.0000,  2.0000)
  58 Cr     8.834526    3.538160    5.294530    ( 0.0000,  0.0000,  2.1000)
  59 Ni     8.846255    5.300452    3.537672    ( 0.0000,  0.0000,  1.5000)
[...]
  93 Ni     7.071130    5.304220    8.839313    ( 0.0000,  0.0000,  1.5000)
  94 Co     8.837997    3.524669    8.843389    ( 0.0000,  0.0000,  1.5000)
  95 Ni     8.833772    5.299051    7.076862    ( 0.0000,  0.0000,  0.0000)
  96 Ni     0.012168    7.080333    7.083835    ( 0.0000,  0.0000,  1.5000)
  97 Fe    -0.017034    8.848707    8.843941    ( 0.0000,  0.0000,  2.1000)
  98 Co     1.777938    7.075503    8.840194    ( 0.0000,  0.0000,  2.0000)
  99 Fe     1.758800    8.840035    7.069803    ( 0.0000,  0.0000,  0.0000)
 100 Fe     3.549921    7.066194    7.070090    ( 0.0000,  0.0000,  2.1000)
 101 Co     3.553137    8.839111    8.836776    ( 0.0000,  0.0000,  0.0000)
 102 Cr     5.304189    7.079929    8.840215    ( 0.0000,  0.0000,  2.0000)
 103 Co     5.321946    8.832180    7.082997    ( 0.0000,  0.0000,  2.1000)
 104 Cr     7.057077    7.072149    7.064167    ( 0.0000,  0.0000,  1.5000)
 105 Fe     7.082402    8.855500    8.837487    ( 0.0000,  0.0000,  2.1000)
 106 Co     8.846786    7.077881    8.846732    ( 0.0000,  0.0000,  0.0000)
 107 Ni     8.839313    8.848272    7.075153    ( 0.0000,  0.0000,  0.0000)

Unit cell:
           periodic     x           y           z      points  spacing
  1. axis:    yes   10.614300    0.000000    0.000000    48     0.2211
  2. axis:    yes    0.000000   10.614300    0.000000    48     0.2211
  3. axis:    yes    0.000000    0.000000   10.614300    48     0.2211

  Lengths:  10.614300  10.614300  10.614300
  Angles:   90.000000  90.000000  90.000000

Effective grid spacing dv^(1/3) = 0.2211

     iter     time        total  log10-change:  magmom
                         energy  eigst   dens
iter:   1 11:26:33  -931.883827                  +151.0811
iter:   2 11:29:32  -964.137391  -0.56  -1.38    +115.4980
iter:   3 11:32:31  -908.379827  -1.01  -1.31    +88.1801
iter:   4 11:35:31  -892.492661  -1.58  -1.44    +71.9773
iter:   5 11:38:30  -891.476627  -1.97  -1.51    +64.4790
iter:   6 11:41:29  -894.748563  -2.02  -1.54    +59.7107
iter:   7 11:44:28  -891.008874  -1.92  -1.54    +58.4104
iter:   8 11:47:28  -888.685469  -1.83  -1.62    +56.8928
iter:   9 11:50:28  -893.762195  -1.79  -1.76    +56.2920
iter:  10 11:53:28  -887.990394  -2.19  -1.77    +55.6824
iter:  11 11:56:27  -889.764769  -2.44  -1.94    +55.7324
iter:  12 11:59:27  -888.153852  -2.69  -1.90    +56.3005
iter:  13 12:02:26  -889.178410  -2.73  -1.99    +56.8868
iter:  14 12:05:26  -888.954246  -2.79  -1.98    +57.4663
iter:  15 12:08:25  -891.318878  -2.58  -2.04    +57.8382
iter:  16 12:11:25  -890.575117  -2.45  -1.98    +57.8613
iter:  17 12:14:23  -892.283591  -2.52  -2.01    +58.4731
iter:  18 12:17:22  -890.528341  -2.51  -2.00    +58.7573
iter:  19 12:20:21  -890.485353  -2.77  -2.09    +58.9195
iter:  20 12:23:20  -889.474080  -3.09  -2.12    +59.0826
iter:  21 12:26:19  -889.791989  -3.42  -2.24    +59.8736
iter:  22 12:29:13  -889.949021  -3.26  -2.25    +60.5599
iter:  23 12:32:12  -890.216736  -3.39  -2.26    +60.9098
iter:  24 12:35:12  -890.981698  -2.90  -2.28    +61.4188
iter:  25 12:38:11  -891.262196  -2.90  -2.23    +61.6021
iter:  26 12:41:11  -890.867755  -2.91  -2.24    +62.3760
iter:  27 12:44:10  -891.059338  -3.08  -2.37    +62.3852
iter:  28 12:47:09  -890.834843  -3.15  -2.33    +62.6823
iter:  29 12:50:08  -890.725278  -3.56  -2.40    +63.2690
iter:  30 12:53:07  -890.725632  -3.92  -2.49    +63.6628
iter:  31 12:56:05  -890.788915c -4.06  -2.53    +64.0228
iter:  32 12:59:04  -890.859442  -4.12  -2.55    +64.4378
iter:  33 13:02:03  -891.081442  -3.52  -2.56    +64.9694
iter:  34 13:05:01  -891.100440  -3.53  -2.55    +65.0247
iter:  35 13:07:57  -891.080374c -3.83  -2.68    +65.0546
iter:  36 13:10:56  -891.095145c -3.82  -2.75    +64.8527
iter:  37 13:13:55  -891.074798c -4.00  -2.79    +64.8680
iter:  38 13:16:55  -891.045327c -4.34  -2.93    +64.7706
iter:  39 13:19:54  -891.051604c -4.80  -3.14    +64.8235
iter:  40 13:22:54  -891.053992c -4.94  -3.18    +64.7732
iter:  41 13:25:53  -891.063050c -4.99  -3.30    +64.8056
iter:  42 13:28:52  -891.066580c -5.04  -3.30    +64.7539
iter:  43 13:31:51  -891.071085c -5.10  -3.35    +64.7307
iter:  44 13:34:50  -891.069131c -5.20  -3.37    +64.7232
iter:  45 13:37:50  -891.073148c -5.44  -3.49    +64.7327
iter:  46 13:40:49  -891.075254c -5.51  -3.46    +64.6936
iter:  47 13:43:48  -891.077243c -5.63  -3.51    +64.6821
iter:  48 13:46:47  -891.081649c -5.47  -3.53    +64.6719
iter:  49 13:49:45  -891.084512c -5.54  -3.53    +64.6154
iter:  50 13:52:43  -891.087693c -5.44  -3.55    +64.5643
iter:  51 13:55:42  -891.091775c -5.31  -3.54    +64.5083
iter:  52 13:58:41  -891.098088c -5.01  -3.51    +64.4470
iter:  53 14:01:39  -891.098075c -5.83  -3.43    +64.4629
iter:  54 14:04:38  -891.098427c -5.92  -3.43    +64.4623
iter:  55 14:07:36  -891.099043c -6.24  -3.43    +64.4541
iter:  56 14:10:33  -891.101911c -5.51  -3.43    +64.4300
iter:  57 14:13:27  -891.100138c -5.43  -3.38    +64.4369
iter:  58 14:16:25  -891.101493c -5.73  -3.41    +64.3972
iter:  59 14:19:24  -891.101441c -5.83  -3.44    +64.3767
iter:  60 14:22:23  -891.102669c -5.26  -3.45    +64.3747
iter:  61 14:25:22  -891.100731c -5.61  -3.41    +64.3342
iter:  62 14:28:21  -891.102586c -5.52  -3.49    +64.2930
iter:  63 14:31:19  -891.101365c -5.78  -3.47    +64.2699
iter:  64 14:34:18  -891.103209c -5.36  -3.58    +64.2235
iter:  65 14:37:17  -891.101188c -5.64  -3.49    +64.2175
iter:  66 14:40:11  -891.102296c -5.51  -3.74    +64.1714
iter:  67 14:43:10  -891.101242c -5.90  -3.60    +64.1764
iter:  68 14:46:09  -891.101185c -6.05  -3.82    +64.1456
iter:  69 14:49:07  -891.101043c -6.18  -3.82    +64.1341
iter:  70 14:52:06  -891.101329c -6.58  -3.87    +64.1168
iter:  71 14:55:04  -891.101514c -6.35  -3.94    +64.0910
iter:  72 14:58:03  -891.101704c -6.52  -3.93    +64.1027
iter:  73 15:00:58  -891.101693c -6.22  -3.96    +64.0643
iter:  74 15:03:53  -891.102191c -6.39  -3.94    +64.0624
iter:  75 15:06:52  -891.102678c -6.05  -4.00c   +64.0492
iter:  76 15:09:51  -891.102251c -6.25  -3.90    +64.0336
iter:  77 15:12:50  -891.102779c -6.41  -4.05c   +64.0192
iter:  78 15:15:49  -891.103088c -6.66  -4.11c   +63.9977
iter:  79 15:18:47  -891.103573c -6.67  -4.19c   +63.9826
iter:  80 15:21:43  -891.103344c -7.26  -4.16c   +63.9920
iter:  81 15:24:39  -891.103521c -6.67  -4.29c   +64.0055
iter:  82 15:27:38  -891.103837c -6.51  -4.20c   +63.9561
iter:  83 15:30:37  -891.104439c -6.43  -4.28c   +63.9270
iter:  84 15:33:36  -891.104688c -6.90  -4.37c   +63.9173
iter:  85 15:36:34  -891.104807c -6.80  -4.31c   +63.9107
iter:  86 15:39:33  -891.105091c -6.81  -4.24c   +63.8879
iter:  87 15:42:31  -891.106365c -5.96  -4.30c   +63.8247
iter:  88 15:45:30  -891.104791c -5.95  -4.18c   +63.9090
iter:  89 15:48:27  -891.101007c -4.86  -4.26c   +64.1723
iter:  90 15:51:22  -891.099903c -5.15  -4.18c   +64.3027
iter:  91 15:54:21  -891.099772c -6.31  -4.05c   +64.2810
iter:  92 15:57:20  -891.099786c -6.70  -4.09c   +64.2495
iter:  93 16:00:19  -891.100191c -6.27  -4.13c   +64.2005
iter:  94 16:03:18  -891.100150c -6.21  -4.00    +64.2337
iter:  95 16:06:16  -891.100847c -5.63  -3.88    +64.1810
iter:  96 16:09:15  -891.100158c -6.03  -3.83    +64.1989
iter:  97 16:12:08  -891.099976c -6.06  -3.88    +64.1869
iter:  98 16:15:07  -891.100606c -6.08  -3.96    +64.1734
iter:  99 16:18:06  -891.100029c -6.44  -3.98    +64.1479
iter: 100 16:21:04  -891.100284c -6.62  -4.27c   +64.1353
iter: 101 16:24:03  -891.100370c -7.18  -4.41c   +64.1325
iter: 102 16:27:02  -891.100601c -6.76  -4.55c   +64.1042
iter: 103 16:30:00  -891.100422c -6.90  -4.41c   +64.1321
iter: 104 16:32:59  -891.100406c -7.20  -4.43c   +64.1403
iter: 105 16:35:57  -891.100813c -6.85  -4.48c   +64.1128
iter: 106 16:38:52  -891.100510c -7.04  -4.42c   +64.1453
iter: 107 16:41:49  -891.100569c -7.33  -4.53c   +64.1556
iter: 108 16:44:49  -891.100676c -6.19  -4.44c   +64.0857
iter: 109 16:47:48  -891.100824c -6.23  -4.28c   +64.1265
iter: 110 16:50:47  -891.101171c -6.79  -4.55c   +64.0901
iter: 111 16:53:46  -891.101258c -7.17  -4.72c   +64.0861
iter: 112 16:56:44  -891.101308c -7.29  -4.69c   +64.0669
iter: 113 16:59:43  -891.101748c -6.51  -4.86c   +64.0158
iter: 114 17:02:42  -891.100019c -5.36  -4.66c   +64.2308
iter: 115 17:05:38  -891.099525c -5.92  -4.24c   +64.2779
iter: 116 17:08:34  -891.099269c -6.41  -4.10c   +64.2773
iter: 117 17:11:34  -891.098903c -5.98  -4.04c   +64.2510
iter: 118 17:14:33  -891.098723c -5.81  -3.95    +64.2026
iter: 119 17:17:32  -891.098977c -6.61  -3.87    +64.1869
iter: 120 17:20:31  -891.099482c -6.05  -3.86    +64.1861
iter: 121 17:23:29  -891.099177c -6.21  -3.68    +64.1658
iter: 122 17:26:26  -891.099716c -6.29  -3.92    +64.1345
iter: 123 17:29:22  -891.099772c -5.53  -3.92    +64.1775
iter: 124 17:32:21  -891.100076c -5.69  -3.86    +64.0888
iter: 125 17:35:20  -891.100991c -5.96  -3.88    +64.0512
iter: 126 17:38:20  -891.101783c -6.11  -4.11c   +64.0117
iter: 127 17:41:19  -891.102460c -6.16  -4.18c   +63.9759
iter: 128 17:44:18  -891.103569c -6.18  -4.25c   +63.9328
iter: 129 17:47:17  -891.102955c -6.89  -4.15c   +63.9488
iter: 130 17:50:14  -891.104013c -6.54  -4.20c   +63.9330
iter: 131 17:53:12  -891.103639c -7.57c -4.12c   +63.9394

Converged after 131 iterations.

Dipole moment: (6.333169, -2.102966, 0.615494) |e|*Ang

Total magnetic moment: (0.000000, 0.000000, 63.939446)
Local magnetic moments:
   0 Co ( 0.000000,  0.000000,  0.560260)
   1 Fe ( 0.000000,  0.000000,  2.106949)
   2 Fe ( 0.000000,  0.000000,  2.330962)
   3 Co ( 0.000000,  0.000000,  1.032620)
   4 Co ( 0.000000,  0.000000,  1.369141)
   5 Fe ( 0.000000,  0.000000,  2.368031)
   6 Cr ( 0.000000,  0.000000, -1.909953)
   7 Co ( 0.000000,  0.000000,  1.047050)
   8 Co ( 0.000000,  0.000000,  0.837210)
   9 Fe ( 0.000000,  0.000000,  2.138160)
  10 Cr ( 0.000000,  0.000000, -1.221708)
  11 Cr ( 0.000000,  0.000000, -1.453354)
  12 Fe ( 0.000000,  0.000000,  1.854822)
  13 Cr ( 0.000000,  0.000000,  0.323164)
  14 Co ( 0.000000,  0.000000,  1.267485)
  15 Ni ( 0.000000,  0.000000,  0.202296)
  16 Cr ( 0.000000,  0.000000, -0.903771)
  17 Fe ( 0.000000,  0.000000,  2.061166)
  18 Ni ( 0.000000,  0.000000,  0.245416)
  19 Fe ( 0.000000,  0.000000, -0.641780)
  20 Ni ( 0.000000,  0.000000,  0.165969)
  21 Cr ( 0.000000,  0.000000,  1.177585)
  22 Fe ( 0.000000,  0.000000,  1.859190)
  23 Cr ( 0.000000,  0.000000, -1.101990)
  24 Cr ( 0.000000,  0.000000, -0.622209)
  25 Cr ( 0.000000,  0.000000,  0.794779)
  26 Fe ( 0.000000,  0.000000,  1.804261)
  27 Ni ( 0.000000,  0.000000,  0.288170)
  28 Fe ( 0.000000,  0.000000,  2.100408)
  29 Co ( 0.000000,  0.000000,  1.417457)
  30 Ni ( 0.000000,  0.000000,  0.268069)
  31 Ni ( 0.000000,  0.000000,  0.342229)
  32 Co ( 0.000000,  0.000000,  0.884970)
  33 Fe ( 0.000000,  0.000000,  2.237377)
  34 Ni ( 0.000000,  0.000000,  0.094304)
  35 Cr ( 0.000000,  0.000000, -1.226796)
  36 Ni ( 0.000000,  0.000000,  0.344506)
  37 Fe ( 0.000000,  0.000000,  2.152216)
  38 Cr ( 0.000000,  0.000000, -2.009109)
  39 Co ( 0.000000,  0.000000,  1.215752)
  40 Co ( 0.000000,  0.000000,  1.310430)
  41 Fe ( 0.000000,  0.000000,  2.313812)
  42 Fe ( 0.000000,  0.000000,  2.241205)
  43 Co ( 0.000000,  0.000000,  1.132323)
  44 Ni ( 0.000000,  0.000000,  0.352425)
  45 Cr ( 0.000000,  0.000000,  0.766824)
  46 Fe ( 0.000000,  0.000000,  2.314863)
  47 Ni ( 0.000000,  0.000000,  0.210800)
  48 Ni ( 0.000000,  0.000000,  0.245078)
  49 Co ( 0.000000,  0.000000,  1.296596)
  50 Cr ( 0.000000,  0.000000, -1.880205)
  51 Fe ( 0.000000,  0.000000,  1.936924)
  52 Co ( 0.000000,  0.000000,  1.233923)
  53 Fe ( 0.000000,  0.000000,  2.093019)
  54 Ni ( 0.000000,  0.000000,  0.270043)
  55 Fe ( 0.000000,  0.000000,  1.499604)
  56 Cr ( 0.000000,  0.000000, -1.311702)
  57 Cr ( 0.000000,  0.000000,  1.128782)
  58 Cr ( 0.000000,  0.000000, -0.865593)
  59 Ni ( 0.000000,  0.000000,  0.102881)
[...]
  93 Ni ( 0.000000,  0.000000,  0.091915)
  94 Co ( 0.000000,  0.000000,  1.209175)
  95 Ni ( 0.000000,  0.000000,  0.218190)
  96 Ni ( 0.000000,  0.000000,  0.514246)
  97 Fe ( 0.000000,  0.000000,  2.125448)
  98 Co ( 0.000000,  0.000000,  1.321106)
  99 Fe ( 0.000000,  0.000000,  2.281650)
 100 Fe ( 0.000000,  0.000000,  2.065549)
 101 Co ( 0.000000,  0.000000,  1.301315)
 102 Cr ( 0.000000,  0.000000, -1.208685)
 103 Co ( 0.000000,  0.000000,  0.977391)
 104 Cr ( 0.000000,  0.000000, -1.307667)
 105 Fe ( 0.000000,  0.000000,  2.163815)
 106 Co ( 0.000000,  0.000000,  0.932071)
 107 Ni ( 0.000000,  0.000000,  0.295452)

Energy contributions relative to reference atoms: (reference = -3846758.590871)

Kinetic:       +133.887781
Potential:     -198.323608
External:        +0.000000
XC:            -864.428544
Entropy (-ST):   -4.458640
Local:          +39.990052
Free energy:   -893.332959
Extrapolated:  -891.103639

Spin contamination: 32.697648 electrons
Showing only first 2 kpts
                      Up                     Down
 Kpt  Band  Eigenvalues  Occupancy  Eigenvalues  Occupancy
  0   524      9.83116    0.99451     10.72449    0.02335
  0   525      9.83747    0.99416     10.72630    0.02294
  0   526      9.85402    0.99311     10.74776    0.01859
  0   527      9.86770    0.99211     10.75736    0.01692

  1   524      9.82754    0.99471     10.72558    0.02310
  1   525      9.84265    0.99385     10.73688    0.02068
  1   526      9.84992    0.99339     10.74765    0.01861
  1   527      9.86008    0.99269     10.76675    0.01543

Fermi level: 10.35113

No gap

Forces in eV/Ang:
  0 Co   -0.01456    0.01070    0.11766
  1 Fe    0.16580    0.10869    0.05484
  2 Fe    0.33805   -0.30027   -0.08431
  3 Co    0.17757   -0.00439   -0.08632
  4 Co    0.02178   -0.00358    0.02177
  5 Fe    0.03897   -0.00055   -0.01784
  6 Cr    0.05651    0.11946    0.12755
  7 Co   -0.28817   -0.04886   -0.09440
  8 Co    0.06955   -0.16019    0.02042
  9 Fe   -0.26466   -0.12038   -0.04336
 10 Cr   -0.28251   -0.17768    0.43229
 11 Cr   -0.05225    0.21625   -0.50521
 12 Fe    0.48185    0.28812   -0.05598
 13 Cr    0.00084   -0.16848   -0.15794
 14 Co    0.02769    0.13000   -0.21346
 15 Ni   -0.11799    0.04856   -0.00226
 16 Cr    0.13030   -0.07735    0.11472
 17 Fe    0.13223   -0.33327   -0.22408
 18 Ni   -0.22872   -0.15219   -0.18071
 19 Fe   -0.29773   -0.09744   -0.07449
 20 Ni   -0.09436    0.12053   -0.06401
 21 Cr   -0.28488    0.14313   -0.24820
 22 Fe    0.30389   -0.02799    0.03902
 23 Cr   -0.20132    0.14630   -0.23138
 24 Cr    0.43455   -0.27658   -0.16986
 25 Cr    0.11141    0.06029   -0.50204
 26 Fe   -0.10033    0.15564   -0.08602
 27 Ni    0.21738   -0.02025    0.02720
 28 Fe    0.00651    0.33786   -0.14921
 29 Co   -0.23302    0.35855   -0.01856
 30 Ni   -0.07173    0.02100   -0.09044
 31 Ni   -0.28754    0.12841    0.09153
 32 Co    0.19342    0.01594   -0.21261
 33 Fe    0.02298   -0.01766   -0.32266
 34 Ni    0.11519    0.14463    0.03617
 35 Cr   -0.06688   -0.35113   -0.18849
 36 Ni    0.10533    0.08862    0.01694
 37 Fe    0.23048    0.16615    0.19265
 38 Cr    0.22947   -0.01334    0.11072
 39 Co   -0.10924    0.22278   -0.01371
 40 Co   -0.01067   -0.22115   -0.05131
 41 Fe   -0.18609   -0.15563   -0.02754
 42 Fe   -0.04819   -0.37858   -0.12558
 43 Co   -0.21020    0.05124    0.03146
 44 Ni   -0.01854    0.16303   -0.01231
 45 Cr   -0.26868    0.40682   -0.22777
 46 Fe   -0.04317   -0.51115    0.03628
 47 Ni    0.27064   -0.12059    0.01120
 48 Ni   -0.06609    0.03176   -0.03246
 49 Co    0.01649   -0.06803   -0.02731
 50 Cr   -0.13026   -0.03511    0.08437
 51 Fe   -0.25399   -0.21920    0.13287
 52 Co    0.09791   -0.09923   -0.20020
 53 Fe    0.12155   -0.11898    0.13852
 54 Ni   -0.02813   -0.13493    0.04075
 55 Fe   -0.08528    0.02223   -0.05105
 56 Cr   -0.22022   -0.13961   -0.01700
 57 Cr    0.02137   -0.03683   -0.03293
 58 Cr    0.40600    0.15931    0.25090
 59 Ni    0.29928    0.18251    0.00054
[...]
 93 Ni   -0.00375    0.08778    0.16707
 94 Co   -0.02772    0.04876    0.07712
 95 Ni    0.28521    0.07474    0.09038
 96 Ni   -0.05290   -0.17087    0.01899
 97 Fe    0.01502   -0.12457    0.30168
 98 Co   -0.05794   -0.10632    0.16431
 99 Fe    0.08196    0.06554    0.00106
100 Fe    0.01655    0.07975    0.22165
101 Co    0.04334    0.03845   -0.04308
102 Cr   -0.04284   -0.28144    0.42078
103 Co   -0.21422   -0.07546   -0.24346
104 Cr    0.32195    0.13379   -0.24204
105 Fe    0.00435   -0.28690    0.20780
106 Co   -0.06251    0.03163    0.28942
107 Ni    0.03624   -0.14044   -0.06253

Date: Sat Apr 15 17:53:34 2023