User:   c.zeng@d0054
Date:   Sat Apr 15 08:03:26 2023
Arch:   x86_64
Pid:    208080
CWD:    /home/c.zeng/projects/hea-corrosion/hea-mlp/data-curation/bulk-mcmc/dft-jobs/231
Python: 3.8.1
gpaw:   /home/c.zeng/usr/installs/gpaw/source/gpaw-22.8.0/gpaw
_gpaw:  /home/c.zeng/usr/installs/gpaw/source/gpaw-22.8.0/
        _gpaw.cpython-38-x86_64-linux-gnu.so
ase:    /home/c.zeng/.local/lib/python3.8/site-packages/ase-3.22.1-py3.8.egg/ase (version 3.22.1)
numpy:  /shared/centos7/python/3.8.1/lib/python3.8/site-packages/numpy (version 1.17.4)
scipy:  /shared/centos7/python/3.8.1/lib/python3.8/site-packages/scipy (version 1.4.1)
units:  Angstrom and eV
cores: 30
OpenMP: False
OMP_NUM_THREADS: 1

Input parameters:
  convergence: {energy: 0.0001}
  kpts: [2 2 2]
  maxiter: 666
  mode: {ecut: 350.0,
         name: pw}
  occupations: {fixmagmom: False,
                name: fermi-dirac,
                width: 0.1}
  spinpol: True
  xc: PBE

System changes: positions, numbers, cell, pbc, initial_charges, initial_magmoms

Initialize ...

species:
  Ni:
    name: Nickel
    id: 0d9f38a9d6e76a2886f07bb4381f212b
    Z: 28.0
    valence: 16
    core: 12
    charge: 0.0
    file: /home/c.zeng/usr/data/gpaw-setups-0.9.20000/Ni.PBE.gz
    compensation charges: {type: gauss,
                           rc: 0.36,
                           lmax: 2}
    cutoffs: {filter: 2.14,
              core: 1.98}
    valence states:
      #              energy  rcut
      - 4s(2.00)    -5.642   1.164
      - 3p(6.00)   -71.394   1.207
      - 4p(0.00)    -1.226   1.207
      - 3d(8.00)    -8.875   1.138
      -  s          21.570   1.164
      -  d          18.337   1.138

    # Using partial waves for Ni as LCAO basis

  Al:
    name: Aluminium
    id: 0292cae29f5d6237e50f6abdd43a7bdd
    Z: 13.0
    valence: 3
    core: 10
    charge: 0.0
    file: /home/c.zeng/usr/data/gpaw-setups-0.9.20000/Al.PBE.gz
    compensation charges: {type: gauss,
                           rc: 0.34,
                           lmax: 2}
    cutoffs: {filter: 1.91,
              core: 2.36}
    valence states:
      #              energy  rcut
      - 3s(2.00)    -7.753   1.085
      - 3p(1.00)    -2.712   1.085
      -  s          19.459   1.085
      -  p          24.499   1.085
      -  d           0.000   1.085

[...]

  Cr:
    name: Chromium
    id: 33f258bda2ca9f93018e70263a35547b
    Z: 24.0
    valence: 6
    core: 18
    charge: 0.0
    file: /home/c.zeng/usr/data/gpaw-setups-0.9.20000/Cr.PBE.gz
    compensation charges: {type: gauss,
                           rc: 0.35,
                           lmax: 2}
    cutoffs: {filter: 2.14,
              core: 3.04}
    valence states:
      #              energy  rcut
      - 4s(1.00)    -4.007   1.164
      - 4p(0.00)    -0.989   1.217
      - 3d(5.00)    -2.913   1.111
      -  s          23.205   1.164
      -  p          26.223   1.217
      -  d          24.299   1.111

[...]

  Co:
    name: Cobalt
    id: 339d20d5b0b93d2de9531a1bee871d91
    Z: 27.0
    valence: 9
    core: 18
    charge: 0.0
    file: /home/c.zeng/usr/data/gpaw-setups-0.9.20000/Co.PBE.gz
    compensation charges: {type: gauss,
                           rc: 0.32,
                           lmax: 2}
    cutoffs: {filter: 1.87,
              core: 2.55}
    valence states:
      #              energy  rcut
      - 4s(2.00)    -5.469   1.005
      - 4p(0.00)    -1.277   1.058
      - 3d(7.00)    -8.205   1.005
      -  s          21.742   1.005
      -  p          25.934   1.058
      -  d          19.007   1.005

[...]

  Fe:
    name: Iron
    id: 37abbd8d6c3c35915a9b583b742da910
    Z: 26.0
    valence: 8
    core: 18
    charge: 0.0
    file: /home/c.zeng/usr/data/gpaw-setups-0.9.20000/Fe.PBE.gz
    compensation charges: {type: gauss,
                           rc: 0.33,
                           lmax: 2}
    cutoffs: {filter: 2.06,
              core: 2.67}
    valence states:
      #              energy  rcut
      - 4s(2.00)    -5.291   1.164
      - 4p(0.00)    -1.326   1.058
      - 3d(6.00)    -7.505   1.058
      -  s          21.920   1.164
      -  p          25.885   1.058
      -  d          19.706   1.058

    # Using partial waves for Fe as LCAO basis

Reference energy: -3235165.067515  # eV

Spin-polarized calculation.
Magnetic moment: 121.100000

Convergence criteria:
 Maximum [total energy] change in last 3 cyles: 0.0001 eV / electron
 Maximum integral of absolute [dens]ity change: 0.0001 electrons / valence electron
 Maximum integral of absolute [eigenst]ate change: 4e-08 eV^2 / valence electron
 Maximum number of scf [iter]ations: 666
 (Square brackets indicate name in SCF output, whereas a 'c' in
 the SCF output indicates the quantity has converged.)

Symmetries present (total): 1

  ( 1  0  0)
  ( 0  1  0)
  ( 0  0  1)

8 k-points: 2 x 2 x 2 Monkhorst-Pack grid
4 k-points in the irreducible part of the Brillouin zone
       k-points in crystal coordinates                weights
   0:     0.25000000   -0.25000000   -0.25000000          2/8
   1:     0.25000000   -0.25000000    0.25000000          2/8
   2:     0.25000000    0.25000000   -0.25000000          2/8
   3:     0.25000000    0.25000000    0.25000000          2/8

Wave functions: Plane wave expansion
  Cutoff energy: 350.000 eV
  Number of coefficients (min, max): 19084, 19084
  Pulay-stress correction: 0.000000 eV/Ang^3 (de/decut=0.000000)
  Using FFTW library
  ScaLapack parameters: grid=1x1, blocksize=None
  Wavefunction extrapolation:
    Improved wavefunction reuse through dual PAW basis

Occupation numbers: Fermi-Dirac:
  width: 0.1000  # eV

Eigensolver
   Davidson(niter=2)

Densities:
  Coarse grid: 48*48*48 grid
  Fine grid: 96*96*96 grid
  Total Charge: 0.000000

Density mixing:
  Method: difference
  Backend: pulay
  Linear mixing parameter: 0.05
  old densities: 5
  Damping of long wavelength oscillations: 50

Hamiltonian:
  XC and Coulomb potentials evaluated on a 96*96*96 grid
  Using the PBE Exchange-Correlation functional
  External potential:
    NoExternalPotential

XC parameters: PBE with 2 nearest neighbor stencil

Total number of cores used: 30
Parallelization over k-points: 2
Domain decomposition: 5 x 3 x 1

Number of atoms: 108
Number of atomic orbitals: 933
Number of bands in calculation: 624
Number of valence electrons: 912
Bands to converge: occupied

... initialized

Initializing position-dependent things.

Density initialized from atomic densities
Creating initial wave functions:
  624 bands from LCAO basis set

        .--------Al----------------.
       /|           Fe             |
      / |    FeFe     Ni           |
     / Cr       Cr       Al        |
    /   |Fe      CrCo       Fe     |
   /    | NiCr      ACo            |
  /    Co  FeiAlAl    Co Fe  CoAl  |
 *      Fe     AlCoAl   NiFe     Cr|
 |      |FeCr   NiFeFe   AlNiCr   Co
 |      | CoNi   AlCoCoAl CrNiFe   |
 |     Fe  Al CoCo  CrCr Cr  NiCr  |
 |      Cr  Cr NiNiCo CoNiCoAl   Fe|
 |      |CrCo   CoAlAl   CoNiFe   Fe
 |      .-FeNi-----CrNi-Al--NiFe---.
 |     Al  Cr CoCr    Al Co  Ni Cr/
 |    / Co              Ni       Cr
 |   /           Ali      CrFe  /
 |  /      Ni       Fe     CrAl/
 | /                   Fe     /i
 *--------------------------Ni

Positions:
   0 Ni    10.797848    0.093654    0.085777    ( 0.0000,  0.0000,  0.0000)
   1 Al    10.831824    1.844742    1.870716    ( 0.0000,  0.0000,  2.0000)
   2 Cr     1.786803   10.847372    1.827335    ( 0.0000,  0.0000,  0.0000)
   3 Co     1.769614    1.870531   -0.031264    ( 0.0000,  0.0000,  0.0000)
   4 Al     3.620857   10.822050   10.833629    ( 0.0000,  0.0000,  1.5000)
   5 Ni     3.571246    1.883176    1.708402    ( 0.0000,  0.0000,  0.0000)
   6 Co     5.521103   10.788063    1.666217    ( 0.0000,  0.0000,  0.0000)
   7 Al     5.520831    1.813973   10.830911    ( 0.0000,  0.0000,  1.5000)
   8 Al     7.330846    0.011025   10.815657    ( 0.0000,  0.0000,  2.0000)
   9 Fe     7.282018    1.809483    1.793250    ( 0.0000,  0.0000,  2.1000)
  10 Fe     9.029996    0.022005    1.811918    ( 0.0000,  0.0000,  1.5000)
  11 Fe     9.007196    1.868639   10.825714    ( 0.0000,  0.0000,  2.0000)
  12 Ni    10.861310    3.649723    0.014171    ( 0.0000,  0.0000,  2.0000)
  13 Cr    10.867442    5.463468    1.819235    ( 0.0000,  0.0000,  2.1000)
  14 Co     1.756088    3.650267    1.845949    ( 0.0000,  0.0000,  0.0000)
  15 Fe     1.790358    5.439092   10.869084    ( 0.0000,  0.0000,  2.1000)
  16 Cr     3.687842    3.622792   -0.049287    ( 0.0000,  0.0000,  2.0000)
  17 Co     3.667347    5.391145    1.745368    ( 0.0000,  0.0000,  0.0000)
  18 Al     5.497977    3.634415    1.792370    ( 0.0000,  0.0000,  2.0000)
  19 Ni     5.524908    5.448029    0.002551    ( 0.0000,  0.0000,  2.0000)
  20 Co     7.223340    3.611877   10.834270    ( 0.0000,  0.0000,  0.0000)
  21 Al     7.217762    5.474830    1.807776    ( 0.0000,  0.0000,  2.1000)
  22 Cr     9.073442    3.654344    1.775148    ( 0.0000,  0.0000,  0.0000)
  23 Cr     9.008740    5.418608    0.007692    ( 0.0000,  0.0000,  2.0000)
  24 Cr    10.859190    7.178720    0.014480    ( 0.0000,  0.0000,  1.5000)
  25 Fe    -0.018106    8.970948    1.875391    ( 0.0000,  0.0000,  0.0000)
  26 Fe     1.817615    7.224025    1.802546    ( 0.0000,  0.0000,  1.5000)
  27 Cr     1.880729    8.993464   10.874031    ( 0.0000,  0.0000,  0.0000)
  28 Fe     3.684428    7.260447   -0.001356    ( 0.0000,  0.0000,  2.0000)
  29 Co     3.612616    9.025636    1.761807    ( 0.0000,  0.0000,  1.5000)
  30 Cr     5.481440    7.275114    1.811211    ( 0.0000,  0.0000,  1.5000)
  31 Fe     5.461261    9.048153   10.833988    ( 0.0000,  0.0000,  1.5000)
  32 Ni     7.245704    7.257881    0.056891    ( 0.0000,  0.0000,  2.1000)
  33 Co     7.301969    9.004609    1.790315    ( 0.0000,  0.0000,  0.0000)
  34 Ni     9.029343    7.181775    1.815549    ( 0.0000,  0.0000,  2.0000)
  35 Ni     9.030561    9.042010    0.020232    ( 0.0000,  0.0000,  1.5000)
  36 Fe    -0.031046    0.001947    3.645701    ( 0.0000,  0.0000,  2.0000)
  37 Fe    10.825910    1.804351    5.434602    ( 0.0000,  0.0000,  2.1000)
  38 Ni     1.743552   10.849296    5.484376    ( 0.0000,  0.0000,  0.0000)
  39 Al     1.769755    1.791891    3.636068    ( 0.0000,  0.0000,  1.5000)
  40 Al     3.516667   10.719828    3.663227    ( 0.0000,  0.0000,  0.0000)
  41 Co     3.644244    1.785205    5.586728    ( 0.0000,  0.0000,  0.0000)
  42 Al     5.484778   10.815439    5.504022    ( 0.0000,  0.0000,  0.0000)
  43 Cr     5.457934    1.842230    3.658769    ( 0.0000,  0.0000,  0.0000)
  44 Cr     7.360615   10.815439    3.672229    ( 0.0000,  0.0000,  0.0000)
  45 Al     7.266884    1.811614    5.485528    ( 0.0000,  0.0000,  2.1000)
  46 Al     9.077986    0.023590    5.491921    ( 0.0000,  0.0000,  0.0000)
  47 Co     9.066788    1.824226    3.671175    ( 0.0000,  0.0000,  1.5000)
  48 Fe    -0.047135    3.649615    3.617291    ( 0.0000,  0.0000,  2.0000)
  49 Cr    10.809264    5.435993    5.379805    ( 0.0000,  0.0000,  2.0000)
  50 Cr     1.752316    3.624989    5.344676    ( 0.0000,  0.0000,  0.0000)
  51 Cr     1.805786    5.472046    3.619389    ( 0.0000,  0.0000,  2.1000)
  52 Ni     3.649408    3.633491    3.631251    ( 0.0000,  0.0000,  2.1000)
  53 Co     3.657628    5.433797    5.434015    ( 0.0000,  0.0000,  1.5000)
  54 Ni     5.413368    3.672642    5.480309    ( 0.0000,  0.0000,  1.5000)
  55 Al     5.413835    5.465588    3.639666    ( 0.0000,  0.0000,  2.1000)
  56 Ni     7.223449    3.731734    3.720829    ( 0.0000,  0.0000,  0.0000)
  57 Cr     7.220557    5.483180    5.485572    ( 0.0000,  0.0000,  0.0000)
  58 Co     9.069039    3.623673    5.469720    ( 0.0000,  0.0000,  1.5000)
  59 Ni     9.064766    5.503837    3.636731    ( 0.0000,  0.0000,  0.0000)
[...]
  93 Co     7.214631    5.385893    9.048577    ( 0.0000,  0.0000,  2.1000)
  94 Fe     8.994291    3.655975    9.039237    ( 0.0000,  0.0000,  1.5000)
  95 Ni     9.006577    5.423262    7.223296    ( 0.0000,  0.0000,  2.0000)
  96 Cr    -0.070637    7.291956    7.110419    ( 0.0000,  0.0000,  0.0000)
  97 Cr     0.073012    9.104570    9.068375    ( 0.0000,  0.0000,  0.0000)
  98 Ni     1.863247    7.257381    9.054785    ( 0.0000,  0.0000,  2.0000)
  99 Fe     1.858343    9.053708    7.225808    ( 0.0000,  0.0000,  2.1000)
 100 Al     3.683906    7.292456    7.235550    ( 0.0000,  0.0000,  2.0000)
 101 Cr     3.628218    9.069550    9.051262    ( 0.0000,  0.0000,  2.1000)
 102 Co     5.530605    7.331890    9.040129    ( 0.0000,  0.0000,  0.0000)
 103 Al     5.476232    9.097209    7.250467    ( 0.0000,  0.0000,  2.0000)
 104 Ni     7.256827    7.264242    7.208456    ( 0.0000,  0.0000,  2.1000)
 105 Al     7.272548    9.136437    9.056861    ( 0.0000,  0.0000,  1.5000)
 106 Fe     8.936493    7.190875    9.109767    ( 0.0000,  0.0000,  0.0000)
 107 Co     8.994682    9.112169    7.218480    ( 0.0000,  0.0000,  0.0000)

Unit cell:
           periodic     x           y           z      points  spacing
  1. axis:    yes   10.872400    0.000000    0.000000    48     0.2265
  2. axis:    yes    0.000000   10.872400    0.000000    48     0.2265
  3. axis:    yes    0.000000    0.000000   10.872400    48     0.2265

  Lengths:  10.872400  10.872400  10.872400
  Angles:   90.000000  90.000000  90.000000

Effective grid spacing dv^(1/3) = 0.2265

     iter     time        total  log10-change:  magmom
                         energy  eigst   dens
iter:   1 08:08:06  -923.870969                  +120.1318
iter:   2 08:10:10  -833.066165  -0.30  -1.25    +80.5854
iter:   3 08:12:10  -829.262400  -0.77  -1.29    +47.9547
iter:   4 08:14:14  -818.991956  -1.17  -1.31    +44.3839
iter:   5 08:16:20  -809.893209  -1.64  -1.35    +41.1945
iter:   6 08:18:25  -812.574659  -1.67  -1.41    +40.0049
iter:   7 08:20:30  -808.157610  -1.48  -1.44    +39.0919
iter:   8 08:22:35  -805.943273  -1.64  -1.53    +38.5843
iter:   9 08:24:41  -803.867132  -1.93  -1.60    +39.1834
iter:  10 08:26:46  -803.948458  -2.01  -1.67    +39.9223
iter:  11 08:28:51  -803.281064  -2.20  -1.72    +40.7453
iter:  12 08:30:57  -802.495898  -2.28  -1.76    +41.9151
iter:  13 08:33:02  -803.724411  -2.35  -1.85    +43.5198
iter:  14 08:35:07  -803.384712  -2.39  -1.86    +44.4144
iter:  15 08:37:12  -803.558321  -2.46  -1.92    +45.6233
iter:  16 08:39:17  -803.670466  -2.46  -1.94    +46.7638
iter:  17 08:41:22  -803.514922  -2.65  -1.96    +47.9741
iter:  18 08:43:27  -803.399689  -2.80  -2.03    +49.0897
iter:  19 08:45:32  -803.621354  -2.80  -2.09    +49.9860
iter:  20 08:47:38  -803.570843  -2.90  -2.11    +51.1056
iter:  21 08:49:42  -803.547705c -3.11  -2.15    +51.8832
iter:  22 08:51:47  -803.871428  -3.05  -2.20    +52.5952
iter:  23 08:53:49  -803.900810  -3.06  -2.19    +53.4915
iter:  24 08:55:52  -804.014740  -3.11  -2.24    +54.0504
iter:  25 08:57:57  -804.076391  -3.16  -2.26    +54.4721
iter:  26 09:00:03  -804.234358  -3.13  -2.32    +54.9512
iter:  27 09:02:08  -804.149297  -3.24  -2.31    +55.4774
iter:  28 09:04:13  -804.245849  -3.34  -2.37    +55.8928
iter:  29 09:06:18  -804.279277  -3.44  -2.41    +56.0533
iter:  30 09:08:23  -804.328798c -3.50  -2.43    +56.4264
iter:  31 09:10:29  -804.303272c -3.68  -2.45    +56.8397
iter:  32 09:12:34  -804.363384c -3.74  -2.52    +57.1385
iter:  33 09:14:39  -804.379699c -3.85  -2.53    +57.2924
iter:  34 09:16:44  -804.407335c -4.09  -2.54    +57.5481
iter:  35 09:18:48  -804.491779  -3.78  -2.59    +57.8406
iter:  36 09:20:49  -804.540199  -3.72  -2.56    +57.8519
iter:  37 09:22:54  -804.529603c -3.78  -2.56    +57.9755
iter:  38 09:24:59  -804.563493c -3.81  -2.63    +58.1353
iter:  39 09:27:04  -804.624873  -3.70  -2.64    +58.2507
iter:  40 09:29:09  -804.553975c -3.91  -2.60    +58.2198
iter:  41 09:31:14  -804.578534c -4.10  -2.72    +58.2553
iter:  42 09:33:19  -804.582707c -4.37  -2.72    +58.3803
iter:  43 09:35:24  -804.594517c -4.40  -2.77    +58.4614
iter:  44 09:37:28  -804.607396c -4.69  -2.79    +58.4964
iter:  45 09:39:33  -804.640061c -4.43  -2.81    +58.5348
iter:  46 09:41:39  -804.670082c -4.29  -2.84    +58.5416
iter:  47 09:43:44  -804.691796c -4.06  -2.80    +58.5355
iter:  48 09:45:49  -804.697135c -4.16  -2.90    +58.3778
iter:  49 09:47:54  -804.711683c -4.29  -2.99    +58.3722
iter:  50 09:49:59  -804.733021c -4.27  -3.03    +58.3526
iter:  51 09:52:01  -804.726880c -4.69  -3.05    +58.3024
iter:  52 09:54:02  -804.748316c -4.62  -3.22    +58.2012
iter:  53 09:56:07  -804.775537c -4.60  -3.26    +58.1449
iter:  54 09:58:12  -804.883655  -3.31  -3.24    +57.8352
iter:  55 10:00:17  -804.884416  -4.42  -2.99    +57.9669
iter:  56 10:02:22  -804.894575c -4.73  -2.99    +58.0167
iter:  57 10:04:27  -804.893143c -5.01  -2.97    +58.0539
iter:  58 10:06:32  -804.890280c -5.28  -2.96    +58.0704
iter:  59 10:08:37  -804.881894c -4.05  -2.96    +58.1299
iter:  60 10:10:43  -804.860853c -4.82  -2.88    +58.0549
iter:  61 10:12:48  -804.876713c -4.60  -3.00    +57.9151
iter:  62 10:14:52  -804.867115c -4.86  -2.92    +57.8850
iter:  63 10:16:51  -804.861723c -4.61  -2.99    +57.7457
iter:  64 10:18:56  -804.861049c -4.30  -3.02    +57.7044
iter:  65 10:21:01  -804.856258c -4.65  -3.07    +57.7132
iter:  66 10:23:06  -804.856086c -4.90  -3.17    +57.7110
iter:  67 10:25:12  -804.853473c -4.95  -3.17    +57.6516
iter:  68 10:27:17  -804.856299c -5.12  -3.23    +57.6270
iter:  69 10:29:22  -804.854512c -5.34  -3.23    +57.6247
iter:  70 10:31:27  -804.854841c -5.41  -3.32    +57.6015
iter:  71 10:33:32  -804.855120c -5.29  -3.32    +57.5743
iter:  72 10:35:37  -804.855819c -5.47  -3.35    +57.5586
iter:  73 10:37:41  -804.857969c -5.19  -3.47    +57.5463
iter:  74 10:39:44  -804.855544c -5.52  -3.38    +57.5293
iter:  75 10:41:47  -804.856521c -5.57  -3.57    +57.4958
iter:  76 10:43:52  -804.856622c -5.93  -3.56    +57.4900
iter:  77 10:45:57  -804.856763c -5.92  -3.68    +57.4642
iter:  78 10:48:02  -804.856818c -6.03  -3.69    +57.4456
iter:  79 10:50:07  -804.857908c -6.07  -3.71    +57.4260
iter:  80 10:52:12  -804.858031c -5.94  -3.81    +57.4014
iter:  81 10:54:18  -804.858167c -6.19  -3.79    +57.3884
iter:  82 10:56:22  -804.858963c -6.11  -3.92    +57.3672
iter:  83 10:58:27  -804.859029c -6.41  -3.88    +57.3532
iter:  84 11:00:28  -804.859277c -6.26  -4.01c   +57.3279
iter:  85 11:02:32  -804.859793c -6.47  -3.99    +57.3124
iter:  86 11:04:37  -804.860670c -6.16  -4.07c   +57.2794
iter:  87 11:06:42  -804.861789c -5.83  -4.06c   +57.2296
iter:  88 11:08:48  -804.862662c -6.00  -4.04c   +57.2010
iter:  89 11:10:55  -804.865937c -5.07  -3.98    +57.1022
iter:  90 11:13:00  -804.866820c -5.64  -3.80    +57.0880
iter:  91 11:15:06  -804.867901c -5.62  -3.79    +57.0664
iter:  92 11:17:11  -804.871022c -4.90  -3.75    +57.0008
iter:  93 11:19:16  -804.872673c -5.18  -3.60    +56.9681
iter:  94 11:21:16  -804.871573c -5.99  -3.52    +56.9838
iter:  95 11:23:22  -804.872756c -5.74  -3.53    +56.9604
iter:  96 11:25:28  -804.872416c -6.23  -3.52    +56.9610
iter:  97 11:27:33  -804.876520c -5.18  -3.56    +56.9570
iter:  98 11:29:39  -804.870955c -5.15  -3.31    +56.9539
iter:  99 11:31:45  -804.870171c -5.70  -3.56    +56.9376
iter: 100 11:33:50  -804.870538c -6.07  -3.65    +56.9126
iter: 101 11:35:55  -804.870244c -6.13  -3.68    +56.9017
iter: 102 11:37:59  -804.869567c -5.96  -3.69    +56.8943
iter: 103 11:40:01  -804.871108c -5.85  -3.81    +56.8912
iter: 104 11:42:07  -804.869906c -6.13  -3.73    +56.8875
iter: 105 11:44:12  -804.869589c -6.42  -3.87    +56.8824
iter: 106 11:46:17  -804.869651c -6.89  -3.92    +56.8827
iter: 107 11:48:23  -804.869732c -6.95  -3.98    +56.8812
iter: 108 11:50:29  -804.869551c -6.73  -4.00c   +56.8844
iter: 109 11:52:34  -804.869525c -6.89  -4.01c   +56.8836
iter: 110 11:54:38  -804.869625c -6.82  -4.10c   +56.8839
iter: 111 11:56:44  -804.869502c -7.08  -4.20c   +56.8850
iter: 112 11:58:49  -804.869569c -7.19  -4.24c   +56.8854
iter: 113 12:00:55  -804.869546c -7.32  -4.27c   +56.8856
iter: 114 12:03:00  -804.869511c -7.47c -4.33c   +56.8881

Converged after 114 iterations.

Dipole moment: (28.971177, 18.383977, 9.111650) |e|*Ang

Total magnetic moment: (0.000000, 0.000000, 56.888102)
Local magnetic moments:
   0 Ni ( 0.000000,  0.000000,  0.272657)
   1 Al ( 0.000000,  0.000000, -0.032189)
   2 Cr ( 0.000000,  0.000000,  1.606157)
   3 Co ( 0.000000,  0.000000,  0.930934)
   4 Al ( 0.000000,  0.000000, -0.021577)
   5 Ni ( 0.000000,  0.000000,  0.144309)
   6 Co ( 0.000000,  0.000000,  1.099888)
   7 Al ( 0.000000,  0.000000, -0.021142)
   8 Al ( 0.000000,  0.000000, -0.050091)
   9 Fe ( 0.000000,  0.000000,  2.158866)
  10 Fe ( 0.000000,  0.000000,  2.333647)
  11 Fe ( 0.000000,  0.000000,  2.114146)
  12 Ni ( 0.000000,  0.000000,  0.190967)
  13 Cr ( 0.000000,  0.000000, -1.434375)
  14 Co ( 0.000000,  0.000000,  0.995956)
  15 Fe ( 0.000000,  0.000000,  1.984722)
  16 Cr ( 0.000000,  0.000000,  1.568894)
  17 Co ( 0.000000,  0.000000,  0.656620)
  18 Al ( 0.000000,  0.000000, -0.022054)
  19 Ni ( 0.000000,  0.000000,  0.257932)
  20 Co ( 0.000000,  0.000000,  0.872234)
  21 Al ( 0.000000,  0.000000,  0.000192)
  22 Cr ( 0.000000,  0.000000, -1.904498)
  23 Cr ( 0.000000,  0.000000,  1.005984)
  24 Cr ( 0.000000,  0.000000, -0.346222)
  25 Fe ( 0.000000,  0.000000,  2.295757)
  26 Fe ( 0.000000,  0.000000,  2.060851)
  27 Cr ( 0.000000,  0.000000, -1.151450)
  28 Fe ( 0.000000,  0.000000,  2.142234)
  29 Co ( 0.000000,  0.000000,  0.943539)
  30 Cr ( 0.000000,  0.000000, -2.087254)
  31 Fe ( 0.000000,  0.000000,  2.126023)
  32 Ni ( 0.000000,  0.000000,  0.293149)
  33 Co ( 0.000000,  0.000000,  1.323688)
  34 Ni ( 0.000000,  0.000000,  0.167328)
  35 Ni ( 0.000000,  0.000000,  0.160109)
  36 Fe ( 0.000000,  0.000000,  2.198664)
  37 Fe ( 0.000000,  0.000000,  1.864366)
  38 Ni ( 0.000000,  0.000000,  0.290313)
  39 Al ( 0.000000,  0.000000, -0.030064)
  40 Al ( 0.000000,  0.000000, -0.021364)
  41 Co ( 0.000000,  0.000000,  1.030723)
  42 Al ( 0.000000,  0.000000, -0.014034)
  43 Cr ( 0.000000,  0.000000,  2.265458)
  44 Cr ( 0.000000,  0.000000, -2.063819)
  45 Al ( 0.000000,  0.000000, -0.014461)
  46 Al ( 0.000000,  0.000000, -0.025018)
  47 Co ( 0.000000,  0.000000,  0.975062)
  48 Fe ( 0.000000,  0.000000,  1.781252)
  49 Cr ( 0.000000,  0.000000, -1.193070)
  50 Cr ( 0.000000,  0.000000, -1.918838)
  51 Cr ( 0.000000,  0.000000,  1.269961)
  52 Ni ( 0.000000,  0.000000,  0.227327)
  53 Co ( 0.000000,  0.000000,  1.322921)
  54 Ni ( 0.000000,  0.000000,  0.238150)
  55 Al ( 0.000000,  0.000000, -0.006915)
  56 Ni ( 0.000000,  0.000000,  0.075754)
  57 Cr ( 0.000000,  0.000000, -1.948728)
  58 Co ( 0.000000,  0.000000,  0.909675)
  59 Ni ( 0.000000,  0.000000,  0.054902)
[...]
  93 Co ( 0.000000,  0.000000,  1.515763)
  94 Fe ( 0.000000,  0.000000,  2.095297)
  95 Ni ( 0.000000,  0.000000,  0.262329)
  96 Cr ( 0.000000,  0.000000, -1.740205)
  97 Cr ( 0.000000,  0.000000, -1.810839)
  98 Ni ( 0.000000,  0.000000,  0.136678)
  99 Fe ( 0.000000,  0.000000,  2.097129)
 100 Al ( 0.000000,  0.000000, -0.038781)
 101 Cr ( 0.000000,  0.000000,  1.058685)
 102 Co ( 0.000000,  0.000000,  0.909022)
 103 Al ( 0.000000,  0.000000, -0.002949)
 104 Ni ( 0.000000,  0.000000,  0.166455)
 105 Al ( 0.000000,  0.000000, -0.023572)
 106 Fe ( 0.000000,  0.000000,  2.373024)
 107 Co ( 0.000000,  0.000000,  0.760342)

Energy contributions relative to reference atoms: (reference = -3235165.067515)

Kinetic:       +250.482224
Potential:     -240.228780
External:        +0.000000
XC:            -844.214017
Entropy (-ST):   -4.080554
Local:          +31.131339
Free energy:   -806.909787
Extrapolated:  -804.869511

Spin contamination: 27.695481 electrons
Showing only first 2 kpts
                      Up                     Down
 Kpt  Band  Eigenvalues  Occupancy  Eigenvalues  Occupancy
  0   454      8.98900    0.99552      9.89378    0.02545
  0   455      9.00164    0.99491      9.90947    0.02184
  0   456      9.01436    0.99423      9.92443    0.01886
  0   457      9.04440    0.99222      9.93824    0.01647

  1   454      8.99713    0.99514      9.88806    0.02691
  1   455      9.02913    0.99332      9.90383    0.02308
  1   456      9.04290    0.99234      9.92479    0.01879
  1   457      9.04804    0.99194      9.94100    0.01603

Fermi level: 9.52926

No gap

Forces in eV/Ang:
  0 Ni    0.43773   -0.68757   -0.72480
  1 Al   -0.22099   -0.07394   -1.03862
  2 Cr   -0.39693   -0.18274   -1.05936
  3 Co    0.14068   -0.22766   -0.27772
  4 Al    0.05053    0.57281    0.83597
  5 Ni    0.49751   -0.47346    0.53913
  6 Co   -0.22117    0.21673    1.04713
  7 Al   -0.25191   -0.03991    0.10169
  8 Al   -0.68390   -0.14844    1.97020
  9 Fe    0.48871   -0.01068    0.58504
 10 Fe    0.04871   -0.56887    0.57424
 11 Fe    0.30498    0.57683    0.20055
 12 Ni    0.14157   -0.32446   -0.13087
 13 Cr    0.38196    0.11069    0.11028
 14 Co    0.31695    0.11325   -0.27775
 15 Fe    0.27838   -0.02070    0.56198
 16 Cr   -1.01321   -0.46668    0.49252
 17 Co   -0.38634    0.40315    0.13842
 18 Al   -0.63820   -0.41191    0.14694
 19 Ni   -0.26121   -0.02181   -0.30090
 20 Co    0.31440    0.14109   -0.23719
 21 Al    1.45813    0.21071   -0.00764
 22 Cr   -1.01069   -0.26430    0.27599
 23 Cr    0.01900   -0.19545   -0.02580
 24 Cr   -0.07296    0.93015    0.21210
 25 Fe   -0.49026    0.17559   -0.84971
 26 Fe    0.52564   -0.02017   -0.15757
 27 Cr   -0.66868   -0.04719    0.18944
 28 Fe   -0.10472   -0.17933    0.39640
 29 Co    0.14981   -0.11752    0.38189
 30 Cr   -1.18708    1.23214   -0.51312
 31 Fe   -0.08842   -0.52930    0.65559
 32 Ni    0.18078   -0.01268   -0.49364
 33 Co   -0.16085    0.24336    0.38689
 34 Ni    0.32121    0.57260    0.05709
 35 Ni    0.19591    0.04994   -0.24484
 36 Fe   -0.32000   -0.28056   -0.25314
 37 Fe    0.02583    0.66065   -0.11921
 38 Ni    0.74679    0.08011   -0.22092
 39 Al    1.15326    0.41400    0.34734
 40 Al    1.46391    1.14796   -0.21169
 41 Co    0.07740    0.09609   -0.52928
 42 Al   -0.94953    1.46523   -0.71152
 43 Cr   -0.43535   -0.72407   -0.09876
 44 Cr   -1.18238    0.38346   -1.91693
 45 Al   -0.33836    1.49015   -0.53739
 46 Al    0.24390   -0.88801   -0.81896
 47 Co   -0.25452    0.34106   -0.06971
 48 Fe   -0.48827    0.31606    0.38620
 49 Cr   -0.37326   -0.00476    0.11803
 50 Cr    0.83351    0.54864    1.16903
 51 Cr    0.75870   -0.22961    0.31839
 52 Ni   -0.31296   -0.11036   -0.09556
 53 Co   -0.64424    0.25300    0.30280
 54 Ni   -0.03246   -0.49502   -0.06814
 55 Al   -1.08474    0.22461    1.11448
 56 Ni    0.17267   -0.35552   -0.72527
 57 Cr    0.43108   -0.07641    0.56541
 58 Co    0.15977    0.24565   -0.24916
 59 Ni   -0.01311   -0.55104   -0.04898
[...]
 93 Co   -0.06325    0.34297    0.00349
 94 Fe   -0.22058   -0.25223    0.00556
 95 Ni    0.24749    0.13669    0.03023
 96 Cr    0.21514    0.27306    0.25390
 97 Cr    0.05707   -1.05399    0.45524
 98 Ni   -0.60534   -0.02710   -0.17490
 99 Fe   -0.75849   -0.12216    0.05892
100 Al   -0.59606   -0.78651   -0.48649
101 Cr    0.03316   -0.38478    0.26274
102 Co   -0.41718   -0.56496    0.28534
103 Al   -0.01574   -1.04889    0.87897
104 Ni    0.04172   -0.09707    0.51020
105 Al   -0.02798   -2.02313   -0.30651
106 Fe    0.75113    0.19440   -0.69498
107 Co    1.04075   -0.71256    0.54440

Date: Sat Apr 15 12:03:19 2023