User:   c.zeng@d0131
Date:   Sat Apr 15 00:13:08 2023
Arch:   x86_64
Pid:    75800
CWD:    /home/c.zeng/projects/hea-corrosion/hea-mlp/data-curation/bulk-mcmc/dft-jobs/191
Python: 3.8.1
gpaw:   /home/c.zeng/usr/installs/gpaw/source/gpaw-22.8.0/gpaw
_gpaw:  /home/c.zeng/usr/installs/gpaw/source/gpaw-22.8.0/
        _gpaw.cpython-38-x86_64-linux-gnu.so
ase:    /home/c.zeng/.local/lib/python3.8/site-packages/ase-3.22.1-py3.8.egg/ase (version 3.22.1)
numpy:  /shared/centos7/python/3.8.1/lib/python3.8/site-packages/numpy (version 1.17.4)
scipy:  /shared/centos7/python/3.8.1/lib/python3.8/site-packages/scipy (version 1.4.1)
units:  Angstrom and eV
cores: 30
OpenMP: False
OMP_NUM_THREADS: 1

Input parameters:
  convergence: {energy: 0.0001}
  kpts: [2 2 2]
  maxiter: 666
  mode: {ecut: 350.0,
         name: pw}
  occupations: {fixmagmom: False,
                name: fermi-dirac,
                width: 0.1}
  spinpol: True
  xc: PBE

System changes: positions, numbers, cell, pbc, initial_charges, initial_magmoms

Initialize ...

species:
  Fe:
    name: Iron
    id: 37abbd8d6c3c35915a9b583b742da910
    Z: 26.0
    valence: 8
    core: 18
    charge: 0.0
    file: /home/c.zeng/usr/data/gpaw-setups-0.9.20000/Fe.PBE.gz
    compensation charges: {type: gauss,
                           rc: 0.33,
                           lmax: 2}
    cutoffs: {filter: 2.06,
              core: 2.67}
    valence states:
      #              energy  rcut
      - 4s(2.00)    -5.291   1.164
      - 4p(0.00)    -1.326   1.058
      - 3d(6.00)    -7.505   1.058
      -  s          21.920   1.164
      -  p          25.885   1.058
      -  d          19.706   1.058

    # Using partial waves for Fe as LCAO basis

  Co:
    name: Cobalt
    id: 339d20d5b0b93d2de9531a1bee871d91
    Z: 27.0
    valence: 9
    core: 18
    charge: 0.0
    file: /home/c.zeng/usr/data/gpaw-setups-0.9.20000/Co.PBE.gz
    compensation charges: {type: gauss,
                           rc: 0.32,
                           lmax: 2}
    cutoffs: {filter: 1.87,
              core: 2.55}
    valence states:
      #              energy  rcut
      - 4s(2.00)    -5.469   1.005
      - 4p(0.00)    -1.277   1.058
      - 3d(7.00)    -8.205   1.005
      -  s          21.742   1.005
      -  p          25.934   1.058
      -  d          19.007   1.005

[...]

  Al:
    name: Aluminium
    id: 0292cae29f5d6237e50f6abdd43a7bdd
    Z: 13.0
    valence: 3
    core: 10
    charge: 0.0
    file: /home/c.zeng/usr/data/gpaw-setups-0.9.20000/Al.PBE.gz
    compensation charges: {type: gauss,
                           rc: 0.34,
                           lmax: 2}
    cutoffs: {filter: 1.91,
              core: 2.36}
    valence states:
      #              energy  rcut
      - 3s(2.00)    -7.753   1.085
      - 3p(1.00)    -2.712   1.085
      -  s          19.459   1.085
      -  p          24.499   1.085
      -  d           0.000   1.085

[...]

  Cr:
    name: Chromium
    id: 33f258bda2ca9f93018e70263a35547b
    Z: 24.0
    valence: 6
    core: 18
    charge: 0.0
    file: /home/c.zeng/usr/data/gpaw-setups-0.9.20000/Cr.PBE.gz
    compensation charges: {type: gauss,
                           rc: 0.35,
                           lmax: 2}
    cutoffs: {filter: 2.14,
              core: 3.04}
    valence states:
      #              energy  rcut
      - 4s(1.00)    -4.007   1.164
      - 4p(0.00)    -0.989   1.217
      - 3d(5.00)    -2.913   1.111
      -  s          23.205   1.164
      -  p          26.223   1.217
      -  d          24.299   1.111

[...]

  Ni:
    name: Nickel
    id: 0d9f38a9d6e76a2886f07bb4381f212b
    Z: 28.0
    valence: 16
    core: 12
    charge: 0.0
    file: /home/c.zeng/usr/data/gpaw-setups-0.9.20000/Ni.PBE.gz
    compensation charges: {type: gauss,
                           rc: 0.36,
                           lmax: 2}
    cutoffs: {filter: 2.14,
              core: 1.98}
    valence states:
      #              energy  rcut
      - 4s(2.00)    -5.642   1.164
      - 3p(6.00)   -71.394   1.207
      - 4p(0.00)    -1.226   1.207
      - 3d(8.00)    -8.875   1.138
      -  s          21.570   1.164
      -  d          18.337   1.138

    # Using partial waves for Ni as LCAO basis

Reference energy: -3382523.201499  # eV

Spin-polarized calculation.
Magnetic moment: 128.800000

Convergence criteria:
 Maximum [total energy] change in last 3 cyles: 0.0001 eV / electron
 Maximum integral of absolute [dens]ity change: 0.0001 electrons / valence electron
 Maximum integral of absolute [eigenst]ate change: 4e-08 eV^2 / valence electron
 Maximum number of scf [iter]ations: 666
 (Square brackets indicate name in SCF output, whereas a 'c' in
 the SCF output indicates the quantity has converged.)

Symmetries present (total): 1

  ( 1  0  0)
  ( 0  1  0)
  ( 0  0  1)

8 k-points: 2 x 2 x 2 Monkhorst-Pack grid
4 k-points in the irreducible part of the Brillouin zone
       k-points in crystal coordinates                weights
   0:     0.25000000   -0.25000000   -0.25000000          2/8
   1:     0.25000000   -0.25000000    0.25000000          2/8
   2:     0.25000000    0.25000000   -0.25000000          2/8
   3:     0.25000000    0.25000000    0.25000000          2/8

Wave functions: Plane wave expansion
  Cutoff energy: 350.000 eV
  Number of coefficients (min, max): 18865, 18865
  Pulay-stress correction: 0.000000 eV/Ang^3 (de/decut=0.000000)
  Using FFTW library
  ScaLapack parameters: grid=1x1, blocksize=None
  Wavefunction extrapolation:
    Improved wavefunction reuse through dual PAW basis

Occupation numbers: Fermi-Dirac:
  width: 0.1000  # eV

Eigensolver
   Davidson(niter=2)

Densities:
  Coarse grid: 48*48*48 grid
  Fine grid: 96*96*96 grid
  Total Charge: 0.000000

Density mixing:
  Method: difference
  Backend: pulay
  Linear mixing parameter: 0.05
  old densities: 5
  Damping of long wavelength oscillations: 50

Hamiltonian:
  XC and Coulomb potentials evaluated on a 96*96*96 grid
  Using the PBE Exchange-Correlation functional
  External potential:
    NoExternalPotential

XC parameters: PBE with 2 nearest neighbor stencil

Total number of cores used: 30
Parallelization over k-points: 2
Domain decomposition: 5 x 3 x 1

Number of atoms: 108
Number of atomic orbitals: 961
Number of bands in calculation: 649
Number of valence electrons: 945
Bands to converge: occupied

... initialized

Initializing position-dependent things.

Density initialized from atomic densities
Creating initial wave functions:
  649 bands from LCAO basis set

       /|                     Fe   |
      / |            Fe Co     CrFe|
     /  |       Cr       Ni       Cr
    /   |Fe       Fel     CCor     |
   /i   | Coe        Fe      Co    |
  /  CrAl   NCr       Ni           |
 *      Ni     FeCo   AlFeCrFe   Cr|
 |      |CoNi   CrNiAl   NiAlNi   Co
 | CrCo | AlNi   AlAlCo     Ni     |
 |     Fe  FeCr Cr  Fe FeNi  CrNi  |
 |      CoNi   AlCr   FeCoCoNi  Fe |
 |Al    |FeCr   AlCrFe   CrCo     Co
 |      .-CrCo-----NiCr-CoCoCrNi---.
 |     /   Ni Co    Cr FeNi    Al /
 |    Co       AFei       Al     /
 |   /  Fe         Al       Cr  /
 |  /      Co       Al       Co/
 | / Fe     Co       Ni Ni    /
 |/             Cr       Ni  /
 *--------Fe----------------*

Positions:
   0 Fe    10.764147   10.861293   10.805330    ( 0.0000,  0.0000,  2.0000)
   1 Co    10.786221    1.792513    1.813624    ( 0.0000,  0.0000,  0.0000)
   2 Fe     1.744156    0.036560    1.851269    ( 0.0000,  0.0000,  1.5000)
   3 Al     1.736571    1.831142   10.798805    ( 0.0000,  0.0000,  0.0000)
   4 Fe     3.575126    0.057318    0.061759    ( 0.0000,  0.0000,  0.0000)
   5 Co     3.594289    1.817617    1.845577    ( 0.0000,  0.0000,  2.0000)
   6 Fe     5.429813   10.817005    1.865054    ( 0.0000,  0.0000,  1.5000)
   7 Cr     5.429608    1.929425    0.057134    ( 0.0000,  0.0000,  0.0000)
   8 Co     7.316909   10.723332    0.087382    ( 0.0000,  0.0000,  0.0000)
   9 Al     7.263142    1.825786    1.869404    ( 0.0000,  0.0000,  2.1000)
  10 Ni     9.063554    0.025226    1.863474    ( 0.0000,  0.0000,  1.5000)
  11 Ni     9.049217    1.829703    0.033106    ( 0.0000,  0.0000,  2.1000)
  12 Ni     0.004792    3.558981   10.794801    ( 0.0000,  0.0000,  1.5000)
  13 Al    10.759710    5.390697    1.778165    ( 0.0000,  0.0000,  0.0000)
  14 Fe     1.733585    3.561849    1.761112    ( 0.0000,  0.0000,  2.0000)
  15 Fe     1.776899    5.391834   10.795505    ( 0.0000,  0.0000,  0.0000)
  16 Co     3.565452    3.619360   10.832619    ( 0.0000,  0.0000,  2.1000)
  17 Co     3.633221    5.394614    1.719551    ( 0.0000,  0.0000,  0.0000)
  18 Ni     5.471624    3.659114    1.836033    ( 0.0000,  0.0000,  2.1000)
  19 Fe     5.440212    5.373060   -0.002773    ( 0.0000,  0.0000,  2.0000)
  20 Ni     7.258997    3.609080    0.031294    ( 0.0000,  0.0000,  0.0000)
  21 Fe     7.268941    5.378362    1.785274    ( 0.0000,  0.0000,  2.0000)
  22 Al     9.030724    3.577636    1.833728    ( 0.0000,  0.0000,  2.1000)
  23 Co     9.040420    5.372281   10.801110    ( 0.0000,  0.0000,  0.0000)
  24 Fe    10.791663    7.196206   10.792486    ( 0.0000,  0.0000,  1.5000)
  25 Co    10.758434    9.040387    1.848239    ( 0.0000,  0.0000,  0.0000)
  26 Cr     1.690487    7.202493    1.786032    ( 0.0000,  0.0000,  0.0000)
  27 Ni     1.652691    8.981047    0.027217    ( 0.0000,  0.0000,  0.0000)
  28 Al     3.631241    7.164437    0.034633    ( 0.0000,  0.0000,  0.0000)
  29 Al     3.625452    9.063759    1.801678    ( 0.0000,  0.0000,  0.0000)
  30 Ni     5.490852    7.187095    1.746342    ( 0.0000,  0.0000,  2.0000)
  31 Cr     5.426935    8.989152    0.009861    ( 0.0000,  0.0000,  2.0000)
  32 Co     7.229122    7.237075   -0.008698    ( 0.0000,  0.0000,  1.5000)
  33 Cr     7.249194    8.995850    1.810713    ( 0.0000,  0.0000,  0.0000)
  34 Cr     9.052073    7.204300    1.764218    ( 0.0000,  0.0000,  2.1000)
  35 Fe     9.092553    8.989639   10.808760    ( 0.0000,  0.0000,  1.5000)
  36 Cr    -0.000975   10.826235    3.639789    ( 0.0000,  0.0000,  1.5000)
  37 Al    10.822772    1.771770    5.422044    ( 0.0000,  0.0000,  2.1000)
  38 Ni     1.754263   10.802084    5.428872    ( 0.0000,  0.0000,  2.1000)
  39 Co     1.741873    1.774270    3.610801    ( 0.0000,  0.0000,  0.0000)
  40 Al     3.591183   10.794152    3.612143    ( 0.0000,  0.0000,  2.0000)
  41 Cr     3.593088    1.736744    5.455177    ( 0.0000,  0.0000,  0.0000)
  42 Al     5.437150   10.794563    5.400804    ( 0.0000,  0.0000,  2.0000)
  43 Fe     5.451931    1.783251    3.601387    ( 0.0000,  0.0000,  1.5000)
  44 Al     7.226222    0.007781    3.626209    ( 0.0000,  0.0000,  0.0000)
  45 Fe     7.236069    1.766512    5.381392    ( 0.0000,  0.0000,  2.1000)
  46 Co     9.034587   10.848850    5.403844    ( 0.0000,  0.0000,  2.1000)
  47 Ni     9.031558    1.804946    3.616730    ( 0.0000,  0.0000,  1.5000)
  48 Ni    10.773885    3.543973    3.617867    ( 0.0000,  0.0000,  1.5000)
  49 Ni    10.772186    5.358409    5.454917    ( 0.0000,  0.0000,  0.0000)
  50 Co     1.757531    3.575678    5.428937    ( 0.0000,  0.0000,  2.1000)
  51 Fe     1.621766    5.386986    3.572550    ( 0.0000,  0.0000,  0.0000)
[...]
  96 Cr    10.763411    7.244682    7.260285    ( 0.0000,  0.0000,  1.5000)
  97 Cr    10.795093    9.034566    8.977574    ( 0.0000,  0.0000,  2.0000)
  98 Co     1.740045    7.178947    8.984662    ( 0.0000,  0.0000,  2.1000)
  99 Fe     1.734429    9.080207    7.236696    ( 0.0000,  0.0000,  1.5000)
 100 Fe     3.580482    7.154277    7.248285    ( 0.0000,  0.0000,  0.0000)
 101 Cr     3.612835    8.970898    8.958086    ( 0.0000,  0.0000,  0.0000)
 102 Al     5.410943    7.155878    9.067049    ( 0.0000,  0.0000,  0.0000)
 103 Fe     5.466441    9.064062    7.220963    ( 0.0000,  0.0000,  2.1000)
 104 Fe     7.307203    7.271549    7.289738    ( 0.0000,  0.0000,  0.0000)
 105 Ni     7.271073    9.044683    9.027879    ( 0.0000,  0.0000,  1.5000)
 106 Cr     9.081743    7.219805    9.041166    ( 0.0000,  0.0000,  2.1000)
 107 Co     9.063684    9.083009    7.213865    ( 0.0000,  0.0000,  2.0000)

Unit cell:
           periodic     x           y           z      points  spacing
  1. axis:    yes   10.820500    0.000000    0.000000    48     0.2254
  2. axis:    yes    0.000000   10.820500    0.000000    48     0.2254
  3. axis:    yes    0.000000    0.000000   10.820500    48     0.2254

  Lengths:  10.820500  10.820500  10.820500
  Angles:   90.000000  90.000000  90.000000

Effective grid spacing dv^(1/3) = 0.2254

     iter     time        total  log10-change:  magmom
                         energy  eigst   dens
iter:   1 00:16:26  -895.371822                  +128.4417
iter:   2 00:17:52  -865.447383  -0.40  -1.31    +96.2200
iter:   3 00:19:19  -844.153627  -0.94  -1.29    +68.3370
iter:   4 00:20:46  -833.169526  -1.26  -1.38    +58.4510
iter:   5 00:22:15  -826.197054  -1.85  -1.40    +53.7291
iter:   6 00:23:43  -827.516661  -1.98  -1.47    +51.4203
iter:   7 00:25:10  -825.829672  -1.67  -1.50    +50.0605
iter:   8 00:26:36  -824.640751  -1.80  -1.56    +50.0308
iter:   9 00:28:04  -827.700187  -1.83  -1.66    +50.2430
iter:  10 00:29:31  -823.112240  -2.06  -1.68    +49.7888
iter:  11 00:30:58  -823.555350  -2.39  -1.82    +50.4846
iter:  12 00:32:25  -823.191732  -2.47  -1.85    +51.1546
iter:  13 00:33:54  -823.238846  -2.72  -1.91    +52.1675
iter:  14 00:35:22  -823.767322  -2.62  -1.98    +52.9430
iter:  15 00:36:50  -823.918161  -2.80  -2.04    +53.7256
iter:  16 00:38:16  -824.155899  -2.79  -2.07    +54.6849
iter:  17 00:39:44  -823.907445  -3.09  -2.12    +54.9850
iter:  18 00:41:11  -824.231173  -3.13  -2.20    +55.9914
iter:  19 00:42:39  -824.230173  -3.18  -2.22    +56.5653
iter:  20 00:44:06  -824.431600  -3.09  -2.29    +57.1334
iter:  21 00:45:33  -824.592930  -3.22  -2.36    +57.5476
iter:  22 00:47:02  -824.588643  -3.31  -2.36    +57.8129
iter:  23 00:48:29  -824.703134  -3.41  -2.45    +57.9947
iter:  24 00:49:56  -824.839395  -3.39  -2.50    +58.0766
iter:  25 00:51:23  -824.833436  -3.80  -2.50    +58.1673
iter:  26 00:52:49  -824.940696  -3.68  -2.57    +58.1185
iter:  27 00:54:17  -825.048072  -3.69  -2.58    +58.0553
iter:  28 00:55:44  -825.047699  -3.87  -2.57    +58.0424
iter:  29 00:57:11  -825.098005c -3.87  -2.64    +57.9197
iter:  30 00:58:38  -825.154747  -4.09  -2.70    +57.8112
iter:  31 01:00:05  -825.169993c -4.16  -2.71    +57.7431
iter:  32 01:01:33  -825.246035c -4.10  -2.78    +57.5419
iter:  33 01:02:59  -825.249382c -4.46  -2.76    +57.5123
iter:  34 01:04:28  -825.334537c -4.10  -2.84    +57.2674
iter:  35 01:05:55  -825.308790c -4.66  -2.85    +57.3627
iter:  36 01:07:23  -825.358756c -4.35  -2.91    +57.2757
iter:  37 01:08:50  -825.382419c -4.50  -2.91    +57.1993
iter:  38 01:10:17  -825.449814c -4.20  -2.95    +56.9749
iter:  39 01:11:45  -825.486136  -4.45  -2.95    +56.9166
iter:  40 01:13:12  -825.654230  -3.51  -2.97    +56.5216
iter:  41 01:14:41  -825.844292  -3.34  -2.88    +56.1339
iter:  42 01:16:09  -825.917462  -3.67  -2.71    +56.0040
iter:  43 01:17:36  -826.023336  -3.44  -2.67    +55.8317
iter:  44 01:19:04  -826.019307  -4.47  -2.59    +55.8793
iter:  45 01:20:32  -826.041665c -4.42  -2.60    +55.8822
iter:  46 01:21:59  -826.115078  -4.30  -2.59    +55.8641
iter:  47 01:23:27  -826.018277  -3.91  -2.57    +55.8313
iter:  48 01:24:54  -826.109788  -3.26  -2.57    +55.7977
iter:  49 01:26:22  -825.966216  -3.44  -2.48    +55.5994
iter:  50 01:27:50  -825.995880  -3.53  -2.58    +55.4187
iter:  51 01:29:17  -825.931247c -3.65  -2.62    +55.4426
iter:  52 01:30:47  -825.888535  -4.07  -2.68    +55.2252
iter:  53 01:32:15  -825.892311c -4.28  -2.80    +55.0874
iter:  54 01:33:44  -825.905300c -4.27  -2.83    +55.0361
iter:  55 01:35:14  -825.914649c -4.17  -2.84    +55.0208
iter:  56 01:36:43  -825.906572c -4.39  -2.82    +54.9289
iter:  57 01:38:10  -825.925469c -4.25  -2.91    +54.8119
iter:  58 01:39:38  -825.920249c -4.16  -2.92    +54.8219
iter:  59 01:41:06  -825.914853c -4.35  -2.91    +54.8134
iter:  60 01:42:31  -825.911265c -4.51  -2.98    +54.7470
iter:  61 01:43:54  -825.915569c -4.56  -3.03    +54.6986
iter:  62 01:45:20  -825.908467c -4.92  -3.04    +54.7037
iter:  63 01:46:45  -825.907701c -5.18  -3.13    +54.7171
iter:  64 01:48:10  -825.911018c -5.44  -3.17    +54.6907
iter:  65 01:49:35  -825.914353c -5.28  -3.19    +54.6662
iter:  66 01:51:01  -825.922361c -4.65  -3.19    +54.6353
iter:  67 01:52:26  -825.936250c -4.72  -3.15    +54.6639
iter:  68 01:53:52  -825.925814c -4.67  -3.06    +54.6441
iter:  69 01:55:18  -825.927640c -4.91  -3.22    +54.6818
iter:  70 01:56:44  -825.923011c -5.05  -3.28    +54.7090
iter:  71 01:58:10  -825.923623c -4.84  -3.31    +54.7592
iter:  72 01:59:33  -825.920438c -5.42  -3.39    +54.7682
iter:  73 02:00:57  -825.923821c -5.23  -3.60    +54.8137
iter:  74 02:02:23  -825.921371c -5.62  -3.48    +54.8276
iter:  75 02:03:50  -825.921852c -5.91  -3.68    +54.8491
iter:  76 02:05:15  -825.922887c -6.16  -3.70    +54.8763
iter:  77 02:06:42  -825.923041c -5.98  -3.74    +54.9191
iter:  78 02:08:09  -825.923238c -6.39  -3.74    +54.9190
iter:  79 02:09:35  -825.924027c -6.05  -3.76    +54.9474
iter:  80 02:11:00  -825.924215c -6.14  -3.88    +54.9606
iter:  81 02:12:25  -825.924884c -6.06  -3.91    +54.9937
iter:  82 02:13:50  -825.925176c -6.49  -3.98    +55.0000
iter:  83 02:15:15  -825.926351c -6.10  -4.04c   +55.0459
iter:  84 02:16:41  -825.925744c -6.59  -4.06c   +55.0237
iter:  85 02:18:07  -825.925558c -6.63  -4.03c   +55.0240
iter:  86 02:19:31  -825.926764c -6.33  -4.09c   +55.0590
iter:  87 02:20:58  -825.927366c -6.26  -4.14c   +55.0845
iter:  88 02:22:24  -825.927962c -6.39  -4.09c   +55.1032
iter:  89 02:23:51  -825.928278c -6.38  -4.15c   +55.1138
iter:  90 02:25:17  -825.929119c -6.45  -4.10c   +55.1471
iter:  91 02:26:44  -825.931020c -5.80  -4.20c   +55.2191
iter:  92 02:28:10  -825.921473c -4.48  -4.15c   +54.8259
iter:  93 02:29:37  -825.918349c -4.15  -4.03c   +54.3154
iter:  94 02:31:01  -825.919472c -5.49  -3.66    +54.4431
iter:  95 02:32:28  -825.919605c -5.78  -3.71    +54.4998
iter:  96 02:33:54  -825.919572c -6.07  -3.75    +54.5357
iter:  97 02:35:21  -825.919229c -6.31  -3.78    +54.5298
iter:  98 02:36:48  -825.917931c -5.79  -3.74    +54.5473
iter:  99 02:38:13  -825.918061c -6.86  -3.72    +54.5617
iter: 100 02:39:40  -825.918815c -5.72  -3.80    +54.5981
iter: 101 02:41:07  -825.919809c -5.25  -3.61    +54.5770
iter: 102 02:42:34  -825.918473c -5.50  -3.50    +54.6165
iter: 103 02:44:00  -825.917803c -5.94  -3.74    +54.6532
iter: 104 02:45:26  -825.917380c -6.22  -4.01c   +54.6657
iter: 105 02:46:54  -825.918206c -6.27  -3.98    +54.6745
iter: 106 02:48:20  -825.918298c -6.29  -4.08c   +54.7031
iter: 107 02:49:47  -825.918530c -6.53  -4.08c   +54.7185
iter: 108 02:51:13  -825.918558c -6.63  -4.23c   +54.7349
iter: 109 02:52:39  -825.918697c -7.14  -4.20c   +54.7309
iter: 110 02:54:05  -825.919102c -6.37  -4.33c   +54.7464
iter: 111 02:55:32  -825.918981c -6.26  -4.27c   +54.7566
iter: 112 02:56:57  -825.919426c -6.49  -4.29c   +54.7831
iter: 113 02:58:25  -825.918347c -5.96  -4.29c   +54.7075
iter: 114 02:59:51  -825.915931c -4.48  -4.31c   +54.3235
iter: 115 03:01:18  -825.916138c -5.36  -3.80    +54.2869
iter: 116 03:02:45  -825.916746c -5.70  -3.78    +54.2630
iter: 117 03:04:11  -825.916343c -6.31  -3.75    +54.2791
iter: 118 03:05:40  -825.916368c -6.64  -3.78    +54.2874
iter: 119 03:07:07  -825.917450c -5.66  -3.79    +54.3039
iter: 120 03:08:35  -825.918217c -5.25  -3.57    +54.2943
iter: 121 03:10:02  -825.916909c -5.31  -3.47    +54.3216
iter: 122 03:11:28  -825.915389c -5.46  -3.60    +54.3394
iter: 123 03:12:56  -825.915363c -5.90  -3.62    +54.3407
iter: 124 03:14:23  -825.915166c -6.11  -3.90    +54.3554
iter: 125 03:15:49  -825.914766c -6.07  -3.98    +54.3656
iter: 126 03:17:17  -825.915420c -6.10  -3.89    +54.3773
iter: 127 03:18:44  -825.915002c -6.15  -3.94    +54.3859
iter: 128 03:20:11  -825.915161c -6.44  -3.97    +54.3947
iter: 129 03:21:40  -825.914689c -6.34  -4.15c   +54.4127
iter: 130 03:23:07  -825.914910c -6.87  -4.04c   +54.4153
iter: 131 03:24:34  -825.915096c -6.78  -4.30c   +54.4298
iter: 132 03:26:02  -825.914993c -7.23  -4.29c   +54.4324
iter: 133 03:27:29  -825.915128c -6.83  -4.32c   +54.4464
iter: 134 03:28:54  -825.915160c -7.21  -4.34c   +54.4506
iter: 135 03:30:20  -825.915559c -6.80  -4.40c   +54.4623
iter: 136 03:31:46  -825.915300c -6.95  -4.32c   +54.4724
iter: 137 03:33:10  -825.915380c -6.99  -4.45c   +54.4847
iter: 138 03:34:34  -825.915451c -7.41c -4.47c   +54.4868

Converged after 138 iterations.

Dipole moment: (28.468954, -2.570649, -10.602588) |e|*Ang

Total magnetic moment: (0.000000, 0.000000, 54.486759)
Local magnetic moments:
   0 Fe ( 0.000000,  0.000000,  2.202537)
   1 Co ( 0.000000,  0.000000,  1.306399)
   2 Fe ( 0.000000,  0.000000,  2.301060)
   3 Al ( 0.000000,  0.000000, -0.044237)
   4 Fe ( 0.000000,  0.000000,  2.399199)
   5 Co ( 0.000000,  0.000000,  1.420991)
   6 Fe ( 0.000000,  0.000000,  1.973711)
   7 Cr ( 0.000000,  0.000000, -2.370948)
   8 Co ( 0.000000,  0.000000,  0.885768)
   9 Al ( 0.000000,  0.000000, -0.009326)
  10 Ni ( 0.000000,  0.000000,  0.153723)
  11 Ni ( 0.000000,  0.000000,  0.083429)
  12 Ni ( 0.000000,  0.000000,  0.206048)
  13 Al ( 0.000000,  0.000000, -0.032815)
  14 Fe ( 0.000000,  0.000000,  2.338068)
  15 Fe ( 0.000000,  0.000000,  2.065709)
  16 Co ( 0.000000,  0.000000,  1.318588)
  17 Co ( 0.000000,  0.000000,  1.081009)
  18 Ni ( 0.000000,  0.000000,  0.269479)
  19 Fe ( 0.000000,  0.000000,  2.300320)
  20 Ni ( 0.000000,  0.000000,  0.068798)
  21 Fe ( 0.000000,  0.000000,  2.280669)
  22 Al ( 0.000000,  0.000000, -0.019340)
  23 Co ( 0.000000,  0.000000,  0.848328)
  24 Fe ( 0.000000,  0.000000,  1.673126)
  25 Co ( 0.000000,  0.000000,  0.868228)
  26 Cr ( 0.000000,  0.000000, -1.917494)
  27 Ni ( 0.000000,  0.000000,  0.097349)
  28 Al ( 0.000000,  0.000000, -0.008625)
  29 Al ( 0.000000,  0.000000, -0.034492)
  30 Ni ( 0.000000,  0.000000,  0.310387)
  31 Cr ( 0.000000,  0.000000,  1.639885)
  32 Co ( 0.000000,  0.000000,  0.947743)
  33 Cr ( 0.000000,  0.000000, -1.379588)
  34 Cr ( 0.000000,  0.000000, -1.725256)
  35 Fe ( 0.000000,  0.000000,  1.876917)
  36 Cr ( 0.000000,  0.000000, -1.312314)
  37 Al ( 0.000000,  0.000000, -0.023239)
  38 Ni ( 0.000000,  0.000000,  0.087255)
  39 Co ( 0.000000,  0.000000,  1.138777)
  40 Al ( 0.000000,  0.000000, -0.029458)
  41 Cr ( 0.000000,  0.000000, -2.037472)
  42 Al ( 0.000000,  0.000000, -0.021706)
  43 Fe ( 0.000000,  0.000000,  1.868095)
  44 Al ( 0.000000,  0.000000, -0.031521)
  45 Fe ( 0.000000,  0.000000,  1.879013)
  46 Co ( 0.000000,  0.000000,  0.911931)
  47 Ni ( 0.000000,  0.000000,  0.135690)
  48 Ni ( 0.000000,  0.000000,  0.351511)
  49 Ni ( 0.000000,  0.000000,  0.254917)
  50 Co ( 0.000000,  0.000000,  1.272355)
  51 Fe ( 0.000000,  0.000000,  2.318407)
  52 Co ( 0.000000,  0.000000,  1.179893)
  53 Cr ( 0.000000,  0.000000, -1.933235)
  54 Cr ( 0.000000,  0.000000, -0.242454)
  55 Cr ( 0.000000,  0.000000,  1.245691)
  56 Cr ( 0.000000,  0.000000, -1.605562)
  57 Fe ( 0.000000,  0.000000,  2.268130)
  58 Co ( 0.000000,  0.000000,  1.094672)
  59 Co ( 0.000000,  0.000000,  1.060843)
[...]
  93 Ni ( 0.000000,  0.000000,  0.311580)
  94 Cr ( 0.000000,  0.000000,  1.459432)
  95 Al ( 0.000000,  0.000000, -0.012697)
  96 Cr ( 0.000000,  0.000000,  1.173463)
  97 Cr ( 0.000000,  0.000000, -0.871213)
  98 Co ( 0.000000,  0.000000,  0.147774)
  99 Fe ( 0.000000,  0.000000,  2.012819)
 100 Fe ( 0.000000,  0.000000,  1.879128)
 101 Cr ( 0.000000,  0.000000, -2.264154)
 102 Al ( 0.000000,  0.000000, -0.026065)
 103 Fe ( 0.000000,  0.000000,  2.136774)
 104 Fe ( 0.000000,  0.000000,  2.432985)
 105 Ni ( 0.000000,  0.000000,  0.267599)
 106 Cr ( 0.000000,  0.000000, -1.465597)
 107 Co ( 0.000000,  0.000000,  0.967546)

Energy contributions relative to reference atoms: (reference = -3382523.201499)

Kinetic:       +223.323467
Potential:     -231.236889
External:        +0.000000
XC:            -849.216159
Entropy (-ST):   -4.176306
Local:          +33.302283
Free energy:   -828.003604
Extrapolated:  -825.915451

Spin contamination: 32.293938 electrons
Showing only first 2 kpts
                      Up                     Down
 Kpt  Band  Eigenvalues  Occupancy  Eigenvalues  Occupancy
  0   470      9.16111    0.99490     10.01738    0.03593
  0   471      9.17160    0.99434     10.02348    0.03388
  0   472      9.19314    0.99299     10.03087    0.03154
  0   473      9.22006    0.99084     10.05349    0.02532

  1   470      9.15114    0.99538     10.01992    0.03506
  1   471      9.17397    0.99420     10.02587    0.03310
  1   472      9.20082    0.99243     10.04889    0.02648
  1   473      9.20600    0.99203     10.06509    0.02261

Fermi level: 9.68843

No gap

Forces in eV/Ang:
  0 Fe    0.08911   -0.55642    0.15460
  1 Co    0.48880   -0.27240    0.10221
  2 Fe   -0.12992   -0.00839   -0.40193
  3 Al    0.32836   -0.11415   -0.29369
  4 Fe    0.12829   -0.06292   -0.71872
  5 Co    0.07780    0.34488   -0.23671
  6 Fe    0.22845    0.28023   -0.82020
  7 Cr   -1.09570   -0.89617   -0.81468
  8 Co   -0.53703    0.40667   -0.50666
  9 Al   -0.22080   -0.66983   -1.39029
 10 Ni   -0.18269   -0.24468   -0.26815
 11 Ni   -0.26382   -0.29082   -0.42981
 12 Ni   -0.31151    0.51645    0.05467
 13 Al    0.36846   -0.35890   -0.28319
 14 Fe    0.73554    0.05831    0.96753
 15 Fe   -0.03908   -0.08109   -0.02672
 16 Co    0.48421   -0.03589    0.36982
 17 Co   -0.32926   -0.48479    0.64224
 18 Ni   -0.60640   -0.22412   -0.01255
 19 Fe    0.07239   -0.54487    0.31235
 20 Ni   -0.14651   -0.09988   -0.41667
 21 Fe    0.27556    0.59645    0.08885
 22 Al    0.65688   -0.08456   -0.63044
 23 Co   -0.35449    0.51696   -0.43619
 24 Fe    0.30061    0.08388   -0.11988
 25 Co    0.30435   -0.03268   -0.17734
 26 Cr   -0.66238    0.13892    0.10911
 27 Ni    0.78050    0.42205   -0.32526
 28 Al   -1.02585    0.13388    0.30975
 29 Al   -0.53667    0.27467   -0.95742
 30 Ni   -0.18256    0.13693    0.51507
 31 Cr    0.90764    1.09934   -0.47676
 32 Co    0.56800   -0.30303    0.05079
 33 Cr   -0.04195    0.03048   -0.48979
 34 Cr   -0.54280    0.35201   -0.05832
 35 Fe   -0.43509    0.10668    0.23282
 36 Cr    0.05149   -0.76272   -0.94069
 37 Al   -0.21655    0.13974   -0.25807
 38 Ni    0.29937    0.00313    0.09117
 39 Co    0.36090    0.64725   -0.21105
 40 Al   -0.68703    1.16732   -0.36626
 41 Cr   -0.51043    1.50865    0.08278
 42 Al    0.36335    0.06169    0.89732
 43 Fe   -0.62809    0.60896    0.09177
 44 Al    0.99389   -0.23807    0.07352
 45 Fe    0.41450    0.89113    0.56318
 46 Co   -0.13232   -0.39457    0.00614
 47 Ni   -0.06665   -0.14698    0.08199
 48 Ni    0.56092    0.33399   -0.02624
 49 Ni    0.28005    0.13607   -0.37770
 50 Co    0.65705    0.28004   -0.27513
 51 Fe    1.26948   -0.17139    0.33473
 52 Co   -0.28108   -0.06641    0.24127
 53 Cr   -0.18318   -0.95342   -0.11410
 54 Cr    0.04903    0.27059    0.24716
 55 Cr   -0.41792   -0.57895    0.04126
 56 Cr   -0.73241    0.62403    1.26869
 57 Fe    0.36325   -0.12796    0.06040
 58 Co   -0.59862    0.18786    0.20649
 59 Co   -0.30879    0.44346    0.51559
[...]
 93 Ni    0.33310   -0.13712   -0.23133
 94 Cr    0.24079    0.32267    0.60685
 95 Al   -1.35242   -0.19472   -0.91806
 96 Cr   -0.04240    0.26646    0.81776
 97 Cr    0.67086    0.22699    0.28660
 98 Co    0.22617    0.19202   -0.14893
 99 Fe    0.43745    0.13133    0.32910
100 Fe   -0.49398    0.44813    0.06377
101 Cr   -0.61054    1.00322    0.32291
102 Al    1.37767    0.10896   -1.21073
103 Fe   -0.23100   -0.40336    0.40626
104 Fe   -0.03593   -0.01837   -0.47139
105 Ni    0.07119    0.22889    0.07778
106 Cr   -0.95515    0.17885    0.46921
107 Co   -0.36856   -0.12704   -0.08889

Date: Sat Apr 15 03:34:54 2023