User:   c.zeng@d0033
Date:   Sat Apr 15 10:42:45 2023
Arch:   x86_64
Pid:    285744
CWD:    /home/c.zeng/projects/hea-corrosion/hea-mlp/data-curation/bulk-mcmc/dft-jobs/26
Python: 3.8.1
gpaw:   /home/c.zeng/usr/installs/gpaw/source/gpaw-22.8.0/gpaw
_gpaw:  /home/c.zeng/usr/installs/gpaw/source/gpaw-22.8.0/
        _gpaw.cpython-38-x86_64-linux-gnu.so
ase:    /home/c.zeng/.local/lib/python3.8/site-packages/ase-3.22.1-py3.8.egg/ase (version 3.22.1)
numpy:  /shared/centos7/python/3.8.1/lib/python3.8/site-packages/numpy (version 1.17.4)
scipy:  /shared/centos7/python/3.8.1/lib/python3.8/site-packages/scipy (version 1.4.1)
units:  Angstrom and eV
cores: 30
OpenMP: False
OMP_NUM_THREADS: 1

Input parameters:
  convergence: {energy: 0.0001}
  kpts: [2 2 2]
  maxiter: 666
  mode: {ecut: 350.0,
         name: pw}
  occupations: {fixmagmom: False,
                name: fermi-dirac,
                width: 0.1}
  spinpol: True
  xc: PBE

System changes: positions, numbers, cell, pbc, initial_charges, initial_magmoms

Initialize ...

species:
  Co:
    name: Cobalt
    id: 339d20d5b0b93d2de9531a1bee871d91
    Z: 27.0
    valence: 9
    core: 18
    charge: 0.0
    file: /home/c.zeng/usr/data/gpaw-setups-0.9.20000/Co.PBE.gz
    compensation charges: {type: gauss,
                           rc: 0.32,
                           lmax: 2}
    cutoffs: {filter: 1.87,
              core: 2.55}
    valence states:
      #              energy  rcut
      - 4s(2.00)    -5.469   1.005
      - 4p(0.00)    -1.277   1.058
      - 3d(7.00)    -8.205   1.005
      -  s          21.742   1.005
      -  p          25.934   1.058
      -  d          19.007   1.005

    # Using partial waves for Co as LCAO basis

  Fe:
    name: Iron
    id: 37abbd8d6c3c35915a9b583b742da910
    Z: 26.0
    valence: 8
    core: 18
    charge: 0.0
    file: /home/c.zeng/usr/data/gpaw-setups-0.9.20000/Fe.PBE.gz
    compensation charges: {type: gauss,
                           rc: 0.33,
                           lmax: 2}
    cutoffs: {filter: 2.06,
              core: 2.67}
    valence states:
      #              energy  rcut
      - 4s(2.00)    -5.291   1.164
      - 4p(0.00)    -1.326   1.058
      - 3d(6.00)    -7.505   1.058
      -  s          21.920   1.164
      -  p          25.885   1.058
      -  d          19.706   1.058

[...]

  Ni:
    name: Nickel
    id: 0d9f38a9d6e76a2886f07bb4381f212b
    Z: 28.0
    valence: 16
    core: 12
    charge: 0.0
    file: /home/c.zeng/usr/data/gpaw-setups-0.9.20000/Ni.PBE.gz
    compensation charges: {type: gauss,
                           rc: 0.36,
                           lmax: 2}
    cutoffs: {filter: 2.14,
              core: 1.98}
    valence states:
      #              energy  rcut
      - 4s(2.00)    -5.642   1.164
      - 3p(6.00)   -71.394   1.207
      - 4p(0.00)    -1.226   1.207
      - 3d(8.00)    -8.875   1.138
      -  s          21.570   1.164
      -  d          18.337   1.138

[...]

  Cr:
    name: Chromium
    id: 33f258bda2ca9f93018e70263a35547b
    Z: 24.0
    valence: 6
    core: 18
    charge: 0.0
    file: /home/c.zeng/usr/data/gpaw-setups-0.9.20000/Cr.PBE.gz
    compensation charges: {type: gauss,
                           rc: 0.35,
                           lmax: 2}
    cutoffs: {filter: 2.14,
              core: 3.04}
    valence states:
      #              energy  rcut
      - 4s(1.00)    -4.007   1.164
      - 4p(0.00)    -0.989   1.217
      - 3d(5.00)    -2.913   1.111
      -  s          23.205   1.164
      -  p          26.223   1.217
      -  d          24.299   1.111

    # Using partial waves for Cr as LCAO basis

Reference energy: -3846758.590871  # eV

Spin-polarized calculation.
Magnetic moment: 151.200000

Convergence criteria:
 Maximum [total energy] change in last 3 cyles: 0.0001 eV / electron
 Maximum integral of absolute [dens]ity change: 0.0001 electrons / valence electron
 Maximum integral of absolute [eigenst]ate change: 4e-08 eV^2 / valence electron
 Maximum number of scf [iter]ations: 666
 (Square brackets indicate name in SCF output, whereas a 'c' in
 the SCF output indicates the quantity has converged.)

Symmetries present (total): 1

  ( 1  0  0)
  ( 0  1  0)
  ( 0  0  1)

8 k-points: 2 x 2 x 2 Monkhorst-Pack grid
4 k-points in the irreducible part of the Brillouin zone
       k-points in crystal coordinates                weights
   0:     0.25000000   -0.25000000   -0.25000000          2/8
   1:     0.25000000   -0.25000000    0.25000000          2/8
   2:     0.25000000    0.25000000   -0.25000000          2/8
   3:     0.25000000    0.25000000    0.25000000          2/8

Wave functions: Plane wave expansion
  Cutoff energy: 350.000 eV
  Number of coefficients (min, max): 17755, 17755
  Pulay-stress correction: 0.000000 eV/Ang^3 (de/decut=0.000000)
  Using FFTW library
  ScaLapack parameters: grid=1x1, blocksize=None
  Wavefunction extrapolation:
    Improved wavefunction reuse through dual PAW basis

Occupation numbers: Fermi-Dirac:
  width: 0.1000  # eV

Eigensolver
   Davidson(niter=2)

Densities:
  Coarse grid: 48*48*48 grid
  Fine grid: 96*96*96 grid
  Total Charge: 0.000000

Density mixing:
  Method: difference
  Backend: pulay
  Linear mixing parameter: 0.05
  old densities: 5
  Damping of long wavelength oscillations: 50

Hamiltonian:
  XC and Coulomb potentials evaluated on a 96*96*96 grid
  Using the PBE Exchange-Correlation functional
  External potential:
    NoExternalPotential

XC parameters: PBE with 2 nearest neighbor stencil

Total number of cores used: 30
Parallelization over k-points: 2
Domain decomposition: 5 x 3 x 1

Number of atoms: 108
Number of atomic orbitals: 1053
Number of bands in calculation: 727
Number of valence electrons: 1053
Bands to converge: occupied

... initialized

Initializing position-dependent things.

Density initialized from atomic densities
Creating initial wave functions:
  727 bands from LCAO basis set

       /|  Ni       Cr      Cr    |
      / |   CrFe     Ni           |
     /  |       Co      Fe       Fe
    /   |Ni      CFe       Co     Cr
   /    | Co       Cr       CFe   |
  /  CCo|  FeCr     CoCr          |
 *    NiCr    FeNi   FeCrCo       |
 |      |CoCr   FeFeNi  CoNiFe   Ni
 |      | CrCo     CoCrFeCrCrCr   |
 |    Co|  CoFeNi   CoNiFe   NiCo |
 |      Cr    NiNiCr NiNiCr     Ni|
 |      |FeFe  CoFeCr   FeNiFe   Ni
 |      .-FeCo-----NiNiFe--CrCr---Co
 |   Cro     Fe       Cr         /
 |    NiCo     Cor     CNie     /
 |   /    Co               Cr  /
 |  /      Fe       Fe    NiFe/
 | / Fe     Ni       NiNi    /
 |/            Co       Cr  /
 *--------Co------Co-------*

Positions:
   0 Co    -0.012479   -0.003723   10.616104    ( 0.0000,  0.0000,  2.1000)
   1 Fe    -0.011321    1.761305    1.763386    ( 0.0000,  0.0000,  2.1000)
   2 Fe     1.758365    0.001326    1.769011    ( 0.0000,  0.0000,  2.0000)
   3 Co     1.752686    1.779222   10.610436    ( 0.0000,  0.0000,  2.0000)
   4 Co     3.541196    0.004726   10.616104    ( 0.0000,  0.0000,  0.0000)
   5 Fe     3.534711    1.782438    1.778999    ( 0.0000,  0.0000,  0.0000)
   6 Ni     5.305717   10.600629    1.767950    ( 0.0000,  0.0000,  2.1000)
   7 Co     5.324780    1.765604   10.614618    ( 0.0000,  0.0000,  0.0000)
   8 Co     7.089121    0.014598   10.619926    ( 0.0000,  0.0000,  2.0000)
   9 Fe     7.085279    1.771219    1.773543    ( 0.0000,  0.0000,  1.5000)
  10 Ni     8.850554    0.011470    1.768756    ( 0.0000,  0.0000,  1.5000)
  11 Cr     8.842381    1.777333   10.615680    ( 0.0000,  0.0000,  2.1000)
  12 Fe    10.590535    3.538203   -0.001956    ( 0.0000,  0.0000,  0.0000)
  13 Ni    10.624277    5.310674    1.769786    ( 0.0000,  0.0000,  2.0000)
  14 Co     1.761379    3.535623    1.784572    ( 0.0000,  0.0000,  0.0000)
  15 Ni     1.770200    5.301408   10.611753    ( 0.0000,  0.0000,  2.0000)
  16 Ni     3.556003    3.551407   10.618333    ( 0.0000,  0.0000,  1.5000)
  17 Fe     3.539370    5.311290    1.775199    ( 0.0000,  0.0000,  2.1000)
  18 Cr     5.320142    3.545059    1.779678    ( 0.0000,  0.0000,  1.5000)
  19 Fe     5.306980    5.314654   10.602720    ( 0.0000,  0.0000,  0.0000)
  20 Ni     7.081585    3.529127   10.614725    ( 0.0000,  0.0000,  2.1000)
  21 Cr     7.069241    5.303361    1.781271    ( 0.0000,  0.0000,  1.5000)
  22 Fe     8.841447    3.542671    1.781600    ( 0.0000,  0.0000,  2.1000)
  23 Ni     8.850893    5.290379    0.000220    ( 0.0000,  0.0000,  0.0000)
  24 Ni     0.005868    7.083411   10.614937    ( 0.0000,  0.0000,  2.0000)
  25 Ni    10.601043    8.849694    1.772960    ( 0.0000,  0.0000,  2.1000)
  26 Fe     1.773713    7.072329    1.777184    ( 0.0000,  0.0000,  0.0000)
  27 Ni     1.755520    8.842943   10.608324    ( 0.0000,  0.0000,  0.0000)
  28 Fe     3.544009    7.063116   10.610489    ( 0.0000,  0.0000,  2.0000)
  29 Co     3.542225    8.826820    1.785580    ( 0.0000,  0.0000,  0.0000)
  30 Ni     5.309835    7.081776    1.776600    ( 0.0000,  0.0000,  2.1000)
  31 Cr     5.331945    8.840321   10.604673    ( 0.0000,  0.0000,  2.1000)
  32 Co     7.068434    7.069028   10.623110    ( 0.0000,  0.0000,  0.0000)
  33 Fe     7.083750    8.846796    1.774509    ( 0.0000,  0.0000,  1.5000)
  34 Cr     8.841404    7.058180    1.777173    ( 0.0000,  0.0000,  1.5000)
  35 Cr     8.835524    8.853600   10.611753    ( 0.0000,  0.0000,  0.0000)
  36 Cr    -0.009351   10.618864    3.531070    ( 0.0000,  0.0000,  2.0000)
  37 Fe    10.602508    1.764818    5.300452    ( 0.0000,  0.0000,  1.5000)
  38 Cr     1.756720    0.001379    5.295867    ( 0.0000,  0.0000,  0.0000)
  39 Co     1.766506    1.767154    3.539222    ( 0.0000,  0.0000,  2.0000)
  40 Co     3.539742    0.013881    3.542873    ( 0.0000,  0.0000,  2.0000)
  41 Fe     3.548944    1.788658    5.306237    ( 0.0000,  0.0000,  2.1000)
  42 Fe     5.320174   -0.004685    5.301386    ( 0.0000,  0.0000,  0.0000)
  43 Co     5.316862    1.765551    3.538935    ( 0.0000,  0.0000,  2.0000)
  44 Cr     7.081086   -0.000289    3.531325    ( 0.0000,  0.0000,  2.0000)
  45 Cr     7.072902    1.777407    5.300537    ( 0.0000,  0.0000,  2.0000)
  46 Fe     8.840544    0.012372    5.307851    ( 0.0000,  0.0000,  1.5000)
  47 Ni     8.833592    1.767928    3.534318    ( 0.0000,  0.0000,  2.1000)
  48 Cr    -0.004066    3.525285    3.545951    ( 0.0000,  0.0000,  0.0000)
  49 Co    -0.001689    5.317934    5.307787    ( 0.0000,  0.0000,  1.5000)
  50 Cr     1.769043    3.555101    5.297279    ( 0.0000,  0.0000,  2.0000)
  51 Fe     1.773692    5.305929    3.538266    ( 0.0000,  0.0000,  2.1000)
  52 Co     3.542746    3.537364    3.547575    ( 0.0000,  0.0000,  2.1000)
  53 Fe     3.548477    5.306927    5.301153    ( 0.0000,  0.0000,  2.0000)
  54 Ni     5.316246    3.553031    5.303637    ( 0.0000,  0.0000,  2.0000)
  55 Fe     5.303286    5.303531    3.542385    ( 0.0000,  0.0000,  1.5000)
  56 Ni     7.074962    3.533023    3.537215    ( 0.0000,  0.0000,  1.5000)
  57 Ni     7.066046    5.306046    5.300081    ( 0.0000,  0.0000,  2.0000)
  58 Cr     8.834526    3.538160    5.294530    ( 0.0000,  0.0000,  2.1000)
  59 Ni     8.846255    5.300452    3.537672    ( 0.0000,  0.0000,  1.5000)
[...]
  93 Cr     7.071130    5.304220    8.839313    ( 0.0000,  0.0000,  1.5000)
  94 Co     8.837997    3.524669    8.843389    ( 0.0000,  0.0000,  1.5000)
  95 Ni     8.833772    5.299051    7.076862    ( 0.0000,  0.0000,  0.0000)
  96 Ni     0.012168    7.080333    7.083835    ( 0.0000,  0.0000,  1.5000)
  97 Fe    -0.017034    8.848707    8.843941    ( 0.0000,  0.0000,  2.1000)
  98 Co     1.777938    7.075503    8.840194    ( 0.0000,  0.0000,  2.0000)
  99 Fe     1.758800    8.840035    7.069803    ( 0.0000,  0.0000,  0.0000)
 100 Fe     3.549921    7.066194    7.070090    ( 0.0000,  0.0000,  2.1000)
 101 Co     3.553137    8.839111    8.836776    ( 0.0000,  0.0000,  0.0000)
 102 Cr     5.304189    7.079929    8.840215    ( 0.0000,  0.0000,  2.0000)
 103 Co     5.321946    8.832180    7.082997    ( 0.0000,  0.0000,  2.1000)
 104 Cr     7.057077    7.072149    7.064167    ( 0.0000,  0.0000,  1.5000)
 105 Fe     7.082402    8.855500    8.837487    ( 0.0000,  0.0000,  2.1000)
 106 Co     8.846786    7.077881    8.846732    ( 0.0000,  0.0000,  0.0000)
 107 Cr     8.839313    8.848272    7.075153    ( 0.0000,  0.0000,  0.0000)

Unit cell:
           periodic     x           y           z      points  spacing
  1. axis:    yes   10.614300    0.000000    0.000000    48     0.2211
  2. axis:    yes    0.000000   10.614300    0.000000    48     0.2211
  3. axis:    yes    0.000000    0.000000   10.614300    48     0.2211

  Lengths:  10.614300  10.614300  10.614300
  Angles:   90.000000  90.000000  90.000000

Effective grid spacing dv^(1/3) = 0.2211

     iter     time        total  log10-change:  magmom
                         energy  eigst   dens
iter:   1 10:47:07  -957.788303                  +151.1286
iter:   2 10:48:48  -959.298236  -0.53  -1.35    +114.7059
iter:   3 10:50:29  -925.502102  -0.91  -1.32    +86.2818
iter:   4 10:52:10  -895.803068  -1.45  -1.36    +71.2866
iter:   5 10:53:51  -894.351509  -1.89  -1.49    +62.1723
iter:   6 10:55:32  -893.855352  -2.06  -1.50    +56.4037
iter:   7 10:57:13  -900.193846  -1.70  -1.55    +53.7730
iter:   8 10:58:54  -889.480335  -1.88  -1.53    +52.6036
iter:   9 11:00:35  -903.783137  -1.65  -1.72    +51.3749
iter:  10 11:02:16  -888.902603  -1.87  -1.63    +50.3087
iter:  11 11:03:57  -889.161364  -2.29  -1.88    +49.8292
iter:  12 11:05:38  -888.086435  -2.57  -1.90    +50.2320
iter:  13 11:07:19  -888.397713  -2.61  -1.95    +50.4278
iter:  14 11:09:00  -889.071319  -2.78  -1.99    +50.9223
iter:  15 11:10:41  -890.713084  -2.60  -2.01    +51.6202
iter:  16 11:12:22  -890.871548  -2.53  -2.00    +52.1117
iter:  17 11:14:03  -890.119837  -2.61  -2.01    +52.3822
iter:  18 11:15:44  -890.550576  -2.66  -2.09    +53.1343
iter:  19 11:17:26  -890.262683  -2.65  -2.17    +53.6614
iter:  20 11:19:07  -890.288615  -2.93  -2.18    +54.0731
iter:  21 11:20:48  -890.441396  -2.93  -2.26    +55.0933
iter:  22 11:22:29  -890.759745  -2.89  -2.29    +55.7025
iter:  23 11:24:10  -890.160844  -3.22  -2.25    +56.4141
iter:  24 11:25:52  -890.434439  -3.40  -2.46    +57.6393
iter:  25 11:27:33  -890.580589  -3.36  -2.50    +58.5559
iter:  26 11:29:14  -890.587832  -3.70  -2.45    +59.1092
iter:  27 11:30:55  -890.709518  -3.74  -2.54    +59.8403
iter:  28 11:32:37  -890.977989  -3.44  -2.59    +60.8344
iter:  29 11:34:18  -890.885225  -3.65  -2.51    +60.9220
iter:  30 11:35:59  -890.985967c -3.65  -2.66    +61.3319
iter:  31 11:37:41  -891.017487  -3.55  -2.67    +61.5468
iter:  32 11:39:22  -891.059935c -3.72  -2.70    +61.9706
iter:  33 11:41:03  -890.998449c -4.04  -2.71    +62.1812
iter:  34 11:42:44  -891.021022c -4.23  -2.85    +62.3632
iter:  35 11:44:25  -891.019597c -4.50  -2.85    +62.6208
iter:  36 11:46:06  -891.039991c -4.72  -2.92    +62.8647
iter:  37 11:47:47  -891.110951c -4.04  -2.92    +63.4831
iter:  38 11:49:28  -891.107598c -5.01  -2.82    +63.5625
iter:  39 11:51:09  -891.126806c -4.75  -2.83    +63.7984
iter:  40 11:52:49  -891.135261c -4.74  -2.82    +63.9101
iter:  41 11:54:29  -891.137502c -4.78  -2.81    +64.1091
iter:  42 11:56:09  -891.199550c -3.83  -2.83    +64.2483
iter:  43 11:57:49  -891.124898c -4.17  -2.81    +64.2128
iter:  44 11:59:29  -891.130355c -4.71  -2.96    +64.2250
iter:  45 12:01:09  -891.158021c -4.29  -3.01    +64.3154
iter:  46 12:02:50  -891.142472c -4.39  -2.97    +64.3296
iter:  47 12:04:30  -891.151765c -4.34  -3.14    +64.2606
iter:  48 12:06:10  -891.129553c -4.78  -3.04    +64.2863
iter:  49 12:07:50  -891.131646c -4.97  -3.32    +64.3871
iter:  50 12:09:30  -891.132805c -5.40  -3.39    +64.3968
iter:  51 12:11:10  -891.135339c -5.50  -3.41    +64.4190
iter:  52 12:12:50  -891.140933c -5.27  -3.45    +64.4959
iter:  53 12:14:30  -891.166988c -4.17  -3.44    +64.8403
iter:  54 12:16:10  -891.162480c -5.41  -3.24    +64.8034
iter:  55 12:17:50  -891.165286c -5.31  -3.28    +64.8921
iter:  56 12:19:31  -891.163018c -5.31  -3.28    +64.9254
iter:  57 12:21:11  -891.160164c -5.43  -3.36    +64.9695
iter:  58 12:22:50  -891.157827c -5.13  -3.48    +64.9836
iter:  59 12:24:31  -891.159292c -5.76  -3.55    +64.9858
iter:  60 12:26:11  -891.161037c -5.23  -3.58    +64.9963
iter:  61 12:27:50  -891.158315c -5.60  -3.43    +65.0099
iter:  62 12:29:31  -891.158104c -6.07  -3.62    +65.0027
iter:  63 12:31:11  -891.158225c -5.95  -3.67    +65.0085
iter:  64 12:32:50  -891.159355c -5.83  -3.70    +65.0107
iter:  65 12:34:31  -891.158619c -5.90  -3.68    +65.0083
iter:  66 12:36:11  -891.159071c -5.93  -3.75    +65.0214
iter:  67 12:37:51  -891.158926c -5.87  -3.85    +65.0234
iter:  68 12:39:31  -891.158766c -6.14  -3.77    +65.0267
iter:  69 12:41:11  -891.158645c -6.65  -3.94    +65.0270
iter:  70 12:42:51  -891.158508c -6.69  -4.07c   +65.0319
iter:  71 12:44:31  -891.158798c -6.94  -4.03c   +65.0380
iter:  72 12:46:11  -891.158751c -6.98  -4.10c   +65.0402
iter:  73 12:47:51  -891.159111c -6.81  -4.12c   +65.0458
iter:  74 12:49:31  -891.158935c -6.56  -4.12c   +65.0468
iter:  75 12:51:11  -891.158987c -6.62  -4.07c   +65.0516
iter:  76 12:52:51  -891.159370c -6.67  -4.12c   +65.0573
iter:  77 12:54:31  -891.158987c -6.64  -4.19c   +65.0553
iter:  78 12:56:11  -891.159218c -6.77  -4.19c   +65.0617
iter:  79 12:57:50  -891.159103c -7.19  -4.22c   +65.0667
iter:  80 12:59:30  -891.159388c -7.06  -4.38c   +65.0753
iter:  81 13:01:10  -891.159383c -7.21  -4.38c   +65.0738
iter:  82 13:02:50  -891.159342c -7.52c -4.37c   +65.0769

Converged after 82 iterations.

Dipole moment: (6.769429, -2.017040, 0.791542) |e|*Ang

Total magnetic moment: (0.000000, 0.000000, 65.076903)
Local magnetic moments:
   0 Co ( 0.000000,  0.000000,  1.084952)
   1 Fe ( 0.000000,  0.000000,  2.129935)
   2 Fe ( 0.000000,  0.000000,  2.427148)
   3 Co ( 0.000000,  0.000000,  1.022111)
   4 Co ( 0.000000,  0.000000,  1.278794)
   5 Fe ( 0.000000,  0.000000,  2.371686)
   6 Ni ( 0.000000,  0.000000,  0.423610)
   7 Co ( 0.000000,  0.000000,  1.299921)
   8 Co ( 0.000000,  0.000000,  1.011417)
   9 Fe ( 0.000000,  0.000000,  2.291720)
  10 Ni ( 0.000000,  0.000000,  0.204505)
  11 Cr ( 0.000000,  0.000000, -1.651939)
  12 Fe ( 0.000000,  0.000000,  2.205891)
  13 Ni ( 0.000000,  0.000000,  0.325826)
  14 Co ( 0.000000,  0.000000,  1.426736)
  15 Ni ( 0.000000,  0.000000,  0.430382)
  16 Ni ( 0.000000,  0.000000,  0.312119)
  17 Fe ( 0.000000,  0.000000,  2.273816)
  18 Cr ( 0.000000,  0.000000, -1.674696)
  19 Fe ( 0.000000,  0.000000,  1.588805)
  20 Ni ( 0.000000,  0.000000,  0.211925)
  21 Cr ( 0.000000,  0.000000, -1.151953)
  22 Fe ( 0.000000,  0.000000,  2.174475)
  23 Ni ( 0.000000,  0.000000,  0.269804)
  24 Ni ( 0.000000,  0.000000,  0.373070)
  25 Ni ( 0.000000,  0.000000,  0.276221)
  26 Fe ( 0.000000,  0.000000,  2.624534)
  27 Ni ( 0.000000,  0.000000,  0.445880)
  28 Fe ( 0.000000,  0.000000,  1.926134)
  29 Co ( 0.000000,  0.000000,  1.562528)
  30 Ni ( 0.000000,  0.000000,  0.387203)
  31 Cr ( 0.000000,  0.000000, -1.592650)
  32 Co ( 0.000000,  0.000000,  0.664327)
  33 Fe ( 0.000000,  0.000000,  2.185144)
  34 Cr ( 0.000000,  0.000000,  1.266900)
  35 Cr ( 0.000000,  0.000000, -1.540686)
  36 Cr ( 0.000000,  0.000000, -1.438947)
  37 Fe ( 0.000000,  0.000000,  1.270401)
  38 Cr ( 0.000000,  0.000000, -1.323564)
  39 Co ( 0.000000,  0.000000,  0.671605)
  40 Co ( 0.000000,  0.000000,  1.352359)
  41 Fe ( 0.000000,  0.000000,  2.262984)
  42 Fe ( 0.000000,  0.000000,  2.112219)
  43 Co ( 0.000000,  0.000000,  1.164232)
  44 Cr ( 0.000000,  0.000000, -1.752915)
  45 Cr ( 0.000000,  0.000000,  0.801403)
  46 Fe ( 0.000000,  0.000000,  1.467562)
  47 Ni ( 0.000000,  0.000000,  0.148638)
  48 Cr ( 0.000000,  0.000000, -1.476820)
  49 Co ( 0.000000,  0.000000,  0.440087)
  50 Cr ( 0.000000,  0.000000, -1.202964)
  51 Fe ( 0.000000,  0.000000,  1.964007)
  52 Co ( 0.000000,  0.000000,  1.115514)
  53 Fe ( 0.000000,  0.000000,  2.146961)
  54 Ni ( 0.000000,  0.000000,  0.328007)
  55 Fe ( 0.000000,  0.000000,  2.178524)
  56 Ni ( 0.000000,  0.000000,  0.174646)
  57 Ni ( 0.000000,  0.000000,  0.180970)
  58 Cr ( 0.000000,  0.000000,  0.817493)
  59 Ni ( 0.000000,  0.000000,  0.223756)
[...]
  93 Cr ( 0.000000,  0.000000,  0.374748)
  94 Co ( 0.000000,  0.000000,  0.804811)
  95 Ni ( 0.000000,  0.000000,  0.058125)
  96 Ni ( 0.000000,  0.000000,  0.195028)
  97 Fe ( 0.000000,  0.000000,  2.009072)
  98 Co ( 0.000000,  0.000000,  1.348650)
  99 Fe ( 0.000000,  0.000000,  1.881557)
 100 Fe ( 0.000000,  0.000000,  1.954086)
 101 Co ( 0.000000,  0.000000,  1.186458)
 102 Cr ( 0.000000,  0.000000, -0.803217)
 103 Co ( 0.000000,  0.000000,  0.961425)
 104 Cr ( 0.000000,  0.000000, -0.847686)
 105 Fe ( 0.000000,  0.000000,  1.703516)
 106 Co ( 0.000000,  0.000000,  0.999382)
 107 Cr ( 0.000000,  0.000000, -0.699750)

Energy contributions relative to reference atoms: (reference = -3846758.590871)

Kinetic:       +106.901561
Potential:     -176.506362
External:        +0.000000
XC:            -859.358400
Entropy (-ST):   -4.527415
Local:          +40.067567
Free energy:   -893.423049
Extrapolated:  -891.159342

Spin contamination: 29.808371 electrons
Showing only first 2 kpts
                      Up                     Down
 Kpt  Band  Eigenvalues  Occupancy  Eigenvalues  Occupancy
  0   524      9.81968    0.99461     10.72079    0.02202
  0   525      9.83071    0.99398     10.73040    0.02004
  0   526      9.84118    0.99332     10.74361    0.01761
  0   527      9.85735    0.99216     10.75934    0.01508

  1   524      9.82768    0.99416     10.72575    0.02098
  1   525      9.83438    0.99376     10.74529    0.01732
  1   526      9.85340    0.99246     10.76488    0.01428
  1   527      9.85772    0.99213     10.77070    0.01348

Fermi level: 10.34144

No gap

Forces in eV/Ang:
  0 Co    0.10299    0.08150   -0.12262
  1 Fe    0.35169    0.03113   -0.03630
  2 Fe    0.15831   -0.32667   -0.07572
  3 Co    0.04129    0.06343    0.00401
  4 Co   -0.04033   -0.13905    0.03253
  5 Fe    0.06383    0.12143   -0.11689
  6 Ni   -0.01532    0.14103    0.00140
  7 Co   -0.18440   -0.00972    0.18273
  8 Co   -0.16414   -0.28004    0.09298
  9 Fe   -0.32395   -0.25365    0.07406
 10 Ni   -0.07734   -0.08408   -0.12366
 11 Cr    0.08725   -0.09834   -0.19050
 12 Fe    0.39481    0.32097   -0.11791
 13 Ni   -0.11696   -0.02012    0.09494
 14 Co    0.15417   -0.15557   -0.09943
 15 Ni   -0.07576   -0.04231   -0.00147
 16 Ni   -0.22723   -0.14335   -0.04679
 17 Fe    0.02638   -0.44058   -0.09666
 18 Cr   -0.19093   -0.21665   -0.18385
 19 Fe    0.09707   -0.09748    0.08991
 20 Ni   -0.14497    0.36424   -0.05926
 21 Cr    0.18752    0.31408   -0.34416
 22 Fe   -0.06885    0.17856    0.14727
 23 Ni   -0.05144    0.22330   -0.10038
 24 Ni   -0.07084   -0.22184   -0.10033
 25 Ni    0.13827   -0.10051    0.02406
 26 Fe   -0.14798    0.40445   -0.04536
 27 Ni    0.23156   -0.02341    0.01985
 28 Fe    0.08982    0.41633   -0.18214
 29 Co   -0.04413    0.32964    0.10329
 30 Ni    0.00327   -0.00310   -0.15976
 31 Cr    0.00684    0.18477    0.19226
 32 Co   -0.03428   -0.11937   -0.28685
 33 Fe   -0.22348    0.17383   -0.17681
 34 Cr    0.09450   -0.18752   -0.09452
 35 Cr   -0.11086   -0.01691   -0.26904
 36 Cr   -0.15050    0.03829   -0.04736
 37 Fe    0.15545   -0.05574   -0.01419
 38 Cr    0.65220    0.25497    0.19866
 39 Co   -0.13562    0.19640    0.20454
 40 Co    0.09650   -0.33745   -0.09201
 41 Fe   -0.20885   -0.08210    0.05242
 42 Fe    0.06040   -0.21711    0.01341
 43 Co   -0.17003    0.18259    0.09355
 44 Cr   -0.01864   -0.13091    0.21678
 45 Cr   -0.11322    0.09922    0.04462
 46 Fe   -0.01522   -0.04157    0.18456
 47 Ni    0.12723   -0.01825    0.03239
 48 Cr   -0.05298    0.15769   -0.17214
 49 Co    0.11468   -0.19174    0.03838
 50 Cr    0.37678   -0.18790    0.37644
 51 Fe   -0.28908   -0.21769    0.27225
 52 Co   -0.16215    0.04902   -0.06330
 53 Fe   -0.14026   -0.03725    0.20578
 54 Ni   -0.05389   -0.28262    0.02165
 55 Fe    0.27628   -0.06468    0.03115
 56 Ni    0.00589   -0.03966   -0.01814
 57 Ni    0.21829   -0.02850    0.07397
 58 Cr    0.38566    0.20411    0.24558
 59 Ni    0.00077    0.09105    0.08148
[...]
 93 Cr    0.27945    0.45472    0.53240
 94 Co    0.13223   -0.09281   -0.29746
 95 Ni    0.15642    0.10291   -0.13732
 96 Ni   -0.12495   -0.11211   -0.09961
 97 Fe    0.13391   -0.07071    0.12690
 98 Co    0.16392   -0.12782    0.09650
 99 Fe    0.09109    0.15204   -0.01614
100 Fe   -0.11226    0.22259    0.27862
101 Co   -0.01949    0.04856   -0.10274
102 Cr    0.01143   -0.11884   -0.19902
103 Co   -0.05403   -0.01963   -0.10420
104 Cr   -0.05247    0.13992   -0.05919
105 Fe    0.05652   -0.09034    0.16521
106 Co   -0.35312    0.11958    0.17500
107 Cr    0.28008   -0.36035    0.11520

Date: Sat Apr 15 13:03:08 2023