User:   c.zeng@d0111
Date:   Sat Apr 15 20:09:30 2023
Arch:   x86_64
Pid:    189743
CWD:    /home/c.zeng/projects/hea-corrosion/hea-mlp/data-curation/bulk-mcmc/dft-jobs/78
Python: 3.8.1
gpaw:   /home/c.zeng/usr/installs/gpaw/source/gpaw-22.8.0/gpaw
_gpaw:  /home/c.zeng/usr/installs/gpaw/source/gpaw-22.8.0/
        _gpaw.cpython-38-x86_64-linux-gnu.so
ase:    /home/c.zeng/.local/lib/python3.8/site-packages/ase-3.22.1-py3.8.egg/ase (version 3.22.1)
numpy:  /shared/centos7/python/3.8.1/lib/python3.8/site-packages/numpy (version 1.17.4)
scipy:  /shared/centos7/python/3.8.1/lib/python3.8/site-packages/scipy (version 1.4.1)
units:  Angstrom and eV
cores: 30
OpenMP: False
OMP_NUM_THREADS: 1

Input parameters:
  convergence: {energy: 0.0001}
  kpts: [2 2 2]
  maxiter: 666
  mode: {ecut: 350.0,
         name: pw}
  occupations: {fixmagmom: False,
                name: fermi-dirac,
                width: 0.1}
  spinpol: True
  xc: PBE

System changes: positions, numbers, cell, pbc, initial_charges, initial_magmoms

Initialize ...

species:
  Cr:
    name: Chromium
    id: 33f258bda2ca9f93018e70263a35547b
    Z: 24.0
    valence: 6
    core: 18
    charge: 0.0
    file: /home/c.zeng/usr/data/gpaw-setups-0.9.20000/Cr.PBE.gz
    compensation charges: {type: gauss,
                           rc: 0.35,
                           lmax: 2}
    cutoffs: {filter: 2.14,
              core: 3.04}
    valence states:
      #              energy  rcut
      - 4s(1.00)    -4.007   1.164
      - 4p(0.00)    -0.989   1.217
      - 3d(5.00)    -2.913   1.111
      -  s          23.205   1.164
      -  p          26.223   1.217
      -  d          24.299   1.111

    # Using partial waves for Cr as LCAO basis

  Fe:
    name: Iron
    id: 37abbd8d6c3c35915a9b583b742da910
    Z: 26.0
    valence: 8
    core: 18
    charge: 0.0
    file: /home/c.zeng/usr/data/gpaw-setups-0.9.20000/Fe.PBE.gz
    compensation charges: {type: gauss,
                           rc: 0.33,
                           lmax: 2}
    cutoffs: {filter: 2.06,
              core: 2.67}
    valence states:
      #              energy  rcut
      - 4s(2.00)    -5.291   1.164
      - 4p(0.00)    -1.326   1.058
      - 3d(6.00)    -7.505   1.058
      -  s          21.920   1.164
      -  p          25.885   1.058
      -  d          19.706   1.058

[...]

  Ni:
    name: Nickel
    id: 0d9f38a9d6e76a2886f07bb4381f212b
    Z: 28.0
    valence: 16
    core: 12
    charge: 0.0
    file: /home/c.zeng/usr/data/gpaw-setups-0.9.20000/Ni.PBE.gz
    compensation charges: {type: gauss,
                           rc: 0.36,
                           lmax: 2}
    cutoffs: {filter: 2.14,
              core: 1.98}
    valence states:
      #              energy  rcut
      - 4s(2.00)    -5.642   1.164
      - 3p(6.00)   -71.394   1.207
      - 4p(0.00)    -1.226   1.207
      - 3d(8.00)    -8.875   1.138
      -  s          21.570   1.164
      -  d          18.337   1.138

[...]

  Co:
    name: Cobalt
    id: 339d20d5b0b93d2de9531a1bee871d91
    Z: 27.0
    valence: 9
    core: 18
    charge: 0.0
    file: /home/c.zeng/usr/data/gpaw-setups-0.9.20000/Co.PBE.gz
    compensation charges: {type: gauss,
                           rc: 0.32,
                           lmax: 2}
    cutoffs: {filter: 1.87,
              core: 2.55}
    valence states:
      #              energy  rcut
      - 4s(2.00)    -5.469   1.005
      - 4p(0.00)    -1.277   1.058
      - 3d(7.00)    -8.205   1.005
      -  s          21.742   1.005
      -  p          25.934   1.058
      -  d          19.007   1.005

[...]

  Al:
    name: Aluminium
    id: 0292cae29f5d6237e50f6abdd43a7bdd
    Z: 13.0
    valence: 3
    core: 10
    charge: 0.0
    file: /home/c.zeng/usr/data/gpaw-setups-0.9.20000/Al.PBE.gz
    compensation charges: {type: gauss,
                           rc: 0.34,
                           lmax: 2}
    cutoffs: {filter: 1.91,
              core: 2.36}
    valence states:
      #              energy  rcut
      - 3s(2.00)    -7.753   1.085
      - 3p(1.00)    -2.712   1.085
      -  s          19.459   1.085
      -  p          24.499   1.085
      -  d           0.000   1.085

    # Using partial waves for Al as LCAO basis

Reference energy: -3699400.456887  # eV

Spin-polarized calculation.
Magnetic moment: 143.500000

Convergence criteria:
 Maximum [total energy] change in last 3 cyles: 0.0001 eV / electron
 Maximum integral of absolute [dens]ity change: 0.0001 electrons / valence electron
 Maximum integral of absolute [eigenst]ate change: 4e-08 eV^2 / valence electron
 Maximum number of scf [iter]ations: 666
 (Square brackets indicate name in SCF output, whereas a 'c' in
 the SCF output indicates the quantity has converged.)

Symmetries present (total): 1

  ( 1  0  0)
  ( 0  1  0)
  ( 0  0  1)

8 k-points: 2 x 2 x 2 Monkhorst-Pack grid
4 k-points in the irreducible part of the Brillouin zone
       k-points in crystal coordinates                weights
   0:     0.25000000   -0.25000000   -0.25000000          2/8
   1:     0.25000000   -0.25000000    0.25000000          2/8
   2:     0.25000000    0.25000000   -0.25000000          2/8
   3:     0.25000000    0.25000000    0.25000000          2/8

Wave functions: Plane wave expansion
  Cutoff energy: 350.000 eV
  Number of coefficients (min, max): 18052, 18052
  Pulay-stress correction: 0.000000 eV/Ang^3 (de/decut=0.000000)
  Using FFTW library
  ScaLapack parameters: grid=1x1, blocksize=None
  Wavefunction extrapolation:
    Improved wavefunction reuse through dual PAW basis

Occupation numbers: Fermi-Dirac:
  width: 0.1000  # eV

Eigensolver
   Davidson(niter=2)

Densities:
  Coarse grid: 48*48*48 grid
  Fine grid: 96*96*96 grid
  Total Charge: 0.000000

Density mixing:
  Method: difference
  Backend: pulay
  Linear mixing parameter: 0.05
  old densities: 5
  Damping of long wavelength oscillations: 50

Hamiltonian:
  XC and Coulomb potentials evaluated on a 96*96*96 grid
  Using the PBE Exchange-Correlation functional
  External potential:
    NoExternalPotential

XC parameters: PBE with 2 nearest neighbor stencil

Total number of cores used: 30
Parallelization over k-points: 2
Domain decomposition: 5 x 3 x 1

Number of atoms: 108
Number of atomic orbitals: 1025
Number of bands in calculation: 703
Number of valence electrons: 1020
Bands to converge: occupied

... initialized

Initializing position-dependent things.

Density initialized from atomic densities
Creating initial wave functions:
  703 bands from LCAO basis set

        Cr------------------------.
       /|  Co                Co   |
      Cr|   Cr         Cr         |
     / Fe      Fe       Al        |
    /   CCo      Ni       Fe      |
   /e   | CoCr     CoAl    CrNi   |
  /  FeNi  CrCo     NiCrCo        |
 *    FeFe  FeCoNi     CoAl       |
 |     CoFeCr  CoFe Ni  CrFeNi    |
 | Fe   CrNiCrCo NiNiNiFe  Ni     |
 |   CoNi  CrAlNi   CrCrCr   Fe   |
 |    FeCr  FeFeCoCr CoFeCr   Ni  |
 |     CrFeFe  Ni NiNi  CoFeFe    |
 |      .-CoNiCo-FeCrCrCo--CoNi---.
 |   CrCo    CoAl   CrNiFe       /
 |    / Cr    NiFe       Ni     /
 |   /            Ni           /
 |Cr/      Co       Co        /
 |/            Ni           /
 *----------------Ni-------*

Positions:
   0 Cr     0.005316   -0.016350   10.639749    ( 0.0000,  0.0000,  0.0000)
   1 Cr    10.672340    1.801276    1.786848    ( 0.0000,  0.0000,  0.0000)
   2 Fe     1.795727   10.625972    1.782259    ( 0.0000,  0.0000,  0.0000)
   3 Ni     1.780787    1.796175   10.644605    ( 0.0000,  0.0000,  2.1000)
   4 Fe     3.523539   -0.014558    0.017268    ( 0.0000,  0.0000,  2.0000)
   5 Co     3.522568    1.781672    1.746648    ( 0.0000,  0.0000,  0.0000)
   6 Co     5.320952   10.642342    1.763136    ( 0.0000,  0.0000,  1.5000)
   7 Ni     5.342082    1.828767    0.007462    ( 0.0000,  0.0000,  2.0000)
   8 Ni     7.144895    0.019195    0.012033    ( 0.0000,  0.0000,  0.0000)
   9 Co     7.143497    1.798064    1.764939    ( 0.0000,  0.0000,  2.1000)
  10 Ni     8.891362   10.651627    1.788353    ( 0.0000,  0.0000,  1.5000)
  11 Co     8.888779    1.804777   10.642609    ( 0.0000,  0.0000,  2.0000)
  12 Fe     0.008694    3.581540   10.650250    ( 0.0000,  0.0000,  2.1000)
  13 Cr     0.018979    5.332745    1.789751    ( 0.0000,  0.0000,  2.1000)
  14 Cr     1.778129    3.600941    1.760019    ( 0.0000,  0.0000,  2.0000)
  15 Co     1.790423    5.343267   -0.017766    ( 0.0000,  0.0000,  2.0000)
  16 Cr     3.542802    3.589864   -0.015614    ( 0.0000,  0.0000,  2.0000)
  17 Co     3.526837    5.358538    1.765793    ( 0.0000,  0.0000,  2.0000)
  18 Fe     5.336650    3.606501    1.755815    ( 0.0000,  0.0000,  0.0000)
  19 Ni     5.300399    5.323642   -0.012797    ( 0.0000,  0.0000,  2.1000)
  20 Al     7.122858    3.584816   10.659524    ( 0.0000,  0.0000,  2.0000)
  21 Ni     7.120500    5.315168    1.805502    ( 0.0000,  0.0000,  1.5000)
  22 Ni     8.892034    3.590952    1.773146    ( 0.0000,  0.0000,  2.1000)
  23 Fe     8.925340    5.301487   -0.003100    ( 0.0000,  0.0000,  0.0000)
  24 Cr     0.023055    7.096680   -0.007939    ( 0.0000,  0.0000,  0.0000)
  25 Cr     0.019141    8.871245    1.787510    ( 0.0000,  0.0000,  1.5000)
  26 Co     1.784372    7.104567    1.776443    ( 0.0000,  0.0000,  2.0000)
  27 Co     1.779944    8.867628   10.659406    ( 0.0000,  0.0000,  1.5000)
  28 Ni     3.547785    7.097897    0.009215    ( 0.0000,  0.0000,  2.1000)
  29 Ni     3.541137    8.858109    1.788225    ( 0.0000,  0.0000,  2.1000)
  30 Cr     5.295105    7.099391    1.787894    ( 0.0000,  0.0000,  2.1000)
  31 Cr     5.303685    8.873828    0.029898    ( 0.0000,  0.0000,  0.0000)
  32 Cr     7.106883    7.088719   10.645159    ( 0.0000,  0.0000,  0.0000)
  33 Co     7.111055    8.901137    1.809472    ( 0.0000,  0.0000,  0.0000)
  34 Co     8.939384    7.093404    1.799238    ( 0.0000,  0.0000,  0.0000)
  35 Co     8.919972    8.915853   10.664881    ( 0.0000,  0.0000,  0.0000)
  36 Cr    10.679704   10.658873    3.584517    ( 0.0000,  0.0000,  2.0000)
  37 Fe    10.670921    1.796367    5.340289    ( 0.0000,  0.0000,  2.1000)
  38 Fe     1.770350   10.649001    5.343491    ( 0.0000,  0.0000,  0.0000)
  39 Co     1.791800    1.784671    3.584891    ( 0.0000,  0.0000,  2.0000)
  40 Ni     3.529718   10.626388    3.565234    ( 0.0000,  0.0000,  2.1000)
  41 Fe     3.535716    1.793465    5.367289    ( 0.0000,  0.0000,  1.5000)
  42 Co     5.311497    0.001574    5.366254    ( 0.0000,  0.0000,  1.5000)
  43 Al     5.332627    1.768055    3.580793    ( 0.0000,  0.0000,  0.0000)
  44 Ni     7.136966   10.673941    3.563804    ( 0.0000,  0.0000,  2.0000)
  45 Ni     7.136774    1.794126    5.358944    ( 0.0000,  0.0000,  2.1000)
  46 Co     8.925938   10.673621    5.347589    ( 0.0000,  0.0000,  2.0000)
  47 Fe     8.883827    1.779111    3.582404    ( 0.0000,  0.0000,  1.5000)
  48 Ni    -0.010038    3.572341    3.580996    ( 0.0000,  0.0000,  2.0000)
  49 Co    10.685573    5.328935    5.338550    ( 0.0000,  0.0000,  2.0000)
  50 Cr     1.784180    3.582949    5.348357    ( 0.0000,  0.0000,  1.5000)
  51 Fe     1.766326    5.339510    3.565255    ( 0.0000,  0.0000,  1.5000)
  52 Ni     3.522387    3.605007    3.574059    ( 0.0000,  0.0000,  0.0000)
  53 Al     3.543581    5.347343    5.347962    ( 0.0000,  0.0000,  2.1000)
  54 Co     5.333950    3.591678    5.360630    ( 0.0000,  0.0000,  2.0000)
  55 Ni     5.336458    5.346308    3.560132    ( 0.0000,  0.0000,  0.0000)
  56 Cr     7.143102    3.570089    3.572138    ( 0.0000,  0.0000,  2.1000)
  57 Cr     7.120265    5.347471    5.345689    ( 0.0000,  0.0000,  2.0000)
  58 Cr     8.888299    3.570665    5.342018    ( 0.0000,  0.0000,  1.5000)
  59 Fe     8.904573    5.339084    3.577453    ( 0.0000,  0.0000,  2.0000)
[...]
  93 Cr     7.108740    5.307762    8.854395    ( 0.0000,  0.0000,  1.5000)
  94 Al     8.907593    3.561296    8.890348    ( 0.0000,  0.0000,  2.1000)
  95 Fe     8.917806    5.336309    7.100224    ( 0.0000,  0.0000,  0.0000)
  96 Fe     0.016270    7.102027    7.111664    ( 0.0000,  0.0000,  2.0000)
  97 Fe     0.000822    8.895150    8.883817    ( 0.0000,  0.0000,  1.5000)
  98 Co     1.771182    7.105090    8.888608    ( 0.0000,  0.0000,  1.5000)
  99 Cr     1.775184    8.850318    7.108494    ( 0.0000,  0.0000,  2.0000)
 100 Co     3.530401    7.086478    7.104972    ( 0.0000,  0.0000,  1.5000)
 101 Fe     3.524841    8.851001    8.894798    ( 0.0000,  0.0000,  0.0000)
 102 Co     5.310654    7.102827    8.871128    ( 0.0000,  0.0000,  0.0000)
 103 Ni     5.290613    8.850286    7.104876    ( 0.0000,  0.0000,  0.0000)
 104 Co     7.129016    7.083330    7.142750    ( 0.0000,  0.0000,  2.1000)
 105 Al     7.143241    8.903186    8.854384    ( 0.0000,  0.0000,  2.0000)
 106 Cr     8.926504    7.115858    8.862313    ( 0.0000,  0.0000,  0.0000)
 107 Ni     8.932896    8.877648    7.127479    ( 0.0000,  0.0000,  1.5000)

Unit cell:
           periodic     x           y           z      points  spacing
  1. axis:    yes   10.671700    0.000000    0.000000    48     0.2223
  2. axis:    yes    0.000000   10.671700    0.000000    48     0.2223
  3. axis:    yes    0.000000    0.000000   10.671700    48     0.2223

  Lengths:  10.671700  10.671700  10.671700
  Angles:   90.000000  90.000000  90.000000

Effective grid spacing dv^(1/3) = 0.2223

     iter     time        total  log10-change:  magmom
                         energy  eigst   dens
iter:   1 20:15:35  -967.390398                  +143.1755
iter:   2 20:18:22  -920.482743  -0.42  -1.33    +105.2978
iter:   3 20:21:08  -916.692169  -0.89  -1.31    +73.1260
iter:   4 20:23:55  -878.950585  -1.32  -1.33    +64.7433
iter:   5 20:26:41  -877.609696  -1.79  -1.45    +58.1252
iter:   6 20:29:28  -877.009640  -1.84  -1.47    +55.2872
iter:   7 20:32:14  -872.990190  -1.65  -1.51    +52.8580
iter:   8 20:34:48  -871.970921  -1.69  -1.58    +52.0826
iter:   9 20:37:28  -876.215963  -1.82  -1.69    +51.2573
iter:  10 20:40:04  -868.864340  -1.94  -1.67    +50.3230
iter:  11 20:42:38  -868.781829  -2.39  -1.84    +49.9917
iter:  12 20:45:10  -867.944289  -2.63  -1.86    +50.1635
iter:  13 20:47:41  -868.577114  -2.60  -1.92    +50.7205
iter:  14 20:50:42  -868.261212  -2.68  -1.92    +50.9416
iter:  15 20:53:55  -870.387652  -2.52  -1.97    +51.2828
iter:  16 20:56:28  -869.932333  -2.49  -1.91    +51.4219
iter:  17 20:59:00  -869.849452  -2.51  -1.95    +51.7186
iter:  18 21:01:33  -868.925984  -2.70  -1.98    +52.0139
iter:  19 21:04:06  -868.510859  -2.86  -2.04    +52.2102
iter:  20 21:06:38  -868.267743  -3.23  -2.08    +52.7226
iter:  21 21:09:10  -868.493101  -3.24  -2.14    +53.3672
iter:  22 21:12:44  -868.479362  -3.27  -2.15    +53.6972
iter:  23 21:15:08  -868.981491  -3.21  -2.15    +54.1394
iter:  24 21:18:01  -869.259854  -3.02  -2.16    +54.4938
iter:  25 21:20:53  -869.706993  -2.87  -2.16    +54.9921
iter:  26 21:23:45  -869.386761  -2.96  -2.14    +55.1494
iter:  27 21:26:37  -869.843259  -2.93  -2.22    +55.3493
iter:  28 21:29:29  -869.499689  -3.02  -2.18    +55.6592
iter:  29 21:32:20  -869.224581  -3.37  -2.24    +56.2098
iter:  30 21:35:13  -869.296901  -3.58  -2.34    +56.5546
iter:  31 21:38:05  -869.354756  -3.67  -2.35    +56.9186
iter:  32 21:40:57  -869.417371  -3.90  -2.36    +57.2516
iter:  33 21:43:49  -869.686547  -3.51  -2.40    +57.8066
iter:  34 21:46:41  -870.012385  -3.27  -2.37    +57.8282
iter:  35 21:49:33  -869.990923  -3.21  -2.33    +57.9192
iter:  36 21:52:25  -870.097167  -3.25  -2.38    +58.2033
iter:  37 21:55:17  -870.149475  -3.18  -2.39    +58.4943
iter:  38 21:58:08  -869.950293  -3.45  -2.42    +58.5074
iter:  39 22:01:00  -869.830105  -3.74  -2.51    +58.4813
iter:  40 22:03:52  -869.865406  -4.27  -2.59    +58.7240
iter:  41 22:06:45  -869.919655c -4.08  -2.63    +59.0245
iter:  42 22:09:36  -869.952481c -4.34  -2.63    +59.0490
iter:  43 22:12:28  -870.018322c -3.92  -2.66    +59.1007
iter:  44 22:15:19  -870.051097c -3.87  -2.74    +59.1363
iter:  45 22:18:12  -870.168959  -3.67  -2.79    +59.1867
iter:  46 22:21:04  -870.038444  -4.03  -2.68    +59.1248
iter:  47 22:23:55  -870.064621  -4.14  -2.96    +59.0857
iter:  48 22:26:47  -870.037171c -4.36  -2.94    +59.1257
iter:  49 22:29:39  -870.035838c -4.96  -3.06    +59.1192
iter:  50 22:32:31  -870.047641c -5.00  -3.21    +59.0760
iter:  51 22:35:23  -870.073624c -4.44  -3.23    +58.9863
iter:  52 22:38:14  -870.119665c -3.98  -3.18    +58.8161
iter:  53 22:41:06  -870.113744c -5.11  -3.03    +58.8839
iter:  54 22:43:58  -870.132960c -4.78  -3.04    +58.8486
iter:  55 22:46:49  -870.129549c -5.32  -3.01    +58.8704
iter:  56 22:49:41  -870.123805c -4.81  -3.01    +58.8869
iter:  57 22:52:33  -870.151587c -4.24  -3.01    +58.9054
iter:  58 22:55:25  -870.123549c -4.54  -2.91    +58.8732
iter:  59 22:58:16  -870.151573c -4.22  -3.07    +58.7928
iter:  60 23:01:08  -870.109973c -4.77  -2.90    +58.7506
iter:  61 23:04:00  -870.112518c -5.04  -3.20    +58.7078
iter:  62 23:06:52  -870.121520c -4.81  -3.26    +58.6522
iter:  63 23:09:43  -870.122100c -4.87  -3.16    +58.6101
iter:  64 23:12:34  -870.116987c -4.90  -3.24    +58.5772
iter:  65 23:15:25  -870.115927c -5.10  -3.26    +58.5728
iter:  66 23:18:17  -870.115753c -5.21  -3.44    +58.5515
iter:  67 23:21:08  -870.114151c -5.66  -3.38    +58.5136
iter:  68 23:24:00  -870.115666c -5.76  -3.53    +58.4890
iter:  69 23:26:51  -870.115200c -5.79  -3.54    +58.4774
iter:  70 23:29:42  -870.117485c -5.79  -3.56    +58.4556
iter:  71 23:32:34  -870.116509c -6.03  -3.55    +58.4338
iter:  72 23:35:25  -870.119597c -5.64  -3.64    +58.4193
iter:  73 23:38:17  -870.118655c -5.79  -3.56    +58.4162
iter:  74 23:41:08  -870.118841c -5.84  -3.61    +58.3884
iter:  75 23:43:59  -870.120423c -5.88  -3.65    +58.3766
iter:  76 23:46:51  -870.119922c -5.81  -3.65    +58.3693
iter:  77 23:49:42  -870.120540c -6.14  -3.65    +58.3685
iter:  78 23:52:34  -870.121150c -6.30  -3.75    +58.3532
iter:  79 23:55:27  -870.122690c -6.04  -3.77    +58.3269
iter:  80 23:58:19  -870.123201c -6.23  -3.75    +58.3316
iter:  81 00:01:09  -870.125614c -5.86  -3.65    +58.3135
iter:  82 00:03:56  -870.125484c -5.72  -3.61    +58.3272
iter:  83 00:06:47  -870.127110c -5.74  -3.58    +58.3245
iter:  84 00:09:38  -870.125042c -5.80  -3.60    +58.3186
iter:  85 00:12:29  -870.125762c -6.16  -3.72    +58.3082
iter:  86 00:15:20  -870.126234c -6.04  -3.70    +58.2916
iter:  87 00:18:12  -870.127313c -6.00  -3.68    +58.2881
iter:  88 00:21:03  -870.127142c -5.61  -3.70    +58.2858
iter:  89 00:23:56  -870.130097c -5.51  -3.66    +58.2825
iter:  90 00:26:44  -870.127583c -5.73  -3.62    +58.2690
iter:  91 00:29:34  -870.127982c -6.07  -3.83    +58.2652
iter:  92 00:32:26  -870.128441c -6.17  -3.86    +58.2680
iter:  93 00:35:18  -870.128225c -6.62  -3.91    +58.2673
iter:  94 00:38:08  -870.128534c -6.81  -4.05c   +58.2615
iter:  95 00:40:59  -870.130717c -5.75  -4.03c   +58.2311
iter:  96 00:43:50  -870.130996c -6.67  -3.93    +58.2339
iter:  97 00:46:41  -870.131339c -6.65  -3.88    +58.2289
iter:  98 00:49:33  -870.131343c -6.45  -3.83    +58.2311
iter:  99 00:52:25  -870.131421c -6.15  -3.85    +58.2293
iter: 100 00:55:15  -870.131132c -6.32  -4.05c   +58.2358
iter: 101 00:58:02  -870.131254c -6.46  -4.11c   +58.2327
iter: 102 01:00:53  -870.132027c -6.46  -4.13c   +58.2321
iter: 103 01:03:44  -870.131480c -6.86  -4.06c   +58.2327
iter: 104 01:06:35  -870.131745c -6.88  -4.31c   +58.2349
iter: 105 01:09:27  -870.131696c -7.18  -4.28c   +58.2307
iter: 106 01:12:18  -870.131836c -7.42c -4.36c   +58.2296

Converged after 106 iterations.

Dipole moment: (-10.924546, 8.059067, 8.841304) |e|*Ang

Total magnetic moment: (0.000000, 0.000000, 58.229557)
Local magnetic moments:
   0 Cr ( 0.000000,  0.000000, -0.053470)
   1 Cr ( 0.000000,  0.000000, -1.329241)
   2 Fe ( 0.000000,  0.000000,  1.953585)
   3 Ni ( 0.000000,  0.000000,  0.173445)
   4 Fe ( 0.000000,  0.000000,  2.230796)
   5 Co ( 0.000000,  0.000000,  1.185341)
   6 Co ( 0.000000,  0.000000,  1.213818)
   7 Ni ( 0.000000,  0.000000,  0.242560)
   8 Ni ( 0.000000,  0.000000,  0.430907)
   9 Co ( 0.000000,  0.000000,  1.257919)
  10 Ni ( 0.000000,  0.000000,  0.199609)
  11 Co ( 0.000000,  0.000000,  0.937832)
  12 Fe ( 0.000000,  0.000000,  1.933688)
  13 Cr ( 0.000000,  0.000000, -1.353252)
  14 Cr ( 0.000000,  0.000000,  0.650074)
  15 Co ( 0.000000,  0.000000,  0.838205)
  16 Cr ( 0.000000,  0.000000, -1.149250)
  17 Co ( 0.000000,  0.000000,  0.958298)
  18 Fe ( 0.000000,  0.000000,  2.349426)
  19 Ni ( 0.000000,  0.000000,  0.159050)
  20 Al ( 0.000000,  0.000000, -0.022169)
  21 Ni ( 0.000000,  0.000000,  0.243141)
  22 Ni ( 0.000000,  0.000000,  0.237398)
  23 Fe ( 0.000000,  0.000000,  1.333955)
  24 Cr ( 0.000000,  0.000000, -1.068527)
  25 Cr ( 0.000000,  0.000000, -0.100161)
  26 Co ( 0.000000,  0.000000,  0.869897)
  27 Co ( 0.000000,  0.000000,  0.799151)
  28 Ni ( 0.000000,  0.000000,  0.284494)
  29 Ni ( 0.000000,  0.000000,  0.145424)
  30 Cr ( 0.000000,  0.000000, -0.953346)
  31 Cr ( 0.000000,  0.000000, -1.606261)
  32 Cr ( 0.000000,  0.000000,  1.371525)
  33 Co ( 0.000000,  0.000000,  1.008575)
  34 Co ( 0.000000,  0.000000,  0.442244)
  35 Co ( 0.000000,  0.000000,  0.607998)
  36 Cr ( 0.000000,  0.000000, -0.753914)
  37 Fe ( 0.000000,  0.000000,  1.984531)
  38 Fe ( 0.000000,  0.000000,  1.989423)
  39 Co ( 0.000000,  0.000000,  1.141348)
  40 Ni ( 0.000000,  0.000000,  0.317373)
  41 Fe ( 0.000000,  0.000000,  2.152219)
  42 Co ( 0.000000,  0.000000,  0.835777)
  43 Al ( 0.000000,  0.000000, -0.035334)
  44 Ni ( 0.000000,  0.000000,  0.326348)
  45 Ni ( 0.000000,  0.000000,  0.110442)
  46 Co ( 0.000000,  0.000000,  1.177583)
  47 Fe ( 0.000000,  0.000000,  2.019698)
  48 Ni ( 0.000000,  0.000000,  0.181010)
  49 Co ( 0.000000,  0.000000,  1.044321)
  50 Cr ( 0.000000,  0.000000, -1.621521)
  51 Fe ( 0.000000,  0.000000,  1.885026)
  52 Ni ( 0.000000,  0.000000,  0.255292)
  53 Al ( 0.000000,  0.000000, -0.034387)
  54 Co ( 0.000000,  0.000000,  0.953951)
  55 Ni ( 0.000000,  0.000000,  0.200353)
  56 Cr ( 0.000000,  0.000000, -1.331435)
  57 Cr ( 0.000000,  0.000000, -1.289048)
  58 Cr ( 0.000000,  0.000000, -0.461838)
  59 Fe ( 0.000000,  0.000000,  2.015647)
[...]
  93 Cr ( 0.000000,  0.000000, -1.630267)
  94 Al ( 0.000000,  0.000000, -0.030020)
  95 Fe ( 0.000000,  0.000000,  1.713261)
  96 Fe ( 0.000000,  0.000000,  2.153561)
  97 Fe ( 0.000000,  0.000000,  1.620500)
  98 Co ( 0.000000,  0.000000,  1.137430)
  99 Cr ( 0.000000,  0.000000, -1.707875)
 100 Co ( 0.000000,  0.000000,  1.266234)
 101 Fe ( 0.000000,  0.000000,  2.140615)
 102 Co ( 0.000000,  0.000000,  0.967250)
 103 Ni ( 0.000000,  0.000000,  0.347212)
 104 Co ( 0.000000,  0.000000,  0.692990)
 105 Al ( 0.000000,  0.000000, -0.022181)
 106 Cr ( 0.000000,  0.000000, -1.515176)
 107 Ni ( 0.000000,  0.000000,  0.236675)

Energy contributions relative to reference atoms: (reference = -3699400.456887)

Kinetic:       +121.694281
Potential:     -176.213914
External:        +0.000000
XC:            -851.129151
Entropy (-ST):   -4.708722
Local:          +37.871309
Free energy:   -872.486197
Extrapolated:  -870.131836

Spin contamination: 29.563159 electrons
Showing only first 2 kpts
                      Up                     Down
 Kpt  Band  Eigenvalues  Occupancy  Eigenvalues  Occupancy
  0   508      9.68490    0.98996     10.48987    0.03053
  0   509      9.69452    0.98896     10.49631    0.02868
  0   510      9.70321    0.98797     10.51054    0.02497
  0   511      9.71789    0.98610     10.52295    0.02212

  1   508      9.68293    0.99016     10.49100    0.03020
  1   509      9.70956    0.98719     10.49990    0.02770
  1   510      9.71550    0.98642     10.51281    0.02442
  1   511      9.72829    0.98460     10.52316    0.02207

Fermi level: 10.14406

No gap

Forces in eV/Ang:
  0 Cr   -0.14653   -0.18061    0.14624
  1 Cr   -0.14158    0.08187   -0.08595
  2 Fe   -0.27534    0.57180   -0.02302
  3 Ni   -0.16705   -0.00929    0.21031
  4 Fe    0.36226    0.38299   -0.15077
  5 Co   -0.07005    0.03573    0.08974
  6 Co    0.20163    0.03737   -0.11357
  7 Ni   -0.27754   -0.53167    0.02419
  8 Ni   -0.34561   -0.14096   -0.04546
  9 Co   -0.18043   -0.30172    0.17402
 10 Ni    0.27217    0.21878   -0.10095
 11 Co    0.47625   -0.57242    0.61402
 12 Fe    0.27912   -0.13820    0.57942
 13 Cr    0.06725    0.11736    0.06001
 14 Cr    0.23104   -0.47505    0.25366
 15 Co   -0.16969   -0.03384   -0.07799
 16 Cr    0.03434   -0.10252    0.16276
 17 Co    0.02397   -0.18715    0.09410
 18 Fe   -0.50570   -0.23479    0.55359
 19 Ni    0.16492    0.32740    0.05750
 20 Al   -0.69664   -0.48399    0.98394
 21 Ni   -0.02716    0.39317   -0.30123
 22 Ni    0.18128   -0.35181    0.23199
 23 Fe    0.17714    0.81314    0.27933
 24 Cr   -0.12477    0.27368    0.08875
 25 Cr   -0.39582   -0.04474   -0.51060
 26 Co   -0.29507   -0.08294   -0.11194
 27 Co   -0.16272    0.00431    0.07952
 28 Ni    0.00534    0.10032   -0.16528
 29 Ni    0.18962    0.18300   -0.16354
 30 Cr    0.35158   -0.57899    0.11286
 31 Cr    0.05239    0.31828    0.10328
 32 Cr    0.50968    0.02632    0.74627
 33 Co   -0.08272   -0.00295   -0.29124
 34 Co   -0.19345    0.10204   -0.46289
 35 Co    0.05982   -0.41942    0.48587
 36 Cr   -0.20815    0.11237   -0.12510
 37 Fe    0.19532   -0.10384   -0.13393
 38 Fe   -0.02690    0.00261   -0.16891
 39 Co    0.06635    0.04503   -0.28027
 40 Ni    0.14863    0.38639   -0.01222
 41 Fe   -0.15934   -0.14259    0.00315
 42 Co   -0.08550   -0.55083    0.08588
 43 Al   -0.33712   -0.38202   -0.17488
 44 Ni   -0.09800   -0.22365    0.06098
 45 Ni   -0.24304   -0.11815   -0.02646
 46 Co    0.01508   -0.00695   -0.08760
 47 Fe    0.10313   -0.01979   -0.17487
 48 Ni    0.10110   -0.16654   -0.14763
 49 Co    0.04097   -0.01473    0.07685
 50 Cr   -1.04283   -0.66285   -0.25336
 51 Fe   -0.25644    0.00044   -0.24525
 52 Ni    0.22999   -0.38096   -0.39490
 53 Al    0.66945    0.43619   -0.58637
 54 Co    0.37006   -0.40606    0.04148
 55 Ni    0.11885   -0.17483   -0.24320
 56 Cr    0.40113    0.37375   -0.29534
 57 Cr   -0.24046    0.40230    0.39408
 58 Cr    0.39075    0.02991    0.12568
 59 Fe   -0.07199   -0.06129   -0.16624
[...]
 93 Cr   -0.72379    1.27967   -0.59007
 94 Al    0.55750   -0.19884   -0.26238
 95 Fe   -0.33221    0.04119   -0.23427
 96 Fe    0.04083   -0.06099   -0.13845
 97 Fe    0.12463   -0.26888    0.39173
 98 Co    0.07656   -0.05440    0.11502
 99 Cr   -0.07992   -0.05313   -0.15684
100 Co    0.03320    0.46058    0.32459
101 Fe    0.20418    0.04478   -0.11998
102 Co   -0.05312   -0.15690    0.04632
103 Ni    0.17548    0.22338   -0.00776
104 Co   -0.19126   -0.26422   -0.36693
105 Al   -0.61156    0.08610    0.08968
106 Cr    0.59935   -0.35577    0.08274
107 Ni   -0.22364    0.27598   -0.30489

Date: Sun Apr 16 01:12:41 2023