User:   c.zeng@d0057
Date:   Thu Apr 13 20:02:04 2023
Arch:   x86_64
Pid:    238935
CWD:    /home/c.zeng/projects/hea-corrosion/hea-mlp/data-curation/bulk-md/dft-jobs/25
Python: 3.8.1
gpaw:   /home/c.zeng/usr/installs/gpaw/source/gpaw-22.8.0/gpaw
_gpaw:  /home/c.zeng/usr/installs/gpaw/source/gpaw-22.8.0/
        _gpaw.cpython-38-x86_64-linux-gnu.so
ase:    /home/c.zeng/.local/lib/python3.8/site-packages/ase-3.22.1-py3.8.egg/ase (version 3.22.1)
numpy:  /shared/centos7/python/3.8.1/lib/python3.8/site-packages/numpy (version 1.17.4)
scipy:  /shared/centos7/python/3.8.1/lib/python3.8/site-packages/scipy (version 1.4.1)
units:  Angstrom and eV
cores: 30
OpenMP: False
OMP_NUM_THREADS: 1

Input parameters:
  convergence: {energy: 0.0001}
  kpts: [2 2 2]
  maxiter: 666
  mode: {ecut: 350.0,
         name: pw}
  occupations: {fixmagmom: False,
                name: fermi-dirac,
                width: 0.1}
  spinpol: True
  xc: PBE

System changes: positions, numbers, cell, pbc, initial_charges, initial_magmoms

Initialize ...

species:
  Cr:
    name: Chromium
    id: 33f258bda2ca9f93018e70263a35547b
    Z: 24.0
    valence: 6
    core: 18
    charge: 0.0
    file: /home/c.zeng/usr/data/gpaw-setups-0.9.20000/Cr.PBE.gz
    compensation charges: {type: gauss,
                           rc: 0.35,
                           lmax: 2}
    cutoffs: {filter: 2.14,
              core: 3.04}
    valence states:
      #              energy  rcut
      - 4s(1.00)    -4.007   1.164
      - 4p(0.00)    -0.989   1.217
      - 3d(5.00)    -2.913   1.111
      -  s          23.205   1.164
      -  p          26.223   1.217
      -  d          24.299   1.111

    # Using partial waves for Cr as LCAO basis

  Al:
    name: Aluminium
    id: 0292cae29f5d6237e50f6abdd43a7bdd
    Z: 13.0
    valence: 3
    core: 10
    charge: 0.0
    file: /home/c.zeng/usr/data/gpaw-setups-0.9.20000/Al.PBE.gz
    compensation charges: {type: gauss,
                           rc: 0.34,
                           lmax: 2}
    cutoffs: {filter: 1.91,
              core: 2.36}
    valence states:
      #              energy  rcut
      - 3s(2.00)    -7.753   1.085
      - 3p(1.00)    -2.712   1.085
      -  s          19.459   1.085
      -  p          24.499   1.085
      -  d           0.000   1.085

[...]

  Co:
    name: Cobalt
    id: 339d20d5b0b93d2de9531a1bee871d91
    Z: 27.0
    valence: 9
    core: 18
    charge: 0.0
    file: /home/c.zeng/usr/data/gpaw-setups-0.9.20000/Co.PBE.gz
    compensation charges: {type: gauss,
                           rc: 0.32,
                           lmax: 2}
    cutoffs: {filter: 1.87,
              core: 2.55}
    valence states:
      #              energy  rcut
      - 4s(2.00)    -5.469   1.005
      - 4p(0.00)    -1.277   1.058
      - 3d(7.00)    -8.205   1.005
      -  s          21.742   1.005
      -  p          25.934   1.058
      -  d          19.007   1.005

[...]

  Fe:
    name: Iron
    id: 37abbd8d6c3c35915a9b583b742da910
    Z: 26.0
    valence: 8
    core: 18
    charge: 0.0
    file: /home/c.zeng/usr/data/gpaw-setups-0.9.20000/Fe.PBE.gz
    compensation charges: {type: gauss,
                           rc: 0.33,
                           lmax: 2}
    cutoffs: {filter: 2.06,
              core: 2.67}
    valence states:
      #              energy  rcut
      - 4s(2.00)    -5.291   1.164
      - 4p(0.00)    -1.326   1.058
      - 3d(6.00)    -7.505   1.058
      -  s          21.920   1.164
      -  p          25.885   1.058
      -  d          19.706   1.058

[...]

  Ni:
    name: Nickel
    id: 0d9f38a9d6e76a2886f07bb4381f212b
    Z: 28.0
    valence: 16
    core: 12
    charge: 0.0
    file: /home/c.zeng/usr/data/gpaw-setups-0.9.20000/Ni.PBE.gz
    compensation charges: {type: gauss,
                           rc: 0.36,
                           lmax: 2}
    cutoffs: {filter: 2.14,
              core: 1.98}
    valence states:
      #              energy  rcut
      - 4s(2.00)    -5.642   1.164
      - 3p(6.00)   -71.394   1.207
      - 4p(0.00)    -1.226   1.207
      - 3d(8.00)    -8.875   1.138
      -  s          21.570   1.164
      -  d          18.337   1.138

    # Using partial waves for Ni as LCAO basis

Reference energy: -3699400.456887  # eV

Spin-polarized calculation.
Magnetic moment: 143.500000

Convergence criteria:
 Maximum [total energy] change in last 3 cyles: 0.0001 eV / electron
 Maximum integral of absolute [dens]ity change: 0.0001 electrons / valence electron
 Maximum integral of absolute [eigenst]ate change: 4e-08 eV^2 / valence electron
 Maximum number of scf [iter]ations: 666
 (Square brackets indicate name in SCF output, whereas a 'c' in
 the SCF output indicates the quantity has converged.)

Symmetries present (total): 1

  ( 1  0  0)
  ( 0  1  0)
  ( 0  0  1)

8 k-points: 2 x 2 x 2 Monkhorst-Pack grid
4 k-points in the irreducible part of the Brillouin zone
       k-points in crystal coordinates                weights
   0:     0.25000000   -0.25000000   -0.25000000          2/8
   1:     0.25000000   -0.25000000    0.25000000          2/8
   2:     0.25000000    0.25000000   -0.25000000          2/8
   3:     0.25000000    0.25000000    0.25000000          2/8

Wave functions: Plane wave expansion
  Cutoff energy: 350.000 eV
  Number of coefficients (min, max): 18052, 18052
  Pulay-stress correction: 0.000000 eV/Ang^3 (de/decut=0.000000)
  Using FFTW library
  ScaLapack parameters: grid=1x1, blocksize=None
  Wavefunction extrapolation:
    Improved wavefunction reuse through dual PAW basis

Occupation numbers: Fermi-Dirac:
  width: 0.1000  # eV

Eigensolver
   Davidson(niter=2)

Densities:
  Coarse grid: 48*48*48 grid
  Fine grid: 96*96*96 grid
  Total Charge: 0.000000

Density mixing:
  Method: difference
  Backend: pulay
  Linear mixing parameter: 0.05
  old densities: 5
  Damping of long wavelength oscillations: 50

Hamiltonian:
  XC and Coulomb potentials evaluated on a 96*96*96 grid
  Using the PBE Exchange-Correlation functional
  External potential:
    NoExternalPotential

XC parameters: PBE with 2 nearest neighbor stencil

Total number of cores used: 30
Parallelization over k-points: 2
Domain decomposition: 5 x 3 x 1

Number of atoms: 108
Number of atomic orbitals: 1025
Number of bands in calculation: 703
Number of valence electrons: 1020
Bands to converge: occupied

... initialized

Initializing position-dependent things.

Density initialized from atomic densities
Creating initial wave functions:
  703 bands from LCAO basis set

       /|           Cr      Cr    |
      Cr|   Fe Co                 |
     / NiFe             Fe        |
    /   |      Cr                 |
   / Ni | NiFe   CCrCFei    Cr    |
  /     | FeCoNi            Ni    |
 *     Co       Ni   NiCoCo    Fe |
 |      |CoCr  CoNi Co  AlCrFe  Ni|
 |  Ni  FeFeCoAl   NiNiCo  Ni     |
 |     Cr  NiCoCo  Fe FeCr  Fe Fe |
 |    CrNi  CrCo FCr  Ni NiCrNi   |
 |Co   NiNiNi  CoCr Co  CrFe      |
 |   Cr .-FeCr------Co------Cr----Cr
 |     Fe  NiFe Al Co NFe    Feo /
 |    /          CFe   ANi      /
 |   /  FeCor    Co      Cor   /
 |Al/               Co        /
 | /Co        Ni             /
 |/   Co        Fe      Fe  /
 *--------Fe------Cr-------*

Positions:
   0 Cr    -0.126722   -0.139380   10.794854    ( 0.0000,  0.0000,  0.0000)
   1 Al    10.780937    1.706208    1.814140    ( 0.0000,  0.0000,  0.0000)
   2 Cr     1.699229   10.640353    1.788879    ( 0.0000,  0.0000,  0.0000)
   3 Co     1.672884    1.736103   10.683306    ( 0.0000,  0.0000,  2.1000)
   4 Fe     3.552845    0.068249    0.105510    ( 0.0000,  0.0000,  2.0000)
   5 Cr     3.721942    2.017126    1.884624    ( 0.0000,  0.0000,  0.0000)
   6 Ni     5.155909   10.740343    1.780184    ( 0.0000,  0.0000,  1.5000)
   7 Fe     5.442212    1.985955    0.011057    ( 0.0000,  0.0000,  2.0000)
   8 Cr     6.954992    0.085327    0.077677    ( 0.0000,  0.0000,  0.0000)
   9 Co     7.094201    1.893995    1.778149    ( 0.0000,  0.0000,  2.1000)
  10 Ni     8.768461   10.447521    1.875486    ( 0.0000,  0.0000,  1.5000)
  11 Fe     8.879693    1.436308   10.784611    ( 0.0000,  0.0000,  2.0000)
  12 Co     0.120577    3.568809   10.717204    ( 0.0000,  0.0000,  2.1000)
  13 Co    -0.125397    5.299856    1.947797    ( 0.0000,  0.0000,  2.1000)
  14 Fe     1.850414    3.540626    1.694209    ( 0.0000,  0.0000,  2.0000)
  15 Fe     1.916942    5.560635   -0.025845    ( 0.0000,  0.0000,  2.0000)
  16 Fe     3.514731    3.409079   -0.005767    ( 0.0000,  0.0000,  2.0000)
  17 Fe     3.478924    5.410912    1.923318    ( 0.0000,  0.0000,  2.0000)
  18 Cr     5.378588    3.764676    1.822771    ( 0.0000,  0.0000,  0.0000)
  19 Co     5.221655    5.258465    0.219782    ( 0.0000,  0.0000,  2.1000)
  20 Fe     7.243931    3.439415   10.661557    ( 0.0000,  0.0000,  2.0000)
  21 Ni     7.305067    5.293802    1.861116    ( 0.0000,  0.0000,  1.5000)
  22 Co     8.908591    3.541228    1.761714    ( 0.0000,  0.0000,  2.1000)
  23 Cr     8.960830    5.337141    0.077050    ( 0.0000,  0.0000,  0.0000)
  24 Cr     0.187135    7.069319   -0.036075    ( 0.0000,  0.0000,  0.0000)
  25 Ni     0.028350    8.888013    1.583448    ( 0.0000,  0.0000,  1.5000)
  26 Fe     1.741205    7.230521    1.945631    ( 0.0000,  0.0000,  2.0000)
  27 Ni     1.797986    8.587461   10.697574    ( 0.0000,  0.0000,  1.5000)
  28 Co     3.680750    7.271528   -0.159991    ( 0.0000,  0.0000,  2.1000)
  29 Co     3.373927    8.972439    1.742917    ( 0.0000,  0.0000,  2.1000)
  30 Co     5.344562    7.052868    1.520497    ( 0.0000,  0.0000,  2.1000)
  31 Cr     5.273629    8.924820   -0.069684    ( 0.0000,  0.0000,  0.0000)
  32 Al     7.258554    7.021255   10.722322    ( 0.0000,  0.0000,  0.0000)
  33 Cr     7.064402    8.969047    1.723412    ( 0.0000,  0.0000,  0.0000)
  34 Cr     8.997104    7.147027    1.910834    ( 0.0000,  0.0000,  0.0000)
  35 Cr     8.768728    8.965556   10.617720    ( 0.0000,  0.0000,  0.0000)
  36 Fe    10.712436   10.579424    3.519242    ( 0.0000,  0.0000,  2.0000)
  37 Co    10.686652    1.999974    5.364814    ( 0.0000,  0.0000,  2.1000)
  38 Cr     1.645031   10.793394    5.338491    ( 0.0000,  0.0000,  0.0000)
  39 Fe     1.799968    1.866152    3.586808    ( 0.0000,  0.0000,  2.0000)
  40 Co     3.538810   10.696422    3.447118    ( 0.0000,  0.0000,  2.1000)
  41 Ni     3.504699    1.968481    5.293419    ( 0.0000,  0.0000,  1.5000)
  42 Ni     5.309982   -0.202948    5.286789    ( 0.0000,  0.0000,  1.5000)
  43 Al     5.521144    1.812055    3.595213    ( 0.0000,  0.0000,  0.0000)
  44 Fe     7.108223   10.823522    3.672653    ( 0.0000,  0.0000,  2.0000)
  45 Co     7.173325    1.833519    5.313957    ( 0.0000,  0.0000,  2.1000)
  46 Fe     8.939023   10.743605    5.242868    ( 0.0000,  0.0000,  2.0000)
  47 Ni     9.077230    1.651100    3.405562    ( 0.0000,  0.0000,  1.5000)
  48 Fe    -0.008773    3.479704    3.369839    ( 0.0000,  0.0000,  2.0000)
  49 Fe    10.653203    5.428766    5.281012    ( 0.0000,  0.0000,  2.0000)
  50 Ni     1.718944    3.525010    5.378636    ( 0.0000,  0.0000,  1.5000)
  51 Ni     1.711770    5.174033    3.476776    ( 0.0000,  0.0000,  1.5000)
  52 Cr     3.602665    3.579058    3.537341    ( 0.0000,  0.0000,  0.0000)
  53 Co     3.374804    5.458176    5.285383    ( 0.0000,  0.0000,  2.1000)
  54 Fe     5.414340    3.593311    5.323580    ( 0.0000,  0.0000,  2.0000)
  55 Cr     5.159918    5.363845    3.756982    ( 0.0000,  0.0000,  0.0000)
  56 Co     7.006995    3.575174    3.413124    ( 0.0000,  0.0000,  2.1000)
  57 Fe     7.083413    5.390938    5.290445    ( 0.0000,  0.0000,  2.0000)
  58 Ni     9.026986    3.566268    5.378479    ( 0.0000,  0.0000,  1.5000)
  59 Fe     8.826416    5.462326    3.643152    ( 0.0000,  0.0000,  2.0000)
[...]
  93 Ni     7.119467    5.391945    9.127502    ( 0.0000,  0.0000,  1.5000)
  94 Co     9.030923    3.511264    9.153652    ( 0.0000,  0.0000,  2.1000)
  95 Cr     8.789392    5.270366    7.191912    ( 0.0000,  0.0000,  0.0000)
  96 Fe    -0.059397    7.035223    7.268698    ( 0.0000,  0.0000,  2.0000)
  97 Ni     0.084041    8.978340    8.980312    ( 0.0000,  0.0000,  1.5000)
  98 Ni     1.674434    7.149652    8.796789    ( 0.0000,  0.0000,  1.5000)
  99 Fe     1.540094    8.708184    7.099964    ( 0.0000,  0.0000,  2.0000)
 100 Ni     3.501462    7.094900    7.282650    ( 0.0000,  0.0000,  1.5000)
 101 Cr     3.476391    8.906707    8.704437    ( 0.0000,  0.0000,  0.0000)
 102 Cr     5.271129    6.967554    8.732436    ( 0.0000,  0.0000,  0.0000)
 103 Cr     5.369070    8.861808    7.137528    ( 0.0000,  0.0000,  0.0000)
 104 Co     7.251840    6.973974    7.204908    ( 0.0000,  0.0000,  2.1000)
 105 Fe     7.009759    8.924173    8.917776    ( 0.0000,  0.0000,  2.0000)
 106 Cr     8.982463    7.053506    8.832773    ( 0.0000,  0.0000,  0.0000)
 107 Ni     8.687868    8.988809    7.022467    ( 0.0000,  0.0000,  1.5000)

Unit cell:
           periodic     x           y           z      points  spacing
  1. axis:    yes   10.671700    0.000000    0.000000    48     0.2223
  2. axis:    yes    0.000000   10.671700    0.000000    48     0.2223
  3. axis:    yes    0.000000    0.000000   10.671700    48     0.2223

  Lengths:  10.671700  10.671700  10.671700
  Angles:   90.000000  90.000000  90.000000

Effective grid spacing dv^(1/3) = 0.2223

     iter     time        total  log10-change:  magmom
                         energy  eigst   dens
iter:   1 20:08:05 -1040.635063                  +143.7779
iter:   2 20:10:52  -924.189931  -0.23  -1.20    +81.2519
iter:   3 20:13:39  -910.109571  -0.91  -1.22    +68.5204
iter:   4 20:16:25  -885.517996  -1.35  -1.29    +64.4055
iter:   5 20:19:11  -873.800715  -1.64  -1.33    +61.5196
iter:   6 20:21:57  -878.173983  -1.24  -1.39    +61.7487
iter:   7 20:24:43  -874.311027  -1.21  -1.45    +60.6498
iter:   8 20:27:30  -858.226392  -1.73  -1.54    +59.7874
iter:   9 20:30:16  -856.338882  -2.10  -1.74    +60.9841
iter:  10 20:33:03  -856.685169  -2.53  -1.83    +61.9280
iter:  11 20:35:50  -857.436100  -2.47  -1.84    +63.8409
iter:  12 20:38:37  -857.351436  -2.58  -1.88    +64.7228
iter:  13 20:41:24  -860.178867  -2.31  -1.94    +65.7050
iter:  14 20:44:11  -857.742317  -2.40  -1.91    +66.2092
iter:  15 20:46:54  -857.531647  -2.85  -2.07    +66.7873
iter:  16 20:49:39  -857.485956  -2.93  -2.15    +67.3632
iter:  17 20:52:25  -857.522984c -3.22  -2.21    +68.0994
iter:  18 20:55:11  -857.468783c -3.22  -2.23    +68.3877
iter:  19 20:57:58  -857.523369c -3.24  -2.31    +68.8205
iter:  20 21:00:45  -857.426120c -3.47  -2.34    +68.9782
iter:  21 21:03:31  -857.520837c -3.43  -2.42    +69.1707
iter:  22 21:06:18  -857.478820c -3.39  -2.42    +69.2868
iter:  23 21:09:05  -857.440697c -3.62  -2.48    +69.4811
iter:  24 21:11:52  -857.404431c -3.66  -2.53    +69.4679
iter:  25 21:14:39  -857.421403c -3.83  -2.60    +69.5788
iter:  26 21:17:26  -857.446106c -3.75  -2.63    +69.6198
iter:  27 21:20:13  -857.440625c -3.88  -2.65    +69.6540
iter:  28 21:23:00  -857.433354c -4.08  -2.68    +69.6692
iter:  29 21:25:47  -857.440688c -4.18  -2.74    +69.7488
iter:  30 21:28:33  -857.438126c -4.48  -2.77    +69.6947
iter:  31 21:31:19  -857.457411c -4.40  -2.82    +69.6961
iter:  32 21:34:02  -857.461702c -4.39  -2.85    +69.6454
iter:  33 21:36:49  -857.465308c -4.57  -2.89    +69.5979
iter:  34 21:39:36  -857.465601c -4.72  -2.93    +69.5480
iter:  35 21:42:22  -857.475706c -4.73  -2.98    +69.5341
iter:  36 21:45:10  -857.476055c -4.72  -2.99    +69.4890
iter:  37 21:47:57  -857.481260c -4.74  -3.06    +69.4298
iter:  38 21:50:44  -857.487308c -4.78  -3.11    +69.4117
iter:  39 21:53:34  -857.490868c -4.79  -3.11    +69.3519
iter:  40 21:56:23  -857.492797c -4.90  -3.15    +69.3138
iter:  41 21:59:13  -857.493491c -5.02  -3.16    +69.3060
iter:  42 22:02:02  -857.496468c -5.09  -3.24    +69.2552
iter:  43 22:04:52  -857.500800c -5.10  -3.27    +69.1944
iter:  44 22:07:42  -857.501568c -5.15  -3.29    +69.1846
iter:  45 22:10:31  -857.503535c -5.25  -3.33    +69.1426
iter:  46 22:13:20  -857.503747c -5.40  -3.36    +69.1164
iter:  47 22:16:09  -857.504617c -5.46  -3.38    +69.0956
iter:  48 22:18:59  -857.505627c -5.54  -3.44    +69.0655
iter:  49 22:21:48  -857.506417c -5.64  -3.45    +69.0448
iter:  50 22:24:37  -857.507213c -5.76  -3.51    +69.0238
iter:  51 22:27:26  -857.509264c -5.59  -3.53    +68.9919
iter:  52 22:30:15  -857.508708c -5.74  -3.52    +68.9888
iter:  53 22:32:59  -857.509783c -5.77  -3.56    +68.9750
iter:  54 22:35:49  -857.510355c -5.89  -3.61    +68.9520
iter:  55 22:38:39  -857.511524c -5.87  -3.64    +68.9395
iter:  56 22:41:28  -857.512376c -5.86  -3.67    +68.9218
iter:  57 22:44:18  -857.513704c -5.79  -3.70    +68.8975
iter:  58 22:47:07  -857.513670c -6.00  -3.72    +68.8945
iter:  59 22:49:56  -857.514725c -5.98  -3.74    +68.8832
iter:  60 22:52:45  -857.515287c -6.08  -3.80    +68.8691
iter:  61 22:55:35  -857.516169c -6.10  -3.82    +68.8621
iter:  62 22:58:26  -857.516646c -6.23  -3.85    +68.8528
iter:  63 23:01:15  -857.517728c -6.08  -3.91    +68.8380
iter:  64 23:04:05  -857.517641c -6.45  -3.93    +68.8380
iter:  65 23:06:54  -857.518650c -6.19  -3.93    +68.8248
iter:  66 23:09:45  -857.518889c -6.41  -3.98    +68.8175
iter:  67 23:12:35  -857.519634c -6.34  -4.02c   +68.8075
iter:  68 23:15:25  -857.519912c -6.59  -4.03c   +68.8039
iter:  69 23:18:10  -857.520790c -6.23  -4.06c   +68.7910
iter:  70 23:21:00  -857.519580c -6.16  -4.09c   +68.8091
iter:  71 23:23:50  -857.520207c -6.63  -4.06c   +68.7988
iter:  72 23:26:41  -857.520393c -6.72  -4.15c   +68.7936
iter:  73 23:29:31  -857.521010c -6.49  -4.16c   +68.7839
iter:  74 23:32:21  -857.521099c -7.01  -4.20c   +68.7846
iter:  75 23:35:12  -857.522069c -6.16  -4.23c   +68.7722
iter:  76 23:38:02  -857.520549c -5.96  -4.24c   +68.7840
iter:  77 23:40:53  -857.518912c -5.59  -4.20c   +68.7826
iter:  78 23:43:44  -857.520290c -6.20  -4.12c   +68.7700
iter:  79 23:46:34  -857.519744c -6.87  -4.24c   +68.7674
iter:  80 23:49:24  -857.520621c -6.43  -4.23c   +68.7597
iter:  81 23:52:14  -857.520360c -7.27  -4.29c   +68.7614
iter:  82 23:55:04  -857.521229c -6.35  -4.39c   +68.7526
iter:  83 23:57:54  -857.520168c -6.36  -4.49c   +68.7595
iter:  84 00:00:44  -857.516801c -5.09  -4.40c   +68.7819
iter:  85 00:03:34  -857.513992c -4.89  -4.11c   +68.8067
iter:  86 00:06:22  -857.509897c -4.18  -3.91    +68.8733
iter:  87 00:09:10  -857.510418c -5.17  -3.62    +68.8827
iter:  88 00:12:00  -857.511601c -5.59  -3.63    +68.9033
iter:  89 00:14:50  -857.512680c -5.54  -3.65    +68.9194
iter:  90 00:17:40  -857.513809c -5.53  -3.67    +68.9324
iter:  91 00:20:30  -857.513238c -5.24  -3.67    +68.9382
iter:  92 00:23:21  -857.512656c -5.69  -3.65    +68.9417
iter:  93 00:26:11  -857.512490c -6.08  -3.69    +68.9469
iter:  94 00:29:01  -857.512491c -6.08  -3.87    +68.9493
iter:  95 00:31:51  -857.513126c -6.10  -3.86    +68.9546
iter:  96 00:34:41  -857.512777c -6.18  -3.91    +68.9525
iter:  97 00:37:31  -857.512944c -6.20  -4.00    +68.9559
iter:  98 00:40:21  -857.513163c -6.39  -4.12c   +68.9550
iter:  99 00:43:11  -857.513107c -6.49  -4.12c   +68.9544
iter: 100 00:46:01  -857.513305c -6.61  -4.10c   +68.9559
iter: 101 00:48:49  -857.513499c -6.59  -4.27c   +68.9579
iter: 102 00:51:37  -857.513641c -7.17  -4.23c   +68.9582
iter: 103 00:54:27  -857.513811c -6.79  -4.29c   +68.9586
iter: 104 00:57:17  -857.514213c -6.45  -4.31c   +68.9602
iter: 105 01:00:07  -857.513995c -7.32  -4.26c   +68.9594
iter: 106 01:02:56  -857.514183c -7.04  -4.30c   +68.9581
iter: 107 01:05:46  -857.514338c -6.94  -4.25c   +68.9593
iter: 108 01:08:37  -857.514292c -6.94  -4.23c   +68.9606
iter: 109 01:11:27  -857.514747c -6.63  -4.36c   +68.9650
iter: 110 01:14:17  -857.514684c -6.68  -4.30c   +68.9627
iter: 111 01:17:07  -857.514839c -6.65  -4.21c   +68.9634
iter: 112 01:19:58  -857.514984c -6.80  -4.53c   +68.9621
iter: 113 01:22:48  -857.515148c -7.04  -4.62c   +68.9619
iter: 114 01:25:37  -857.515299c -6.92  -4.54c   +68.9626
iter: 115 01:28:27  -857.515274c -7.72c -4.62c   +68.9629

Converged after 115 iterations.

Dipole moment: (-4.932517, -7.414386, -24.498920) |e|*Ang

Total magnetic moment: (0.000000, 0.000000, 68.962866)
Local magnetic moments:
   0 Cr ( 0.000000,  0.000000, -0.953104)
   1 Al ( 0.000000,  0.000000, -0.041393)
   2 Cr ( 0.000000,  0.000000, -1.211113)
   3 Co ( 0.000000,  0.000000,  0.872764)
   4 Fe ( 0.000000,  0.000000,  2.218079)
   5 Cr ( 0.000000,  0.000000, -0.216274)
   6 Ni ( 0.000000,  0.000000,  0.236690)
   7 Fe ( 0.000000,  0.000000,  1.879784)
   8 Cr ( 0.000000,  0.000000, -0.712062)
   9 Co ( 0.000000,  0.000000,  1.195544)
  10 Ni ( 0.000000,  0.000000,  0.119826)
  11 Fe ( 0.000000,  0.000000,  1.880514)
  12 Co ( 0.000000,  0.000000,  1.444896)
  13 Co ( 0.000000,  0.000000,  0.637638)
  14 Fe ( 0.000000,  0.000000,  1.912005)
  15 Fe ( 0.000000,  0.000000,  2.304966)
  16 Fe ( 0.000000,  0.000000,  1.911915)
  17 Fe ( 0.000000,  0.000000,  1.778604)
  18 Cr ( 0.000000,  0.000000, -0.690862)
  19 Co ( 0.000000,  0.000000,  1.234838)
  20 Fe ( 0.000000,  0.000000,  2.293787)
  21 Ni ( 0.000000,  0.000000,  0.232854)
  22 Co ( 0.000000,  0.000000,  1.188053)
  23 Cr ( 0.000000,  0.000000, -0.768289)
  24 Cr ( 0.000000,  0.000000, -1.017559)
  25 Ni ( 0.000000,  0.000000,  0.013040)
  26 Fe ( 0.000000,  0.000000,  2.106232)
  27 Ni ( 0.000000,  0.000000,  0.218962)
  28 Co ( 0.000000,  0.000000,  1.044595)
  29 Co ( 0.000000,  0.000000,  1.106147)
  30 Co ( 0.000000,  0.000000,  1.071037)
  31 Cr ( 0.000000,  0.000000,  0.193130)
  32 Al ( 0.000000,  0.000000, -0.005651)
  33 Cr ( 0.000000,  0.000000, -1.264657)
  34 Cr ( 0.000000,  0.000000, -1.056967)
  35 Cr ( 0.000000,  0.000000,  1.086553)
  36 Fe ( 0.000000,  0.000000,  2.196472)
  37 Co ( 0.000000,  0.000000,  1.082656)
  38 Cr ( 0.000000,  0.000000, -1.310832)
  39 Fe ( 0.000000,  0.000000,  1.905976)
  40 Co ( 0.000000,  0.000000,  1.242685)
  41 Ni ( 0.000000,  0.000000,  0.211442)
  42 Ni ( 0.000000,  0.000000,  0.213485)
  43 Al ( 0.000000,  0.000000, -0.029398)
  44 Fe ( 0.000000,  0.000000,  2.348964)
  45 Co ( 0.000000,  0.000000,  1.100154)
  46 Fe ( 0.000000,  0.000000,  1.965458)
  47 Ni ( 0.000000,  0.000000,  0.462653)
  48 Fe ( 0.000000,  0.000000,  2.185278)
  49 Fe ( 0.000000,  0.000000,  2.226936)
  50 Ni ( 0.000000,  0.000000,  0.404320)
  51 Ni ( 0.000000,  0.000000,  0.368460)
  52 Cr ( 0.000000,  0.000000, -0.330225)
  53 Co ( 0.000000,  0.000000,  1.317173)
  54 Fe ( 0.000000,  0.000000,  1.863172)
  55 Cr ( 0.000000,  0.000000, -0.964872)
  56 Co ( 0.000000,  0.000000,  0.980999)
  57 Fe ( 0.000000,  0.000000,  2.201119)
  58 Ni ( 0.000000,  0.000000,  0.379083)
  59 Fe ( 0.000000,  0.000000,  2.163487)
[...]
  93 Ni ( 0.000000,  0.000000,  0.034633)
  94 Co ( 0.000000,  0.000000,  1.288200)
  95 Cr ( 0.000000,  0.000000, -1.641493)
  96 Fe ( 0.000000,  0.000000,  1.970400)
  97 Ni ( 0.000000,  0.000000,  0.252884)
  98 Ni ( 0.000000,  0.000000,  0.390788)
  99 Fe ( 0.000000,  0.000000,  2.078942)
 100 Ni ( 0.000000,  0.000000,  0.231230)
 101 Cr ( 0.000000,  0.000000, -0.983516)
 102 Cr ( 0.000000,  0.000000, -0.245868)
 103 Cr ( 0.000000,  0.000000,  0.055713)
 104 Co ( 0.000000,  0.000000,  0.679081)
 105 Fe ( 0.000000,  0.000000,  1.649196)
 106 Cr ( 0.000000,  0.000000, -0.836495)
 107 Ni ( 0.000000,  0.000000,  0.152238)

Energy contributions relative to reference atoms: (reference = -3699400.456887)

Kinetic:       +334.714744
Potential:     -347.761249
External:        +0.000000
XC:            -879.748999
Entropy (-ST):   -4.537316
Local:          +37.548888
Free energy:   -859.783932
Extrapolated:  -857.515274

Spin contamination: 23.449158 electrons
Showing only first 2 kpts
                      Up                     Down
 Kpt  Band  Eigenvalues  Occupancy  Eigenvalues  Occupancy
  0   508      9.62864    0.99598     10.59486    0.01551
  0   509      9.64768    0.99514     10.60473    0.01407
  0   510      9.65823    0.99460     10.60728    0.01373
  0   511      9.67097    0.99387     10.62232    0.01183

  1   508      9.63287    0.99580     10.57680    0.01853
  1   509      9.64178    0.99541     10.59249    0.01588
  1   510      9.65784    0.99462     10.60690    0.01378
  1   511      9.67432    0.99366     10.63166    0.01079

Fermi level: 10.17981

No gap

Forces in eV/Ang:
  0 Cr    0.48483    0.70510   -1.59239
  1 Al   -1.25778    0.96218   -0.86320
  2 Cr    1.89759   -0.69291   -0.04382
  3 Co    1.47031   -0.38424   -0.21735
  4 Fe   -0.28225    0.38208   -0.94437
  5 Cr   -1.18471   -0.50547   -0.49786
  6 Ni    1.65829   -0.06802   -0.04060
  7 Fe   -0.77325   -1.25680   -0.28187
  8 Cr    0.21172   -0.24232   -0.56057
  9 Co    0.48379   -1.30869   -0.01483
 10 Ni    0.52065    1.14856    0.15704
 11 Fe   -0.09261    1.41972   -0.17370
 12 Co   -0.27609    0.36336    0.38757
 13 Co    0.64477    0.69854   -1.07840
 14 Fe   -0.29318    0.49691   -0.02226
 15 Fe   -0.56656   -1.21989    1.60171
 16 Fe   -0.02974    0.69594    0.13192
 17 Fe    0.29374   -0.44617   -1.53142
 18 Cr   -0.08582   -0.77714   -0.16186
 19 Co   -0.01059   -0.25345   -1.85755
 20 Fe   -0.29312    1.39999    0.04597
 21 Ni   -1.03664    0.77371   -0.70018
 22 Co    0.09979   -0.38592    0.03010
 23 Cr    1.18068   -1.18127    0.15134
 24 Cr   -1.93542    0.18094    1.45167
 25 Ni   -0.60210   -0.91720    2.11374
 26 Fe   -0.07717   -1.81181   -0.42186
 27 Ni    0.57481    2.43718   -0.60226
 28 Co    0.06553   -1.50366    0.09683
 29 Co    1.08466   -0.56751    0.02415
 30 Co   -0.52206    0.84647    1.14860
 31 Cr    0.47120    0.27674    0.31337
 32 Al   -1.76774    0.67817    0.05169
 33 Cr   -1.17936   -0.82859    0.88950
 34 Cr   -0.70158   -0.03577   -0.20715
 35 Cr    0.72347   -0.16216   -0.08365
 36 Fe    0.01081    0.03480    0.04717
 37 Co   -0.40480   -1.49956   -0.22340
 38 Cr    0.68409   -0.86651   -0.30041
 39 Fe    0.04126   -0.84710    0.11128
 40 Co   -0.77836    0.28084    1.25869
 41 Ni    0.73634   -1.43486    0.10291
 42 Ni    0.33426    0.77077   -0.63853
 43 Al   -1.93722   -0.46250    0.59558
 44 Fe    0.84171   -1.89692   -0.88413
 45 Co    0.20135    0.69245    0.49321
 46 Fe   -0.16117    0.34551    0.48024
 47 Ni   -1.36553    0.90126    0.75189
 48 Fe   -0.25898    1.04762    1.78813
 49 Fe    0.20494   -1.44971    0.91718
 50 Ni    0.44169    1.29576   -0.01972
 51 Ni    0.27360    0.62038    0.60938
 52 Cr   -0.84466    0.07047    0.19361
 53 Co    0.69732   -0.55635    0.11700
 54 Fe   -0.48443    0.14106   -0.22562
 55 Cr    0.80588   -0.76388   -0.92250
 56 Co    1.65247    0.87360    1.59434
 57 Fe    0.14332   -0.06513    0.31983
 58 Ni   -1.34631    0.40349   -0.34185
 59 Fe    0.10547   -0.70082   -0.50891
[...]
 93 Ni    0.14853   -0.83371   -1.28189
 94 Co   -0.46467   -0.25401   -1.23610
 95 Cr    0.87464   -0.53551   -0.01127
 96 Fe   -0.80202    0.03810   -1.17437
 97 Ni   -1.74542   -0.78154   -0.50338
 98 Ni    1.18761   -0.76662    0.57645
 99 Fe    1.03021    1.99284   -1.30465
100 Ni   -0.04839   -0.20158   -1.57012
101 Cr   -0.57156    0.24824    0.77857
102 Cr    0.64409    0.42056    0.90275
103 Cr   -0.18343   -0.91375    0.15672
104 Co   -1.30212    0.30387    0.31153
105 Fe    0.13900   -0.07157   -0.57098
106 Cr   -0.67316    1.06941    0.11592
107 Ni    1.70122   -0.20957    1.73075

Date: Fri Apr 14 01:28:51 2023