User:   c.zeng@d0135
Date:   Sat Apr  8 01:19:33 2023
Arch:   x86_64
Pid:    36351
CWD:    /home/c.zeng/projects/hea-corrosion/hea-mlp/data-curation/volume/dft-jobs/115
Python: 3.8.1
gpaw:   /home/c.zeng/usr/installs/gpaw/source/gpaw-22.8.0/gpaw
_gpaw:  /home/c.zeng/usr/installs/gpaw/source/gpaw-22.8.0/
        _gpaw.cpython-38-x86_64-linux-gnu.so
ase:    /home/c.zeng/.local/lib/python3.8/site-packages/ase-3.22.1-py3.8.egg/ase (version 3.22.1)
numpy:  /shared/centos7/python/3.8.1/lib/python3.8/site-packages/numpy (version 1.17.4)
scipy:  /shared/centos7/python/3.8.1/lib/python3.8/site-packages/scipy (version 1.4.1)
units:  Angstrom and eV
cores: 64
OpenMP: False
OMP_NUM_THREADS: 1

Input parameters:
  convergence: {energy: 0.0001}
  kpts: [2 2 2]
  maxiter: 666
  mode: {ecut: 350.0,
         name: pw}
  occupations: {fixmagmom: False,
                name: fermi-dirac,
                width: 0.1}
  spinpol: True
  xc: PBE

System changes: positions, numbers, cell, pbc, initial_charges, initial_magmoms

Initialize ...

species:
  Al:
    name: Aluminium
    id: 0292cae29f5d6237e50f6abdd43a7bdd
    Z: 13.0
    valence: 3
    core: 10
    charge: 0.0
    file: /home/c.zeng/usr/data/gpaw-setups-0.9.20000/Al.PBE.gz
    compensation charges: {type: gauss,
                           rc: 0.34,
                           lmax: 2}
    cutoffs: {filter: 1.91,
              core: 2.36}
    valence states:
      #              energy  rcut
      - 3s(2.00)    -7.753   1.085
      - 3p(1.00)    -2.712   1.085
      -  s          19.459   1.085
      -  p          24.499   1.085
      -  d           0.000   1.085

    # Using partial waves for Al as LCAO basis

  Fe:
    name: Iron
    id: 37abbd8d6c3c35915a9b583b742da910
    Z: 26.0
    valence: 8
    core: 18
    charge: 0.0
    file: /home/c.zeng/usr/data/gpaw-setups-0.9.20000/Fe.PBE.gz
    compensation charges: {type: gauss,
                           rc: 0.33,
                           lmax: 2}
    cutoffs: {filter: 2.06,
              core: 2.67}
    valence states:
      #              energy  rcut
      - 4s(2.00)    -5.291   1.164
      - 4p(0.00)    -1.326   1.058
      - 3d(6.00)    -7.505   1.058
      -  s          21.920   1.164
      -  p          25.885   1.058
      -  d          19.706   1.058

[...]

  Cr:
    name: Chromium
    id: 33f258bda2ca9f93018e70263a35547b
    Z: 24.0
    valence: 6
    core: 18
    charge: 0.0
    file: /home/c.zeng/usr/data/gpaw-setups-0.9.20000/Cr.PBE.gz
    compensation charges: {type: gauss,
                           rc: 0.35,
                           lmax: 2}
    cutoffs: {filter: 2.14,
              core: 3.04}
    valence states:
      #              energy  rcut
      - 4s(1.00)    -4.007   1.164
      - 4p(0.00)    -0.989   1.217
      - 3d(5.00)    -2.913   1.111
      -  s          23.205   1.164
      -  p          26.223   1.217
      -  d          24.299   1.111

[...]

  Ni:
    name: Nickel
    id: 0d9f38a9d6e76a2886f07bb4381f212b
    Z: 28.0
    valence: 16
    core: 12
    charge: 0.0
    file: /home/c.zeng/usr/data/gpaw-setups-0.9.20000/Ni.PBE.gz
    compensation charges: {type: gauss,
                           rc: 0.36,
                           lmax: 2}
    cutoffs: {filter: 2.14,
              core: 1.98}
    valence states:
      #              energy  rcut
      - 4s(2.00)    -5.642   1.164
      - 3p(6.00)   -71.394   1.207
      - 4p(0.00)    -1.226   1.207
      - 3d(8.00)    -8.875   1.138
      -  s          21.570   1.164
      -  d          18.337   1.138

[...]

  Co:
    name: Cobalt
    id: 339d20d5b0b93d2de9531a1bee871d91
    Z: 27.0
    valence: 9
    core: 18
    charge: 0.0
    file: /home/c.zeng/usr/data/gpaw-setups-0.9.20000/Co.PBE.gz
    compensation charges: {type: gauss,
                           rc: 0.32,
                           lmax: 2}
    cutoffs: {filter: 1.87,
              core: 2.55}
    valence states:
      #              energy  rcut
      - 4s(2.00)    -5.469   1.005
      - 4p(0.00)    -1.277   1.058
      - 3d(7.00)    -8.205   1.005
      -  s          21.742   1.005
      -  p          25.934   1.058
      -  d          19.007   1.005

    # Using partial waves for Co as LCAO basis

Reference energy: -3235165.067515  # eV

Spin-polarized calculation.
Magnetic moment: 121.100000

Convergence criteria:
 Maximum [total energy] change in last 3 cyles: 0.0001 eV / electron
 Maximum integral of absolute [dens]ity change: 0.0001 electrons / valence electron
 Maximum integral of absolute [eigenst]ate change: 4e-08 eV^2 / valence electron
 Maximum number of scf [iter]ations: 666
 (Square brackets indicate name in SCF output, whereas a 'c' in
 the SCF output indicates the quantity has converged.)

Symmetries present (total): 1

  ( 1  0  0)
  ( 0  1  0)
  ( 0  0  1)

8 k-points: 2 x 2 x 2 Monkhorst-Pack grid
4 k-points in the irreducible part of the Brillouin zone
       k-points in crystal coordinates                weights
   0:     0.25000000   -0.25000000   -0.25000000          2/8
   1:     0.25000000   -0.25000000    0.25000000          2/8
   2:     0.25000000    0.25000000   -0.25000000          2/8
   3:     0.25000000    0.25000000    0.25000000          2/8

Wave functions: Plane wave expansion
  Cutoff energy: 350.000 eV
  Number of coefficients (min, max): 25839, 25839
  Pulay-stress correction: 0.000000 eV/Ang^3 (de/decut=0.000000)
  Using FFTW library
  ScaLapack parameters: grid=1x1, blocksize=None
  Wavefunction extrapolation:
    Improved wavefunction reuse through dual PAW basis

Occupation numbers: Fermi-Dirac:
  width: 0.1000  # eV

Eigensolver
   Davidson(niter=2)

Densities:
  Coarse grid: 54*54*54 grid
  Fine grid: 108*108*108 grid
  Total Charge: 0.000000

Density mixing:
  Method: difference
  Backend: pulay
  Linear mixing parameter: 0.05
  old densities: 5
  Damping of long wavelength oscillations: 50

Hamiltonian:
  XC and Coulomb potentials evaluated on a 108*108*108 grid
  Using the PBE Exchange-Correlation functional
  External potential:
    NoExternalPotential

XC parameters: PBE with 2 nearest neighbor stencil

Total number of cores used: 64
Parallelization over k-points: 4
Domain decomposition: 4 x 2 x 2

Number of atoms: 108
Number of atomic orbitals: 933
Number of bands in calculation: 624
Number of valence electrons: 912
Bands to converge: occupied

... initialized

Initializing position-dependent things.

Density initialized from atomic densities
Creating initial wave functions:
  624 bands from LCAO basis set

        .---------Ni------------------.
       /|   Cr        Ni              |
     /  |    Cr        Co             |
    /  Al Co     Co        Ni         |
   /    |  Fe     Co AlCr      Al     |
  /     |   CoAl Ni   Fe CoFe   CrCr  |
 *    AlCr      FeCo FeCr CoNi        |
 |      |   Alr     NiFe        Al    |
 |     Cr Al     Ni        NiFe       |
 |      |  FeCr   Al CoCr NiAl FeCr   |
 |     Co   FeNi Cr   Cr CrFe   CrFe  |
 |    CoAl   Cr AlNi Ni   NiNi Co     |
 |      |Co Al        Col     CrCo    |
 |     Al        Ni Co    Crr         |
 |      .--NiCo------NiAl------FeFe---.
 |   CoNi      AlAl     Co Ni   Ni   /
 Fe   NiCr      FeFe      CoAl      /
 |   /      Al      FeCo     Fe Fe /
 |  /                     Ni      /
 | /         Fe                  /e
 |/    Cr                       /
 *-----------------------------Al

Positions:
   0 Al    -0.000006    0.000011    0.000009    ( 0.0000,  0.0000,  0.0000)
   1 Fe    -0.000001    2.004754    2.004754    ( 0.0000,  0.0000,  2.0000)
   2 Cr     2.004742   -0.000001    2.004754    ( 0.0000,  0.0000,  0.0000)
   3 Cr     2.004742    2.004754    0.000003    ( 0.0000,  0.0000,  0.0000)
   4 Ni     4.009496   -0.000003   -0.000002    ( 0.0000,  0.0000,  1.5000)
   5 Al     4.009496    2.004766    2.004742    ( 0.0000,  0.0000,  0.0000)
   6 Al     6.014250   -0.000006    2.004730    ( 0.0000,  0.0000,  0.0000)
   7 Ni     6.014250    2.004754   -0.000001    ( 0.0000,  0.0000,  1.5000)
   8 Fe     8.019004    0.000002   -0.000002    ( 0.0000,  0.0000,  2.0000)
   9 Co     8.019004    2.004754    2.004742    ( 0.0000,  0.0000,  2.1000)
  10 Ni    10.023746    0.000005    2.004754    ( 0.0000,  0.0000,  1.5000)
  11 Fe    10.023746    2.004754   -0.000001    ( 0.0000,  0.0000,  2.0000)
  12 Fe    -0.000002    4.009496    0.000002    ( 0.0000,  0.0000,  2.0000)
  13 Co     0.000000    6.014250    2.004754    ( 0.0000,  0.0000,  2.1000)
  14 Cr     2.004742    4.009496    2.004754    ( 0.0000,  0.0000,  0.0000)
  15 Co     2.004754    6.014250   -0.000000    ( 0.0000,  0.0000,  2.1000)
  16 Fe     4.009508    4.009496    0.000001    ( 0.0000,  0.0000,  2.0000)
  17 Al     4.009508    6.014238    2.004742    ( 0.0000,  0.0000,  0.0000)
  18 Fe     6.014250    4.009496    2.004742    ( 0.0000,  0.0000,  2.0000)
  19 Fe     6.014250    6.014250    0.000002    ( 0.0000,  0.0000,  2.0000)
  20 Cr     8.018992    4.009496   -0.000002    ( 0.0000,  0.0000,  0.0000)
  21 Co     8.018992    6.014250    2.004742    ( 0.0000,  0.0000,  2.1000)
  22 Al    10.023758    4.009496    2.004742    ( 0.0000,  0.0000,  0.0000)
  23 Fe    10.023746    6.014250    0.000001    ( 0.0000,  0.0000,  2.0000)
  24 Ni     0.000001    8.018992    0.000003    ( 0.0000,  0.0000,  1.5000)
  25 Al     0.000000   10.023746    2.004766    ( 0.0000,  0.0000,  0.0000)
  26 Ni     2.004754    8.019004    2.004754    ( 0.0000,  0.0000,  1.5000)
  27 Cr     2.004754   10.023746   -0.000001    ( 0.0000,  0.0000,  0.0000)
  28 Fe     4.009496    8.019004    0.000000    ( 0.0000,  0.0000,  2.0000)
  29 Ni     4.009496   10.023746    2.004742    ( 0.0000,  0.0000,  1.5000)
  30 Ni     6.014250    8.019004    2.004742    ( 0.0000,  0.0000,  1.5000)
  31 Ni     6.014250   10.023746   -0.000001    ( 0.0000,  0.0000,  1.5000)
  32 Co     8.019004    8.018992    0.000003    ( 0.0000,  0.0000,  2.1000)
  33 Cr     8.019004   10.023746    2.004742    ( 0.0000,  0.0000,  0.0000)
  34 Fe    10.023746    8.018992    2.004742    ( 0.0000,  0.0000,  2.0000)
  35 Ni    10.023746   10.023746    0.000002    ( 0.0000,  0.0000,  1.5000)
  36 Fe     0.000001    0.000002    4.009496    ( 0.0000,  0.0000,  2.0000)
  37 Co    -0.000002    2.004754    6.014250    ( 0.0000,  0.0000,  2.1000)
  38 Cr     2.004742   -0.000003    6.014250    ( 0.0000,  0.0000,  0.0000)
  39 Ni     2.004742    2.004754    4.009496    ( 0.0000,  0.0000,  1.5000)
  40 Al     4.009484   -0.000014    4.009508    ( 0.0000,  0.0000,  0.0000)
  41 Al     4.009496    2.004754    6.014262    ( 0.0000,  0.0000,  0.0000)
  42 Cr     6.014250   -0.000004    6.014262    ( 0.0000,  0.0000,  0.0000)
  43 Al     6.014250    2.004766    4.009496    ( 0.0000,  0.0000,  0.0000)
  44 Al     8.019016   -0.000002    4.009508    ( 0.0000,  0.0000,  0.0000)
  45 Co     8.019004    2.004754    6.014250    ( 0.0000,  0.0000,  2.1000)
  46 Cr    10.023758    0.000003    6.014250    ( 0.0000,  0.0000,  0.0000)
  47 Ni    10.023758    2.004754    4.009496    ( 0.0000,  0.0000,  1.5000)
  48 Fe    -0.000001    4.009496    4.009496    ( 0.0000,  0.0000,  2.0000)
  49 Fe    -0.000002    6.014250    6.014250    ( 0.0000,  0.0000,  2.0000)
  50 Al     2.004742    4.009508    6.014238    ( 0.0000,  0.0000,  0.0000)
  51 Co     2.004742    6.014250    4.009508    ( 0.0000,  0.0000,  2.1000)
  52 Co     4.009496    4.009508    4.009496    ( 0.0000,  0.0000,  2.1000)
  53 Ni     4.009496    6.014250    6.014250    ( 0.0000,  0.0000,  1.5000)
  54 Ni     6.014250    4.009508    6.014250    ( 0.0000,  0.0000,  1.5000)
  55 Co     6.014250    6.014250    4.009496    ( 0.0000,  0.0000,  2.1000)
  56 Al     8.018992    4.009508    4.009496    ( 0.0000,  0.0000,  0.0000)
  57 Cr     8.019004    6.014250    6.014250    ( 0.0000,  0.0000,  0.0000)
  58 Ni    10.023758    4.009496    6.014250    ( 0.0000,  0.0000,  1.5000)
  59 Cr    10.023758    6.014250    4.009508    ( 0.0000,  0.0000,  0.0000)
[...]
  93 Co     8.019004    6.014250   10.023746    ( 0.0000,  0.0000,  2.1000)
  94 Ni    10.023746    4.009496   10.023746    ( 0.0000,  0.0000,  1.5000)
  95 Fe    10.023746    6.014250    8.018992    ( 0.0000,  0.0000,  2.0000)
  96 Al     0.000003    8.018992    8.018980    ( 0.0000,  0.0000,  0.0000)
  97 Al     0.000008   10.023746   10.023746    ( 0.0000,  0.0000,  0.0000)
  98 Fe     2.004754    8.019004   10.023746    ( 0.0000,  0.0000,  2.0000)
  99 Co     2.004754   10.023746    8.019004    ( 0.0000,  0.0000,  2.1000)
 100 Fe     4.009496    8.019004    8.019004    ( 0.0000,  0.0000,  2.0000)
 101 Co     4.009496   10.023746   10.023746    ( 0.0000,  0.0000,  2.1000)
 102 Al     6.014250    8.019004   10.023746    ( 0.0000,  0.0000,  0.0000)
 103 Fe     6.014250   10.023746    8.019004    ( 0.0000,  0.0000,  2.0000)
 104 Co     8.019004    8.019004    8.018992    ( 0.0000,  0.0000,  2.1000)
 105 Ni     8.019004   10.023758   10.023746    ( 0.0000,  0.0000,  1.5000)
 106 Al    10.023746    8.018992   10.023758    ( 0.0000,  0.0000,  0.0000)
 107 Cr    10.023746   10.023758    8.018992    ( 0.0000,  0.0000,  0.0000)

Unit cell:
           periodic     x           y           z      points  spacing
  1. axis:    yes   12.028500    0.000000    0.000000    54     0.2228
  2. axis:    yes    0.000000   12.028500    0.000000    54     0.2228
  3. axis:    yes    0.000000    0.000000   12.028500    54     0.2228

  Lengths:  12.028500  12.028500  12.028500
  Angles:   90.000000  90.000000  90.000000

Effective grid spacing dv^(1/3) = 0.2228

     iter     time        total  log10-change:  magmom
                         energy  eigst   dens
iter:   1 01:21:45  -979.829571                  +121.3859
iter:   2 01:22:39  -820.718302  +0.03  -1.13    +62.6438
iter:   3 01:23:34  -827.350367  -0.49  -1.07    +66.7758
iter:   4 01:24:28  -768.838496  -1.03  -1.15    +63.2541
iter:   5 01:25:23  -756.785206  -1.63  -1.28    +65.4129
iter:   6 01:26:17  -758.108669  -1.64  -1.33    +73.4790
iter:   7 01:27:12  -760.598150  -1.33  -1.35    +78.2241
iter:   8 01:28:07  -758.536283  -1.58  -1.37    +83.6051
iter:   9 01:29:01  -757.280641  -1.42  -1.42    +84.7674
iter:  10 01:29:56  -756.169210  -1.60  -1.54    +84.4478
iter:  11 01:30:51  -756.387908  -1.82  -1.60    +82.5164
iter:  12 01:31:46  -752.400246  -2.01  -1.59    +80.8345
iter:  13 01:32:40  -752.828493  -2.35  -1.73    +79.8410
iter:  14 01:33:35  -754.109334  -2.40  -1.78    +78.7082
iter:  15 01:34:30  -754.620344  -2.59  -1.80    +76.6513
iter:  16 01:35:25  -756.105445  -2.54  -1.84    +74.1952
iter:  17 01:36:20  -757.638138  -2.41  -1.85    +73.3939
iter:  18 01:37:14  -757.425102  -2.47  -1.84    +71.3968
iter:  19 01:38:09  -758.401600  -2.57  -1.96    +69.1921
iter:  20 01:39:04  -759.382587  -2.56  -1.98    +67.8220
iter:  21 01:39:59  -759.903519  -2.62  -1.98    +67.2640
iter:  22 01:40:53  -760.515519  -2.80  -2.05    +66.1415
iter:  23 01:41:48  -761.253846  -2.91  -2.07    +64.5369
iter:  24 01:42:43  -761.788691  -3.01  -2.09    +63.8353
iter:  25 01:43:37  -762.614160  -3.00  -2.10    +63.6287
iter:  26 01:44:32  -764.250116  -2.30  -2.07    +64.3141
iter:  27 01:45:27  -764.181841  -2.91  -2.02    +65.0701
iter:  28 01:46:21  -764.333702  -2.85  -2.03    +65.5612
iter:  29 01:47:16  -764.516658  -2.80  -2.10    +66.0770
iter:  30 01:48:11  -763.704813  -2.72  -2.04    +66.2339
iter:  31 01:49:05  -763.119115  -2.71  -2.06    +65.9531
iter:  32 01:50:00  -763.070967  -3.24  -2.20    +65.4664
iter:  33 01:50:55  -763.100609c -3.18  -2.25    +65.2862
iter:  34 01:51:50  -763.320980  -3.02  -2.27    +65.3538
iter:  35 01:52:44  -762.975882  -3.41  -2.23    +65.4675
iter:  36 01:53:39  -762.929665  -3.49  -2.36    +65.6568
iter:  37 01:54:33  -762.889850c -3.67  -2.40    +65.7426
iter:  38 01:55:28  -762.893452c -3.79  -2.47    +65.8254
iter:  39 01:56:23  -762.898125c -3.93  -2.50    +65.8599
iter:  40 01:57:17  -762.873227c -4.08  -2.52    +65.8996
iter:  41 01:58:12  -762.886696c -3.95  -2.59    +65.9098
iter:  42 01:59:07  -762.859362c -4.23  -2.60    +65.8982
iter:  43 02:00:01  -762.857597c -4.36  -2.66    +65.8887
iter:  44 02:00:56  -762.860870c -4.29  -2.69    +65.8477
iter:  45 02:01:51  -762.858739c -4.36  -2.70    +65.8317
iter:  46 02:02:46  -762.854655c -4.26  -2.74    +65.8215
iter:  47 02:03:40  -762.854906c -4.35  -2.79    +65.7912
iter:  48 02:04:35  -762.851920c -4.61  -2.80    +65.7687
iter:  49 02:05:29  -762.855586c -4.41  -2.85    +65.7571
iter:  50 02:06:24  -762.852662c -4.71  -2.86    +65.7408
iter:  51 02:07:19  -762.855628c -4.56  -2.94    +65.7278
iter:  52 02:08:14  -762.854776c -4.81  -2.96    +65.7210
iter:  53 02:09:08  -762.854281c -4.92  -3.02    +65.7006
iter:  54 02:10:03  -762.854433c -5.00  -3.06    +65.6969
iter:  55 02:10:58  -762.852657c -5.20  -3.13    +65.7010
iter:  56 02:11:53  -762.854225c -5.08  -3.18    +65.7038
iter:  57 02:12:47  -762.853504c -5.27  -3.20    +65.7105
iter:  58 02:13:42  -762.851666c -5.34  -3.27    +65.7103
iter:  59 02:14:36  -762.850090c -5.48  -3.34    +65.7177
iter:  60 02:15:31  -762.851608c -5.58  -3.37    +65.7218
iter:  61 02:16:26  -762.850111c -5.35  -3.41    +65.7220
iter:  62 02:17:21  -762.850834c -5.42  -3.43    +65.7258
iter:  63 02:18:16  -762.850638c -5.41  -3.44    +65.7320
iter:  64 02:19:10  -762.849649c -5.71  -3.51    +65.7269
iter:  65 02:20:05  -762.849423c -5.82  -3.58    +65.7275
iter:  66 02:21:00  -762.849474c -5.86  -3.59    +65.7266
iter:  67 02:21:55  -762.849427c -5.94  -3.62    +65.7259
iter:  68 02:22:50  -762.849943c -5.78  -3.72    +65.7272
iter:  69 02:23:45  -762.848400c -5.99  -3.70    +65.7283
iter:  70 02:24:39  -762.849143c -6.24  -3.83    +65.7318
iter:  71 02:25:34  -762.848888c -6.54  -3.90    +65.7297
iter:  72 02:26:29  -762.848874c -6.43  -3.95    +65.7311
iter:  73 02:27:23  -762.848917c -6.64  -3.92    +65.7318
iter:  74 02:28:12  -762.848834c -6.91  -4.07c   +65.7312
iter:  75 02:29:06  -762.848880c -6.88  -4.09c   +65.7321
iter:  76 02:30:01  -762.848759c -6.98  -4.16c   +65.7317
iter:  77 02:30:56  -762.849059c -7.17  -4.22c   +65.7309
iter:  78 02:31:51  -762.848704c -7.16  -4.28c   +65.7314
iter:  79 02:32:46  -762.848822c -7.33  -4.28c   +65.7313
iter:  80 02:33:41  -762.848910c -7.28  -4.35c   +65.7311
iter:  81 02:34:36  -762.848867c -7.50c -4.42c   +65.7312

Converged after 81 iterations.

Dipole moment: (0.225091, -0.305312, 0.089373) |e|*Ang

Total magnetic moment: (0.000000, 0.000000, 65.731202)
Local magnetic moments:
   0 Al ( 0.000000,  0.000000,  0.008020)
   1 Fe ( 0.000000,  0.000000,  2.876135)
   2 Cr ( 0.000000,  0.000000, -3.056680)
   3 Cr ( 0.000000,  0.000000,  2.801532)
   4 Ni ( 0.000000,  0.000000,  0.162041)
   5 Al ( 0.000000,  0.000000, -0.010530)
   6 Al ( 0.000000,  0.000000, -0.015723)
   7 Ni ( 0.000000,  0.000000,  0.510134)
   8 Fe ( 0.000000,  0.000000,  3.047767)
   9 Co ( 0.000000,  0.000000,  1.485240)
  10 Ni ( 0.000000,  0.000000,  0.255626)
  11 Fe ( 0.000000,  0.000000,  2.837761)
  12 Fe ( 0.000000,  0.000000,  2.833465)
  13 Co ( 0.000000,  0.000000,  1.804566)
  14 Cr ( 0.000000,  0.000000, -3.229614)
  15 Co ( 0.000000,  0.000000,  1.664164)
  16 Fe ( 0.000000,  0.000000,  2.742193)
  17 Al ( 0.000000,  0.000000, -0.038015)
  18 Fe ( 0.000000,  0.000000,  2.822686)
  19 Fe ( 0.000000,  0.000000,  2.844317)
  20 Cr ( 0.000000,  0.000000, -3.279097)
  21 Co ( 0.000000,  0.000000,  1.682399)
  22 Al ( 0.000000,  0.000000, -0.028906)
  23 Fe ( 0.000000,  0.000000,  2.910655)
  24 Ni ( 0.000000,  0.000000,  0.246357)
  25 Al ( 0.000000,  0.000000, -0.002525)
  26 Ni ( 0.000000,  0.000000,  0.388873)
  27 Cr ( 0.000000,  0.000000, -3.042513)
  28 Fe ( 0.000000,  0.000000,  2.940701)
  29 Ni ( 0.000000,  0.000000,  0.319852)
  30 Ni ( 0.000000,  0.000000,  0.472584)
  31 Ni ( 0.000000,  0.000000,  0.392648)
  32 Co ( 0.000000,  0.000000,  1.821143)
  33 Cr ( 0.000000,  0.000000, -3.215490)
  34 Fe ( 0.000000,  0.000000,  2.943182)
  35 Ni ( 0.000000,  0.000000,  0.269972)
  36 Fe ( 0.000000,  0.000000,  2.811522)
  37 Co ( 0.000000,  0.000000,  1.721367)
  38 Cr ( 0.000000,  0.000000, -3.227095)
  39 Ni ( 0.000000,  0.000000,  0.129154)
  40 Al ( 0.000000,  0.000000,  0.008165)
  41 Al ( 0.000000,  0.000000, -0.011074)
  42 Cr ( 0.000000,  0.000000, -3.089759)
  43 Al ( 0.000000,  0.000000,  0.001070)
  44 Al ( 0.000000,  0.000000,  0.013227)
  45 Co ( 0.000000,  0.000000,  1.465028)
  46 Cr ( 0.000000,  0.000000, -3.213952)
  47 Ni ( 0.000000,  0.000000,  0.451093)
  48 Fe ( 0.000000,  0.000000,  2.917196)
  49 Fe ( 0.000000,  0.000000,  2.801125)
  50 Al ( 0.000000,  0.000000, -0.031145)
  51 Co ( 0.000000,  0.000000,  1.704107)
  52 Co ( 0.000000,  0.000000,  1.549308)
  53 Ni ( 0.000000,  0.000000,  0.540522)
  54 Ni ( 0.000000,  0.000000,  0.233913)
  55 Co ( 0.000000,  0.000000,  1.738328)
  56 Al ( 0.000000,  0.000000, -0.008949)
  57 Cr ( 0.000000,  0.000000, -3.255774)
  58 Ni ( 0.000000,  0.000000,  0.262730)
  59 Cr ( 0.000000,  0.000000, -3.186437)
[...]
  93 Co ( 0.000000,  0.000000,  1.748235)
  94 Ni ( 0.000000,  0.000000,  0.393671)
  95 Fe ( 0.000000,  0.000000,  2.828664)
  96 Al ( 0.000000,  0.000000, -0.027618)
  97 Al ( 0.000000,  0.000000, -0.009011)
  98 Fe ( 0.000000,  0.000000,  2.785725)
  99 Co ( 0.000000,  0.000000,  1.629386)
 100 Fe ( 0.000000,  0.000000,  2.917180)
 101 Co ( 0.000000,  0.000000,  1.815895)
 102 Al ( 0.000000,  0.000000, -0.049829)
 103 Fe ( 0.000000,  0.000000,  3.042894)
 104 Co ( 0.000000,  0.000000,  1.718887)
 105 Ni ( 0.000000,  0.000000,  0.553744)
 106 Al ( 0.000000,  0.000000, -0.026797)
 107 Cr ( 0.000000,  0.000000,  2.986470)

Energy contributions relative to reference atoms: (reference = -3235165.067515)

Kinetic:       -301.327176
Potential:     +195.827840
External:        +0.000000
XC:            -682.508422
Entropy (-ST):   -4.451070
Local:          +27.384425
Free energy:   -765.074402
Extrapolated:  -762.848867

Spin contamination: 62.449566 electrons
Showing only first 2 kpts
                      Up                     Down
 Kpt  Band  Eigenvalues  Occupancy  Eigenvalues  Occupancy
  0   454      5.53081    0.99950      6.60947    0.03979
  0   455      5.54337    0.99943      6.61380    0.03817
  0   456      5.54884    0.99940      6.62248    0.03510
  0   457      5.56014    0.99933      6.63279    0.03177

  1   454      5.52519    0.99953      6.59945    0.04380
  1   455      5.53230    0.99949      6.61370    0.03820
  1   456      5.54196    0.99944      6.61895    0.03632
  1   457      5.56372    0.99931      6.62801    0.03328

Fermi level: 6.29111

No gap

Forces in eV/Ang:
  0 Al   -0.62549    0.06336    0.32360
  1 Fe   -0.20004    0.06202    0.33675
  2 Cr   -0.01067    0.21897    0.13780
  3 Cr    0.05623   -0.31025    0.02513
  4 Ni   -0.05553   -0.12716   -0.11392
  5 Al   -0.26769    0.46788   -0.46787
  6 Al   -0.10381   -0.35436   -1.18468
  7 Ni    0.08609    0.02619   -0.02482
  8 Fe    0.19023    0.00998   -0.22628
  9 Co   -0.02468   -0.09204   -0.09687
 10 Ni   -0.09227    0.02280    0.00849
 11 Fe   -0.20526   -0.03047    0.08906
 12 Fe   -0.19099    0.17622    0.14054
 13 Co    0.26259    0.15880   -0.07290
 14 Cr   -0.39542   -0.08494   -0.02105
 15 Co    0.02505    0.05283    0.06379
 16 Fe    0.33448    0.33380   -0.02884
 17 Al    0.12145    0.06477   -0.05424
 18 Fe    0.03507    0.14539    0.01243
 19 Fe    0.33462    0.01525    0.04620
 20 Cr   -0.26950   -0.05219   -0.22927
 21 Co   -0.23103    0.34623    0.01649
 22 Al    0.29535   -0.23734   -0.19376
 23 Fe   -0.22114    0.08961    0.05033
 24 Ni    0.03324   -0.22193   -0.01638
 25 Al   -0.18255   -0.52162   -0.03819
 26 Ni    0.02234   -0.18022    0.03539
 27 Cr    0.52194   -0.64678    0.00582
 28 Fe   -0.10048    0.24979    0.05831
 29 Ni   -0.00503    0.00958    0.05040
 30 Ni    0.00389   -0.28200   -0.16441
 31 Ni    0.01495    0.00505   -0.02631
 32 Co   -0.03885   -0.19456    0.18188
 33 Cr   -0.18256   -0.29559   -0.60286
 34 Fe   -0.20374   -0.20847   -0.06653
 35 Ni    0.00654    0.02293   -0.02882
 36 Fe   -0.16208    0.27028    0.33236
 37 Co   -0.07850   -0.13978    0.00620
 38 Cr   -0.14754    0.06430    0.28784
 39 Ni    0.00368   -0.03576   -0.03001
 40 Al   -0.47463   -0.70617    0.19273
 41 Al   -0.13796    0.28345    0.28156
 42 Cr    0.23731   -0.26171    0.45338
 43 Al    0.38245    0.82415    0.32042
 44 Al    0.71869    0.21425    0.09355
 45 Co    0.23486   -0.05836    0.05825
 46 Cr   -0.12531    0.79510    0.62619
 47 Ni    0.17441    0.05633   -0.07296
 48 Fe    0.02533    0.00893    0.15511
 49 Fe   -0.10527    0.06557   -0.36107
 50 Al   -0.03792   -0.14025   -0.67732
 51 Co   -0.25848    0.02682    0.17667
 52 Co    0.18661    0.30859   -0.06735
 53 Ni    0.00956    0.03985   -0.05709
 54 Ni   -0.06458   -0.02376   -0.05801
 55 Co   -0.04156    0.00254   -0.08213
 56 Al   -0.03488   -0.07434    0.27978
 57 Cr   -0.47321    0.64379    0.16685
 58 Ni   -0.05185   -0.02525    0.02949
 59 Cr    0.54192    0.47201   -0.14278
[...]
 93 Co    0.08286   -0.03958   -0.01153
 94 Ni    0.01211    0.00021   -0.01117
 95 Fe   -0.22791   -0.11489   -0.02333
 96 Al    0.14932   -0.10188   -0.51190
 97 Al   -0.00029    0.35158    0.09626
 98 Fe    0.24270    0.13558    0.12397
 99 Co    0.22144   -0.10383   -0.03682
100 Fe    0.03139    0.31491   -0.25303
101 Co    0.01059    0.17002   -0.15654
102 Al    0.60905    0.36345    0.03736
103 Fe    0.13399    0.21340   -0.14526
104 Co   -0.13118   -0.09454   -0.22219
105 Ni   -0.13449    0.04176    0.07441
106 Al   -0.85397    0.00285    0.58870
107 Cr   -0.29218    0.52806   -0.20846

Date: Sat Apr  8 02:34:52 2023