User:   c.zeng@d0148
Date:   Sat Apr  8 03:40:05 2023
Arch:   x86_64
Pid:    90992
CWD:    /home/c.zeng/projects/hea-corrosion/hea-mlp/data-curation/volume/dft-jobs/128
Python: 3.8.1
gpaw:   /home/c.zeng/usr/installs/gpaw/source/gpaw-22.8.0/gpaw
_gpaw:  /home/c.zeng/usr/installs/gpaw/source/gpaw-22.8.0/
        _gpaw.cpython-38-x86_64-linux-gnu.so
ase:    /home/c.zeng/.local/lib/python3.8/site-packages/ase-3.22.1-py3.8.egg/ase (version 3.22.1)
numpy:  /shared/centos7/python/3.8.1/lib/python3.8/site-packages/numpy (version 1.17.4)
scipy:  /shared/centos7/python/3.8.1/lib/python3.8/site-packages/scipy (version 1.4.1)
units:  Angstrom and eV
cores: 64
OpenMP: False
OMP_NUM_THREADS: 1

Input parameters:
  convergence: {energy: 0.0001}
  kpts: [2 2 2]
  maxiter: 666
  mode: {ecut: 350.0,
         name: pw}
  occupations: {fixmagmom: False,
                name: fermi-dirac,
                width: 0.1}
  spinpol: True
  xc: PBE

System changes: positions, numbers, cell, pbc, initial_charges, initial_magmoms

Initialize ...

species:
  Al:
    name: Aluminium
    id: 0292cae29f5d6237e50f6abdd43a7bdd
    Z: 13.0
    valence: 3
    core: 10
    charge: 0.0
    file: /home/c.zeng/usr/data/gpaw-setups-0.9.20000/Al.PBE.gz
    compensation charges: {type: gauss,
                           rc: 0.34,
                           lmax: 2}
    cutoffs: {filter: 1.91,
              core: 2.36}
    valence states:
      #              energy  rcut
      - 3s(2.00)    -7.753   1.085
      - 3p(1.00)    -2.712   1.085
      -  s          19.459   1.085
      -  p          24.499   1.085
      -  d           0.000   1.085

    # Using partial waves for Al as LCAO basis

  Fe:
    name: Iron
    id: 37abbd8d6c3c35915a9b583b742da910
    Z: 26.0
    valence: 8
    core: 18
    charge: 0.0
    file: /home/c.zeng/usr/data/gpaw-setups-0.9.20000/Fe.PBE.gz
    compensation charges: {type: gauss,
                           rc: 0.33,
                           lmax: 2}
    cutoffs: {filter: 2.06,
              core: 2.67}
    valence states:
      #              energy  rcut
      - 4s(2.00)    -5.291   1.164
      - 4p(0.00)    -1.326   1.058
      - 3d(6.00)    -7.505   1.058
      -  s          21.920   1.164
      -  p          25.885   1.058
      -  d          19.706   1.058

[...]

  Cr:
    name: Chromium
    id: 33f258bda2ca9f93018e70263a35547b
    Z: 24.0
    valence: 6
    core: 18
    charge: 0.0
    file: /home/c.zeng/usr/data/gpaw-setups-0.9.20000/Cr.PBE.gz
    compensation charges: {type: gauss,
                           rc: 0.35,
                           lmax: 2}
    cutoffs: {filter: 2.14,
              core: 3.04}
    valence states:
      #              energy  rcut
      - 4s(1.00)    -4.007   1.164
      - 4p(0.00)    -0.989   1.217
      - 3d(5.00)    -2.913   1.111
      -  s          23.205   1.164
      -  p          26.223   1.217
      -  d          24.299   1.111

[...]

  Ni:
    name: Nickel
    id: 0d9f38a9d6e76a2886f07bb4381f212b
    Z: 28.0
    valence: 16
    core: 12
    charge: 0.0
    file: /home/c.zeng/usr/data/gpaw-setups-0.9.20000/Ni.PBE.gz
    compensation charges: {type: gauss,
                           rc: 0.36,
                           lmax: 2}
    cutoffs: {filter: 2.14,
              core: 1.98}
    valence states:
      #              energy  rcut
      - 4s(2.00)    -5.642   1.164
      - 3p(6.00)   -71.394   1.207
      - 4p(0.00)    -1.226   1.207
      - 3d(8.00)    -8.875   1.138
      -  s          21.570   1.164
      -  d          18.337   1.138

[...]

  Co:
    name: Cobalt
    id: 339d20d5b0b93d2de9531a1bee871d91
    Z: 27.0
    valence: 9
    core: 18
    charge: 0.0
    file: /home/c.zeng/usr/data/gpaw-setups-0.9.20000/Co.PBE.gz
    compensation charges: {type: gauss,
                           rc: 0.32,
                           lmax: 2}
    cutoffs: {filter: 1.87,
              core: 2.55}
    valence states:
      #              energy  rcut
      - 4s(2.00)    -5.469   1.005
      - 4p(0.00)    -1.277   1.058
      - 3d(7.00)    -8.205   1.005
      -  s          21.742   1.005
      -  p          25.934   1.058
      -  d          19.007   1.005

    # Using partial waves for Co as LCAO basis

Reference energy: -3235165.067515  # eV

Spin-polarized calculation.
Magnetic moment: 121.100000

Convergence criteria:
 Maximum [total energy] change in last 3 cyles: 0.0001 eV / electron
 Maximum integral of absolute [dens]ity change: 0.0001 electrons / valence electron
 Maximum integral of absolute [eigenst]ate change: 4e-08 eV^2 / valence electron
 Maximum number of scf [iter]ations: 666
 (Square brackets indicate name in SCF output, whereas a 'c' in
 the SCF output indicates the quantity has converged.)

Symmetries present (total): 1

  ( 1  0  0)
  ( 0  1  0)
  ( 0  0  1)

8 k-points: 2 x 2 x 2 Monkhorst-Pack grid
4 k-points in the irreducible part of the Brillouin zone
       k-points in crystal coordinates                weights
   0:     0.25000000   -0.25000000   -0.25000000          2/8
   1:     0.25000000   -0.25000000    0.25000000          2/8
   2:     0.25000000    0.25000000   -0.25000000          2/8
   3:     0.25000000    0.25000000    0.25000000          2/8

Wave functions: Plane wave expansion
  Cutoff energy: 350.000 eV
  Number of coefficients (min, max): 18952, 18952
  Pulay-stress correction: 0.000000 eV/Ang^3 (de/decut=0.000000)
  Using FFTW library
  ScaLapack parameters: grid=1x1, blocksize=None
  Wavefunction extrapolation:
    Improved wavefunction reuse through dual PAW basis

Occupation numbers: Fermi-Dirac:
  width: 0.1000  # eV

Eigensolver
   Davidson(niter=2)

Densities:
  Coarse grid: 48*48*48 grid
  Fine grid: 96*96*96 grid
  Total Charge: 0.000000

Density mixing:
  Method: difference
  Backend: pulay
  Linear mixing parameter: 0.05
  old densities: 5
  Damping of long wavelength oscillations: 50

Hamiltonian:
  XC and Coulomb potentials evaluated on a 96*96*96 grid
  Using the PBE Exchange-Correlation functional
  External potential:
    NoExternalPotential

XC parameters: PBE with 2 nearest neighbor stencil

Total number of cores used: 64
Parallelization over k-points: 4
Domain decomposition: 4 x 2 x 2

Number of atoms: 108
Number of atomic orbitals: 933
Number of bands in calculation: 624
Number of valence electrons: 912
Bands to converge: occupied

... initialized

Initializing position-dependent things.

Density initialized from atomic densities
Creating initial wave functions:
  624 bands from LCAO basis set

        .--------Ni----------------.
       /|           Ni             |
      / |    Cr       Co           |
     / Al       Co       Ni        |
    /   | Fe     CoAl       Al     |
   /    |   Fe       Cr            |
  /    Cr  CorAlNi  FeCo Fe  CrCr  |
 *      Cr     FeCoFe   CoNi     Al|
 |     CrAlAl   NiNiFe   NiFeAl    |
 |      | FeCr   AlCoCrNi AlFeCr   |
 |     Co  Fe NiCr  Cr CrFe  CrFe  |
 Co   CoAl   CrAlNiNi AlNiNi       |
 |     AlCoAl   NiCoCo   CrCrCo    |
 | Fe   .-NiCo-----NiAl-Cr--Fe-----.
 |   Co/   CrAl Al    Co Ni  Ni   /
 |    NNir     Fe       Co       /
 Fe  /   Co      Fee      Ale   /
 |Fe/      Al       Co         /
 | /e                  Ni     /
 *--------------------------Al

Positions:
   0 Al    10.808596    0.074238    0.075943    ( 0.0000,  0.0000,  0.0000)
   1 Fe    10.842217    1.810874    1.832450    ( 0.0000,  0.0000,  2.0000)
   2 Cr     1.811471   10.834617    1.817856    ( 0.0000,  0.0000,  0.0000)
   3 Cr     1.793245    1.834185   -0.003490    ( 0.0000,  0.0000,  0.0000)
   4 Ni     3.604260   10.801852   10.823406    ( 0.0000,  0.0000,  1.5000)
   5 Al     3.536411    1.889045    1.712310    ( 0.0000,  0.0000,  0.0000)
   6 Al     5.470331   10.759677    1.658522    ( 0.0000,  0.0000,  0.0000)
   7 Ni     5.466222    1.820393   10.819210    ( 0.0000,  0.0000,  1.5000)
   8 Fe     7.258296    0.003348   10.809138    ( 0.0000,  0.0000,  2.0000)
   9 Co     7.242586    1.800542    1.769577    ( 0.0000,  0.0000,  2.1000)
  10 Ni     9.013757    0.016362    1.796303    ( 0.0000,  0.0000,  1.5000)
  11 Fe     8.999164    1.809411   10.820088    ( 0.0000,  0.0000,  2.0000)
  12 Fe    10.855119    3.630726    0.006569    ( 0.0000,  0.0000,  2.0000)
  13 Co    10.850890    5.438466    1.807513    ( 0.0000,  0.0000,  2.1000)
  14 Cr     1.770694    3.618333    1.821478    ( 0.0000,  0.0000,  0.0000)
  15 Co     1.774586    5.427462   10.848180    ( 0.0000,  0.0000,  2.1000)
  16 Fe     3.619352    3.619168   -0.005741    ( 0.0000,  0.0000,  2.0000)
  17 Al     3.624307    5.372569    1.755808    ( 0.0000,  0.0000,  0.0000)
  18 Fe     5.436168    3.632927    1.787737    ( 0.0000,  0.0000,  2.0000)
  19 Fe     5.462579    5.421076    0.014749    ( 0.0000,  0.0000,  2.0000)
  20 Cr     7.210028    3.607849   10.818690    ( 0.0000,  0.0000,  0.0000)
  21 Co     7.212987    5.455358    1.782132    ( 0.0000,  0.0000,  2.1000)
  22 Al     9.094736    3.619667    1.746180    ( 0.0000,  0.0000,  0.0000)
  23 Fe     9.032481    5.422388    0.006612    ( 0.0000,  0.0000,  2.0000)
  24 Ni    10.846337    7.185741    0.022936    ( 0.0000,  0.0000,  1.5000)
  25 Al     0.006696    8.974368    1.876176    ( 0.0000,  0.0000,  0.0000)
  26 Ni     1.794047    7.226280    1.796281    ( 0.0000,  0.0000,  1.5000)
  27 Cr     1.869443    9.004487   10.844168    ( 0.0000,  0.0000,  0.0000)
  28 Fe     3.616804    7.253233    0.012865    ( 0.0000,  0.0000,  2.0000)
  29 Ni     3.594589    9.016890    1.767376    ( 0.0000,  0.0000,  1.5000)
  30 Ni     5.458741    7.239496    1.798395    ( 0.0000,  0.0000,  1.5000)
  31 Ni     5.416999    9.029846   10.827949    ( 0.0000,  0.0000,  1.5000)
  32 Co     7.225336    7.230443    0.042334    ( 0.0000,  0.0000,  2.1000)
  33 Cr     7.246728    8.993818    1.779725    ( 0.0000,  0.0000,  0.0000)
  34 Fe     9.018451    7.201527    1.801019    ( 0.0000,  0.0000,  2.0000)
  35 Ni     8.987389    9.031928    0.018241    ( 0.0000,  0.0000,  1.5000)
  36 Fe     0.004075    0.013387    3.632992    ( 0.0000,  0.0000,  2.0000)
  37 Co    10.818831    1.792887    5.424654    ( 0.0000,  0.0000,  2.1000)
  38 Cr     1.766791   10.831559    5.448582    ( 0.0000,  0.0000,  0.0000)
  39 Ni     1.768721    1.804792    3.613302    ( 0.0000,  0.0000,  1.5000)
  40 Al     3.520018   10.723638    3.640364    ( 0.0000,  0.0000,  0.0000)
  41 Al     3.615872    1.812240    5.546138    ( 0.0000,  0.0000,  0.0000)
  42 Cr     5.443692   10.799380    5.477357    ( 0.0000,  0.0000,  0.0000)
  43 Al     5.440342    1.871232    3.645796    ( 0.0000,  0.0000,  0.0000)
  44 Al     7.329832   10.790555    3.655456    ( 0.0000,  0.0000,  0.0000)
  45 Co     7.250392    1.804575    5.476977    ( 0.0000,  0.0000,  2.1000)
  46 Cr     9.052734    0.017448    5.457223    ( 0.0000,  0.0000,  0.0000)
  47 Ni     9.066189    1.793592    3.637881    ( 0.0000,  0.0000,  1.5000)
  48 Fe     0.002660    3.613487    3.606136    ( 0.0000,  0.0000,  2.0000)
  49 Fe    10.804747    5.420534    5.371983    ( 0.0000,  0.0000,  2.0000)
  50 Al     1.740065    3.612121    5.339815    ( 0.0000,  0.0000,  0.0000)
  51 Co     1.785927    5.435843    3.613855    ( 0.0000,  0.0000,  2.1000)
  52 Co     3.626497    3.629717    3.617282    ( 0.0000,  0.0000,  2.1000)
  53 Ni     3.647075    5.406699    5.410060    ( 0.0000,  0.0000,  1.5000)
  54 Ni     5.404791    3.655781    5.445633    ( 0.0000,  0.0000,  1.5000)
  55 Co     5.418626    5.423602    3.623895    ( 0.0000,  0.0000,  2.1000)
  56 Al     7.212294    3.691983    3.672511    ( 0.0000,  0.0000,  0.0000)
  57 Cr     7.222886    5.449211    5.448896    ( 0.0000,  0.0000,  0.0000)
  58 Ni     9.058328    3.604304    5.450664    ( 0.0000,  0.0000,  1.5000)
  59 Cr     9.063175    5.471058    3.628340    ( 0.0000,  0.0000,  0.0000)
[...]
  93 Co     7.215318    5.383313    9.042293    ( 0.0000,  0.0000,  2.1000)
  94 Ni     9.003370    3.625012    9.035083    ( 0.0000,  0.0000,  1.5000)
  95 Fe     9.011621    5.398525    7.214440    ( 0.0000,  0.0000,  2.0000)
  96 Al    -0.026348    7.255033    7.104752    ( 0.0000,  0.0000,  0.0000)
  97 Al     0.071459    9.086116    9.031007    ( 0.0000,  0.0000,  0.0000)
  98 Fe     1.832764    7.242066    9.046641    ( 0.0000,  0.0000,  2.0000)
  99 Co     1.856584    9.049926    7.210288    ( 0.0000,  0.0000,  2.1000)
 100 Fe     3.633165    7.272770    7.200226    ( 0.0000,  0.0000,  2.0000)
 101 Co     3.600878    9.056019    9.029315    ( 0.0000,  0.0000,  2.1000)
 102 Al     5.471882    7.304255    9.024382    ( 0.0000,  0.0000,  0.0000)
 103 Fe     5.420686    9.056691    7.205799    ( 0.0000,  0.0000,  2.0000)
 104 Co     7.224697    7.229478    7.185655    ( 0.0000,  0.0000,  2.1000)
 105 Ni     7.216815    9.086160    9.035094    ( 0.0000,  0.0000,  1.5000)
 106 Al     8.923844    7.169099    9.090713    ( 0.0000,  0.0000,  0.0000)
 107 Cr     8.987443    9.071632    7.198221    ( 0.0000,  0.0000,  0.0000)

Unit cell:
           periodic     x           y           z      points  spacing
  1. axis:    yes   10.842000    0.000000    0.000000    48     0.2259
  2. axis:    yes    0.000000   10.842000    0.000000    48     0.2259
  3. axis:    yes    0.000000    0.000000   10.842000    48     0.2259

  Lengths:  10.842000  10.842000  10.842000
  Angles:   90.000000  90.000000  90.000000

Effective grid spacing dv^(1/3) = 0.2259

     iter     time        total  log10-change:  magmom
                         energy  eigst   dens
iter:   1 03:42:14  -972.292573                  +121.3859
iter:   2 03:43:10  -858.925296  -0.19  -1.17    +65.1757
iter:   3 03:44:07  -844.574846  -0.86  -1.20    +55.6725
iter:   4 03:45:04  -831.579306  -1.24  -1.26    +51.6843
iter:   5 03:46:01  -819.993219  -1.52  -1.29    +49.2740
iter:   6 03:46:59  -813.502368  -1.34  -1.35    +49.4416
iter:   7 03:47:57  -816.893735  -1.34  -1.48    +48.6816
iter:   8 03:48:54  -809.774619  -1.67  -1.52    +48.9848
iter:   9 03:49:51  -806.481437  -2.12  -1.66    +49.9942
iter:  10 03:50:50  -806.599955  -2.51  -1.77    +50.9755
iter:  11 03:51:48  -806.970040  -2.51  -1.80    +51.9655
iter:  12 03:52:48  -807.711839  -2.40  -1.85    +53.1880
iter:  13 03:53:45  -807.900852  -2.48  -1.88    +53.6596
iter:  14 03:54:43  -807.347251  -2.72  -1.92    +54.3433
iter:  15 03:55:41  -807.420926  -2.94  -2.00    +54.8844
iter:  16 03:56:37  -807.714943  -2.93  -2.05    +55.2146
iter:  17 03:57:33  -807.651280  -2.86  -2.08    +55.5987
iter:  18 03:58:30  -807.418341  -3.07  -2.14    +55.5484
iter:  19 03:59:26  -807.553495  -3.17  -2.27    +55.7178
iter:  20 04:00:25  -807.524968  -3.33  -2.28    +55.7366
iter:  21 04:01:22  -807.532981c -3.34  -2.35    +55.5833
iter:  22 04:02:21  -807.577211c -3.38  -2.41    +55.5792
iter:  23 04:03:20  -807.555956c -3.64  -2.43    +55.4773
iter:  24 04:04:17  -807.591903c -3.71  -2.50    +55.2312
iter:  25 04:05:18  -807.656052  -3.72  -2.53    +55.0272
iter:  26 04:06:15  -807.681967c -3.89  -2.55    +54.8819
iter:  27 04:07:15  -807.697361c -3.90  -2.57    +54.5987
iter:  28 04:08:14  -807.741729c -4.00  -2.62    +54.4587
iter:  29 04:09:12  -807.757262c -4.07  -2.64    +54.2634
iter:  30 04:10:09  -807.778972c -4.20  -2.68    +54.0371
iter:  31 04:11:08  -807.810655c -4.16  -2.72    +53.8354
iter:  32 04:12:04  -807.831958c -4.38  -2.76    +53.6617
iter:  33 04:13:01  -807.860920c -4.30  -2.79    +53.3957
iter:  34 04:14:01  -807.890112c -4.31  -2.82    +53.2461
iter:  35 04:15:01  -807.908708c -4.37  -2.84    +53.0540
iter:  36 04:15:58  -807.921106c -4.45  -2.89    +52.9167
iter:  37 04:16:58  -807.936839c -4.51  -2.91    +52.7941
iter:  38 04:17:57  -807.951248c -4.56  -2.96    +52.6932
iter:  39 04:18:55  -807.961754c -4.61  -2.98    +52.5622
iter:  40 04:19:55  -807.973327c -4.70  -3.02    +52.4834
iter:  41 04:20:54  -807.985628c -4.68  -3.05    +52.3763
iter:  42 04:21:50  -807.989473c -4.88  -3.08    +52.3134
iter:  43 04:22:49  -807.997756c -4.87  -3.11    +52.2419
iter:  44 04:23:48  -808.002743c -5.00  -3.15    +52.2067
iter:  45 04:24:45  -808.006594c -5.05  -3.19    +52.1312
iter:  46 04:25:43  -808.012133c -5.11  -3.22    +52.0939
iter:  47 04:26:40  -808.018590c -5.07  -3.26    +52.0286
iter:  48 04:27:37  -808.020007c -5.21  -3.29    +51.9900
iter:  49 04:28:30  -808.023755c -5.26  -3.32    +51.9528
iter:  50 04:29:21  -808.028052c -5.24  -3.36    +51.9210
iter:  51 04:30:16  -808.029190c -5.37  -3.37    +51.8819
iter:  52 04:31:16  -808.032107c -5.46  -3.41    +51.8602
iter:  53 04:32:16  -808.036039c -5.34  -3.45    +51.8174
iter:  54 04:33:17  -808.036740c -5.53  -3.46    +51.7947
iter:  55 04:34:15  -808.038602c -5.61  -3.50    +51.7724
iter:  56 04:35:12  -808.040845c -5.57  -3.54    +51.7442
iter:  57 04:36:11  -808.041431c -5.72  -3.55    +51.7291
iter:  58 04:37:10  -808.042968c -5.81  -3.59    +51.7173
iter:  59 04:38:12  -808.043988c -5.85  -3.63    +51.6971
iter:  60 04:39:10  -808.044136c -5.99  -3.65    +51.6914
iter:  61 04:40:10  -808.045344c -6.04  -3.69    +51.6765
iter:  62 04:41:07  -808.045545c -6.17  -3.73    +51.6650
iter:  63 04:42:07  -808.046188c -6.22  -3.78    +51.6529
iter:  64 04:43:07  -808.046797c -6.35  -3.80    +51.6475
iter:  65 04:44:12  -808.047436c -6.16  -3.83    +51.6334
iter:  66 04:45:11  -808.047351c -6.36  -3.83    +51.6317
iter:  67 04:46:11  -808.047972c -6.49  -3.89    +51.6201
iter:  68 04:47:08  -808.048080c -6.59  -3.92    +51.6123
iter:  69 04:48:08  -808.048508c -6.49  -3.96    +51.6028
iter:  70 04:49:08  -808.048964c -6.53  -3.99    +51.5976
iter:  71 04:50:05  -808.049083c -6.58  -3.99    +51.5886
iter:  72 04:51:03  -808.049271c -6.72  -4.06c   +51.5854
iter:  73 04:52:00  -808.049568c -6.84  -4.10c   +51.5763
iter:  74 04:52:59  -808.049807c -6.82  -4.15c   +51.5671
iter:  75 04:53:58  -808.050226c -6.68  -4.17c   +51.5569
iter:  76 04:54:57  -808.050672c -6.68  -4.20c   +51.5460
iter:  77 04:55:55  -808.050713c -7.02  -4.19c   +51.5399
iter:  78 04:56:55  -808.050931c -7.12  -4.25c   +51.5360
iter:  79 04:57:54  -808.051093c -7.22  -4.25c   +51.5300
iter:  80 04:58:53  -808.051166c -7.12  -4.29c   +51.5236
iter:  81 04:59:52  -808.051255c -7.08  -4.34c   +51.5201
iter:  82 05:00:50  -808.051422c -7.31  -4.43c   +51.5176
iter:  83 05:01:49  -808.051404c -7.39  -4.45c   +51.5148
iter:  84 05:02:51  -808.051496c -7.58c -4.49c   +51.5136

Converged after 84 iterations.

Dipole moment: (4.114009, 12.390926, -3.380823) |e|*Ang

Total magnetic moment: (0.000000, 0.000000, 51.513557)
Local magnetic moments:
   0 Al ( 0.000000,  0.000000, -0.005306)
   1 Fe ( 0.000000,  0.000000,  1.969958)
   2 Cr ( 0.000000,  0.000000, -1.926800)
   3 Cr ( 0.000000,  0.000000,  1.422995)
   4 Ni ( 0.000000,  0.000000,  0.067296)
   5 Al ( 0.000000,  0.000000, -0.008707)
   6 Al ( 0.000000,  0.000000, -0.014508)
   7 Ni ( 0.000000,  0.000000,  0.307066)
   8 Fe ( 0.000000,  0.000000,  2.284854)
   9 Co ( 0.000000,  0.000000,  0.939607)
  10 Ni ( 0.000000,  0.000000,  0.251838)
  11 Fe ( 0.000000,  0.000000,  2.076494)
  12 Fe ( 0.000000,  0.000000,  2.004912)
  13 Co ( 0.000000,  0.000000,  1.312426)
  14 Cr ( 0.000000,  0.000000, -1.880730)
  15 Co ( 0.000000,  0.000000,  0.896009)
  16 Fe ( 0.000000,  0.000000,  1.953848)
  17 Al ( 0.000000,  0.000000, -0.036629)
  18 Fe ( 0.000000,  0.000000,  2.213323)
  19 Fe ( 0.000000,  0.000000,  2.191778)
  20 Cr ( 0.000000,  0.000000, -2.004111)
  21 Co ( 0.000000,  0.000000,  1.126942)
  22 Al ( 0.000000,  0.000000, -0.035212)
  23 Fe ( 0.000000,  0.000000,  2.158028)
  24 Ni ( 0.000000,  0.000000,  0.109010)
  25 Al ( 0.000000,  0.000000, -0.016015)
  26 Ni ( 0.000000,  0.000000,  0.300703)
  27 Cr ( 0.000000,  0.000000, -1.005967)
  28 Fe ( 0.000000,  0.000000,  2.320143)
  29 Ni ( 0.000000,  0.000000,  0.216154)
  30 Ni ( 0.000000,  0.000000,  0.322963)
  31 Ni ( 0.000000,  0.000000,  0.261752)
  32 Co ( 0.000000,  0.000000,  1.204568)
  33 Cr ( 0.000000,  0.000000, -2.006603)
  34 Fe ( 0.000000,  0.000000,  2.132117)
  35 Ni ( 0.000000,  0.000000,  0.174118)
  36 Fe ( 0.000000,  0.000000,  1.846757)
  37 Co ( 0.000000,  0.000000,  0.809115)
  38 Cr ( 0.000000,  0.000000, -1.638467)
  39 Ni ( 0.000000,  0.000000,  0.008332)
  40 Al ( 0.000000,  0.000000,  0.001652)
  41 Al ( 0.000000,  0.000000,  0.000223)
  42 Cr ( 0.000000,  0.000000, -1.780587)
  43 Al ( 0.000000,  0.000000, -0.004740)
  44 Al ( 0.000000,  0.000000, -0.003350)
  45 Co ( 0.000000,  0.000000,  0.238726)
  46 Cr ( 0.000000,  0.000000, -1.608284)
  47 Ni ( 0.000000,  0.000000,  0.221216)
  48 Fe ( 0.000000,  0.000000,  2.183942)
  49 Fe ( 0.000000,  0.000000,  1.917442)
  50 Al ( 0.000000,  0.000000, -0.029430)
  51 Co ( 0.000000,  0.000000,  1.222814)
  52 Co ( 0.000000,  0.000000,  0.970685)
  53 Ni ( 0.000000,  0.000000,  0.352312)
  54 Ni ( 0.000000,  0.000000,  0.109492)
  55 Co ( 0.000000,  0.000000,  1.142133)
  56 Al ( 0.000000,  0.000000, -0.009535)
  57 Cr ( 0.000000,  0.000000, -1.533450)
  58 Ni ( 0.000000,  0.000000,  0.119958)
  59 Cr ( 0.000000,  0.000000, -1.699408)
[...]
  93 Co ( 0.000000,  0.000000,  1.296257)
  94 Ni ( 0.000000,  0.000000,  0.221906)
  95 Fe ( 0.000000,  0.000000,  2.012040)
  96 Al ( 0.000000,  0.000000, -0.033403)
  97 Al ( 0.000000,  0.000000, -0.011341)
  98 Fe ( 0.000000,  0.000000,  1.963611)
  99 Co ( 0.000000,  0.000000,  0.979600)
 100 Fe ( 0.000000,  0.000000,  2.299636)
 101 Co ( 0.000000,  0.000000,  1.169638)
 102 Al ( 0.000000,  0.000000, -0.045535)
 103 Fe ( 0.000000,  0.000000,  2.342273)
 104 Co ( 0.000000,  0.000000,  1.151111)
 105 Ni ( 0.000000,  0.000000,  0.328787)
 106 Al ( 0.000000,  0.000000, -0.030214)
 107 Cr ( 0.000000,  0.000000,  1.543220)

Energy contributions relative to reference atoms: (reference = -3235165.067515)

Kinetic:       +274.999845
Potential:     -262.361995
External:        +0.000000
XC:            -849.943841
Entropy (-ST):   -3.950608
Local:          +31.229799
Free energy:   -810.026799
Extrapolated:  -808.051496

Spin contamination: 30.545778 electrons
Showing only first 2 kpts
                      Up                     Down
 Kpt  Band  Eigenvalues  Occupancy  Eigenvalues  Occupancy
  0   454      9.12677    0.99453      9.98090    0.03429
  0   455      9.14172    0.99365      9.98813    0.03197
  0   456      9.15869    0.99249     10.00733    0.02653
  0   457      9.18090    0.99064     10.01323    0.02505

  1   454      9.12656    0.99454      9.97660    0.03574
  1   455      9.14445    0.99348      9.98482    0.03301
  1   456      9.16040    0.99236     10.00034    0.02840
  1   457      9.17610    0.99107     10.00835    0.02627

Fermi level: 9.64709

No gap

Forces in eV/Ang:
  0 Al   -0.64311   -0.60901   -0.35507
  1 Fe    0.12531    0.11305    0.42870
  2 Cr   -0.27805    0.07086   -0.24965
  3 Cr   -0.29419   -0.18764   -0.71354
  4 Ni   -0.15192    0.12262   -0.12518
  5 Al    0.96213   -0.28744    0.49482
  6 Al   -0.62915    0.39423   -0.07303
  7 Ni   -0.16890   -0.07262    0.05280
  8 Fe    0.41716   -0.01987   -0.21707
  9 Co   -0.04590    0.11778    0.28162
 10 Ni    0.00438   -0.09560    0.16119
 11 Fe   -0.25722    0.36790    0.17128
 12 Fe    0.03015    0.25071   -0.17854
 13 Co    0.54111    0.12516    0.05291
 14 Cr   -1.22996    0.22948   -0.07770
 15 Co   -0.15394   -0.09536   -0.08354
 16 Fe    0.18960    0.25561   -0.23218
 17 Al   -0.02513    0.58021    0.37259
 18 Fe    0.35038   -0.07927    0.05060
 19 Fe    0.49048    0.00709   -0.16535
 20 Cr   -0.42027    0.07138   -0.21498
 21 Co   -0.04930    0.01578    0.27561
 22 Al   -0.24176   -0.18352    0.53936
 23 Fe   -0.29567   -0.19528   -0.09642
 24 Ni    0.11904    0.33214   -0.31228
 25 Al   -0.38710   -0.35444   -0.56382
 26 Ni    0.12963   -0.34029    0.16248
 27 Cr    0.32135   -0.19616   -0.22662
 28 Fe   -0.19927    0.21759   -0.16428
 29 Ni    0.18110   -0.05971    0.41464
 30 Ni   -0.31291   -0.27218   -0.06613
 31 Ni    0.03248   -0.14384   -0.14907
 32 Co   -0.12856   -0.11780    0.35617
 33 Cr    0.48630   -0.48319   -0.17614
 34 Fe   -0.30480   -0.50781   -0.08087
 35 Ni    0.60246    0.12649   -0.28213
 36 Fe    0.07311    0.45026    0.20026
 37 Co    0.13891   -0.38557    0.14988
 38 Cr   -0.99563   -0.19463    0.86629
 39 Ni    0.28128   -0.22756    0.09368
 40 Al    0.60190    0.18624    0.10852
 41 Al   -0.36276   -0.23707   -0.76151
 42 Cr    0.17640   -0.04579    0.11138
 43 Al    0.17104   -0.00906    0.20603
 44 Al   -0.24185    0.88620   -0.22062
 45 Co   -0.26440   -0.20295   -0.14720
 46 Cr    0.35114    0.10507    0.49752
 47 Ni   -0.01476    0.19932   -0.32124
 48 Fe   -0.45199    0.14555   -0.18194
 49 Fe   -0.12973   -0.15615   -0.03449
 50 Al    0.45944   -0.13022   -0.29953
 51 Co   -0.16557    0.03487    0.01299
 52 Co    0.01718    0.16326   -0.15271
 53 Ni   -0.13726    0.00746    0.13019
 54 Ni    0.31399   -0.21881   -0.14756
 55 Co   -0.00763    0.03727   -0.13566
 56 Al    0.45772   -0.52374   -0.23395
 57 Cr   -0.34078    1.01699    0.40803
 58 Ni   -0.23644    0.10577   -0.09705
 59 Cr    0.56129    0.69481    0.05950
[...]
 93 Co   -0.13055   -0.34966   -0.14946
 94 Ni    0.06641    0.19206   -0.08355
 95 Fe   -0.03987   -0.28824    0.01076
 96 Al    0.13905   -0.40318    0.62704
 97 Al   -0.84499   -0.19190   -0.11706
 98 Fe   -0.06032   -0.04513    0.18163
 99 Co   -0.12342   -0.05601   -0.16155
100 Fe   -0.10160   -0.18190   -0.02522
101 Co   -0.22276    0.34245   -0.17067
102 Al    0.52365   -0.16867    0.09271
103 Fe    0.25069    0.37674   -0.20946
104 Co    0.02123   -0.02222   -0.32182
105 Ni   -0.00122   -0.15420   -0.02317
106 Al   -0.23513    0.68236    0.05866
107 Cr   -0.03891    0.31490   -0.34229

Date: Sat Apr  8 05:03:09 2023