User:   c.zeng@d0062
Date:   Fri Apr 14 03:08:33 2023
Arch:   x86_64
Pid:    242087
CWD:    /home/c.zeng/projects/hea-corrosion/hea-mlp/data-curation/bulk-md/dft-jobs/89
Python: 3.8.1
gpaw:   /home/c.zeng/usr/installs/gpaw/source/gpaw-22.8.0/gpaw
_gpaw:  /home/c.zeng/usr/installs/gpaw/source/gpaw-22.8.0/
        _gpaw.cpython-38-x86_64-linux-gnu.so
ase:    /home/c.zeng/.local/lib/python3.8/site-packages/ase-3.22.1-py3.8.egg/ase (version 3.22.1)
numpy:  /shared/centos7/python/3.8.1/lib/python3.8/site-packages/numpy (version 1.17.4)
scipy:  /shared/centos7/python/3.8.1/lib/python3.8/site-packages/scipy (version 1.4.1)
units:  Angstrom and eV
cores: 30
OpenMP: False
OMP_NUM_THREADS: 1

Input parameters:
  convergence: {energy: 0.0001}
  kpts: [2 2 2]
  maxiter: 666
  mode: {ecut: 350.0,
         name: pw}
  occupations: {fixmagmom: False,
                name: fermi-dirac,
                width: 0.1}
  spinpol: True
  xc: PBE

System changes: positions, numbers, cell, pbc, initial_charges, initial_magmoms

Initialize ...

species:
  Al:
    name: Aluminium
    id: 0292cae29f5d6237e50f6abdd43a7bdd
    Z: 13.0
    valence: 3
    core: 10
    charge: 0.0
    file: /home/c.zeng/usr/data/gpaw-setups-0.9.20000/Al.PBE.gz
    compensation charges: {type: gauss,
                           rc: 0.34,
                           lmax: 2}
    cutoffs: {filter: 1.91,
              core: 2.36}
    valence states:
      #              energy  rcut
      - 3s(2.00)    -7.753   1.085
      - 3p(1.00)    -2.712   1.085
      -  s          19.459   1.085
      -  p          24.499   1.085
      -  d           0.000   1.085

    # Using partial waves for Al as LCAO basis

  Fe:
    name: Iron
    id: 37abbd8d6c3c35915a9b583b742da910
    Z: 26.0
    valence: 8
    core: 18
    charge: 0.0
    file: /home/c.zeng/usr/data/gpaw-setups-0.9.20000/Fe.PBE.gz
    compensation charges: {type: gauss,
                           rc: 0.33,
                           lmax: 2}
    cutoffs: {filter: 2.06,
              core: 2.67}
    valence states:
      #              energy  rcut
      - 4s(2.00)    -5.291   1.164
      - 4p(0.00)    -1.326   1.058
      - 3d(6.00)    -7.505   1.058
      -  s          21.920   1.164
      -  p          25.885   1.058
      -  d          19.706   1.058

[...]

  Cr:
    name: Chromium
    id: 33f258bda2ca9f93018e70263a35547b
    Z: 24.0
    valence: 6
    core: 18
    charge: 0.0
    file: /home/c.zeng/usr/data/gpaw-setups-0.9.20000/Cr.PBE.gz
    compensation charges: {type: gauss,
                           rc: 0.35,
                           lmax: 2}
    cutoffs: {filter: 2.14,
              core: 3.04}
    valence states:
      #              energy  rcut
      - 4s(1.00)    -4.007   1.164
      - 4p(0.00)    -0.989   1.217
      - 3d(5.00)    -2.913   1.111
      -  s          23.205   1.164
      -  p          26.223   1.217
      -  d          24.299   1.111

[...]

  Ni:
    name: Nickel
    id: 0d9f38a9d6e76a2886f07bb4381f212b
    Z: 28.0
    valence: 16
    core: 12
    charge: 0.0
    file: /home/c.zeng/usr/data/gpaw-setups-0.9.20000/Ni.PBE.gz
    compensation charges: {type: gauss,
                           rc: 0.36,
                           lmax: 2}
    cutoffs: {filter: 2.14,
              core: 1.98}
    valence states:
      #              energy  rcut
      - 4s(2.00)    -5.642   1.164
      - 3p(6.00)   -71.394   1.207
      - 4p(0.00)    -1.226   1.207
      - 3d(8.00)    -8.875   1.138
      -  s          21.570   1.164
      -  d          18.337   1.138

[...]

  Co:
    name: Cobalt
    id: 339d20d5b0b93d2de9531a1bee871d91
    Z: 27.0
    valence: 9
    core: 18
    charge: 0.0
    file: /home/c.zeng/usr/data/gpaw-setups-0.9.20000/Co.PBE.gz
    compensation charges: {type: gauss,
                           rc: 0.32,
                           lmax: 2}
    cutoffs: {filter: 1.87,
              core: 2.55}
    valence states:
      #              energy  rcut
      - 4s(2.00)    -5.469   1.005
      - 4p(0.00)    -1.277   1.058
      - 3d(7.00)    -8.205   1.005
      -  s          21.742   1.005
      -  p          25.934   1.058
      -  d          19.007   1.005

    # Using partial waves for Co as LCAO basis

Reference energy: -3235165.067515  # eV

Spin-polarized calculation.
Magnetic moment: 121.100000

Convergence criteria:
 Maximum [total energy] change in last 3 cyles: 0.0001 eV / electron
 Maximum integral of absolute [dens]ity change: 0.0001 electrons / valence electron
 Maximum integral of absolute [eigenst]ate change: 4e-08 eV^2 / valence electron
 Maximum number of scf [iter]ations: 666
 (Square brackets indicate name in SCF output, whereas a 'c' in
 the SCF output indicates the quantity has converged.)

Symmetries present (total): 1

  ( 1  0  0)
  ( 0  1  0)
  ( 0  0  1)

8 k-points: 2 x 2 x 2 Monkhorst-Pack grid
4 k-points in the irreducible part of the Brillouin zone
       k-points in crystal coordinates                weights
   0:     0.25000000   -0.25000000   -0.25000000          2/8
   1:     0.25000000   -0.25000000    0.25000000          2/8
   2:     0.25000000    0.25000000   -0.25000000          2/8
   3:     0.25000000    0.25000000    0.25000000          2/8

Wave functions: Plane wave expansion
  Cutoff energy: 350.000 eV
  Number of coefficients (min, max): 19084, 19084
  Pulay-stress correction: 0.000000 eV/Ang^3 (de/decut=0.000000)
  Using FFTW library
  ScaLapack parameters: grid=1x1, blocksize=None
  Wavefunction extrapolation:
    Improved wavefunction reuse through dual PAW basis

Occupation numbers: Fermi-Dirac:
  width: 0.1000  # eV

Eigensolver
   Davidson(niter=2)

Densities:
  Coarse grid: 48*48*48 grid
  Fine grid: 96*96*96 grid
  Total Charge: 0.000000

Density mixing:
  Method: difference
  Backend: pulay
  Linear mixing parameter: 0.05
  old densities: 5
  Damping of long wavelength oscillations: 50

Hamiltonian:
  XC and Coulomb potentials evaluated on a 96*96*96 grid
  Using the PBE Exchange-Correlation functional
  External potential:
    NoExternalPotential

XC parameters: PBE with 2 nearest neighbor stencil

Total number of cores used: 30
Parallelization over k-points: 2
Domain decomposition: 5 x 3 x 1

Number of atoms: 108
Number of atomic orbitals: 933
Number of bands in calculation: 624
Number of valence electrons: 912
Bands to converge: occupied

... initialized

Initializing position-dependent things.

Density initialized from atomic densities
Creating initial wave functions:
  624 bands from LCAO basis set

        .-----------------Fe-------.
       /|            Ni       Ni   |
      / |      Fe                  |
     / Al                Ni        |
    /   |  Fe   Co  Al     Fe      |
   /    |    Fe     FeCr     Cr    Co
  /   Cr|  CoCAlNi    CoCFe    Cr  |
 Al    Cr Ni   FeCo  Cr  NNi  CrAl |
 |     CrAlAl   NiNiFe     FeAl    |
 |    CrFeFe CrCol Co CrNiAlFCr    |
 |    Co|  Fe NiCr   CCr      CFe  |
 |     Al Co  Al NiNiAl NFei  NiCo |
 |      |CoAl   NiCoCo   CrCr     Al
 |      .-NiCo-----Ni-Al----FCo----.
 | Fe  /   Cr  Al      Co      Co /
 |    /Nir    Al        Ni       Ni
 |   /   Co      Fee      Al    /
 |FeFe     Al       Co         /
 | /  Cr                      /

Positions:
   0 Al    10.877338    0.024733   -0.129774    ( 0.0000,  0.0000,  0.0000)
   1 Fe    10.937584    1.626089    1.915021    ( 0.0000,  0.0000,  2.0000)
   2 Cr     1.994017   11.126511    1.692869    ( 0.0000,  0.0000,  0.0000)
   3 Cr     1.671491    1.960705   -0.205510    ( 0.0000,  0.0000,  0.0000)
   4 Ni     3.569123   10.891218   10.559964    ( 0.0000,  0.0000,  1.5000)
   5 Al     3.581200    1.761851    1.589398    ( 0.0000,  0.0000,  0.0000)
   6 Al     5.487463   10.651481    1.721169    ( 0.0000,  0.0000,  0.0000)
   7 Ni     5.684348    1.809678   10.830049    ( 0.0000,  0.0000,  1.5000)
   8 Fe     7.433191   -0.015800   10.783466    ( 0.0000,  0.0000,  2.0000)
   9 Co     7.273663    2.021346    1.829173    ( 0.0000,  0.0000,  2.1000)
  10 Ni     9.027594   -0.225567    1.644487    ( 0.0000,  0.0000,  1.5000)
  11 Fe     9.182754    1.727188   10.857910    ( 0.0000,  0.0000,  2.0000)
  12 Fe    11.008624    3.653949    0.231230    ( 0.0000,  0.0000,  2.0000)
  13 Co    10.652575    5.712804    1.817289    ( 0.0000,  0.0000,  2.1000)
  14 Cr     1.870226    3.730218    1.768365    ( 0.0000,  0.0000,  0.0000)
  15 Co     1.651030    5.718785   11.055668    ( 0.0000,  0.0000,  2.1000)
  16 Fe     3.831348    3.556949   -0.093930    ( 0.0000,  0.0000,  2.0000)
  17 Al     3.725603    5.506340    1.544633    ( 0.0000,  0.0000,  0.0000)
  18 Fe     5.479256    3.650112    1.781345    ( 0.0000,  0.0000,  2.0000)
  19 Fe     5.564277    5.383607    0.129723    ( 0.0000,  0.0000,  2.0000)
  20 Cr     7.380931    3.582043   10.863633    ( 0.0000,  0.0000,  0.0000)
  21 Co     7.298127    5.459532    1.760741    ( 0.0000,  0.0000,  2.1000)
  22 Al     9.138332    3.579016    1.618048    ( 0.0000,  0.0000,  0.0000)
  23 Fe     9.066160    5.324686   -0.161535    ( 0.0000,  0.0000,  2.0000)
  24 Ni    10.848757    7.326510    0.019265    ( 0.0000,  0.0000,  1.5000)
  25 Al    -0.027574    9.084784    1.851674    ( 0.0000,  0.0000,  0.0000)
  26 Ni     1.574095    7.300393    2.085112    ( 0.0000,  0.0000,  1.5000)
  27 Cr     1.805176    9.090366   10.908574    ( 0.0000,  0.0000,  0.0000)
  28 Fe     3.590559    7.276026   -0.120430    ( 0.0000,  0.0000,  2.0000)
  29 Ni     3.564876    8.796810    1.866992    ( 0.0000,  0.0000,  1.5000)
  30 Ni     5.429997    7.202260    1.764517    ( 0.0000,  0.0000,  1.5000)
  31 Ni     5.576579    8.952648   10.692046    ( 0.0000,  0.0000,  1.5000)
  32 Co     7.251692    7.022656    0.029647    ( 0.0000,  0.0000,  2.1000)
  33 Cr     7.247347    9.025354    1.537512    ( 0.0000,  0.0000,  0.0000)
  34 Fe     8.783795    7.438407    1.787240    ( 0.0000,  0.0000,  2.0000)
  35 Ni     9.173366    9.011801   -0.135231    ( 0.0000,  0.0000,  1.5000)
  36 Fe     0.156770   -0.153911    3.735567    ( 0.0000,  0.0000,  2.0000)
  37 Co    10.824707    1.587546    5.388160    ( 0.0000,  0.0000,  2.1000)
  38 Cr     2.080862   10.734455    5.587618    ( 0.0000,  0.0000,  0.0000)
  39 Ni     1.811667    1.619308    3.559267    ( 0.0000,  0.0000,  1.5000)
  40 Al     3.394825   10.660920    3.760728    ( 0.0000,  0.0000,  0.0000)
  41 Al     3.580001    1.832460    5.598037    ( 0.0000,  0.0000,  0.0000)
  42 Cr     5.376651   10.473541    5.104096    ( 0.0000,  0.0000,  0.0000)
  43 Al     5.271195    1.921828    3.597484    ( 0.0000,  0.0000,  0.0000)
  44 Al     7.400652   10.783578    3.315994    ( 0.0000,  0.0000,  0.0000)
  45 Co     7.035211    1.918063    5.349969    ( 0.0000,  0.0000,  2.1000)
  46 Cr     8.889800   -0.084642    5.243951    ( 0.0000,  0.0000,  0.0000)
  47 Ni     8.863190    1.646459    3.707362    ( 0.0000,  0.0000,  1.5000)
  48 Fe     0.089241    3.455299    3.492721    ( 0.0000,  0.0000,  2.0000)
  49 Fe    10.661494    5.476178    5.672460    ( 0.0000,  0.0000,  2.0000)
  50 Al     1.590620    3.456835    5.532600    ( 0.0000,  0.0000,  0.0000)
  51 Co     1.823353    5.346973    3.787646    ( 0.0000,  0.0000,  2.1000)
  52 Co     3.620039    3.877363    3.915379    ( 0.0000,  0.0000,  2.1000)
  53 Ni     3.850401    5.376844    5.679132    ( 0.0000,  0.0000,  1.5000)
  54 Ni     5.597505    3.822692    5.632135    ( 0.0000,  0.0000,  1.5000)
  55 Co     5.435445    5.587625    3.551242    ( 0.0000,  0.0000,  2.1000)
  56 Al     7.325845    3.807472    3.696945    ( 0.0000,  0.0000,  0.0000)
  57 Cr     7.132210    5.587734    5.701866    ( 0.0000,  0.0000,  0.0000)
  58 Ni     9.113442    3.484202    5.380327    ( 0.0000,  0.0000,  1.5000)
  59 Cr     9.206573    5.599658    3.478094    ( 0.0000,  0.0000,  0.0000)
[...]
  93 Co     7.105735    5.434068    9.106701    ( 0.0000,  0.0000,  2.1000)
  94 Ni     8.986443    3.545813    8.986594    ( 0.0000,  0.0000,  1.5000)
  95 Fe     8.829040    5.660219    7.355055    ( 0.0000,  0.0000,  2.0000)
  96 Al    -0.174188    7.370624    6.924046    ( 0.0000,  0.0000,  0.0000)
  97 Al     0.226033    9.055414    9.073041    ( 0.0000,  0.0000,  0.0000)
  98 Fe     2.000634    7.254013    9.063730    ( 0.0000,  0.0000,  2.0000)
  99 Co     1.938392    8.617921    7.180967    ( 0.0000,  0.0000,  2.1000)
 100 Fe     3.656335    7.194227    7.136891    ( 0.0000,  0.0000,  2.0000)
 101 Co     3.503894    9.068277    8.812532    ( 0.0000,  0.0000,  2.1000)
 102 Al     5.655294    7.202131    9.088700    ( 0.0000,  0.0000,  0.0000)
 103 Fe     5.392323    9.279673    7.199761    ( 0.0000,  0.0000,  2.0000)
 104 Co     7.319228    7.597903    7.401721    ( 0.0000,  0.0000,  2.1000)
 105 Ni     7.259956    9.224477    9.086621    ( 0.0000,  0.0000,  1.5000)
 106 Al     8.735830    7.292406    9.228454    ( 0.0000,  0.0000,  0.0000)
 107 Cr     8.756458    9.405339    7.290991    ( 0.0000,  0.0000,  0.0000)

Unit cell:
           periodic     x           y           z      points  spacing
  1. axis:    yes   10.872400    0.000000    0.000000    48     0.2265
  2. axis:    yes    0.000000   10.872400    0.000000    48     0.2265
  3. axis:    yes    0.000000    0.000000   10.872400    48     0.2265

  Lengths:  10.872400  10.872400  10.872400
  Angles:   90.000000  90.000000  90.000000

Effective grid spacing dv^(1/3) = 0.2265

     iter     time        total  log10-change:  magmom
                         energy  eigst   dens
iter:   1 03:11:41  -952.436880                  +121.3864
iter:   2 03:12:54  -841.066895  -0.20  -1.16    +64.6182
iter:   3 03:14:07  -828.563455  -0.85  -1.21    +55.1524
iter:   4 03:15:21  -814.796455  -1.25  -1.26    +51.0442
iter:   5 03:16:34  -803.441120  -1.58  -1.29    +48.4018
iter:   6 03:17:48  -800.711434  -1.33  -1.35    +48.5714
iter:   7 03:19:01  -801.070286  -1.27  -1.44    +47.9645
iter:   8 03:20:15  -793.739636  -1.65  -1.50    +48.0705
iter:   9 03:21:28  -791.085503  -2.02  -1.65    +48.7510
iter:  10 03:22:41  -791.092563  -2.32  -1.74    +49.5818
iter:  11 03:23:55  -791.613605  -2.41  -1.77    +50.2354
iter:  12 03:25:08  -791.643697  -2.32  -1.79    +51.3819
iter:  13 03:26:22  -791.221265  -2.44  -1.84    +51.9096
iter:  14 03:27:35  -791.544448  -2.52  -1.93    +52.2054
iter:  15 03:28:49  -791.179578  -2.70  -1.95    +52.7386
iter:  16 03:30:02  -791.171874  -2.83  -2.01    +53.0921
iter:  17 03:31:16  -791.207027c -2.93  -2.07    +53.2962
iter:  18 03:32:29  -791.481179  -2.84  -2.10    +53.3610
iter:  19 03:33:42  -791.319486  -2.93  -2.12    +53.6303
iter:  20 03:34:55  -791.205797  -3.02  -2.18    +53.5108
iter:  21 03:36:09  -791.252572  -3.08  -2.25    +53.4411
iter:  22 03:37:23  -791.162139c -3.24  -2.28    +53.4307
iter:  23 03:38:36  -791.250028c -3.31  -2.35    +53.2981
iter:  24 03:39:49  -791.270402  -3.33  -2.37    +53.2397
iter:  25 03:41:03  -791.301383c -3.35  -2.40    +53.0464
iter:  26 03:42:16  -791.262401c -3.49  -2.41    +53.0068
iter:  27 03:43:29  -791.262282c -3.63  -2.48    +52.8005
iter:  28 03:44:42  -791.264026c -3.74  -2.52    +52.6152
iter:  29 03:45:55  -791.308857c -3.76  -2.56    +52.4809
iter:  30 03:47:09  -791.319351c -3.86  -2.56    +52.3274
iter:  31 03:48:23  -791.329994c -3.88  -2.59    +52.1380
iter:  32 03:49:36  -791.342189c -3.89  -2.62    +51.9050
iter:  33 03:50:49  -791.339226c -4.03  -2.62    +51.8359
iter:  34 03:52:03  -791.355291c -4.13  -2.68    +51.6785
iter:  35 03:53:16  -791.361398c -4.15  -2.71    +51.4702
iter:  36 03:54:29  -791.374437c -4.17  -2.72    +51.3758
iter:  37 03:55:43  -791.378944c -4.27  -2.73    +51.2798
iter:  38 03:56:56  -791.402273c -4.17  -2.76    +51.2035
iter:  39 03:58:09  -791.390816c -4.32  -2.75    +51.0314
iter:  40 03:59:23  -791.393215c -4.33  -2.81    +50.8989
iter:  41 04:00:36  -791.412194c -4.30  -2.83    +50.8598
iter:  42 04:01:50  -791.416494c -4.29  -2.83    +50.7670
iter:  43 04:03:03  -791.417469c -4.37  -2.84    +50.6768
iter:  44 04:04:16  -791.416260c -4.35  -2.87    +50.5609
iter:  45 04:05:30  -791.414509c -4.56  -2.88    +50.5709
iter:  46 04:06:43  -791.420955c -4.62  -2.95    +50.5380
iter:  47 04:07:57  -791.418388c -4.90  -2.96    +50.4748
iter:  48 04:09:10  -791.425033c -4.77  -2.99    +50.4539
iter:  49 04:10:23  -791.427023c -4.91  -2.99    +50.4320
iter:  50 04:11:37  -791.437960c -4.74  -3.02    +50.4290
iter:  51 04:12:50  -791.435850c -4.72  -3.00    +50.3476
iter:  52 04:14:03  -791.440579c -4.47  -3.05    +50.3284
iter:  53 04:15:17  -791.444019c -4.60  -3.02    +50.3744
iter:  54 04:16:30  -791.451293c -4.42  -3.09    +50.3575
iter:  55 04:17:43  -791.443473c -4.62  -3.05    +50.3538
iter:  56 04:18:56  -791.439246c -4.78  -3.12    +50.3197
iter:  57 04:20:10  -791.437833c -5.07  -3.19    +50.3601
iter:  58 04:21:23  -791.440758c -5.30  -3.28    +50.3713
iter:  59 04:22:36  -791.440333c -5.85  -3.30    +50.3598
iter:  60 04:23:49  -791.444066c -5.32  -3.34    +50.3623
iter:  61 04:25:02  -791.444721c -5.42  -3.32    +50.3623
iter:  62 04:26:16  -791.447325c -5.17  -3.35    +50.3721
iter:  63 04:27:29  -791.446780c -5.01  -3.42    +50.3439
iter:  64 04:28:42  -791.444477c -5.14  -3.37    +50.3526
iter:  65 04:29:54  -791.445481c -5.49  -3.56    +50.3956
iter:  66 04:31:06  -791.446451c -5.56  -3.73    +50.4029
iter:  67 04:32:19  -791.445067c -5.95  -3.62    +50.4107
iter:  68 04:33:31  -791.445590c -6.20  -3.86    +50.4266
iter:  69 04:34:43  -791.445835c -6.69  -3.87    +50.4320
iter:  70 04:35:55  -791.446424c -6.42  -3.93    +50.4353
iter:  71 04:37:07  -791.448036c -5.51  -3.94    +50.4486
iter:  72 04:38:19  -791.448484c -6.16  -3.90    +50.4696
iter:  73 04:39:31  -791.448834c -6.40  -3.93    +50.4877
iter:  74 04:40:44  -791.449316c -6.11  -3.94    +50.5138
iter:  75 04:41:56  -791.448376c -6.32  -3.85    +50.4669
iter:  76 04:43:08  -791.448860c -6.94  -3.91    +50.4916
iter:  77 04:44:20  -791.449131c -6.69  -3.92    +50.5109
iter:  78 04:45:32  -791.449699c -6.60  -3.92    +50.5175
iter:  79 04:46:44  -791.449613c -6.21  -3.88    +50.5350
iter:  80 04:47:56  -791.450347c -5.95  -3.83    +50.5477
iter:  81 04:49:08  -791.450281c -6.32  -3.82    +50.5430
iter:  82 04:50:20  -791.450284c -6.46  -4.01c   +50.5362
iter:  83 04:51:32  -791.450499c -6.41  -4.02c   +50.5368
iter:  84 04:52:44  -791.450502c -6.56  -4.15c   +50.5390
iter:  85 04:53:55  -791.450648c -6.99  -4.29c   +50.5466
iter:  86 04:55:07  -791.450849c -6.91  -4.38c   +50.5533
iter:  87 04:56:19  -791.450659c -7.33  -4.38c   +50.5453
iter:  88 04:57:31  -791.449706c -5.94  -4.44c   +50.5027
iter:  89 04:58:43  -791.451121c -5.72  -4.45c   +50.5623
iter:  90 04:59:55  -791.450743c -7.19  -4.43c   +50.5496
iter:  91 05:01:07  -791.451090c -6.89  -4.58c   +50.5623
iter:  92 05:02:19  -791.451221c -7.15  -4.52c   +50.5657
iter:  93 05:03:31  -791.451299c -7.01  -4.52c   +50.5694
iter:  94 05:04:44  -791.451391c -7.39  -4.67c   +50.5719
iter:  95 05:05:55  -791.451617c -6.76  -4.66c   +50.5822
iter:  96 05:07:08  -791.451497c -7.46c -4.57c   +50.5789

Converged after 96 iterations.

Dipole moment: (25.939350, 28.284241, 31.255812) |e|*Ang

Total magnetic moment: (0.000000, 0.000000, 50.578927)
Local magnetic moments:
   0 Al ( 0.000000,  0.000000, -0.001753)
   1 Fe ( 0.000000,  0.000000,  2.077595)
   2 Cr ( 0.000000,  0.000000, -1.689536)
   3 Cr ( 0.000000,  0.000000,  0.855386)
   4 Ni ( 0.000000,  0.000000, -0.013396)
   5 Al ( 0.000000,  0.000000, -0.025139)
   6 Al ( 0.000000,  0.000000, -0.007149)
   7 Ni ( 0.000000,  0.000000,  0.293369)
   8 Fe ( 0.000000,  0.000000,  2.178132)
   9 Co ( 0.000000,  0.000000,  0.800714)
  10 Ni ( 0.000000,  0.000000,  0.095120)
  11 Fe ( 0.000000,  0.000000,  1.947333)
  12 Fe ( 0.000000,  0.000000,  1.806913)
  13 Co ( 0.000000,  0.000000,  1.131055)
  14 Cr ( 0.000000,  0.000000, -2.303032)
  15 Co ( 0.000000,  0.000000,  1.037744)
  16 Fe ( 0.000000,  0.000000,  1.997238)
  17 Al ( 0.000000,  0.000000, -0.039229)
  18 Fe ( 0.000000,  0.000000,  2.214076)
  19 Fe ( 0.000000,  0.000000,  2.012999)
  20 Cr ( 0.000000,  0.000000, -1.714566)
  21 Co ( 0.000000,  0.000000,  0.985997)
  22 Al ( 0.000000,  0.000000, -0.035913)
  23 Fe ( 0.000000,  0.000000,  2.161522)
  24 Ni ( 0.000000,  0.000000,  0.082118)
  25 Al ( 0.000000,  0.000000, -0.010491)
  26 Ni ( 0.000000,  0.000000,  0.297187)
  27 Cr ( 0.000000,  0.000000, -1.789277)
  28 Fe ( 0.000000,  0.000000,  2.249682)
  29 Ni ( 0.000000,  0.000000,  0.183984)
  30 Ni ( 0.000000,  0.000000,  0.304942)
  31 Ni ( 0.000000,  0.000000,  0.139906)
  32 Co ( 0.000000,  0.000000,  0.971336)
  33 Cr ( 0.000000,  0.000000, -1.680842)
  34 Fe ( 0.000000,  0.000000,  2.088439)
  35 Ni ( 0.000000,  0.000000,  0.102340)
  36 Fe ( 0.000000,  0.000000,  1.722129)
  37 Co ( 0.000000,  0.000000,  0.925838)
  38 Cr ( 0.000000,  0.000000,  0.445661)
  39 Ni ( 0.000000,  0.000000,  0.026671)
  40 Al ( 0.000000,  0.000000, -0.005922)
  41 Al ( 0.000000,  0.000000, -0.007343)
  42 Cr ( 0.000000,  0.000000, -1.806907)
  43 Al ( 0.000000,  0.000000, -0.007899)
  44 Al ( 0.000000,  0.000000, -0.002304)
  45 Co ( 0.000000,  0.000000,  0.266958)
  46 Cr ( 0.000000,  0.000000, -0.531683)
  47 Ni ( 0.000000,  0.000000,  0.134341)
  48 Fe ( 0.000000,  0.000000,  2.479727)
  49 Fe ( 0.000000,  0.000000,  1.849250)
  50 Al ( 0.000000,  0.000000, -0.028041)
  51 Co ( 0.000000,  0.000000,  1.447466)
  52 Co ( 0.000000,  0.000000,  1.274994)
  53 Ni ( 0.000000,  0.000000,  0.459486)
  54 Ni ( 0.000000,  0.000000, -0.025448)
  55 Co ( 0.000000,  0.000000,  1.249986)
  56 Al ( 0.000000,  0.000000, -0.012584)
  57 Cr ( 0.000000,  0.000000, -0.871720)
  58 Ni ( 0.000000,  0.000000,  0.018480)
  59 Cr ( 0.000000,  0.000000, -1.625476)
[...]
  93 Co ( 0.000000,  0.000000,  1.182272)
  94 Ni ( 0.000000,  0.000000,  0.101737)
  95 Fe ( 0.000000,  0.000000,  1.935186)
  96 Al ( 0.000000,  0.000000, -0.036048)
  97 Al ( 0.000000,  0.000000, -0.005879)
  98 Fe ( 0.000000,  0.000000,  1.858190)
  99 Co ( 0.000000,  0.000000,  0.866922)
 100 Fe ( 0.000000,  0.000000,  2.269836)
 101 Co ( 0.000000,  0.000000,  1.175128)
 102 Al ( 0.000000,  0.000000, -0.037877)
 103 Fe ( 0.000000,  0.000000,  2.428192)
 104 Co ( 0.000000,  0.000000,  0.766012)
 105 Ni ( 0.000000,  0.000000,  0.231698)
 106 Al ( 0.000000,  0.000000, -0.031148)
 107 Cr ( 0.000000,  0.000000,  1.393632)

Energy contributions relative to reference atoms: (reference = -3235165.067515)

Kinetic:       +441.150145
Potential:     -395.161254
External:        +0.000000
XC:            -866.629193
Entropy (-ST):   -4.037056
Local:          +31.207332
Free energy:   -793.470025
Extrapolated:  -791.451497

Spin contamination: 26.626167 electrons
Showing only first 2 kpts
                      Up                     Down
 Kpt  Band  Eigenvalues  Occupancy  Eigenvalues  Occupancy
  0   454      9.06829    0.99272      9.87885    0.03956
  0   455      9.07849    0.99195      9.89193    0.03488
  0   456      9.11099    0.98889      9.91286    0.02848
  0   457      9.11752    0.98815      9.93500    0.02295

  1   454      9.06664    0.99284      9.87708    0.04023
  1   455      9.08130    0.99172      9.90220    0.03158
  1   456      9.09626    0.99040      9.90976    0.02935
  1   457      9.11187    0.98880      9.93825    0.02223

Fermi level: 9.55988

No gap

Forces in eV/Ang:
  0 Al    0.17133    0.00433    1.52564
  1 Fe   -0.58315    0.09511   -0.45482
  2 Cr   -3.04163   -3.28023   -0.97165
  3 Cr    1.26626   -0.87522    0.81685
  4 Ni    0.83172   -0.52153    1.16984
  5 Al    2.19786    2.23606   -0.28556
  6 Al   -1.93295    0.85223   -1.29033
  7 Ni   -0.73709   -0.65038    0.45170
  8 Fe   -1.00533    0.56994    0.51605
  9 Co    0.02318   -0.98750    0.20169
 10 Ni    0.92094    1.32383    0.81925
 11 Fe   -1.03046    1.38452    1.04866
 12 Fe   -0.23331    0.92977   -0.90700
 13 Co    0.89749   -1.25275   -0.52183
 14 Cr   -0.66875   -0.35246    0.29232
 15 Co    0.59753   -1.15559   -0.89532
 16 Fe   -1.01066    0.43340    0.18432
 17 Al   -1.16030   -0.47197    1.32679
 18 Fe   -0.18407   -0.15386    0.34575
 19 Fe    0.40806   -0.19367   -1.40770
 20 Cr   -1.24813    0.10248   -0.78511
 21 Co    0.23113   -0.69666    0.27355
 22 Al    0.24134    0.08237    2.30544
 23 Fe    0.21771    0.54417    0.56243
 24 Ni   -0.10205   -0.23728   -0.39416
 25 Al   -0.17049   -0.01646   -1.02993
 26 Ni    1.44664   -0.92473   -1.67794
 27 Cr    1.89914   -0.73324    0.11066
 28 Fe    0.28490    0.95985    0.36812
 29 Ni    0.25439    1.23139   -0.42855
 30 Ni    0.45842    0.27374   -0.56496
 31 Ni   -1.56872    0.61768    0.75160
 32 Co   -0.46768    1.28120    1.07348
 33 Cr    0.30301   -1.25653    0.07591
 34 Fe    1.57035   -0.89226   -0.22838
 35 Ni   -0.24500    0.64157   -0.04124
 36 Fe   -0.80777    1.51162   -0.08223
 37 Co    0.43750    0.48288   -0.32461
 38 Cr   -3.18775    0.53505    1.98050
 39 Ni    0.68997    1.39986    1.38566
 40 Al    1.44335   -0.01796   -2.98229
 41 Al    0.39911    0.45647    0.05758
 42 Cr    0.83534    1.80020    1.13358
 43 Al    0.95403    0.28001    0.46909
 44 Al   -0.88855    0.46985    0.83360
 45 Co    0.48369   -1.33363    0.22375
 46 Cr    1.85902    0.59932    1.41287
 47 Ni    1.59470    1.19673   -1.00203
 48 Fe   -0.65883    0.68352    0.26400
 49 Fe    0.04419   -1.52210   -1.67778
 50 Al    0.41514    0.38694   -0.79374
 51 Co   -0.61335   -0.33842   -0.78826
 52 Co    0.04350   -0.96927   -1.09896
 53 Ni   -1.11160    0.36822   -0.54160
 54 Ni   -1.29737   -0.98965   -1.31887
 55 Co   -0.45802   -1.31854    0.66769
 56 Al   -0.47340   -0.32381   -0.01503
 57 Cr    1.42026    0.45662   -1.38951
 58 Ni   -0.28142    0.62579   -1.21422
 59 Cr    0.10893   -0.70613    1.45686
[...]
 93 Co    1.67333   -1.61409   -0.02605
 94 Ni    0.03973    1.03101    0.15282
 95 Fe    0.29129   -1.07890    0.14831
 96 Al   -0.05814   -1.14940    4.08700
 97 Al   -1.23868   -0.54174   -1.66445
 98 Fe   -1.33363   -0.71771    0.24247
 99 Co   -1.47774    1.85995   -0.49403
100 Fe    0.89217   -0.18549    0.66594
101 Co    0.85793    0.19669    1.54421
102 Al   -1.31637    1.35955   -0.39398
103 Fe    0.46113   -0.80153    0.40481
104 Co   -0.46025   -1.51311   -2.20370
105 Ni   -0.12811    0.64300    0.07347
106 Al    1.59237    0.29796   -0.64625
107 Cr    2.45692   -1.10698    0.14691

Date: Fri Apr 14 05:07:24 2023