User:   c.zeng@d0025
Date:   Mon Apr 17 04:23:29 2023
Arch:   x86_64
Pid:    125310
CWD:    /home/c.zeng/projects/hea-corrosion/hea-mlp/data-curation/bulk-mcmc/dft-jobs/21
Python: 3.8.1
gpaw:   /home/c.zeng/usr/installs/gpaw/source/gpaw-22.8.0/gpaw
_gpaw:  /home/c.zeng/usr/installs/gpaw/source/gpaw-22.8.0/
        _gpaw.cpython-38-x86_64-linux-gnu.so
ase:    /home/c.zeng/.local/lib/python3.8/site-packages/ase-3.22.1-py3.8.egg/ase (version 3.22.1)
numpy:  /home/c.zeng/.local/lib/python3.8/site-packages/numpy (version 1.24.2)
scipy:  /home/c.zeng/.local/lib/python3.8/site-packages/scipy (version 1.10.1)
units:  Angstrom and eV
cores: 30
OpenMP: False
OMP_NUM_THREADS: 1

Input parameters:
  convergence: {energy: 0.0001}
  kpts: [2 2 2]
  maxiter: 666
  mode: {ecut: 350.0,
         name: pw}
  occupations: {fixmagmom: False,
                name: fermi-dirac,
                width: 0.1}
  spinpol: True
  xc: PBE

System changes: positions, numbers, cell, pbc, initial_charges, initial_magmoms

Initialize ...

species:
  Co:
    name: Cobalt
    id: 339d20d5b0b93d2de9531a1bee871d91
    Z: 27.0
    valence: 9
    core: 18
    charge: 0.0
    file: /home/c.zeng/usr/data/gpaw-setups-0.9.20000/Co.PBE.gz
    compensation charges: {type: gauss,
                           rc: 0.32,
                           lmax: 2}
    cutoffs: {filter: 1.87,
              core: 2.55}
    valence states:
      #              energy  rcut
      - 4s(2.00)    -5.469   1.005
      - 4p(0.00)    -1.277   1.058
      - 3d(7.00)    -8.205   1.005
      -  s          21.742   1.005
      -  p          25.934   1.058
      -  d          19.007   1.005

    # Using partial waves for Co as LCAO basis

  Fe:
    name: Iron
    id: 37abbd8d6c3c35915a9b583b742da910
    Z: 26.0
    valence: 8
    core: 18
    charge: 0.0
    file: /home/c.zeng/usr/data/gpaw-setups-0.9.20000/Fe.PBE.gz
    compensation charges: {type: gauss,
                           rc: 0.33,
                           lmax: 2}
    cutoffs: {filter: 2.06,
              core: 2.67}
    valence states:
      #              energy  rcut
      - 4s(2.00)    -5.291   1.164
      - 4p(0.00)    -1.326   1.058
      - 3d(6.00)    -7.505   1.058
      -  s          21.920   1.164
      -  p          25.885   1.058
      -  d          19.706   1.058

[...]

  Cr:
    name: Chromium
    id: 33f258bda2ca9f93018e70263a35547b
    Z: 24.0
    valence: 6
    core: 18
    charge: 0.0
    file: /home/c.zeng/usr/data/gpaw-setups-0.9.20000/Cr.PBE.gz
    compensation charges: {type: gauss,
                           rc: 0.35,
                           lmax: 2}
    cutoffs: {filter: 2.14,
              core: 3.04}
    valence states:
      #              energy  rcut
      - 4s(1.00)    -4.007   1.164
      - 4p(0.00)    -0.989   1.217
      - 3d(5.00)    -2.913   1.111
      -  s          23.205   1.164
      -  p          26.223   1.217
      -  d          24.299   1.111

[...]

  Ni:
    name: Nickel
    id: 0d9f38a9d6e76a2886f07bb4381f212b
    Z: 28.0
    valence: 16
    core: 12
    charge: 0.0
    file: /home/c.zeng/usr/data/gpaw-setups-0.9.20000/Ni.PBE.gz
    compensation charges: {type: gauss,
                           rc: 0.36,
                           lmax: 2}
    cutoffs: {filter: 2.14,
              core: 1.98}
    valence states:
      #              energy  rcut
      - 4s(2.00)    -5.642   1.164
      - 3p(6.00)   -71.394   1.207
      - 4p(0.00)    -1.226   1.207
      - 3d(8.00)    -8.875   1.138
      -  s          21.570   1.164
      -  d          18.337   1.138

    # Using partial waves for Ni as LCAO basis

Reference energy: -3846758.590871  # eV

Spin-polarized calculation.
Magnetic moment: 151.200000

Convergence criteria:
 Maximum [total energy] change in last 3 cyles: 0.0001 eV / electron
 Maximum integral of absolute [dens]ity change: 0.0001 electrons / valence electron
 Maximum integral of absolute [eigenst]ate change: 4e-08 eV^2 / valence electron
 Maximum number of scf [iter]ations: 666
 (Square brackets indicate name in SCF output, whereas a 'c' in
 the SCF output indicates the quantity has converged.)

Symmetries present (total): 1

  ( 1  0  0)
  ( 0  1  0)
  ( 0  0  1)

8 k-points: 2 x 2 x 2 Monkhorst-Pack grid
4 k-points in the irreducible part of the Brillouin zone
       k-points in crystal coordinates                weights
   0:     0.25000000   -0.25000000   -0.25000000          2/8
   1:     0.25000000   -0.25000000    0.25000000          2/8
   2:     0.25000000    0.25000000   -0.25000000          2/8
   3:     0.25000000    0.25000000    0.25000000          2/8

Wave functions: Plane wave expansion
  Cutoff energy: 350.000 eV
  Number of coefficients (min, max): 17755, 17755
  Pulay-stress correction: 0.000000 eV/Ang^3 (de/decut=0.000000)
  Using FFTW library
  ScaLapack parameters: grid=1x1, blocksize=None
  Wavefunction extrapolation:
    Improved wavefunction reuse through dual PAW basis

Occupation numbers: Fermi-Dirac:
  width: 0.1000  # eV

Eigensolver
   Davidson(niter=2)

Densities:
  Coarse grid: 48*48*48 grid
  Fine grid: 96*96*96 grid
  Total Charge: 0.000000

Density mixing:
  Method: difference
  Backend: pulay
  Linear mixing parameter: 0.05
  old densities: 5
  Damping of long wavelength oscillations: 50

Hamiltonian:
  XC and Coulomb potentials evaluated on a 96*96*96 grid
  Using the PBE Exchange-Correlation functional
  External potential:
    NoExternalPotential

XC parameters: PBE with 2 nearest neighbor stencil

Total number of cores used: 30
Parallelization over k-points: 2
Domain decomposition: 5 x 3 x 1

Number of atoms: 108
Number of atomic orbitals: 1053
Number of bands in calculation: 727
Number of valence electrons: 1053
Bands to converge: occupied

... initialized

Initializing position-dependent things.

Density initialized from atomic densities
Creating initial wave functions:
  727 bands from LCAO basis set

       /|  Cr       Ni      Ni    |
      / |   NiFe     Cr           |
     /  |       Co      Fe       Fe
    /   |Cr      CFe       Co     Cr
   /    | Co       Cr       NFe   |
  /  CCo|  FeCr     CoNi          |
 *    CrCr    FeNi   FeCrCo       |
 |      |CoNi   FeFeNi  CoNiFe   Ni
 |      | CrCo     CoCrFeCrCrCr   |
 |    Co|  CoFeCr   CoNiFe   NiCo |
 |      Ni    NiNiNi CrNiCr     Ni|
 |      |FeFe  CoFeNi   FeNiFe   Cr
 |      .-FeCo-----NiCrFe--CrNi---Co
 |   Cro     Fe       Ni         /
 |    CrCo     Cor     CNie     /
 |   /    Co               Ni  /
 |  /      Fe       Fe    CrFe/
 | / Fe     Cr       CrNi    /
 |/            Co       Cr  /
 *--------Co------Co-------*

Positions:
   0 Co    -0.012479   -0.003723   10.616104    ( 0.0000,  0.0000,  2.1000)
   1 Fe    -0.011321    1.761305    1.763386    ( 0.0000,  0.0000,  2.1000)
   2 Fe     1.758365    0.001326    1.769011    ( 0.0000,  0.0000,  2.0000)
   3 Co     1.752686    1.779222   10.610436    ( 0.0000,  0.0000,  2.0000)
   4 Co     3.541196    0.004726   10.616104    ( 0.0000,  0.0000,  0.0000)
   5 Fe     3.534711    1.782438    1.778999    ( 0.0000,  0.0000,  0.0000)
   6 Cr     5.305717   10.600629    1.767950    ( 0.0000,  0.0000,  2.1000)
   7 Co     5.324780    1.765604   10.614618    ( 0.0000,  0.0000,  0.0000)
   8 Co     7.089121    0.014598   10.619926    ( 0.0000,  0.0000,  2.0000)
   9 Fe     7.085279    1.771219    1.773543    ( 0.0000,  0.0000,  1.5000)
  10 Ni     8.850554    0.011470    1.768756    ( 0.0000,  0.0000,  1.5000)
  11 Cr     8.842381    1.777333   10.615680    ( 0.0000,  0.0000,  2.1000)
  12 Fe    10.590535    3.538203   -0.001956    ( 0.0000,  0.0000,  0.0000)
  13 Ni    10.624277    5.310674    1.769786    ( 0.0000,  0.0000,  2.0000)
  14 Co     1.761379    3.535623    1.784572    ( 0.0000,  0.0000,  0.0000)
  15 Cr     1.770200    5.301408   10.611753    ( 0.0000,  0.0000,  2.0000)
  16 Cr     3.556003    3.551407   10.618333    ( 0.0000,  0.0000,  1.5000)
  17 Fe     3.539370    5.311290    1.775199    ( 0.0000,  0.0000,  2.1000)
  18 Cr     5.320142    3.545059    1.779678    ( 0.0000,  0.0000,  1.5000)
  19 Fe     5.306980    5.314654   10.602720    ( 0.0000,  0.0000,  0.0000)
  20 Cr     7.081585    3.529127   10.614725    ( 0.0000,  0.0000,  2.1000)
  21 Ni     7.069241    5.303361    1.781271    ( 0.0000,  0.0000,  1.5000)
  22 Fe     8.841447    3.542671    1.781600    ( 0.0000,  0.0000,  2.1000)
  23 Cr     8.850893    5.290379    0.000220    ( 0.0000,  0.0000,  0.0000)
  24 Cr     0.005868    7.083411   10.614937    ( 0.0000,  0.0000,  2.0000)
  25 Cr    10.601043    8.849694    1.772960    ( 0.0000,  0.0000,  2.1000)
  26 Fe     1.773713    7.072329    1.777184    ( 0.0000,  0.0000,  0.0000)
  27 Cr     1.755520    8.842943   10.608324    ( 0.0000,  0.0000,  0.0000)
  28 Fe     3.544009    7.063116   10.610489    ( 0.0000,  0.0000,  2.0000)
  29 Co     3.542225    8.826820    1.785580    ( 0.0000,  0.0000,  0.0000)
  30 Ni     5.309835    7.081776    1.776600    ( 0.0000,  0.0000,  2.1000)
  31 Ni     5.331945    8.840321   10.604673    ( 0.0000,  0.0000,  2.1000)
  32 Co     7.068434    7.069028   10.623110    ( 0.0000,  0.0000,  0.0000)
  33 Fe     7.083750    8.846796    1.774509    ( 0.0000,  0.0000,  1.5000)
  34 Cr     8.841404    7.058180    1.777173    ( 0.0000,  0.0000,  1.5000)
  35 Ni     8.835524    8.853600   10.611753    ( 0.0000,  0.0000,  0.0000)
  36 Ni    -0.009351   10.618864    3.531070    ( 0.0000,  0.0000,  2.0000)
  37 Fe    10.602508    1.764818    5.300452    ( 0.0000,  0.0000,  1.5000)
  38 Cr     1.756720    0.001379    5.295867    ( 0.0000,  0.0000,  0.0000)
  39 Co     1.766506    1.767154    3.539222    ( 0.0000,  0.0000,  2.0000)
  40 Co     3.539742    0.013881    3.542873    ( 0.0000,  0.0000,  2.0000)
  41 Fe     3.548944    1.788658    5.306237    ( 0.0000,  0.0000,  2.1000)
  42 Fe     5.320174   -0.004685    5.301386    ( 0.0000,  0.0000,  0.0000)
  43 Co     5.316862    1.765551    3.538935    ( 0.0000,  0.0000,  2.0000)
  44 Cr     7.081086   -0.000289    3.531325    ( 0.0000,  0.0000,  2.0000)
  45 Ni     7.072902    1.777407    5.300537    ( 0.0000,  0.0000,  2.0000)
  46 Fe     8.840544    0.012372    5.307851    ( 0.0000,  0.0000,  1.5000)
  47 Ni     8.833592    1.767928    3.534318    ( 0.0000,  0.0000,  2.1000)
  48 Ni    -0.004066    3.525285    3.545951    ( 0.0000,  0.0000,  0.0000)
  49 Co    -0.001689    5.317934    5.307787    ( 0.0000,  0.0000,  1.5000)
  50 Ni     1.769043    3.555101    5.297279    ( 0.0000,  0.0000,  2.0000)
  51 Fe     1.773692    5.305929    3.538266    ( 0.0000,  0.0000,  2.1000)
  52 Co     3.542746    3.537364    3.547575    ( 0.0000,  0.0000,  2.1000)
  53 Fe     3.548477    5.306927    5.301153    ( 0.0000,  0.0000,  2.0000)
  54 Ni     5.316246    3.553031    5.303637    ( 0.0000,  0.0000,  2.0000)
  55 Fe     5.303286    5.303531    3.542385    ( 0.0000,  0.0000,  1.5000)
  56 Cr     7.074962    3.533023    3.537215    ( 0.0000,  0.0000,  1.5000)
  57 Ni     7.066046    5.306046    5.300081    ( 0.0000,  0.0000,  2.0000)
  58 Cr     8.834526    3.538160    5.294530    ( 0.0000,  0.0000,  2.1000)
  59 Ni     8.846255    5.300452    3.537672    ( 0.0000,  0.0000,  1.5000)
[...]
  93 Ni     7.071130    5.304220    8.839313    ( 0.0000,  0.0000,  1.5000)
  94 Co     8.837997    3.524669    8.843389    ( 0.0000,  0.0000,  1.5000)
  95 Ni     8.833772    5.299051    7.076862    ( 0.0000,  0.0000,  0.0000)
  96 Cr     0.012168    7.080333    7.083835    ( 0.0000,  0.0000,  1.5000)
  97 Fe    -0.017034    8.848707    8.843941    ( 0.0000,  0.0000,  2.1000)
  98 Co     1.777938    7.075503    8.840194    ( 0.0000,  0.0000,  2.0000)
  99 Fe     1.758800    8.840035    7.069803    ( 0.0000,  0.0000,  0.0000)
 100 Fe     3.549921    7.066194    7.070090    ( 0.0000,  0.0000,  2.1000)
 101 Co     3.553137    8.839111    8.836776    ( 0.0000,  0.0000,  0.0000)
 102 Cr     5.304189    7.079929    8.840215    ( 0.0000,  0.0000,  2.0000)
 103 Co     5.321946    8.832180    7.082997    ( 0.0000,  0.0000,  2.1000)
 104 Cr     7.057077    7.072149    7.064167    ( 0.0000,  0.0000,  1.5000)
 105 Fe     7.082402    8.855500    8.837487    ( 0.0000,  0.0000,  2.1000)
 106 Co     8.846786    7.077881    8.846732    ( 0.0000,  0.0000,  0.0000)
 107 Ni     8.839313    8.848272    7.075153    ( 0.0000,  0.0000,  0.0000)

Unit cell:
           periodic     x           y           z      points  spacing
  1. axis:    yes   10.614300    0.000000    0.000000    48     0.2211
  2. axis:    yes    0.000000   10.614300    0.000000    48     0.2211
  3. axis:    yes    0.000000    0.000000   10.614300    48     0.2211

  Lengths:  10.614300  10.614300  10.614300
  Angles:   90.000000  90.000000  90.000000

Effective grid spacing dv^(1/3) = 0.2211

     iter     time        total  log10-change:  magmom
                         energy  eigst   dens
iter:   1 04:27:45  -957.972110                  +151.1349
iter:   2 04:29:22  -948.309210  -0.55  -1.36    +116.0070
iter:   3 04:30:59  -923.548891  -0.93  -1.33    +86.5719
iter:   4 04:32:37  -894.391487  -1.40  -1.38    +72.4063
iter:   5 04:34:18  -892.219003  -1.96  -1.49    +64.8124
iter:   6 04:35:59  -896.730890  -1.90  -1.53    +60.0399
iter:   7 04:37:39  -896.119283  -1.69  -1.54    +58.4573
iter:   8 04:39:20  -888.945035  -1.87  -1.59    +56.6479
iter:   9 04:41:01  -900.092638  -1.76  -1.75    +55.8018
iter:  10 04:42:41  -887.946296  -2.00  -1.68    +54.6426
iter:  11 04:44:22  -888.915329  -2.45  -1.91    +54.7623
iter:  12 04:46:03  -887.794671  -2.71  -1.90    +55.2627
iter:  13 04:47:44  -888.597304  -2.80  -1.99    +55.8640
iter:  14 04:49:24  -890.350133  -2.62  -2.02    +56.4182
iter:  15 04:51:05  -889.935847  -2.61  -2.00    +56.9317
iter:  16 04:52:46  -892.769059  -2.41  -2.07    +57.7957
iter:  17 04:54:27  -889.558717  -2.67  -1.97    +57.7415
iter:  18 04:56:08  -890.000789  -2.94  -2.23    +58.1167
iter:  19 04:57:48  -889.664684  -2.97  -2.21    +58.6315
iter:  20 04:59:29  -889.857895  -3.17  -2.30    +59.1827
iter:  21 05:01:10  -889.889179  -3.15  -2.31    +59.8359
iter:  22 05:02:51  -890.085094  -3.20  -2.35    +60.0943
iter:  23 05:04:33  -889.949139  -3.27  -2.36    +60.7108
iter:  24 05:06:13  -890.187391  -3.32  -2.45    +61.0940
iter:  25 05:07:54  -890.023336  -3.44  -2.43    +61.3502
iter:  26 05:09:35  -890.184231  -3.53  -2.56    +61.6340
iter:  27 05:11:16  -890.188820  -3.55  -2.55    +61.8374
iter:  28 05:12:56  -890.227574c -3.67  -2.56    +62.2729
iter:  29 05:14:37  -890.260856c -3.79  -2.64    +62.4258
iter:  30 05:16:18  -890.320015c -3.86  -2.67    +62.6733
iter:  31 05:17:58  -890.310950c -4.01  -2.65    +62.8416
iter:  32 05:19:39  -890.388423c -3.99  -2.76    +63.0832
iter:  33 05:21:20  -890.396113c -4.12  -2.71    +63.1516
iter:  34 05:23:01  -890.440248c -4.11  -2.79    +63.2281
iter:  35 05:24:42  -890.484598c -4.01  -2.79    +63.3477
iter:  36 05:26:20  -890.525806c -3.93  -2.81    +63.3463
iter:  37 05:27:55  -890.497565c -4.13  -2.82    +63.4180
iter:  38 05:29:34  -890.565323c -4.00  -2.92    +63.4560
iter:  39 05:31:14  -890.516032c -4.35  -2.81    +63.4670
iter:  40 05:32:53  -890.543462c -4.43  -3.03    +63.5315
iter:  41 05:34:32  -890.535635c -4.97  -2.99    +63.5404
iter:  42 05:36:11  -890.557655c -4.74  -3.08    +63.6312
iter:  43 05:37:50  -890.585917c -4.55  -3.09    +63.6490
iter:  44 05:39:29  -890.606789c -4.74  -3.06    +63.7119
iter:  45 05:41:08  -890.714369  -3.52  -3.02    +64.1011
iter:  46 05:42:48  -890.687580  -4.43  -2.89    +64.1132
iter:  47 05:44:27  -890.694376c -4.63  -2.93    +64.1531
iter:  48 05:46:06  -890.692667c -4.80  -2.97    +64.1308
iter:  49 05:47:45  -890.749101c -4.03  -2.98    +64.1603
iter:  50 05:49:24  -890.652964c -4.06  -2.81    +64.1702
iter:  51 05:51:03  -890.664452c -4.66  -3.18    +64.0085
iter:  52 05:52:41  -890.650882c -5.08  -3.14    +63.9439
iter:  53 05:54:20  -890.656132c -5.21  -3.32    +63.8636
iter:  54 05:55:59  -890.652734c -5.15  -3.30    +63.8208
iter:  55 05:57:38  -890.655509c -5.30  -3.39    +63.7902
iter:  56 05:59:17  -890.654578c -5.27  -3.41    +63.7673
iter:  57 06:00:57  -890.653911c -5.53  -3.50    +63.7545
iter:  58 06:02:36  -890.654879c -5.73  -3.54    +63.7227
iter:  59 06:04:16  -890.653811c -6.05  -3.55    +63.7190
iter:  60 06:05:55  -890.655254c -5.97  -3.63    +63.7023
iter:  61 06:07:34  -890.654588c -6.04  -3.61    +63.6861
iter:  62 06:09:13  -890.654898c -6.21  -3.68    +63.6872
iter:  63 06:10:52  -890.655053c -6.23  -3.72    +63.6834
iter:  64 06:12:31  -890.655175c -6.30  -3.77    +63.6805
iter:  65 06:14:11  -890.655201c -6.51  -3.79    +63.6840
iter:  66 06:15:50  -890.655944c -6.23  -3.86    +63.6862
iter:  67 06:17:29  -890.655455c -6.65  -3.83    +63.6839
iter:  68 06:19:08  -890.655801c -6.55  -3.94    +63.6901
iter:  69 06:20:48  -890.655981c -6.52  -3.96    +63.6895
iter:  70 06:22:27  -890.656112c -6.67  -3.98    +63.6931
iter:  71 06:24:06  -890.656230c -6.62  -4.01c   +63.6990
iter:  72 06:25:45  -890.656681c -6.53  -4.05c   +63.7033
iter:  73 06:27:24  -890.656393c -6.66  -4.03c   +63.7049
iter:  74 06:29:02  -890.656800c -6.62  -4.10c   +63.7165
iter:  75 06:30:41  -890.656822c -6.79  -4.07c   +63.7182
iter:  76 06:32:20  -890.656987c -6.70  -4.20c   +63.7260
iter:  77 06:33:59  -890.657085c -7.17  -4.23c   +63.7282
iter:  78 06:35:38  -890.657290c -6.70  -4.27c   +63.7359
iter:  79 06:37:18  -890.657231c -7.26  -4.25c   +63.7369
iter:  80 06:38:57  -890.657516c -6.91  -4.30c   +63.7495
iter:  81 06:40:34  -890.657601c -7.03  -4.33c   +63.7554
iter:  82 06:42:10  -890.657918c -6.64  -4.37c   +63.7708
iter:  83 06:43:46  -890.657981c -7.09  -4.39c   +63.7764
iter:  84 06:45:22  -890.658373c -6.49  -4.41c   +63.7975
iter:  85 06:46:59  -890.658528c -6.70  -4.37c   +63.8096
iter:  86 06:48:36  -890.658796c -6.35  -4.37c   +63.8365
iter:  87 06:50:12  -890.657901c -5.88  -4.26c   +63.7571
iter:  88 06:51:48  -890.656870c -5.46  -4.41c   +63.6495
iter:  89 06:53:25  -890.657724c -6.03  -4.35c   +63.7339
iter:  90 06:55:01  -890.657223c -6.68  -4.47c   +63.6962
iter:  91 06:56:38  -890.658138c -5.86  -4.45c   +63.7780
iter:  92 06:58:14  -890.657749c -6.77  -4.40c   +63.7425
iter:  93 06:59:51  -890.658045c -6.96  -4.64c   +63.7653
iter:  94 07:01:27  -890.658259c -6.90  -4.53c   +63.7782
iter:  95 07:03:04  -890.658376c -7.05  -4.43c   +63.7900
iter:  96 07:04:40  -890.658503c -7.17  -4.58c   +63.8010
iter:  97 07:06:16  -890.658865c -6.51  -4.63c   +63.8304
iter:  98 07:07:52  -890.659573c -5.90  -4.49c   +63.8846
iter:  99 07:09:28  -890.659377c -7.07  -4.22c   +63.8678
iter: 100 07:11:04  -890.659377c -7.04  -4.24c   +63.8621
iter: 101 07:12:41  -890.659521c -7.07  -4.29c   +63.8773
iter: 102 07:14:17  -890.659658c -6.71  -4.26c   +63.8990
iter: 103 07:15:53  -890.659736c -6.87  -4.25c   +63.8973
iter: 104 07:17:29  -890.659855c -6.75  -4.26c   +63.9162
iter: 105 07:19:06  -890.660123c -6.64  -4.20c   +63.9262
iter: 106 07:20:42  -890.660194c -6.96  -4.10c   +63.9296
iter: 107 07:22:18  -890.660443c -6.94  -4.22c   +63.9379
iter: 108 07:23:54  -890.660392c -7.10  -4.20c   +63.9429
iter: 109 07:25:30  -890.660789c -6.56  -4.25c   +63.9550
iter: 110 07:27:06  -890.660436c -6.42  -4.05c   +63.9500
iter: 111 07:28:42  -890.660500c -6.47  -4.01c   +63.9680
iter: 112 07:30:18  -890.660636c -6.92  -4.09c   +63.9710
iter: 113 07:31:54  -890.660684c -7.24  -4.17c   +63.9820
iter: 114 07:33:30  -890.660977c -6.68  -4.19c   +63.9997
iter: 115 07:35:06  -890.661181c -7.30  -4.11c   +63.9981
iter: 116 07:36:43  -890.660738c -6.41  -4.11c   +64.0073
iter: 117 07:38:19  -890.660883c -6.65  -3.97    +64.0082
iter: 118 07:39:56  -890.660799c -6.54  -4.13c   +64.0137
iter: 119 07:41:32  -890.661074c -6.41  -4.39c   +64.0194
iter: 120 07:43:09  -890.660928c -6.88  -4.16c   +64.0254
iter: 121 07:44:45  -890.660893c -7.20  -4.47c   +64.0342
iter: 122 07:46:21  -890.661081c -7.28  -4.53c   +64.0416
iter: 123 07:47:58  -890.661051c -7.31  -4.53c   +64.0492
iter: 124 07:49:34  -890.661064c -7.55c -4.46c   +64.0556

Converged after 124 iterations.

Dipole moment: (6.592910, -1.835678, 0.662568) |e|*Ang

Total magnetic moment: (0.000000, 0.000000, 64.055562)
Local magnetic moments:
   0 Co ( 0.000000,  0.000000,  1.156712)
   1 Fe ( 0.000000,  0.000000,  2.250472)
   2 Fe ( 0.000000,  0.000000,  2.262909)
   3 Co ( 0.000000,  0.000000,  1.251379)
   4 Co ( 0.000000,  0.000000,  1.184094)
   5 Fe ( 0.000000,  0.000000,  2.077093)
   6 Cr ( 0.000000,  0.000000, -1.474033)
   7 Co ( 0.000000,  0.000000,  0.446163)
   8 Co ( 0.000000,  0.000000,  1.098016)
   9 Fe ( 0.000000,  0.000000,  1.763902)
  10 Ni ( 0.000000,  0.000000,  0.357410)
  11 Cr ( 0.000000,  0.000000, -1.503638)
  12 Fe ( 0.000000,  0.000000,  1.986619)
  13 Ni ( 0.000000,  0.000000,  0.173343)
  14 Co ( 0.000000,  0.000000,  1.259177)
  15 Cr ( 0.000000,  0.000000, -0.705216)
  16 Cr ( 0.000000,  0.000000, -0.673235)
  17 Fe ( 0.000000,  0.000000,  1.867808)
  18 Cr ( 0.000000,  0.000000, -0.973434)
  19 Fe ( 0.000000,  0.000000,  1.654297)
  20 Cr ( 0.000000,  0.000000,  0.567682)
  21 Ni ( 0.000000,  0.000000,  0.153622)
  22 Fe ( 0.000000,  0.000000,  2.024166)
  23 Cr ( 0.000000,  0.000000, -1.126639)
  24 Cr ( 0.000000,  0.000000, -0.236779)
  25 Cr ( 0.000000,  0.000000, -0.876039)
  26 Fe ( 0.000000,  0.000000,  1.895713)
  27 Cr ( 0.000000,  0.000000, -1.321360)
  28 Fe ( 0.000000,  0.000000,  1.862467)
  29 Co ( 0.000000,  0.000000,  1.407344)
  30 Ni ( 0.000000,  0.000000,  0.511554)
  31 Ni ( 0.000000,  0.000000,  0.259054)
  32 Co ( 0.000000,  0.000000,  1.199240)
  33 Fe ( 0.000000,  0.000000,  2.193904)
  34 Cr ( 0.000000,  0.000000,  0.762089)
  35 Ni ( 0.000000,  0.000000,  0.299919)
  36 Ni ( 0.000000,  0.000000,  0.396340)
  37 Fe ( 0.000000,  0.000000,  1.993309)
  38 Cr ( 0.000000,  0.000000, -1.762004)
  39 Co ( 0.000000,  0.000000,  1.390655)
  40 Co ( 0.000000,  0.000000,  1.130662)
  41 Fe ( 0.000000,  0.000000,  2.292593)
  42 Fe ( 0.000000,  0.000000,  2.332669)
  43 Co ( 0.000000,  0.000000,  0.821098)
  44 Cr ( 0.000000,  0.000000, -1.726182)
  45 Ni ( 0.000000,  0.000000,  0.137360)
  46 Fe ( 0.000000,  0.000000,  2.322047)
  47 Ni ( 0.000000,  0.000000,  0.230110)
  48 Ni ( 0.000000,  0.000000,  0.436174)
  49 Co ( 0.000000,  0.000000,  0.558224)
  50 Ni ( 0.000000,  0.000000,  0.475992)
  51 Fe ( 0.000000,  0.000000,  2.320624)
  52 Co ( 0.000000,  0.000000,  1.233421)
  53 Fe ( 0.000000,  0.000000,  2.118549)
  54 Ni ( 0.000000,  0.000000,  0.285061)
  55 Fe ( 0.000000,  0.000000,  2.231889)
  56 Cr ( 0.000000,  0.000000, -1.348751)
  57 Ni ( 0.000000,  0.000000,  0.155010)
  58 Cr ( 0.000000,  0.000000,  1.122226)
  59 Ni ( 0.000000,  0.000000,  0.205256)
[...]
  93 Ni ( 0.000000,  0.000000,  0.103602)
  94 Co ( 0.000000,  0.000000,  0.735995)
  95 Ni ( 0.000000,  0.000000,  0.036671)
  96 Cr ( 0.000000,  0.000000, -1.209923)
  97 Fe ( 0.000000,  0.000000,  1.876901)
  98 Co ( 0.000000,  0.000000,  0.839860)
  99 Fe ( 0.000000,  0.000000,  1.732692)
 100 Fe ( 0.000000,  0.000000,  1.942067)
 101 Co ( 0.000000,  0.000000,  1.018680)
 102 Cr ( 0.000000,  0.000000, -1.331749)
 103 Co ( 0.000000,  0.000000,  0.975891)
 104 Cr ( 0.000000,  0.000000, -1.592800)
 105 Fe ( 0.000000,  0.000000,  2.095230)
 106 Co ( 0.000000,  0.000000,  1.021306)
 107 Ni ( 0.000000,  0.000000,  0.238295)

Energy contributions relative to reference atoms: (reference = -3846758.590871)

Kinetic:       +118.298639
Potential:     -185.609685
External:        +0.000000
XC:            -861.060706
Entropy (-ST):   -4.620871
Local:          +40.021123
Free energy:   -892.971500
Extrapolated:  -890.661064

Spin contamination: 31.036245 electrons
Showing only first 2 kpts
                      Up                     Down
 Kpt  Band  Eigenvalues  Occupancy  Eigenvalues  Occupancy
  0   524      9.82352    0.99490     10.72666    0.02279
  0   525      9.84656    0.99358     10.73958    0.02008
  0   526      9.86426    0.99235     10.75130    0.01790
  0   527      9.87706    0.99132     10.76189    0.01613

  1   524      9.84004    0.99399     10.72385    0.02343
  1   525      9.84469    0.99370     10.74157    0.01970
  1   526      9.86299    0.99245     10.75176    0.01782
  1   527      9.87368    0.99160     10.75903    0.01659

Fermi level: 10.35083

No gap

Forces in eV/Ang:
  0 Co    0.12452   -0.15350   -0.01061
  1 Fe    0.18801    0.07324    0.10386
  2 Fe    0.08846   -0.32280    0.07361
  3 Co    0.14388   -0.07534   -0.02480
  4 Co    0.02861   -0.09809    0.11480
  5 Fe    0.26827    0.08534    0.04279
  6 Cr   -0.42524    0.49399   -0.40086
  7 Co   -0.00461    0.03929    0.10045
  8 Co   -0.13878   -0.13442    0.12740
  9 Fe   -0.41614   -0.25305   -0.01142
 10 Ni   -0.07248   -0.22758   -0.21188
 11 Cr   -0.10689   -0.02649    0.02791
 12 Fe    0.39147    0.40056    0.07895
 13 Ni   -0.11750   -0.05532    0.10585
 14 Co    0.12680   -0.12303   -0.30785
 15 Cr   -0.06934    0.09571    0.15562
 16 Cr   -0.19672   -0.32721   -0.00386
 17 Fe    0.05041   -0.18348   -0.11066
 18 Cr   -0.32500   -0.32413    0.09492
 19 Fe    0.24675    0.04946    0.25701
 20 Cr   -0.31382    0.09102   -0.25140
 21 Ni    0.08728    0.09429   -0.01246
 22 Fe   -0.02460    0.24305    0.16174
 23 Cr   -0.05535    0.15063   -0.38246
 24 Cr   -0.13583   -0.26399   -0.32621
 25 Cr    0.02208   -0.16746    0.20023
 26 Fe   -0.07502    0.32864   -0.01753
 27 Cr    0.48782   -0.03450   -0.38008
 28 Fe    0.02718    0.27574    0.05268
 29 Co   -0.05575    0.19117    0.02892
 30 Ni   -0.07267    0.02132   -0.09648
 31 Ni   -0.22423    0.12983    0.09577
 32 Co    0.19302    0.06253   -0.04166
 33 Fe   -0.18927    0.24560   -0.20125
 34 Cr    0.30851    0.10437   -0.08457
 35 Ni    0.01514   -0.13413    0.00440
 36 Ni    0.06105   -0.05093    0.08759
 37 Fe    0.59006   -0.02335    0.09619
 38 Cr    0.47670    0.04121   -0.40066
 39 Co    0.02004    0.16798    0.04504
 40 Co   -0.00487   -0.31384   -0.10775
 41 Fe   -0.30527    0.02172   -0.09318
 42 Fe    0.15176   -0.14967    0.03913
 43 Co   -0.17541    0.02121   -0.22098
 44 Cr    0.16363    0.07199    0.21549
 45 Ni   -0.03060   -0.09456    0.14654
 46 Fe   -0.11895   -0.10068    0.09066
 47 Ni    0.18784   -0.16170    0.00960
 48 Ni    0.04299    0.12220   -0.03557
 49 Co   -0.13438    0.05618    0.09628
 50 Ni   -0.06810   -0.23726    0.31538
 51 Fe   -0.20485   -0.19899    0.07157
 52 Co   -0.01281    0.00032   -0.24185
 53 Fe   -0.12451   -0.25707    0.26449
 54 Ni    0.04405   -0.20836    0.01566
 55 Fe    0.14073    0.14282   -0.09280
 56 Cr    0.04407   -0.19352   -0.15458
 57 Ni    0.13177   -0.01064    0.04389
 58 Cr   -0.11930    0.09320    0.16520
 59 Ni    0.13725    0.21884    0.11697
[...]
 93 Ni    0.09246   -0.00751    0.10563
 94 Co    0.19812    0.14782   -0.08969
 95 Ni    0.11112    0.11737    0.07229
 96 Cr   -0.23842   -0.27187    0.54983
 97 Fe    0.09584   -0.05735    0.05279
 98 Co   -0.22253   -0.25935    0.06670
 99 Fe    0.14618    0.10642    0.10543
100 Fe   -0.06099    0.34705    0.30396
101 Co   -0.12660   -0.04176   -0.15903
102 Cr   -0.24298    0.19872    0.24146
103 Co   -0.12929   -0.02007   -0.06526
104 Cr    0.09589    0.16628   -0.16757
105 Fe    0.00802   -0.22695    0.15322
106 Co    0.09248    0.05484    0.10922
107 Ni   -0.02492   -0.09430   -0.12803

Date: Mon Apr 17 07:49:53 2023