User:   c.zeng@d0148
Date:   Sat Apr  8 02:02:21 2023
Arch:   x86_64
Pid:    83897
CWD:    /home/c.zeng/projects/hea-corrosion/hea-mlp/data-curation/volume/dft-jobs/117
Python: 3.8.1
gpaw:   /home/c.zeng/usr/installs/gpaw/source/gpaw-22.8.0/gpaw
_gpaw:  /home/c.zeng/usr/installs/gpaw/source/gpaw-22.8.0/
        _gpaw.cpython-38-x86_64-linux-gnu.so
ase:    /home/c.zeng/.local/lib/python3.8/site-packages/ase-3.22.1-py3.8.egg/ase (version 3.22.1)
numpy:  /shared/centos7/python/3.8.1/lib/python3.8/site-packages/numpy (version 1.17.4)
scipy:  /shared/centos7/python/3.8.1/lib/python3.8/site-packages/scipy (version 1.4.1)
units:  Angstrom and eV
cores: 64
OpenMP: False
OMP_NUM_THREADS: 1

Input parameters:
  convergence: {energy: 0.0001}
  kpts: [2 2 2]
  maxiter: 666
  mode: {ecut: 350.0,
         name: pw}
  occupations: {fixmagmom: False,
                name: fermi-dirac,
                width: 0.1}
  spinpol: True
  xc: PBE

System changes: positions, numbers, cell, pbc, initial_charges, initial_magmoms

Initialize ...

species:
  Al:
    name: Aluminium
    id: 0292cae29f5d6237e50f6abdd43a7bdd
    Z: 13.0
    valence: 3
    core: 10
    charge: 0.0
    file: /home/c.zeng/usr/data/gpaw-setups-0.9.20000/Al.PBE.gz
    compensation charges: {type: gauss,
                           rc: 0.34,
                           lmax: 2}
    cutoffs: {filter: 1.91,
              core: 2.36}
    valence states:
      #              energy  rcut
      - 3s(2.00)    -7.753   1.085
      - 3p(1.00)    -2.712   1.085
      -  s          19.459   1.085
      -  p          24.499   1.085
      -  d           0.000   1.085

    # Using partial waves for Al as LCAO basis

  Fe:
    name: Iron
    id: 37abbd8d6c3c35915a9b583b742da910
    Z: 26.0
    valence: 8
    core: 18
    charge: 0.0
    file: /home/c.zeng/usr/data/gpaw-setups-0.9.20000/Fe.PBE.gz
    compensation charges: {type: gauss,
                           rc: 0.33,
                           lmax: 2}
    cutoffs: {filter: 2.06,
              core: 2.67}
    valence states:
      #              energy  rcut
      - 4s(2.00)    -5.291   1.164
      - 4p(0.00)    -1.326   1.058
      - 3d(6.00)    -7.505   1.058
      -  s          21.920   1.164
      -  p          25.885   1.058
      -  d          19.706   1.058

[...]

  Cr:
    name: Chromium
    id: 33f258bda2ca9f93018e70263a35547b
    Z: 24.0
    valence: 6
    core: 18
    charge: 0.0
    file: /home/c.zeng/usr/data/gpaw-setups-0.9.20000/Cr.PBE.gz
    compensation charges: {type: gauss,
                           rc: 0.35,
                           lmax: 2}
    cutoffs: {filter: 2.14,
              core: 3.04}
    valence states:
      #              energy  rcut
      - 4s(1.00)    -4.007   1.164
      - 4p(0.00)    -0.989   1.217
      - 3d(5.00)    -2.913   1.111
      -  s          23.205   1.164
      -  p          26.223   1.217
      -  d          24.299   1.111

[...]

  Ni:
    name: Nickel
    id: 0d9f38a9d6e76a2886f07bb4381f212b
    Z: 28.0
    valence: 16
    core: 12
    charge: 0.0
    file: /home/c.zeng/usr/data/gpaw-setups-0.9.20000/Ni.PBE.gz
    compensation charges: {type: gauss,
                           rc: 0.36,
                           lmax: 2}
    cutoffs: {filter: 2.14,
              core: 1.98}
    valence states:
      #              energy  rcut
      - 4s(2.00)    -5.642   1.164
      - 3p(6.00)   -71.394   1.207
      - 4p(0.00)    -1.226   1.207
      - 3d(8.00)    -8.875   1.138
      -  s          21.570   1.164
      -  d          18.337   1.138

[...]

  Co:
    name: Cobalt
    id: 339d20d5b0b93d2de9531a1bee871d91
    Z: 27.0
    valence: 9
    core: 18
    charge: 0.0
    file: /home/c.zeng/usr/data/gpaw-setups-0.9.20000/Co.PBE.gz
    compensation charges: {type: gauss,
                           rc: 0.32,
                           lmax: 2}
    cutoffs: {filter: 1.87,
              core: 2.55}
    valence states:
      #              energy  rcut
      - 4s(2.00)    -5.469   1.005
      - 4p(0.00)    -1.277   1.058
      - 3d(7.00)    -8.205   1.005
      -  s          21.742   1.005
      -  p          25.934   1.058
      -  d          19.007   1.005

    # Using partial waves for Co as LCAO basis

Reference energy: -3235165.067515  # eV

Spin-polarized calculation.
Magnetic moment: 121.100000

Convergence criteria:
 Maximum [total energy] change in last 3 cyles: 0.0001 eV / electron
 Maximum integral of absolute [dens]ity change: 0.0001 electrons / valence electron
 Maximum integral of absolute [eigenst]ate change: 4e-08 eV^2 / valence electron
 Maximum number of scf [iter]ations: 666
 (Square brackets indicate name in SCF output, whereas a 'c' in
 the SCF output indicates the quantity has converged.)

Symmetries present (total): 1

  ( 1  0  0)
  ( 0  1  0)
  ( 0  0  1)

8 k-points: 2 x 2 x 2 Monkhorst-Pack grid
4 k-points in the irreducible part of the Brillouin zone
       k-points in crystal coordinates                weights
   0:     0.25000000   -0.25000000   -0.25000000          2/8
   1:     0.25000000   -0.25000000    0.25000000          2/8
   2:     0.25000000    0.25000000   -0.25000000          2/8
   3:     0.25000000    0.25000000    0.25000000          2/8

Wave functions: Plane wave expansion
  Cutoff energy: 350.000 eV
  Number of coefficients (min, max): 24387, 24387
  Pulay-stress correction: 0.000000 eV/Ang^3 (de/decut=0.000000)
  Using FFTW library
  ScaLapack parameters: grid=1x1, blocksize=None
  Wavefunction extrapolation:
    Improved wavefunction reuse through dual PAW basis

Occupation numbers: Fermi-Dirac:
  width: 0.1000  # eV

Eigensolver
   Davidson(niter=2)

Densities:
  Coarse grid: 54*54*54 grid
  Fine grid: 108*108*108 grid
  Total Charge: 0.000000

Density mixing:
  Method: difference
  Backend: pulay
  Linear mixing parameter: 0.05
  old densities: 5
  Damping of long wavelength oscillations: 50

Hamiltonian:
  XC and Coulomb potentials evaluated on a 108*108*108 grid
  Using the PBE Exchange-Correlation functional
  External potential:
    NoExternalPotential

XC parameters: PBE with 2 nearest neighbor stencil

Total number of cores used: 64
Parallelization over k-points: 4
Domain decomposition: 4 x 2 x 2

Number of atoms: 108
Number of atomic orbitals: 933
Number of bands in calculation: 624
Number of valence electrons: 912
Bands to converge: occupied

... initialized

Initializing position-dependent things.

Density initialized from atomic densities
Creating initial wave functions:
  624 bands from LCAO basis set

        .---------Ni-----------------.
       /|   Cr       Ni              |
      / |    Cr        Co            |
     / Al                 Ni         |
    /   |Co     Co                   |
   /    |  Fe     CoAl Cr     Al     |
  /     |   CoAl Ni  Fe CoFe   CrCr  |
 *    AlCr   CrFe CoFe CrCoNi        |
 |     CrAl Al  Ni Ni Fe  Ni FeAl    |
 |      |  FeCr   AlCo CrNiAl FeCr   |
 |      |   FeNi        CrFe         |
 |     Co        Cr  Cr        CrFe  |
 |    CoAl   CrAl NiNi AlNi NiCo     |
 |     AlCo Al  Ni Co Co  Cr CrCo    |
 |      .-Ni-Co-----Ni-AlCr---FeFe---.
 |     Ni     Al Al     CoNi   NiCo /
 Fe   NiCr     Fe Fe     Co Al     /
 |   /             Fe        FeFe /
 |  /       Al        Co         /
 | /         Fe          Ni     /e
 |/    Cr                      /
 *----------------------------Al

Positions:
   0 Al    -0.000022    0.000038    0.000029    ( 0.0000,  0.0000,  0.0000)
   1 Fe    -0.000004    1.964254    1.964254    ( 0.0000,  0.0000,  2.0000)
   2 Cr     1.964242   -0.000003    1.964266    ( 0.0000,  0.0000,  0.0000)
   3 Cr     1.964242    1.964266    0.000011    ( 0.0000,  0.0000,  0.0000)
   4 Ni     3.928508   -0.000011   -0.000007    ( 0.0000,  0.0000,  1.5000)
   5 Al     3.928484    1.964289    1.964219    ( 0.0000,  0.0000,  0.0000)
   6 Al     5.892762   -0.000019    1.964195    ( 0.0000,  0.0000,  0.0000)
   7 Ni     5.892762    1.964254   -0.000006    ( 0.0000,  0.0000,  1.5000)
   8 Fe     7.857004    0.000006   -0.000005    ( 0.0000,  0.0000,  2.0000)
   9 Co     7.857004    1.964254    1.964230    ( 0.0000,  0.0000,  2.1000)
  10 Ni     9.821258    0.000015    1.964242    ( 0.0000,  0.0000,  1.5000)
  11 Fe     9.821246    1.964254   -0.000003    ( 0.0000,  0.0000,  2.0000)
  12 Fe    -0.000006    3.928496    0.000008    ( 0.0000,  0.0000,  2.0000)
  13 Co    -0.000001    5.892750    1.964242    ( 0.0000,  0.0000,  2.1000)
  14 Cr     1.964230    3.928496    1.964242    ( 0.0000,  0.0000,  0.0000)
  15 Co     1.964242    5.892750   -0.000001    ( 0.0000,  0.0000,  2.1000)
  16 Fe     3.928508    3.928508    0.000003    ( 0.0000,  0.0000,  2.0000)
  17 Al     3.928520    5.892726    1.964219    ( 0.0000,  0.0000,  0.0000)
  18 Fe     5.892750    3.928508    1.964242    ( 0.0000,  0.0000,  2.0000)
  19 Fe     5.892750    5.892750    0.000005    ( 0.0000,  0.0000,  2.0000)
  20 Cr     7.856992    3.928496   -0.000006    ( 0.0000,  0.0000,  0.0000)
  21 Co     7.856992    5.892762    1.964242    ( 0.0000,  0.0000,  2.1000)
  22 Al     9.821281    3.928484    1.964219    ( 0.0000,  0.0000,  0.0000)
  23 Fe     9.821246    5.892750    0.000003    ( 0.0000,  0.0000,  2.0000)
  24 Ni     0.000001    7.856980    0.000010    ( 0.0000,  0.0000,  1.5000)
  25 Al     0.000000    9.821234    1.964289    ( 0.0000,  0.0000,  0.0000)
  26 Ni     1.964242    7.857004    1.964254    ( 0.0000,  0.0000,  1.5000)
  27 Cr     1.964277    9.821234   -0.000004    ( 0.0000,  0.0000,  0.0000)
  28 Fe     3.928496    7.857004    0.000001    ( 0.0000,  0.0000,  2.0000)
  29 Ni     3.928496    9.821246    1.964242    ( 0.0000,  0.0000,  1.5000)
  30 Ni     5.892762    7.856992    1.964230    ( 0.0000,  0.0000,  1.5000)
  31 Ni     5.892750    9.821246   -0.000005    ( 0.0000,  0.0000,  1.5000)
  32 Co     7.857004    7.856992    0.000010    ( 0.0000,  0.0000,  2.1000)
  33 Cr     7.857004    9.821234    1.964230    ( 0.0000,  0.0000,  0.0000)
  34 Fe     9.821246    7.856992    1.964242    ( 0.0000,  0.0000,  2.0000)
  35 Ni     9.821234    9.821246    0.000007    ( 0.0000,  0.0000,  1.5000)
  36 Fe     0.000003    0.000008    3.928496    ( 0.0000,  0.0000,  2.0000)
  37 Co    -0.000006    1.964254    5.892750    ( 0.0000,  0.0000,  2.1000)
  38 Cr     1.964230   -0.000012    5.892750    ( 0.0000,  0.0000,  0.0000)
  39 Ni     1.964219    1.964254    3.928496    ( 0.0000,  0.0000,  1.5000)
  40 Al     3.928449   -0.000046    3.928508    ( 0.0000,  0.0000,  0.0000)
  41 Al     3.928496    1.964254    5.892774    ( 0.0000,  0.0000,  0.0000)
  42 Cr     5.892762   -0.000015    5.892774    ( 0.0000,  0.0000,  0.0000)
  43 Al     5.892762    1.964301    3.928508    ( 0.0000,  0.0000,  0.0000)
  44 Al     7.857039   -0.000007    3.928508    ( 0.0000,  0.0000,  0.0000)
  45 Co     7.857016    1.964254    5.892762    ( 0.0000,  0.0000,  2.1000)
  46 Cr     9.821258    0.000010    5.892762    ( 0.0000,  0.0000,  0.0000)
  47 Ni     9.821270    1.964242    3.928496    ( 0.0000,  0.0000,  1.5000)
  48 Fe    -0.000003    3.928496    3.928496    ( 0.0000,  0.0000,  2.0000)
  49 Fe    -0.000007    5.892750    5.892750    ( 0.0000,  0.0000,  2.0000)
  50 Al     1.964230    3.928508    5.892726    ( 0.0000,  0.0000,  0.0000)
  51 Co     1.964230    5.892750    3.928508    ( 0.0000,  0.0000,  2.1000)
  52 Co     3.928508    3.928508    3.928496    ( 0.0000,  0.0000,  2.1000)
  53 Ni     3.928508    5.892762    5.892750    ( 0.0000,  0.0000,  1.5000)
  54 Ni     5.892750    3.928508    5.892750    ( 0.0000,  0.0000,  1.5000)
  55 Co     5.892750    5.892750    3.928496    ( 0.0000,  0.0000,  2.1000)
  56 Al     7.856980    3.928508    3.928508    ( 0.0000,  0.0000,  0.0000)
  57 Cr     7.857004    5.892762    5.892762    ( 0.0000,  0.0000,  0.0000)
  58 Ni     9.821270    3.928496    5.892762    ( 0.0000,  0.0000,  1.5000)
  59 Cr     9.821270    5.892774    3.928508    ( 0.0000,  0.0000,  0.0000)
[...]
  93 Co     7.857004    5.892738    9.821258    ( 0.0000,  0.0000,  2.1000)
  94 Ni     9.821246    3.928496    9.821258    ( 0.0000,  0.0000,  1.5000)
  95 Fe     9.821246    5.892750    7.856992    ( 0.0000,  0.0000,  2.0000)
  96 Al     0.000010    7.856980    7.856945    ( 0.0000,  0.0000,  0.0000)
  97 Al     0.000026    9.821258    9.821246    ( 0.0000,  0.0000,  0.0000)
  98 Fe     1.964266    7.857004    9.821246    ( 0.0000,  0.0000,  2.0000)
  99 Co     1.964266    9.821234    7.856992    ( 0.0000,  0.0000,  2.1000)
 100 Fe     3.928496    7.857004    7.856992    ( 0.0000,  0.0000,  2.0000)
 101 Co     3.928496    9.821246    9.821246    ( 0.0000,  0.0000,  2.1000)
 102 Al     5.892738    7.857016    9.821246    ( 0.0000,  0.0000,  0.0000)
 103 Fe     5.892750    9.821246    7.857004    ( 0.0000,  0.0000,  2.0000)
 104 Co     7.857004    7.857004    7.856992    ( 0.0000,  0.0000,  2.1000)
 105 Ni     7.856992    9.821270    9.821246    ( 0.0000,  0.0000,  1.5000)
 106 Al     9.821223    7.856969    9.821270    ( 0.0000,  0.0000,  0.0000)
 107 Cr     9.821234    9.821258    7.856992    ( 0.0000,  0.0000,  0.0000)

Unit cell:
           periodic     x           y           z      points  spacing
  1. axis:    yes   11.785500    0.000000    0.000000    54     0.2183
  2. axis:    yes    0.000000   11.785500    0.000000    54     0.2183
  3. axis:    yes    0.000000    0.000000   11.785500    54     0.2183

  Lengths:  11.785500  11.785500  11.785500
  Angles:   90.000000  90.000000  90.000000

Effective grid spacing dv^(1/3) = 0.2182

     iter     time        total  log10-change:  magmom
                         energy  eigst   dens
iter:   1 02:04:47  -983.963992                  +121.3862
iter:   2 02:05:54  -831.857198  -0.02  -1.14    +63.8478
iter:   3 02:07:02  -833.059124  -0.57  -1.10    +66.1883
iter:   4 02:08:09  -786.678882  -1.06  -1.18    +62.6217
iter:   5 02:09:15  -774.974840  -1.64  -1.29    +64.6380
iter:   6 02:10:24  -776.425605  -1.55  -1.34    +71.5624
iter:   7 02:11:32  -776.494556  -1.34  -1.36    +75.3026
iter:   8 02:12:38  -777.512169  -1.52  -1.41    +80.5958
iter:   9 02:13:46  -771.377407  -1.44  -1.44    +81.3495
iter:  10 02:14:52  -771.458680  -1.76  -1.62    +80.2375
iter:  11 02:15:59  -772.165623  -1.95  -1.64    +80.0817
iter:  12 02:17:07  -768.970438  -2.16  -1.64    +79.5410
iter:  13 02:18:14  -769.160027  -2.59  -1.77    +78.6479
iter:  14 02:19:20  -770.227772  -2.47  -1.82    +77.7946
iter:  15 02:20:26  -770.982989  -2.58  -1.85    +76.5367
iter:  16 02:21:35  -771.975909  -2.51  -1.88    +74.7229
iter:  17 02:22:42  -772.629272  -2.43  -1.89    +73.9766
iter:  18 02:23:50  -772.631508  -2.64  -1.94    +72.3242
iter:  19 02:24:58  -773.272441  -2.78  -2.05    +70.3815
iter:  20 02:26:05  -773.893508  -2.93  -2.07    +69.0954
iter:  21 02:27:13  -774.629710  -2.94  -2.12    +67.5859
iter:  22 02:28:20  -775.140824  -3.01  -2.13    +65.6612
iter:  23 02:29:30  -775.927016  -2.96  -2.16    +63.2566
iter:  24 02:30:34  -776.917571  -2.75  -2.17    +60.9341
iter:  25 02:31:40  -778.146464  -2.66  -2.11    +60.5084
iter:  26 02:32:49  -777.840379  -3.08  -2.04    +61.0217
iter:  27 02:33:57  -778.001661  -3.02  -2.07    +61.4272
iter:  28 02:35:03  -778.133548  -3.30  -2.08    +61.9972
iter:  29 02:36:11  -777.442470  -2.63  -2.07    +62.9355
iter:  30 02:37:19  -777.421515  -3.26  -2.06    +62.3079
iter:  31 02:38:25  -777.522755  -3.55  -2.09    +61.7158
iter:  32 02:39:34  -777.618556  -3.16  -2.09    +61.4998
iter:  33 02:40:43  -777.352213  -3.15  -2.10    +61.2346
iter:  34 02:41:50  -777.271990  -3.27  -2.16    +61.3318
iter:  35 02:42:59  -777.467032  -3.10  -2.19    +61.4810
iter:  36 02:44:08  -777.142442  -3.07  -2.16    +61.4403
iter:  37 02:45:14  -777.180807  -3.00  -2.27    +61.9052
iter:  38 02:46:21  -777.061612  -3.49  -2.27    +62.1540
iter:  39 02:47:30  -777.087270  -3.57  -2.35    +62.4901
iter:  40 02:48:37  -777.072361c -3.74  -2.38    +62.6520
iter:  41 02:49:43  -777.096299c -3.70  -2.44    +62.9761
iter:  42 02:50:52  -777.079832c -3.75  -2.47    +63.1291
iter:  43 02:52:02  -777.081214c -3.73  -2.55    +63.2588
iter:  44 02:53:08  -777.094062c -3.77  -2.62    +63.2861
iter:  45 02:54:15  -777.076071c -3.98  -2.64    +63.2679
iter:  46 02:55:24  -777.062145c -4.02  -2.68    +63.2971
iter:  47 02:56:31  -777.067491c -4.44  -2.77    +63.3099
iter:  48 02:57:39  -777.065689c -4.39  -2.81    +63.3271
iter:  49 02:58:46  -777.072227c -4.41  -2.85    +63.3258
iter:  50 02:59:56  -777.070633c -4.34  -2.88    +63.3374
iter:  51 03:01:04  -777.066995c -4.56  -2.98    +63.3513
iter:  52 03:02:06  -777.069059c -4.79  -3.05    +63.3642
iter:  53 03:03:09  -777.071788c -4.75  -3.07    +63.3710
iter:  54 03:04:15  -777.069615c -4.96  -3.10    +63.3800
iter:  55 03:05:21  -777.068782c -4.78  -3.18    +63.3893
iter:  56 03:06:27  -777.065732c -5.19  -3.20    +63.3981
iter:  57 03:07:35  -777.069356c -5.11  -3.31    +63.4174
iter:  58 03:08:42  -777.066538c -5.28  -3.34    +63.4138
iter:  59 03:09:48  -777.065177c -5.29  -3.36    +63.4208
iter:  60 03:10:55  -777.065653c -5.44  -3.41    +63.4233
iter:  61 03:11:59  -777.066922c -5.38  -3.45    +63.4299
iter:  62 03:13:05  -777.066238c -5.52  -3.49    +63.4309
iter:  63 03:14:09  -777.064080c -5.59  -3.50    +63.4273
iter:  64 03:15:15  -777.065751c -5.60  -3.58    +63.4326
iter:  65 03:16:24  -777.066168c -5.69  -3.57    +63.4307
iter:  66 03:17:31  -777.065353c -5.82  -3.62    +63.4346
iter:  67 03:18:39  -777.064142c -5.86  -3.66    +63.4337
iter:  68 03:19:45  -777.064339c -5.97  -3.70    +63.4342
iter:  69 03:20:52  -777.065133c -6.12  -3.72    +63.4361
iter:  70 03:22:00  -777.064552c -6.26  -3.79    +63.4347
iter:  71 03:23:06  -777.064204c -6.32  -3.80    +63.4371
iter:  72 03:24:14  -777.064402c -6.25  -3.83    +63.4366
iter:  73 03:25:20  -777.065214c -6.31  -3.84    +63.4383
iter:  74 03:26:29  -777.064997c -6.24  -3.85    +63.4389
iter:  75 03:27:37  -777.063940c -6.22  -3.87    +63.4386
iter:  76 03:28:45  -777.064339c -6.38  -3.92    +63.4414
iter:  77 03:29:52  -777.064395c -6.61  -3.94    +63.4401
iter:  78 03:30:59  -777.064329c -6.43  -4.04c   +63.4413
iter:  79 03:32:06  -777.063879c -6.71  -4.01c   +63.4402
iter:  80 03:33:13  -777.064010c -6.73  -4.11c   +63.4407
iter:  81 03:34:21  -777.065016c -6.42  -4.19c   +63.4403
iter:  82 03:35:28  -777.064318c -6.76  -4.07c   +63.4394
iter:  83 03:36:35  -777.064200c -7.07  -4.29c   +63.4411
iter:  84 03:37:43  -777.064177c -6.86  -4.44c   +63.4413
iter:  85 03:38:50  -777.064132c -7.44c -4.29c   +63.4417

Converged after 85 iterations.

Dipole moment: (0.249274, -0.326035, 0.076695) |e|*Ang

Total magnetic moment: (0.000000, 0.000000, 63.441747)
Local magnetic moments:
   0 Al ( 0.000000,  0.000000,  0.006846)
   1 Fe ( 0.000000,  0.000000,  2.773554)
   2 Cr ( 0.000000,  0.000000, -2.877299)
   3 Cr ( 0.000000,  0.000000,  2.561046)
   4 Ni ( 0.000000,  0.000000,  0.142549)
   5 Al ( 0.000000,  0.000000, -0.010485)
   6 Al ( 0.000000,  0.000000, -0.015687)
   7 Ni ( 0.000000,  0.000000,  0.479968)
   8 Fe ( 0.000000,  0.000000,  2.973864)
   9 Co ( 0.000000,  0.000000,  1.371038)
  10 Ni ( 0.000000,  0.000000,  0.223145)
  11 Fe ( 0.000000,  0.000000,  2.736452)
  12 Fe ( 0.000000,  0.000000,  2.742004)
  13 Co ( 0.000000,  0.000000,  1.738004)
  14 Cr ( 0.000000,  0.000000, -3.080455)
  15 Co ( 0.000000,  0.000000,  1.581444)
  16 Fe ( 0.000000,  0.000000,  2.630195)
  17 Al ( 0.000000,  0.000000, -0.039823)
  18 Fe ( 0.000000,  0.000000,  2.733014)
  19 Fe ( 0.000000,  0.000000,  2.752638)
  20 Cr ( 0.000000,  0.000000, -3.138749)
  21 Co ( 0.000000,  0.000000,  1.596742)
  22 Al ( 0.000000,  0.000000, -0.031079)
  23 Fe ( 0.000000,  0.000000,  2.822835)
  24 Ni ( 0.000000,  0.000000,  0.194492)
  25 Al ( 0.000000,  0.000000, -0.003735)
  26 Ni ( 0.000000,  0.000000,  0.362680)
  27 Cr ( 0.000000,  0.000000, -2.822495)
  28 Fe ( 0.000000,  0.000000,  2.860662)
  29 Ni ( 0.000000,  0.000000,  0.299883)
  30 Ni ( 0.000000,  0.000000,  0.440723)
  31 Ni ( 0.000000,  0.000000,  0.362367)
  32 Co ( 0.000000,  0.000000,  1.757583)
  33 Cr ( 0.000000,  0.000000, -3.061833)
  34 Fe ( 0.000000,  0.000000,  2.852559)
  35 Ni ( 0.000000,  0.000000,  0.226397)
  36 Fe ( 0.000000,  0.000000,  2.706373)
  37 Co ( 0.000000,  0.000000,  1.630229)
  38 Cr ( 0.000000,  0.000000, -3.069629)
  39 Ni ( 0.000000,  0.000000,  0.094506)
  40 Al ( 0.000000,  0.000000,  0.008518)
  41 Al ( 0.000000,  0.000000, -0.009810)
  42 Cr ( 0.000000,  0.000000, -2.916982)
  43 Al ( 0.000000,  0.000000,  0.000054)
  44 Al ( 0.000000,  0.000000,  0.011778)
  45 Co ( 0.000000,  0.000000,  1.295152)
  46 Cr ( 0.000000,  0.000000, -3.030867)
  47 Ni ( 0.000000,  0.000000,  0.396765)
  48 Fe ( 0.000000,  0.000000,  2.833639)
  49 Fe ( 0.000000,  0.000000,  2.698758)
  50 Al ( 0.000000,  0.000000, -0.031376)
  51 Co ( 0.000000,  0.000000,  1.628017)
  52 Co ( 0.000000,  0.000000,  1.452389)
  53 Ni ( 0.000000,  0.000000,  0.520286)
  54 Ni ( 0.000000,  0.000000,  0.215110)
  55 Co ( 0.000000,  0.000000,  1.658933)
  56 Al ( 0.000000,  0.000000, -0.009215)
  57 Cr ( 0.000000,  0.000000, -3.096235)
  58 Ni ( 0.000000,  0.000000,  0.220769)
  59 Cr ( 0.000000,  0.000000, -3.017866)
[...]
  93 Co ( 0.000000,  0.000000,  1.688838)
  94 Ni ( 0.000000,  0.000000,  0.366903)
  95 Fe ( 0.000000,  0.000000,  2.724729)
  96 Al ( 0.000000,  0.000000, -0.029448)
  97 Al ( 0.000000,  0.000000, -0.009616)
  98 Fe ( 0.000000,  0.000000,  2.681229)
  99 Co ( 0.000000,  0.000000,  1.544914)
 100 Fe ( 0.000000,  0.000000,  2.829655)
 101 Co ( 0.000000,  0.000000,  1.751944)
 102 Al ( 0.000000,  0.000000, -0.051828)
 103 Fe ( 0.000000,  0.000000,  2.972450)
 104 Co ( 0.000000,  0.000000,  1.645751)
 105 Ni ( 0.000000,  0.000000,  0.525253)
 106 Al ( 0.000000,  0.000000, -0.027560)
 107 Cr ( 0.000000,  0.000000,  2.796658)

Energy contributions relative to reference atoms: (reference = -3235165.067515)

Kinetic:       -249.459185
Potential:     +154.966202
External:        +0.000000
XC:            -708.510460
Entropy (-ST):   -4.271316
Local:          +28.074969
Free energy:   -779.199790
Extrapolated:  -777.064132

Spin contamination: 58.399218 electrons
Showing only first 2 kpts
                      Up                     Down
 Kpt  Band  Eigenvalues  Occupancy  Eigenvalues  Occupancy
  0   454      6.13565    0.99939      7.19511    0.03946
  0   455      6.14730    0.99932      7.21117    0.03381
  0   456      6.16647    0.99917      7.21518    0.03252
  0   457      6.17562    0.99909      7.23071    0.02797

  1   454      6.13768    0.99938      7.19150    0.04086
  1   455      6.14680    0.99932      7.20619    0.03547
  1   456      6.15513    0.99926      7.20863    0.03465
  1   457      6.17634    0.99908      7.22278    0.03021

Fermi level: 6.87590

No gap

Forces in eV/Ang:
  0 Al   -0.68641    0.07857    0.35015
  1 Fe   -0.17232    0.05872    0.36765
  2 Cr   -0.02399    0.21653    0.12540
  3 Cr    0.03210   -0.28987   -0.00327
  4 Ni   -0.08634   -0.17168   -0.13572
  5 Al   -0.30719    0.54697   -0.53993
  6 Al   -0.08766   -0.40449   -1.32513
  7 Ni    0.09806    0.03180   -0.03810
  8 Fe    0.21549   -0.01272   -0.23644
  9 Co   -0.02016   -0.09749   -0.09774
 10 Ni   -0.12233    0.00960    0.02371
 11 Fe   -0.23960   -0.00149    0.09016
 12 Fe   -0.17306    0.19165    0.15309
 13 Co    0.31851    0.17049   -0.08223
 14 Cr   -0.47931   -0.08371   -0.01535
 15 Co   -0.00298    0.03665    0.05076
 16 Fe    0.30808    0.33901   -0.01183
 17 Al    0.13449    0.04394   -0.08234
 18 Fe    0.04476    0.16576   -0.00363
 19 Fe    0.37652    0.00321    0.04718
 20 Cr   -0.32114   -0.05038   -0.26410
 21 Co   -0.25243    0.37403    0.03065
 22 Al    0.33508   -0.25562   -0.22106
 23 Fe   -0.23179    0.07470    0.02259
 24 Ni    0.06714   -0.22139   -0.01075
 25 Al   -0.19227   -0.58355   -0.02002
 26 Ni    0.00356   -0.20289    0.02971
 27 Cr    0.61723   -0.67901   -0.01736
 28 Fe   -0.12529    0.29885    0.06979
 29 Ni   -0.02005    0.00501    0.02674
 30 Ni    0.03024   -0.27518   -0.18115
 31 Ni    0.01168    0.00814   -0.02361
 32 Co   -0.04521   -0.18647    0.22836
 33 Cr   -0.17832   -0.34895   -0.66842
 34 Fe   -0.23216   -0.22926   -0.04368
 35 Ni    0.00990    0.03856   -0.03606
 36 Fe   -0.16100    0.26788    0.37838
 37 Co   -0.08339   -0.18397    0.00830
 38 Cr   -0.23143    0.03668    0.36628
 39 Ni   -0.00737   -0.04784   -0.02067
 40 Al   -0.54013   -0.80080    0.22754
 41 Al   -0.16191    0.30636    0.31442
 42 Cr    0.27765   -0.30610    0.53528
 43 Al    0.43708    0.92622    0.37635
 44 Al    0.80361    0.23915    0.12764
 45 Co    0.22265   -0.08940    0.08298
 46 Cr   -0.09283    0.81263    0.68225
 47 Ni    0.19458    0.04285   -0.06883
 48 Fe    0.01779    0.02588    0.14927
 49 Fe   -0.12685    0.03484   -0.37401
 50 Al   -0.04695   -0.14687   -0.75257
 51 Co   -0.28039    0.02668    0.17365
 52 Co    0.18552    0.33464   -0.07329
 53 Ni    0.05077    0.00177   -0.04839
 54 Ni   -0.06627    0.01134   -0.03997
 55 Co   -0.02737   -0.00238   -0.06254
 56 Al   -0.04668   -0.08321    0.31130
 57 Cr   -0.52300    0.72654    0.20195
 58 Ni   -0.06936   -0.01746    0.04688
 59 Cr    0.60735    0.56616   -0.12222
[...]
 93 Co    0.08252   -0.09324   -0.02194
 94 Ni    0.00106    0.02946   -0.03632
 95 Fe   -0.23176   -0.17797   -0.01276
 96 Al    0.16469   -0.09739   -0.57382
 97 Al    0.02145    0.39381    0.08872
 98 Fe    0.23958    0.13097    0.14227
 99 Co    0.22979   -0.07685   -0.06228
100 Fe    0.02860    0.34049   -0.28472
101 Co   -0.02954    0.24445   -0.15282
102 Al    0.68827    0.40644    0.03915
103 Fe    0.15641    0.25473   -0.18541
104 Co   -0.13558   -0.08697   -0.28769
105 Ni   -0.14067    0.07418    0.07495
106 Al   -0.96385   -0.00295    0.64642
107 Cr   -0.31818    0.59229   -0.26326

Date: Sat Apr  8 03:39:13 2023