User:   c.zeng@d0029
Date:   Sat Apr 15 21:05:50 2023
Arch:   x86_64
Pid:    188255
CWD:    /home/c.zeng/projects/hea-corrosion/hea-mlp/data-curation/bulk-mcmc/dft-jobs/82
Python: 3.8.1
gpaw:   /home/c.zeng/usr/installs/gpaw/source/gpaw-22.8.0/gpaw
_gpaw:  /home/c.zeng/usr/installs/gpaw/source/gpaw-22.8.0/
        _gpaw.cpython-38-x86_64-linux-gnu.so
ase:    /home/c.zeng/.local/lib/python3.8/site-packages/ase-3.22.1-py3.8.egg/ase (version 3.22.1)
numpy:  /shared/centos7/python/3.8.1/lib/python3.8/site-packages/numpy (version 1.17.4)
scipy:  /shared/centos7/python/3.8.1/lib/python3.8/site-packages/scipy (version 1.4.1)
units:  Angstrom and eV
cores: 30
OpenMP: False
OMP_NUM_THREADS: 1

Input parameters:
  convergence: {energy: 0.0001}
  kpts: [2 2 2]
  maxiter: 666
  mode: {ecut: 350.0,
         name: pw}
  occupations: {fixmagmom: False,
                name: fermi-dirac,
                width: 0.1}
  spinpol: True
  xc: PBE

System changes: positions, numbers, cell, pbc, initial_charges, initial_magmoms

Initialize ...

species:
  Cr:
    name: Chromium
    id: 33f258bda2ca9f93018e70263a35547b
    Z: 24.0
    valence: 6
    core: 18
    charge: 0.0
    file: /home/c.zeng/usr/data/gpaw-setups-0.9.20000/Cr.PBE.gz
    compensation charges: {type: gauss,
                           rc: 0.35,
                           lmax: 2}
    cutoffs: {filter: 2.14,
              core: 3.04}
    valence states:
      #              energy  rcut
      - 4s(1.00)    -4.007   1.164
      - 4p(0.00)    -0.989   1.217
      - 3d(5.00)    -2.913   1.111
      -  s          23.205   1.164
      -  p          26.223   1.217
      -  d          24.299   1.111

    # Using partial waves for Cr as LCAO basis

  Ni:
    name: Nickel
    id: 0d9f38a9d6e76a2886f07bb4381f212b
    Z: 28.0
    valence: 16
    core: 12
    charge: 0.0
    file: /home/c.zeng/usr/data/gpaw-setups-0.9.20000/Ni.PBE.gz
    compensation charges: {type: gauss,
                           rc: 0.36,
                           lmax: 2}
    cutoffs: {filter: 2.14,
              core: 1.98}
    valence states:
      #              energy  rcut
      - 4s(2.00)    -5.642   1.164
      - 3p(6.00)   -71.394   1.207
      - 4p(0.00)    -1.226   1.207
      - 3d(8.00)    -8.875   1.138
      -  s          21.570   1.164
      -  d          18.337   1.138

[...]

  Fe:
    name: Iron
    id: 37abbd8d6c3c35915a9b583b742da910
    Z: 26.0
    valence: 8
    core: 18
    charge: 0.0
    file: /home/c.zeng/usr/data/gpaw-setups-0.9.20000/Fe.PBE.gz
    compensation charges: {type: gauss,
                           rc: 0.33,
                           lmax: 2}
    cutoffs: {filter: 2.06,
              core: 2.67}
    valence states:
      #              energy  rcut
      - 4s(2.00)    -5.291   1.164
      - 4p(0.00)    -1.326   1.058
      - 3d(6.00)    -7.505   1.058
      -  s          21.920   1.164
      -  p          25.885   1.058
      -  d          19.706   1.058

[...]

  Co:
    name: Cobalt
    id: 339d20d5b0b93d2de9531a1bee871d91
    Z: 27.0
    valence: 9
    core: 18
    charge: 0.0
    file: /home/c.zeng/usr/data/gpaw-setups-0.9.20000/Co.PBE.gz
    compensation charges: {type: gauss,
                           rc: 0.32,
                           lmax: 2}
    cutoffs: {filter: 1.87,
              core: 2.55}
    valence states:
      #              energy  rcut
      - 4s(2.00)    -5.469   1.005
      - 4p(0.00)    -1.277   1.058
      - 3d(7.00)    -8.205   1.005
      -  s          21.742   1.005
      -  p          25.934   1.058
      -  d          19.007   1.005

[...]

  Al:
    name: Aluminium
    id: 0292cae29f5d6237e50f6abdd43a7bdd
    Z: 13.0
    valence: 3
    core: 10
    charge: 0.0
    file: /home/c.zeng/usr/data/gpaw-setups-0.9.20000/Al.PBE.gz
    compensation charges: {type: gauss,
                           rc: 0.34,
                           lmax: 2}
    cutoffs: {filter: 1.91,
              core: 2.36}
    valence states:
      #              energy  rcut
      - 3s(2.00)    -7.753   1.085
      - 3p(1.00)    -2.712   1.085
      -  s          19.459   1.085
      -  p          24.499   1.085
      -  d           0.000   1.085

    # Using partial waves for Al as LCAO basis

Reference energy: -3699400.456887  # eV

Spin-polarized calculation.
Magnetic moment: 143.500000

Convergence criteria:
 Maximum [total energy] change in last 3 cyles: 0.0001 eV / electron
 Maximum integral of absolute [dens]ity change: 0.0001 electrons / valence electron
 Maximum integral of absolute [eigenst]ate change: 4e-08 eV^2 / valence electron
 Maximum number of scf [iter]ations: 666
 (Square brackets indicate name in SCF output, whereas a 'c' in
 the SCF output indicates the quantity has converged.)

Symmetries present (total): 1

  ( 1  0  0)
  ( 0  1  0)
  ( 0  0  1)

8 k-points: 2 x 2 x 2 Monkhorst-Pack grid
4 k-points in the irreducible part of the Brillouin zone
       k-points in crystal coordinates                weights
   0:     0.25000000   -0.25000000   -0.25000000          2/8
   1:     0.25000000   -0.25000000    0.25000000          2/8
   2:     0.25000000    0.25000000   -0.25000000          2/8
   3:     0.25000000    0.25000000    0.25000000          2/8

Wave functions: Plane wave expansion
  Cutoff energy: 350.000 eV
  Number of coefficients (min, max): 18052, 18052
  Pulay-stress correction: 0.000000 eV/Ang^3 (de/decut=0.000000)
  Using FFTW library
  ScaLapack parameters: grid=1x1, blocksize=None
  Wavefunction extrapolation:
    Improved wavefunction reuse through dual PAW basis

Occupation numbers: Fermi-Dirac:
  width: 0.1000  # eV

Eigensolver
   Davidson(niter=2)

Densities:
  Coarse grid: 48*48*48 grid
  Fine grid: 96*96*96 grid
  Total Charge: 0.000000

Density mixing:
  Method: difference
  Backend: pulay
  Linear mixing parameter: 0.05
  old densities: 5
  Damping of long wavelength oscillations: 50

Hamiltonian:
  XC and Coulomb potentials evaluated on a 96*96*96 grid
  Using the PBE Exchange-Correlation functional
  External potential:
    NoExternalPotential

XC parameters: PBE with 2 nearest neighbor stencil

Total number of cores used: 30
Parallelization over k-points: 2
Domain decomposition: 5 x 3 x 1

Number of atoms: 108
Number of atomic orbitals: 1025
Number of bands in calculation: 703
Number of valence electrons: 1020
Bands to converge: occupied

... initialized

Initializing position-dependent things.

Density initialized from atomic densities
Creating initial wave functions:
  703 bands from LCAO basis set

        Cr------------------------.
       /|  Co                Co   |
      Cr|   Ni         Cr         |
     / Fe      Fe       Al        |
    /   CCo      Ni       Fe      |
   /e   | CoNi     CoAl    CrCr   |
  /  FeCr  CrCo     NiNiCo        |
 *    FeFe  FeCoNi     CoAl       |
 |     CoFeCr  CoFe Ni  CrFeNi    |
 | Fe   CrNiNiCo NiCrCrFe  Ni     |
 |   CoCr  NiAlNi   CrCrNi   Fe   |
 |    FeCr  FeFeCoCr CoFeNi   Cr  |
 |     CrFeFe  Cr CrCr  CoFeFe    |
 |      .-CoNiCo-FeNiNiCo--CoCr---.
 |   CrCo    CoAl   NiNiFe       /
 |    / Ni    CrFe       Ni     /
 |   /            Ni           /
 |Ni/      Co       Co        /
 |/            Ni           /
 *----------------Cr-------*

Positions:
   0 Cr     0.005316   -0.016350   10.639749    ( 0.0000,  0.0000,  0.0000)
   1 Ni    10.672340    1.801276    1.786848    ( 0.0000,  0.0000,  0.0000)
   2 Fe     1.795727   10.625972    1.782259    ( 0.0000,  0.0000,  0.0000)
   3 Cr     1.780787    1.796175   10.644605    ( 0.0000,  0.0000,  2.1000)
   4 Fe     3.523539   -0.014558    0.017268    ( 0.0000,  0.0000,  2.0000)
   5 Co     3.522568    1.781672    1.746648    ( 0.0000,  0.0000,  0.0000)
   6 Co     5.320952   10.642342    1.763136    ( 0.0000,  0.0000,  1.5000)
   7 Ni     5.342082    1.828767    0.007462    ( 0.0000,  0.0000,  2.0000)
   8 Cr     7.144895    0.019195    0.012033    ( 0.0000,  0.0000,  0.0000)
   9 Co     7.143497    1.798064    1.764939    ( 0.0000,  0.0000,  2.1000)
  10 Cr     8.891362   10.651627    1.788353    ( 0.0000,  0.0000,  1.5000)
  11 Co     8.888779    1.804777   10.642609    ( 0.0000,  0.0000,  2.0000)
  12 Fe     0.008694    3.581540   10.650250    ( 0.0000,  0.0000,  2.1000)
  13 Cr     0.018979    5.332745    1.789751    ( 0.0000,  0.0000,  2.1000)
  14 Ni     1.778129    3.600941    1.760019    ( 0.0000,  0.0000,  2.0000)
  15 Co     1.790423    5.343267   -0.017766    ( 0.0000,  0.0000,  2.0000)
  16 Ni     3.542802    3.589864   -0.015614    ( 0.0000,  0.0000,  2.0000)
  17 Co     3.526837    5.358538    1.765793    ( 0.0000,  0.0000,  2.0000)
  18 Fe     5.336650    3.606501    1.755815    ( 0.0000,  0.0000,  0.0000)
  19 Ni     5.300399    5.323642   -0.012797    ( 0.0000,  0.0000,  2.1000)
  20 Al     7.122858    3.584816   10.659524    ( 0.0000,  0.0000,  2.0000)
  21 Ni     7.120500    5.315168    1.805502    ( 0.0000,  0.0000,  1.5000)
  22 Ni     8.892034    3.590952    1.773146    ( 0.0000,  0.0000,  2.1000)
  23 Fe     8.925340    5.301487   -0.003100    ( 0.0000,  0.0000,  0.0000)
  24 Cr     0.023055    7.096680   -0.007939    ( 0.0000,  0.0000,  0.0000)
  25 Cr     0.019141    8.871245    1.787510    ( 0.0000,  0.0000,  1.5000)
  26 Co     1.784372    7.104567    1.776443    ( 0.0000,  0.0000,  2.0000)
  27 Co     1.779944    8.867628   10.659406    ( 0.0000,  0.0000,  1.5000)
  28 Cr     3.547785    7.097897    0.009215    ( 0.0000,  0.0000,  2.1000)
  29 Cr     3.541137    8.858109    1.788225    ( 0.0000,  0.0000,  2.1000)
  30 Ni     5.295105    7.099391    1.787894    ( 0.0000,  0.0000,  2.1000)
  31 Ni     5.303685    8.873828    0.029898    ( 0.0000,  0.0000,  0.0000)
  32 Cr     7.106883    7.088719   10.645159    ( 0.0000,  0.0000,  0.0000)
  33 Co     7.111055    8.901137    1.809472    ( 0.0000,  0.0000,  0.0000)
  34 Co     8.939384    7.093404    1.799238    ( 0.0000,  0.0000,  0.0000)
  35 Co     8.919972    8.915853   10.664881    ( 0.0000,  0.0000,  0.0000)
  36 Cr    10.679704   10.658873    3.584517    ( 0.0000,  0.0000,  2.0000)
  37 Fe    10.670921    1.796367    5.340289    ( 0.0000,  0.0000,  2.1000)
  38 Fe     1.770350   10.649001    5.343491    ( 0.0000,  0.0000,  0.0000)
  39 Co     1.791800    1.784671    3.584891    ( 0.0000,  0.0000,  2.0000)
  40 Ni     3.529718   10.626388    3.565234    ( 0.0000,  0.0000,  2.1000)
  41 Fe     3.535716    1.793465    5.367289    ( 0.0000,  0.0000,  1.5000)
  42 Co     5.311497    0.001574    5.366254    ( 0.0000,  0.0000,  1.5000)
  43 Al     5.332627    1.768055    3.580793    ( 0.0000,  0.0000,  0.0000)
  44 Ni     7.136966   10.673941    3.563804    ( 0.0000,  0.0000,  2.0000)
  45 Cr     7.136774    1.794126    5.358944    ( 0.0000,  0.0000,  2.1000)
  46 Co     8.925938   10.673621    5.347589    ( 0.0000,  0.0000,  2.0000)
  47 Fe     8.883827    1.779111    3.582404    ( 0.0000,  0.0000,  1.5000)
  48 Cr    -0.010038    3.572341    3.580996    ( 0.0000,  0.0000,  2.0000)
  49 Co    10.685573    5.328935    5.338550    ( 0.0000,  0.0000,  2.0000)
  50 Cr     1.784180    3.582949    5.348357    ( 0.0000,  0.0000,  1.5000)
  51 Fe     1.766326    5.339510    3.565255    ( 0.0000,  0.0000,  1.5000)
  52 Ni     3.522387    3.605007    3.574059    ( 0.0000,  0.0000,  0.0000)
  53 Al     3.543581    5.347343    5.347962    ( 0.0000,  0.0000,  2.1000)
  54 Co     5.333950    3.591678    5.360630    ( 0.0000,  0.0000,  2.0000)
  55 Cr     5.336458    5.346308    3.560132    ( 0.0000,  0.0000,  0.0000)
  56 Ni     7.143102    3.570089    3.572138    ( 0.0000,  0.0000,  2.1000)
  57 Cr     7.120265    5.347471    5.345689    ( 0.0000,  0.0000,  2.0000)
  58 Ni     8.888299    3.570665    5.342018    ( 0.0000,  0.0000,  1.5000)
  59 Fe     8.904573    5.339084    3.577453    ( 0.0000,  0.0000,  2.0000)
[...]
  93 Ni     7.108740    5.307762    8.854395    ( 0.0000,  0.0000,  1.5000)
  94 Al     8.907593    3.561296    8.890348    ( 0.0000,  0.0000,  2.1000)
  95 Fe     8.917806    5.336309    7.100224    ( 0.0000,  0.0000,  0.0000)
  96 Fe     0.016270    7.102027    7.111664    ( 0.0000,  0.0000,  2.0000)
  97 Fe     0.000822    8.895150    8.883817    ( 0.0000,  0.0000,  1.5000)
  98 Co     1.771182    7.105090    8.888608    ( 0.0000,  0.0000,  1.5000)
  99 Cr     1.775184    8.850318    7.108494    ( 0.0000,  0.0000,  2.0000)
 100 Co     3.530401    7.086478    7.104972    ( 0.0000,  0.0000,  1.5000)
 101 Fe     3.524841    8.851001    8.894798    ( 0.0000,  0.0000,  0.0000)
 102 Co     5.310654    7.102827    8.871128    ( 0.0000,  0.0000,  0.0000)
 103 Ni     5.290613    8.850286    7.104876    ( 0.0000,  0.0000,  0.0000)
 104 Co     7.129016    7.083330    7.142750    ( 0.0000,  0.0000,  2.1000)
 105 Al     7.143241    8.903186    8.854384    ( 0.0000,  0.0000,  2.0000)
 106 Cr     8.926504    7.115858    8.862313    ( 0.0000,  0.0000,  0.0000)
 107 Cr     8.932896    8.877648    7.127479    ( 0.0000,  0.0000,  1.5000)

Unit cell:
           periodic     x           y           z      points  spacing
  1. axis:    yes   10.671700    0.000000    0.000000    48     0.2223
  2. axis:    yes    0.000000   10.671700    0.000000    48     0.2223
  3. axis:    yes    0.000000    0.000000   10.671700    48     0.2223

  Lengths:  10.671700  10.671700  10.671700
  Angles:   90.000000  90.000000  90.000000

Effective grid spacing dv^(1/3) = 0.2223

     iter     time        total  log10-change:  magmom
                         energy  eigst   dens
iter:   1 21:12:06  -965.873837                  +143.1822
iter:   2 21:14:59  -907.084875  -0.48  -1.33    +104.1523
iter:   3 21:17:51  -909.897667  -0.90  -1.35    +70.5245
iter:   4 21:20:43  -882.394482  -1.29  -1.34    +63.8223
iter:   5 21:23:35  -877.523280  -1.81  -1.44    +57.2429
iter:   6 21:26:28  -879.994786  -1.70  -1.48    +54.2733
iter:   7 21:29:21  -878.886106  -1.51  -1.52    +52.3788
iter:   8 21:32:14  -870.623461  -1.67  -1.56    +51.1765
iter:   9 21:34:26  -872.221294  -1.98  -1.74    +50.4175
iter:  10 21:37:18  -871.340671  -2.10  -1.77    +49.9953
iter:  11 21:40:10  -869.651248  -2.42  -1.82    +50.1199
iter:  12 21:43:01  -868.553434  -2.67  -1.87    +50.2950
iter:  13 21:45:52  -869.917567  -2.66  -1.96    +51.0403
iter:  14 21:48:43  -870.667590  -2.55  -1.96    +51.3032
iter:  15 21:51:35  -870.616698  -2.58  -1.95    +51.8133
iter:  16 21:54:26  -872.433938  -2.43  -2.01    +52.2655
iter:  17 21:57:17  -871.910991  -2.43  -1.94    +52.3703
iter:  18 22:00:09  -870.542421  -2.61  -2.03    +52.7524
iter:  19 22:03:00  -869.964843  -2.96  -2.09    +53.0399
iter:  20 22:05:51  -870.063965  -3.12  -2.18    +53.7936
iter:  21 22:08:43  -869.889975  -3.38  -2.20    +54.3146
iter:  22 22:11:34  -870.095958  -3.46  -2.26    +54.9998
iter:  23 22:14:26  -870.243163  -3.49  -2.27    +55.4534
iter:  24 22:17:17  -870.736373  -3.13  -2.28    +56.1994
iter:  25 22:20:09  -870.610159  -3.23  -2.25    +56.3591
iter:  26 22:23:00  -871.298236  -2.98  -2.31    +56.9813
iter:  27 22:25:52  -871.144130  -3.04  -2.26    +57.2362
iter:  28 22:28:44  -871.090117  -3.08  -2.30    +57.7269
iter:  29 22:31:34  -871.052524c -3.38  -2.34    +58.0745
iter:  30 22:34:26  -870.988827c -3.52  -2.41    +58.5170
iter:  31 22:37:17  -871.012976c -3.93  -2.44    +58.8871
iter:  32 22:40:08  -871.088705c -4.07  -2.48    +59.2988
iter:  33 22:42:59  -871.287838  -3.53  -2.50    +60.0810
iter:  34 22:45:51  -871.435179  -3.45  -2.50    +60.5075
iter:  35 22:48:42  -871.498082  -3.53  -2.57    +60.2915
iter:  36 22:51:34  -871.443400c -3.74  -2.66    +60.2657
iter:  37 22:54:25  -871.459860c -3.86  -2.78    +60.2825
iter:  38 22:57:15  -871.438029c -4.19  -2.79    +60.2901
iter:  39 23:00:05  -871.427166c -4.42  -2.93    +60.2567
iter:  40 23:02:56  -871.431732c -4.76  -3.07    +60.2486
iter:  41 23:05:47  -871.448175c -4.75  -3.15    +60.2733
iter:  42 23:08:39  -871.450946c -4.85  -3.17    +60.2602
iter:  43 23:11:30  -871.461807c -4.76  -3.20    +60.2169
iter:  44 23:14:21  -871.463100c -5.07  -3.27    +60.2182
iter:  45 23:17:11  -871.469103c -5.15  -3.36    +60.2069
iter:  46 23:20:02  -871.485210c -4.80  -3.39    +60.2127
iter:  47 23:22:53  -871.484608c -5.63  -3.37    +60.2067
iter:  48 23:25:43  -871.494242c -5.20  -3.40    +60.1651
iter:  49 23:28:34  -871.489973c -5.54  -3.40    +60.2031
iter:  50 23:31:26  -871.492734c -5.24  -3.46    +60.2403
iter:  51 23:34:17  -871.500271c -5.25  -3.61    +60.2140
iter:  52 23:37:09  -871.499827c -5.57  -3.59    +60.2176
iter:  53 23:40:00  -871.505835c -5.41  -3.74    +60.2237
iter:  54 23:42:51  -871.507519c -5.83  -3.76    +60.2045
iter:  55 23:45:43  -871.516587c -5.27  -3.77    +60.1818
iter:  56 23:48:35  -871.516094c -6.21  -3.72    +60.1906
iter:  57 23:51:26  -871.525394c -5.19  -3.70    +60.1724
iter:  58 23:54:16  -871.535874c -5.04  -3.66    +60.1905
iter:  59 23:57:08  -871.560998c -4.41  -3.57    +60.2568
iter:  60 23:59:59  -871.574387c -4.61  -3.40    +60.3136
iter:  61 00:02:51  -871.583101c -4.91  -3.36    +60.3678
iter:  62 00:05:42  -871.589141c -4.98  -3.33    +60.3988
iter:  63 00:08:32  -871.595612c -4.98  -3.29    +60.4300
iter:  64 00:11:24  -871.603559c -4.71  -3.29    +60.4412
iter:  65 00:14:16  -871.595910c -4.95  -3.14    +60.4165
iter:  66 00:17:07  -871.602576c -4.67  -3.19    +60.3493
iter:  67 00:19:58  -871.593656c -5.01  -3.12    +60.3198
iter:  68 00:22:51  -871.599658c -4.90  -3.25    +60.2325
iter:  69 00:25:42  -871.608151c -4.74  -3.19    +60.1918
iter:  70 00:28:34  -871.598505c -4.87  -3.17    +60.1537
iter:  71 00:31:26  -871.599473c -5.00  -3.28    +60.1254
iter:  72 00:34:18  -871.613616c -4.68  -3.33    +60.0949
iter:  73 00:37:10  -871.601483c -4.94  -3.20    +60.0553
iter:  74 00:40:02  -871.601325c -5.26  -3.36    +60.0100
iter:  75 00:42:51  -871.600739c -5.50  -3.43    +59.9952
iter:  76 00:45:39  -871.602808c -5.60  -3.48    +59.9594
iter:  77 00:48:30  -871.603902c -5.94  -3.53    +59.9357
iter:  78 00:51:22  -871.607852c -5.45  -3.56    +59.8853
iter:  79 00:54:14  -871.609557c -5.54  -3.56    +59.8481
iter:  80 00:57:05  -871.610244c -6.00  -3.51    +59.8361
iter:  81 00:59:58  -871.612208c -5.70  -3.53    +59.8078
iter:  82 01:02:49  -871.616217c -5.38  -3.53    +59.7714
iter:  83 01:05:41  -871.615630c -5.59  -3.41    +59.7942
iter:  84 01:08:33  -871.621875c -5.08  -3.40    +59.7522
iter:  85 01:11:24  -871.619131c -5.37  -3.33    +59.7441
iter:  86 01:14:17  -871.617816c -5.58  -3.38    +59.7131
iter:  87 01:17:09  -871.624818c -5.18  -3.48    +59.6873
iter:  88 01:20:01  -871.619758c -5.65  -3.36    +59.6845
iter:  89 01:22:54  -871.621450c -5.65  -3.49    +59.6672
iter:  90 01:25:46  -871.621418c -6.11  -3.45    +59.6677
iter:  91 01:28:39  -871.622233c -5.75  -3.48    +59.6572
iter:  92 01:31:32  -871.623304c -5.88  -3.47    +59.6560
iter:  93 01:34:24  -871.624412c -5.39  -3.44    +59.6565
iter:  94 01:37:16  -871.623221c -5.43  -3.46    +59.6526
iter:  95 01:40:07  -871.622708c -5.62  -3.44    +59.6443
[...]
iter: 100 01:54:30  -871.625940c -5.40  -3.49    +59.6654
iter: 101 01:57:23  -871.625457c -5.24  -3.47    +59.6796
iter: 102 02:00:15  -871.625497c -5.19  -3.44    +59.6733
iter: 103 02:03:07  -871.622493c -5.35  -3.43    +59.6739
iter: 104 02:05:59  -871.621950c -5.70  -3.56    +59.6843
iter: 105 02:08:52  -871.621822c -6.08  -3.66    +59.6877
iter: 106 02:11:44  -871.621140c -6.58  -3.77    +59.6921
iter: 107 02:14:35  -871.621433c -6.34  -3.81    +59.6948
iter: 108 02:17:28  -871.621736c -6.42  -3.80    +59.7026
iter: 109 02:20:20  -871.622442c -5.93  -3.81    +59.7070
iter: 110 02:23:12  -871.622235c -5.79  -3.71    +59.7086
iter: 111 02:26:05  -871.621490c -5.75  -3.70    +59.7169
iter: 112 02:28:57  -871.622026c -5.97  -3.74    +59.7243
iter: 113 02:31:50  -871.621677c -6.08  -3.86    +59.7345
iter: 114 02:34:43  -871.621289c -6.69  -3.89    +59.7334
iter: 115 02:37:36  -871.621180c -6.85  -4.05c   +59.7395
iter: 116 02:40:28  -871.621273c -7.16  -4.11c   +59.7426
iter: 117 02:43:20  -871.621448c -7.05  -4.12c   +59.7463
iter: 118 02:46:12  -871.621119c -6.62  -4.13c   +59.7492
iter: 119 02:49:03  -871.621645c -6.27  -4.04c   +59.7513
iter: 120 02:51:56  -871.621467c -6.41  -3.95    +59.7591
iter: 121 02:54:49  -871.621622c -6.46  -4.11c   +59.7626
iter: 122 02:57:41  -871.621358c -6.69  -4.08c   +59.7637
iter: 123 03:00:33  -871.621213c -7.06  -4.19c   +59.7682
iter: 124 03:03:26  -871.621336c -7.46c -4.36c   +59.7726

Converged after 124 iterations.

Dipole moment: (-10.911463, 7.880965, 9.021553) |e|*Ang

Total magnetic moment: (0.000000, 0.000000, 59.772608)
Local magnetic moments:
   0 Cr ( 0.000000,  0.000000, -0.264479)
   1 Ni ( 0.000000,  0.000000,  0.168286)
   2 Fe ( 0.000000,  0.000000,  2.047069)
   3 Cr ( 0.000000,  0.000000, -1.457846)
   4 Fe ( 0.000000,  0.000000,  2.283425)
   5 Co ( 0.000000,  0.000000,  1.381807)
   6 Co ( 0.000000,  0.000000,  1.103661)
   7 Ni ( 0.000000,  0.000000,  0.306893)
   8 Cr ( 0.000000,  0.000000, -1.632009)
   9 Co ( 0.000000,  0.000000,  1.226821)
  10 Cr ( 0.000000,  0.000000,  0.716948)
  11 Co ( 0.000000,  0.000000,  0.861072)
  12 Fe ( 0.000000,  0.000000,  2.284211)
  13 Cr ( 0.000000,  0.000000, -1.163438)
  14 Ni ( 0.000000,  0.000000,  0.283524)
  15 Co ( 0.000000,  0.000000,  1.184107)
  16 Ni ( 0.000000,  0.000000,  0.413605)
  17 Co ( 0.000000,  0.000000,  1.212616)
  18 Fe ( 0.000000,  0.000000,  2.458912)
  19 Ni ( 0.000000,  0.000000,  0.259394)
  20 Al ( 0.000000,  0.000000, -0.028573)
  21 Ni ( 0.000000,  0.000000,  0.328205)
  22 Ni ( 0.000000,  0.000000,  0.219715)
  23 Fe ( 0.000000,  0.000000,  1.915879)
  24 Cr ( 0.000000,  0.000000, -0.784870)
  25 Cr ( 0.000000,  0.000000, -0.529876)
  26 Co ( 0.000000,  0.000000,  0.813396)
  27 Co ( 0.000000,  0.000000,  0.690930)
  28 Cr ( 0.000000,  0.000000, -1.429806)
  29 Cr ( 0.000000,  0.000000, -0.382348)
  30 Ni ( 0.000000,  0.000000,  0.121493)
  31 Ni ( 0.000000,  0.000000,  0.173482)
  32 Cr ( 0.000000,  0.000000, -1.637425)
  33 Co ( 0.000000,  0.000000,  1.036534)
  34 Co ( 0.000000,  0.000000,  0.722801)
  35 Co ( 0.000000,  0.000000, -0.155026)
  36 Cr ( 0.000000,  0.000000, -1.397523)
  37 Fe ( 0.000000,  0.000000,  2.016638)
  38 Fe ( 0.000000,  0.000000,  2.154215)
  39 Co ( 0.000000,  0.000000,  1.090321)
  40 Ni ( 0.000000,  0.000000,  0.280387)
  41 Fe ( 0.000000,  0.000000,  2.127011)
  42 Co ( 0.000000,  0.000000,  0.784259)
  43 Al ( 0.000000,  0.000000, -0.034359)
  44 Ni ( 0.000000,  0.000000,  0.202910)
  45 Cr ( 0.000000,  0.000000,  1.216959)
  46 Co ( 0.000000,  0.000000,  0.791373)
  47 Fe ( 0.000000,  0.000000,  2.091710)
  48 Cr ( 0.000000,  0.000000, -1.402211)
  49 Co ( 0.000000,  0.000000,  0.996107)
  50 Cr ( 0.000000,  0.000000, -1.623667)
  51 Fe ( 0.000000,  0.000000,  2.016562)
  52 Ni ( 0.000000,  0.000000,  0.259669)
  53 Al ( 0.000000,  0.000000, -0.029956)
  54 Co ( 0.000000,  0.000000,  0.570780)
  55 Cr ( 0.000000,  0.000000, -1.174537)
  56 Ni ( 0.000000,  0.000000,  0.256239)
  57 Cr ( 0.000000,  0.000000, -1.004873)
  58 Ni ( 0.000000,  0.000000,  0.195959)
  59 Fe ( 0.000000,  0.000000,  2.168012)
[...]
  93 Ni ( 0.000000,  0.000000,  0.110366)
  94 Al ( 0.000000,  0.000000, -0.036171)
  95 Fe ( 0.000000,  0.000000,  1.940850)
  96 Fe ( 0.000000,  0.000000,  2.002291)
  97 Fe ( 0.000000,  0.000000,  1.675819)
  98 Co ( 0.000000,  0.000000,  1.090572)
  99 Cr ( 0.000000,  0.000000, -1.890670)
 100 Co ( 0.000000,  0.000000,  1.252056)
 101 Fe ( 0.000000,  0.000000,  2.337786)
 102 Co ( 0.000000,  0.000000,  1.121200)
 103 Ni ( 0.000000,  0.000000,  0.261944)
 104 Co ( 0.000000,  0.000000,  0.738591)
 105 Al ( 0.000000,  0.000000, -0.001595)
 106 Cr ( 0.000000,  0.000000, -0.371500)
 107 Cr ( 0.000000,  0.000000, -0.179974)

Energy contributions relative to reference atoms: (reference = -3699400.456887)

Kinetic:       +120.496435
Potential:     -175.719128
External:        +0.000000
XC:            -852.254673
Entropy (-ST):   -4.460640
Local:          +38.086349
Free energy:   -873.851656
Extrapolated:  -871.621336

Spin contamination: 29.016622 electrons
Showing only first 2 kpts
                      Up                     Down
 Kpt  Band  Eigenvalues  Occupancy  Eigenvalues  Occupancy
  0   508      9.65114    0.99308     10.50659    0.02690
  0   509      9.66791    0.99182     10.52133    0.02330
  0   510      9.67960    0.99082     10.53149    0.02109
  0   511      9.69559    0.98924     10.54377    0.01870

  1   508      9.66185    0.99230     10.50054    0.02853
  1   509      9.67558    0.99118     10.50997    0.02603
  1   510      9.68943    0.98988     10.51390    0.02505
  1   511      9.70741    0.98791     10.53241    0.02090

Fermi level: 10.14774

No gap

Forces in eV/Ang:
  0 Cr   -0.36406   -0.09290    0.06794
  1 Ni   -0.07940   -0.13502   -0.00816
  2 Fe   -0.34272    0.35546    0.13362
  3 Cr    0.17022    0.13148    0.20491
  4 Fe    0.40810    0.14249    0.10771
  5 Co    0.02441   -0.04114    0.09829
  6 Co    0.12544    0.03541   -0.22271
  7 Ni   -0.16111   -0.60122    0.02150
  8 Cr   -0.18289    0.53199    0.71803
  9 Co   -0.01972   -0.25917    0.08596
 10 Cr    0.06814    0.34273   -0.20099
 11 Co    0.37188   -0.68926    0.61047
 12 Fe    0.37099   -0.22129    0.71062
 13 Cr    0.03002    0.27816   -0.24434
 14 Ni    0.14635   -0.34745    0.18913
 15 Co   -0.16220    0.14006    0.12640
 16 Ni   -0.10646   -0.22423    0.15301
 17 Co    0.06388   -0.02525    0.19360
 18 Fe   -0.52214   -0.21106    0.43916
 19 Ni    0.21118    0.33015   -0.04482
 20 Al   -0.79260   -0.18198    0.40315
 21 Ni   -0.02339    0.43103   -0.35222
 22 Ni    0.20285   -0.46481    0.28845
 23 Fe    0.01635    1.30118    0.25475
 24 Cr    0.14544    0.16159    0.05951
 25 Cr   -0.01244   -0.32833   -0.51076
 26 Co   -0.10396    0.25451   -0.22964
 27 Co   -0.17776   -0.08201    0.22565
 28 Cr   -0.24487   -0.19818   -0.28023
 29 Cr   -0.11324    0.24472   -0.02644
 30 Ni    0.31618   -0.11288   -0.08376
 31 Ni    0.29705    0.19763   -0.18738
 32 Cr    0.31515   -0.34391    0.81836
 33 Co    0.09746   -0.18402   -0.39739
 34 Co   -0.38517    0.27914   -0.27586
 35 Co   -0.10384   -0.45941    0.14935
 36 Cr   -0.04184    0.35954   -0.25245
 37 Fe    0.07136   -0.09031    0.03784
 38 Fe   -0.03526   -0.06444   -0.35492
 39 Co   -0.05422    0.16101   -0.19269
 40 Ni    0.08364    0.27715    0.00906
 41 Fe   -0.29173    0.03254    0.10701
 42 Co    0.15296   -0.56669    0.18980
 43 Al   -0.30768   -0.04857   -0.55482
 44 Ni   -0.15765   -0.24020    0.10457
 45 Cr    0.30960   -0.26020    0.85126
 46 Co   -0.09156   -0.19205    0.04012
 47 Fe    0.24181    0.13732   -0.37154
 48 Cr   -0.15893   -0.39353   -0.47675
 49 Co   -0.03283   -0.12590    0.03803
 50 Cr   -0.54281   -0.45085    0.05802
 51 Fe   -0.21608   -0.00746   -0.42489
 52 Ni    0.20039   -0.39277   -0.35615
 53 Al   -0.11602   -0.17053    0.16160
 54 Co    0.22099   -0.03297   -0.35061
 55 Cr    0.29986    0.09325   -0.31333
 56 Ni   -0.30391   -0.03848    0.03640
 57 Cr    0.15971    0.29989    0.06613
 58 Ni    0.16741   -0.01820    0.07574
 59 Fe    0.04603   -0.07754   -0.15370
[...]
 93 Ni    0.04714    0.50620    0.24829
 94 Al    0.63945   -0.37252   -0.45840
 95 Fe   -0.38363    0.20830   -0.16384
 96 Fe    0.00886    0.12055   -0.16400
 97 Fe    0.12494   -0.03772    0.30225
 98 Co    0.01629   -0.08109    0.39482
 99 Cr   -0.20566    0.11126   -0.03328
100 Co    0.07718    0.33613    0.31337
101 Fe    0.43552    0.12054   -0.11428
102 Co   -0.00542   -0.22513    0.13761
103 Ni    0.17053    0.32077   -0.04159
104 Co    0.06789   -0.09231   -0.58474
105 Al   -1.18239   -0.26382    0.24521
106 Cr   -0.00377   -0.67170    0.16139
107 Cr    0.66797   -0.03921   -0.97286

Date: Sun Apr 16 03:03:48 2023