User:   c.zeng@d0067
Date:   Sat Apr 15 18:30:42 2023
Arch:   x86_64
Pid:    124614
CWD:    /home/c.zeng/projects/hea-corrosion/hea-mlp/data-curation/bulk-mcmc/dft-jobs/72
Python: 3.8.1
gpaw:   /home/c.zeng/usr/installs/gpaw/source/gpaw-22.8.0/gpaw
_gpaw:  /home/c.zeng/usr/installs/gpaw/source/gpaw-22.8.0/
        _gpaw.cpython-38-x86_64-linux-gnu.so
ase:    /home/c.zeng/.local/lib/python3.8/site-packages/ase-3.22.1-py3.8.egg/ase (version 3.22.1)
numpy:  /shared/centos7/python/3.8.1/lib/python3.8/site-packages/numpy (version 1.17.4)
scipy:  /shared/centos7/python/3.8.1/lib/python3.8/site-packages/scipy (version 1.4.1)
units:  Angstrom and eV
cores: 30
OpenMP: False
OMP_NUM_THREADS: 1

Input parameters:
  convergence: {energy: 0.0001}
  kpts: [2 2 2]
  maxiter: 666
  mode: {ecut: 350.0,
         name: pw}
  occupations: {fixmagmom: False,
                name: fermi-dirac,
                width: 0.1}
  spinpol: True
  xc: PBE

System changes: positions, numbers, cell, pbc, initial_charges, initial_magmoms

Initialize ...

species:
  Cr:
    name: Chromium
    id: 33f258bda2ca9f93018e70263a35547b
    Z: 24.0
    valence: 6
    core: 18
    charge: 0.0
    file: /home/c.zeng/usr/data/gpaw-setups-0.9.20000/Cr.PBE.gz
    compensation charges: {type: gauss,
                           rc: 0.35,
                           lmax: 2}
    cutoffs: {filter: 2.14,
              core: 3.04}
    valence states:
      #              energy  rcut
      - 4s(1.00)    -4.007   1.164
      - 4p(0.00)    -0.989   1.217
      - 3d(5.00)    -2.913   1.111
      -  s          23.205   1.164
      -  p          26.223   1.217
      -  d          24.299   1.111

    # Using partial waves for Cr as LCAO basis

  Fe:
    name: Iron
    id: 37abbd8d6c3c35915a9b583b742da910
    Z: 26.0
    valence: 8
    core: 18
    charge: 0.0
    file: /home/c.zeng/usr/data/gpaw-setups-0.9.20000/Fe.PBE.gz
    compensation charges: {type: gauss,
                           rc: 0.33,
                           lmax: 2}
    cutoffs: {filter: 2.06,
              core: 2.67}
    valence states:
      #              energy  rcut
      - 4s(2.00)    -5.291   1.164
      - 4p(0.00)    -1.326   1.058
      - 3d(6.00)    -7.505   1.058
      -  s          21.920   1.164
      -  p          25.885   1.058
      -  d          19.706   1.058

[...]

  Co:
    name: Cobalt
    id: 339d20d5b0b93d2de9531a1bee871d91
    Z: 27.0
    valence: 9
    core: 18
    charge: 0.0
    file: /home/c.zeng/usr/data/gpaw-setups-0.9.20000/Co.PBE.gz
    compensation charges: {type: gauss,
                           rc: 0.32,
                           lmax: 2}
    cutoffs: {filter: 1.87,
              core: 2.55}
    valence states:
      #              energy  rcut
      - 4s(2.00)    -5.469   1.005
      - 4p(0.00)    -1.277   1.058
      - 3d(7.00)    -8.205   1.005
      -  s          21.742   1.005
      -  p          25.934   1.058
      -  d          19.007   1.005

[...]

  Ni:
    name: Nickel
    id: 0d9f38a9d6e76a2886f07bb4381f212b
    Z: 28.0
    valence: 16
    core: 12
    charge: 0.0
    file: /home/c.zeng/usr/data/gpaw-setups-0.9.20000/Ni.PBE.gz
    compensation charges: {type: gauss,
                           rc: 0.36,
                           lmax: 2}
    cutoffs: {filter: 2.14,
              core: 1.98}
    valence states:
      #              energy  rcut
      - 4s(2.00)    -5.642   1.164
      - 3p(6.00)   -71.394   1.207
      - 4p(0.00)    -1.226   1.207
      - 3d(8.00)    -8.875   1.138
      -  s          21.570   1.164
      -  d          18.337   1.138

[...]

  Al:
    name: Aluminium
    id: 0292cae29f5d6237e50f6abdd43a7bdd
    Z: 13.0
    valence: 3
    core: 10
    charge: 0.0
    file: /home/c.zeng/usr/data/gpaw-setups-0.9.20000/Al.PBE.gz
    compensation charges: {type: gauss,
                           rc: 0.34,
                           lmax: 2}
    cutoffs: {filter: 1.91,
              core: 2.36}
    valence states:
      #              energy  rcut
      - 3s(2.00)    -7.753   1.085
      - 3p(1.00)    -2.712   1.085
      -  s          19.459   1.085
      -  p          24.499   1.085
      -  d           0.000   1.085

    # Using partial waves for Al as LCAO basis

Reference energy: -3699400.456887  # eV

Spin-polarized calculation.
Magnetic moment: 143.500000

Convergence criteria:
 Maximum [total energy] change in last 3 cyles: 0.0001 eV / electron
 Maximum integral of absolute [dens]ity change: 0.0001 electrons / valence electron
 Maximum integral of absolute [eigenst]ate change: 4e-08 eV^2 / valence electron
 Maximum number of scf [iter]ations: 666
 (Square brackets indicate name in SCF output, whereas a 'c' in
 the SCF output indicates the quantity has converged.)

Symmetries present (total): 1

  ( 1  0  0)
  ( 0  1  0)
  ( 0  0  1)

8 k-points: 2 x 2 x 2 Monkhorst-Pack grid
4 k-points in the irreducible part of the Brillouin zone
       k-points in crystal coordinates                weights
   0:     0.25000000   -0.25000000   -0.25000000          2/8
   1:     0.25000000   -0.25000000    0.25000000          2/8
   2:     0.25000000    0.25000000   -0.25000000          2/8
   3:     0.25000000    0.25000000    0.25000000          2/8

Wave functions: Plane wave expansion
  Cutoff energy: 350.000 eV
  Number of coefficients (min, max): 18052, 18052
  Pulay-stress correction: 0.000000 eV/Ang^3 (de/decut=0.000000)
  Using FFTW library
  ScaLapack parameters: grid=1x1, blocksize=None
  Wavefunction extrapolation:
    Improved wavefunction reuse through dual PAW basis

Occupation numbers: Fermi-Dirac:
  width: 0.1000  # eV

Eigensolver
   Davidson(niter=2)

Densities:
  Coarse grid: 48*48*48 grid
  Fine grid: 96*96*96 grid
  Total Charge: 0.000000

Density mixing:
  Method: difference
  Backend: pulay
  Linear mixing parameter: 0.05
  old densities: 5
  Damping of long wavelength oscillations: 50

Hamiltonian:
  XC and Coulomb potentials evaluated on a 96*96*96 grid
  Using the PBE Exchange-Correlation functional
  External potential:
    NoExternalPotential

XC parameters: PBE with 2 nearest neighbor stencil

Total number of cores used: 30
Parallelization over k-points: 2
Domain decomposition: 5 x 3 x 1

Number of atoms: 108
Number of atomic orbitals: 1025
Number of bands in calculation: 703
Number of valence electrons: 1020
Bands to converge: occupied

... initialized

Initializing position-dependent things.

Density initialized from atomic densities
Creating initial wave functions:
  703 bands from LCAO basis set

        Cr------------------------.
       /|  Co                Co   |
      Ni|   Ni         Cr         |
     / Fe      Fe       Al        |
    /   CCo      Ni       Fe      |
   /e   | CoCr     CoAl    CrCr   |
  /  FeCr  NiCo     CrCrCo        |
 *    FeFe  FeCoNi     CoAl       |
 |     CoFeCr  CoFe Ni  CrFeNi    |
 | Fe   CrNiCrCo NiNiCrFe  Ni     |
 |   CoCr  NiAlCr   CrNiNi   Fe   |
 |    FeNi  FeFeCoCr CoFeNi   Ni  |
 |     NiFeFe  Cr NiNi  CoFeFe    |
 |      .-CoCrCo-FeCrCrCo--CoNi---.
 |   CrCo    CoAl   NiCrFe       /
 |    / Ni    NiFe       Ni     /
 |   /            Ni           /
 |Cr/      Co       Co        /
 |/            Cr           /
 *----------------Cr-------*

Positions:
   0 Cr     0.005316   -0.016350   10.639749    ( 0.0000,  0.0000,  0.0000)
   1 Cr    10.672340    1.801276    1.786848    ( 0.0000,  0.0000,  0.0000)
   2 Fe     1.795727   10.625972    1.782259    ( 0.0000,  0.0000,  0.0000)
   3 Cr     1.780787    1.796175   10.644605    ( 0.0000,  0.0000,  2.1000)
   4 Fe     3.523539   -0.014558    0.017268    ( 0.0000,  0.0000,  2.0000)
   5 Co     3.522568    1.781672    1.746648    ( 0.0000,  0.0000,  0.0000)
   6 Co     5.320952   10.642342    1.763136    ( 0.0000,  0.0000,  1.5000)
   7 Cr     5.342082    1.828767    0.007462    ( 0.0000,  0.0000,  2.0000)
   8 Cr     7.144895    0.019195    0.012033    ( 0.0000,  0.0000,  0.0000)
   9 Co     7.143497    1.798064    1.764939    ( 0.0000,  0.0000,  2.1000)
  10 Ni     8.891362   10.651627    1.788353    ( 0.0000,  0.0000,  1.5000)
  11 Co     8.888779    1.804777   10.642609    ( 0.0000,  0.0000,  2.0000)
  12 Fe     0.008694    3.581540   10.650250    ( 0.0000,  0.0000,  2.1000)
  13 Cr     0.018979    5.332745    1.789751    ( 0.0000,  0.0000,  2.1000)
  14 Ni     1.778129    3.600941    1.760019    ( 0.0000,  0.0000,  2.0000)
  15 Co     1.790423    5.343267   -0.017766    ( 0.0000,  0.0000,  2.0000)
  16 Cr     3.542802    3.589864   -0.015614    ( 0.0000,  0.0000,  2.0000)
  17 Co     3.526837    5.358538    1.765793    ( 0.0000,  0.0000,  2.0000)
  18 Fe     5.336650    3.606501    1.755815    ( 0.0000,  0.0000,  0.0000)
  19 Ni     5.300399    5.323642   -0.012797    ( 0.0000,  0.0000,  2.1000)
  20 Al     7.122858    3.584816   10.659524    ( 0.0000,  0.0000,  2.0000)
  21 Cr     7.120500    5.315168    1.805502    ( 0.0000,  0.0000,  1.5000)
  22 Ni     8.892034    3.590952    1.773146    ( 0.0000,  0.0000,  2.1000)
  23 Fe     8.925340    5.301487   -0.003100    ( 0.0000,  0.0000,  0.0000)
  24 Ni     0.023055    7.096680   -0.007939    ( 0.0000,  0.0000,  0.0000)
  25 Ni     0.019141    8.871245    1.787510    ( 0.0000,  0.0000,  1.5000)
  26 Co     1.784372    7.104567    1.776443    ( 0.0000,  0.0000,  2.0000)
  27 Co     1.779944    8.867628   10.659406    ( 0.0000,  0.0000,  1.5000)
  28 Ni     3.547785    7.097897    0.009215    ( 0.0000,  0.0000,  2.1000)
  29 Cr     3.541137    8.858109    1.788225    ( 0.0000,  0.0000,  2.1000)
  30 Cr     5.295105    7.099391    1.787894    ( 0.0000,  0.0000,  2.1000)
  31 Ni     5.303685    8.873828    0.029898    ( 0.0000,  0.0000,  0.0000)
  32 Cr     7.106883    7.088719   10.645159    ( 0.0000,  0.0000,  0.0000)
  33 Co     7.111055    8.901137    1.809472    ( 0.0000,  0.0000,  0.0000)
  34 Co     8.939384    7.093404    1.799238    ( 0.0000,  0.0000,  0.0000)
  35 Co     8.919972    8.915853   10.664881    ( 0.0000,  0.0000,  0.0000)
  36 Cr    10.679704   10.658873    3.584517    ( 0.0000,  0.0000,  2.0000)
  37 Fe    10.670921    1.796367    5.340289    ( 0.0000,  0.0000,  2.1000)
  38 Fe     1.770350   10.649001    5.343491    ( 0.0000,  0.0000,  0.0000)
  39 Co     1.791800    1.784671    3.584891    ( 0.0000,  0.0000,  2.0000)
  40 Ni     3.529718   10.626388    3.565234    ( 0.0000,  0.0000,  2.1000)
  41 Fe     3.535716    1.793465    5.367289    ( 0.0000,  0.0000,  1.5000)
  42 Co     5.311497    0.001574    5.366254    ( 0.0000,  0.0000,  1.5000)
  43 Al     5.332627    1.768055    3.580793    ( 0.0000,  0.0000,  0.0000)
  44 Ni     7.136966   10.673941    3.563804    ( 0.0000,  0.0000,  2.0000)
  45 Ni     7.136774    1.794126    5.358944    ( 0.0000,  0.0000,  2.1000)
  46 Co     8.925938   10.673621    5.347589    ( 0.0000,  0.0000,  2.0000)
  47 Fe     8.883827    1.779111    3.582404    ( 0.0000,  0.0000,  1.5000)
  48 Ni    -0.010038    3.572341    3.580996    ( 0.0000,  0.0000,  2.0000)
  49 Co    10.685573    5.328935    5.338550    ( 0.0000,  0.0000,  2.0000)
  50 Ni     1.784180    3.582949    5.348357    ( 0.0000,  0.0000,  1.5000)
  51 Fe     1.766326    5.339510    3.565255    ( 0.0000,  0.0000,  1.5000)
  52 Cr     3.522387    3.605007    3.574059    ( 0.0000,  0.0000,  0.0000)
  53 Al     3.543581    5.347343    5.347962    ( 0.0000,  0.0000,  2.1000)
  54 Co     5.333950    3.591678    5.360630    ( 0.0000,  0.0000,  2.0000)
  55 Ni     5.336458    5.346308    3.560132    ( 0.0000,  0.0000,  0.0000)
  56 Cr     7.143102    3.570089    3.572138    ( 0.0000,  0.0000,  2.1000)
  57 Ni     7.120265    5.347471    5.345689    ( 0.0000,  0.0000,  2.0000)
  58 Ni     8.888299    3.570665    5.342018    ( 0.0000,  0.0000,  1.5000)
  59 Fe     8.904573    5.339084    3.577453    ( 0.0000,  0.0000,  2.0000)
[...]
  93 Cr     7.108740    5.307762    8.854395    ( 0.0000,  0.0000,  1.5000)
  94 Al     8.907593    3.561296    8.890348    ( 0.0000,  0.0000,  2.1000)
  95 Fe     8.917806    5.336309    7.100224    ( 0.0000,  0.0000,  0.0000)
  96 Fe     0.016270    7.102027    7.111664    ( 0.0000,  0.0000,  2.0000)
  97 Fe     0.000822    8.895150    8.883817    ( 0.0000,  0.0000,  1.5000)
  98 Co     1.771182    7.105090    8.888608    ( 0.0000,  0.0000,  1.5000)
  99 Ni     1.775184    8.850318    7.108494    ( 0.0000,  0.0000,  2.0000)
 100 Co     3.530401    7.086478    7.104972    ( 0.0000,  0.0000,  1.5000)
 101 Fe     3.524841    8.851001    8.894798    ( 0.0000,  0.0000,  0.0000)
 102 Co     5.310654    7.102827    8.871128    ( 0.0000,  0.0000,  0.0000)
 103 Cr     5.290613    8.850286    7.104876    ( 0.0000,  0.0000,  0.0000)
 104 Co     7.129016    7.083330    7.142750    ( 0.0000,  0.0000,  2.1000)
 105 Al     7.143241    8.903186    8.854384    ( 0.0000,  0.0000,  2.0000)
 106 Cr     8.926504    7.115858    8.862313    ( 0.0000,  0.0000,  0.0000)
 107 Cr     8.932896    8.877648    7.127479    ( 0.0000,  0.0000,  1.5000)

Unit cell:
           periodic     x           y           z      points  spacing
  1. axis:    yes   10.671700    0.000000    0.000000    48     0.2223
  2. axis:    yes    0.000000   10.671700    0.000000    48     0.2223
  3. axis:    yes    0.000000    0.000000   10.671700    48     0.2223

  Lengths:  10.671700  10.671700  10.671700
  Angles:   90.000000  90.000000  90.000000

Effective grid spacing dv^(1/3) = 0.2223

     iter     time        total  log10-change:  magmom
                         energy  eigst   dens
iter:   1 18:34:56  -981.439428                  +143.2076
iter:   2 18:36:31  -964.161315  -0.40  -1.29    +106.1806
iter:   3 18:38:08  -915.483012  -0.78  -1.24    +76.7307
iter:   4 18:39:44  -880.816911  -1.35  -1.31    +64.3909
iter:   5 18:41:21  -875.753609  -1.87  -1.44    +56.9103
iter:   6 18:42:57  -880.892761  -1.74  -1.47    +52.5437
iter:   7 18:44:34  -875.464492  -1.65  -1.48    +51.4842
iter:   8 18:46:10  -872.072887  -1.71  -1.56    +50.2035
iter:   9 18:47:46  -878.968131  -1.71  -1.66    +49.5124
iter:  10 18:49:22  -867.914975  -1.92  -1.65    +48.8526
iter:  11 18:50:58  -867.129599  -2.56  -1.86    +48.8553
iter:  12 18:52:34  -867.595653  -2.78  -1.93    +49.8229
iter:  13 18:54:10  -868.962443  -2.71  -1.97    +50.4425
iter:  14 18:55:46  -869.660331  -2.56  -1.97    +50.9732
iter:  15 18:57:21  -869.715047  -2.65  -1.99    +51.6317
iter:  16 18:58:57  -870.179417  -2.61  -2.05    +52.0926
iter:  17 19:00:33  -869.610490  -2.77  -2.06    +52.6890
iter:  18 19:02:09  -869.215387  -2.98  -2.14    +53.0855
iter:  19 19:03:45  -869.590991  -3.08  -2.21    +53.9898
iter:  20 19:05:20  -869.825640  -2.98  -2.22    +54.4733
iter:  21 19:06:56  -869.653258  -3.14  -2.22    +55.0553
iter:  22 19:08:31  -869.805358  -3.17  -2.27    +55.7702
iter:  23 19:10:07  -869.905536  -3.21  -2.31    +56.1468
iter:  24 19:11:43  -869.787674  -3.35  -2.31    +56.8375
iter:  25 19:13:19  -869.914721  -3.51  -2.41    +57.3356
iter:  26 19:14:55  -869.989081  -3.53  -2.42    +57.8402
iter:  27 19:16:31  -870.138299  -3.47  -2.45    +58.2837
iter:  28 19:18:07  -870.083156  -3.67  -2.44    +58.5066
iter:  29 19:19:43  -870.322528  -3.46  -2.51    +59.0697
iter:  30 19:21:19  -870.234968  -3.62  -2.45    +59.2020
iter:  31 19:22:54  -870.363018  -3.55  -2.54    +59.6404
iter:  32 19:24:30  -870.343493  -3.73  -2.53    +59.8519
iter:  33 19:26:06  -870.446609  -3.67  -2.58    +60.2641
iter:  34 19:27:42  -870.409567  -4.06  -2.55    +60.3983
iter:  35 19:29:17  -870.474596c -4.04  -2.65    +60.6409
iter:  36 19:30:53  -870.512022  -4.26  -2.64    +60.8265
iter:  37 19:32:28  -870.613795  -3.88  -2.68    +61.0979
iter:  38 19:34:04  -870.631606  -3.89  -2.64    +61.1471
iter:  39 19:35:41  -870.768618  -3.59  -2.73    +61.1557
iter:  40 19:37:17  -870.666393  -3.85  -2.65    +61.2246
iter:  41 19:38:52  -870.722072  -3.88  -2.83    +61.3239
iter:  42 19:40:29  -870.670767c -4.20  -2.77    +61.2771
iter:  43 19:42:05  -870.681525c -4.35  -2.92    +61.2889
iter:  44 19:43:41  -870.673892c -4.89  -2.93    +61.3077
iter:  45 19:45:17  -870.693054c -4.85  -3.02    +61.3434
iter:  46 19:46:53  -870.764338c -3.79  -3.02    +61.3658
iter:  47 19:48:28  -870.823337  -3.64  -2.93    +61.2588
iter:  48 19:50:04  -870.802541c -4.43  -2.85    +61.1645
iter:  49 19:51:39  -870.799201c -4.57  -2.96    +61.1540
iter:  50 19:53:15  -870.800004c -4.74  -3.00    +61.1286
iter:  51 19:54:51  -870.838464c -4.14  -3.02    +61.0811
iter:  52 19:56:26  -870.780475c -4.31  -2.85    +61.0521
iter:  53 19:58:02  -870.801337c -4.43  -3.18    +60.9791
iter:  54 19:59:38  -870.775805c -4.84  -3.03    +60.9800
iter:  55 20:01:14  -870.777741c -5.30  -3.33    +60.9631
iter:  56 20:02:49  -870.778827c -5.15  -3.33    +60.9337
iter:  57 20:04:25  -870.778528c -5.16  -3.35    +60.9505
iter:  58 20:06:01  -870.783219c -5.05  -3.45    +60.9674
iter:  59 20:07:36  -870.777215c -5.34  -3.32    +60.9659
iter:  60 20:09:12  -870.777476c -5.85  -3.63    +60.9737
iter:  61 20:10:48  -870.777749c -6.03  -3.67    +60.9785
iter:  62 20:12:23  -870.778002c -6.08  -3.67    +60.9887
iter:  63 20:13:59  -870.777899c -6.01  -3.69    +60.9886
iter:  64 20:15:34  -870.778327c -5.85  -3.76    +61.0062
iter:  65 20:17:10  -870.778273c -6.03  -3.78    +61.0122
iter:  66 20:18:46  -870.778275c -6.24  -3.92    +61.0203
iter:  67 20:20:22  -870.778608c -6.39  -3.98    +61.0264
iter:  68 20:21:57  -870.778722c -6.57  -4.02c   +61.0368
iter:  69 20:23:34  -870.779075c -6.66  -4.04c   +61.0460
iter:  70 20:25:10  -870.779361c -6.47  -4.06c   +61.0529
iter:  71 20:26:47  -870.779622c -6.70  -4.08c   +61.0631
iter:  72 20:28:23  -870.780206c -6.33  -4.10c   +61.0761
iter:  73 20:29:59  -870.780276c -6.75  -4.09c   +61.0788
iter:  74 20:31:35  -870.780468c -6.76  -4.25c   +61.0848
iter:  75 20:33:11  -870.780719c -6.86  -4.23c   +61.0885
iter:  76 20:34:47  -870.780859c -6.80  -4.34c   +61.0924
iter:  77 20:36:23  -870.780924c -7.23  -4.33c   +61.0951
iter:  78 20:38:00  -870.781164c -6.87  -4.41c   +61.1006
iter:  79 20:39:36  -870.781586c -6.43  -4.41c   +61.1117
iter:  80 20:41:12  -870.783062c -5.42  -4.40c   +61.1509
iter:  81 20:42:48  -870.784532c -5.20  -4.16c   +61.2008
iter:  82 20:44:24  -870.785285c -5.49  -3.99    +61.2324
iter:  83 20:46:01  -870.786001c -5.56  -3.92    +61.2639
iter:  84 20:47:37  -870.786212c -6.02  -3.85    +61.2734
iter:  85 20:49:13  -870.787001c -5.93  -3.83    +61.2912
iter:  86 20:50:50  -870.786102c -5.94  -3.75    +61.2621
iter:  87 20:52:25  -870.786694c -5.80  -3.80    +61.2948
iter:  88 20:54:01  -870.786069c -5.88  -3.73    +61.2755
iter:  89 20:55:37  -870.785557c -6.09  -3.74    +61.2888
iter:  90 20:57:13  -870.786213c -5.84  -3.85    +61.2731
iter:  91 20:58:49  -870.785756c -5.98  -3.73    +61.2688
iter:  92 21:00:25  -870.785295c -6.34  -3.81    +61.2473
iter:  93 21:02:01  -870.784959c -6.72  -3.98    +61.2260
iter:  94 21:03:37  -870.785083c -6.74  -4.01c   +61.2152
iter:  95 21:05:13  -870.785016c -6.74  -4.03c   +61.2046
iter:  96 21:06:50  -870.785084c -6.55  -4.04c   +61.1998
iter:  97 21:08:27  -870.785003c -6.55  -4.02c   +61.1892
iter:  98 21:10:03  -870.784875c -6.51  -4.08c   +61.1868
iter:  99 21:11:39  -870.784929c -6.79  -4.08c   +61.1813
iter: 100 21:13:16  -870.784690c -6.76  -4.20c   +61.1715
iter: 101 21:14:52  -870.784690c -7.01  -4.16c   +61.1670
iter: 102 21:16:29  -870.784658c -7.19  -4.26c   +61.1628
iter: 103 21:18:05  -870.784625c -7.45c -4.31c   +61.1581

Converged after 103 iterations.

Dipole moment: (-10.377476, 7.641537, 9.062486) |e|*Ang

Total magnetic moment: (0.000000, 0.000000, 61.158131)
Local magnetic moments:
   0 Cr ( 0.000000,  0.000000, -1.091605)
   1 Cr ( 0.000000,  0.000000, -1.343600)
   2 Fe ( 0.000000,  0.000000,  2.044745)
   3 Cr ( 0.000000,  0.000000, -0.062527)
   4 Fe ( 0.000000,  0.000000,  2.010326)
   5 Co ( 0.000000,  0.000000,  0.677344)
   6 Co ( 0.000000,  0.000000,  0.783273)
   7 Cr ( 0.000000,  0.000000, -0.239489)
   8 Cr ( 0.000000,  0.000000, -1.571326)
   9 Co ( 0.000000,  0.000000,  0.967337)
  10 Ni ( 0.000000,  0.000000,  0.094708)
  11 Co ( 0.000000,  0.000000,  0.878386)
  12 Fe ( 0.000000,  0.000000,  2.086483)
  13 Cr ( 0.000000,  0.000000, -1.880501)
  14 Ni ( 0.000000,  0.000000,  0.235536)
  15 Co ( 0.000000,  0.000000,  1.312149)
  16 Cr ( 0.000000,  0.000000, -0.861387)
  17 Co ( 0.000000,  0.000000,  1.003968)
  18 Fe ( 0.000000,  0.000000,  1.760184)
  19 Ni ( 0.000000,  0.000000,  0.162948)
  20 Al ( 0.000000,  0.000000, -0.022594)
  21 Cr ( 0.000000,  0.000000, -1.250089)
  22 Ni ( 0.000000,  0.000000,  0.148036)
  23 Fe ( 0.000000,  0.000000,  1.879159)
  24 Ni ( 0.000000,  0.000000,  0.461064)
  25 Ni ( 0.000000,  0.000000,  0.416310)
  26 Co ( 0.000000,  0.000000,  1.241371)
  27 Co ( 0.000000,  0.000000,  1.316359)
  28 Ni ( 0.000000,  0.000000,  0.420389)
  29 Cr ( 0.000000,  0.000000, -1.233208)
  30 Cr ( 0.000000,  0.000000, -0.351001)
  31 Ni ( 0.000000,  0.000000,  0.225593)
  32 Cr ( 0.000000,  0.000000,  0.657345)
  33 Co ( 0.000000,  0.000000,  0.827092)
  34 Co ( 0.000000,  0.000000,  1.011060)
  35 Co ( 0.000000,  0.000000,  0.954016)
  36 Cr ( 0.000000,  0.000000, -1.768233)
  37 Fe ( 0.000000,  0.000000,  2.333138)
  38 Fe ( 0.000000,  0.000000,  2.166814)
  39 Co ( 0.000000,  0.000000,  1.164439)
  40 Ni ( 0.000000,  0.000000,  0.273565)
  41 Fe ( 0.000000,  0.000000,  1.744954)
  42 Co ( 0.000000,  0.000000, -0.014591)
  43 Al ( 0.000000,  0.000000, -0.016126)
  44 Ni ( 0.000000,  0.000000,  0.274100)
  45 Ni ( 0.000000,  0.000000,  0.077369)
  46 Co ( 0.000000,  0.000000,  0.918468)
  47 Fe ( 0.000000,  0.000000,  2.285603)
  48 Ni ( 0.000000,  0.000000,  0.393497)
  49 Co ( 0.000000,  0.000000,  1.412101)
  50 Ni ( 0.000000,  0.000000,  0.216552)
  51 Fe ( 0.000000,  0.000000,  2.164205)
  52 Cr ( 0.000000,  0.000000, -1.891763)
  53 Al ( 0.000000,  0.000000, -0.031785)
  54 Co ( 0.000000,  0.000000,  0.144158)
  55 Ni ( 0.000000,  0.000000,  0.100311)
  56 Cr ( 0.000000,  0.000000, -1.801101)
  57 Ni ( 0.000000,  0.000000,  0.293219)
  58 Ni ( 0.000000,  0.000000,  0.305170)
  59 Fe ( 0.000000,  0.000000,  2.225377)
[...]
  93 Cr ( 0.000000,  0.000000,  0.651091)
  94 Al ( 0.000000,  0.000000, -0.034226)
  95 Fe ( 0.000000,  0.000000,  2.115121)
  96 Fe ( 0.000000,  0.000000,  2.224188)
  97 Fe ( 0.000000,  0.000000,  2.114244)
  98 Co ( 0.000000,  0.000000,  1.412836)
  99 Ni ( 0.000000,  0.000000,  0.590183)
 100 Co ( 0.000000,  0.000000,  1.399983)
 101 Fe ( 0.000000,  0.000000,  2.419479)
 102 Co ( 0.000000,  0.000000,  0.824690)
 103 Cr ( 0.000000,  0.000000, -1.399781)
 104 Co ( 0.000000,  0.000000,  0.636808)
 105 Al ( 0.000000,  0.000000, -0.001702)
 106 Cr ( 0.000000,  0.000000, -1.297887)
 107 Cr ( 0.000000,  0.000000,  0.019131)

Energy contributions relative to reference atoms: (reference = -3699400.456887)

Kinetic:       +143.743813
Potential:     -194.094074
External:        +0.000000
XC:            -856.174155
Entropy (-ST):   -4.450671
Local:          +37.965128
Free energy:   -873.009960
Extrapolated:  -870.784625

Spin contamination: 29.104420 electrons
Showing only first 2 kpts
                      Up                     Down
 Kpt  Band  Eigenvalues  Occupancy  Eigenvalues  Occupancy
  0   508      9.64921    0.99360     10.52966    0.02277
  0   509      9.66534    0.99249     10.53905    0.02077
  0   510      9.67183    0.99199     10.54643    0.01932
  0   511      9.68112    0.99122     10.56407    0.01625

  1   508      9.64481    0.99387     10.52444    0.02396
  1   509      9.66421    0.99257     10.53431    0.02176
  1   510      9.66937    0.99218     10.53858    0.02087
  1   511      9.68481    0.99089     10.56076    0.01678

Fermi level: 10.15372

No gap

Forces in eV/Ang:
  0 Cr   -0.17489    0.06784    0.29188
  1 Cr   -0.01373    0.49357   -0.27669
  2 Fe   -0.16831    0.39011    0.26291
  3 Cr    0.19912   -0.13084    0.00551
  4 Fe    0.44690    0.37780   -0.13047
  5 Co   -0.06004   -0.00939    0.07765
  6 Co    0.01012   -0.00442   -0.21597
  7 Cr   -1.15975   -1.11381    0.12827
  8 Cr   -0.23620    0.21846    0.53611
  9 Co   -0.04885   -0.17802   -0.09258
 10 Ni    0.29472    0.33937   -0.17177
 11 Co    0.44039   -0.76746    0.87610
 12 Fe    0.35705   -0.26781    0.67666
 13 Cr   -0.19803    0.06858   -0.17527
 14 Ni   -0.01791   -0.57314    0.16051
 15 Co    0.01398    0.17580    0.04167
 16 Cr   -0.26969   -0.26841    0.10533
 17 Co    0.36114   -0.07752    0.16488
 18 Fe   -0.25736   -0.16959    0.48139
 19 Ni    0.14406    0.21001    0.00896
 20 Al   -0.27234   -0.45092    0.51722
 21 Cr   -0.07714    1.41212   -0.10334
 22 Ni    0.26482   -0.34998    0.18552
 23 Fe   -0.07672    0.81992    0.37782
 24 Ni   -0.20688    0.01580    0.07810
 25 Ni   -0.09727    0.20888   -0.29913
 26 Co    0.02746    0.00738   -0.10386
 27 Co   -0.01057    0.01691    0.16201
 28 Ni   -0.03722    0.07029   -0.12428
 29 Cr    0.26074    0.19255   -0.14042
 30 Cr    0.13137   -0.10919   -0.16927
 31 Ni    0.29525    0.15148   -0.13604
 32 Cr    0.19338   -0.23843    0.84749
 33 Co   -0.15007   -0.21139   -0.47493
 34 Co   -0.36763    0.16899   -0.39199
 35 Co   -0.21043   -0.34592    0.39925
 36 Cr    0.11751   -0.23439    0.09833
 37 Fe    0.06862   -0.12578   -0.03908
 38 Fe    0.03043   -0.18227   -0.40266
 39 Co   -0.07053    0.04691   -0.25266
 40 Ni    0.16270    0.30443    0.05124
 41 Fe   -0.33163   -0.00426    0.12927
 42 Co    0.10288   -0.42324    0.35095
 43 Al    0.02086   -0.85520   -0.20441
 44 Ni   -0.16730   -0.18806    0.03967
 45 Ni   -0.10779   -0.24129   -0.00368
 46 Co   -0.27093   -0.10408    0.09110
 47 Fe    0.09154   -0.13036   -0.34389
 48 Ni    0.11890   -0.24380   -0.24816
 49 Co   -0.04327   -0.02619    0.16548
 50 Ni   -0.20173   -0.21018   -0.07255
 51 Fe   -0.03391   -0.04758   -0.29617
 52 Cr   -0.01750   -0.60733   -1.05319
 53 Al    0.25783    0.58787   -0.10506
 54 Co    0.25477   -0.20071   -0.07820
 55 Ni   -0.08671   -0.20383   -0.25816
 56 Cr    0.17761    0.44430    0.07252
 57 Ni   -0.11447   -0.03781    0.13022
 58 Ni    0.08859   -0.05469    0.07559
 59 Fe   -0.10881   -0.29087   -0.13080
[...]
 93 Cr   -0.88407    1.38701   -0.23302
 94 Al    0.83622   -0.75724   -0.32070
 95 Fe   -0.16334    0.13768   -0.53327
 96 Fe    0.11619    0.16426   -0.37358
 97 Fe    0.10407   -0.10895    0.10587
 98 Co    0.03403   -0.11736    0.22239
 99 Ni   -0.05988    0.16100   -0.08367
100 Co   -0.03202    0.51538    0.31202
101 Fe    0.31196    0.28544   -0.13689
102 Co    0.14266   -0.28056    0.24276
103 Cr   -0.53816    0.20467   -0.60919
104 Co   -0.16784    0.08417   -0.23088
105 Al   -0.86825   -0.29532    0.64178
106 Cr    0.47808   -0.50503    0.54579
107 Cr    0.16477    0.08686   -1.06424

Date: Sat Apr 15 21:18:25 2023