User:   c.zeng@d0135
Date:   Sat Apr  8 04:43:58 2023
Arch:   x86_64
Pid:    71710
CWD:    /home/c.zeng/projects/hea-corrosion/hea-mlp/data-curation/volume/dft-jobs/139
Python: 3.8.1
gpaw:   /home/c.zeng/usr/installs/gpaw/source/gpaw-22.8.0/gpaw
_gpaw:  /home/c.zeng/usr/installs/gpaw/source/gpaw-22.8.0/
        _gpaw.cpython-38-x86_64-linux-gnu.so
ase:    /home/c.zeng/.local/lib/python3.8/site-packages/ase-3.22.1-py3.8.egg/ase (version 3.22.1)
numpy:  /shared/centos7/python/3.8.1/lib/python3.8/site-packages/numpy (version 1.17.4)
scipy:  /shared/centos7/python/3.8.1/lib/python3.8/site-packages/scipy (version 1.4.1)
units:  Angstrom and eV
cores: 64
OpenMP: False
OMP_NUM_THREADS: 1

Input parameters:
  convergence: {energy: 0.0001}
  kpts: [2 2 2]
  maxiter: 666
  mode: {ecut: 350.0,
         name: pw}
  occupations: {fixmagmom: False,
                name: fermi-dirac,
                width: 0.1}
  spinpol: True
  xc: PBE

System changes: positions, numbers, cell, pbc, initial_charges, initial_magmoms

Initialize ...

species:
  Al:
    name: Aluminium
    id: 0292cae29f5d6237e50f6abdd43a7bdd
    Z: 13.0
    valence: 3
    core: 10
    charge: 0.0
    file: /home/c.zeng/usr/data/gpaw-setups-0.9.20000/Al.PBE.gz
    compensation charges: {type: gauss,
                           rc: 0.34,
                           lmax: 2}
    cutoffs: {filter: 1.91,
              core: 2.36}
    valence states:
      #              energy  rcut
      - 3s(2.00)    -7.753   1.085
      - 3p(1.00)    -2.712   1.085
      -  s          19.459   1.085
      -  p          24.499   1.085
      -  d           0.000   1.085

    # Using partial waves for Al as LCAO basis

  Fe:
    name: Iron
    id: 37abbd8d6c3c35915a9b583b742da910
    Z: 26.0
    valence: 8
    core: 18
    charge: 0.0
    file: /home/c.zeng/usr/data/gpaw-setups-0.9.20000/Fe.PBE.gz
    compensation charges: {type: gauss,
                           rc: 0.33,
                           lmax: 2}
    cutoffs: {filter: 2.06,
              core: 2.67}
    valence states:
      #              energy  rcut
      - 4s(2.00)    -5.291   1.164
      - 4p(0.00)    -1.326   1.058
      - 3d(6.00)    -7.505   1.058
      -  s          21.920   1.164
      -  p          25.885   1.058
      -  d          19.706   1.058

[...]

  Cr:
    name: Chromium
    id: 33f258bda2ca9f93018e70263a35547b
    Z: 24.0
    valence: 6
    core: 18
    charge: 0.0
    file: /home/c.zeng/usr/data/gpaw-setups-0.9.20000/Cr.PBE.gz
    compensation charges: {type: gauss,
                           rc: 0.35,
                           lmax: 2}
    cutoffs: {filter: 2.14,
              core: 3.04}
    valence states:
      #              energy  rcut
      - 4s(1.00)    -4.007   1.164
      - 4p(0.00)    -0.989   1.217
      - 3d(5.00)    -2.913   1.111
      -  s          23.205   1.164
      -  p          26.223   1.217
      -  d          24.299   1.111

[...]

  Ni:
    name: Nickel
    id: 0d9f38a9d6e76a2886f07bb4381f212b
    Z: 28.0
    valence: 16
    core: 12
    charge: 0.0
    file: /home/c.zeng/usr/data/gpaw-setups-0.9.20000/Ni.PBE.gz
    compensation charges: {type: gauss,
                           rc: 0.36,
                           lmax: 2}
    cutoffs: {filter: 2.14,
              core: 1.98}
    valence states:
      #              energy  rcut
      - 4s(2.00)    -5.642   1.164
      - 3p(6.00)   -71.394   1.207
      - 4p(0.00)    -1.226   1.207
      - 3d(8.00)    -8.875   1.138
      -  s          21.570   1.164
      -  d          18.337   1.138

[...]

  Co:
    name: Cobalt
    id: 339d20d5b0b93d2de9531a1bee871d91
    Z: 27.0
    valence: 9
    core: 18
    charge: 0.0
    file: /home/c.zeng/usr/data/gpaw-setups-0.9.20000/Co.PBE.gz
    compensation charges: {type: gauss,
                           rc: 0.32,
                           lmax: 2}
    cutoffs: {filter: 1.87,
              core: 2.55}
    valence states:
      #              energy  rcut
      - 4s(2.00)    -5.469   1.005
      - 4p(0.00)    -1.277   1.058
      - 3d(7.00)    -8.205   1.005
      -  s          21.742   1.005
      -  p          25.934   1.058
      -  d          19.007   1.005

    # Using partial waves for Co as LCAO basis

Reference energy: -3235165.067515  # eV

Spin-polarized calculation.
Magnetic moment: 121.100000

Convergence criteria:
 Maximum [total energy] change in last 3 cyles: 0.0001 eV / electron
 Maximum integral of absolute [dens]ity change: 0.0001 electrons / valence electron
 Maximum integral of absolute [eigenst]ate change: 4e-08 eV^2 / valence electron
 Maximum number of scf [iter]ations: 666
 (Square brackets indicate name in SCF output, whereas a 'c' in
 the SCF output indicates the quantity has converged.)

Symmetries present (total): 1

  ( 1  0  0)
  ( 0  1  0)
  ( 0  0  1)

8 k-points: 2 x 2 x 2 Monkhorst-Pack grid
4 k-points in the irreducible part of the Brillouin zone
       k-points in crystal coordinates                weights
   0:     0.25000000   -0.25000000   -0.25000000          2/8
   1:     0.25000000   -0.25000000    0.25000000          2/8
   2:     0.25000000    0.25000000   -0.25000000          2/8
   3:     0.25000000    0.25000000    0.25000000          2/8

Wave functions: Plane wave expansion
  Cutoff energy: 350.000 eV
  Number of coefficients (min, max): 19084, 19084
  Pulay-stress correction: 0.000000 eV/Ang^3 (de/decut=0.000000)
  Using FFTW library
  ScaLapack parameters: grid=1x1, blocksize=None
  Wavefunction extrapolation:
    Improved wavefunction reuse through dual PAW basis

Occupation numbers: Fermi-Dirac:
  width: 0.1000  # eV

Eigensolver
   Davidson(niter=2)

Densities:
  Coarse grid: 48*48*48 grid
  Fine grid: 96*96*96 grid
  Total Charge: 0.000000

Density mixing:
  Method: difference
  Backend: pulay
  Linear mixing parameter: 0.05
  old densities: 5
  Damping of long wavelength oscillations: 50

Hamiltonian:
  XC and Coulomb potentials evaluated on a 96*96*96 grid
  Using the PBE Exchange-Correlation functional
  External potential:
    NoExternalPotential

XC parameters: PBE with 2 nearest neighbor stencil

Total number of cores used: 64
Parallelization over k-points: 4
Domain decomposition: 4 x 2 x 2

Number of atoms: 108
Number of atomic orbitals: 933
Number of bands in calculation: 624
Number of valence electrons: 912
Bands to converge: occupied

... initialized

Initializing position-dependent things.

Density initialized from atomic densities
Creating initial wave functions:
  624 bands from LCAO basis set

        .--------Ni----------------.
       /|           Ni             |
      / |    CrFe     Co           |
     / Al       Co       Ni        |
    /   |Co      CoAl       Al     |
   /    | FeFe      FCr            |
  /    Cr  CorAlNi    Co Fe  CrCr  |
 *      Cr     FeCoFe   CoNi     Al|
 |      |AlAl   NiNiFe   NiFeAl   Cr
 |      | FeCr   AlCoCrNi AlFeCr   |
 |     Co  Fe NiCr  CrCr Fe  CrFe  |
 |      Al  Cr AlNiNi AlNiNiCo   Co|
 |      |CoAl   NiCoCo   CrCrCo   Al
 |      .-NiCo-----NiAl-Cr--FeFe---.
 |     Ni  Cr AlAl    Co Ni  Ni Co/
 |    / Cr              Co       Ni
 |   /           Fee      AlFe  /
 |  /      Al       Co     FeFe/
 | /                   Ni     /e
 *--------------------------Al

Positions:
   0 Al    10.797848    0.093667    0.085780    ( 0.0000,  0.0000,  0.0000)
   1 Fe    10.831813    1.844753    1.870716    ( 0.0000,  0.0000,  2.0000)
   2 Cr     1.786803   10.847372    1.827324    ( 0.0000,  0.0000,  0.0000)
   3 Cr     1.769614    1.870542   -0.031260    ( 0.0000,  0.0000,  0.0000)
   4 Ni     3.620868   10.822050   10.833629    ( 0.0000,  0.0000,  1.5000)
   5 Al     3.571257    1.883165    1.708402    ( 0.0000,  0.0000,  0.0000)
   6 Al     5.521113   10.788052    1.666217    ( 0.0000,  0.0000,  0.0000)
   7 Ni     5.520842    1.813973   10.830900    ( 0.0000,  0.0000,  1.5000)
   8 Fe     7.330857    0.011026   10.815657    ( 0.0000,  0.0000,  2.0000)
   9 Co     7.282018    1.809483    1.793250    ( 0.0000,  0.0000,  2.1000)
  10 Ni     9.029996    0.022010    1.811929    ( 0.0000,  0.0000,  1.5000)
  11 Fe     9.007185    1.868650   10.825714    ( 0.0000,  0.0000,  2.0000)
  12 Fe    10.861299    3.649734    0.014170    ( 0.0000,  0.0000,  2.0000)
  13 Co    10.867442    5.463457    1.819235    ( 0.0000,  0.0000,  2.1000)
  14 Cr     1.756088    3.650256    1.845938    ( 0.0000,  0.0000,  0.0000)
  15 Co     1.790369    5.439081   10.869084    ( 0.0000,  0.0000,  2.1000)
  16 Fe     3.687864    3.622792   -0.049287    ( 0.0000,  0.0000,  2.0000)
  17 Al     3.667358    5.391145    1.745357    ( 0.0000,  0.0000,  0.0000)
  18 Fe     5.497988    3.634415    1.792370    ( 0.0000,  0.0000,  2.0000)
  19 Fe     5.524919    5.448029    0.002551    ( 0.0000,  0.0000,  2.0000)
  20 Cr     7.223340    3.611877   10.834260    ( 0.0000,  0.0000,  0.0000)
  21 Co     7.217762    5.474830    1.807787    ( 0.0000,  0.0000,  2.1000)
  22 Al     9.073431    3.654355    1.775158    ( 0.0000,  0.0000,  0.0000)
  23 Fe     9.008718    5.418608    0.007691    ( 0.0000,  0.0000,  2.0000)
  24 Ni    10.859201    7.178709    0.014479    ( 0.0000,  0.0000,  1.5000)
  25 Al    -0.018107    8.970948    1.875380    ( 0.0000,  0.0000,  0.0000)
  26 Ni     1.817626    7.224014    1.802535    ( 0.0000,  0.0000,  1.5000)
  27 Cr     1.880729    8.993464   10.874031    ( 0.0000,  0.0000,  0.0000)
  28 Fe     3.684439    7.260447   -0.001353    ( 0.0000,  0.0000,  2.0000)
  29 Ni     3.612605    9.025636    1.761807    ( 0.0000,  0.0000,  1.5000)
  30 Ni     5.481451    7.275114    1.811222    ( 0.0000,  0.0000,  1.5000)
  31 Ni     5.461272    9.048153   10.833988    ( 0.0000,  0.0000,  1.5000)
  32 Co     7.245715    7.257892    0.056900    ( 0.0000,  0.0000,  2.1000)
  33 Cr     7.301980    9.004609    1.790325    ( 0.0000,  0.0000,  0.0000)
  34 Fe     9.029354    7.181764    1.815560    ( 0.0000,  0.0000,  2.0000)
  35 Ni     9.030561    9.042010    0.020234    ( 0.0000,  0.0000,  1.5000)
  36 Fe    -0.031043    0.001945    3.645701    ( 0.0000,  0.0000,  2.0000)
  37 Co    10.825920    1.804351    5.434602    ( 0.0000,  0.0000,  2.1000)
  38 Cr     1.743542   10.849285    5.484376    ( 0.0000,  0.0000,  0.0000)
  39 Ni     1.769744    1.791902    3.636057    ( 0.0000,  0.0000,  1.5000)
  40 Al     3.516645   10.719828    3.663227    ( 0.0000,  0.0000,  0.0000)
  41 Al     3.644222    1.785194    5.586728    ( 0.0000,  0.0000,  0.0000)
  42 Cr     5.484767   10.815439    5.504011    ( 0.0000,  0.0000,  0.0000)
  43 Al     5.457923    1.842219    3.658769    ( 0.0000,  0.0000,  0.0000)
  44 Al     7.360615   10.815429    3.672240    ( 0.0000,  0.0000,  0.0000)
  45 Co     7.266884    1.811603    5.485528    ( 0.0000,  0.0000,  2.1000)
  46 Cr     9.077997    0.023593    5.491921    ( 0.0000,  0.0000,  0.0000)
  47 Ni     9.066777    1.824226    3.671175    ( 0.0000,  0.0000,  1.5000)
  48 Fe    -0.047131    3.649625    3.617291    ( 0.0000,  0.0000,  2.0000)
  49 Fe    10.809264    5.435993    5.379805    ( 0.0000,  0.0000,  2.0000)
  50 Al     1.752316    3.625000    5.344676    ( 0.0000,  0.0000,  0.0000)
  51 Co     1.805775    5.472046    3.619378    ( 0.0000,  0.0000,  2.1000)
  52 Co     3.649397    3.633491    3.631240    ( 0.0000,  0.0000,  2.1000)
  53 Ni     3.657617    5.433786    5.434004    ( 0.0000,  0.0000,  1.5000)
  54 Ni     5.413346    3.672631    5.480309    ( 0.0000,  0.0000,  1.5000)
  55 Co     5.413835    5.465588    3.639677    ( 0.0000,  0.0000,  2.1000)
  56 Al     7.223427    3.731734    3.720840    ( 0.0000,  0.0000,  0.0000)
  57 Cr     7.220557    5.483180    5.485561    ( 0.0000,  0.0000,  0.0000)
  58 Ni     9.069039    3.623673    5.469720    ( 0.0000,  0.0000,  1.5000)
  59 Cr     9.064766    5.503837    3.636731    ( 0.0000,  0.0000,  0.0000)
[...]
  93 Co     7.214631    5.385883    9.048555    ( 0.0000,  0.0000,  2.1000)
  94 Ni     8.994280    3.655975    9.039226    ( 0.0000,  0.0000,  1.5000)
  95 Fe     9.006577    5.423262    7.223296    ( 0.0000,  0.0000,  2.0000)
  96 Al    -0.070633    7.291945    7.110430    ( 0.0000,  0.0000,  0.0000)
  97 Al     0.073020    9.104570    9.068375    ( 0.0000,  0.0000,  0.0000)
  98 Fe     1.863268    7.257392    9.054807    ( 0.0000,  0.0000,  2.0000)
  99 Co     1.858343    9.053708    7.225819    ( 0.0000,  0.0000,  2.1000)
 100 Fe     3.683917    7.292467    7.235550    ( 0.0000,  0.0000,  2.0000)
 101 Co     3.628229    9.069550    9.051273    ( 0.0000,  0.0000,  2.1000)
 102 Al     5.530627    7.331901    9.040129    ( 0.0000,  0.0000,  0.0000)
 103 Fe     5.476232    9.097209    7.250456    ( 0.0000,  0.0000,  2.0000)
 104 Co     7.256827    7.264242    7.208445    ( 0.0000,  0.0000,  2.1000)
 105 Ni     7.272559    9.136447    9.056861    ( 0.0000,  0.0000,  1.5000)
 106 Al     8.936482    7.190875    9.109767    ( 0.0000,  0.0000,  0.0000)
 107 Cr     8.994693    9.112169    7.218480    ( 0.0000,  0.0000,  0.0000)

Unit cell:
           periodic     x           y           z      points  spacing
  1. axis:    yes   10.872400    0.000000    0.000000    48     0.2265
  2. axis:    yes    0.000000   10.872400    0.000000    48     0.2265
  3. axis:    yes    0.000000    0.000000   10.872400    48     0.2265

  Lengths:  10.872400  10.872400  10.872400
  Angles:   90.000000  90.000000  90.000000

Effective grid spacing dv^(1/3) = 0.2265

     iter     time        total  log10-change:  magmom
                         energy  eigst   dens
iter:   1 04:45:54  -974.536933                  +121.3860
iter:   2 04:46:42  -859.630544  -0.18  -1.16    +64.8612
iter:   3 04:47:28  -844.854148  -0.85  -1.20    +55.9877
iter:   4 04:48:14  -831.561597  -1.24  -1.26    +51.9978
iter:   5 04:49:01  -819.838921  -1.54  -1.29    +49.8280
iter:   6 04:49:47  -813.402155  -1.35  -1.35    +50.1048
iter:   7 04:50:34  -816.006171  -1.35  -1.48    +49.5107
iter:   8 04:51:21  -810.726823  -1.66  -1.52    +50.0360
iter:   9 04:52:08  -806.639684  -2.07  -1.64    +51.0669
iter:  10 04:52:54  -806.648714  -2.52  -1.77    +51.9933
iter:  11 04:53:41  -807.110940  -2.50  -1.80    +53.0123
iter:  12 04:54:28  -808.028388  -2.40  -1.85    +54.2345
iter:  13 04:55:14  -807.869394  -2.52  -1.87    +54.6393
iter:  14 04:56:01  -807.631052  -2.68  -1.93    +55.3423
iter:  15 04:56:48  -807.607095  -2.92  -1.99    +55.7687
iter:  16 04:57:34  -807.863171  -2.94  -2.04    +56.0246
iter:  17 04:58:20  -807.833538  -2.87  -2.08    +56.4317
iter:  18 04:59:06  -807.639583  -3.10  -2.14    +56.3519
iter:  19 04:59:53  -807.746150  -3.16  -2.25    +56.3990
iter:  20 05:00:39  -807.730791  -3.30  -2.28    +56.4183
iter:  21 05:01:25  -807.722888c -3.38  -2.33    +56.2468
iter:  22 05:02:10  -807.780602c -3.35  -2.40    +56.0927
iter:  23 05:02:56  -807.782770c -3.64  -2.43    +56.0197
iter:  24 05:03:42  -807.821402c -3.70  -2.48    +55.7085
iter:  25 05:04:27  -807.885645  -3.70  -2.51    +55.4707
iter:  26 05:05:13  -807.912460c -3.88  -2.53    +55.3061
iter:  27 05:06:00  -807.932595c -3.87  -2.56    +54.9767
iter:  28 05:06:46  -807.990931c -3.96  -2.62    +54.7008
iter:  29 05:07:32  -808.017410c -4.00  -2.64    +54.4999
iter:  30 05:08:19  -808.046277c -4.19  -2.67    +54.1549
iter:  31 05:09:05  -808.092044c -4.11  -2.71    +53.8366
iter:  32 05:09:51  -808.134317c -4.21  -2.74    +53.4687
iter:  33 05:10:37  -808.186141  -4.08  -2.77    +52.9935
iter:  34 05:11:23  -808.255784  -3.83  -2.80    +52.3412
iter:  35 05:12:10  -808.290444  -4.00  -2.81    +52.0039
iter:  36 05:12:55  -808.337863c -3.92  -2.81    +51.5603
iter:  37 05:13:42  -808.377889c -3.94  -2.75    +51.1969
iter:  38 05:14:28  -808.364650c -4.12  -2.75    +51.1696
iter:  39 05:15:13  -808.359702c -4.39  -2.87    +51.1617
iter:  40 05:15:59  -808.362610c -4.85  -2.91    +51.1269
iter:  41 05:16:46  -808.371284c -4.54  -2.93    +51.1124
iter:  42 05:17:32  -808.361943c -4.50  -2.92    +51.1240
iter:  43 05:18:18  -808.363598c -5.09  -2.99    +51.1274
iter:  44 05:19:04  -808.364348c -4.86  -3.01    +51.0904
iter:  45 05:19:51  -808.366004c -4.77  -3.06    +51.0987
iter:  46 05:20:37  -808.362080c -4.88  -3.13    +51.1145
iter:  47 05:21:23  -808.363385c -5.07  -3.21    +51.1013
iter:  48 05:22:09  -808.362150c -5.23  -3.26    +51.1130
iter:  49 05:22:56  -808.365877c -5.05  -3.34    +51.1430
iter:  50 05:23:42  -808.363467c -5.28  -3.34    +51.1312
iter:  51 05:24:29  -808.363307c -5.46  -3.44    +51.1290
iter:  52 05:25:15  -808.363969c -5.76  -3.52    +51.1433
iter:  53 05:26:01  -808.364109c -5.80  -3.57    +51.1482
iter:  54 05:26:48  -808.365637c -5.92  -3.59    +51.1475
iter:  55 05:27:34  -808.365406c -5.77  -3.61    +51.1493
iter:  56 05:28:21  -808.365599c -6.06  -3.69    +51.1383
iter:  57 05:29:07  -808.366354c -6.08  -3.76    +51.1405
iter:  58 05:29:53  -808.366736c -6.11  -3.80    +51.1311
iter:  59 05:30:39  -808.367056c -6.32  -3.78    +51.1281
iter:  60 05:31:25  -808.367452c -6.25  -3.87    +51.1224
iter:  61 05:32:06  -808.368306c -6.35  -3.92    +51.1184
iter:  62 05:32:46  -808.368188c -6.47  -3.95    +51.1147
iter:  63 05:33:30  -808.368859c -6.40  -4.00c   +51.1108
iter:  64 05:34:15  -808.369508c -6.29  -4.06c   +51.1032
iter:  65 05:35:01  -808.369700c -6.57  -4.05c   +51.1055
iter:  66 05:35:48  -808.369972c -6.65  -4.11c   +51.1006
iter:  67 05:36:34  -808.370473c -6.44  -4.19c   +51.0942
iter:  68 05:37:21  -808.370999c -6.34  -4.18c   +51.0925
iter:  69 05:38:07  -808.371649c -6.33  -4.21c   +51.0912
iter:  70 05:38:53  -808.373738c -5.51  -4.16c   +51.0948
iter:  71 05:39:41  -808.373463c -6.70  -3.96    +51.1031
iter:  72 05:40:27  -808.373629c -6.90  -3.99    +51.1117
iter:  73 05:41:14  -808.374036c -6.45  -3.98    +51.1297
iter:  74 05:42:00  -808.374164c -6.48  -3.94    +51.1410
iter:  75 05:42:48  -808.374559c -6.44  -3.93    +51.1411
iter:  76 05:43:34  -808.373933c -6.48  -3.85    +51.1386
iter:  77 05:44:21  -808.373983c -6.59  -3.87    +51.1326
iter:  78 05:45:07  -808.373689c -5.75  -3.82    +51.1341
iter:  79 05:45:54  -808.373824c -6.21  -3.74    +51.1264
iter:  80 05:46:40  -808.373771c -6.66  -3.97    +51.1147
iter:  81 05:47:27  -808.373760c -6.52  -4.03c   +51.1120
iter:  82 05:48:15  -808.373389c -6.68  -3.96    +51.1038
iter:  83 05:49:01  -808.374054c -6.36  -4.03c   +51.0982
iter:  84 05:49:47  -808.374367c -6.15  -3.99    +51.0963
iter:  85 05:50:34  -808.373490c -6.33  -3.92    +51.0949
iter:  86 05:51:20  -808.373579c -6.54  -4.11c   +51.0940
iter:  87 05:52:07  -808.373554c -6.50  -4.14c   +51.0899
iter:  88 05:52:53  -808.373682c -6.76  -4.13c   +51.0940
iter:  89 05:53:40  -808.373384c -7.19  -4.27c   +51.0927
iter:  90 05:54:26  -808.373341c -7.28  -4.34c   +51.0906
iter:  91 05:55:13  -808.373490c -7.25  -4.33c   +51.0902
iter:  92 05:55:59  -808.373410c -7.09  -4.39c   +51.0907
iter:  93 05:56:46  -808.373390c -7.27  -4.34c   +51.0911
iter:  94 05:57:32  -808.373195c -6.98  -4.46c   +51.0884
iter:  95 05:58:19  -808.373479c -7.07  -4.36c   +51.0894
iter:  96 05:59:05  -808.373380c -7.34  -4.40c   +51.0926
iter:  97 05:59:52  -808.373220c -7.40  -4.59c   +51.0937
iter:  98 06:00:39  -808.373264c -7.72c -4.61c   +51.0931

Converged after 98 iterations.

Dipole moment: (29.756146, 17.237516, 7.636656) |e|*Ang

Total magnetic moment: (0.000000, 0.000000, 51.093085)
Local magnetic moments:
   0 Al ( 0.000000,  0.000000, -0.004724)
   1 Fe ( 0.000000,  0.000000,  2.091078)
   2 Cr ( 0.000000,  0.000000, -2.125402)
   3 Cr ( 0.000000,  0.000000,  1.611555)
   4 Ni ( 0.000000,  0.000000,  0.066363)
   5 Al ( 0.000000,  0.000000, -0.009332)
   6 Al ( 0.000000,  0.000000, -0.014669)
   7 Ni ( 0.000000,  0.000000,  0.302483)
   8 Fe ( 0.000000,  0.000000,  2.327930)
   9 Co ( 0.000000,  0.000000,  0.956355)
  10 Ni ( 0.000000,  0.000000,  0.253720)
  11 Fe ( 0.000000,  0.000000,  2.058769)
  12 Fe ( 0.000000,  0.000000,  2.062377)
  13 Co ( 0.000000,  0.000000,  1.328798)
  14 Cr ( 0.000000,  0.000000, -2.062279)
  15 Co ( 0.000000,  0.000000,  0.944293)
  16 Fe ( 0.000000,  0.000000,  2.064218)
  17 Al ( 0.000000,  0.000000, -0.037859)
  18 Fe ( 0.000000,  0.000000,  2.247613)
  19 Fe ( 0.000000,  0.000000,  2.203797)
  20 Cr ( 0.000000,  0.000000, -1.947547)
  21 Co ( 0.000000,  0.000000,  1.129811)
  22 Al ( 0.000000,  0.000000, -0.035468)
  23 Fe ( 0.000000,  0.000000,  2.193110)
  24 Ni ( 0.000000,  0.000000,  0.082439)
  25 Al ( 0.000000,  0.000000, -0.013672)
  26 Ni ( 0.000000,  0.000000,  0.296904)
  27 Cr ( 0.000000,  0.000000, -1.293511)
  28 Fe ( 0.000000,  0.000000,  2.357069)
  29 Ni ( 0.000000,  0.000000,  0.206197)
  30 Ni ( 0.000000,  0.000000,  0.322571)
  31 Ni ( 0.000000,  0.000000,  0.268488)
  32 Co ( 0.000000,  0.000000,  1.190417)
  33 Cr ( 0.000000,  0.000000, -2.023778)
  34 Fe ( 0.000000,  0.000000,  2.091546)
  35 Ni ( 0.000000,  0.000000,  0.164307)
  36 Fe ( 0.000000,  0.000000,  1.912314)
  37 Co ( 0.000000,  0.000000,  0.841430)
  38 Cr ( 0.000000,  0.000000, -1.713976)
  39 Ni ( 0.000000,  0.000000, -0.006478)
  40 Al ( 0.000000,  0.000000,  0.001871)
  41 Al ( 0.000000,  0.000000, -0.000220)
  42 Cr ( 0.000000,  0.000000, -1.775410)
  43 Al ( 0.000000,  0.000000, -0.005425)
  44 Al ( 0.000000,  0.000000, -0.003459)
  45 Co ( 0.000000,  0.000000,  0.266598)
  46 Cr ( 0.000000,  0.000000, -1.625770)
  47 Ni ( 0.000000,  0.000000,  0.233958)
  48 Fe ( 0.000000,  0.000000,  2.200277)
  49 Fe ( 0.000000,  0.000000,  1.961869)
  50 Al ( 0.000000,  0.000000, -0.029908)
  51 Co ( 0.000000,  0.000000,  1.266101)
  52 Co ( 0.000000,  0.000000,  1.022067)
  53 Ni ( 0.000000,  0.000000,  0.361362)
  54 Ni ( 0.000000,  0.000000,  0.098025)
  55 Co ( 0.000000,  0.000000,  1.144515)
  56 Al ( 0.000000,  0.000000, -0.009643)
  57 Cr ( 0.000000,  0.000000, -1.508394)
  58 Ni ( 0.000000,  0.000000,  0.119144)
  59 Cr ( 0.000000,  0.000000, -1.688530)
[...]
  93 Co ( 0.000000,  0.000000,  1.278971)
  94 Ni ( 0.000000,  0.000000,  0.223387)
  95 Fe ( 0.000000,  0.000000,  1.985622)
  96 Al ( 0.000000,  0.000000, -0.033087)
  97 Al ( 0.000000,  0.000000, -0.008819)
  98 Fe ( 0.000000,  0.000000,  2.060929)
  99 Co ( 0.000000,  0.000000,  1.034887)
 100 Fe ( 0.000000,  0.000000,  2.328827)
 101 Co ( 0.000000,  0.000000,  1.220377)
 102 Al ( 0.000000,  0.000000, -0.046163)
 103 Fe ( 0.000000,  0.000000,  2.333213)
 104 Co ( 0.000000,  0.000000,  1.113773)
 105 Ni ( 0.000000,  0.000000,  0.321945)
 106 Al ( 0.000000,  0.000000, -0.029669)
 107 Cr ( 0.000000,  0.000000,  1.512466)

Energy contributions relative to reference atoms: (reference = -3235165.067515)

Kinetic:       +244.222495
Potential:     -238.208355
External:        +0.000000
XC:            -843.751284
Entropy (-ST):   -3.919078
Local:          +31.323419
Free energy:   -810.332803
Extrapolated:  -808.373264

Spin contamination: 32.115551 electrons
Showing only first 2 kpts
                      Up                     Down
 Kpt  Band  Eigenvalues  Occupancy  Eigenvalues  Occupancy
  0   454      9.01911    0.99493      9.88112    0.03417
  0   455      9.03850    0.99385      9.88904    0.03166
  0   456      9.05332    0.99287      9.90363    0.02747
  0   457      9.07650    0.99103      9.91585    0.02439

  1   454      9.02409    0.99467      9.87271    0.03706
  1   455      9.04267    0.99359      9.88162    0.03401
  1   456      9.05757    0.99256      9.89365    0.03027
  1   457      9.07292    0.99134      9.90987    0.02586

Fermi level: 9.54697

No gap

Forces in eV/Ang:
  0 Al   -0.43099   -0.60043   -0.36885
  1 Fe    0.26688    0.01173    0.21672
  2 Cr   -0.09773    0.20582   -0.24613
  3 Cr    0.09730   -0.29549   -0.42256
  4 Ni   -0.22428    0.18289    0.04587
  5 Al    0.49258   -0.11899    0.26764
  6 Al   -0.67353    0.24479   -0.29837
  7 Ni   -0.27712   -0.12738    0.14309
  8 Fe    0.20425   -0.01668   -0.01690
  9 Co   -0.14880    0.12050    0.18685
 10 Ni    0.03148   -0.11449    0.12675
 11 Fe   -0.17257    0.10670    0.40418
 12 Fe   -0.02815    0.32514   -0.16593
 13 Co    0.57331    0.05419    0.00058
 14 Cr   -0.85834   -0.02470   -0.12252
 15 Co   -0.12538   -0.15800   -0.10916
 16 Fe    0.02940    0.31147    0.01591
 17 Al   -0.06977    0.36281    0.35368
 18 Fe    0.09099   -0.08948    0.11114
 19 Fe    0.30576   -0.06057   -0.11507
 20 Cr   -0.41101    0.06823   -0.18730
 21 Co   -0.11109   -0.03862    0.24362
 22 Al   -0.11297   -0.24744    0.36759
 23 Fe   -0.14767   -0.00780   -0.19352
 24 Ni    0.21680    0.33870   -0.29229
 25 Al   -0.25808   -0.34556   -0.57921
 26 Ni    0.00453   -0.22353    0.08239
 27 Cr    0.28993   -0.09806   -0.22444
 28 Fe   -0.42591    0.30013   -0.06213
 29 Ni    0.15336    0.11294    0.45676
 30 Ni   -0.30111   -0.28564   -0.12822
 31 Ni   -0.01976    0.03132    0.09754
 32 Co   -0.02437   -0.14843    0.24711
 33 Cr    0.34297   -0.36778   -0.20169
 34 Fe   -0.24578   -0.34770   -0.15832
 35 Ni    0.56145    0.16509   -0.28395
 36 Fe    0.15854    0.48002    0.18895
 37 Co    0.23459   -0.39231    0.16694
 38 Cr   -0.79934   -0.09820    0.74521
 39 Ni    0.24169   -0.12816   -0.00239
 40 Al    0.50947    0.14148    0.04596
 41 Al   -0.49970   -0.07158   -0.67874
 42 Cr   -0.00502   -0.03207    0.03546
 43 Al    0.19634    0.25655    0.24889
 44 Al   -0.04860    0.79422   -0.20592
 45 Co   -0.30400   -0.22883   -0.11470
 46 Cr    0.29298    0.11186    0.36724
 47 Ni    0.03994    0.04508   -0.41033
 48 Fe   -0.07411    0.07113   -0.06706
 49 Fe    0.03229   -0.12056    0.08495
 50 Al    0.41957   -0.14768   -0.33218
 51 Co   -0.18148   -0.09752    0.12216
 52 Co    0.03889    0.18193   -0.23131
 53 Ni   -0.11462   -0.01833    0.09825
 54 Ni    0.28049   -0.28843   -0.27431
 55 Co    0.03439   -0.14018   -0.07440
 56 Al    0.21962   -0.70413   -0.28541
 57 Cr   -0.29300    0.99450    0.30987
 58 Ni   -0.29341    0.11675   -0.12016
 59 Cr    0.56473    0.66172    0.14309
[...]
 93 Co    0.02461   -0.20657   -0.10991
 94 Ni    0.25312    0.12524   -0.12033
 95 Fe    0.05006   -0.32045    0.05715
 96 Al    0.29288   -0.54633    0.54585
 97 Al   -0.83232   -0.17278   -0.16151
 98 Fe   -0.24404   -0.02995    0.28240
 99 Co   -0.13949   -0.01601   -0.09124
100 Fe   -0.25849   -0.13218   -0.09560
101 Co   -0.26600    0.35484   -0.12971
102 Al    0.51367   -0.12196    0.14185
103 Fe    0.06927    0.36082   -0.30786
104 Co   -0.02886   -0.04136   -0.29915
105 Ni   -0.07242   -0.28722    0.04743
106 Al   -0.29343    0.58916    0.17590
107 Cr    0.18192    0.20707   -0.33213

Date: Sat Apr  8 06:00:52 2023