User:   c.zeng@d0093
Date:   Fri Apr 14 23:35:29 2023
Arch:   x86_64
Pid:    79438
CWD:    /home/c.zeng/projects/hea-corrosion/hea-mlp/data-curation/bulk-mcmc/dft-jobs/182
Python: 3.8.1
gpaw:   /home/c.zeng/usr/installs/gpaw/source/gpaw-22.8.0/gpaw
_gpaw:  /home/c.zeng/usr/installs/gpaw/source/gpaw-22.8.0/
        _gpaw.cpython-38-x86_64-linux-gnu.so
ase:    /home/c.zeng/.local/lib/python3.8/site-packages/ase-3.22.1-py3.8.egg/ase (version 3.22.1)
numpy:  /shared/centos7/python/3.8.1/lib/python3.8/site-packages/numpy (version 1.17.4)
scipy:  /shared/centos7/python/3.8.1/lib/python3.8/site-packages/scipy (version 1.4.1)
units:  Angstrom and eV
cores: 30
OpenMP: False
OMP_NUM_THREADS: 1

Input parameters:
  convergence: {energy: 0.0001}
  kpts: [2 2 2]
  maxiter: 666
  mode: {ecut: 350.0,
         name: pw}
  occupations: {fixmagmom: False,
                name: fermi-dirac,
                width: 0.1}
  spinpol: True
  xc: PBE

System changes: positions, numbers, cell, pbc, initial_charges, initial_magmoms

Initialize ...

species:
  Co:
    name: Cobalt
    id: 339d20d5b0b93d2de9531a1bee871d91
    Z: 27.0
    valence: 9
    core: 18
    charge: 0.0
    file: /home/c.zeng/usr/data/gpaw-setups-0.9.20000/Co.PBE.gz
    compensation charges: {type: gauss,
                           rc: 0.32,
                           lmax: 2}
    cutoffs: {filter: 1.87,
              core: 2.55}
    valence states:
      #              energy  rcut
      - 4s(2.00)    -5.469   1.005
      - 4p(0.00)    -1.277   1.058
      - 3d(7.00)    -8.205   1.005
      -  s          21.742   1.005
      -  p          25.934   1.058
      -  d          19.007   1.005

    # Using partial waves for Co as LCAO basis

  Fe:
    name: Iron
    id: 37abbd8d6c3c35915a9b583b742da910
    Z: 26.0
    valence: 8
    core: 18
    charge: 0.0
    file: /home/c.zeng/usr/data/gpaw-setups-0.9.20000/Fe.PBE.gz
    compensation charges: {type: gauss,
                           rc: 0.33,
                           lmax: 2}
    cutoffs: {filter: 2.06,
              core: 2.67}
    valence states:
      #              energy  rcut
      - 4s(2.00)    -5.291   1.164
      - 4p(0.00)    -1.326   1.058
      - 3d(6.00)    -7.505   1.058
      -  s          21.920   1.164
      -  p          25.885   1.058
      -  d          19.706   1.058

[...]

  Al:
    name: Aluminium
    id: 0292cae29f5d6237e50f6abdd43a7bdd
    Z: 13.0
    valence: 3
    core: 10
    charge: 0.0
    file: /home/c.zeng/usr/data/gpaw-setups-0.9.20000/Al.PBE.gz
    compensation charges: {type: gauss,
                           rc: 0.34,
                           lmax: 2}
    cutoffs: {filter: 1.91,
              core: 2.36}
    valence states:
      #              energy  rcut
      - 3s(2.00)    -7.753   1.085
      - 3p(1.00)    -2.712   1.085
      -  s          19.459   1.085
      -  p          24.499   1.085
      -  d           0.000   1.085

[...]

  Cr:
    name: Chromium
    id: 33f258bda2ca9f93018e70263a35547b
    Z: 24.0
    valence: 6
    core: 18
    charge: 0.0
    file: /home/c.zeng/usr/data/gpaw-setups-0.9.20000/Cr.PBE.gz
    compensation charges: {type: gauss,
                           rc: 0.35,
                           lmax: 2}
    cutoffs: {filter: 2.14,
              core: 3.04}
    valence states:
      #              energy  rcut
      - 4s(1.00)    -4.007   1.164
      - 4p(0.00)    -0.989   1.217
      - 3d(5.00)    -2.913   1.111
      -  s          23.205   1.164
      -  p          26.223   1.217
      -  d          24.299   1.111

[...]

  Ni:
    name: Nickel
    id: 0d9f38a9d6e76a2886f07bb4381f212b
    Z: 28.0
    valence: 16
    core: 12
    charge: 0.0
    file: /home/c.zeng/usr/data/gpaw-setups-0.9.20000/Ni.PBE.gz
    compensation charges: {type: gauss,
                           rc: 0.36,
                           lmax: 2}
    cutoffs: {filter: 2.14,
              core: 1.98}
    valence states:
      #              energy  rcut
      - 4s(2.00)    -5.642   1.164
      - 3p(6.00)   -71.394   1.207
      - 4p(0.00)    -1.226   1.207
      - 3d(8.00)    -8.875   1.138
      -  s          21.570   1.164
      -  d          18.337   1.138

    # Using partial waves for Ni as LCAO basis

Reference energy: -3382523.201499  # eV

Spin-polarized calculation.
Magnetic moment: 128.800000

Convergence criteria:
 Maximum [total energy] change in last 3 cyles: 0.0001 eV / electron
 Maximum integral of absolute [dens]ity change: 0.0001 electrons / valence electron
 Maximum integral of absolute [eigenst]ate change: 4e-08 eV^2 / valence electron
 Maximum number of scf [iter]ations: 666
 (Square brackets indicate name in SCF output, whereas a 'c' in
 the SCF output indicates the quantity has converged.)

Symmetries present (total): 1

  ( 1  0  0)
  ( 0  1  0)
  ( 0  0  1)

8 k-points: 2 x 2 x 2 Monkhorst-Pack grid
4 k-points in the irreducible part of the Brillouin zone
       k-points in crystal coordinates                weights
   0:     0.25000000   -0.25000000   -0.25000000          2/8
   1:     0.25000000   -0.25000000    0.25000000          2/8
   2:     0.25000000    0.25000000   -0.25000000          2/8
   3:     0.25000000    0.25000000    0.25000000          2/8

Wave functions: Plane wave expansion
  Cutoff energy: 350.000 eV
  Number of coefficients (min, max): 18865, 18865
  Pulay-stress correction: 0.000000 eV/Ang^3 (de/decut=0.000000)
  Using FFTW library
  ScaLapack parameters: grid=1x1, blocksize=None
  Wavefunction extrapolation:
    Improved wavefunction reuse through dual PAW basis

Occupation numbers: Fermi-Dirac:
  width: 0.1000  # eV

Eigensolver
   Davidson(niter=2)

Densities:
  Coarse grid: 48*48*48 grid
  Fine grid: 96*96*96 grid
  Total Charge: 0.000000

Density mixing:
  Method: difference
  Backend: pulay
  Linear mixing parameter: 0.05
  old densities: 5
  Damping of long wavelength oscillations: 50

Hamiltonian:
  XC and Coulomb potentials evaluated on a 96*96*96 grid
  Using the PBE Exchange-Correlation functional
  External potential:
    NoExternalPotential

XC parameters: PBE with 2 nearest neighbor stencil

Total number of cores used: 30
Parallelization over k-points: 2
Domain decomposition: 5 x 3 x 1

Number of atoms: 108
Number of atomic orbitals: 961
Number of bands in calculation: 649
Number of valence electrons: 945
Bands to converge: occupied

... initialized

Initializing position-dependent things.

Density initialized from atomic densities
Creating initial wave functions:
  649 bands from LCAO basis set

       /|                     Fe   |
      / |            Co Co     CrCo|
     /  |       Cr       Ni       Cr
    /   |Fe       Fel     FFer     |
   /i   | Coo        Fe      Co    |
  /  CrAl   NCr       Ni           |
 *      Ni     CoCo   AlFeCrCo   Cr|
 |      |CoNi   CrNiAl   NiAlNi   Co
 | CrCo | AlNi   AlAlFe     Ni     |
 |     Co  FeCr Cr  Fe CoNi  CrNi  |
 |      FeNi   AlCr   FeCoFeNi  Co |
 |Al    |FeCr   AlCrFe   CrCo     Co
 |      .-CrCo-----NiCr-CoFeCrNi---.
 |     /   Ni Fe    Cr CoNi    Al /
 |    Co       AFei       Al     /
 |   /  Fe         Al       Cr  /
 |  /      Co       Al       Fe/
 | / Fe     Fe       Ni Ni    /
 |/             Cr       Ni  /
 *--------Fe----------------*

Positions:
   0 Co    10.764147   10.861293   10.805330    ( 0.0000,  0.0000,  2.0000)
   1 Fe    10.786221    1.792513    1.813624    ( 0.0000,  0.0000,  0.0000)
   2 Fe     1.744156    0.036560    1.851269    ( 0.0000,  0.0000,  1.5000)
   3 Al     1.736571    1.831142   10.798805    ( 0.0000,  0.0000,  0.0000)
   4 Fe     3.575126    0.057318    0.061759    ( 0.0000,  0.0000,  0.0000)
   5 Co     3.594289    1.817617    1.845577    ( 0.0000,  0.0000,  2.0000)
   6 Fe     5.429813   10.817005    1.865054    ( 0.0000,  0.0000,  1.5000)
   7 Cr     5.429608    1.929425    0.057134    ( 0.0000,  0.0000,  0.0000)
   8 Fe     7.316909   10.723332    0.087382    ( 0.0000,  0.0000,  0.0000)
   9 Al     7.263142    1.825786    1.869404    ( 0.0000,  0.0000,  2.1000)
  10 Ni     9.063554    0.025226    1.863474    ( 0.0000,  0.0000,  1.5000)
  11 Ni     9.049217    1.829703    0.033106    ( 0.0000,  0.0000,  2.1000)
  12 Ni     0.004792    3.558981   10.794801    ( 0.0000,  0.0000,  1.5000)
  13 Al    10.759710    5.390697    1.778165    ( 0.0000,  0.0000,  0.0000)
  14 Fe     1.733585    3.561849    1.761112    ( 0.0000,  0.0000,  2.0000)
  15 Fe     1.776899    5.391834   10.795505    ( 0.0000,  0.0000,  0.0000)
  16 Fe     3.565452    3.619360   10.832619    ( 0.0000,  0.0000,  2.1000)
  17 Fe     3.633221    5.394614    1.719551    ( 0.0000,  0.0000,  0.0000)
  18 Ni     5.471624    3.659114    1.836033    ( 0.0000,  0.0000,  2.1000)
  19 Fe     5.440212    5.373060   -0.002773    ( 0.0000,  0.0000,  2.0000)
  20 Ni     7.258997    3.609080    0.031294    ( 0.0000,  0.0000,  0.0000)
  21 Co     7.268941    5.378362    1.785274    ( 0.0000,  0.0000,  2.0000)
  22 Al     9.030724    3.577636    1.833728    ( 0.0000,  0.0000,  2.1000)
  23 Fe     9.040420    5.372281   10.801110    ( 0.0000,  0.0000,  0.0000)
  24 Co    10.791663    7.196206   10.792486    ( 0.0000,  0.0000,  1.5000)
  25 Co    10.758434    9.040387    1.848239    ( 0.0000,  0.0000,  0.0000)
  26 Cr     1.690487    7.202493    1.786032    ( 0.0000,  0.0000,  0.0000)
  27 Ni     1.652691    8.981047    0.027217    ( 0.0000,  0.0000,  0.0000)
  28 Al     3.631241    7.164437    0.034633    ( 0.0000,  0.0000,  0.0000)
  29 Al     3.625452    9.063759    1.801678    ( 0.0000,  0.0000,  0.0000)
  30 Ni     5.490852    7.187095    1.746342    ( 0.0000,  0.0000,  2.0000)
  31 Cr     5.426935    8.989152    0.009861    ( 0.0000,  0.0000,  2.0000)
  32 Co     7.229122    7.237075   -0.008698    ( 0.0000,  0.0000,  1.5000)
  33 Cr     7.249194    8.995850    1.810713    ( 0.0000,  0.0000,  0.0000)
  34 Cr     9.052073    7.204300    1.764218    ( 0.0000,  0.0000,  2.1000)
  35 Fe     9.092553    8.989639   10.808760    ( 0.0000,  0.0000,  1.5000)
  36 Cr    -0.000975   10.826235    3.639789    ( 0.0000,  0.0000,  1.5000)
  37 Al    10.822772    1.771770    5.422044    ( 0.0000,  0.0000,  2.1000)
  38 Ni     1.754263   10.802084    5.428872    ( 0.0000,  0.0000,  2.1000)
  39 Co     1.741873    1.774270    3.610801    ( 0.0000,  0.0000,  0.0000)
  40 Al     3.591183   10.794152    3.612143    ( 0.0000,  0.0000,  2.0000)
  41 Cr     3.593088    1.736744    5.455177    ( 0.0000,  0.0000,  0.0000)
  42 Al     5.437150   10.794563    5.400804    ( 0.0000,  0.0000,  2.0000)
  43 Fe     5.451931    1.783251    3.601387    ( 0.0000,  0.0000,  1.5000)
  44 Al     7.226222    0.007781    3.626209    ( 0.0000,  0.0000,  0.0000)
  45 Fe     7.236069    1.766512    5.381392    ( 0.0000,  0.0000,  2.1000)
  46 Co     9.034587   10.848850    5.403844    ( 0.0000,  0.0000,  2.1000)
  47 Ni     9.031558    1.804946    3.616730    ( 0.0000,  0.0000,  1.5000)
  48 Ni    10.773885    3.543973    3.617867    ( 0.0000,  0.0000,  1.5000)
  49 Ni    10.772186    5.358409    5.454917    ( 0.0000,  0.0000,  0.0000)
  50 Fe     1.757531    3.575678    5.428937    ( 0.0000,  0.0000,  2.1000)
  51 Fe     1.621766    5.386986    3.572550    ( 0.0000,  0.0000,  0.0000)
  52 Co     3.634303    3.633188    3.540792    ( 0.0000,  0.0000,  0.0000)
  53 Cr     3.550606    5.397969    5.404753    ( 0.0000,  0.0000,  2.0000)
  54 Cr     5.402221    3.610887    5.370193    ( 0.0000,  0.0000,  2.0000)
  55 Cr     5.460241    5.433590    3.575613    ( 0.0000,  0.0000,  2.0000)
  56 Cr     7.250157    3.615183    3.623169    ( 0.0000,  0.0000,  1.5000)
  57 Co     7.248707    5.410715    5.362099    ( 0.0000,  0.0000,  1.5000)
  58 Fe     9.058230    3.565236    5.380082    ( 0.0000,  0.0000,  2.1000)
  59 Co     9.074071    5.365323    3.589008    ( 0.0000,  0.0000,  2.1000)
[...]
  93 Ni     7.211073    5.388295    9.040181    ( 0.0000,  0.0000,  0.0000)
  94 Cr     9.095052    3.598119    8.980636    ( 0.0000,  0.0000,  2.0000)
  95 Al     9.078205    5.402416    7.227759    ( 0.0000,  0.0000,  0.0000)
  96 Cr    10.763411    7.244682    7.260285    ( 0.0000,  0.0000,  1.5000)
  97 Cr    10.795093    9.034566    8.977574    ( 0.0000,  0.0000,  2.0000)
  98 Co     1.740045    7.178947    8.984662    ( 0.0000,  0.0000,  2.1000)
  99 Co     1.734429    9.080207    7.236696    ( 0.0000,  0.0000,  1.5000)
 100 Co     3.580482    7.154277    7.248285    ( 0.0000,  0.0000,  0.0000)
 101 Cr     3.612835    8.970898    8.958086    ( 0.0000,  0.0000,  0.0000)
 102 Al     5.410943    7.155878    9.067049    ( 0.0000,  0.0000,  0.0000)
 103 Fe     5.466441    9.064062    7.220963    ( 0.0000,  0.0000,  2.1000)
 104 Fe     7.307203    7.271549    7.289738    ( 0.0000,  0.0000,  0.0000)
 105 Ni     7.271073    9.044683    9.027879    ( 0.0000,  0.0000,  1.5000)
 106 Cr     9.081743    7.219805    9.041166    ( 0.0000,  0.0000,  2.1000)
 107 Co     9.063684    9.083009    7.213865    ( 0.0000,  0.0000,  2.0000)

Unit cell:
           periodic     x           y           z      points  spacing
  1. axis:    yes   10.820500    0.000000    0.000000    48     0.2254
  2. axis:    yes    0.000000   10.820500    0.000000    48     0.2254
  3. axis:    yes    0.000000    0.000000   10.820500    48     0.2254

  Lengths:  10.820500  10.820500  10.820500
  Angles:   90.000000  90.000000  90.000000

Effective grid spacing dv^(1/3) = 0.2254

     iter     time        total  log10-change:  magmom
                         energy  eigst   dens
iter:   1 23:40:20  -895.589728                  +128.4417
iter:   2 23:42:27  -863.427636  -0.40  -1.31    +95.7786
iter:   3 23:44:34  -844.660317  -0.94  -1.29    +67.6066
iter:   4 23:46:42  -832.492080  -1.26  -1.37    +57.6092
iter:   5 23:49:27  -825.672979  -1.85  -1.40    +52.8090
iter:   6 23:52:00  -826.570565  -1.99  -1.47    +50.1881
iter:   7 23:54:08  -825.695052  -1.65  -1.49    +48.8934
iter:   8 23:56:16  -823.095877  -1.75  -1.55    +48.5257
iter:   9 23:58:24  -826.338805  -1.91  -1.69    +49.1973
iter:  10 00:00:32  -822.593876  -2.08  -1.69    +48.8783
iter:  11 00:02:40  -823.118260  -2.38  -1.82    +49.3594
iter:  12 00:04:48  -822.566338  -2.46  -1.84    +50.3542
iter:  13 00:06:55  -822.740336  -2.60  -1.89    +51.4637
iter:  14 00:09:03  -823.379988  -2.56  -1.95    +52.3061
iter:  15 00:11:11  -823.852047  -2.61  -1.99    +53.1164
iter:  16 00:13:19  -824.626172  -2.47  -2.01    +54.6326
iter:  17 00:15:27  -823.465847  -2.77  -2.00    +55.1128
iter:  18 00:17:35  -823.995202  -2.87  -2.17    +55.9925
iter:  19 00:19:42  -823.974433  -2.99  -2.17    +56.6843
iter:  20 00:21:50  -823.890105  -3.23  -2.20    +57.5452
iter:  21 00:23:57  -824.272060  -3.11  -2.30    +58.4943
iter:  22 00:26:05  -824.347467  -3.19  -2.29    +58.6850
iter:  23 00:28:12  -824.558260  -3.10  -2.33    +59.2898
iter:  24 00:30:20  -824.513279  -3.23  -2.32    +59.4825
iter:  25 00:32:27  -824.635795  -3.18  -2.40    +59.8116
iter:  26 00:34:33  -824.601482  -3.40  -2.44    +59.8747
iter:  27 00:36:41  -824.555937c -3.63  -2.48    +60.0244
iter:  28 00:38:48  -824.609850c -3.77  -2.56    +60.3329
iter:  29 00:41:25  -824.635467c -3.87  -2.58    +60.4125
iter:  30 00:44:05  -824.644892c -4.18  -2.58    +60.5308
iter:  31 00:46:12  -824.722610c -3.90  -2.65    +60.5663
iter:  32 00:48:20  -824.868311  -3.64  -2.66    +60.6179
iter:  33 00:50:28  -824.734679  -3.84  -2.58    +60.6374
iter:  34 00:52:35  -824.792908  -4.00  -2.95    +60.5334
iter:  35 00:54:43  -824.800773c -4.33  -2.92    +60.5895
iter:  36 00:56:52  -824.830037c -4.60  -3.05    +60.6036
iter:  37 00:58:59  -824.898778  -4.14  -3.06    +60.5909
iter:  38 01:01:07  -824.980232  -4.04  -3.02    +60.5212
iter:  39 01:03:15  -824.996499  -4.69  -2.92    +60.4971
iter:  40 01:05:23  -825.039331c -4.02  -2.90    +60.3643
iter:  41 01:07:31  -825.089141c -4.00  -2.96    +60.1866
iter:  42 01:09:38  -825.163059  -3.82  -2.95    +59.9041
iter:  43 01:11:46  -825.225505  -3.87  -2.85    +59.8022
iter:  44 01:13:54  -825.165947c -4.51  -2.75    +59.8630
iter:  45 01:16:01  -825.163397c -4.90  -2.86    +59.8142
iter:  46 01:18:08  -825.176784c -4.92  -2.89    +59.7857
iter:  47 01:20:16  -825.211776c -3.65  -2.88    +59.7684
iter:  48 01:22:23  -825.185730c -3.95  -2.73    +59.7748
iter:  49 01:24:30  -825.157994c -4.70  -2.85    +59.7323
iter:  50 01:26:38  -825.184193c -4.41  -2.97    +59.7118
iter:  51 01:28:46  -825.189918c -4.29  -2.90    +59.7369
iter:  52 01:30:52  -825.169172c -4.74  -2.88    +59.6691
iter:  53 01:33:14  -825.174417c -4.70  -3.01    +59.6398
iter:  54 01:36:07  -825.176963c -4.82  -2.99    +59.6699
iter:  55 01:38:15  -825.178690c -4.83  -3.02    +59.6427
iter:  56 01:40:23  -825.180854c -4.34  -3.09    +59.6176
iter:  57 01:42:30  -825.184586c -4.61  -3.10    +59.5927
iter:  58 01:44:38  -825.175156c -4.87  -3.13    +59.6164
iter:  59 01:46:46  -825.178045c -5.31  -3.29    +59.5988
iter:  60 01:48:54  -825.180212c -5.42  -3.34    +59.5831
iter:  61 01:51:01  -825.183191c -5.37  -3.36    +59.5756
iter:  62 01:53:09  -825.184064c -5.36  -3.39    +59.5572
iter:  63 01:55:16  -825.186791c -5.46  -3.50    +59.5341
iter:  64 01:57:24  -825.187236c -5.76  -3.56    +59.5310
iter:  65 01:59:32  -825.190158c -5.61  -3.60    +59.5141
iter:  66 02:01:38  -825.191949c -5.84  -3.63    +59.4994
iter:  67 02:03:45  -825.193412c -5.90  -3.68    +59.4869
iter:  68 02:05:53  -825.196486c -5.65  -3.72    +59.4630
iter:  69 02:08:00  -825.199005c -5.83  -3.77    +59.4354
iter:  70 02:10:07  -825.199342c -6.29  -3.82    +59.4270
iter:  71 02:12:39  -825.203593c -5.60  -3.84    +59.3805
iter:  72 02:15:24  -825.203657c -6.48  -3.84    +59.3818
iter:  73 02:17:32  -825.207250c -5.69  -3.86    +59.3439
iter:  74 02:19:40  -825.208655c -5.90  -3.81    +59.3238
iter:  75 02:21:48  -825.212584c -5.54  -3.88    +59.2637
iter:  76 02:23:56  -825.221318c -4.88  -3.89    +59.1294
iter:  77 02:26:03  -825.238009c -4.19  -3.71    +58.8645
iter:  78 02:28:12  -825.238923c -5.32  -3.39    +58.9230
iter:  79 02:30:20  -825.238050c -5.38  -3.37    +58.8948
iter:  80 02:32:28  -825.238465c -5.72  -3.45    +58.9228
iter:  81 02:34:35  -825.239226c -5.64  -3.45    +58.9502
iter:  82 02:36:43  -825.239255c -4.88  -3.45    +58.9513
iter:  83 02:38:51  -825.238408c -5.33  -3.34    +58.9419
iter:  84 02:40:59  -825.236803c -5.43  -3.46    +58.9268
iter:  85 02:43:06  -825.238257c -5.25  -3.49    +58.9156
iter:  86 02:45:14  -825.237033c -5.42  -3.42    +58.8895
iter:  87 02:47:22  -825.235566c -5.56  -3.52    +58.8930
iter:  88 02:49:29  -825.238039c -5.41  -3.59    +58.8872
iter:  89 02:51:37  -825.234900c -5.72  -3.50    +58.8839
iter:  90 02:53:44  -825.235290c -5.93  -3.65    +58.8708
iter:  91 02:55:52  -825.235296c -6.04  -3.70    +58.8712
iter:  92 02:57:59  -825.234824c -6.06  -3.70    +58.8743
iter:  93 03:00:06  -825.235086c -6.22  -3.73    +58.8684
iter:  94 03:02:14  -825.234534c -6.13  -3.77    +58.8657
iter:  95 03:04:22  -825.235304c -6.11  -3.77    +58.8647
iter:  96 03:06:30  -825.234634c -6.10  -3.80    +58.8668
iter:  97 03:08:37  -825.234768c -6.26  -3.80    +58.8648
iter:  98 03:10:44  -825.234873c -6.25  -3.86    +58.8585
iter:  99 03:13:41  -825.234335c -6.39  -3.87    +58.8607
iter: 100 03:15:58  -825.234655c -6.76  -3.93    +58.8598
iter: 101 03:18:06  -825.234117c -6.56  -3.98    +58.8582
iter: 102 03:20:13  -825.234630c -6.50  -3.98    +58.8554
iter: 103 03:22:22  -825.234275c -6.66  -3.98    +58.8551
iter: 104 03:24:29  -825.234272c -6.58  -4.05c   +58.8567
iter: 105 03:26:37  -825.234645c -6.46  -4.03c   +58.8530
iter: 106 03:28:45  -825.234137c -6.81  -4.03c   +58.8509
iter: 107 03:30:53  -825.234503c -6.82  -4.15c   +58.8504
iter: 108 03:33:01  -825.234222c -7.07  -4.16c   +58.8505
iter: 109 03:35:09  -825.234327c -7.25  -4.20c   +58.8489
iter: 110 03:37:16  -825.234343c -7.44c -4.26c   +58.8467

Converged after 110 iterations.

Dipole moment: (29.734685, -3.803435, -9.785856) |e|*Ang

Total magnetic moment: (0.000000, 0.000000, 58.846719)
Local magnetic moments:
   0 Co ( 0.000000,  0.000000,  1.212221)
   1 Fe ( 0.000000,  0.000000,  2.332481)
   2 Fe ( 0.000000,  0.000000,  2.296959)
   3 Al ( 0.000000,  0.000000, -0.048938)
   4 Fe ( 0.000000,  0.000000,  2.434753)
   5 Co ( 0.000000,  0.000000,  1.404932)
   6 Fe ( 0.000000,  0.000000,  1.905233)
   7 Cr ( 0.000000,  0.000000, -2.429406)
   8 Fe ( 0.000000,  0.000000,  2.202408)
   9 Al ( 0.000000,  0.000000, -0.014266)
  10 Ni ( 0.000000,  0.000000,  0.174164)
  11 Ni ( 0.000000,  0.000000,  0.166664)
  12 Ni ( 0.000000,  0.000000,  0.178934)
  13 Al ( 0.000000,  0.000000, -0.023042)
  14 Fe ( 0.000000,  0.000000,  2.171304)
  15 Fe ( 0.000000,  0.000000, -1.761763)
  16 Fe ( 0.000000,  0.000000,  2.172108)
  17 Fe ( 0.000000,  0.000000,  2.087256)
  18 Ni ( 0.000000,  0.000000,  0.225520)
  19 Fe ( 0.000000,  0.000000,  2.293167)
  20 Ni ( 0.000000,  0.000000,  0.134097)
  21 Co ( 0.000000,  0.000000,  1.202544)
  22 Al ( 0.000000,  0.000000, -0.021632)
  23 Fe ( 0.000000,  0.000000,  2.095150)
  24 Co ( 0.000000,  0.000000, -0.017712)
  25 Co ( 0.000000,  0.000000,  0.898473)
  26 Cr ( 0.000000,  0.000000,  0.718770)
  27 Ni ( 0.000000,  0.000000,  0.124551)
  28 Al ( 0.000000,  0.000000, -0.006363)
  29 Al ( 0.000000,  0.000000, -0.034685)
  30 Ni ( 0.000000,  0.000000,  0.340828)
  31 Cr ( 0.000000,  0.000000,  1.727708)
  32 Co ( 0.000000,  0.000000,  0.898092)
  33 Cr ( 0.000000,  0.000000, -1.437263)
  34 Cr ( 0.000000,  0.000000, -1.568121)
  35 Fe ( 0.000000,  0.000000,  1.992053)
  36 Cr ( 0.000000,  0.000000, -1.547122)
  37 Al ( 0.000000,  0.000000, -0.024805)
  38 Ni ( 0.000000,  0.000000,  0.128034)
  39 Co ( 0.000000,  0.000000,  1.145908)
  40 Al ( 0.000000,  0.000000, -0.037518)
  41 Cr ( 0.000000,  0.000000, -2.018475)
  42 Al ( 0.000000,  0.000000, -0.034206)
  43 Fe ( 0.000000,  0.000000,  1.840735)
  44 Al ( 0.000000,  0.000000, -0.031406)
  45 Fe ( 0.000000,  0.000000,  1.778298)
  46 Co ( 0.000000,  0.000000,  0.932887)
  47 Ni ( 0.000000,  0.000000,  0.130881)
  48 Ni ( 0.000000,  0.000000,  0.370595)
  49 Ni ( 0.000000,  0.000000,  0.276086)
  50 Fe ( 0.000000,  0.000000,  2.334889)
  51 Fe ( 0.000000,  0.000000,  2.279686)
  52 Co ( 0.000000,  0.000000,  1.046747)
  53 Cr ( 0.000000,  0.000000, -2.016177)
  54 Cr ( 0.000000,  0.000000, -1.255531)
  55 Cr ( 0.000000,  0.000000,  1.449033)
  56 Cr ( 0.000000,  0.000000, -1.578670)
  57 Co ( 0.000000,  0.000000,  1.168127)
  58 Fe ( 0.000000,  0.000000,  2.191565)
  59 Co ( 0.000000,  0.000000,  1.168197)
[...]
  93 Ni ( 0.000000,  0.000000,  0.331080)
  94 Cr ( 0.000000,  0.000000,  1.040614)
  95 Al ( 0.000000,  0.000000, -0.018401)
  96 Cr ( 0.000000,  0.000000,  1.044992)
  97 Cr ( 0.000000,  0.000000,  0.551736)
  98 Co ( 0.000000,  0.000000, -0.155346)
  99 Co ( 0.000000,  0.000000,  0.941429)
 100 Co ( 0.000000,  0.000000,  0.109992)
 101 Cr ( 0.000000,  0.000000, -2.243212)
 102 Al ( 0.000000,  0.000000, -0.025055)
 103 Fe ( 0.000000,  0.000000,  2.138200)
 104 Fe ( 0.000000,  0.000000,  2.468245)
 105 Ni ( 0.000000,  0.000000,  0.308678)
 106 Cr ( 0.000000,  0.000000, -1.413519)
 107 Co ( 0.000000,  0.000000,  1.094369)

Energy contributions relative to reference atoms: (reference = -3382523.201499)

Kinetic:       +215.235436
Potential:     -224.525979
External:        +0.000000
XC:            -847.128458
Entropy (-ST):   -4.240509
Local:          +33.304913
Free energy:   -827.354597
Extrapolated:  -825.234343

Spin contamination: 27.943864 electrons
Showing only first 2 kpts
                      Up                     Down
 Kpt  Band  Eigenvalues  Occupancy  Eigenvalues  Occupancy
  0   470      9.16495    0.99389     10.03591    0.02616
  0   471      9.17552    0.99322     10.04633    0.02363
  0   472      9.18792    0.99233     10.06148    0.02037
  0   473      9.19695    0.99161     10.06831    0.01905

  1   470      9.15810    0.99430     10.04342    0.02431
  1   471      9.17714    0.99311     10.05177    0.02241
  1   472      9.18423    0.99261     10.05935    0.02080
  1   473      9.21119    0.99034     10.06716    0.01927

Fermi level: 9.67419

No gap

Forces in eV/Ang:
  0 Co    0.23195   -0.46953    0.21792
  1 Fe    0.28922   -0.43608    0.21465
  2 Fe   -0.16089   -0.13515   -0.53534
  3 Al    0.19163   -0.36654   -0.38667
  4 Fe    0.33244   -0.00282   -0.84378
  5 Co   -0.00542    0.40292   -0.15814
  6 Fe    0.14020    0.37456   -0.78046
  7 Cr   -1.07245   -0.96140   -0.84708
  8 Fe   -0.53023    0.57891   -0.50502
  9 Al   -0.22224   -0.51034   -1.18417
 10 Ni   -0.15391   -0.22535   -0.37271
 11 Ni   -0.19895   -0.34378   -0.43455
 12 Ni   -0.29265    0.60373    0.06297
 13 Al    0.80717   -0.05901   -0.15573
 14 Fe    0.80015    0.24328    0.84059
 15 Fe   -0.20765    0.17972   -0.31673
 16 Fe    0.47448   -0.24878    0.27300
 17 Fe   -0.47632   -0.67416    0.71135
 18 Ni   -0.47147   -0.22538    0.04382
 19 Fe    0.61263   -0.36882    0.29813
 20 Ni   -0.09595   -0.08987   -0.44838
 21 Co    0.04693    0.55809    0.08163
 22 Al    0.28495    0.12896   -0.49347
 23 Fe   -0.61038    0.78970   -0.55857
 24 Co    0.48325   -0.00957   -0.15379
 25 Co    0.37916   -0.12195   -0.24457
 26 Cr   -0.66915    0.15531   -0.28133
 27 Ni    0.69107    0.37987   -0.24323
 28 Al   -1.09082    0.13640    0.12573
 29 Al   -0.61749    0.18890   -0.94423
 30 Ni   -0.03386    0.06769    0.45924
 31 Cr    0.69241    0.94112   -0.62750
 32 Co    0.47324   -0.21157    0.21214
 33 Cr   -0.06790   -0.07232   -0.48259
 34 Cr   -0.53483    0.31136   -0.04326
 35 Fe   -0.20774   -0.07412    0.35429
 36 Cr    0.07599   -0.70888   -0.77700
 37 Al    0.03409   -0.22746   -0.07471
 38 Ni    0.30222   -0.02596    0.11448
 39 Co    0.43025    0.51912   -0.19304
 40 Al   -0.61480    1.01388   -0.28641
 41 Cr   -0.66241    1.25627    0.14631
 42 Al    0.15289   -0.12359    0.77020
 43 Fe   -0.68212    0.66406    0.09579
 44 Al    0.98408   -0.21205    0.07205
 45 Fe    0.20472    0.70101    0.50564
 46 Co   -0.05555   -0.29693   -0.01862
 47 Ni   -0.06932   -0.18867    0.09641
 48 Ni    0.49535    0.33294   -0.08630
 49 Ni    0.23498    0.31316   -0.41850
 50 Fe    0.83859    0.31250   -0.32448
 51 Fe    1.20410   -0.03223    0.42236
 52 Co   -0.27198   -0.07725    0.21875
 53 Cr   -0.33563   -0.68875    0.05550
 54 Cr    0.19660    0.23612    0.26225
 55 Cr    0.07588   -0.66863    0.21575
 56 Cr   -0.68234    0.65227    1.21392
 57 Co    0.27697    0.20278    0.14354
 58 Fe   -0.60970    0.33191    0.12197
 59 Co   -0.46842    0.60536    0.53688
[...]
 93 Ni    0.31461   -0.19225   -0.19786
 94 Cr    0.35584    0.21870    0.40193
 95 Al   -1.30914    0.04751   -0.86223
 96 Cr    0.19553    0.39145    0.80178
 97 Cr    0.60028   -0.08880    0.47725
 98 Co   -0.00998    0.10916   -0.16194
 99 Co    0.19362   -0.29332    0.32540
100 Co   -0.34268    0.49483    0.01791
101 Cr   -0.54563    1.00451    0.10749
102 Al    1.11977   -0.00575   -1.35374
103 Fe   -0.25734   -0.34802    0.66656
104 Fe    0.01185   -0.12056   -0.61239
105 Ni   -0.05029    0.12784   -0.02331
106 Cr   -0.71210    0.45852    0.35785
107 Co   -0.40427   -0.18069   -0.20834

Date: Sat Apr 15 03:37:38 2023