User:   c.zeng@d0024
Date:   Sat Apr 15 12:58:01 2023
Arch:   x86_64
Pid:    57097
CWD:    /home/c.zeng/projects/hea-corrosion/hea-mlp/data-curation/bulk-mcmc/dft-jobs/4
Python: 3.8.1
gpaw:   /home/c.zeng/usr/installs/gpaw/source/gpaw-22.8.0/gpaw
_gpaw:  /home/c.zeng/usr/installs/gpaw/source/gpaw-22.8.0/
        _gpaw.cpython-38-x86_64-linux-gnu.so
ase:    /home/c.zeng/.local/lib/python3.8/site-packages/ase-3.22.1-py3.8.egg/ase (version 3.22.1)
numpy:  /shared/centos7/python/3.8.1/lib/python3.8/site-packages/numpy (version 1.17.4)
scipy:  /shared/centos7/python/3.8.1/lib/python3.8/site-packages/scipy (version 1.4.1)
units:  Angstrom and eV
cores: 30
OpenMP: False
OMP_NUM_THREADS: 1

Input parameters:
  convergence: {energy: 0.0001}
  kpts: [2 2 2]
  maxiter: 666
  mode: {ecut: 350.0,
         name: pw}
  occupations: {fixmagmom: False,
                name: fermi-dirac,
                width: 0.1}
  spinpol: True
  xc: PBE

System changes: positions, numbers, cell, pbc, initial_charges, initial_magmoms

Initialize ...

species:
  Co:
    name: Cobalt
    id: 339d20d5b0b93d2de9531a1bee871d91
    Z: 27.0
    valence: 9
    core: 18
    charge: 0.0
    file: /home/c.zeng/usr/data/gpaw-setups-0.9.20000/Co.PBE.gz
    compensation charges: {type: gauss,
                           rc: 0.32,
                           lmax: 2}
    cutoffs: {filter: 1.87,
              core: 2.55}
    valence states:
      #              energy  rcut
      - 4s(2.00)    -5.469   1.005
      - 4p(0.00)    -1.277   1.058
      - 3d(7.00)    -8.205   1.005
      -  s          21.742   1.005
      -  p          25.934   1.058
      -  d          19.007   1.005

    # Using partial waves for Co as LCAO basis

  Fe:
    name: Iron
    id: 37abbd8d6c3c35915a9b583b742da910
    Z: 26.0
    valence: 8
    core: 18
    charge: 0.0
    file: /home/c.zeng/usr/data/gpaw-setups-0.9.20000/Fe.PBE.gz
    compensation charges: {type: gauss,
                           rc: 0.33,
                           lmax: 2}
    cutoffs: {filter: 2.06,
              core: 2.67}
    valence states:
      #              energy  rcut
      - 4s(2.00)    -5.291   1.164
      - 4p(0.00)    -1.326   1.058
      - 3d(6.00)    -7.505   1.058
      -  s          21.920   1.164
      -  p          25.885   1.058
      -  d          19.706   1.058

[...]

  Ni:
    name: Nickel
    id: 0d9f38a9d6e76a2886f07bb4381f212b
    Z: 28.0
    valence: 16
    core: 12
    charge: 0.0
    file: /home/c.zeng/usr/data/gpaw-setups-0.9.20000/Ni.PBE.gz
    compensation charges: {type: gauss,
                           rc: 0.36,
                           lmax: 2}
    cutoffs: {filter: 2.14,
              core: 1.98}
    valence states:
      #              energy  rcut
      - 4s(2.00)    -5.642   1.164
      - 3p(6.00)   -71.394   1.207
      - 4p(0.00)    -1.226   1.207
      - 3d(8.00)    -8.875   1.138
      -  s          21.570   1.164
      -  d          18.337   1.138

[...]

  Cr:
    name: Chromium
    id: 33f258bda2ca9f93018e70263a35547b
    Z: 24.0
    valence: 6
    core: 18
    charge: 0.0
    file: /home/c.zeng/usr/data/gpaw-setups-0.9.20000/Cr.PBE.gz
    compensation charges: {type: gauss,
                           rc: 0.35,
                           lmax: 2}
    cutoffs: {filter: 2.14,
              core: 3.04}
    valence states:
      #              energy  rcut
      - 4s(1.00)    -4.007   1.164
      - 4p(0.00)    -0.989   1.217
      - 3d(5.00)    -2.913   1.111
      -  s          23.205   1.164
      -  p          26.223   1.217
      -  d          24.299   1.111

    # Using partial waves for Cr as LCAO basis

Reference energy: -3846758.590871  # eV

Spin-polarized calculation.
Magnetic moment: 151.200000

Convergence criteria:
 Maximum [total energy] change in last 3 cyles: 0.0001 eV / electron
 Maximum integral of absolute [dens]ity change: 0.0001 electrons / valence electron
 Maximum integral of absolute [eigenst]ate change: 4e-08 eV^2 / valence electron
 Maximum number of scf [iter]ations: 666
 (Square brackets indicate name in SCF output, whereas a 'c' in
 the SCF output indicates the quantity has converged.)

Symmetries present (total): 1

  ( 1  0  0)
  ( 0  1  0)
  ( 0  0  1)

8 k-points: 2 x 2 x 2 Monkhorst-Pack grid
4 k-points in the irreducible part of the Brillouin zone
       k-points in crystal coordinates                weights
   0:     0.25000000   -0.25000000   -0.25000000          2/8
   1:     0.25000000   -0.25000000    0.25000000          2/8
   2:     0.25000000    0.25000000   -0.25000000          2/8
   3:     0.25000000    0.25000000    0.25000000          2/8

Wave functions: Plane wave expansion
  Cutoff energy: 350.000 eV
  Number of coefficients (min, max): 17755, 17755
  Pulay-stress correction: 0.000000 eV/Ang^3 (de/decut=0.000000)
  Using FFTW library
  ScaLapack parameters: grid=1x1, blocksize=None
  Wavefunction extrapolation:
    Improved wavefunction reuse through dual PAW basis

Occupation numbers: Fermi-Dirac:
  width: 0.1000  # eV

Eigensolver
   Davidson(niter=2)

Densities:
  Coarse grid: 48*48*48 grid
  Fine grid: 96*96*96 grid
  Total Charge: 0.000000

Density mixing:
  Method: difference
  Backend: pulay
  Linear mixing parameter: 0.05
  old densities: 5
  Damping of long wavelength oscillations: 50

Hamiltonian:
  XC and Coulomb potentials evaluated on a 96*96*96 grid
  Using the PBE Exchange-Correlation functional
  External potential:
    NoExternalPotential

XC parameters: PBE with 2 nearest neighbor stencil

Total number of cores used: 30
Parallelization over k-points: 2
Domain decomposition: 5 x 3 x 1

Number of atoms: 108
Number of atomic orbitals: 1053
Number of bands in calculation: 727
Number of valence electrons: 1053
Bands to converge: occupied

... initialized

Initializing position-dependent things.

Density initialized from atomic densities
Creating initial wave functions:
  727 bands from LCAO basis set

       /|  Cr       Cr      Cr    |
      / |   NiFe     Cr           |
     /  |       Co      Fe       Fe
    /   |Cr      CFe       Co     Ni
   /    | Co       Ni       NFe   |
  /  CCo|  FeCr     CoNi          |
 *    NiCr    FeNi   FeNiCo       |
 |      |CoCr   FeFeNi  CoNiFe   Cr
 |      | CrCo     CoCrFeCrCrNi   |
 |    Co|  CoFeNi   CoNiFe   NiCo |
 |      Cr    CrNiNi NiNiNi     Ni|
 |      |FeFe  CoFeCr   FeCrFe   Ni
 |      .-FeCo-----CrNiFe--NiNi---Co
 |   Cro     Fe       Cr         /
 |    CrCo     Cor     CNie     /
 |   /    Co               Cr  /
 |  /      Fe       Fe    NiFe/
 | / Fe     Ni       CrCr    /
 |/            Co       Cr  /
 *--------Co------Co-------*

Positions:
   0 Co    -0.012479   -0.003723   10.616104    ( 0.0000,  0.0000,  2.1000)
   1 Fe    -0.011321    1.761305    1.763386    ( 0.0000,  0.0000,  2.1000)
   2 Fe     1.758365    0.001326    1.769011    ( 0.0000,  0.0000,  2.0000)
   3 Co     1.752686    1.779222   10.610436    ( 0.0000,  0.0000,  2.0000)
   4 Co     3.541196    0.004726   10.616104    ( 0.0000,  0.0000,  0.0000)
   5 Fe     3.534711    1.782438    1.778999    ( 0.0000,  0.0000,  0.0000)
   6 Ni     5.305717   10.600629    1.767950    ( 0.0000,  0.0000,  2.1000)
   7 Co     5.324780    1.765604   10.614618    ( 0.0000,  0.0000,  0.0000)
   8 Co     7.089121    0.014598   10.619926    ( 0.0000,  0.0000,  2.0000)
   9 Fe     7.085279    1.771219    1.773543    ( 0.0000,  0.0000,  1.5000)
  10 Cr     8.850554    0.011470    1.768756    ( 0.0000,  0.0000,  1.5000)
  11 Cr     8.842381    1.777333   10.615680    ( 0.0000,  0.0000,  2.1000)
  12 Fe    10.590535    3.538203   -0.001956    ( 0.0000,  0.0000,  0.0000)
  13 Cr    10.624277    5.310674    1.769786    ( 0.0000,  0.0000,  2.0000)
  14 Co     1.761379    3.535623    1.784572    ( 0.0000,  0.0000,  0.0000)
  15 Cr     1.770200    5.301408   10.611753    ( 0.0000,  0.0000,  2.0000)
  16 Ni     3.556003    3.551407   10.618333    ( 0.0000,  0.0000,  1.5000)
  17 Fe     3.539370    5.311290    1.775199    ( 0.0000,  0.0000,  2.1000)
  18 Cr     5.320142    3.545059    1.779678    ( 0.0000,  0.0000,  1.5000)
  19 Fe     5.306980    5.314654   10.602720    ( 0.0000,  0.0000,  0.0000)
  20 Cr     7.081585    3.529127   10.614725    ( 0.0000,  0.0000,  2.1000)
  21 Cr     7.069241    5.303361    1.781271    ( 0.0000,  0.0000,  1.5000)
  22 Fe     8.841447    3.542671    1.781600    ( 0.0000,  0.0000,  2.1000)
  23 Ni     8.850893    5.290379    0.000220    ( 0.0000,  0.0000,  0.0000)
  24 Cr     0.005868    7.083411   10.614937    ( 0.0000,  0.0000,  2.0000)
  25 Ni    10.601043    8.849694    1.772960    ( 0.0000,  0.0000,  2.1000)
  26 Fe     1.773713    7.072329    1.777184    ( 0.0000,  0.0000,  0.0000)
  27 Cr     1.755520    8.842943   10.608324    ( 0.0000,  0.0000,  0.0000)
  28 Fe     3.544009    7.063116   10.610489    ( 0.0000,  0.0000,  2.0000)
  29 Co     3.542225    8.826820    1.785580    ( 0.0000,  0.0000,  0.0000)
  30 Cr     5.309835    7.081776    1.776600    ( 0.0000,  0.0000,  2.1000)
  31 Cr     5.331945    8.840321   10.604673    ( 0.0000,  0.0000,  2.1000)
  32 Co     7.068434    7.069028   10.623110    ( 0.0000,  0.0000,  0.0000)
  33 Fe     7.083750    8.846796    1.774509    ( 0.0000,  0.0000,  1.5000)
  34 Ni     8.841404    7.058180    1.777173    ( 0.0000,  0.0000,  1.5000)
  35 Cr     8.835524    8.853600   10.611753    ( 0.0000,  0.0000,  0.0000)
  36 Cr    -0.009351   10.618864    3.531070    ( 0.0000,  0.0000,  2.0000)
  37 Fe    10.602508    1.764818    5.300452    ( 0.0000,  0.0000,  1.5000)
  38 Cr     1.756720    0.001379    5.295867    ( 0.0000,  0.0000,  0.0000)
  39 Co     1.766506    1.767154    3.539222    ( 0.0000,  0.0000,  2.0000)
  40 Co     3.539742    0.013881    3.542873    ( 0.0000,  0.0000,  2.0000)
  41 Fe     3.548944    1.788658    5.306237    ( 0.0000,  0.0000,  2.1000)
  42 Fe     5.320174   -0.004685    5.301386    ( 0.0000,  0.0000,  0.0000)
  43 Co     5.316862    1.765551    3.538935    ( 0.0000,  0.0000,  2.0000)
  44 Cr     7.081086   -0.000289    3.531325    ( 0.0000,  0.0000,  2.0000)
  45 Cr     7.072902    1.777407    5.300537    ( 0.0000,  0.0000,  2.0000)
  46 Fe     8.840544    0.012372    5.307851    ( 0.0000,  0.0000,  1.5000)
  47 Ni     8.833592    1.767928    3.534318    ( 0.0000,  0.0000,  2.1000)
  48 Ni    -0.004066    3.525285    3.545951    ( 0.0000,  0.0000,  0.0000)
  49 Co    -0.001689    5.317934    5.307787    ( 0.0000,  0.0000,  1.5000)
  50 Cr     1.769043    3.555101    5.297279    ( 0.0000,  0.0000,  2.0000)
  51 Fe     1.773692    5.305929    3.538266    ( 0.0000,  0.0000,  2.1000)
  52 Co     3.542746    3.537364    3.547575    ( 0.0000,  0.0000,  2.1000)
  53 Fe     3.548477    5.306927    5.301153    ( 0.0000,  0.0000,  2.0000)
  54 Ni     5.316246    3.553031    5.303637    ( 0.0000,  0.0000,  2.0000)
  55 Fe     5.303286    5.303531    3.542385    ( 0.0000,  0.0000,  1.5000)
  56 Ni     7.074962    3.533023    3.537215    ( 0.0000,  0.0000,  1.5000)
  57 Ni     7.066046    5.306046    5.300081    ( 0.0000,  0.0000,  2.0000)
  58 Ni     8.834526    3.538160    5.294530    ( 0.0000,  0.0000,  2.1000)
  59 Cr     8.846255    5.300452    3.537672    ( 0.0000,  0.0000,  1.5000)
[...]
  93 Ni     7.071130    5.304220    8.839313    ( 0.0000,  0.0000,  1.5000)
  94 Co     8.837997    3.524669    8.843389    ( 0.0000,  0.0000,  1.5000)
  95 Ni     8.833772    5.299051    7.076862    ( 0.0000,  0.0000,  0.0000)
  96 Ni     0.012168    7.080333    7.083835    ( 0.0000,  0.0000,  1.5000)
  97 Fe    -0.017034    8.848707    8.843941    ( 0.0000,  0.0000,  2.1000)
  98 Co     1.777938    7.075503    8.840194    ( 0.0000,  0.0000,  2.0000)
  99 Fe     1.758800    8.840035    7.069803    ( 0.0000,  0.0000,  0.0000)
 100 Fe     3.549921    7.066194    7.070090    ( 0.0000,  0.0000,  2.1000)
 101 Co     3.553137    8.839111    8.836776    ( 0.0000,  0.0000,  0.0000)
 102 Ni     5.304189    7.079929    8.840215    ( 0.0000,  0.0000,  2.0000)
 103 Co     5.321946    8.832180    7.082997    ( 0.0000,  0.0000,  2.1000)
 104 Ni     7.057077    7.072149    7.064167    ( 0.0000,  0.0000,  1.5000)
 105 Fe     7.082402    8.855500    8.837487    ( 0.0000,  0.0000,  2.1000)
 106 Co     8.846786    7.077881    8.846732    ( 0.0000,  0.0000,  0.0000)
 107 Ni     8.839313    8.848272    7.075153    ( 0.0000,  0.0000,  0.0000)

Unit cell:
           periodic     x           y           z      points  spacing
  1. axis:    yes   10.614300    0.000000    0.000000    48     0.2211
  2. axis:    yes    0.000000   10.614300    0.000000    48     0.2211
  3. axis:    yes    0.000000    0.000000   10.614300    48     0.2211

  Lengths:  10.614300  10.614300  10.614300
  Angles:   90.000000  90.000000  90.000000

Effective grid spacing dv^(1/3) = 0.2211

     iter     time        total  log10-change:  magmom
                         energy  eigst   dens
iter:   1 13:04:27  -940.671241                  +151.0994
iter:   2 13:07:28  -947.017313  -0.58  -1.38    +116.6605
iter:   3 13:10:29  -914.912368  -1.01  -1.33    +87.7491
iter:   4 13:13:30  -894.734925  -1.44  -1.41    +73.1622
iter:   5 13:16:32  -890.119717  -1.94  -1.49    +64.9580
iter:   6 13:19:33  -893.587295  -2.06  -1.54    +60.9256
iter:   7 13:22:34  -894.016387  -1.85  -1.55    +58.8645
iter:   8 13:25:35  -886.638209  -1.68  -1.58    +57.0477
iter:   9 13:28:36  -891.186709  -1.92  -1.83    +56.6729
iter:  10 13:31:38  -888.211723  -2.23  -1.83    +55.9757
iter:  11 13:34:39  -887.825672  -2.60  -1.90    +56.2239
iter:  12 13:37:39  -887.412276  -2.84  -1.94    +56.6099
iter:  13 13:40:39  -888.103214  -2.91  -1.99    +57.1061
iter:  14 13:43:38  -890.380575  -2.60  -2.02    +57.4594
iter:  15 13:46:40  -889.493407  -2.56  -1.99    +57.7552
iter:  16 13:49:41  -892.263939  -2.44  -2.08    +58.3775
iter:  17 13:52:43  -889.674586  -2.61  -1.97    +58.2017
iter:  18 13:55:44  -890.118019  -2.69  -2.18    +58.6057
iter:  19 13:58:46  -888.969287  -3.03  -2.15    +58.7862
iter:  20 14:01:47  -889.183861  -3.31  -2.31    +59.3573
iter:  21 14:04:47  -889.187039  -3.37  -2.35    +59.9736
iter:  22 14:07:49  -889.387739  -3.38  -2.38    +60.3183
iter:  23 14:10:49  -889.354174  -3.49  -2.36    +61.0582
iter:  24 14:13:51  -889.848960  -3.24  -2.45    +61.5663
iter:  25 14:16:52  -889.598526  -3.29  -2.38    +61.9259
iter:  26 14:19:53  -889.753719  -3.38  -2.49    +62.3809
iter:  27 14:22:54  -889.739639  -3.43  -2.50    +62.6304
iter:  28 14:25:52  -889.819801c -3.50  -2.52    +63.2008
iter:  29 14:28:53  -889.716366c -3.78  -2.54    +63.4884
iter:  30 14:31:55  -889.760371c -4.03  -2.64    +64.0440
iter:  31 14:34:56  -889.805654c -4.24  -2.67    +64.4223
iter:  32 14:37:58  -889.857560c -4.31  -2.69    +64.8931
iter:  33 14:40:59  -890.063911  -3.39  -2.70    +66.5520
iter:  34 14:44:00  -890.096742  -4.07  -2.64    +66.7489
iter:  35 14:47:01  -890.098012c -4.55  -2.62    +66.8362
iter:  36 14:50:03  -890.124195c -4.41  -2.63    +67.0737
iter:  37 14:53:03  -890.142560c -4.87  -2.60    +67.1043
iter:  38 14:56:05  -890.450362  -3.31  -2.59    +67.3300
iter:  39 14:59:06  -890.173233  -3.65  -2.44    +67.1668
iter:  40 15:02:06  -890.160797  -4.00  -2.64    +67.2100
iter:  41 15:05:07  -890.177981c -3.81  -2.67    +67.2471
iter:  42 15:08:08  -890.466306  -3.30  -2.70    +67.0976
iter:  43 15:11:08  -890.126071  -3.63  -2.52    +66.9877
iter:  44 15:14:09  -890.108291  -4.09  -2.81    +67.0886
iter:  45 15:17:08  -890.081240c -4.34  -2.87    +67.0738
iter:  46 15:20:06  -890.064979c -4.48  -2.94    +67.0604
iter:  47 15:23:08  -890.057237c -5.13  -3.06    +67.0196
iter:  48 15:26:09  -890.063747c -5.09  -3.13    +67.0512
iter:  49 15:29:10  -890.070017c -4.70  -3.11    +67.0172
iter:  50 15:32:11  -890.067225c -4.81  -3.07    +66.9998
iter:  51 15:35:13  -890.077917c -4.65  -3.12    +67.0142
iter:  52 15:38:14  -890.075032c -4.61  -3.11    +67.0304
iter:  53 15:41:15  -890.065241c -4.73  -3.13    +67.0626
iter:  54 15:44:16  -890.062122c -5.18  -3.20    +67.0146
iter:  55 15:47:17  -890.061971c -5.16  -3.29    +67.0256
iter:  56 15:50:18  -890.059603c -5.55  -3.32    +67.0146
iter:  57 15:53:18  -890.059753c -5.79  -3.38    +67.0020
iter:  58 15:56:19  -890.063211c -5.43  -3.40    +66.9894
iter:  59 15:59:20  -890.066401c -5.09  -3.38    +66.9823
iter:  60 16:02:21  -890.064211c -5.27  -3.32    +67.0036
iter:  61 16:05:19  -890.064450c -5.18  -3.38    +66.9828
iter:  62 16:08:17  -890.063392c -5.26  -3.39    +66.9754
iter:  63 16:11:18  -890.062090c -5.63  -3.42    +66.9867
iter:  64 16:14:20  -890.061215c -6.04  -3.55    +66.9932
iter:  65 16:17:21  -890.061570c -6.03  -3.60    +66.9985
iter:  66 16:20:22  -890.061610c -6.44  -3.60    +66.9906
iter:  67 16:23:23  -890.063228c -5.92  -3.64    +66.9955
iter:  68 16:26:24  -890.064269c -5.57  -3.59    +66.9894
iter:  69 16:29:26  -890.063845c -5.52  -3.54    +66.9796
iter:  70 16:32:27  -890.063831c -5.60  -3.56    +66.9718
iter:  71 16:35:29  -890.064405c -5.62  -3.63    +66.9671
iter:  72 16:38:30  -890.062890c -5.92  -3.62    +66.9867
iter:  73 16:41:31  -890.062601c -6.54  -3.77    +66.9773
iter:  74 16:44:32  -890.062801c -6.87  -3.83    +66.9739
iter:  75 16:47:33  -890.063180c -6.80  -3.85    +66.9697
iter:  76 16:50:33  -890.063351c -6.23  -3.86    +66.9699
iter:  77 16:53:34  -890.063738c -6.14  -3.78    +66.9669
iter:  78 16:56:35  -890.064478c -5.80  -3.86    +66.9526
iter:  79 16:59:36  -890.064276c -5.98  -3.75    +66.9596
iter:  80 17:02:31  -890.063981c -6.05  -3.89    +66.9672
iter:  81 17:05:32  -890.063402c -6.52  -3.91    +66.9637
iter:  82 17:08:33  -890.063650c -6.73  -4.19c   +66.9623
iter:  83 17:11:34  -890.063608c -7.57c -4.21c   +66.9629

Converged after 83 iterations.

Dipole moment: (6.388609, -2.129068, 0.811182) |e|*Ang

Total magnetic moment: (0.000000, 0.000000, 66.962875)
Local magnetic moments:
   0 Co ( 0.000000,  0.000000,  0.360318)
   1 Fe ( 0.000000,  0.000000,  2.007727)
   2 Fe ( 0.000000,  0.000000,  2.273291)
   3 Co ( 0.000000,  0.000000,  1.189716)
   4 Co ( 0.000000,  0.000000,  1.137682)
   5 Fe ( 0.000000,  0.000000,  2.382382)
   6 Ni ( 0.000000,  0.000000,  0.354369)
   7 Co ( 0.000000,  0.000000,  0.781523)
   8 Co ( 0.000000,  0.000000,  0.271801)
   9 Fe ( 0.000000,  0.000000,  1.854973)
  10 Cr ( 0.000000,  0.000000,  0.788440)
  11 Cr ( 0.000000,  0.000000, -1.329575)
  12 Fe ( 0.000000,  0.000000,  1.895456)
  13 Cr ( 0.000000,  0.000000, -0.848873)
  14 Co ( 0.000000,  0.000000,  1.283960)
  15 Cr ( 0.000000,  0.000000, -0.242454)
  16 Ni ( 0.000000,  0.000000,  0.217012)
  17 Fe ( 0.000000,  0.000000,  1.772364)
  18 Cr ( 0.000000,  0.000000, -1.367382)
  19 Fe ( 0.000000,  0.000000,  1.952080)
  20 Cr ( 0.000000,  0.000000, -0.685411)
  21 Cr ( 0.000000,  0.000000,  0.474821)
  22 Fe ( 0.000000,  0.000000,  1.638053)
  23 Ni ( 0.000000,  0.000000,  0.191308)
  24 Cr ( 0.000000,  0.000000,  0.586794)
  25 Ni ( 0.000000,  0.000000,  0.105492)
  26 Fe ( 0.000000,  0.000000,  1.794891)
  27 Cr ( 0.000000,  0.000000, -1.492677)
  28 Fe ( 0.000000,  0.000000,  1.672358)
  29 Co ( 0.000000,  0.000000,  1.078283)
  30 Cr ( 0.000000,  0.000000, -0.811259)
  31 Cr ( 0.000000,  0.000000, -1.003710)
  32 Co ( 0.000000,  0.000000,  0.994058)
  33 Fe ( 0.000000,  0.000000,  2.010721)
  34 Ni ( 0.000000,  0.000000,  0.047186)
  35 Cr ( 0.000000,  0.000000, -1.433511)
  36 Cr ( 0.000000,  0.000000, -1.300196)
  37 Fe ( 0.000000,  0.000000,  2.201452)
  38 Cr ( 0.000000,  0.000000, -1.608702)
  39 Co ( 0.000000,  0.000000,  1.069084)
  40 Co ( 0.000000,  0.000000,  1.227146)
  41 Fe ( 0.000000,  0.000000,  2.365793)
  42 Fe ( 0.000000,  0.000000,  2.261335)
  43 Co ( 0.000000,  0.000000,  1.135251)
  44 Cr ( 0.000000,  0.000000, -1.586847)
  45 Cr ( 0.000000,  0.000000,  0.600211)
  46 Fe ( 0.000000,  0.000000,  1.888641)
  47 Ni ( 0.000000,  0.000000,  0.076521)
  48 Ni ( 0.000000,  0.000000,  0.330428)
  49 Co ( 0.000000,  0.000000,  1.076681)
  50 Cr ( 0.000000,  0.000000, -1.854396)
  51 Fe ( 0.000000,  0.000000,  1.917230)
  52 Co ( 0.000000,  0.000000,  1.035974)
  53 Fe ( 0.000000,  0.000000,  2.063385)
  54 Ni ( 0.000000,  0.000000,  0.376367)
  55 Fe ( 0.000000,  0.000000,  1.850965)
  56 Ni ( 0.000000,  0.000000,  0.225068)
  57 Ni ( 0.000000,  0.000000,  0.279400)
  58 Ni ( 0.000000,  0.000000,  0.260013)
  59 Cr ( 0.000000,  0.000000,  0.821750)
[...]
  93 Ni ( 0.000000,  0.000000,  0.291743)
  94 Co ( 0.000000,  0.000000,  0.908796)
  95 Ni ( 0.000000,  0.000000,  0.324578)
  96 Ni ( 0.000000,  0.000000,  0.296104)
  97 Fe ( 0.000000,  0.000000,  2.122768)
  98 Co ( 0.000000,  0.000000,  1.051154)
  99 Fe ( 0.000000,  0.000000,  2.043323)
 100 Fe ( 0.000000,  0.000000,  2.045892)
 101 Co ( 0.000000,  0.000000,  1.208746)
 102 Ni ( 0.000000,  0.000000,  0.370446)
 103 Co ( 0.000000,  0.000000,  1.327991)
 104 Ni ( 0.000000,  0.000000,  0.466517)
 105 Fe ( 0.000000,  0.000000,  2.207696)
 106 Co ( 0.000000,  0.000000,  1.283973)
 107 Ni ( 0.000000,  0.000000,  0.419177)

Energy contributions relative to reference atoms: (reference = -3846758.590871)

Kinetic:       +122.403625
Potential:     -189.120756
External:        +0.000000
XC:            -861.170114
Entropy (-ST):   -4.659828
Local:          +40.153551
Free energy:   -892.393522
Extrapolated:  -890.063608

Spin contamination: 29.416984 electrons
Showing only first 2 kpts
                      Up                     Down
 Kpt  Band  Eigenvalues  Occupancy  Eigenvalues  Occupancy
  0   524      9.83160    0.99382     10.72808    0.02013
  0   525      9.84254    0.99311     10.74922    0.01636
  0   526      9.85058    0.99253     10.75868    0.01490
  0   527      9.86690    0.99122     10.76801    0.01359

  1   524      9.82508    0.99420     10.73764    0.01833
  1   525      9.83379    0.99368     10.74619    0.01685
  1   526      9.85294    0.99236     10.76670    0.01377
  1   527      9.85757    0.99200     10.77111    0.01318

Fermi level: 10.33956

No gap

Forces in eV/Ang:
  0 Co   -0.01865   -0.06701    0.06830
  1 Fe    0.37036    0.42423    0.12790
  2 Fe    0.01434   -0.36448    0.08869
  3 Co    0.06601    0.06836    0.05021
  4 Co   -0.11291   -0.12612   -0.14030
  5 Fe    0.19172    0.00351   -0.11342
  6 Ni    0.00226    0.09968   -0.13704
  7 Co    0.10685    0.10406    0.15814
  8 Co   -0.15687   -0.07471    0.19852
  9 Fe   -0.50123    0.09416    0.00644
 10 Cr    0.37512    0.06818   -0.11381
 11 Cr    0.04930   -0.08547   -0.22203
 12 Fe    0.24872    0.35494   -0.03242
 13 Cr    0.01895   -0.34211   -0.06478
 14 Co   -0.00791   -0.05209   -0.17769
 15 Cr    0.11598    0.15799    0.12733
 16 Ni   -0.19889   -0.21642   -0.00216
 17 Fe   -0.01798   -0.30999   -0.03138
 18 Cr   -0.22879   -0.08369    0.32662
 19 Fe   -0.02360   -0.14327   -0.10947
 20 Cr   -0.13414    0.24433   -0.62984
 21 Cr    0.49692    0.29796   -0.21652
 22 Fe   -0.16993   -0.17057   -0.08640
 23 Ni   -0.05083    0.14432   -0.06680
 24 Cr   -0.14030   -0.42877   -0.44755
 25 Ni    0.28875   -0.07802   -0.01591
 26 Fe    0.18707    0.55998    0.10163
 27 Cr    0.25838   -0.25747    0.02333
 28 Fe   -0.12867    0.37266   -0.08193
 29 Co   -0.01656    0.17320    0.08784
 30 Cr   -0.19027    0.12060   -0.12841
 31 Cr   -0.19638   -0.06409    0.24315
 32 Co    0.22256    0.10610   -0.09697
 33 Fe   -0.28884   -0.16950   -0.24090
 34 Ni   -0.19719    0.02235   -0.15447
 35 Cr   -0.08192   -0.00002   -0.14497
 36 Cr   -0.23380    0.08258   -0.17425
 37 Fe    0.30448    0.01704    0.02932
 38 Cr    0.31410   -0.11342    0.03570
 39 Co    0.07519    0.21435    0.05993
 40 Co   -0.03151   -0.34798   -0.13912
 41 Fe   -0.18529   -0.05940    0.00008
 42 Fe   -0.09438   -0.18738    0.23728
 43 Co   -0.15317    0.18291    0.12847
 44 Cr   -0.01550   -0.03506    0.14233
 45 Cr    0.03748    0.00552   -0.13761
 46 Fe   -0.13561   -0.18366   -0.12231
 47 Ni    0.04004    0.14675   -0.00872
 48 Ni    0.12404    0.06173   -0.10239
 49 Co    0.12157    0.17901   -0.09145
 50 Cr    0.05438   -0.14431    0.29368
 51 Fe   -0.32448   -0.22604   -0.03662
 52 Co   -0.06781    0.06999   -0.15373
 53 Fe   -0.09253   -0.17656    0.02158
 54 Ni   -0.06289   -0.19300   -0.12405
 55 Fe    0.09952   -0.07471    0.12078
 56 Ni   -0.02154   -0.16693    0.10701
 57 Ni    0.06027   -0.04491   -0.02396
 58 Ni    0.00577    0.09751    0.01064
 59 Cr    0.13969   -0.11593    0.05503
[...]
 93 Ni    0.14882    0.03667    0.22624
 94 Co   -0.04219    0.16680    0.27873
 95 Ni    0.15264    0.15173   -0.03196
 96 Ni   -0.10552   -0.16564   -0.00959
 97 Fe    0.02320   -0.08254    0.03055
 98 Co   -0.01842   -0.10970    0.04048
 99 Fe    0.42649    0.18105    0.19826
100 Fe   -0.12073    0.20706    0.40296
101 Co   -0.14237    0.10367    0.00451
102 Ni    0.11417    0.16846    0.26070
103 Co   -0.09713    0.11745   -0.23019
104 Ni    0.26715    0.15523    0.07906
105 Fe   -0.11309   -0.22615    0.16939
106 Co   -0.04860   -0.14496    0.10491
107 Ni   -0.01047   -0.06750   -0.02953

Date: Sat Apr 15 17:11:57 2023