User:   c.zeng@d0007
Date:   Sat Apr 15 07:58:24 2023
Arch:   x86_64
Pid:    76634
CWD:    /home/c.zeng/projects/hea-corrosion/hea-mlp/data-curation/bulk-mcmc/dft-jobs/230
Python: 3.8.1
gpaw:   /home/c.zeng/usr/installs/gpaw/source/gpaw-22.8.0/gpaw
_gpaw:  /home/c.zeng/usr/installs/gpaw/source/gpaw-22.8.0/
        _gpaw.cpython-38-x86_64-linux-gnu.so
ase:    /home/c.zeng/.local/lib/python3.8/site-packages/ase-3.22.1-py3.8.egg/ase (version 3.22.1)
numpy:  /shared/centos7/python/3.8.1/lib/python3.8/site-packages/numpy (version 1.17.4)
scipy:  /shared/centos7/python/3.8.1/lib/python3.8/site-packages/scipy (version 1.4.1)
units:  Angstrom and eV
cores: 30
OpenMP: False
OMP_NUM_THREADS: 1

Input parameters:
  convergence: {energy: 0.0001}
  kpts: [2 2 2]
  maxiter: 666
  mode: {ecut: 350.0,
         name: pw}
  occupations: {fixmagmom: False,
                name: fermi-dirac,
                width: 0.1}
  spinpol: True
  xc: PBE

System changes: positions, numbers, cell, pbc, initial_charges, initial_magmoms

Initialize ...

species:
  Ni:
    name: Nickel
    id: 0d9f38a9d6e76a2886f07bb4381f212b
    Z: 28.0
    valence: 16
    core: 12
    charge: 0.0
    file: /home/c.zeng/usr/data/gpaw-setups-0.9.20000/Ni.PBE.gz
    compensation charges: {type: gauss,
                           rc: 0.36,
                           lmax: 2}
    cutoffs: {filter: 2.14,
              core: 1.98}
    valence states:
      #              energy  rcut
      - 4s(2.00)    -5.642   1.164
      - 3p(6.00)   -71.394   1.207
      - 4p(0.00)    -1.226   1.207
      - 3d(8.00)    -8.875   1.138
      -  s          21.570   1.164
      -  d          18.337   1.138

    # Using partial waves for Ni as LCAO basis

  Al:
    name: Aluminium
    id: 0292cae29f5d6237e50f6abdd43a7bdd
    Z: 13.0
    valence: 3
    core: 10
    charge: 0.0
    file: /home/c.zeng/usr/data/gpaw-setups-0.9.20000/Al.PBE.gz
    compensation charges: {type: gauss,
                           rc: 0.34,
                           lmax: 2}
    cutoffs: {filter: 1.91,
              core: 2.36}
    valence states:
      #              energy  rcut
      - 3s(2.00)    -7.753   1.085
      - 3p(1.00)    -2.712   1.085
      -  s          19.459   1.085
      -  p          24.499   1.085
      -  d           0.000   1.085

[...]

  Cr:
    name: Chromium
    id: 33f258bda2ca9f93018e70263a35547b
    Z: 24.0
    valence: 6
    core: 18
    charge: 0.0
    file: /home/c.zeng/usr/data/gpaw-setups-0.9.20000/Cr.PBE.gz
    compensation charges: {type: gauss,
                           rc: 0.35,
                           lmax: 2}
    cutoffs: {filter: 2.14,
              core: 3.04}
    valence states:
      #              energy  rcut
      - 4s(1.00)    -4.007   1.164
      - 4p(0.00)    -0.989   1.217
      - 3d(5.00)    -2.913   1.111
      -  s          23.205   1.164
      -  p          26.223   1.217
      -  d          24.299   1.111

[...]

  Co:
    name: Cobalt
    id: 339d20d5b0b93d2de9531a1bee871d91
    Z: 27.0
    valence: 9
    core: 18
    charge: 0.0
    file: /home/c.zeng/usr/data/gpaw-setups-0.9.20000/Co.PBE.gz
    compensation charges: {type: gauss,
                           rc: 0.32,
                           lmax: 2}
    cutoffs: {filter: 1.87,
              core: 2.55}
    valence states:
      #              energy  rcut
      - 4s(2.00)    -5.469   1.005
      - 4p(0.00)    -1.277   1.058
      - 3d(7.00)    -8.205   1.005
      -  s          21.742   1.005
      -  p          25.934   1.058
      -  d          19.007   1.005

[...]

  Fe:
    name: Iron
    id: 37abbd8d6c3c35915a9b583b742da910
    Z: 26.0
    valence: 8
    core: 18
    charge: 0.0
    file: /home/c.zeng/usr/data/gpaw-setups-0.9.20000/Fe.PBE.gz
    compensation charges: {type: gauss,
                           rc: 0.33,
                           lmax: 2}
    cutoffs: {filter: 2.06,
              core: 2.67}
    valence states:
      #              energy  rcut
      - 4s(2.00)    -5.291   1.164
      - 4p(0.00)    -1.326   1.058
      - 3d(6.00)    -7.505   1.058
      -  s          21.920   1.164
      -  p          25.885   1.058
      -  d          19.706   1.058

    # Using partial waves for Fe as LCAO basis

Reference energy: -3235165.067515  # eV

Spin-polarized calculation.
Magnetic moment: 121.100000

Convergence criteria:
 Maximum [total energy] change in last 3 cyles: 0.0001 eV / electron
 Maximum integral of absolute [dens]ity change: 0.0001 electrons / valence electron
 Maximum integral of absolute [eigenst]ate change: 4e-08 eV^2 / valence electron
 Maximum number of scf [iter]ations: 666
 (Square brackets indicate name in SCF output, whereas a 'c' in
 the SCF output indicates the quantity has converged.)

Symmetries present (total): 1

  ( 1  0  0)
  ( 0  1  0)
  ( 0  0  1)

8 k-points: 2 x 2 x 2 Monkhorst-Pack grid
4 k-points in the irreducible part of the Brillouin zone
       k-points in crystal coordinates                weights
   0:     0.25000000   -0.25000000   -0.25000000          2/8
   1:     0.25000000   -0.25000000    0.25000000          2/8
   2:     0.25000000    0.25000000   -0.25000000          2/8
   3:     0.25000000    0.25000000    0.25000000          2/8

Wave functions: Plane wave expansion
  Cutoff energy: 350.000 eV
  Number of coefficients (min, max): 19084, 19084
  Pulay-stress correction: 0.000000 eV/Ang^3 (de/decut=0.000000)
  Using FFTW library
  ScaLapack parameters: grid=1x1, blocksize=None
  Wavefunction extrapolation:
    Improved wavefunction reuse through dual PAW basis

Occupation numbers: Fermi-Dirac:
  width: 0.1000  # eV

Eigensolver
   Davidson(niter=2)

Densities:
  Coarse grid: 48*48*48 grid
  Fine grid: 96*96*96 grid
  Total Charge: 0.000000

Density mixing:
  Method: difference
  Backend: pulay
  Linear mixing parameter: 0.05
  old densities: 5
  Damping of long wavelength oscillations: 50

Hamiltonian:
  XC and Coulomb potentials evaluated on a 96*96*96 grid
  Using the PBE Exchange-Correlation functional
  External potential:
    NoExternalPotential

XC parameters: PBE with 2 nearest neighbor stencil

Total number of cores used: 30
Parallelization over k-points: 2
Domain decomposition: 5 x 3 x 1

Number of atoms: 108
Number of atomic orbitals: 933
Number of bands in calculation: 624
Number of valence electrons: 912
Bands to converge: occupied

... initialized

Initializing position-dependent things.

Density initialized from atomic densities
Creating initial wave functions:
  624 bands from LCAO basis set

        .--------Al----------------.
       /|           Fe             |
      / |    FeFe     Cr           |
     / Cr       Ni       Al        |
    /   |Fe      NiCo       Fe     |
   /    | NiNi      ACo            |
  /    Co  FerAlAl    Co Fe  CoAl  |
 *      Fe     AlCoAl   NiFe     Cr|
 |      |FeCr   NiFeFe   AlNiCr   Co
 |      | CoCr   AlCoCoAl NiCrFe   |
 |     Fe  Al CoCo  CrCr Cr  CrCr  |
 |      Cr  Cr NiNiCo CoNiCoAl   Fe|
 |      |NiCo   CoAlAl   CoNiFe   Fe
 |      .-FeCr-----NiNi-Al--NiFe---.
 |     Al  Cr CoCr    Al Co  Cr Ni/
 |    / Co              Ni       Cr
 |   /           Ali      NiFe  /
 |  /      Ni       Fe     CrAl/
 | /                   Fe     /r
 *--------------------------Ni

Positions:
   0 Ni    10.797848    0.093654    0.085777    ( 0.0000,  0.0000,  0.0000)
   1 Al    10.831824    1.844742    1.870716    ( 0.0000,  0.0000,  2.0000)
   2 Cr     1.786803   10.847372    1.827335    ( 0.0000,  0.0000,  0.0000)
   3 Co     1.769614    1.870531   -0.031264    ( 0.0000,  0.0000,  0.0000)
   4 Al     3.620857   10.822050   10.833629    ( 0.0000,  0.0000,  1.5000)
   5 Ni     3.571246    1.883176    1.708402    ( 0.0000,  0.0000,  0.0000)
   6 Co     5.521103   10.788063    1.666217    ( 0.0000,  0.0000,  0.0000)
   7 Al     5.520831    1.813973   10.830911    ( 0.0000,  0.0000,  1.5000)
   8 Al     7.330846    0.011025   10.815657    ( 0.0000,  0.0000,  2.0000)
   9 Fe     7.282018    1.809483    1.793250    ( 0.0000,  0.0000,  2.1000)
  10 Fe     9.029996    0.022005    1.811918    ( 0.0000,  0.0000,  1.5000)
  11 Fe     9.007196    1.868639   10.825714    ( 0.0000,  0.0000,  2.0000)
  12 Cr    10.861310    3.649723    0.014171    ( 0.0000,  0.0000,  2.0000)
  13 Ni    10.867442    5.463468    1.819235    ( 0.0000,  0.0000,  2.1000)
  14 Co     1.756088    3.650267    1.845949    ( 0.0000,  0.0000,  0.0000)
  15 Fe     1.790358    5.439092   10.869084    ( 0.0000,  0.0000,  2.1000)
  16 Ni     3.687842    3.622792   -0.049287    ( 0.0000,  0.0000,  2.0000)
  17 Co     3.667347    5.391145    1.745368    ( 0.0000,  0.0000,  0.0000)
  18 Al     5.497977    3.634415    1.792370    ( 0.0000,  0.0000,  2.0000)
  19 Ni     5.524908    5.448029    0.002551    ( 0.0000,  0.0000,  2.0000)
  20 Co     7.223340    3.611877   10.834270    ( 0.0000,  0.0000,  0.0000)
  21 Al     7.217762    5.474830    1.807776    ( 0.0000,  0.0000,  2.1000)
  22 Ni     9.073442    3.654344    1.775148    ( 0.0000,  0.0000,  0.0000)
  23 Cr     9.008740    5.418608    0.007692    ( 0.0000,  0.0000,  2.0000)
  24 Cr    10.859190    7.178720    0.014480    ( 0.0000,  0.0000,  1.5000)
  25 Fe    -0.018106    8.970948    1.875391    ( 0.0000,  0.0000,  0.0000)
  26 Fe     1.817615    7.224025    1.802546    ( 0.0000,  0.0000,  1.5000)
  27 Cr     1.880729    8.993464   10.874031    ( 0.0000,  0.0000,  0.0000)
  28 Fe     3.684428    7.260447   -0.001356    ( 0.0000,  0.0000,  2.0000)
  29 Co     3.612616    9.025636    1.761807    ( 0.0000,  0.0000,  1.5000)
  30 Ni     5.481440    7.275114    1.811211    ( 0.0000,  0.0000,  1.5000)
  31 Fe     5.461261    9.048153   10.833988    ( 0.0000,  0.0000,  1.5000)
  32 Ni     7.245704    7.257881    0.056891    ( 0.0000,  0.0000,  2.1000)
  33 Co     7.301969    9.004609    1.790315    ( 0.0000,  0.0000,  0.0000)
  34 Ni     9.029343    7.181775    1.815549    ( 0.0000,  0.0000,  2.0000)
  35 Cr     9.030561    9.042010    0.020232    ( 0.0000,  0.0000,  1.5000)
  36 Fe    -0.031046    0.001947    3.645701    ( 0.0000,  0.0000,  2.0000)
  37 Fe    10.825910    1.804351    5.434602    ( 0.0000,  0.0000,  2.1000)
  38 Cr     1.743552   10.849296    5.484376    ( 0.0000,  0.0000,  0.0000)
  39 Al     1.769755    1.791891    3.636068    ( 0.0000,  0.0000,  1.5000)
  40 Al     3.516667   10.719828    3.663227    ( 0.0000,  0.0000,  0.0000)
  41 Co     3.644244    1.785205    5.586728    ( 0.0000,  0.0000,  0.0000)
  42 Al     5.484778   10.815439    5.504022    ( 0.0000,  0.0000,  0.0000)
  43 Cr     5.457934    1.842230    3.658769    ( 0.0000,  0.0000,  0.0000)
  44 Ni     7.360615   10.815439    3.672229    ( 0.0000,  0.0000,  0.0000)
  45 Al     7.266884    1.811614    5.485528    ( 0.0000,  0.0000,  2.1000)
  46 Al     9.077986    0.023590    5.491921    ( 0.0000,  0.0000,  0.0000)
  47 Co     9.066788    1.824226    3.671175    ( 0.0000,  0.0000,  1.5000)
  48 Fe    -0.047135    3.649615    3.617291    ( 0.0000,  0.0000,  2.0000)
  49 Cr    10.809264    5.435993    5.379805    ( 0.0000,  0.0000,  2.0000)
  50 Cr     1.752316    3.624989    5.344676    ( 0.0000,  0.0000,  0.0000)
  51 Ni     1.805786    5.472046    3.619389    ( 0.0000,  0.0000,  2.1000)
[...]
iter:  40 09:19:43  -804.533628c -3.96  -2.75    +55.4539
iter:  41 09:21:40  -804.526428c -4.41  -2.82    +55.5089
iter:  42 09:23:38  -804.527214c -4.68  -2.91    +55.5388
iter:  43 09:25:35  -804.536668c -4.86  -2.99    +55.5798
iter:  44 09:27:32  -804.540976c -5.03  -3.00    +55.6074
iter:  45 09:29:29  -804.554831c -4.74  -3.03    +55.6269
iter:  46 09:31:26  -804.573420c -4.41  -3.07    +55.6291
iter:  47 09:33:23  -804.568185c -4.46  -3.01    +55.6273
iter:  48 09:35:20  -804.576054c -4.62  -3.17    +55.6406
iter:  49 09:37:17  -804.580854c -4.66  -3.15    +55.6884
iter:  50 09:39:14  -804.590586c -4.67  -3.24    +55.7211
iter:  51 09:41:11  -804.584358c -5.30  -3.24    +55.7275
iter:  52 09:43:08  -804.596032c -5.08  -3.38    +55.7778
iter:  53 09:45:05  -804.611563c -4.90  -3.37    +55.8577
iter:  54 09:47:18  -804.555549c -3.95  -3.31    +55.4884
iter:  55 09:49:45  -804.525284c -3.97  -3.45    +55.1765
iter:  56 09:51:43  -804.527824c -4.63  -3.45    +55.1317
iter:  57 09:53:40  -804.530872c -5.27  -3.41    +55.1802
iter:  58 09:55:37  -804.536032c -5.37  -3.57    +55.1914
iter:  59 09:57:34  -804.537969c -5.74  -3.55    +55.2047
iter:  60 09:59:32  -804.536195c -5.95  -3.56    +55.1494
iter:  61 10:01:29  -804.533151c -4.92  -3.58    +54.8982
iter:  62 10:03:26  -804.538216c -5.53  -3.51    +54.9002
iter:  63 10:05:24  -804.550652c -4.78  -3.50    +54.9070
iter:  64 10:07:22  -804.545619c -5.74  -3.44    +54.9174
iter:  65 10:09:19  -804.555272c -5.08  -3.46    +54.9297
iter:  66 10:11:16  -804.554178c -5.30  -3.42    +54.9418
iter:  67 10:13:14  -804.559282c -5.05  -3.37    +54.9623
iter:  68 10:15:11  -804.569750c -4.81  -3.40    +54.9999
iter:  69 10:17:08  -804.566443c -5.65  -3.31    +54.9939
iter:  70 10:19:05  -804.572974c -4.97  -3.36    +55.0200
iter:  71 10:21:03  -804.575129c -5.37  -3.38    +55.0188
iter:  72 10:22:59  -804.579436c -5.32  -3.39    +55.0200
iter:  73 10:24:56  -804.578696c -6.05  -3.39    +55.0224
iter:  74 10:26:53  -804.585402c -5.33  -3.46    +55.0430
iter:  75 10:28:50  -804.574245c -5.06  -3.45    +54.9806
iter:  76 10:30:47  -804.564551c -4.66  -3.47    +54.8550
iter:  77 10:32:44  -804.564919c -5.39  -3.50    +54.8150
iter:  78 10:35:07  -804.567545c -5.48  -3.53    +54.8312
iter:  79 10:37:26  -804.569275c -5.57  -3.49    +54.8356
iter:  80 10:39:23  -804.569947c -5.64  -3.55    +54.8655
iter:  81 10:41:22  -804.575000c -5.44  -3.57    +54.8960
iter:  82 10:43:20  -804.572911c -5.16  -3.61    +54.8744
iter:  83 10:45:18  -804.570328c -5.45  -3.53    +54.8418
iter:  84 10:47:16  -804.573115c -5.68  -3.70    +54.8640
iter:  85 10:49:14  -804.573060c -5.81  -3.71    +54.8531
iter:  86 10:51:12  -804.576997c -5.43  -3.94    +54.8592
iter:  87 10:53:09  -804.575895c -6.08  -3.88    +54.8767
iter:  88 10:55:07  -804.579824c -5.45  -4.06c   +54.9346
iter:  89 10:57:05  -804.571465c -4.57  -3.98    +54.7239
iter:  90 10:59:02  -804.570523c -4.66  -3.71    +54.5582
iter:  91 11:01:00  -804.573511c -4.87  -3.53    +54.4222
iter:  92 11:02:58  -804.575742c -5.34  -3.43    +54.3698
iter:  93 11:04:56  -804.574341c -6.24  -3.42    +54.4139
iter:  94 11:06:53  -804.577048c -5.59  -3.44    +54.3728
iter:  95 11:08:50  -804.575014c -5.84  -3.40    +54.4177
iter:  96 11:10:48  -804.578972c -5.19  -3.44    +54.3659
iter:  97 11:12:44  -804.574572c -5.20  -3.32    +54.4039
iter:  98 11:14:42  -804.582528c -4.28  -3.33    +54.3747
iter:  99 11:16:40  -804.570297c -4.87  -3.19    +54.3969
iter: 100 11:18:38  -804.571902c -5.13  -3.48    +54.3749
iter: 101 11:20:44  -804.573109c -5.34  -3.47    +54.3639
iter: 102 11:23:17  -804.575273c -5.34  -3.65    +54.3355
iter: 103 11:25:16  -804.574346c -6.33  -3.68    +54.3427
iter: 104 11:27:14  -804.574955c -5.98  -3.74    +54.3798
iter: 105 11:29:13  -804.577501c -5.73  -3.74    +54.3886
iter: 106 11:31:12  -804.567552c -4.63  -3.71    +54.3259
iter: 107 11:33:10  -804.568138c -5.53  -3.69    +54.2849
iter: 108 11:35:07  -804.569161c -5.82  -3.66    +54.2443
iter: 109 11:37:05  -804.570464c -5.88  -3.72    +54.2384
iter: 110 11:39:02  -804.571320c -6.04  -3.74    +54.2312
iter: 111 11:40:59  -804.573242c -5.74  -3.77    +54.2277
iter: 112 11:42:57  -804.575288c -5.66  -3.81    +54.2243
iter: 113 11:44:55  -804.578208c -5.51  -3.81    +54.2282
iter: 114 11:46:52  -804.578683c -6.23  -3.75    +54.2275
iter: 115 11:48:49  -804.572924c -5.07  -3.73    +54.2075
iter: 116 11:50:46  -804.571412c -5.56  -3.85    +54.1759
iter: 117 11:52:43  -804.573709c -5.93  -3.91    +54.1657
iter: 118 11:54:41  -804.573251c -6.64  -3.83    +54.1653
iter: 119 11:56:37  -804.574454c -5.97  -3.90    +54.1567
iter: 120 11:58:34  -804.575301c -6.06  -3.94    +54.1540
iter: 121 12:00:31  -804.577199c -5.71  -3.86    +54.1546
iter: 122 12:02:29  -804.577441c -6.27  -3.84    +54.1529
iter: 123 12:04:26  -804.579335c -5.83  -3.87    +54.1534
iter: 124 12:06:23  -804.576860c -5.68  -3.74    +54.1466
iter: 125 12:08:24  -804.580115c -5.47  -3.78    +54.1540
iter: 126 12:10:59  -804.578227c -6.14  -3.70    +54.1483
iter: 127 12:12:59  -804.579701c -5.93  -3.79    +54.1628
iter: 128 12:14:57  -804.582403c -5.29  -3.69    +54.1683
iter: 129 12:16:54  -804.580672c -5.74  -3.56    +54.1702
iter: 130 12:18:52  -804.581969c -5.93  -3.78    +54.1792
iter: 131 12:20:49  -804.582573c -6.02  -3.89    +54.1873
iter: 132 12:22:46  -804.583883c -5.97  -3.82    +54.2008
iter: 133 12:24:44  -804.583298c -5.87  -3.82    +54.1914
iter: 134 12:26:41  -804.585522c -5.56  -3.68    +54.2215
iter: 135 12:28:38  -804.584978c -6.40  -3.72    +54.2236
iter: 136 12:30:36  -804.588038c -5.72  -3.83    +54.2504
iter: 137 12:32:33  -804.583555c -5.21  -3.73    +54.2034
iter: 138 12:34:30  -804.581163c -5.60  -3.77    +54.1654
iter: 139 12:36:28  -804.583309c -5.92  -3.96    +54.1866
iter: 140 12:38:25  -804.580411c -5.74  -3.91    +54.1422
iter: 141 12:40:22  -804.575106c -4.80  -4.03c   +53.9932
iter: 142 12:42:19  -804.574276c -5.55  -3.93    +53.9320
iter: 143 12:44:16  -804.575048c -5.90  -4.05c   +53.8799
iter: 144 12:46:13  -804.576697c -5.47  -4.07c   +53.7950
iter: 145 12:48:10  -804.577210c -6.23  -3.99    +53.8128
iter: 146 12:50:07  -804.576481c -6.00  -3.91    +53.7489
iter: 147 12:52:04  -804.577799c -6.14  -3.91    +53.7415
iter: 148 12:54:01  -804.577081c -6.60  -3.87    +53.7507
iter: 149 12:55:58  -804.577059c -6.25  -3.86    +53.7537
iter: 150 12:57:55  -804.578053c -6.23  -4.00    +53.7482
iter: 151 13:00:25  -804.574465c -5.22  -3.97    +53.7754
iter: 152 13:02:34  -804.574860c -6.38  -3.88    +53.7835
iter: 153 13:04:31  -804.575957c -5.94  -4.02c   +53.7859
iter: 154 13:06:28  -804.575672c -6.48  -3.94    +53.7845
iter: 155 13:08:26  -804.576658c -5.99  -4.10c   +53.7848
iter: 156 13:10:22  -804.576320c -6.50  -3.95    +53.7838
iter: 157 13:12:20  -804.577017c -6.25  -4.25c   +53.7850
iter: 158 13:14:17  -804.576256c -6.49  -4.32c   +53.7831
iter: 159 13:16:14  -804.574982c -5.72  -4.33c   +53.7766
iter: 160 13:18:11  -804.574560c -6.01  -4.19c   +53.7753
iter: 161 13:20:09  -804.573617c -5.14  -4.09c   +53.7716
iter: 162 13:22:06  -804.574028c -6.13  -3.79    +53.7754
iter: 163 13:24:02  -804.573323c -5.98  -3.80    +53.7620
iter: 164 13:25:59  -804.572826c -5.81  -3.78    +53.7356
iter: 165 13:27:56  -804.572675c -6.26  -3.76    +53.7129
iter: 166 13:29:52  -804.573637c -5.40  -3.77    +53.7185
iter: 167 13:31:49  -804.573261c -5.80  -3.73    +53.7070
iter: 168 13:33:45  -804.573093c -5.76  -3.72    +53.7114
iter: 169 13:35:42  -804.572894c -5.99  -3.81    +53.7119
iter: 170 13:37:39  -804.573749c -6.05  -3.90    +53.7138
iter: 171 13:39:36  -804.573949c -6.15  -4.04c   +53.7099
iter: 172 13:41:33  -804.574019c -6.20  -4.03c   +53.7081
iter: 173 13:43:29  -804.574692c -6.10  -4.11c   +53.7027
iter: 174 13:45:25  -804.574479c -6.50  -4.10c   +53.7067
iter: 175 13:47:33  -804.575171c -6.36  -4.16c   +53.7064
iter: 176 13:50:06  -804.574795c -7.06  -4.23c   +53.7056
iter: 177 13:52:03  -804.575373c -6.43  -4.38c   +53.6996
iter: 178 13:54:00  -804.574521c -6.21  -4.45c   +53.7119
iter: 179 13:55:57  -804.573002c -5.42  -4.47c   +53.7397
iter: 180 13:57:54  -804.571805c -5.20  -4.15c   +53.7756
iter: 181 13:59:52  -804.571866c -6.05  -3.91    +53.7850
iter: 182 14:01:49  -804.572140c -6.72  -3.92    +53.7780
iter: 183 14:03:45  -804.572335c -6.44  -3.95    +53.7779
iter: 184 14:05:43  -804.572533c -6.92  -4.04c   +53.7802
iter: 185 14:07:39  -804.572700c -6.60  -4.05c   +53.7816
iter: 186 14:09:36  -804.572763c -7.01  -4.16c   +53.7848
iter: 187 14:11:33  -804.573035c -6.29  -4.13c   +53.7847
iter: 188 14:13:30  -804.572768c -6.57  -4.09c   +53.7856
iter: 189 14:15:27  -804.573392c -6.37  -4.16c   +53.7917
iter: 190 14:17:24  -804.573232c -6.95  -4.26c   +53.7932
iter: 191 14:19:21  -804.573770c -6.43  -4.35c   +53.7966
iter: 192 14:21:19  -804.573816c -6.90  -4.39c   +53.8018
iter: 193 14:23:15  -804.574292c -6.53  -4.45c   +53.8055
iter: 194 14:25:48  -804.572647c -5.53  -4.41c   +53.7900
iter: 195 14:27:57  -804.570958c -5.06  -4.26c   +53.7594
iter: 196 14:29:54  -804.571328c -6.15  -3.93    +53.7509
iter: 197 14:31:51  -804.571563c -6.70  -3.96    +53.7461
iter: 198 14:33:49  -804.571839c -6.68  -4.01c   +53.7405
iter: 199 14:35:45  -804.571743c -7.17  -4.06c   +53.7422
iter: 200 14:37:42  -804.571924c -6.51  -4.09c   +53.7325
iter: 201 14:39:40  -804.572029c -7.42c -4.16c   +53.7339

Converged after 201 iterations.

Dipole moment: (28.925844, 17.367398, 8.172610) |e|*Ang

Total magnetic moment: (0.000000, 0.000000, 53.733856)
Local magnetic moments:
   0 Ni ( 0.000000,  0.000000,  0.148240)
   1 Al ( 0.000000,  0.000000, -0.036951)
   2 Cr ( 0.000000,  0.000000,  1.749679)
   3 Co ( 0.000000,  0.000000,  0.916565)
   4 Al ( 0.000000,  0.000000, -0.021050)
   5 Ni ( 0.000000,  0.000000,  0.130398)
   6 Co ( 0.000000,  0.000000,  1.222573)
   7 Al ( 0.000000,  0.000000, -0.026250)
   8 Al ( 0.000000,  0.000000, -0.043234)
   9 Fe ( 0.000000,  0.000000,  2.255778)
  10 Fe ( 0.000000,  0.000000,  2.279547)
  11 Fe ( 0.000000,  0.000000,  2.199913)
  12 Cr ( 0.000000,  0.000000,  0.950792)
  13 Ni ( 0.000000,  0.000000,  0.241208)
  14 Co ( 0.000000,  0.000000,  1.065458)
  15 Fe ( 0.000000,  0.000000,  2.166838)
  16 Ni ( 0.000000,  0.000000,  0.282750)
  17 Co ( 0.000000,  0.000000,  1.287680)
  18 Al ( 0.000000,  0.000000, -0.026957)
  19 Ni ( 0.000000,  0.000000,  0.405367)
  20 Co ( 0.000000,  0.000000,  1.075855)
  21 Al ( 0.000000,  0.000000, -0.007691)
  22 Ni ( 0.000000,  0.000000,  0.292773)
  23 Cr ( 0.000000,  0.000000,  0.654187)
  24 Cr ( 0.000000,  0.000000, -0.686241)
  25 Fe ( 0.000000,  0.000000,  2.064758)
  26 Fe ( 0.000000,  0.000000,  2.344101)
  27 Cr ( 0.000000,  0.000000, -1.745216)
  28 Fe ( 0.000000,  0.000000,  2.393197)
  29 Co ( 0.000000,  0.000000,  0.873264)
  30 Ni ( 0.000000,  0.000000,  0.185979)
  31 Fe ( 0.000000,  0.000000,  2.392703)
  32 Ni ( 0.000000,  0.000000,  0.326856)
  33 Co ( 0.000000,  0.000000,  1.240374)
  34 Ni ( 0.000000,  0.000000,  0.201062)
  35 Cr ( 0.000000,  0.000000, -1.147425)
  36 Fe ( 0.000000,  0.000000,  1.847943)
  37 Fe ( 0.000000,  0.000000,  1.675869)
  38 Cr ( 0.000000,  0.000000, -1.650564)
  39 Al ( 0.000000,  0.000000, -0.021811)
  40 Al ( 0.000000,  0.000000,  0.004224)
  41 Co ( 0.000000,  0.000000, -0.045168)
  42 Al ( 0.000000,  0.000000, -0.002101)
  43 Cr ( 0.000000,  0.000000, -2.438265)
  44 Ni ( 0.000000,  0.000000, -0.086236)
  45 Al ( 0.000000,  0.000000, -0.016770)
  46 Al ( 0.000000,  0.000000, -0.017829)
  47 Co ( 0.000000,  0.000000,  1.266120)
  48 Fe ( 0.000000,  0.000000,  2.218501)
  49 Cr ( 0.000000,  0.000000, -1.577339)
  50 Cr ( 0.000000,  0.000000, -1.985058)
  51 Ni ( 0.000000,  0.000000,  0.243738)
  52 Cr ( 0.000000,  0.000000,  2.004977)
  53 Co ( 0.000000,  0.000000,  0.911192)
  54 Ni ( 0.000000,  0.000000,  0.123919)
  55 Al ( 0.000000,  0.000000, -0.016754)
  56 Ni ( 0.000000,  0.000000,  0.017845)
  57 Cr ( 0.000000,  0.000000, -1.768828)
  58 Co ( 0.000000,  0.000000,  1.030507)
  59 Ni ( 0.000000,  0.000000,  0.173844)
[...]
  93 Co ( 0.000000,  0.000000,  1.499010)
  94 Fe ( 0.000000,  0.000000,  2.022167)
  95 Ni ( 0.000000,  0.000000,  0.315260)
  96 Cr ( 0.000000,  0.000000, -1.160274)
  97 Cr ( 0.000000,  0.000000, -1.056728)
  98 Ni ( 0.000000,  0.000000,  0.176247)
  99 Fe ( 0.000000,  0.000000,  2.211944)
 100 Al ( 0.000000,  0.000000, -0.035561)
 101 Ni ( 0.000000,  0.000000,  0.188447)
 102 Co ( 0.000000,  0.000000,  1.068309)
 103 Al ( 0.000000,  0.000000, -0.006665)
 104 Ni ( 0.000000,  0.000000,  0.194867)
 105 Al ( 0.000000,  0.000000, -0.024530)
 106 Fe ( 0.000000,  0.000000,  2.269975)
 107 Co ( 0.000000,  0.000000,  0.655288)

Energy contributions relative to reference atoms: (reference = -3235165.067515)

Kinetic:       +243.682264
Potential:     -235.047792
External:        +0.000000
XC:            -842.413011
Entropy (-ST):   -4.104033
Local:          +31.258527
Free energy:   -806.624045
Extrapolated:  -804.572029

Spin contamination: 27.983393 electrons
Showing only first 2 kpts
                      Up                     Down
 Kpt  Band  Eigenvalues  Occupancy  Eigenvalues  Occupancy
  0   454      9.02548    0.99302      9.87440    0.02844
  0   455      9.04961    0.99114      9.88012    0.02691
  0   456      9.06172    0.99001      9.89560    0.02314
  0   457      9.06834    0.98933      9.90749    0.02060

  1   454      9.01968    0.99341      9.86026    0.03263
  1   455      9.03828    0.99208      9.87432    0.02847
  1   456      9.04338    0.99167      9.89454    0.02338
  1   457      9.05016    0.99109      9.90530    0.02104

Fermi level: 9.52131

No gap

Forces in eV/Ang:
  0 Ni    0.47719   -0.61585   -0.71150
  1 Al   -0.72421   -0.05758   -0.83012
  2 Cr   -0.28904   -0.25450   -1.06416
  3 Co    0.20377    0.00889   -0.05075
  4 Al   -0.10411    0.32486    0.76193
  5 Ni    0.17136   -0.53275    0.60976
  6 Co   -0.09413    0.14834    0.94691
  7 Al   -0.54992    0.44801    0.17751
  8 Al   -0.71478    0.12334    1.85903
  9 Fe    0.32123   -0.02708    0.93972
 10 Fe   -0.09759   -0.50817    0.41800
 11 Fe    0.41032    0.46028   -0.09310
 12 Cr   -0.00149   -0.02553    0.41270
 13 Ni   -0.07536   -0.27762   -0.03007
 14 Co    0.27115   -0.04313   -0.40546
 15 Fe    0.21778   -0.21228    0.47739
 16 Ni   -0.45446   -0.06821    0.12504
 17 Co   -0.43122    0.56144    0.27745
 18 Al   -0.83012   -0.39883   -0.43714
 19 Ni   -0.33482   -0.05846   -0.28243
 20 Co    0.52322    0.13240    0.10242
 21 Al    1.19372    0.41205    0.04002
 22 Ni   -0.43396   -0.09818    0.35713
 23 Cr    0.56453   -0.15748   -0.38664
 24 Cr   -0.00980    0.69046    0.19671
 25 Fe   -0.71057    0.42824   -0.92856
 26 Fe    0.31434   -0.22599    0.00773
 27 Cr   -1.08253   -0.23542    0.23391
 28 Fe   -0.12186    0.12723    0.14935
 29 Co    0.44705   -0.21264    0.72505
 30 Ni   -0.63082    0.21757    0.21868
 31 Fe    0.13701   -0.49338    0.50370
 32 Ni   -0.00350    0.12129   -0.44871
 33 Co   -0.16750    0.24587    0.48512
 34 Ni    0.35923    0.53888   -0.07803
 35 Cr    1.35893   -0.70656    0.51583
 36 Fe   -0.09176   -0.01937   -0.19323
 37 Fe    0.04410    0.44205   -0.08102
 38 Cr    0.64269    0.30624    0.44853
 39 Al    0.91450    0.40102    0.15571
 40 Al    1.92749    1.04914   -0.51803
 41 Co   -0.27081    0.26546   -0.50623
 42 Al   -1.19609    1.45786   -0.41607
 43 Cr   -0.52391   -0.27146   -0.72187
 44 Ni   -0.79004    0.05884   -0.31449
 45 Al   -0.31080    1.22950   -0.56806
 46 Al   -0.11637   -0.69950   -1.14418
 47 Co   -0.18931    0.39535   -0.17441
 48 Fe   -0.15091    0.59046    0.45616
 49 Cr   -0.20844    0.25084    0.28078
 50 Cr    0.62672    0.10129    0.90059
 51 Ni    0.23791   -0.19841    0.04719
 52 Cr   -0.42671   -0.33196    0.43464
 53 Co   -0.68472    0.15836    0.37873
 54 Ni   -0.11547   -0.45958   -0.11008
 55 Al   -0.73756    0.97492    0.76315
 56 Ni    0.24977   -0.34780   -0.68458
 57 Cr    0.59528   -0.32067    0.48426
 58 Co   -0.00612    0.36963   -0.23242
 59 Ni   -0.12703   -0.69906   -0.01813
[...]
 93 Co   -0.03659    0.41659    0.03344
 94 Fe   -0.41855   -0.20246   -0.16446
 95 Ni    0.17067   -0.04719    0.10094
 96 Cr    0.25822    0.59985    0.42648
 97 Cr   -0.25275   -1.04430    0.42690
 98 Ni   -0.52679   -0.15314   -0.01743
 99 Fe   -0.93506    0.07919   -0.09364
100 Al   -0.61919   -0.57848   -0.20176
101 Ni    0.15353   -0.25039    0.05696
102 Co   -0.25862   -0.68509    0.39813
103 Al   -0.61837   -0.87309    0.74274
104 Ni    0.11299   -0.15476    0.47915
105 Al    0.15277   -2.08500   -0.62711
106 Fe    0.56079    0.28288   -0.66735
107 Co    0.91762   -0.63690    0.40637

Date: Sat Apr 15 14:40:01 2023