User:   c.zeng@d0133
Date:   Wed Apr 12 14:42:40 2023
Arch:   x86_64
Pid:    57421
CWD:    /home/c.zeng/projects/hea-corrosion/hea-mlp/data-curation/bulk-md/dft-jobs/0
Python: 3.8.1
gpaw:   /home/c.zeng/usr/installs/gpaw/source/gpaw-22.8.0/gpaw
_gpaw:  /home/c.zeng/usr/installs/gpaw/source/gpaw-22.8.0/
        _gpaw.cpython-38-x86_64-linux-gnu.so
ase:    /home/c.zeng/.local/lib/python3.8/site-packages/ase-3.22.1-py3.8.egg/ase (version 3.22.1)
numpy:  /shared/centos7/python/3.8.1/lib/python3.8/site-packages/numpy (version 1.17.4)
scipy:  /shared/centos7/python/3.8.1/lib/python3.8/site-packages/scipy (version 1.4.1)
units:  Angstrom and eV
cores: 48
OpenMP: False
OMP_NUM_THREADS: 1

Input parameters:
  convergence: {energy: 0.0001}
  kpts: [2 2 2]
  maxiter: 666
  mode: {ecut: 350.0,
         name: pw}
  occupations: {fixmagmom: False,
                name: fermi-dirac,
                width: 0.1}
  spinpol: True
  xc: PBE

System changes: positions, numbers, cell, pbc, initial_charges, initial_magmoms

Initialize ...

species:
  Co:
    name: Cobalt
    id: 339d20d5b0b93d2de9531a1bee871d91
    Z: 27.0
    valence: 9
    core: 18
    charge: 0.0
    file: /home/c.zeng/usr/data/gpaw-setups-0.9.20000/Co.PBE.gz
    compensation charges: {type: gauss,
                           rc: 0.32,
                           lmax: 2}
    cutoffs: {filter: 1.87,
              core: 2.55}
    valence states:
      #              energy  rcut
      - 4s(2.00)    -5.469   1.005
      - 4p(0.00)    -1.277   1.058
      - 3d(7.00)    -8.205   1.005
      -  s          21.742   1.005
      -  p          25.934   1.058
      -  d          19.007   1.005

    # Using partial waves for Co as LCAO basis

  Fe:
    name: Iron
    id: 37abbd8d6c3c35915a9b583b742da910
    Z: 26.0
    valence: 8
    core: 18
    charge: 0.0
    file: /home/c.zeng/usr/data/gpaw-setups-0.9.20000/Fe.PBE.gz
    compensation charges: {type: gauss,
                           rc: 0.33,
                           lmax: 2}
    cutoffs: {filter: 2.06,
              core: 2.67}
    valence states:
      #              energy  rcut
      - 4s(2.00)    -5.291   1.164
      - 4p(0.00)    -1.326   1.058
      - 3d(6.00)    -7.505   1.058
      -  s          21.920   1.164
      -  p          25.885   1.058
      -  d          19.706   1.058

[...]

  Cr:
    name: Chromium
    id: 33f258bda2ca9f93018e70263a35547b
    Z: 24.0
    valence: 6
    core: 18
    charge: 0.0
    file: /home/c.zeng/usr/data/gpaw-setups-0.9.20000/Cr.PBE.gz
    compensation charges: {type: gauss,
                           rc: 0.35,
                           lmax: 2}
    cutoffs: {filter: 2.14,
              core: 3.04}
    valence states:
      #              energy  rcut
      - 4s(1.00)    -4.007   1.164
      - 4p(0.00)    -0.989   1.217
      - 3d(5.00)    -2.913   1.111
      -  s          23.205   1.164
      -  p          26.223   1.217
      -  d          24.299   1.111

[...]

  Ni:
    name: Nickel
    id: 0d9f38a9d6e76a2886f07bb4381f212b
    Z: 28.0
    valence: 16
    core: 12
    charge: 0.0
    file: /home/c.zeng/usr/data/gpaw-setups-0.9.20000/Ni.PBE.gz
    compensation charges: {type: gauss,
                           rc: 0.36,
                           lmax: 2}
    cutoffs: {filter: 2.14,
              core: 1.98}
    valence states:
      #              energy  rcut
      - 4s(2.00)    -5.642   1.164
      - 3p(6.00)   -71.394   1.207
      - 4p(0.00)    -1.226   1.207
      - 3d(8.00)    -8.875   1.138
      -  s          21.570   1.164
      -  d          18.337   1.138

    # Using partial waves for Ni as LCAO basis

Reference energy: -3846758.590871  # eV

Spin-polarized calculation.
Magnetic moment: 151.200000

Convergence criteria:
 Maximum [total energy] change in last 3 cyles: 0.0001 eV / electron
 Maximum integral of absolute [dens]ity change: 0.0001 electrons / valence electron
 Maximum integral of absolute [eigenst]ate change: 4e-08 eV^2 / valence electron
 Maximum number of scf [iter]ations: 666
 (Square brackets indicate name in SCF output, whereas a 'c' in
 the SCF output indicates the quantity has converged.)

Symmetries present (total): 1

  ( 1  0  0)
  ( 0  1  0)
  ( 0  0  1)

8 k-points: 2 x 2 x 2 Monkhorst-Pack grid
4 k-points in the irreducible part of the Brillouin zone
       k-points in crystal coordinates                weights
   0:     0.25000000   -0.25000000   -0.25000000          2/8
   1:     0.25000000   -0.25000000    0.25000000          2/8
   2:     0.25000000    0.25000000   -0.25000000          2/8
   3:     0.25000000    0.25000000    0.25000000          2/8

Wave functions: Plane wave expansion
  Cutoff energy: 350.000 eV
  Number of coefficients (min, max): 17755, 17755
  Pulay-stress correction: 0.000000 eV/Ang^3 (de/decut=0.000000)
  Using FFTW library
  ScaLapack parameters: grid=1x1, blocksize=None
  Wavefunction extrapolation:
    Improved wavefunction reuse through dual PAW basis

Occupation numbers: Fermi-Dirac:
  width: 0.1000  # eV

Eigensolver
   Davidson(niter=2)

Densities:
  Coarse grid: 48*48*48 grid
  Fine grid: 96*96*96 grid
  Total Charge: 0.000000

Density mixing:
  Method: difference
  Backend: pulay
  Linear mixing parameter: 0.05
  old densities: 5
  Damping of long wavelength oscillations: 50

Hamiltonian:
  XC and Coulomb potentials evaluated on a 96*96*96 grid
  Using the PBE Exchange-Correlation functional
  External potential:
    NoExternalPotential

XC parameters: PBE with 2 nearest neighbor stencil

Total number of cores used: 48
Parallelization over k-points: 4
Domain decomposition: 3 x 2 x 2

Number of atoms: 108
Number of atomic orbitals: 1053
Number of bands in calculation: 727
Number of valence electrons: 1053
Bands to converge: occupied

... initialized

Initializing position-dependent things.

Density initialized from atomic densities
Creating initial wave functions:
  727 bands from LCAO basis set

        .--------Cr---------------.
       /|  Cr                     |
      / |   Fe                    |
     / Co      Cr       Co        |
    /   |Fe      Cr       Cr      Co
   /    | Fe       Feo     CrCr   |
  /  CFe|  CrFe Cr    NCo         |
 *      Cr    CoNi     NiNi     Ni|
 |Co    |NiCo   NCo Fe  CoCr     Fe
 |  Cr  | FeCrFe  Co NiCo   Cr    |
 |   NCr|  NiFeCr   NiFeNi  Ni    |
 |      Fe  FeFeFe     Fe Co  NiNi|
 |      |CoCo   CrNiFe  NiNiNi  Co|
 |  Cr  .-CrCo-----CoNi--FeNi-----Co
 |    Cr     CCr    CoNNio  CrFe /
 |    FFe     FFe      CrCo     /
 Fe  /  CrFe     NFe           /
 |  /      Cri     Ni       Co/
 | /          Co     Co      /r

Positions:
   0 Co    -0.190163   -0.040501   10.636133    ( 0.0000,  0.0000,  2.1000)
   1 Co    -0.021215    1.600956    1.698983    ( 0.0000,  0.0000,  2.1000)
   2 Fe     1.571617   -0.094426    1.726606    ( 0.0000,  0.0000,  2.0000)
   3 Fe     1.698597    1.884100   10.609876    ( 0.0000,  0.0000,  2.0000)
   4 Cr     3.538646   -0.082608   10.468219    ( 0.0000,  0.0000,  0.0000)
   5 Cr     3.585416    1.908391    1.601728    ( 0.0000,  0.0000,  0.0000)
   6 Co     5.307289   10.655851    1.745608    ( 0.0000,  0.0000,  2.1000)
   7 Cr     5.532448    1.768452   10.564287    ( 0.0000,  0.0000,  0.0000)
   8 Fe     7.118575   -0.010536   10.668152    ( 0.0000,  0.0000,  2.0000)
   9 Ni     7.070971    1.765851    1.744832    ( 0.0000,  0.0000,  1.5000)
  10 Ni     8.834627   -0.134077    1.778949    ( 0.0000,  0.0000,  1.5000)
  11 Co     8.703117    1.752342   10.578109    ( 0.0000,  0.0000,  2.1000)
  12 Cr    10.406504    3.419722    0.057872    ( 0.0000,  0.0000,  0.0000)
  13 Fe    10.450098    5.229528    1.862822    ( 0.0000,  0.0000,  2.0000)
  14 Cr     1.705696    3.607689    1.676546    ( 0.0000,  0.0000,  0.0000)
  15 Fe     1.663476    5.356921   10.548687    ( 0.0000,  0.0000,  2.0000)
  16 Ni     3.604671    3.657665   10.696290    ( 0.0000,  0.0000,  1.5000)
  17 Co     3.367882    5.252319    1.900518    ( 0.0000,  0.0000,  2.1000)
  18 Ni     5.383975    3.580443    1.604396    ( 0.0000,  0.0000,  1.5000)
  19 Cr     5.278876    5.441014   10.637051    ( 0.0000,  0.0000,  0.0000)
  20 Co     7.103112    3.471106   10.640440    ( 0.0000,  0.0000,  2.1000)
  21 Ni     7.118302    5.280220    1.783815    ( 0.0000,  0.0000,  1.5000)
  22 Co     8.740378    3.436756    1.845511    ( 0.0000,  0.0000,  2.1000)
  23 Cr     8.606494    5.219681   -0.093875    ( 0.0000,  0.0000,  0.0000)
  24 Fe     0.072750    7.122462   10.705058    ( 0.0000,  0.0000,  2.0000)
  25 Co    10.430218    8.817961    1.839943    ( 0.0000,  0.0000,  2.1000)
  26 Cr     1.647671    7.123442    1.767315    ( 0.0000,  0.0000,  0.0000)
  27 Cr     1.900419    8.828422   10.562086    ( 0.0000,  0.0000,  0.0000)
  28 Fe     3.574414    7.036938   10.681962    ( 0.0000,  0.0000,  2.0000)
  29 Cr     3.570397    8.906752    1.915212    ( 0.0000,  0.0000,  0.0000)
  30 Co     5.249915    7.202428    1.724886    ( 0.0000,  0.0000,  2.1000)
  31 Co     5.305795    8.937862   10.615709    ( 0.0000,  0.0000,  2.1000)
  32 Cr     7.073402    7.188907   10.791717    ( 0.0000,  0.0000,  0.0000)
  33 Ni     7.041601    8.852612    1.830471    ( 0.0000,  0.0000,  1.5000)
  34 Ni     8.809118    7.054067    1.793210    ( 0.0000,  0.0000,  1.5000)
  35 Cr     8.832141    8.788273   10.627626    ( 0.0000,  0.0000,  0.0000)
  36 Fe     0.055231   10.684646    3.507185    ( 0.0000,  0.0000,  2.0000)
  37 Ni    10.539125    1.716575    5.329455    ( 0.0000,  0.0000,  1.5000)
  38 Cr     1.954015    0.073303    5.213524    ( 0.0000,  0.0000,  0.0000)
  39 Fe     1.883508    1.788993    3.392631    ( 0.0000,  0.0000,  2.0000)
  40 Fe     3.638353    0.180940    3.493520    ( 0.0000,  0.0000,  2.0000)
  41 Co     3.463336    1.699618    5.329698    ( 0.0000,  0.0000,  2.1000)
  42 Cr     5.400583    0.067035    5.226592    ( 0.0000,  0.0000,  0.0000)
  43 Fe     5.245131    1.834701    3.398707    ( 0.0000,  0.0000,  2.0000)
  44 Fe     7.092023    0.039642    3.400425    ( 0.0000,  0.0000,  2.0000)
  45 Fe     7.147615    1.759628    5.313110    ( 0.0000,  0.0000,  2.0000)
  46 Ni     8.802248    0.072082    5.208315    ( 0.0000,  0.0000,  1.5000)
  47 Co     8.878823    1.836845    3.543613    ( 0.0000,  0.0000,  2.1000)
  48 Cr     0.196885    3.543014    3.570811    ( 0.0000,  0.0000,  0.0000)
  49 Ni     0.249753    5.253235    5.403474    ( 0.0000,  0.0000,  1.5000)
  50 Fe     1.851911    3.498872    5.400190    ( 0.0000,  0.0000,  2.0000)
  51 Co     1.645765    5.414889    3.661115    ( 0.0000,  0.0000,  2.1000)
  52 Co     3.449325    3.603496    3.488254    ( 0.0000,  0.0000,  2.1000)
  53 Fe     3.468950    5.223208    5.230929    ( 0.0000,  0.0000,  2.0000)
  54 Fe     5.105079    3.491817    5.151374    ( 0.0000,  0.0000,  2.0000)
  55 Ni     5.402613    5.281765    3.468108    ( 0.0000,  0.0000,  1.5000)
  56 Ni     7.080575    3.491255    3.607449    ( 0.0000,  0.0000,  1.5000)
  57 Fe     7.025962    5.284503    5.292679    ( 0.0000,  0.0000,  2.0000)
  58 Co     9.051759    3.622927    5.195485    ( 0.0000,  0.0000,  2.1000)
  59 Ni     8.899191    5.404608    3.713947    ( 0.0000,  0.0000,  1.5000)
[...]
  93 Ni     7.117768    5.248864    8.741039    ( 0.0000,  0.0000,  1.5000)
  94 Ni     8.967218    3.572211    8.899247    ( 0.0000,  0.0000,  1.5000)
  95 Cr     8.788923    5.106785    7.064551    ( 0.0000,  0.0000,  0.0000)
  96 Ni    -0.036139    6.987714    7.134175    ( 0.0000,  0.0000,  1.5000)
  97 Co     0.109954    8.837696    8.783918    ( 0.0000,  0.0000,  2.1000)
  98 Fe     1.755802    7.091609    8.834543    ( 0.0000,  0.0000,  2.0000)
  99 Cr     1.805522    8.805509    6.935495    ( 0.0000,  0.0000,  0.0000)
 100 Co     3.524096    7.168717    7.105805    ( 0.0000,  0.0000,  2.1000)
 101 Cr     3.511101    8.908674    8.819371    ( 0.0000,  0.0000,  0.0000)
 102 Fe     5.319140    7.067106    8.818342    ( 0.0000,  0.0000,  2.0000)
 103 Co     5.357090    8.829589    7.247987    ( 0.0000,  0.0000,  2.1000)
 104 Ni     6.933196    6.923967    6.995197    ( 0.0000,  0.0000,  1.5000)
 105 Co     7.105944    8.777023    8.990387    ( 0.0000,  0.0000,  2.1000)
 106 Cr     8.816339    6.844409    8.885768    ( 0.0000,  0.0000,  0.0000)
 107 Cr     8.881887    8.801601    7.347999    ( 0.0000,  0.0000,  0.0000)

Unit cell:
           periodic     x           y           z      points  spacing
  1. axis:    yes   10.614300    0.000000    0.000000    48     0.2211
  2. axis:    yes    0.000000   10.614300    0.000000    48     0.2211
  3. axis:    yes    0.000000    0.000000   10.614300    48     0.2211

  Lengths:  10.614300  10.614300  10.614300
  Angles:   90.000000  90.000000  90.000000

Effective grid spacing dv^(1/3) = 0.2211

     iter     time        total  log10-change:  magmom
                         energy  eigst   dens
iter:   1 14:45:06 -1079.889175                  +151.4733
iter:   2 14:46:05  -945.702625  -0.28  -1.20    +85.0086
iter:   3 14:47:06  -938.228569  -0.91  -1.24    +70.2396
iter:   4 14:48:07  -925.414631  -1.20  -1.30    +65.6784
iter:   5 14:49:07  -902.272400  -1.60  -1.29    +60.0904
iter:   6 14:50:08  -900.600345  -1.35  -1.39    +60.1164
iter:   7 14:51:08  -900.969464  -1.24  -1.48    +59.1513
iter:   8 14:52:09  -881.441108  -1.62  -1.55    +57.9449
iter:   9 14:53:09  -880.128236  -2.30  -1.81    +58.8215
iter:  10 14:54:09  -881.006992  -2.41  -1.86    +60.8054
iter:  11 14:55:10  -880.945756  -2.67  -1.87    +61.9067
iter:  12 14:56:10  -881.344427  -2.65  -1.90    +63.2770
iter:  13 14:57:10  -884.268945  -2.41  -1.95    +64.6223
iter:  14 14:58:11  -882.252633  -2.45  -1.92    +64.9355
iter:  15 14:59:11  -882.398631  -2.68  -2.08    +65.3148
iter:  16 15:00:11  -881.945413  -2.70  -2.12    +65.5050
iter:  17 15:01:11  -881.769975  -2.97  -2.22    +66.4127
iter:  18 15:02:11  -881.667521  -3.27  -2.27    +66.6896
iter:  19 15:03:12  -881.869106  -3.45  -2.39    +66.9139
iter:  20 15:04:12  -882.046859  -3.21  -2.36    +67.1867
iter:  21 15:05:13  -881.716124  -3.33  -2.36    +67.3032
iter:  22 15:06:13  -881.715050  -3.41  -2.56    +67.4404
iter:  23 15:07:13  -881.706894c -3.83  -2.64    +67.6599
iter:  24 15:08:14  -881.777792c -3.93  -2.72    +68.0123
iter:  25 15:09:14  -881.784062c -3.97  -2.71    +68.0383
iter:  26 15:10:15  -881.802913c -3.89  -2.76    +68.0918
iter:  27 15:11:15  -881.796454c -4.12  -2.82    +68.2330
iter:  28 15:12:16  -881.839789c -4.15  -2.93    +68.2404
iter:  29 15:13:16  -881.828391c -4.39  -2.88    +68.1806
iter:  30 15:14:17  -881.831222c -4.67  -2.95    +68.1927
iter:  31 15:15:17  -881.857521c -4.55  -3.03    +68.1631
iter:  32 15:16:18  -881.878863c -4.50  -3.04    +68.0401
iter:  33 15:17:18  -881.879818c -4.96  -3.01    +67.9520
iter:  34 15:18:19  -881.891612c -4.80  -3.07    +67.8272
iter:  35 15:19:19  -881.914834c -4.51  -3.11    +67.5746
iter:  36 15:20:20  -881.911530c -4.88  -3.07    +67.5242
iter:  37 15:21:20  -881.919022c -4.79  -3.16    +67.4892
iter:  38 15:22:21  -881.916607c -4.87  -3.19    +67.4376
iter:  39 15:23:22  -881.916966c -5.09  -3.25    +67.3471
iter:  40 15:24:22  -881.919895c -5.16  -3.33    +67.3293
iter:  41 15:25:23  -881.921007c -5.37  -3.34    +67.2733
iter:  42 15:26:23  -881.923320c -5.41  -3.38    +67.2234
iter:  43 15:27:23  -881.925127c -5.38  -3.40    +67.1898
iter:  44 15:28:23  -881.927939c -5.49  -3.45    +67.1607
iter:  45 15:29:24  -881.927770c -5.50  -3.43    +67.1095
iter:  46 15:30:25  -881.929292c -5.69  -3.53    +67.0850
iter:  47 15:31:25  -881.931322c -5.66  -3.55    +67.0554
iter:  48 15:32:26  -881.931734c -5.65  -3.56    +67.0368
iter:  49 15:33:26  -881.932618c -5.72  -3.59    +67.0117
iter:  50 15:34:26  -881.934302c -5.83  -3.67    +66.9949
iter:  51 15:35:27  -881.934583c -5.94  -3.69    +66.9583
iter:  52 15:36:27  -881.935814c -5.97  -3.73    +66.9335
iter:  53 15:37:27  -881.936803c -6.02  -3.75    +66.9159
iter:  54 15:38:27  -881.937528c -6.14  -3.82    +66.8818
iter:  55 15:39:27  -881.938814c -6.14  -3.84    +66.8539
iter:  56 15:40:28  -881.940734c -5.88  -3.89    +66.8018
iter:  57 15:41:29  -881.941087c -6.25  -3.86    +66.7751
iter:  58 15:42:29  -881.942037c -6.22  -3.93    +66.7470
iter:  59 15:43:30  -881.943146c -6.17  -3.97    +66.7055
iter:  60 15:44:30  -881.944327c -5.94  -3.99    +66.6463
iter:  61 15:45:31  -881.945870c -5.82  -4.02c   +66.5859
iter:  62 15:46:31  -881.948994c -5.32  -4.01c   +66.4682
iter:  63 15:47:32  -881.948387c -6.47  -3.82    +66.4948
iter:  64 15:48:32  -881.948886c -6.53  -3.85    +66.4780
iter:  65 15:49:34  -881.949743c -6.06  -3.83    +66.4438
iter:  66 15:50:34  -881.949048c -6.30  -3.77    +66.4441
iter:  67 15:51:35  -881.949249c -6.28  -3.85    +66.4344
iter:  68 15:52:35  -881.950060c -5.90  -3.90    +66.4335
iter:  69 15:53:36  -881.949088c -6.42  -3.72    +66.4250
iter:  70 15:54:36  -881.949152c -6.78  -3.96    +66.4158
iter:  71 15:55:36  -881.948995c -6.51  -3.98    +66.4124
iter:  72 15:56:37  -881.949440c -6.59  -3.95    +66.4096
iter:  73 15:57:37  -881.949143c -6.54  -3.97    +66.4067
iter:  74 15:58:37  -881.948992c -6.89  -4.04c   +66.4051
iter:  75 15:59:37  -881.949137c -7.06  -4.07c   +66.4071
iter:  76 16:00:37  -881.949087c -6.95  -4.07c   +66.4049
iter:  77 16:01:38  -881.948933c -6.89  -4.10c   +66.4035
iter:  78 16:02:38  -881.949212c -6.81  -4.18c   +66.4077
iter:  79 16:03:39  -881.948918c -6.93  -4.16c   +66.4092
iter:  80 16:04:39  -881.948962c -6.99  -4.26c   +66.4068
iter:  81 16:05:39  -881.948964c -6.91  -4.34c   +66.4089
iter:  82 16:06:40  -881.948848c -7.29  -4.34c   +66.4095
iter:  83 16:07:40  -881.948913c -7.67c -4.49c   +66.4118

Converged after 83 iterations.

Dipole moment: (12.816980, 2.127818, -8.159651) |e|*Ang

Total magnetic moment: (0.000000, 0.000000, 66.411790)
Local magnetic moments:
   0 Co ( 0.000000,  0.000000,  1.351313)
   1 Co ( 0.000000,  0.000000,  1.135056)
   2 Fe ( 0.000000,  0.000000,  2.109794)
   3 Fe ( 0.000000,  0.000000,  1.785429)
   4 Cr ( 0.000000,  0.000000,  0.403035)
   5 Cr ( 0.000000,  0.000000, -1.366140)
   6 Co ( 0.000000,  0.000000,  0.671616)
   7 Cr ( 0.000000,  0.000000, -1.174538)
   8 Fe ( 0.000000,  0.000000,  2.198483)
   9 Ni ( 0.000000,  0.000000,  0.354284)
  10 Ni ( 0.000000,  0.000000,  0.552535)
  11 Co ( 0.000000,  0.000000,  1.514074)
  12 Cr ( 0.000000,  0.000000, -0.888755)
  13 Fe ( 0.000000,  0.000000,  2.064902)
  14 Cr ( 0.000000,  0.000000, -0.219724)
  15 Fe ( 0.000000,  0.000000,  1.685466)
  16 Ni ( 0.000000,  0.000000,  0.098086)
  17 Co ( 0.000000,  0.000000,  1.103712)
  18 Ni ( 0.000000,  0.000000,  0.272959)
  19 Cr ( 0.000000,  0.000000, -1.620683)
  20 Co ( 0.000000,  0.000000,  0.994279)
  21 Ni ( 0.000000,  0.000000,  0.232561)
  22 Co ( 0.000000,  0.000000,  1.322865)
  23 Cr ( 0.000000,  0.000000, -0.949140)
  24 Fe ( 0.000000,  0.000000,  1.839531)
  25 Co ( 0.000000,  0.000000,  1.244997)
  26 Cr ( 0.000000,  0.000000, -1.520308)
  27 Cr ( 0.000000,  0.000000, -0.546877)
  28 Fe ( 0.000000,  0.000000,  1.881103)
  29 Cr ( 0.000000,  0.000000, -1.435242)
  30 Co ( 0.000000,  0.000000,  1.007600)
  31 Co ( 0.000000,  0.000000,  0.559083)
  32 Cr ( 0.000000,  0.000000,  0.828953)
  33 Ni ( 0.000000,  0.000000,  0.371643)
  34 Ni ( 0.000000,  0.000000,  0.267133)
  35 Cr ( 0.000000,  0.000000, -1.472149)
  36 Fe ( 0.000000,  0.000000,  2.219862)
  37 Ni ( 0.000000,  0.000000,  0.327887)
  38 Cr ( 0.000000,  0.000000, -0.891129)
  39 Fe ( 0.000000,  0.000000,  1.752504)
  40 Fe ( 0.000000,  0.000000,  1.806537)
  41 Co ( 0.000000,  0.000000,  0.397595)
  42 Cr ( 0.000000,  0.000000, -1.829176)
  43 Fe ( 0.000000,  0.000000,  2.006549)
  44 Fe ( 0.000000,  0.000000,  2.485109)
  45 Fe ( 0.000000,  0.000000,  2.371378)
  46 Ni ( 0.000000,  0.000000,  0.528427)
  47 Co ( 0.000000,  0.000000,  1.505480)
  48 Cr ( 0.000000,  0.000000, -1.140632)
  49 Ni ( 0.000000,  0.000000,  0.272612)
  50 Fe ( 0.000000,  0.000000,  1.839925)
  51 Co ( 0.000000,  0.000000,  1.046006)
  52 Co ( 0.000000,  0.000000,  1.159118)
  53 Fe ( 0.000000,  0.000000,  2.187188)
  54 Fe ( 0.000000,  0.000000,  2.171909)
  55 Ni ( 0.000000,  0.000000,  0.535077)
  56 Ni ( 0.000000,  0.000000,  0.517590)
  57 Fe ( 0.000000,  0.000000,  2.445433)
  58 Co ( 0.000000,  0.000000,  1.108769)
  59 Ni ( 0.000000,  0.000000,  0.382393)
[...]
  93 Ni ( 0.000000,  0.000000,  0.151041)
  94 Ni ( 0.000000,  0.000000,  0.040609)
  95 Cr ( 0.000000,  0.000000, -1.351841)
  96 Ni ( 0.000000,  0.000000,  0.102162)
  97 Co ( 0.000000,  0.000000,  0.707644)
  98 Fe ( 0.000000,  0.000000,  1.833846)
  99 Cr ( 0.000000,  0.000000, -1.332217)
 100 Co ( 0.000000,  0.000000,  1.174585)
 101 Cr ( 0.000000,  0.000000, -0.334483)
 102 Fe ( 0.000000,  0.000000,  2.196115)
 103 Co ( 0.000000,  0.000000,  1.261650)
 104 Ni ( 0.000000,  0.000000,  0.322463)
 105 Co ( 0.000000,  0.000000,  0.533599)
 106 Cr ( 0.000000,  0.000000,  1.042441)
 107 Cr ( 0.000000,  0.000000, -1.380468)

Energy contributions relative to reference atoms: (reference = -3846758.590871)

Kinetic:       +252.210282
Potential:     -292.860555
External:        +0.000000
XC:            -878.585852
Entropy (-ST):   -4.670763
Local:          +39.622593
Free energy:   -884.284295
Extrapolated:  -881.948913

Spin contamination: 29.108047 electrons
Showing only first 2 kpts
                      Up                     Down
 Kpt  Band  Eigenvalues  Occupancy  Eigenvalues  Occupancy
  0   524      9.84767    0.99536     10.74655    0.02608
  0   525      9.85613    0.99495     10.75963    0.02295
  0   526      9.87860    0.99369     10.76834    0.02108
  0   527      9.88193    0.99348     10.78015    0.01877

  1   524      9.84479    0.99549     10.75271    0.02456
  1   525      9.86246    0.99462     10.75988    0.02290
  1   526      9.86559    0.99445     10.77831    0.01912
  1   527      9.88611    0.99320     10.78609    0.01771

Fermi level: 10.38452

No gap

Forces in eV/Ang:
  0 Co    0.94959   -0.17450   -1.03436
  1 Co   -0.60935    1.57100    0.21671
  2 Fe    1.53035    0.20389   -0.58581
  3 Fe    0.36356   -0.59090   -0.30898
  4 Cr    0.28545    0.75352    0.85139
  5 Cr   -0.36577   -1.42496    0.61244
  6 Co   -0.25585   -0.12298   -0.32405
  7 Cr   -0.95089   -0.45635   -0.24525
  8 Fe   -0.26158   -0.59274   -0.32664
  9 Ni    0.16459    0.02515    0.64809
 10 Ni   -0.26827    1.51761    0.21936
 11 Co    1.11240   -0.28077    0.11001
 12 Cr    1.11481    0.65048    0.14976
 13 Fe    0.52483    0.33946   -0.56987
 14 Cr   -0.36435    0.43771    0.07098
 15 Fe    0.32843   -0.52731    0.88811
 16 Ni   -0.68044   -0.09105   -0.59146
 17 Co    0.89111    0.92883   -0.74379
 18 Ni   -0.20896   -0.00376    1.47300
 19 Cr    0.63070   -0.26886    0.34778
 20 Co    0.28053    0.76454   -0.56575
 21 Ni    0.06366    0.16022    0.24291
 22 Co    1.10344    0.52839   -0.44355
 23 Cr    1.69183    1.38009    1.28055
 24 Fe   -0.68025   -0.17005   -0.63069
 25 Co    1.31542   -0.10785    0.09433
 26 Cr    0.34558   -0.64105    0.55652
 27 Cr   -1.41388    0.23248    0.52214
 28 Fe   -0.48545    0.59349    0.10228
 29 Cr   -0.03420    0.35194   -0.85432
 30 Co    0.30018   -0.86773    0.63976
 31 Co   -0.37947   -0.56762    0.32413
 32 Cr   -0.17780   -0.88864   -1.24872
 33 Ni    0.07924    0.06455   -0.34030
 34 Ni    0.33117   -0.13576    0.17287
 35 Cr    0.42121   -0.11846   -0.56563
 36 Fe   -0.93665   -0.19072    0.67137
 37 Ni    1.76184   -0.00040   -0.76831
 38 Cr   -1.07088   -0.01833    0.54574
 39 Fe   -0.76624    0.21421    0.39002
 40 Fe   -0.47774   -1.44549   -0.35013
 41 Co    0.69421    0.54855    0.23169
 42 Cr   -0.36389   -0.12002    0.17734
 43 Fe    0.32733    0.38117    0.30533
 44 Fe   -0.49011    0.31040    1.11270
 45 Fe   -0.53634    0.62199   -0.19118
 46 Ni    0.29826   -0.52339    0.97264
 47 Co    0.07832   -0.47421   -0.31969
 48 Cr   -0.65195   -0.44807   -0.26719
 49 Ni   -2.21156    0.23110    0.47542
 50 Fe   -0.34399   -0.81664   -0.32039
 51 Co    1.04411   -0.58909   -2.10845
 52 Co   -0.00546   -0.65197   -0.37259
 53 Fe    0.51509    1.00577    0.53292
 54 Fe    1.26322    0.11271    1.03688
 55 Ni   -1.04188    0.33967    0.02706
 56 Ni   -0.02685    0.31157   -0.13346
 57 Fe   -0.14367   -0.34762    0.03684
 58 Co   -1.02136   -0.25269    0.28552
 59 Ni    0.02271   -0.29797   -0.74589
[...]
 93 Ni   -1.34828   -0.44123    0.36848
 94 Ni   -1.24826   -0.65139   -0.90134
 95 Cr    0.64603    0.98417   -0.58077
 96 Ni    0.11757    0.60411   -0.39762
 97 Co   -0.39877   -0.07876    0.47540
 98 Fe    0.11179    0.21628   -0.00249
 99 Cr   -0.86345    0.50346    0.52132
100 Co    0.32520   -0.43288   -0.11741
101 Cr    0.98389   -0.93233    0.49831
102 Fe    0.19590    0.04546    0.46597
103 Co    0.20577    0.23978   -1.23747
104 Ni    1.26901    1.07591    0.65233
105 Co   -0.06664    0.10423   -1.17721
106 Cr    0.32698    1.25738   -0.53053
107 Cr   -0.76595   -0.44792   -0.68151

Date: Wed Apr 12 16:07:55 2023