User:   c.zeng@d0014
Date:   Fri Apr 14 04:12:04 2023
Arch:   x86_64
Pid:    178563
CWD:    /home/c.zeng/projects/hea-corrosion/hea-mlp/data-curation/bulk-md/dft-jobs/94
Python: 3.8.1
gpaw:   /home/c.zeng/usr/installs/gpaw/source/gpaw-22.8.0/gpaw
_gpaw:  /home/c.zeng/usr/installs/gpaw/source/gpaw-22.8.0/
        _gpaw.cpython-38-x86_64-linux-gnu.so
ase:    /home/c.zeng/.local/lib/python3.8/site-packages/ase-3.22.1-py3.8.egg/ase (version 3.22.1)
numpy:  /shared/centos7/python/3.8.1/lib/python3.8/site-packages/numpy (version 1.17.4)
scipy:  /shared/centos7/python/3.8.1/lib/python3.8/site-packages/scipy (version 1.4.1)
units:  Angstrom and eV
cores: 30
OpenMP: False
OMP_NUM_THREADS: 1

Input parameters:
  convergence: {energy: 0.0001}
  kpts: [2 2 2]
  maxiter: 666
  mode: {ecut: 350.0,
         name: pw}
  occupations: {fixmagmom: False,
                name: fermi-dirac,
                width: 0.1}
  spinpol: True
  xc: PBE

System changes: positions, numbers, cell, pbc, initial_charges, initial_magmoms

Initialize ...

species:
  Al:
    name: Aluminium
    id: 0292cae29f5d6237e50f6abdd43a7bdd
    Z: 13.0
    valence: 3
    core: 10
    charge: 0.0
    file: /home/c.zeng/usr/data/gpaw-setups-0.9.20000/Al.PBE.gz
    compensation charges: {type: gauss,
                           rc: 0.34,
                           lmax: 2}
    cutoffs: {filter: 1.91,
              core: 2.36}
    valence states:
      #              energy  rcut
      - 3s(2.00)    -7.753   1.085
      - 3p(1.00)    -2.712   1.085
      -  s          19.459   1.085
      -  p          24.499   1.085
      -  d           0.000   1.085

    # Using partial waves for Al as LCAO basis

  Fe:
    name: Iron
    id: 37abbd8d6c3c35915a9b583b742da910
    Z: 26.0
    valence: 8
    core: 18
    charge: 0.0
    file: /home/c.zeng/usr/data/gpaw-setups-0.9.20000/Fe.PBE.gz
    compensation charges: {type: gauss,
                           rc: 0.33,
                           lmax: 2}
    cutoffs: {filter: 2.06,
              core: 2.67}
    valence states:
      #              energy  rcut
      - 4s(2.00)    -5.291   1.164
      - 4p(0.00)    -1.326   1.058
      - 3d(6.00)    -7.505   1.058
      -  s          21.920   1.164
      -  p          25.885   1.058
      -  d          19.706   1.058

[...]

  Cr:
    name: Chromium
    id: 33f258bda2ca9f93018e70263a35547b
    Z: 24.0
    valence: 6
    core: 18
    charge: 0.0
    file: /home/c.zeng/usr/data/gpaw-setups-0.9.20000/Cr.PBE.gz
    compensation charges: {type: gauss,
                           rc: 0.35,
                           lmax: 2}
    cutoffs: {filter: 2.14,
              core: 3.04}
    valence states:
      #              energy  rcut
      - 4s(1.00)    -4.007   1.164
      - 4p(0.00)    -0.989   1.217
      - 3d(5.00)    -2.913   1.111
      -  s          23.205   1.164
      -  p          26.223   1.217
      -  d          24.299   1.111

[...]

  Ni:
    name: Nickel
    id: 0d9f38a9d6e76a2886f07bb4381f212b
    Z: 28.0
    valence: 16
    core: 12
    charge: 0.0
    file: /home/c.zeng/usr/data/gpaw-setups-0.9.20000/Ni.PBE.gz
    compensation charges: {type: gauss,
                           rc: 0.36,
                           lmax: 2}
    cutoffs: {filter: 2.14,
              core: 1.98}
    valence states:
      #              energy  rcut
      - 4s(2.00)    -5.642   1.164
      - 3p(6.00)   -71.394   1.207
      - 4p(0.00)    -1.226   1.207
      - 3d(8.00)    -8.875   1.138
      -  s          21.570   1.164
      -  d          18.337   1.138

[...]

  Co:
    name: Cobalt
    id: 339d20d5b0b93d2de9531a1bee871d91
    Z: 27.0
    valence: 9
    core: 18
    charge: 0.0
    file: /home/c.zeng/usr/data/gpaw-setups-0.9.20000/Co.PBE.gz
    compensation charges: {type: gauss,
                           rc: 0.32,
                           lmax: 2}
    cutoffs: {filter: 1.87,
              core: 2.55}
    valence states:
      #              energy  rcut
      - 4s(2.00)    -5.469   1.005
      - 4p(0.00)    -1.277   1.058
      - 3d(7.00)    -8.205   1.005
      -  s          21.742   1.005
      -  p          25.934   1.058
      -  d          19.007   1.005

    # Using partial waves for Co as LCAO basis

Reference energy: -3235165.067515  # eV

Spin-polarized calculation.
Magnetic moment: 121.100000

Convergence criteria:
 Maximum [total energy] change in last 3 cyles: 0.0001 eV / electron
 Maximum integral of absolute [dens]ity change: 0.0001 electrons / valence electron
 Maximum integral of absolute [eigenst]ate change: 4e-08 eV^2 / valence electron
 Maximum number of scf [iter]ations: 666
 (Square brackets indicate name in SCF output, whereas a 'c' in
 the SCF output indicates the quantity has converged.)

Symmetries present (total): 1

  ( 1  0  0)
  ( 0  1  0)
  ( 0  0  1)

8 k-points: 2 x 2 x 2 Monkhorst-Pack grid
4 k-points in the irreducible part of the Brillouin zone
       k-points in crystal coordinates                weights
   0:     0.25000000   -0.25000000   -0.25000000          2/8
   1:     0.25000000   -0.25000000    0.25000000          2/8
   2:     0.25000000    0.25000000   -0.25000000          2/8
   3:     0.25000000    0.25000000    0.25000000          2/8

Wave functions: Plane wave expansion
  Cutoff energy: 350.000 eV
  Number of coefficients (min, max): 19084, 19084
  Pulay-stress correction: 0.000000 eV/Ang^3 (de/decut=0.000000)
  Using FFTW library
  ScaLapack parameters: grid=1x1, blocksize=None
  Wavefunction extrapolation:
    Improved wavefunction reuse through dual PAW basis

Occupation numbers: Fermi-Dirac:
  width: 0.1000  # eV

Eigensolver
   Davidson(niter=2)

Densities:
  Coarse grid: 48*48*48 grid
  Fine grid: 96*96*96 grid
  Total Charge: 0.000000

Density mixing:
  Method: difference
  Backend: pulay
  Linear mixing parameter: 0.05
  old densities: 5
  Damping of long wavelength oscillations: 50

Hamiltonian:
  XC and Coulomb potentials evaluated on a 96*96*96 grid
  Using the PBE Exchange-Correlation functional
  External potential:
    NoExternalPotential

XC parameters: PBE with 2 nearest neighbor stencil

Total number of cores used: 30
Parallelization over k-points: 2
Domain decomposition: 5 x 3 x 1

Number of atoms: 108
Number of atomic orbitals: 933
Number of bands in calculation: 624
Number of valence electrons: 912
Bands to converge: occupied

... initialized

Initializing position-dependent things.

Density initialized from atomic densities
Creating initial wave functions:
  624 bands from LCAO basis set

       /|                    Ni    |
      / |            Co Co         |
     /  Al     Co        Ni        |
    /   Co         Al              |
   /    | Fe  Al Co FeCr  Ni AFe   Co
  /     Cr  Co        CoFe    CrCr |
 *    Al|   Cr FCo Fe CCo Ni       |
 |      |AlAl   NiNiFe   NiFeAl  Cr|
 | Cr Cr| Fe Cr Al Co CNi  AlFe    |
 |   FeCo  Fe NCr    CrCrFe   Cr   |
 |      Al     AlNi     Ni Ni NiCo |
 |      |CAl    NiCoCo   CrCrCo   Al
 |      .-NiCo---Ni-NAl----Fe------.
 |  Fe /    CAl Al  Ni CoNi       /
 |    Ni       FeFe            CoNi
 |   / Cr  Al     Fe      AFe   /
 |  /               Co       Fe/
 | / Cr      FeAl             /
 |/    Cr       Ni           /
 *--------------------------Al

Positions:
   0 Al    10.764143    0.381544    0.088914    ( 0.0000,  0.0000,  0.0000)
   1 Fe    10.777081    1.727560    1.981216    ( 0.0000,  0.0000,  2.0000)
   2 Cr     1.614135   10.916918    1.906733    ( 0.0000,  0.0000,  0.0000)
   3 Cr     1.829449    1.985418    0.183122    ( 0.0000,  0.0000,  0.0000)
   4 Ni     3.711333   10.838865   11.064855    ( 0.0000,  0.0000,  1.5000)
   5 Al     3.571426    1.955248    1.892918    ( 0.0000,  0.0000,  0.0000)
   6 Al     5.628616   10.964949    1.640671    ( 0.0000,  0.0000,  0.0000)
   7 Ni     5.589322    1.916070   10.930001    ( 0.0000,  0.0000,  1.5000)
   8 Fe     7.263669    0.011045   10.823194    ( 0.0000,  0.0000,  2.0000)
   9 Co     7.224096    1.897704    1.785552    ( 0.0000,  0.0000,  2.1000)
  10 Ni     8.986029   -0.068943    1.577908    ( 0.0000,  0.0000,  1.5000)
  11 Fe     8.827455    1.893924   10.555275    ( 0.0000,  0.0000,  2.0000)
  12 Fe    10.818643    3.587125   -0.304941    ( 0.0000,  0.0000,  2.0000)
  13 Co    10.733641    5.490446    1.471576    ( 0.0000,  0.0000,  2.1000)
  14 Cr     1.537185    3.712195    1.552692    ( 0.0000,  0.0000,  0.0000)
  15 Co     1.509930    5.281497   10.663675    ( 0.0000,  0.0000,  2.1000)
  16 Fe     3.711670    3.566545    0.142568    ( 0.0000,  0.0000,  2.0000)
  17 Al     3.613993    5.442113    1.685914    ( 0.0000,  0.0000,  0.0000)
  18 Fe     5.456394    3.698650    1.958770    ( 0.0000,  0.0000,  2.0000)
  19 Fe     5.586343    5.264252    0.176546    ( 0.0000,  0.0000,  2.0000)
  20 Cr     7.292877    3.863811   10.554804    ( 0.0000,  0.0000,  0.0000)
  21 Co     7.306893    5.220562    1.822547    ( 0.0000,  0.0000,  2.1000)
  22 Al     9.185784    3.475901    1.767590    ( 0.0000,  0.0000,  0.0000)
  23 Fe     9.047916    5.562675    0.037047    ( 0.0000,  0.0000,  2.0000)
  24 Ni    10.839547    7.170218    0.012831    ( 0.0000,  0.0000,  1.5000)
  25 Al    -0.002768    8.912599    1.638122    ( 0.0000,  0.0000,  0.0000)
  26 Ni     1.917625    7.251501    1.793732    ( 0.0000,  0.0000,  1.5000)
  27 Cr     2.195886    8.836483   11.018215    ( 0.0000,  0.0000,  0.0000)
  28 Fe     3.784094    7.135759    0.097951    ( 0.0000,  0.0000,  2.0000)
  29 Ni     3.665224    9.045903    1.935879    ( 0.0000,  0.0000,  1.5000)
  30 Ni     5.653197    7.230969    1.857214    ( 0.0000,  0.0000,  1.5000)
  31 Ni     5.451798    8.911745   11.197118    ( 0.0000,  0.0000,  1.5000)
  32 Co     7.265713    7.226258   -0.020789    ( 0.0000,  0.0000,  2.1000)
  33 Cr     7.338057    9.080526    1.629427    ( 0.0000,  0.0000,  0.0000)
  34 Fe     8.800740    7.196308    1.737063    ( 0.0000,  0.0000,  2.0000)
  35 Ni     9.095489    9.079910   -0.086730    ( 0.0000,  0.0000,  1.5000)
  36 Fe    -0.582846    0.070579    3.490433    ( 0.0000,  0.0000,  2.0000)
  37 Co    10.861523    1.946597    5.499637    ( 0.0000,  0.0000,  2.1000)
  38 Cr     1.680832   10.546727    5.109417    ( 0.0000,  0.0000,  0.0000)
  39 Ni     1.769740    1.694238    3.665669    ( 0.0000,  0.0000,  1.5000)
  40 Al     3.407471   10.805982    3.461475    ( 0.0000,  0.0000,  0.0000)
  41 Al     3.253358    1.747272    5.661696    ( 0.0000,  0.0000,  0.0000)
  42 Cr     5.584509   10.515325    5.414357    ( 0.0000,  0.0000,  0.0000)
  43 Al     5.461536    1.867936    3.789822    ( 0.0000,  0.0000,  0.0000)
  44 Al     7.519636   10.785344    3.642693    ( 0.0000,  0.0000,  0.0000)
  45 Co     7.169553    1.899450    5.734337    ( 0.0000,  0.0000,  2.1000)
  46 Cr     8.966887   -0.041751    5.506152    ( 0.0000,  0.0000,  0.0000)
  47 Ni     9.121453    2.061213    3.750762    ( 0.0000,  0.0000,  1.5000)
  48 Fe     0.044349    3.806163    3.384621    ( 0.0000,  0.0000,  2.0000)
  49 Fe    11.025990    5.610751    5.365829    ( 0.0000,  0.0000,  2.0000)
  50 Al     1.704802    3.647714    5.668300    ( 0.0000,  0.0000,  0.0000)
  51 Co     1.909194    5.529296    3.637740    ( 0.0000,  0.0000,  2.1000)
  52 Co     3.444587    3.485269    3.986009    ( 0.0000,  0.0000,  2.1000)
  53 Ni     3.607713    5.624746    5.457186    ( 0.0000,  0.0000,  1.5000)
  54 Ni     5.584594    3.726014    5.471412    ( 0.0000,  0.0000,  1.5000)
  55 Co     5.454640    5.470672    3.677354    ( 0.0000,  0.0000,  2.1000)
  56 Al     7.196898    3.517068    3.763048    ( 0.0000,  0.0000,  0.0000)
  57 Cr     7.233342    5.539018    5.531937    ( 0.0000,  0.0000,  0.0000)
  58 Ni     9.491202    3.728113    5.235355    ( 0.0000,  0.0000,  1.5000)
  59 Cr     9.168803    5.327975    3.705616    ( 0.0000,  0.0000,  0.0000)
[...]
  93 Co     7.064048    5.368079    8.890262    ( 0.0000,  0.0000,  2.1000)
  94 Ni     8.975192    3.592303    8.787523    ( 0.0000,  0.0000,  1.5000)
  95 Fe     9.095788    5.745719    7.320881    ( 0.0000,  0.0000,  2.0000)
  96 Al     0.172707    7.510188    6.994031    ( 0.0000,  0.0000,  0.0000)
  97 Al     0.390493    9.044731    9.074184    ( 0.0000,  0.0000,  0.0000)
  98 Fe     1.984114    7.094278    8.960240    ( 0.0000,  0.0000,  2.0000)
  99 Co     2.021743    9.104352    7.126089    ( 0.0000,  0.0000,  2.1000)
 100 Fe     3.819297    7.179687    7.218550    ( 0.0000,  0.0000,  2.0000)
 101 Co     3.450005    9.125958    9.119449    ( 0.0000,  0.0000,  2.1000)
 102 Al     5.414806    7.496257    9.189861    ( 0.0000,  0.0000,  0.0000)
 103 Fe     5.346612    9.172269    7.365610    ( 0.0000,  0.0000,  2.0000)
 104 Co     6.998207    7.368589    7.218688    ( 0.0000,  0.0000,  2.1000)
 105 Ni     7.288055    9.178365    9.150477    ( 0.0000,  0.0000,  1.5000)
 106 Al     9.255404    7.225252    8.938254    ( 0.0000,  0.0000,  0.0000)
 107 Cr     9.093242    9.137401    7.347964    ( 0.0000,  0.0000,  0.0000)

Unit cell:
           periodic     x           y           z      points  spacing
  1. axis:    yes   10.872400    0.000000    0.000000    48     0.2265
  2. axis:    yes    0.000000   10.872400    0.000000    48     0.2265
  3. axis:    yes    0.000000    0.000000   10.872400    48     0.2265

  Lengths:  10.872400  10.872400  10.872400
  Angles:   90.000000  90.000000  90.000000

Effective grid spacing dv^(1/3) = 0.2265

     iter     time        total  log10-change:  magmom
                         energy  eigst   dens
iter:   1 04:16:29  -955.803172                  +121.3865
iter:   2 04:18:28  -839.688189  -0.19  -1.16    +64.0583
iter:   3 04:20:27  -827.684400  -0.85  -1.20    +54.3124
iter:   4 04:22:26  -812.446157  -1.26  -1.26    +50.1724
iter:   5 04:24:24  -802.465407  -1.57  -1.29    +47.4122
iter:   6 04:26:23  -795.137790  -1.38  -1.35    +47.7233
iter:   7 04:28:21  -795.847871  -1.35  -1.48    +47.1360
iter:   8 04:30:19  -794.602530  -1.65  -1.55    +47.3200
iter:   9 04:32:17  -790.077944  -2.03  -1.63    +47.6925
iter:  10 04:34:16  -789.623963  -2.41  -1.74    +48.3741
iter:  11 04:36:14  -790.033843  -2.48  -1.79    +49.1855
iter:  12 04:38:13  -790.216269  -2.44  -1.82    +50.0430
iter:  13 04:40:11  -790.441578  -2.37  -1.88    +50.7896
iter:  14 04:42:08  -790.003962  -2.66  -1.93    +51.2467
iter:  15 04:44:07  -789.896635  -2.95  -2.00    +51.4401
iter:  16 04:46:05  -790.110461  -2.93  -2.05    +51.9527
iter:  17 04:48:03  -790.027356  -2.93  -2.08    +52.2758
iter:  18 04:50:01  -789.832855  -3.00  -2.15    +52.1980
iter:  19 04:51:58  -789.974714  -3.16  -2.27    +52.5428
iter:  20 04:53:59  -789.874202  -3.41  -2.28    +52.6160
iter:  21 04:56:42  -789.942386  -3.36  -2.35    +52.6993
iter:  22 04:58:45  -789.931950c -3.47  -2.38    +52.7817
iter:  23 05:00:43  -789.953623c -3.53  -2.42    +52.7967
iter:  24 05:02:41  -789.948250c -3.71  -2.47    +52.7858
iter:  25 05:04:38  -790.011382c -3.75  -2.53    +52.8174
iter:  26 05:06:37  -790.021535c -3.83  -2.54    +52.8155
iter:  27 05:08:35  -790.074113c -3.86  -2.57    +52.8267
iter:  28 05:10:33  -790.057812c -3.96  -2.59    +52.7972
iter:  29 05:12:32  -790.104742c -4.06  -2.66    +52.7354
iter:  30 05:14:29  -790.130455c -4.21  -2.68    +52.7333
iter:  31 05:16:27  -790.176783c -4.09  -2.72    +52.5963
iter:  32 05:17:52  -790.210479c -4.18  -2.75    +52.5757
iter:  33 05:19:48  -790.237824c -4.22  -2.77    +52.5202
iter:  34 05:21:54  -790.251907c -4.37  -2.81    +52.4549
iter:  35 05:24:01  -790.279147c -4.32  -2.84    +52.3625
iter:  36 05:26:08  -790.298893c -4.42  -2.87    +52.3266
iter:  37 05:28:15  -790.321219c -4.35  -2.90    +52.1957
iter:  38 05:30:22  -790.335226c -4.51  -2.94    +52.1696
iter:  39 05:32:29  -790.353207c -4.51  -2.96    +52.1152
iter:  40 05:34:35  -790.364711c -4.62  -3.00    +52.0718
iter:  41 05:36:42  -790.377616c -4.58  -3.00    +52.0259
iter:  42 05:38:49  -790.384595c -4.79  -3.05    +52.0145
iter:  43 05:40:56  -790.393884c -4.73  -3.08    +51.9604
iter:  44 05:43:03  -790.401699c -4.86  -3.12    +51.9573
iter:  45 05:45:10  -790.409526c -4.82  -3.13    +51.9389
iter:  46 05:47:17  -790.414877c -4.88  -3.18    +51.9285
iter:  47 05:49:24  -790.418845c -4.98  -3.18    +51.9348
iter:  48 05:51:32  -790.422461c -5.15  -3.25    +51.9326
iter:  49 05:53:38  -790.426267c -5.02  -3.26    +51.9335
iter:  50 05:55:46  -790.428293c -5.23  -3.29    +51.9431
iter:  51 05:57:53  -790.430481c -5.29  -3.31    +51.9402
iter:  52 06:00:00  -790.432039c -5.28  -3.36    +51.9432
iter:  53 06:02:07  -790.433505c -5.44  -3.35    +51.9559
iter:  54 06:04:14  -790.435095c -5.58  -3.41    +51.9552
iter:  55 06:06:22  -790.436025c -5.55  -3.42    +51.9539
iter:  56 06:08:29  -790.437004c -5.65  -3.46    +51.9514
iter:  57 06:10:36  -790.438077c -5.71  -3.47    +51.9462
iter:  58 06:12:43  -790.438337c -5.72  -3.53    +51.9390
iter:  59 06:14:50  -790.439481c -5.80  -3.52    +51.9324
iter:  60 06:16:57  -790.440349c -5.96  -3.58    +51.9260
iter:  61 06:19:04  -790.441053c -5.91  -3.60    +51.9151
iter:  62 06:21:11  -790.441469c -5.97  -3.65    +51.9056
iter:  63 06:23:18  -790.442351c -5.99  -3.66    +51.8895
iter:  64 06:25:26  -790.442302c -5.96  -3.71    +51.8797
iter:  65 06:27:33  -790.443639c -6.05  -3.71    +51.8590
iter:  66 06:29:40  -790.443666c -6.22  -3.76    +51.8479
iter:  67 06:31:47  -790.444571c -6.08  -3.78    +51.8248
iter:  68 06:33:54  -790.444361c -6.46  -3.81    +51.8437
iter:  69 06:36:00  -790.444842c -6.43  -3.85    +51.8253
iter:  70 06:38:07  -790.444362c -6.46  -3.88    +51.8271
iter:  71 06:40:14  -790.445677c -6.02  -3.90    +51.7881
iter:  72 06:42:20  -790.444970c -6.26  -3.87    +51.8209
iter:  73 06:44:27  -790.444679c -5.19  -3.95    +51.9120
iter:  74 06:46:34  -790.445063c -5.27  -3.74    +51.9604
iter:  75 06:48:40  -790.446635c -5.31  -3.61    +52.0010
iter:  76 06:50:47  -790.447011c -6.28  -3.50    +51.9684
iter:  77 06:52:54  -790.447260c -5.99  -3.54    +52.0060
iter:  78 06:55:01  -790.449334c -5.13  -3.48    +52.0956
iter:  79 06:57:07  -790.449946c -5.25  -3.35    +52.1506
iter:  80 06:59:14  -790.449630c -5.48  -3.28    +52.0738
iter:  81 07:01:21  -790.447921c -5.79  -3.34    +52.0460
[...]
iter: 123 08:29:53  -790.527874c -5.81  -3.52    +49.7469
iter: 124 08:32:00  -790.529845c -5.70  -3.59    +49.7254
iter: 125 08:34:07  -790.530467c -5.86  -3.58    +49.6929
iter: 126 08:36:14  -790.530657c -5.85  -3.66    +49.6812
iter: 127 08:38:20  -790.531813c -5.80  -3.65    +49.6659
iter: 128 08:40:27  -790.532488c -5.85  -3.66    +49.6434
iter: 129 08:42:33  -790.533901c -5.92  -3.70    +49.6309
iter: 130 08:44:40  -790.533292c -5.97  -3.73    +49.6174
iter: 131 08:46:47  -790.534096c -5.87  -3.78    +49.6045
iter: 132 08:48:54  -790.534868c -6.15  -3.74    +49.5773
iter: 133 08:51:01  -790.535777c -5.83  -3.89    +49.5521
iter: 134 08:53:07  -790.535775c -6.06  -3.81    +49.5449
iter: 135 08:55:14  -790.536143c -6.10  -3.87    +49.5202
iter: 136 08:57:21  -790.537511c -6.18  -3.94    +49.5007
iter: 137 08:59:28  -790.537917c -6.35  -3.94    +49.4813
iter: 138 09:01:34  -790.538223c -6.17  -4.02c   +49.4618
iter: 139 09:03:38  -790.538749c -6.46  -3.98    +49.4370
iter: 140 09:05:45  -790.541156c -5.37  -4.05c   +49.3238
iter: 141 09:07:52  -790.541870c -5.72  -4.03c   +49.2842
iter: 142 09:09:59  -790.542244c -6.12  -4.05c   +49.2689
iter: 143 09:12:05  -790.543037c -6.01  -3.98    +49.2438
iter: 144 09:14:12  -790.544874c -5.43  -3.92    +49.1873
iter: 145 09:16:18  -790.545383c -5.94  -3.74    +49.1677
iter: 146 09:18:25  -790.545201c -6.13  -3.71    +49.1537
iter: 147 09:20:32  -790.545289c -6.68  -3.73    +49.1569
iter: 148 09:22:38  -790.545210c -6.74  -3.76    +49.1556
iter: 149 09:24:45  -790.544616c -5.85  -3.78    +49.1552
iter: 150 09:26:51  -790.544200c -5.81  -3.67    +49.1456
iter: 151 09:28:58  -790.544674c -6.08  -3.87    +49.1283
iter: 152 09:31:05  -790.545052c -6.23  -3.85    +49.1264
iter: 153 09:33:11  -790.544487c -6.36  -3.93    +49.1207
iter: 154 09:35:18  -790.544360c -6.53  -3.98    +49.1254
iter: 155 09:37:24  -790.544809c -6.21  -4.00c   +49.1239
iter: 156 09:39:28  -790.544573c -6.27  -4.01c   +49.1265
iter: 157 09:41:33  -790.544562c -6.78  -4.02c   +49.1258
iter: 158 09:43:40  -790.543976c -6.47  -4.14c   +49.1298
iter: 159 09:45:46  -790.544533c -6.67  -4.08c   +49.1295
iter: 160 09:47:53  -790.544701c -6.61  -4.18c   +49.1270
iter: 161 09:49:59  -790.544287c -6.88  -4.15c   +49.1273
iter: 162 09:52:06  -790.544488c -6.86  -4.41c   +49.1293
iter: 163 09:54:12  -790.544318c -7.16  -4.30c   +49.1318
iter: 164 09:56:19  -790.544365c -7.52c -4.41c   +49.1323

Converged after 164 iterations.

Dipole moment: (35.354303, 31.106979, -8.346373) |e|*Ang

Total magnetic moment: (0.000000, 0.000000, 49.132257)
Local magnetic moments:
   0 Al ( 0.000000,  0.000000, -0.009815)
   1 Fe ( 0.000000,  0.000000,  1.473215)
   2 Cr ( 0.000000,  0.000000, -1.783554)
   3 Cr ( 0.000000,  0.000000,  0.944084)
   4 Ni ( 0.000000,  0.000000,  0.027226)
   5 Al ( 0.000000,  0.000000, -0.008031)
   6 Al ( 0.000000,  0.000000, -0.012414)
   7 Ni ( 0.000000,  0.000000,  0.293761)
   8 Fe ( 0.000000,  0.000000,  1.885408)
   9 Co ( 0.000000,  0.000000,  0.948937)
  10 Ni ( 0.000000,  0.000000,  0.133707)
  11 Fe ( 0.000000,  0.000000,  2.020976)
  12 Fe ( 0.000000,  0.000000,  1.812226)
  13 Co ( 0.000000,  0.000000,  1.221165)
  14 Cr ( 0.000000,  0.000000, -1.618393)
  15 Co ( 0.000000,  0.000000,  0.452920)
  16 Fe ( 0.000000,  0.000000,  1.500824)
  17 Al ( 0.000000,  0.000000, -0.037022)
  18 Fe ( 0.000000,  0.000000,  2.197944)
  19 Fe ( 0.000000,  0.000000,  1.970869)
  20 Cr ( 0.000000,  0.000000, -1.802992)
  21 Co ( 0.000000,  0.000000,  1.122951)
  22 Al ( 0.000000,  0.000000, -0.036762)
  23 Fe ( 0.000000,  0.000000,  2.114993)
  24 Ni ( 0.000000,  0.000000,  0.143205)
  25 Al ( 0.000000,  0.000000, -0.005702)
  26 Ni ( 0.000000,  0.000000,  0.243226)
  27 Cr ( 0.000000,  0.000000, -1.056387)
  28 Fe ( 0.000000,  0.000000,  1.896048)
  29 Ni ( 0.000000,  0.000000,  0.120994)
  30 Ni ( 0.000000,  0.000000,  0.320084)
  31 Ni ( 0.000000,  0.000000,  0.179738)
  32 Co ( 0.000000,  0.000000,  1.260138)
  33 Cr ( 0.000000,  0.000000, -1.590709)
  34 Fe ( 0.000000,  0.000000,  1.916569)
  35 Ni ( 0.000000,  0.000000,  0.137493)
  36 Fe ( 0.000000,  0.000000,  1.334156)
  37 Co ( 0.000000,  0.000000,  0.816088)
  38 Cr ( 0.000000,  0.000000, -1.526703)
  39 Ni ( 0.000000,  0.000000, -0.010193)
  40 Al ( 0.000000,  0.000000, -0.001610)
  41 Al ( 0.000000,  0.000000, -0.010724)
  42 Cr ( 0.000000,  0.000000, -2.083696)
  43 Al ( 0.000000,  0.000000, -0.008002)
  44 Al ( 0.000000,  0.000000, -0.002526)
  45 Co ( 0.000000,  0.000000,  0.926063)
  46 Cr ( 0.000000,  0.000000, -1.283670)
  47 Ni ( 0.000000,  0.000000,  0.177272)
  48 Fe ( 0.000000,  0.000000,  1.993583)
  49 Fe ( 0.000000,  0.000000,  1.868683)
  50 Al ( 0.000000,  0.000000, -0.024740)
  51 Co ( 0.000000,  0.000000,  1.384992)
  52 Co ( 0.000000,  0.000000,  1.175957)
  53 Ni ( 0.000000,  0.000000,  0.439741)
  54 Ni ( 0.000000,  0.000000,  0.162834)
  55 Co ( 0.000000,  0.000000,  1.339953)
  56 Al ( 0.000000,  0.000000, -0.021720)
  57 Cr ( 0.000000,  0.000000,  1.327421)
  58 Ni ( 0.000000,  0.000000,  0.206337)
  59 Cr ( 0.000000,  0.000000, -1.801065)
[...]
  93 Co ( 0.000000,  0.000000,  1.030982)
  94 Ni ( 0.000000,  0.000000,  0.161769)
  95 Fe ( 0.000000,  0.000000,  1.725495)
  96 Al ( 0.000000,  0.000000, -0.040089)
  97 Al ( 0.000000,  0.000000, -0.008847)
  98 Fe ( 0.000000,  0.000000,  1.992235)
  99 Co ( 0.000000,  0.000000,  1.272044)
 100 Fe ( 0.000000,  0.000000,  2.414810)
 101 Co ( 0.000000,  0.000000,  1.140962)
 102 Al ( 0.000000,  0.000000, -0.045438)
 103 Fe ( 0.000000,  0.000000,  2.275897)
 104 Co ( 0.000000,  0.000000,  1.349562)
 105 Ni ( 0.000000,  0.000000,  0.335730)
 106 Al ( 0.000000,  0.000000, -0.028237)
 107 Cr ( 0.000000,  0.000000,  1.471312)

Energy contributions relative to reference atoms: (reference = -3235165.067515)

Kinetic:       +461.813556
Potential:     -411.684198
External:        +0.000000
XC:            -869.777453
Entropy (-ST):   -4.022003
Local:          +31.114732
Free energy:   -792.555366
Extrapolated:  -790.544365

Spin contamination: 28.892348 electrons
Showing only first 2 kpts
                      Up                     Down
 Kpt  Band  Eigenvalues  Occupancy  Eigenvalues  Occupancy
  0   454      9.05816    0.99398      9.86750    0.04801
  0   455      9.07551    0.99284      9.87528    0.04457
  0   456      9.08214    0.99236      9.88920    0.03900
  0   457      9.11904    0.98898      9.90895    0.03224

  1   454      9.06490    0.99356      9.86570    0.04883
  1   455      9.08845    0.99186      9.88036    0.04246
  1   456      9.10615    0.99030      9.89465    0.03701
  1   457      9.11768    0.98913      9.90962    0.03203

Fermi level: 9.56877

No gap

Forces in eV/Ang:
  0 Al   -0.71358   -1.74000   -0.75116
  1 Fe    0.57692    0.99869   -0.17370
  2 Cr    0.03508   -0.21231   -1.10236
  3 Cr   -0.83386   -1.39590   -0.86631
  4 Ni   -0.74255    0.02411    0.20771
  5 Al    0.34636    0.28709    0.16164
  6 Al   -0.90771   -0.30531    0.97714
  7 Ni   -0.02038   -0.02808    0.21022
  8 Fe    0.03125    0.10842    0.25588
  9 Co    0.74928    0.22651    0.53816
 10 Ni   -0.04942    0.86920    0.53017
 11 Fe    0.08577    0.88496    2.01270
 12 Fe   -1.43452   -0.18609    0.44868
 13 Co    0.57307   -0.78613    2.37259
 14 Cr    0.11789   -0.17214    1.20019
 15 Co    2.21239    2.01523    0.85235
 16 Fe    0.29353    0.56448   -0.14928
 17 Al   -0.39053   -0.96940    1.32286
 18 Fe    0.04191   -0.73281   -0.01605
 19 Fe    0.09339    0.87341   -0.82262
 20 Cr   -0.00497   -1.25184    1.01997
 21 Co    0.29238    0.61869    0.61729
 22 Al   -1.08250    0.68878   -1.23591
 23 Fe   -1.02700   -1.10348   -1.52291
 24 Ni    0.96841    1.50931   -1.29127
 25 Al    0.31751    0.23273   -0.43818
 26 Ni   -0.68827   -1.24809    0.22364
 27 Cr   -1.25155    0.78253   -1.18728
 28 Fe   -0.55216    1.35016   -0.19216
 29 Ni    0.04938    0.08452   -0.27893
 30 Ni    0.01923   -1.66902    0.15001
 31 Ni   -0.62299    1.13542   -1.67046
 32 Co    0.12181   -0.37573   -0.30199
 33 Cr    0.22272   -0.82176    0.40122
 34 Fe    1.16720   -0.33525   -0.42410
 35 Ni    0.42100   -0.74412   -0.49248
 36 Fe    1.74634   -0.56106    1.00688
 37 Co    0.66212   -1.86227   -0.12030
 38 Cr   -1.29314    0.63007    2.04488
 39 Ni   -0.79955    0.82550    0.02808
 40 Al    2.72233   -0.36389    1.17349
 41 Al    1.35312   -0.61316   -0.72376
 42 Cr   -0.70992    0.55274   -0.88964
 43 Al   -0.71638   -0.87983    0.55516
 44 Al   -0.89504    1.08658   -0.99080
 45 Co   -0.15990   -1.03858   -0.66709
 46 Cr    1.64008    0.67230    1.23098
 47 Ni   -0.83955   -1.07494   -0.32942
 48 Fe    1.58530   -0.25617    0.90116
 49 Fe   -0.82238   -0.95415   -0.02970
 50 Al    0.20939   -0.71606   -3.02063
 51 Co   -0.34408   -0.58026   -0.20566
 52 Co    0.53390    0.98963   -0.92427
 53 Ni    0.45522   -0.96569   -0.99501
 54 Ni   -1.60425   -0.25839   -0.23291
 55 Co   -0.02856   -0.28251   -0.26181
 56 Al    1.54770    1.31802   -0.02357
 57 Cr    0.26153    0.25020   -0.03026
 58 Ni   -1.94795    0.59719    3.01348
 59 Cr   -0.09061    1.57746   -1.26768
[...]
 93 Co    0.89856    0.62624    0.61206
 94 Ni    0.15540    1.35343    0.82841
 95 Fe   -0.11987   -2.16825   -1.52673
 96 Al    0.19935   -0.60401    1.44788
 97 Al   -0.75077    0.61285    0.48660
 98 Fe    0.04305    0.57600    0.76258
 99 Co   -0.83103   -0.13821    0.41855
100 Fe   -0.96885    1.27895    0.45718
101 Co    0.21139    0.05341   -0.25893
102 Al    0.69340   -0.47994   -0.05371
103 Fe    0.57319   -0.56989   -0.55234
104 Co    0.73280   -0.60977    0.64284
105 Ni   -0.20277   -1.72383   -0.61366
106 Al   -2.78973    2.63302    2.52809
107 Cr   -0.43926    0.49405   -0.63442

Date: Fri Apr 14 09:56:39 2023