User:   c.zeng@d0019
Date:   Sat Apr 15 12:53:59 2023
Arch:   x86_64
Pid:    144662
CWD:    /home/c.zeng/projects/hea-corrosion/hea-mlp/data-curation/bulk-mcmc/dft-jobs/39
Python: 3.8.1
gpaw:   /home/c.zeng/usr/installs/gpaw/source/gpaw-22.8.0/gpaw
_gpaw:  /home/c.zeng/usr/installs/gpaw/source/gpaw-22.8.0/
        _gpaw.cpython-38-x86_64-linux-gnu.so
ase:    /home/c.zeng/.local/lib/python3.8/site-packages/ase-3.22.1-py3.8.egg/ase (version 3.22.1)
numpy:  /shared/centos7/python/3.8.1/lib/python3.8/site-packages/numpy (version 1.17.4)
scipy:  /shared/centos7/python/3.8.1/lib/python3.8/site-packages/scipy (version 1.4.1)
units:  Angstrom and eV
cores: 30
OpenMP: False
OMP_NUM_THREADS: 1

Input parameters:
  convergence: {energy: 0.0001}
  kpts: [2 2 2]
  maxiter: 666
  mode: {ecut: 350.0,
         name: pw}
  occupations: {fixmagmom: False,
                name: fermi-dirac,
                width: 0.1}
  spinpol: True
  xc: PBE

System changes: positions, numbers, cell, pbc, initial_charges, initial_magmoms

Initialize ...

species:
  Co:
    name: Cobalt
    id: 339d20d5b0b93d2de9531a1bee871d91
    Z: 27.0
    valence: 9
    core: 18
    charge: 0.0
    file: /home/c.zeng/usr/data/gpaw-setups-0.9.20000/Co.PBE.gz
    compensation charges: {type: gauss,
                           rc: 0.32,
                           lmax: 2}
    cutoffs: {filter: 1.87,
              core: 2.55}
    valence states:
      #              energy  rcut
      - 4s(2.00)    -5.469   1.005
      - 4p(0.00)    -1.277   1.058
      - 3d(7.00)    -8.205   1.005
      -  s          21.742   1.005
      -  p          25.934   1.058
      -  d          19.007   1.005

    # Using partial waves for Co as LCAO basis

  Fe:
    name: Iron
    id: 37abbd8d6c3c35915a9b583b742da910
    Z: 26.0
    valence: 8
    core: 18
    charge: 0.0
    file: /home/c.zeng/usr/data/gpaw-setups-0.9.20000/Fe.PBE.gz
    compensation charges: {type: gauss,
                           rc: 0.33,
                           lmax: 2}
    cutoffs: {filter: 2.06,
              core: 2.67}
    valence states:
      #              energy  rcut
      - 4s(2.00)    -5.291   1.164
      - 4p(0.00)    -1.326   1.058
      - 3d(6.00)    -7.505   1.058
      -  s          21.920   1.164
      -  p          25.885   1.058
      -  d          19.706   1.058

[...]

  Ni:
    name: Nickel
    id: 0d9f38a9d6e76a2886f07bb4381f212b
    Z: 28.0
    valence: 16
    core: 12
    charge: 0.0
    file: /home/c.zeng/usr/data/gpaw-setups-0.9.20000/Ni.PBE.gz
    compensation charges: {type: gauss,
                           rc: 0.36,
                           lmax: 2}
    cutoffs: {filter: 2.14,
              core: 1.98}
    valence states:
      #              energy  rcut
      - 4s(2.00)    -5.642   1.164
      - 3p(6.00)   -71.394   1.207
      - 4p(0.00)    -1.226   1.207
      - 3d(8.00)    -8.875   1.138
      -  s          21.570   1.164
      -  d          18.337   1.138

[...]

  Cr:
    name: Chromium
    id: 33f258bda2ca9f93018e70263a35547b
    Z: 24.0
    valence: 6
    core: 18
    charge: 0.0
    file: /home/c.zeng/usr/data/gpaw-setups-0.9.20000/Cr.PBE.gz
    compensation charges: {type: gauss,
                           rc: 0.35,
                           lmax: 2}
    cutoffs: {filter: 2.14,
              core: 3.04}
    valence states:
      #              energy  rcut
      - 4s(1.00)    -4.007   1.164
      - 4p(0.00)    -0.989   1.217
      - 3d(5.00)    -2.913   1.111
      -  s          23.205   1.164
      -  p          26.223   1.217
      -  d          24.299   1.111

    # Using partial waves for Cr as LCAO basis

Reference energy: -3846758.590871  # eV

Spin-polarized calculation.
Magnetic moment: 151.200000

Convergence criteria:
 Maximum [total energy] change in last 3 cyles: 0.0001 eV / electron
 Maximum integral of absolute [dens]ity change: 0.0001 electrons / valence electron
 Maximum integral of absolute [eigenst]ate change: 4e-08 eV^2 / valence electron
 Maximum number of scf [iter]ations: 666
 (Square brackets indicate name in SCF output, whereas a 'c' in
 the SCF output indicates the quantity has converged.)

Symmetries present (total): 1

  ( 1  0  0)
  ( 0  1  0)
  ( 0  0  1)

8 k-points: 2 x 2 x 2 Monkhorst-Pack grid
4 k-points in the irreducible part of the Brillouin zone
       k-points in crystal coordinates                weights
   0:     0.25000000   -0.25000000   -0.25000000          2/8
   1:     0.25000000   -0.25000000    0.25000000          2/8
   2:     0.25000000    0.25000000   -0.25000000          2/8
   3:     0.25000000    0.25000000    0.25000000          2/8

Wave functions: Plane wave expansion
  Cutoff energy: 350.000 eV
  Number of coefficients (min, max): 17755, 17755
  Pulay-stress correction: 0.000000 eV/Ang^3 (de/decut=0.000000)
  Using FFTW library
  ScaLapack parameters: grid=1x1, blocksize=None
  Wavefunction extrapolation:
    Improved wavefunction reuse through dual PAW basis

Occupation numbers: Fermi-Dirac:
  width: 0.1000  # eV

Eigensolver
   Davidson(niter=2)

Densities:
  Coarse grid: 48*48*48 grid
  Fine grid: 96*96*96 grid
  Total Charge: 0.000000

Density mixing:
  Method: difference
  Backend: pulay
  Linear mixing parameter: 0.05
  old densities: 5
  Damping of long wavelength oscillations: 50

Hamiltonian:
  XC and Coulomb potentials evaluated on a 96*96*96 grid
  Using the PBE Exchange-Correlation functional
  External potential:
    NoExternalPotential

XC parameters: PBE with 2 nearest neighbor stencil

Total number of cores used: 30
Parallelization over k-points: 2
Domain decomposition: 5 x 3 x 1

Number of atoms: 108
Number of atomic orbitals: 1053
Number of bands in calculation: 727
Number of valence electrons: 1053
Bands to converge: occupied

... initialized

Initializing position-dependent things.

Density initialized from atomic densities
Creating initial wave functions:
  727 bands from LCAO basis set

       /|  Ni       Cr      Cr    |
      / |   CrFe     Cr           |
     /  |       Co      Fe       Fe
    /   |Ni      CFe       Co     Ni
   /    | Co       Ni       NFe   |
  /  CCo|  FeNi     CoNi          |
 *    CrNi    FeNi   FeCrCo       |
 |      |CoCr   FeFeNi  CoNiFe   Ni
 |      | CrCo     CoNiFeCrCrNi   |
 |    Co|  CoFeNi   CoNiFe   NiCo |
 |      Cr    CrCrCr NiCrNi     Cr|
 |      |FeFe  CoFeCr   FeCrFe   Cr
 |      .-FeCo-----CrNiFe--NiCr---Co
 |   Cro     Fe       Ni         /
 |    CrCo     Cor     CNie     /
 |   /    Co               Ni  /
 |  /      Fe       Fe    CrFe/
 | / Fe     Ni       CrNi    /
 |/            Co       Cr  /
 *--------Co------Co-------*

Positions:
   0 Co    -0.012479   -0.003723   10.616104    ( 0.0000,  0.0000,  2.1000)
   1 Fe    -0.011321    1.761305    1.763386    ( 0.0000,  0.0000,  2.1000)
   2 Fe     1.758365    0.001326    1.769011    ( 0.0000,  0.0000,  2.0000)
   3 Co     1.752686    1.779222   10.610436    ( 0.0000,  0.0000,  2.0000)
   4 Co     3.541196    0.004726   10.616104    ( 0.0000,  0.0000,  0.0000)
   5 Fe     3.534711    1.782438    1.778999    ( 0.0000,  0.0000,  0.0000)
   6 Ni     5.305717   10.600629    1.767950    ( 0.0000,  0.0000,  2.1000)
   7 Co     5.324780    1.765604   10.614618    ( 0.0000,  0.0000,  0.0000)
   8 Co     7.089121    0.014598   10.619926    ( 0.0000,  0.0000,  2.0000)
   9 Fe     7.085279    1.771219    1.773543    ( 0.0000,  0.0000,  1.5000)
  10 Ni     8.850554    0.011470    1.768756    ( 0.0000,  0.0000,  1.5000)
  11 Cr     8.842381    1.777333   10.615680    ( 0.0000,  0.0000,  2.1000)
  12 Fe    10.590535    3.538203   -0.001956    ( 0.0000,  0.0000,  0.0000)
  13 Ni    10.624277    5.310674    1.769786    ( 0.0000,  0.0000,  2.0000)
  14 Co     1.761379    3.535623    1.784572    ( 0.0000,  0.0000,  0.0000)
  15 Ni     1.770200    5.301408   10.611753    ( 0.0000,  0.0000,  2.0000)
  16 Ni     3.556003    3.551407   10.618333    ( 0.0000,  0.0000,  1.5000)
  17 Fe     3.539370    5.311290    1.775199    ( 0.0000,  0.0000,  2.1000)
  18 Cr     5.320142    3.545059    1.779678    ( 0.0000,  0.0000,  1.5000)
  19 Fe     5.306980    5.314654   10.602720    ( 0.0000,  0.0000,  0.0000)
  20 Cr     7.081585    3.529127   10.614725    ( 0.0000,  0.0000,  2.1000)
  21 Ni     7.069241    5.303361    1.781271    ( 0.0000,  0.0000,  1.5000)
  22 Fe     8.841447    3.542671    1.781600    ( 0.0000,  0.0000,  2.1000)
  23 Cr     8.850893    5.290379    0.000220    ( 0.0000,  0.0000,  0.0000)
  24 Cr     0.005868    7.083411   10.614937    ( 0.0000,  0.0000,  2.0000)
  25 Cr    10.601043    8.849694    1.772960    ( 0.0000,  0.0000,  2.1000)
  26 Fe     1.773713    7.072329    1.777184    ( 0.0000,  0.0000,  0.0000)
  27 Ni     1.755520    8.842943   10.608324    ( 0.0000,  0.0000,  0.0000)
  28 Fe     3.544009    7.063116   10.610489    ( 0.0000,  0.0000,  2.0000)
  29 Co     3.542225    8.826820    1.785580    ( 0.0000,  0.0000,  0.0000)
  30 Cr     5.309835    7.081776    1.776600    ( 0.0000,  0.0000,  2.1000)
  31 Cr     5.331945    8.840321   10.604673    ( 0.0000,  0.0000,  2.1000)
  32 Co     7.068434    7.069028   10.623110    ( 0.0000,  0.0000,  0.0000)
  33 Fe     7.083750    8.846796    1.774509    ( 0.0000,  0.0000,  1.5000)
  34 Ni     8.841404    7.058180    1.777173    ( 0.0000,  0.0000,  1.5000)
  35 Cr     8.835524    8.853600   10.611753    ( 0.0000,  0.0000,  0.0000)
  36 Ni    -0.009351   10.618864    3.531070    ( 0.0000,  0.0000,  2.0000)
  37 Fe    10.602508    1.764818    5.300452    ( 0.0000,  0.0000,  1.5000)
  38 Cr     1.756720    0.001379    5.295867    ( 0.0000,  0.0000,  0.0000)
  39 Co     1.766506    1.767154    3.539222    ( 0.0000,  0.0000,  2.0000)
  40 Co     3.539742    0.013881    3.542873    ( 0.0000,  0.0000,  2.0000)
  41 Fe     3.548944    1.788658    5.306237    ( 0.0000,  0.0000,  2.1000)
  42 Fe     5.320174   -0.004685    5.301386    ( 0.0000,  0.0000,  0.0000)
  43 Co     5.316862    1.765551    3.538935    ( 0.0000,  0.0000,  2.0000)
  44 Cr     7.081086   -0.000289    3.531325    ( 0.0000,  0.0000,  2.0000)
  45 Cr     7.072902    1.777407    5.300537    ( 0.0000,  0.0000,  2.0000)
  46 Fe     8.840544    0.012372    5.307851    ( 0.0000,  0.0000,  1.5000)
  47 Ni     8.833592    1.767928    3.534318    ( 0.0000,  0.0000,  2.1000)
  48 Cr    -0.004066    3.525285    3.545951    ( 0.0000,  0.0000,  0.0000)
  49 Co    -0.001689    5.317934    5.307787    ( 0.0000,  0.0000,  1.5000)
  50 Cr     1.769043    3.555101    5.297279    ( 0.0000,  0.0000,  2.0000)
  51 Fe     1.773692    5.305929    3.538266    ( 0.0000,  0.0000,  2.1000)
  52 Co     3.542746    3.537364    3.547575    ( 0.0000,  0.0000,  2.1000)
  53 Fe     3.548477    5.306927    5.301153    ( 0.0000,  0.0000,  2.0000)
  54 Cr     5.316246    3.553031    5.303637    ( 0.0000,  0.0000,  2.0000)
  55 Fe     5.303286    5.303531    3.542385    ( 0.0000,  0.0000,  1.5000)
  56 Ni     7.074962    3.533023    3.537215    ( 0.0000,  0.0000,  1.5000)
  57 Ni     7.066046    5.306046    5.300081    ( 0.0000,  0.0000,  2.0000)
  58 Ni     8.834526    3.538160    5.294530    ( 0.0000,  0.0000,  2.1000)
  59 Cr     8.846255    5.300452    3.537672    ( 0.0000,  0.0000,  1.5000)
[...]
  93 Ni     7.071130    5.304220    8.839313    ( 0.0000,  0.0000,  1.5000)
  94 Co     8.837997    3.524669    8.843389    ( 0.0000,  0.0000,  1.5000)
  95 Ni     8.833772    5.299051    7.076862    ( 0.0000,  0.0000,  0.0000)
  96 Cr     0.012168    7.080333    7.083835    ( 0.0000,  0.0000,  1.5000)
  97 Fe    -0.017034    8.848707    8.843941    ( 0.0000,  0.0000,  2.1000)
  98 Co     1.777938    7.075503    8.840194    ( 0.0000,  0.0000,  2.0000)
  99 Fe     1.758800    8.840035    7.069803    ( 0.0000,  0.0000,  0.0000)
 100 Fe     3.549921    7.066194    7.070090    ( 0.0000,  0.0000,  2.1000)
 101 Co     3.553137    8.839111    8.836776    ( 0.0000,  0.0000,  0.0000)
 102 Ni     5.304189    7.079929    8.840215    ( 0.0000,  0.0000,  2.0000)
 103 Co     5.321946    8.832180    7.082997    ( 0.0000,  0.0000,  2.1000)
 104 Cr     7.057077    7.072149    7.064167    ( 0.0000,  0.0000,  1.5000)
 105 Fe     7.082402    8.855500    8.837487    ( 0.0000,  0.0000,  2.1000)
 106 Co     8.846786    7.077881    8.846732    ( 0.0000,  0.0000,  0.0000)
 107 Ni     8.839313    8.848272    7.075153    ( 0.0000,  0.0000,  0.0000)

Unit cell:
           periodic     x           y           z      points  spacing
  1. axis:    yes   10.614300    0.000000    0.000000    48     0.2211
  2. axis:    yes    0.000000   10.614300    0.000000    48     0.2211
  3. axis:    yes    0.000000    0.000000   10.614300    48     0.2211

  Lengths:  10.614300  10.614300  10.614300
  Angles:   90.000000  90.000000  90.000000

Effective grid spacing dv^(1/3) = 0.2211

     iter     time        total  log10-change:  magmom
                         energy  eigst   dens
iter:   1 12:58:22  -936.309493                  +151.1062
iter:   2 13:00:05  -927.605736  -0.61  -1.39    +115.4375
iter:   3 13:01:48  -915.046235  -1.03  -1.39    +85.4419
iter:   4 13:03:31  -894.672065  -1.45  -1.40    +72.8159
iter:   5 13:05:14  -890.435657  -1.99  -1.50    +65.0086
iter:   6 13:06:57  -895.762717  -1.98  -1.54    +60.0740
iter:   7 13:08:40  -893.712534  -1.79  -1.54    +57.4773
iter:   8 13:10:23  -887.822448  -1.73  -1.60    +55.9883
iter:   9 13:12:06  -892.270088  -1.96  -1.80    +55.4741
iter:  10 13:13:48  -888.588062  -2.17  -1.82    +54.6799
iter:  11 13:15:31  -887.450655  -2.75  -1.91    +54.0468
iter:  12 13:17:14  -887.896144  -2.96  -1.98    +54.4483
iter:  13 13:18:56  -889.880101  -2.70  -2.01    +54.7050
iter:  14 13:20:39  -889.619661  -2.70  -1.99    +54.7313
iter:  15 13:22:21  -890.643544  -2.58  -2.07    +54.8735
iter:  16 13:24:04  -891.660951  -2.45  -2.06    +55.1453
iter:  17 13:25:47  -889.551753  -2.73  -2.04    +55.0104
iter:  18 13:27:30  -889.488072  -3.13  -2.25    +55.0170
iter:  19 13:29:12  -889.735862  -3.12  -2.30    +55.3139
iter:  20 13:30:55  -889.439179  -3.31  -2.30    +55.6373
iter:  21 13:32:37  -889.581835  -3.56  -2.38    +56.0111
iter:  22 13:34:20  -889.789895  -3.38  -2.41    +56.3126
iter:  23 13:36:02  -889.877887  -3.36  -2.42    +56.6281
iter:  24 13:37:44  -889.783846c -3.50  -2.43    +56.9888
iter:  25 13:39:26  -890.060123  -3.39  -2.53    +57.3305
iter:  26 13:41:09  -890.060129  -3.41  -2.51    +57.4993
iter:  27 13:42:52  -890.106125c -3.51  -2.53    +57.8099
iter:  28 13:44:34  -890.077233c -3.70  -2.54    +58.2163
iter:  29 13:46:16  -890.105646c -3.79  -2.64    +58.5012
iter:  30 13:47:59  -890.116696c -4.23  -2.65    +58.7342
iter:  31 13:49:41  -890.188147c -4.18  -2.71    +59.1536
iter:  32 13:51:25  -890.346001  -3.59  -2.72    +60.0242
iter:  33 13:53:07  -890.543428  -3.47  -2.70    +60.8331
iter:  34 13:54:50  -890.549588  -4.07  -2.59    +60.6231
iter:  35 13:56:32  -890.517714c -3.70  -2.62    +60.9748
iter:  36 13:58:15  -890.506051c -3.91  -2.74    +60.9750
iter:  37 13:59:58  -890.522661c -4.22  -2.84    +60.9069
iter:  38 14:01:41  -890.534837c -4.02  -2.88    +60.8529
iter:  39 14:03:23  -890.522535c -4.66  -2.92    +60.7649
iter:  40 14:05:05  -890.537528c -4.74  -3.01    +60.6365
iter:  41 14:06:46  -890.567250c -4.45  -3.04    +60.4215
iter:  42 14:08:28  -890.549494c -4.89  -3.03    +60.4884
iter:  43 14:10:09  -890.552942c -4.61  -3.17    +60.4793
iter:  44 14:11:50  -890.562026c -4.78  -3.37    +60.4178
iter:  45 14:13:32  -890.559949c -4.96  -3.29    +60.3927
iter:  46 14:15:13  -890.571015c -5.10  -3.41    +60.3194
iter:  47 14:16:55  -890.586040c -4.94  -3.44    +60.2270
iter:  48 14:18:36  -890.597414c -5.18  -3.37    +60.1711
iter:  49 14:20:18  -890.594829c -5.56  -3.28    +60.1869
iter:  50 14:21:59  -890.605527c -4.98  -3.36    +60.0862
iter:  51 14:23:41  -890.610358c -5.05  -3.25    +60.0162
iter:  52 14:25:22  -890.617749c -4.86  -3.34    +59.9493
iter:  53 14:27:04  -890.638052c -4.59  -3.22    +59.8616
iter:  54 14:28:45  -890.622213c -4.90  -3.11    +59.8467
iter:  55 14:30:26  -890.629264c -5.04  -3.24    +59.8168
iter:  56 14:32:08  -890.633472c -4.75  -3.22    +59.8340
iter:  57 14:33:49  -890.627137c -4.94  -3.18    +59.8319
iter:  58 14:35:30  -890.633426c -5.01  -3.35    +59.7985
iter:  59 14:37:12  -890.628124c -5.48  -3.27    +59.7718
iter:  60 14:38:53  -890.629020c -5.52  -3.42    +59.7530
iter:  61 14:40:34  -890.631462c -5.57  -3.43    +59.7476
iter:  62 14:42:15  -890.632217c -5.49  -3.44    +59.7304
iter:  63 14:43:56  -890.632660c -5.55  -3.54    +59.7236
iter:  64 14:45:38  -890.634475c -5.73  -3.61    +59.7212
iter:  65 14:47:19  -890.635602c -5.87  -3.60    +59.7070
iter:  66 14:49:00  -890.635940c -5.62  -3.66    +59.7018
iter:  67 14:50:41  -890.636416c -6.00  -3.63    +59.6978
iter:  68 14:52:20  -890.637519c -6.00  -3.73    +59.6806
iter:  69 14:53:59  -890.639223c -5.79  -3.79    +59.6656
iter:  70 14:55:38  -890.640749c -5.74  -3.80    +59.6382
iter:  71 14:57:17  -890.641574c -5.90  -3.79    +59.6189
iter:  72 14:58:55  -890.642304c -6.14  -3.90    +59.6091
iter:  73 15:00:35  -890.644018c -5.82  -3.96    +59.5854
iter:  74 15:02:13  -890.644005c -6.18  -3.91    +59.5699
iter:  75 15:03:52  -890.645100c -6.16  -4.04c   +59.5542
iter:  76 15:05:31  -890.645277c -6.21  -4.07c   +59.5392
iter:  77 15:07:10  -890.645871c -6.32  -4.08c   +59.5196
iter:  78 15:08:49  -890.646540c -6.32  -4.16c   +59.5027
iter:  79 15:10:28  -890.648426c -5.57  -4.18c   +59.4402
iter:  80 15:12:07  -890.651821c -5.01  -4.14c   +59.3215
iter:  81 15:13:45  -890.654206c -4.90  -3.92    +59.2023
iter:  82 15:15:25  -890.654512c -5.61  -3.80    +59.1912
iter:  83 15:17:04  -890.654441c -5.89  -3.79    +59.1783
iter:  84 15:18:42  -890.654064c -6.25  -3.79    +59.1786
iter:  85 15:20:21  -890.654294c -6.26  -3.83    +59.1789
iter:  86 15:22:00  -890.656284c -5.51  -3.76    +59.1787
iter:  87 15:23:39  -890.652751c -5.49  -3.58    +59.1735
iter:  88 15:25:17  -890.652882c -6.13  -3.90    +59.1704
iter:  89 15:26:56  -890.652770c -6.33  -3.97    +59.1762
iter:  90 15:28:34  -890.652443c -6.62  -4.00c   +59.1745
iter:  91 15:30:12  -890.652535c -6.78  -4.09c   +59.1746
iter:  92 15:31:50  -890.652268c -6.83  -4.10c   +59.1766
iter:  93 15:33:28  -890.652584c -6.78  -4.16c   +59.1802
iter:  94 15:35:06  -890.652225c -6.92  -4.11c   +59.1819
iter:  95 15:36:44  -890.652343c -6.86  -4.22c   +59.1826
iter:  96 15:38:22  -890.652287c -6.94  -4.16c   +59.1853
iter:  97 15:40:01  -890.652069c -7.00  -4.25c   +59.1896
iter:  98 15:41:38  -890.652196c -7.17  -4.22c   +59.1917
iter:  99 15:43:16  -890.652024c -7.19  -4.33c   +59.1946
iter: 100 15:44:54  -890.652089c -7.41c -4.34c   +59.1964

Converged after 100 iterations.

Dipole moment: (6.311502, -2.020573, 0.732416) |e|*Ang

Total magnetic moment: (0.000000, 0.000000, 59.196351)
Local magnetic moments:
   0 Co ( 0.000000,  0.000000,  0.913941)
   1 Fe ( 0.000000,  0.000000,  2.197396)
   2 Fe ( 0.000000,  0.000000,  2.319752)
   3 Co ( 0.000000,  0.000000,  1.133494)
   4 Co ( 0.000000,  0.000000,  1.016619)
   5 Fe ( 0.000000,  0.000000,  2.324739)
   6 Ni ( 0.000000,  0.000000,  0.361526)
   7 Co ( 0.000000,  0.000000,  0.996805)
   8 Co ( 0.000000,  0.000000,  0.676928)
   9 Fe ( 0.000000,  0.000000,  2.041964)
  10 Ni ( 0.000000,  0.000000,  0.303765)
  11 Cr ( 0.000000,  0.000000, -0.886642)
  12 Fe ( 0.000000,  0.000000, -1.943008)
  13 Ni ( 0.000000,  0.000000,  0.016640)
  14 Co ( 0.000000,  0.000000,  1.258497)
  15 Ni ( 0.000000,  0.000000,  0.278297)
  16 Ni ( 0.000000,  0.000000,  0.407483)
  17 Fe ( 0.000000,  0.000000,  1.875953)
  18 Cr ( 0.000000,  0.000000, -1.600631)
  19 Fe ( 0.000000,  0.000000,  2.177758)
  20 Cr ( 0.000000,  0.000000, -1.075758)
  21 Ni ( 0.000000,  0.000000,  0.093360)
  22 Fe ( 0.000000,  0.000000,  1.027626)
  23 Cr ( 0.000000,  0.000000,  1.003415)
  24 Cr ( 0.000000,  0.000000, -1.439947)
  25 Cr ( 0.000000,  0.000000,  0.921011)
  26 Fe ( 0.000000,  0.000000,  1.911283)
  27 Ni ( 0.000000,  0.000000,  0.323949)
  28 Fe ( 0.000000,  0.000000,  2.202068)
  29 Co ( 0.000000,  0.000000,  1.140054)
  30 Cr ( 0.000000,  0.000000, -0.855847)
  31 Cr ( 0.000000,  0.000000, -1.030380)
  32 Co ( 0.000000,  0.000000,  0.918892)
  33 Fe ( 0.000000,  0.000000,  2.009311)
  34 Ni ( 0.000000,  0.000000,  0.003781)
  35 Cr ( 0.000000,  0.000000, -1.260161)
  36 Ni ( 0.000000,  0.000000,  0.403249)
  37 Fe ( 0.000000,  0.000000,  2.162053)
  38 Cr ( 0.000000,  0.000000, -1.824236)
  39 Co ( 0.000000,  0.000000,  1.028577)
  40 Co ( 0.000000,  0.000000,  1.327141)
  41 Fe ( 0.000000,  0.000000,  2.137240)
  42 Fe ( 0.000000,  0.000000,  2.079023)
  43 Co ( 0.000000,  0.000000,  1.057961)
  44 Cr ( 0.000000,  0.000000, -1.768048)
  45 Cr ( 0.000000,  0.000000,  1.142951)
  46 Fe ( 0.000000,  0.000000,  2.172730)
  47 Ni ( 0.000000,  0.000000,  0.243728)
  48 Cr ( 0.000000,  0.000000, -1.612626)
  49 Co ( 0.000000,  0.000000,  0.508570)
  50 Cr ( 0.000000,  0.000000, -1.476265)
  51 Fe ( 0.000000,  0.000000,  1.477053)
  52 Co ( 0.000000,  0.000000,  0.978733)
  53 Fe ( 0.000000,  0.000000,  1.747379)
  54 Cr ( 0.000000,  0.000000, -1.756096)
  55 Fe ( 0.000000,  0.000000,  1.790401)
  56 Ni ( 0.000000,  0.000000,  0.139481)
  57 Ni ( 0.000000,  0.000000,  0.253990)
  58 Ni ( 0.000000,  0.000000,  0.273156)
  59 Cr ( 0.000000,  0.000000,  0.863168)
[...]
  93 Ni ( 0.000000,  0.000000,  0.225426)
  94 Co ( 0.000000,  0.000000,  0.722692)
  95 Ni ( 0.000000,  0.000000,  0.204538)
  96 Cr ( 0.000000,  0.000000, -1.324332)
  97 Fe ( 0.000000,  0.000000,  2.013210)
  98 Co ( 0.000000,  0.000000,  1.348201)
  99 Fe ( 0.000000,  0.000000,  1.950338)
 100 Fe ( 0.000000,  0.000000,  2.179258)
 101 Co ( 0.000000,  0.000000,  1.147577)
 102 Ni ( 0.000000,  0.000000,  0.428677)
 103 Co ( 0.000000,  0.000000,  0.874179)
 104 Cr ( 0.000000,  0.000000, -1.664633)
 105 Fe ( 0.000000,  0.000000,  1.901087)
 106 Co ( 0.000000,  0.000000,  0.783097)
 107 Ni ( 0.000000,  0.000000,  0.228687)

Energy contributions relative to reference atoms: (reference = -3846758.590871)

Kinetic:       +115.619349
Potential:     -183.500520
External:        +0.000000
XC:            -860.592255
Entropy (-ST):   -4.658982
Local:          +40.150827
Free energy:   -892.981580
Extrapolated:  -890.652089

Spin contamination: 34.225242 electrons
Showing only first 2 kpts
                      Up                     Down
 Kpt  Band  Eigenvalues  Occupancy  Eigenvalues  Occupancy
  0   524      9.87610    0.99083     10.66920    0.03740
  0   525      9.88877    0.98961     10.69252    0.02985
  0   526      9.89560    0.98888     10.69852    0.02816
  0   527      9.91161    0.98698     10.71895    0.02308

  1   524      9.87458    0.99097     10.69214    0.02996
  1   525      9.89499    0.98895     10.69832    0.02822
  1   526      9.90045    0.98834     10.70694    0.02594
  1   527      9.92061    0.98577     10.71619    0.02371

Fermi level: 10.34439

No gap

Forces in eV/Ang:
  0 Co    0.11568   -0.01946    0.05077
  1 Fe    0.25095    0.17771   -0.01212
  2 Fe    0.36922   -0.10563   -0.18339
  3 Co    0.02371    0.10927    0.15051
  4 Co   -0.06449   -0.21933   -0.11353
  5 Fe    0.01460    0.09816   -0.19483
  6 Ni   -0.02463    0.04988   -0.12768
  7 Co   -0.07809    0.04738    0.10272
  8 Co   -0.10906   -0.05878   -0.01402
  9 Fe   -0.15258    0.00615   -0.02869
 10 Ni   -0.00806   -0.10477   -0.03470
 11 Cr    0.21143    0.00942   -0.14177
 12 Fe   -0.25759    0.02048    0.09422
 13 Ni   -0.07049   -0.09432    0.12862
 14 Co    0.05493   -0.04021   -0.13094
 15 Ni   -0.06899    0.06741    0.02245
 16 Ni   -0.12914   -0.28263   -0.02669
 17 Fe   -0.29107   -0.30298    0.08034
 18 Cr   -0.29872    0.04141    0.44634
 19 Fe    0.20450   -0.11787   -0.00738
 20 Cr    0.24001    0.30177   -0.50525
 21 Ni    0.07424   -0.01178   -0.16720
 22 Fe    0.17980   -0.15673   -0.35231
 23 Cr   -0.04877   -0.03985   -0.09115
 24 Cr    0.38811   -0.36814   -0.37883
 25 Cr   -0.06988    0.19570   -0.28806
 26 Fe    0.03924    0.09504    0.11473
 27 Ni    0.25851    0.08597    0.03628
 28 Fe   -0.10748    0.32789   -0.07844
 29 Co   -0.08988    0.10951    0.06130
 30 Cr    0.00244   -0.00395   -0.33776
 31 Cr   -0.19009    0.18054    0.15493
 32 Co   -0.02938    0.09264   -0.06479
 33 Fe    0.12291    0.03496   -0.24916
 34 Ni   -0.04138    0.05536   -0.03772
 35 Cr   -0.42191    0.23783   -0.13414
 36 Ni    0.10872    0.09924   -0.00279
 37 Fe    0.31848    0.19156    0.05890
 38 Cr    0.24683    0.07813    0.02639
 39 Co   -0.03027    0.26824    0.06932
 40 Co    0.12250   -0.27782   -0.05808
 41 Fe   -0.17629   -0.03796    0.11670
 42 Fe   -0.04185   -0.33407    0.17164
 43 Co   -0.28326    0.07619    0.03348
 44 Cr   -0.19174   -0.05381    0.12428
 45 Cr    0.06720    0.38114   -0.17565
 46 Fe   -0.18963   -0.60687   -0.00936
 47 Ni    0.11745    0.12260    0.01781
 48 Cr   -0.06378    0.12557   -0.45127
 49 Co    0.42663   -0.00749   -0.04145
 50 Cr    0.45181    0.16469    0.41644
 51 Fe   -0.18413   -0.17453    0.15966
 52 Co   -0.17193   -0.02405   -0.05261
 53 Fe   -0.25996   -0.25057    0.00230
 54 Cr   -0.41088   -0.14906   -0.14820
 55 Fe    0.26065   -0.03150    0.02356
 56 Ni    0.02499   -0.00347   -0.07738
 57 Ni    0.00637   -0.09960   -0.04970
 58 Ni    0.03501   -0.01667    0.19246
 59 Cr   -0.12165   -0.22295   -0.10660
[...]
 93 Ni    0.15003    0.12750    0.18543
 94 Co    0.00463    0.14335    0.42878
 95 Ni    0.21283    0.14658    0.03186
 96 Cr   -0.18273   -0.32213    0.31378
 97 Fe    0.10044   -0.16801    0.24786
 98 Co   -0.21250   -0.10082    0.08333
 99 Fe    0.17395    0.17816   -0.07671
100 Fe   -0.22883    0.06342    0.25504
101 Co   -0.00440    0.18331   -0.07340
102 Ni    0.14999    0.05997    0.21286
103 Co   -0.13676    0.19545   -0.22055
104 Cr    0.23716    0.22396   -0.05030
105 Fe    0.00552   -0.18907    0.22289
106 Co    0.06612   -0.22953   -0.06921
107 Ni    0.06689   -0.06480   -0.07846

Date: Sat Apr 15 15:45:12 2023