User:   c.zeng@d0149
Date:   Sat Apr  8 08:02:55 2023
Arch:   x86_64
Pid:    87116
CWD:    /home/c.zeng/projects/hea-corrosion/hea-mlp/data-curation/volume/dft-jobs/30
Python: 3.8.1
gpaw:   /home/c.zeng/usr/installs/gpaw/source/gpaw-22.8.0/gpaw
_gpaw:  /home/c.zeng/usr/installs/gpaw/source/gpaw-22.8.0/
        _gpaw.cpython-38-x86_64-linux-gnu.so
ase:    /home/c.zeng/.local/lib/python3.8/site-packages/ase-3.22.1-py3.8.egg/ase (version 3.22.1)
numpy:  /shared/centos7/python/3.8.1/lib/python3.8/site-packages/numpy (version 1.17.4)
scipy:  /shared/centos7/python/3.8.1/lib/python3.8/site-packages/scipy (version 1.4.1)
units:  Angstrom and eV
cores: 64
OpenMP: False
OMP_NUM_THREADS: 1

Input parameters:
  convergence: {energy: 0.0001}
  kpts: [2 2 2]
  maxiter: 666
  mode: {ecut: 350.0,
         name: pw}
  occupations: {fixmagmom: False,
                name: fermi-dirac,
                width: 0.1}
  spinpol: True
  xc: PBE

System changes: positions, numbers, cell, pbc, initial_charges, initial_magmoms

Initialize ...

species:
  Cr:
    name: Chromium
    id: 33f258bda2ca9f93018e70263a35547b
    Z: 24.0
    valence: 6
    core: 18
    charge: 0.0
    file: /home/c.zeng/usr/data/gpaw-setups-0.9.20000/Cr.PBE.gz
    compensation charges: {type: gauss,
                           rc: 0.35,
                           lmax: 2}
    cutoffs: {filter: 2.14,
              core: 3.04}
    valence states:
      #              energy  rcut
      - 4s(1.00)    -4.007   1.164
      - 4p(0.00)    -0.989   1.217
      - 3d(5.00)    -2.913   1.111
      -  s          23.205   1.164
      -  p          26.223   1.217
      -  d          24.299   1.111

    # Using partial waves for Cr as LCAO basis

  Al:
    name: Aluminium
    id: 0292cae29f5d6237e50f6abdd43a7bdd
    Z: 13.0
    valence: 3
    core: 10
    charge: 0.0
    file: /home/c.zeng/usr/data/gpaw-setups-0.9.20000/Al.PBE.gz
    compensation charges: {type: gauss,
                           rc: 0.34,
                           lmax: 2}
    cutoffs: {filter: 1.91,
              core: 2.36}
    valence states:
      #              energy  rcut
      - 3s(2.00)    -7.753   1.085
      - 3p(1.00)    -2.712   1.085
      -  s          19.459   1.085
      -  p          24.499   1.085
      -  d           0.000   1.085

[...]

  Co:
    name: Cobalt
    id: 339d20d5b0b93d2de9531a1bee871d91
    Z: 27.0
    valence: 9
    core: 18
    charge: 0.0
    file: /home/c.zeng/usr/data/gpaw-setups-0.9.20000/Co.PBE.gz
    compensation charges: {type: gauss,
                           rc: 0.32,
                           lmax: 2}
    cutoffs: {filter: 1.87,
              core: 2.55}
    valence states:
      #              energy  rcut
      - 4s(2.00)    -5.469   1.005
      - 4p(0.00)    -1.277   1.058
      - 3d(7.00)    -8.205   1.005
      -  s          21.742   1.005
      -  p          25.934   1.058
      -  d          19.007   1.005

[...]

  Fe:
    name: Iron
    id: 37abbd8d6c3c35915a9b583b742da910
    Z: 26.0
    valence: 8
    core: 18
    charge: 0.0
    file: /home/c.zeng/usr/data/gpaw-setups-0.9.20000/Fe.PBE.gz
    compensation charges: {type: gauss,
                           rc: 0.33,
                           lmax: 2}
    cutoffs: {filter: 2.06,
              core: 2.67}
    valence states:
      #              energy  rcut
      - 4s(2.00)    -5.291   1.164
      - 4p(0.00)    -1.326   1.058
      - 3d(6.00)    -7.505   1.058
      -  s          21.920   1.164
      -  p          25.885   1.058
      -  d          19.706   1.058

[...]

  Ni:
    name: Nickel
    id: 0d9f38a9d6e76a2886f07bb4381f212b
    Z: 28.0
    valence: 16
    core: 12
    charge: 0.0
    file: /home/c.zeng/usr/data/gpaw-setups-0.9.20000/Ni.PBE.gz
    compensation charges: {type: gauss,
                           rc: 0.36,
                           lmax: 2}
    cutoffs: {filter: 2.14,
              core: 1.98}
    valence states:
      #              energy  rcut
      - 4s(2.00)    -5.642   1.164
      - 3p(6.00)   -71.394   1.207
      - 4p(0.00)    -1.226   1.207
      - 3d(8.00)    -8.875   1.138
      -  s          21.570   1.164
      -  d          18.337   1.138

    # Using partial waves for Ni as LCAO basis

Reference energy: -3699400.456887  # eV

Spin-polarized calculation.
Magnetic moment: 143.500000

Convergence criteria:
 Maximum [total energy] change in last 3 cyles: 0.0001 eV / electron
 Maximum integral of absolute [dens]ity change: 0.0001 electrons / valence electron
 Maximum integral of absolute [eigenst]ate change: 4e-08 eV^2 / valence electron
 Maximum number of scf [iter]ations: 666
 (Square brackets indicate name in SCF output, whereas a 'c' in
 the SCF output indicates the quantity has converged.)

Symmetries present (total): 1

  ( 1  0  0)
  ( 0  1  0)
  ( 0  0  1)

8 k-points: 2 x 2 x 2 Monkhorst-Pack grid
4 k-points in the irreducible part of the Brillouin zone
       k-points in crystal coordinates                weights
   0:     0.25000000   -0.25000000   -0.25000000          2/8
   1:     0.25000000   -0.25000000    0.25000000          2/8
   2:     0.25000000    0.25000000   -0.25000000          2/8
   3:     0.25000000    0.25000000    0.25000000          2/8

Wave functions: Plane wave expansion
  Cutoff energy: 350.000 eV
  Number of coefficients (min, max): 22877, 22877
  Pulay-stress correction: 0.000000 eV/Ang^3 (de/decut=0.000000)
  Using FFTW library
  ScaLapack parameters: grid=1x1, blocksize=None
  Wavefunction extrapolation:
    Improved wavefunction reuse through dual PAW basis

Occupation numbers: Fermi-Dirac:
  width: 0.1000  # eV

Eigensolver
   Davidson(niter=2)

Densities:
  Coarse grid: 50*50*50 grid
  Fine grid: 100*100*100 grid
  Total Charge: 0.000000

Density mixing:
  Method: difference
  Backend: pulay
  Linear mixing parameter: 0.05
  old densities: 5
  Damping of long wavelength oscillations: 50

Hamiltonian:
  XC and Coulomb potentials evaluated on a 100*100*100 grid
  Using the PBE Exchange-Correlation functional
  External potential:
    NoExternalPotential

XC parameters: PBE with 2 nearest neighbor stencil

Total number of cores used: 64
Parallelization over k-points: 4
Domain decomposition: 4 x 2 x 2

Number of atoms: 108
Number of atomic orbitals: 1025
Number of bands in calculation: 703
Number of valence electrons: 1020
Bands to converge: occupied

... initialized

Initializing position-dependent things.

Density initialized from atomic densities
Creating initial wave functions:
  703 bands from LCAO basis set

       /|                     Cr    |
      / |               Al          |
     /  |       Cr                  |
    /  Ni                 Fe        |
   /o   CrNi     Cr Cr       Cr     |
  /  NiCo  Fe Co     CrNiFe   Ni    |
 Cr   FeCo     NiNi     Co Co       |
 |Fe   NiCoCr   CoNi Co   AlCr      |
 | Ni Fe| Fe CoAlCo NiNiCo FeNi     |
 |   FeCr   NiCo       Fe     Fe    |
 |      |       Co   Fe   Cr        |
 |    CrNi   CrCoFe CrNiNi Ni       |
 |Co   NiNiNi   Co CrCo  Cr Fe      |
 | Fe Cr.-Fe-CrNi---CoCoFe---Cr-----.
 |   CoFe   NiFeAl   CrNiNi        /
 |    CrFe     CoCr        CoFe   /
 |Al /   Fe                      /
 |  /      Cr     Co Co     Cr  /
 | /         Fe       FeNi     /
 |/             Fe            /
 *--------Fe--------Cr-------*

Positions:
   0 Cr     0.000006    0.000007   11.542477    ( 0.0000,  0.0000,  0.0000)
   1 Al     0.000001    1.923777    1.923765    ( 0.0000,  0.0000,  0.0000)
   2 Cr     1.923765   11.542488    1.923754    ( 0.0000,  0.0000,  0.0000)
   3 Co     1.923754    1.923754   11.542488    ( 0.0000,  0.0000,  2.1000)
   4 Fe     3.847496    0.000006    0.000000    ( 0.0000,  0.0000,  2.0000)
   5 Cr     3.847485    1.923754    1.923731    ( 0.0000,  0.0000,  0.0000)
   6 Ni     5.771250   11.542488    1.923754    ( 0.0000,  0.0000,  1.5000)
   7 Fe     5.771250    1.923754    0.000004    ( 0.0000,  0.0000,  2.0000)
   8 Cr     7.695004    0.000022   11.542500    ( 0.0000,  0.0000,  0.0000)
   9 Co     7.695015    1.923754    1.923742    ( 0.0000,  0.0000,  2.1000)
  10 Ni     9.618746   11.542500    1.923777    ( 0.0000,  0.0000,  1.5000)
  11 Fe     9.618746    1.923754   11.542488    ( 0.0000,  0.0000,  2.0000)
  12 Co     0.000007    3.847496   11.542488    ( 0.0000,  0.0000,  2.1000)
  13 Co     0.000017    5.771238    1.923754    ( 0.0000,  0.0000,  2.1000)
  14 Fe     1.923754    3.847519    1.923742    ( 0.0000,  0.0000,  2.0000)
  15 Fe     1.923765    5.771238    0.000011    ( 0.0000,  0.0000,  2.0000)
  16 Fe     3.847496    3.847508    0.000004    ( 0.0000,  0.0000,  2.0000)
  17 Fe     3.847485    5.771262    1.923742    ( 0.0000,  0.0000,  2.0000)
  18 Cr     5.771250    3.847508    1.923719    ( 0.0000,  0.0000,  0.0000)
  19 Co     5.771238    5.771238    0.000003    ( 0.0000,  0.0000,  2.1000)
  20 Fe     7.694992    3.847496   11.542500    ( 0.0000,  0.0000,  2.0000)
  21 Ni     7.695004    5.771238    1.923754    ( 0.0000,  0.0000,  1.5000)
  22 Co     9.618746    3.847508    1.923754    ( 0.0000,  0.0000,  2.1000)
  23 Cr     9.618758    5.771215    0.000006    ( 0.0000,  0.0000,  0.0000)
  24 Cr     0.000025    7.694992    0.000003    ( 0.0000,  0.0000,  0.0000)
  25 Ni     0.000002    9.618746    1.923765    ( 0.0000,  0.0000,  1.5000)
  26 Fe     1.923765    7.694992    1.923742    ( 0.0000,  0.0000,  2.0000)
  27 Ni     1.923765    9.618746   11.542500    ( 0.0000,  0.0000,  1.5000)
  28 Co     3.847485    7.694981    0.000014    ( 0.0000,  0.0000,  2.1000)
  29 Co     3.847496    9.618746    1.923754    ( 0.0000,  0.0000,  2.1000)
  30 Co     5.771227    7.694992    1.923765    ( 0.0000,  0.0000,  2.1000)
  31 Cr     5.771238    9.618758    0.000012    ( 0.0000,  0.0000,  0.0000)
  32 Al     7.694981    7.694992   11.542477    ( 0.0000,  0.0000,  0.0000)
  33 Cr     7.694992    9.618769    1.923777    ( 0.0000,  0.0000,  0.0000)
  34 Cr     9.618758    7.695004    1.923777    ( 0.0000,  0.0000,  0.0000)
  35 Cr     9.618758    9.618769   11.542488    ( 0.0000,  0.0000,  0.0000)
  36 Fe    11.542488   11.542500    3.847508    ( 0.0000,  0.0000,  2.0000)
  37 Co    11.542500    1.923754    5.771227    ( 0.0000,  0.0000,  2.1000)
  38 Cr     1.923742   11.542500    5.771238    ( 0.0000,  0.0000,  0.0000)
  39 Fe     1.923742    1.923754    3.847508    ( 0.0000,  0.0000,  2.0000)
  40 Co     3.847496   11.542488    3.847496    ( 0.0000,  0.0000,  2.1000)
  41 Ni     3.847496    1.923754    5.771250    ( 0.0000,  0.0000,  1.5000)
  42 Ni     5.771250    0.000001    5.771238    ( 0.0000,  0.0000,  1.5000)
  43 Al     5.771273    1.923719    3.847519    ( 0.0000,  0.0000,  0.0000)
  44 Fe     7.695015   11.542488    3.847508    ( 0.0000,  0.0000,  2.0000)
  45 Co     7.695004    1.923754    5.771250    ( 0.0000,  0.0000,  2.1000)
  46 Fe     9.618758   11.542500    5.771227    ( 0.0000,  0.0000,  2.0000)
  47 Ni     9.618746    1.923731    3.847508    ( 0.0000,  0.0000,  1.5000)
  48 Fe     0.000004    3.847508    3.847508    ( 0.0000,  0.0000,  2.0000)
  49 Fe     0.000000    5.771250    5.771250    ( 0.0000,  0.0000,  2.0000)
  50 Ni     1.923742    3.847508    5.771238    ( 0.0000,  0.0000,  1.5000)
  51 Ni     1.923742    5.771250    3.847496    ( 0.0000,  0.0000,  1.5000)
  52 Cr     3.847473    3.847508    3.847496    ( 0.0000,  0.0000,  0.0000)
  53 Co     3.847496    5.771250    5.771250    ( 0.0000,  0.0000,  2.1000)
  54 Fe     5.771262    3.847508    5.771262    ( 0.0000,  0.0000,  2.0000)
  55 Cr     5.771262    5.771262    3.847508    ( 0.0000,  0.0000,  0.0000)
  56 Co     7.695015    3.847508    3.847508    ( 0.0000,  0.0000,  2.1000)
  57 Fe     7.695004    5.771250    5.771250    ( 0.0000,  0.0000,  2.0000)
  58 Ni     9.618746    3.847508    5.771227    ( 0.0000,  0.0000,  1.5000)
  59 Fe     9.618746    5.771238    3.847508    ( 0.0000,  0.0000,  2.0000)
[...]
  93 Ni     7.694992    5.771238    9.618746    ( 0.0000,  0.0000,  1.5000)
  94 Co     9.618746    3.847485    9.618758    ( 0.0000,  0.0000,  2.1000)
  95 Cr     9.618758    5.771262    7.694981    ( 0.0000,  0.0000,  0.0000)
  96 Fe     0.000015    7.695004    7.694992    ( 0.0000,  0.0000,  2.0000)
  97 Ni     0.000010    9.618758    9.618735    ( 0.0000,  0.0000,  1.5000)
  98 Ni     1.923742    7.695004    9.618746    ( 0.0000,  0.0000,  1.5000)
  99 Fe     1.923742    9.618735    7.695004    ( 0.0000,  0.0000,  2.0000)
 100 Ni     3.847473    7.694992    7.694992    ( 0.0000,  0.0000,  1.5000)
 101 Cr     3.847473    9.618758    9.618758    ( 0.0000,  0.0000,  0.0000)
 102 Cr     5.771250    7.694992    9.618746    ( 0.0000,  0.0000,  0.0000)
 103 Cr     5.771250    9.618735    7.694992    ( 0.0000,  0.0000,  0.0000)
 104 Co     7.695004    7.694992    7.695004    ( 0.0000,  0.0000,  2.1000)
 105 Fe     7.695015    9.618746    9.618735    ( 0.0000,  0.0000,  2.0000)
 106 Cr     9.618758    7.695015    9.618723    ( 0.0000,  0.0000,  0.0000)
 107 Ni     9.618758    9.618746    7.695004    ( 0.0000,  0.0000,  1.5000)

Unit cell:
           periodic     x           y           z      points  spacing
  1. axis:    yes   11.542500    0.000000    0.000000    50     0.2308
  2. axis:    yes    0.000000   11.542500    0.000000    50     0.2308
  3. axis:    yes    0.000000    0.000000   11.542500    50     0.2308

  Lengths:  11.542500  11.542500  11.542500
  Angles:   90.000000  90.000000  90.000000

Effective grid spacing dv^(1/3) = 0.2309

     iter     time        total  log10-change:  magmom
                         energy  eigst   dens
iter:   1 08:05:19 -1076.605390                  +143.7778
iter:   2 08:06:22  -928.109398  -0.04  -1.17    +79.7659
iter:   3 08:07:26  -925.701651  -0.60  -1.12    +82.9712
iter:   4 08:08:30  -860.852148  -1.15  -1.20    +78.6922
iter:   5 08:09:33  -851.709975  -1.75  -1.33    +81.0712
iter:   6 08:10:37  -859.973545  -1.50  -1.36    +87.9841
iter:   7 08:11:40  -852.030410  -1.20  -1.33    +92.0344
iter:   8 08:12:43  -847.131529  -1.45  -1.44    +96.9136
iter:   9 08:13:48  -841.945341  -1.36  -1.53    +97.2888
iter:  10 08:14:51  -839.765108  -1.91  -1.69    +96.3805
iter:  11 08:15:53  -837.440925  -2.14  -1.73    +96.8508
iter:  12 08:16:57  -837.638667  -2.41  -1.80    +97.5689
iter:  13 08:18:01  -837.744401  -2.68  -1.84    +97.2219
iter:  14 08:19:04  -838.571687  -2.52  -1.87    +96.1250
iter:  15 08:20:07  -839.010147  -2.66  -1.96    +94.6839
iter:  16 08:21:11  -841.211904  -2.43  -1.96    +93.6225
iter:  17 08:22:15  -839.765369  -2.56  -1.92    +92.9797
iter:  18 08:23:19  -840.632913  -2.76  -2.13    +90.2716
iter:  19 08:24:23  -840.859183  -2.83  -2.09    +89.1965
iter:  20 08:25:26  -840.865300  -3.05  -2.14    +88.1570
iter:  21 08:26:29  -841.494133  -3.15  -2.23    +86.6619
iter:  22 08:27:33  -841.775858  -3.41  -2.22    +85.3081
iter:  23 08:28:36  -842.232965  -3.42  -2.23    +83.7193
iter:  24 08:29:39  -843.450618  -2.97  -2.22    +81.6566
iter:  25 08:30:42  -843.455542  -3.39  -2.15    +82.4085
iter:  26 08:31:46  -844.447801  -2.80  -2.13    +80.9539
iter:  27 08:32:49  -844.426936  -3.03  -2.11    +80.9757
iter:  28 08:33:53  -844.548182  -3.40  -2.12    +79.8591
iter:  29 08:34:57  -845.229689  -2.78  -2.13    +78.4745
iter:  30 08:36:00  -844.951727  -3.65  -2.05    +77.8192
iter:  31 08:37:04  -845.126999  -3.12  -2.08    +76.5387
iter:  32 08:38:08  -845.110634  -2.96  -2.08    +76.4655
iter:  33 08:39:12  -845.135116c -2.95  -2.10    +75.9313
iter:  34 08:40:15  -844.827063  -2.63  -2.09    +75.3374
iter:  35 08:41:21  -844.681998  -2.83  -2.17    +75.0973
iter:  36 08:42:26  -844.421149  -2.99  -2.20    +75.6066
iter:  37 08:43:30  -844.449262  -3.19  -2.27    +75.5178
iter:  38 08:44:33  -844.237220  -3.21  -2.28    +75.3435
iter:  39 08:45:37  -844.426921  -3.25  -2.36    +75.7521
iter:  40 08:46:40  -844.270330  -3.49  -2.33    +76.1730
iter:  41 08:47:43  -844.321112  -3.69  -2.42    +76.4327
iter:  42 08:48:48  -844.459279  -3.47  -2.43    +76.6296
iter:  43 08:49:51  -844.434741  -3.63  -2.41    +77.0487
iter:  44 08:50:55  -844.488756c -3.63  -2.48    +77.5669
iter:  45 08:51:59  -844.622403  -3.54  -2.49    +77.6236
iter:  46 08:53:03  -844.622677  -3.56  -2.47    +77.6957
iter:  47 08:54:08  -844.555680c -3.55  -2.50    +78.1698
iter:  48 08:55:13  -844.597473c -3.81  -2.56    +78.3306
iter:  49 08:56:17  -844.567815c -3.92  -2.58    +78.3643
iter:  50 08:57:21  -844.588442c -3.91  -2.64    +78.3882
iter:  51 08:58:25  -844.566679c -4.17  -2.64    +78.5316
iter:  52 08:59:30  -844.600782c -3.98  -2.72    +78.7086
iter:  53 09:00:35  -844.653613c -3.71  -2.73    +78.6788
iter:  54 09:01:42  -844.589403c -3.97  -2.70    +78.6984
iter:  55 09:02:47  -844.607377c -3.93  -2.86    +78.7668
iter:  56 09:03:51  -844.578808c -4.16  -2.82    +78.8071
iter:  57 09:04:56  -844.577695c -4.34  -2.93    +78.7564
iter:  58 09:06:01  -844.558514c -4.61  -2.96    +78.7540
iter:  59 09:07:06  -844.561759c -4.98  -3.08    +78.8263
iter:  60 09:08:11  -844.558512c -5.25  -3.10    +78.8340
iter:  61 09:09:16  -844.563920c -4.91  -3.15    +78.8462
iter:  62 09:10:20  -844.560387c -4.98  -3.10    +78.8544
iter:  63 09:11:25  -844.563712c -4.85  -3.30    +78.8774
iter:  64 09:12:29  -844.563907c -4.81  -3.25    +78.8668
iter:  65 09:13:34  -844.560543c -5.09  -3.33    +78.8295
iter:  66 09:14:38  -844.559989c -5.46  -3.48    +78.8512
iter:  67 09:15:43  -844.558947c -5.63  -3.57    +78.8552
iter:  68 09:16:48  -844.557581c -5.91  -3.62    +78.8499
iter:  69 09:17:52  -844.558068c -6.48  -3.72    +78.8418
iter:  70 09:18:57  -844.558193c -6.04  -3.79    +78.8377
iter:  71 09:20:01  -844.558184c -5.96  -3.72    +78.8367
iter:  72 09:21:06  -844.557974c -6.01  -3.79    +78.8252
iter:  73 09:22:11  -844.558418c -5.91  -3.82    +78.8248
iter:  74 09:23:15  -844.558707c -5.99  -3.83    +78.8259
iter:  75 09:24:20  -844.557756c -6.31  -3.86    +78.8231
iter:  76 09:25:24  -844.558120c -6.56  -4.03c   +78.8170
iter:  77 09:26:29  -844.557957c -6.84  -4.03c   +78.8158
iter:  78 09:27:34  -844.557991c -7.21  -4.11c   +78.8194
iter:  79 09:28:38  -844.557953c -7.28  -4.16c   +78.8185
iter:  80 09:29:44  -844.558029c -6.60  -4.17c   +78.8176
iter:  81 09:30:48  -844.558459c -6.62  -4.04c   +78.8174
iter:  82 09:31:52  -844.558108c -6.56  -4.13c   +78.8212
iter:  83 09:32:57  -844.558235c -6.53  -4.11c   +78.8222
iter:  84 09:34:03  -844.558023c -6.64  -4.14c   +78.8179
iter:  85 09:35:08  -844.558121c -7.32  -4.25c   +78.8199
iter:  86 09:36:12  -844.558150c -7.28  -4.42c   +78.8218
iter:  87 09:37:16  -844.557956c -7.47c -4.39c   +78.8225

Converged after 87 iterations.

Dipole moment: (0.123788, -0.232387, 0.001510) |e|*Ang

Total magnetic moment: (0.000000, 0.000000, 78.822475)
Local magnetic moments:
   0 Cr ( 0.000000,  0.000000, -2.770538)
   1 Al ( 0.000000,  0.000000, -0.033096)
   2 Cr ( 0.000000,  0.000000, -2.775227)
   3 Co ( 0.000000,  0.000000,  1.432414)
   4 Fe ( 0.000000,  0.000000,  2.592633)
   5 Cr ( 0.000000,  0.000000, -2.706101)
   6 Ni ( 0.000000,  0.000000,  0.323082)
   7 Fe ( 0.000000,  0.000000,  2.677937)
   8 Cr ( 0.000000,  0.000000, -2.718646)
   9 Co ( 0.000000,  0.000000,  1.613592)
  10 Ni ( 0.000000,  0.000000,  0.339398)
  11 Fe ( 0.000000,  0.000000,  2.831491)
  12 Co ( 0.000000,  0.000000,  1.766252)
  13 Co ( 0.000000,  0.000000,  1.606703)
  14 Fe ( 0.000000,  0.000000,  2.713402)
  15 Fe ( 0.000000,  0.000000,  2.919866)
  16 Fe ( 0.000000,  0.000000,  2.770871)
  17 Fe ( 0.000000,  0.000000,  2.749627)
  18 Cr ( 0.000000,  0.000000, -2.374441)
  19 Co ( 0.000000,  0.000000,  1.699878)
  20 Fe ( 0.000000,  0.000000,  2.900506)
  21 Ni ( 0.000000,  0.000000,  0.363230)
  22 Co ( 0.000000,  0.000000,  1.717640)
  23 Cr ( 0.000000,  0.000000, -2.773561)
  24 Cr ( 0.000000,  0.000000, -2.768321)
  25 Ni ( 0.000000,  0.000000,  0.234344)
  26 Fe ( 0.000000,  0.000000,  2.893707)
  27 Ni ( 0.000000,  0.000000,  0.442646)
  28 Co ( 0.000000,  0.000000,  1.699593)
  29 Co ( 0.000000,  0.000000,  1.702877)
  30 Co ( 0.000000,  0.000000,  1.671611)
  31 Cr ( 0.000000,  0.000000,  2.516571)
  32 Al ( 0.000000,  0.000000, -0.025264)
  33 Cr ( 0.000000,  0.000000, -2.758724)
  34 Cr ( 0.000000,  0.000000,  2.719271)
  35 Cr ( 0.000000,  0.000000,  2.551125)
  36 Fe ( 0.000000,  0.000000,  2.854632)
  37 Co ( 0.000000,  0.000000,  1.465991)
  38 Cr ( 0.000000,  0.000000, -2.706993)
  39 Fe ( 0.000000,  0.000000,  2.659875)
  40 Co ( 0.000000,  0.000000,  1.572124)
  41 Ni ( 0.000000,  0.000000,  0.263100)
  42 Ni ( 0.000000,  0.000000,  0.378728)
  43 Al ( 0.000000,  0.000000, -0.011488)
  44 Fe ( 0.000000,  0.000000,  2.800154)
  45 Co ( 0.000000,  0.000000,  1.652146)
  46 Fe ( 0.000000,  0.000000,  2.695703)
  47 Ni ( 0.000000,  0.000000,  0.655260)
  48 Fe ( 0.000000,  0.000000,  2.900747)
  49 Fe ( 0.000000,  0.000000,  2.869798)
  50 Ni ( 0.000000,  0.000000,  0.579703)
  51 Ni ( 0.000000,  0.000000,  0.551632)
  52 Cr ( 0.000000,  0.000000, -2.491151)
  53 Co ( 0.000000,  0.000000,  1.758184)
  54 Fe ( 0.000000,  0.000000,  2.804899)
  55 Cr ( 0.000000,  0.000000, -2.789591)
  56 Co ( 0.000000,  0.000000,  1.676107)
  57 Fe ( 0.000000,  0.000000,  2.921821)
  58 Ni ( 0.000000,  0.000000,  0.552865)
  59 Fe ( 0.000000,  0.000000,  2.876989)
[...]
  93 Ni ( 0.000000,  0.000000,  0.315624)
  94 Co ( 0.000000,  0.000000,  1.729216)
  95 Cr ( 0.000000,  0.000000, -2.969459)
  96 Fe ( 0.000000,  0.000000,  2.927960)
  97 Ni ( 0.000000,  0.000000,  0.393535)
  98 Ni ( 0.000000,  0.000000,  0.573254)
  99 Fe ( 0.000000,  0.000000,  2.783775)
 100 Ni ( 0.000000,  0.000000,  0.583643)
 101 Cr ( 0.000000,  0.000000, -2.728934)
 102 Cr ( 0.000000,  0.000000, -2.793598)
 103 Cr ( 0.000000,  0.000000,  2.588704)
 104 Co ( 0.000000,  0.000000,  1.604232)
 105 Fe ( 0.000000,  0.000000,  2.435903)
 106 Cr ( 0.000000,  0.000000,  2.619158)
 107 Ni ( 0.000000,  0.000000,  0.312120)

Energy contributions relative to reference atoms: (reference = -3699400.456887)

Kinetic:       -302.247472
Potential:     +165.084301
External:        +0.000000
XC:            -739.224530
Entropy (-ST):   -4.816845
Local:          +34.238167
Free energy:   -846.966379
Extrapolated:  -844.557956

Spin contamination: 65.617411 electrons
Showing only first 2 kpts
                      Up                     Down
 Kpt  Band  Eigenvalues  Occupancy  Eigenvalues  Occupancy
  0   508      6.56456    0.99971      7.72623    0.03022
  0   509      6.58123    0.99966      7.73370    0.02811
  0   510      6.59510    0.99961      7.74365    0.02552
  0   511      6.61258    0.99953      7.75294    0.02330

  1   508      6.56105    0.99972      7.73022    0.02908
  1   509      6.57387    0.99968      7.74119    0.02613
  1   510      6.58276    0.99965      7.74736    0.02461
  1   511      6.59766    0.99960      7.75239    0.02343

Fermi level: 7.37939

No gap

Forces in eV/Ang:
  0 Cr   -0.27864   -0.37201   -0.67612
  1 Al   -0.33779    0.38515    0.10969
  2 Cr    0.33253   -0.74895    0.33479
  3 Co    0.17418    0.06781   -0.07571
  4 Fe   -0.34696    0.16772    0.30422
  5 Cr   -0.19675   -0.24520   -0.59579
  6 Ni   -0.08080    0.06130    0.02789
  7 Fe    0.24662    0.07558    0.12849
  8 Cr    0.31276    0.28185   -0.04114
  9 Co    0.30152    0.06949   -0.02511
 10 Ni   -0.08029   -0.00419    0.15893
 11 Fe   -0.31631    0.02829   -0.09154
 12 Co   -0.00405    0.13171   -0.20193
 13 Co    0.18882   -0.42072    0.09556
 14 Fe   -0.03362    0.23232   -0.16506
 15 Fe   -0.02985   -0.00793   -0.35445
 16 Fe    0.11331    0.15669   -0.26554
 17 Fe    0.12261    0.10249    0.16167
 18 Cr    0.44604    0.25191   -0.53837
 19 Co   -0.42203   -0.04269    0.04922
 20 Fe   -0.06308    0.14002   -0.05089
 21 Ni   -0.05638   -0.08924    0.17991
 22 Co   -0.07784    0.07855    0.08651
 23 Cr    0.02713   -0.63144   -0.08411
 24 Cr    0.40081    0.52939   -0.10551
 25 Ni    0.01529    0.11711    0.02405
 26 Fe    0.02884    0.13458    0.21851
 27 Ni    0.09231   -0.05361    0.03131
 28 Co   -0.14745   -0.29077    0.13889
 29 Co   -0.13284   -0.03466    0.21071
 30 Co   -0.17616   -0.21149    0.21940
 31 Cr   -0.26463   -0.01783    0.46326
 32 Al   -0.39162   -0.55073    0.04312
 33 Cr    0.01182   -0.08836    0.60801
 34 Cr    0.11380   -0.44750    0.01452
 35 Cr    0.24462    0.90338    0.15474
 36 Fe   -0.10347   -0.13822    0.23582
 37 Co    0.02061   -0.03143   -0.01617
 38 Cr    0.37552   -0.30063   -0.78233
 39 Fe    0.26469    0.01448    0.30559
 40 Co   -0.08921   -0.39502    0.06721
 41 Ni    0.05352    0.07822    0.01235
 42 Ni   -0.03530    0.11341   -0.04251
 43 Al    0.20611   -0.42311    0.23491
 44 Fe    0.24220    0.33708   -0.18541
 45 Co    0.04311    0.18408   -0.10301
 46 Fe    0.19685    0.18432   -0.00022
 47 Ni   -0.13163    0.00132    0.06131
 48 Fe   -0.11559    0.06623    0.21692
 49 Fe    0.14331   -0.27702    0.12249
 50 Ni    0.00196    0.11085    0.01383
 51 Ni    0.16636   -0.04750    0.02867
 52 Cr   -0.84079    0.33187    0.51557
 53 Co   -0.09421    0.04497    0.06431
 54 Fe   -0.06243   -0.04285    0.40057
 55 Cr    0.38521    0.59852    0.12056
 56 Co    0.20264   -0.00148    0.05128
 57 Fe    0.04116    0.14909    0.16806
 58 Ni   -0.04406   -0.08212   -0.15316
 59 Fe   -0.11019   -0.30346    0.02405
[...]
 93 Ni   -0.14043   -0.06051   -0.04004
 94 Co    0.04412   -0.16048    0.13430
 95 Cr    0.02099   -0.16959    0.11787
 96 Fe    0.28321    0.04849   -0.21859
 97 Ni    0.01611   -0.02284   -0.13281
 98 Ni    0.09087   -0.10785   -0.14928
 99 Fe    0.04489   -0.26835   -0.09004
100 Ni   -0.09921   -0.12192   -0.06685
101 Cr   -0.67651    0.11698   -0.00888
102 Cr    0.31085   -0.38998   -0.39170
103 Cr   -0.31665   -0.39851   -0.22000
104 Co   -0.08473   -0.12613    0.11909
105 Fe    0.51566    0.03036   -0.55730
106 Cr    0.10704   -0.28776   -0.14049
107 Ni    0.00384    0.08649    0.12134

Date: Sat Apr  8 09:37:33 2023