User:   c.zeng@d0141
Date:   Sat Apr 15 14:00:32 2023
Arch:   x86_64
Pid:    113741
CWD:    /home/c.zeng/projects/hea-corrosion/hea-mlp/data-curation/bulk-mcmc/dft-jobs/43
Python: 3.8.1
gpaw:   /home/c.zeng/usr/installs/gpaw/source/gpaw-22.8.0/gpaw
_gpaw:  /home/c.zeng/usr/installs/gpaw/source/gpaw-22.8.0/
        _gpaw.cpython-38-x86_64-linux-gnu.so
ase:    /home/c.zeng/.local/lib/python3.8/site-packages/ase-3.22.1-py3.8.egg/ase (version 3.22.1)
numpy:  /shared/centos7/python/3.8.1/lib/python3.8/site-packages/numpy (version 1.17.4)
scipy:  /shared/centos7/python/3.8.1/lib/python3.8/site-packages/scipy (version 1.4.1)
units:  Angstrom and eV
cores: 30
OpenMP: False
OMP_NUM_THREADS: 1

Input parameters:
  convergence: {energy: 0.0001}
  kpts: [2 2 2]
  maxiter: 666
  mode: {ecut: 350.0,
         name: pw}
  occupations: {fixmagmom: False,
                name: fermi-dirac,
                width: 0.1}
  spinpol: True
  xc: PBE

System changes: positions, numbers, cell, pbc, initial_charges, initial_magmoms

Initialize ...

species:
  Co:
    name: Cobalt
    id: 339d20d5b0b93d2de9531a1bee871d91
    Z: 27.0
    valence: 9
    core: 18
    charge: 0.0
    file: /home/c.zeng/usr/data/gpaw-setups-0.9.20000/Co.PBE.gz
    compensation charges: {type: gauss,
                           rc: 0.32,
                           lmax: 2}
    cutoffs: {filter: 1.87,
              core: 2.55}
    valence states:
      #              energy  rcut
      - 4s(2.00)    -5.469   1.005
      - 4p(0.00)    -1.277   1.058
      - 3d(7.00)    -8.205   1.005
      -  s          21.742   1.005
      -  p          25.934   1.058
      -  d          19.007   1.005

    # Using partial waves for Co as LCAO basis

  Fe:
    name: Iron
    id: 37abbd8d6c3c35915a9b583b742da910
    Z: 26.0
    valence: 8
    core: 18
    charge: 0.0
    file: /home/c.zeng/usr/data/gpaw-setups-0.9.20000/Fe.PBE.gz
    compensation charges: {type: gauss,
                           rc: 0.33,
                           lmax: 2}
    cutoffs: {filter: 2.06,
              core: 2.67}
    valence states:
      #              energy  rcut
      - 4s(2.00)    -5.291   1.164
      - 4p(0.00)    -1.326   1.058
      - 3d(6.00)    -7.505   1.058
      -  s          21.920   1.164
      -  p          25.885   1.058
      -  d          19.706   1.058

[...]

  Cr:
    name: Chromium
    id: 33f258bda2ca9f93018e70263a35547b
    Z: 24.0
    valence: 6
    core: 18
    charge: 0.0
    file: /home/c.zeng/usr/data/gpaw-setups-0.9.20000/Cr.PBE.gz
    compensation charges: {type: gauss,
                           rc: 0.35,
                           lmax: 2}
    cutoffs: {filter: 2.14,
              core: 3.04}
    valence states:
      #              energy  rcut
      - 4s(1.00)    -4.007   1.164
      - 4p(0.00)    -0.989   1.217
      - 3d(5.00)    -2.913   1.111
      -  s          23.205   1.164
      -  p          26.223   1.217
      -  d          24.299   1.111

[...]

  Ni:
    name: Nickel
    id: 0d9f38a9d6e76a2886f07bb4381f212b
    Z: 28.0
    valence: 16
    core: 12
    charge: 0.0
    file: /home/c.zeng/usr/data/gpaw-setups-0.9.20000/Ni.PBE.gz
    compensation charges: {type: gauss,
                           rc: 0.36,
                           lmax: 2}
    cutoffs: {filter: 2.14,
              core: 1.98}
    valence states:
      #              energy  rcut
      - 4s(2.00)    -5.642   1.164
      - 3p(6.00)   -71.394   1.207
      - 4p(0.00)    -1.226   1.207
      - 3d(8.00)    -8.875   1.138
      -  s          21.570   1.164
      -  d          18.337   1.138

    # Using partial waves for Ni as LCAO basis

Reference energy: -3846758.590871  # eV

Spin-polarized calculation.
Magnetic moment: 151.200000

Convergence criteria:
 Maximum [total energy] change in last 3 cyles: 0.0001 eV / electron
 Maximum integral of absolute [dens]ity change: 0.0001 electrons / valence electron
 Maximum integral of absolute [eigenst]ate change: 4e-08 eV^2 / valence electron
 Maximum number of scf [iter]ations: 666
 (Square brackets indicate name in SCF output, whereas a 'c' in
 the SCF output indicates the quantity has converged.)

Symmetries present (total): 1

  ( 1  0  0)
  ( 0  1  0)
  ( 0  0  1)

8 k-points: 2 x 2 x 2 Monkhorst-Pack grid
4 k-points in the irreducible part of the Brillouin zone
       k-points in crystal coordinates                weights
   0:     0.25000000   -0.25000000   -0.25000000          2/8
   1:     0.25000000   -0.25000000    0.25000000          2/8
   2:     0.25000000    0.25000000   -0.25000000          2/8
   3:     0.25000000    0.25000000    0.25000000          2/8

Wave functions: Plane wave expansion
  Cutoff energy: 350.000 eV
  Number of coefficients (min, max): 17755, 17755
  Pulay-stress correction: 0.000000 eV/Ang^3 (de/decut=0.000000)
  Using FFTW library
  ScaLapack parameters: grid=1x1, blocksize=None
  Wavefunction extrapolation:
    Improved wavefunction reuse through dual PAW basis

Occupation numbers: Fermi-Dirac:
  width: 0.1000  # eV

Eigensolver
   Davidson(niter=2)

Densities:
  Coarse grid: 48*48*48 grid
  Fine grid: 96*96*96 grid
  Total Charge: 0.000000

Density mixing:
  Method: difference
  Backend: pulay
  Linear mixing parameter: 0.05
  old densities: 5
  Damping of long wavelength oscillations: 50

Hamiltonian:
  XC and Coulomb potentials evaluated on a 96*96*96 grid
  Using the PBE Exchange-Correlation functional
  External potential:
    NoExternalPotential

XC parameters: PBE with 2 nearest neighbor stencil

Total number of cores used: 30
Parallelization over k-points: 2
Domain decomposition: 5 x 3 x 1

Number of atoms: 108
Number of atomic orbitals: 1053
Number of bands in calculation: 727
Number of valence electrons: 1053
Bands to converge: occupied

... initialized

Initializing position-dependent things.

Density initialized from atomic densities
Creating initial wave functions:
  727 bands from LCAO basis set

       /|  Ni       Ni      Cr    |
      / |   CrFe     Cr           |
     /  |       Co      Fe       Fe
    /   |Cr      CFe       Co     Ni
   /    | Co       Ni       NFe   |
  /  CCo|  FeNi     CoNi          |
 *    CrNi    FeCr   FeNiCo       |
 |      |CoCr   FeFeNi  CoNiFe   Ni
 |      | CrCo     CoNiFeNiNiCr   |
 |    Co|  CoFeCr   CoCrFe   CrCo |
 |      Cr    NiCrCr CrNiNi     Ni|
 |      |FeFe  CoFeNi   FeCrFe   Cr
 |      .-FeCo-----CrCrFe--NiCr---Co
 |   Cro     Fe       Cr         /
 |    NiCo     Coi     CCre     /
 |   /    Co               Ni  /
 |  /      Fe       Fe    CrFe/
 | / Fe     Ni       CrNi    /
 |/            Co       Cr  /
 *--------Co------Co-------*

Positions:
   0 Co    -0.012479   -0.003723   10.616104    ( 0.0000,  0.0000,  2.1000)
   1 Fe    -0.011321    1.761305    1.763386    ( 0.0000,  0.0000,  2.1000)
   2 Fe     1.758365    0.001326    1.769011    ( 0.0000,  0.0000,  2.0000)
   3 Co     1.752686    1.779222   10.610436    ( 0.0000,  0.0000,  2.0000)
   4 Co     3.541196    0.004726   10.616104    ( 0.0000,  0.0000,  0.0000)
   5 Fe     3.534711    1.782438    1.778999    ( 0.0000,  0.0000,  0.0000)
   6 Cr     5.305717   10.600629    1.767950    ( 0.0000,  0.0000,  2.1000)
   7 Co     5.324780    1.765604   10.614618    ( 0.0000,  0.0000,  0.0000)
   8 Co     7.089121    0.014598   10.619926    ( 0.0000,  0.0000,  2.0000)
   9 Fe     7.085279    1.771219    1.773543    ( 0.0000,  0.0000,  1.5000)
  10 Ni     8.850554    0.011470    1.768756    ( 0.0000,  0.0000,  1.5000)
  11 Cr     8.842381    1.777333   10.615680    ( 0.0000,  0.0000,  2.1000)
  12 Fe    10.590535    3.538203   -0.001956    ( 0.0000,  0.0000,  0.0000)
  13 Ni    10.624277    5.310674    1.769786    ( 0.0000,  0.0000,  2.0000)
  14 Co     1.761379    3.535623    1.784572    ( 0.0000,  0.0000,  0.0000)
  15 Cr     1.770200    5.301408   10.611753    ( 0.0000,  0.0000,  2.0000)
  16 Ni     3.556003    3.551407   10.618333    ( 0.0000,  0.0000,  1.5000)
  17 Fe     3.539370    5.311290    1.775199    ( 0.0000,  0.0000,  2.1000)
  18 Ni     5.320142    3.545059    1.779678    ( 0.0000,  0.0000,  1.5000)
  19 Fe     5.306980    5.314654   10.602720    ( 0.0000,  0.0000,  0.0000)
  20 Cr     7.081585    3.529127   10.614725    ( 0.0000,  0.0000,  2.1000)
  21 Cr     7.069241    5.303361    1.781271    ( 0.0000,  0.0000,  1.5000)
  22 Fe     8.841447    3.542671    1.781600    ( 0.0000,  0.0000,  2.1000)
  23 Cr     8.850893    5.290379    0.000220    ( 0.0000,  0.0000,  0.0000)
  24 Ni     0.005868    7.083411   10.614937    ( 0.0000,  0.0000,  2.0000)
  25 Cr    10.601043    8.849694    1.772960    ( 0.0000,  0.0000,  2.1000)
  26 Fe     1.773713    7.072329    1.777184    ( 0.0000,  0.0000,  0.0000)
  27 Ni     1.755520    8.842943   10.608324    ( 0.0000,  0.0000,  0.0000)
  28 Fe     3.544009    7.063116   10.610489    ( 0.0000,  0.0000,  2.0000)
  29 Co     3.542225    8.826820    1.785580    ( 0.0000,  0.0000,  0.0000)
  30 Cr     5.309835    7.081776    1.776600    ( 0.0000,  0.0000,  2.1000)
  31 Ni     5.331945    8.840321   10.604673    ( 0.0000,  0.0000,  2.1000)
  32 Co     7.068434    7.069028   10.623110    ( 0.0000,  0.0000,  0.0000)
  33 Fe     7.083750    8.846796    1.774509    ( 0.0000,  0.0000,  1.5000)
  34 Ni     8.841404    7.058180    1.777173    ( 0.0000,  0.0000,  1.5000)
  35 Cr     8.835524    8.853600   10.611753    ( 0.0000,  0.0000,  0.0000)
  36 Ni    -0.009351   10.618864    3.531070    ( 0.0000,  0.0000,  2.0000)
  37 Fe    10.602508    1.764818    5.300452    ( 0.0000,  0.0000,  1.5000)
  38 Cr     1.756720    0.001379    5.295867    ( 0.0000,  0.0000,  0.0000)
  39 Co     1.766506    1.767154    3.539222    ( 0.0000,  0.0000,  2.0000)
  40 Co     3.539742    0.013881    3.542873    ( 0.0000,  0.0000,  2.0000)
  41 Fe     3.548944    1.788658    5.306237    ( 0.0000,  0.0000,  2.1000)
  42 Fe     5.320174   -0.004685    5.301386    ( 0.0000,  0.0000,  0.0000)
  43 Co     5.316862    1.765551    3.538935    ( 0.0000,  0.0000,  2.0000)
  44 Ni     7.081086   -0.000289    3.531325    ( 0.0000,  0.0000,  2.0000)
  45 Ni     7.072902    1.777407    5.300537    ( 0.0000,  0.0000,  2.0000)
  46 Fe     8.840544    0.012372    5.307851    ( 0.0000,  0.0000,  1.5000)
  47 Cr     8.833592    1.767928    3.534318    ( 0.0000,  0.0000,  2.1000)
  48 Cr    -0.004066    3.525285    3.545951    ( 0.0000,  0.0000,  0.0000)
  49 Co    -0.001689    5.317934    5.307787    ( 0.0000,  0.0000,  1.5000)
  50 Cr     1.769043    3.555101    5.297279    ( 0.0000,  0.0000,  2.0000)
  51 Fe     1.773692    5.305929    3.538266    ( 0.0000,  0.0000,  2.1000)
  52 Co     3.542746    3.537364    3.547575    ( 0.0000,  0.0000,  2.1000)
  53 Fe     3.548477    5.306927    5.301153    ( 0.0000,  0.0000,  2.0000)
  54 Cr     5.316246    3.553031    5.303637    ( 0.0000,  0.0000,  2.0000)
  55 Fe     5.303286    5.303531    3.542385    ( 0.0000,  0.0000,  1.5000)
  56 Cr     7.074962    3.533023    3.537215    ( 0.0000,  0.0000,  1.5000)
  57 Cr     7.066046    5.306046    5.300081    ( 0.0000,  0.0000,  2.0000)
  58 Ni     8.834526    3.538160    5.294530    ( 0.0000,  0.0000,  2.1000)
  59 Cr     8.846255    5.300452    3.537672    ( 0.0000,  0.0000,  1.5000)
[...]
  93 Ni     7.071130    5.304220    8.839313    ( 0.0000,  0.0000,  1.5000)
  94 Co     8.837997    3.524669    8.843389    ( 0.0000,  0.0000,  1.5000)
  95 Ni     8.833772    5.299051    7.076862    ( 0.0000,  0.0000,  0.0000)
  96 Cr     0.012168    7.080333    7.083835    ( 0.0000,  0.0000,  1.5000)
  97 Fe    -0.017034    8.848707    8.843941    ( 0.0000,  0.0000,  2.1000)
  98 Co     1.777938    7.075503    8.840194    ( 0.0000,  0.0000,  2.0000)
  99 Fe     1.758800    8.840035    7.069803    ( 0.0000,  0.0000,  0.0000)
 100 Fe     3.549921    7.066194    7.070090    ( 0.0000,  0.0000,  2.1000)
 101 Co     3.553137    8.839111    8.836776    ( 0.0000,  0.0000,  0.0000)
 102 Ni     5.304189    7.079929    8.840215    ( 0.0000,  0.0000,  2.0000)
 103 Co     5.321946    8.832180    7.082997    ( 0.0000,  0.0000,  2.1000)
 104 Ni     7.057077    7.072149    7.064167    ( 0.0000,  0.0000,  1.5000)
 105 Fe     7.082402    8.855500    8.837487    ( 0.0000,  0.0000,  2.1000)
 106 Co     8.846786    7.077881    8.846732    ( 0.0000,  0.0000,  0.0000)
 107 Ni     8.839313    8.848272    7.075153    ( 0.0000,  0.0000,  0.0000)

Unit cell:
           periodic     x           y           z      points  spacing
  1. axis:    yes   10.614300    0.000000    0.000000    48     0.2211
  2. axis:    yes    0.000000   10.614300    0.000000    48     0.2211
  3. axis:    yes    0.000000    0.000000   10.614300    48     0.2211

  Lengths:  10.614300  10.614300  10.614300
  Angles:   90.000000  90.000000  90.000000

Effective grid spacing dv^(1/3) = 0.2211

     iter     time        total  log10-change:  magmom
                         energy  eigst   dens
iter:   1 14:05:05  -947.734835                  +151.1271
iter:   2 14:07:07  -940.166297  -0.60  -1.37    +116.1989
iter:   3 14:09:10  -917.707435  -0.99  -1.34    +86.2580
iter:   4 14:11:14  -896.068580  -1.41  -1.39    +71.8683
iter:   5 14:13:16  -891.244099  -1.94  -1.49    +64.7641
iter:   6 14:15:23  -893.172954  -2.02  -1.53    +60.5575
iter:   7 14:17:35  -904.473430  -1.60  -1.57    +58.1191
iter:   8 14:19:50  -890.469861  -1.65  -1.53    +56.4340
iter:   9 14:22:03  -894.531535  -1.87  -1.76    +55.2402
iter:  10 14:24:18  -889.016662  -2.12  -1.75    +54.3559
iter:  11 14:26:31  -887.899959  -2.50  -1.87    +54.0433
iter:  12 14:28:46  -887.658709  -2.77  -1.93    +54.5812
iter:  13 14:31:00  -889.522449  -2.70  -1.99    +55.1361
iter:  14 14:33:15  -889.479896  -2.58  -1.97    +55.1888
iter:  15 14:35:29  -889.937717  -2.63  -1.99    +55.4951
iter:  16 14:37:43  -892.433022  -2.43  -2.06    +56.0369
iter:  17 14:39:58  -890.011471  -2.59  -1.95    +55.8770
iter:  18 14:42:10  -889.863341  -2.75  -2.18    +56.0049
iter:  19 14:44:15  -890.376609  -2.84  -2.23    +56.3077
iter:  20 14:46:30  -890.245890  -2.85  -2.21    +56.7619
iter:  21 14:48:45  -889.825106  -3.35  -2.24    +56.8763
iter:  22 14:51:00  -890.136102  -3.16  -2.37    +57.1243
iter:  23 14:53:15  -889.894874  -3.64  -2.32    +57.2992
iter:  24 14:55:31  -890.098020  -3.51  -2.44    +57.7289
iter:  25 14:57:45  -890.338562  -3.51  -2.47    +58.0278
iter:  26 15:00:00  -890.798088  -3.11  -2.47    +58.2061
iter:  27 15:02:13  -890.510009  -3.34  -2.39    +58.4481
iter:  28 15:04:28  -890.898701  -3.24  -2.52    +58.8314
iter:  29 15:06:43  -890.661910  -3.44  -2.42    +58.6694
iter:  30 15:08:58  -890.587531  -3.72  -2.57    +58.7946
iter:  31 15:11:12  -890.632026c -4.09  -2.66    +58.9611
iter:  32 15:13:27  -890.711629  -4.06  -2.69    +59.2380
iter:  33 15:15:42  -890.862878  -3.51  -2.70    +59.7975
iter:  34 15:17:57  -891.045747  -3.48  -2.67    +60.1197
iter:  35 15:20:11  -891.025406  -4.38  -2.57    +59.9492
iter:  36 15:22:26  -891.030296c -4.24  -2.57    +60.0283
iter:  37 15:24:40  -891.035592c -4.02  -2.59    +60.0294
iter:  38 15:26:56  -891.026836c -3.62  -2.59    +59.9507
iter:  39 15:29:11  -890.917924  -3.87  -2.64    +59.7869
iter:  40 15:31:26  -890.929513  -4.16  -2.89    +59.7375
iter:  41 15:33:42  -890.911524c -4.43  -2.91    +59.5995
iter:  42 15:35:56  -890.916505c -4.68  -3.04    +59.5813
iter:  43 15:38:11  -890.916435c -4.84  -3.06    +59.5156
iter:  44 15:40:27  -890.918777c -4.84  -3.11    +59.4924
iter:  45 15:42:42  -890.921844c -4.91  -3.13    +59.4774
iter:  46 15:44:57  -890.916766c -4.99  -3.12    +59.4356
iter:  47 15:47:13  -890.920138c -5.06  -3.22    +59.4598
iter:  48 15:49:28  -890.919100c -4.98  -3.21    +59.4393
iter:  49 15:51:43  -890.920354c -5.13  -3.24    +59.4322
iter:  50 15:53:57  -890.918667c -5.12  -3.28    +59.4299
iter:  51 15:56:13  -890.918455c -5.23  -3.29    +59.4176
iter:  52 15:58:29  -890.917114c -5.44  -3.33    +59.4358
iter:  53 16:00:45  -890.917281c -5.45  -3.38    +59.4075
iter:  54 16:03:01  -890.917826c -5.68  -3.39    +59.4203
iter:  55 16:05:16  -890.917243c -5.52  -3.43    +59.4245
iter:  56 16:07:32  -890.919271c -5.49  -3.44    +59.4294
iter:  57 16:09:47  -890.919472c -5.46  -3.43    +59.4433
iter:  58 16:12:02  -890.919509c -5.52  -3.44    +59.4335
iter:  59 16:14:17  -890.919751c -5.42  -3.49    +59.4563
iter:  60 16:16:32  -890.918450c -5.69  -3.47    +59.4530
iter:  61 16:18:30  -890.919189c -5.78  -3.56    +59.4514
iter:  62 16:20:20  -890.918636c -6.02  -3.60    +59.4465
iter:  63 16:22:07  -890.918923c -6.26  -3.62    +59.4411
iter:  64 16:23:54  -890.918954c -6.22  -3.67    +59.4460
iter:  65 16:25:41  -890.920292c -5.94  -3.67    +59.4379
iter:  66 16:27:28  -890.920187c -6.04  -3.63    +59.4430
iter:  67 16:29:14  -890.920190c -5.77  -3.70    +59.4442
iter:  68 16:31:01  -890.921413c -5.72  -3.65    +59.4434
iter:  69 16:32:47  -890.920426c -5.91  -3.65    +59.4539
iter:  70 16:34:34  -890.920630c -6.09  -3.74    +59.4475
iter:  71 16:36:20  -890.920587c -6.33  -3.80    +59.4585
iter:  72 16:38:06  -890.920492c -6.64  -3.83    +59.4573
iter:  73 16:39:52  -890.921025c -6.64  -3.90    +59.4629
iter:  74 16:41:39  -890.921016c -6.70  -3.90    +59.4623
iter:  75 16:43:25  -890.921490c -6.49  -3.91    +59.4630
iter:  76 16:45:12  -890.921776c -6.10  -3.92    +59.4666
iter:  77 16:46:58  -890.922127c -6.14  -3.80    +59.4612
iter:  78 16:48:44  -890.922095c -6.11  -3.90    +59.4681
iter:  79 16:50:30  -890.921831c -6.17  -3.94    +59.4670
iter:  80 16:52:16  -890.922030c -6.43  -3.92    +59.4637
iter:  81 16:54:03  -890.921791c -6.68  -4.09c   +59.4646
iter:  82 16:55:49  -890.921993c -7.11  -4.20c   +59.4634
iter:  83 16:57:35  -890.922106c -7.23  -4.24c   +59.4673
iter:  84 16:59:22  -890.922511c -6.49  -4.30c   +59.4678
iter:  85 17:01:08  -890.922438c -6.92  -4.14c   +59.4703
iter:  86 17:02:54  -890.922422c -6.99  -4.46c   +59.4709
iter:  87 17:04:40  -890.922610c -7.20  -4.48c   +59.4727
iter:  88 17:06:25  -890.922655c -7.32  -4.53c   +59.4754
iter:  89 17:08:12  -890.922786c -7.34  -4.78c   +59.4774
iter:  90 17:09:58  -890.923310c -6.24  -4.77c   +59.4893
iter:  91 17:11:44  -890.924672c -5.30  -4.62c   +59.5196
iter:  92 17:13:30  -890.925449c -5.46  -4.29c   +59.5363
iter:  93 17:15:16  -890.926470c -5.13  -4.16c   +59.5614
iter:  94 17:17:03  -890.926548c -5.91  -3.98    +59.5646
iter:  95 17:18:49  -890.926564c -6.49  -3.96    +59.5643
iter:  96 17:20:35  -890.926674c -6.79  -3.94    +59.5646
iter:  97 17:22:29  -890.926455c -6.94  -3.92    +59.5653
iter:  98 17:24:23  -890.927028c -6.28  -3.93    +59.5689
iter:  99 17:26:30  -890.927187c -5.87  -3.81    +59.5709
iter: 100 17:28:38  -890.926419c -5.93  -3.82    +59.5562
iter: 101 17:30:45  -890.926146c -6.41  -3.89    +59.5575
iter: 102 17:32:53  -890.926055c -6.84  -4.02c   +59.5579
iter: 103 17:35:00  -890.926090c -6.80  -4.12c   +59.5530
iter: 104 17:37:01  -890.925891c -6.40  -4.13c   +59.5503
iter: 105 17:38:55  -890.926056c -6.45  -4.02c   +59.5562
iter: 106 17:40:48  -890.925940c -6.64  -4.10c   +59.5525
iter: 107 17:42:42  -890.925830c -6.65  -4.30c   +59.5497
iter: 108 17:44:36  -890.925708c -6.85  -4.17c   +59.5495
iter: 109 17:46:31  -890.925666c -7.27  -4.36c   +59.5516
iter: 110 17:48:26  -890.925728c -7.63c -4.49c   +59.5502

Converged after 110 iterations.

Dipole moment: (6.586134, -1.858580, 0.712050) |e|*Ang

Total magnetic moment: (0.000000, 0.000000, 59.550196)
Local magnetic moments:
   0 Co ( 0.000000,  0.000000,  1.046694)
   1 Fe ( 0.000000,  0.000000,  2.018290)
   2 Fe ( 0.000000,  0.000000,  2.324870)
   3 Co ( 0.000000,  0.000000,  1.016076)
   4 Co ( 0.000000,  0.000000,  1.010628)
   5 Fe ( 0.000000,  0.000000,  2.366475)
   6 Cr ( 0.000000,  0.000000, -1.804877)
   7 Co ( 0.000000,  0.000000,  0.712639)
   8 Co ( 0.000000,  0.000000,  0.890355)
   9 Fe ( 0.000000,  0.000000,  1.901023)
  10 Ni ( 0.000000,  0.000000,  0.235902)
  11 Cr ( 0.000000,  0.000000, -1.156766)
  12 Fe ( 0.000000,  0.000000, -1.456076)
  13 Ni ( 0.000000,  0.000000,  0.128150)
  14 Co ( 0.000000,  0.000000,  1.166939)
  15 Cr ( 0.000000,  0.000000, -1.594887)
  16 Ni ( 0.000000,  0.000000,  0.318123)
  17 Fe ( 0.000000,  0.000000,  2.210692)
  18 Ni ( 0.000000,  0.000000,  0.245784)
  19 Fe ( 0.000000,  0.000000,  2.028678)
  20 Cr ( 0.000000,  0.000000, -0.021848)
  21 Cr ( 0.000000,  0.000000,  0.240660)
  22 Fe ( 0.000000,  0.000000, -0.434080)
  23 Cr ( 0.000000,  0.000000,  0.192744)
  24 Ni ( 0.000000,  0.000000,  0.203206)
  25 Cr ( 0.000000,  0.000000,  1.155815)
  26 Fe ( 0.000000,  0.000000,  2.258972)
  27 Ni ( 0.000000,  0.000000,  0.404730)
  28 Fe ( 0.000000,  0.000000,  2.270282)
  29 Co ( 0.000000,  0.000000,  1.371399)
  30 Cr ( 0.000000,  0.000000, -1.701467)
  31 Ni ( 0.000000,  0.000000,  0.309837)
  32 Co ( 0.000000,  0.000000,  0.872750)
  33 Fe ( 0.000000,  0.000000,  2.208048)
  34 Ni ( 0.000000,  0.000000,  0.122807)
  35 Cr ( 0.000000,  0.000000, -1.656428)
  36 Ni ( 0.000000,  0.000000,  0.284228)
  37 Fe ( 0.000000,  0.000000,  1.866690)
  38 Cr ( 0.000000,  0.000000, -1.767858)
  39 Co ( 0.000000,  0.000000,  1.047883)
  40 Co ( 0.000000,  0.000000,  1.181998)
  41 Fe ( 0.000000,  0.000000,  1.934381)
  42 Fe ( 0.000000,  0.000000,  2.271755)
  43 Co ( 0.000000,  0.000000,  0.966687)
  44 Ni ( 0.000000,  0.000000,  0.237824)
  45 Ni ( 0.000000,  0.000000,  0.123044)
  46 Fe ( 0.000000,  0.000000,  2.240526)
  47 Cr ( 0.000000,  0.000000, -0.970303)
  48 Cr ( 0.000000,  0.000000, -0.917476)
  49 Co ( 0.000000,  0.000000,  0.466956)
  50 Cr ( 0.000000,  0.000000, -1.300977)
  51 Fe ( 0.000000,  0.000000,  2.009745)
  52 Co ( 0.000000,  0.000000,  0.950907)
  53 Fe ( 0.000000,  0.000000,  1.956632)
  54 Cr ( 0.000000,  0.000000, -1.406308)
  55 Fe ( 0.000000,  0.000000,  1.683630)
  56 Cr ( 0.000000,  0.000000, -0.369445)
  57 Cr ( 0.000000,  0.000000, -0.495292)
  58 Ni ( 0.000000,  0.000000,  0.095040)
  59 Cr ( 0.000000,  0.000000,  0.894494)
[...]
  93 Ni ( 0.000000,  0.000000,  0.239573)
  94 Co ( 0.000000,  0.000000,  0.682091)
  95 Ni ( 0.000000,  0.000000,  0.197922)
  96 Cr ( 0.000000,  0.000000, -1.506196)
  97 Fe ( 0.000000,  0.000000,  2.259889)
  98 Co ( 0.000000,  0.000000,  1.357537)
  99 Fe ( 0.000000,  0.000000,  1.997877)
 100 Fe ( 0.000000,  0.000000,  2.165089)
 101 Co ( 0.000000,  0.000000,  1.281432)
 102 Ni ( 0.000000,  0.000000,  0.538262)
 103 Co ( 0.000000,  0.000000,  1.232309)
 104 Ni ( 0.000000,  0.000000,  0.422105)
 105 Fe ( 0.000000,  0.000000,  2.198116)
 106 Co ( 0.000000,  0.000000,  1.109245)
 107 Ni ( 0.000000,  0.000000,  0.356060)

Energy contributions relative to reference atoms: (reference = -3846758.590871)

Kinetic:       +121.867110
Potential:     -188.397786
External:        +0.000000
XC:            -862.049056
Entropy (-ST):   -4.572888
Local:          +39.940448
Free energy:   -893.212172
Extrapolated:  -890.925728

Spin contamination: 33.342521 electrons
Showing only first 2 kpts
                      Up                     Down
 Kpt  Band  Eigenvalues  Occupancy  Eigenvalues  Occupancy
  0   524      9.85298    0.99307     10.68400    0.03406
  0   525      9.88191    0.99077     10.69518    0.03057
  0   526      9.88371    0.99060     10.70862    0.02683
  0   527      9.90581    0.98831     10.72227    0.02349

  1   524      9.86373    0.99229     10.70220    0.02856
  1   525      9.88237    0.99073     10.71732    0.02465
  1   526      9.88949    0.99005     10.72648    0.02254
  1   527      9.89674    0.98931     10.74052    0.01964

Fermi level: 10.34951

No gap

Forces in eV/Ang:
  0 Co    0.09133    0.11768    0.19444
  1 Fe    0.10139    0.16596   -0.02115
  2 Fe    0.32836   -0.05528   -0.19292
  3 Co    0.11443    0.03059    0.06881
  4 Co   -0.02113   -0.40169   -0.06618
  5 Fe    0.08585    0.07378   -0.12874
  6 Cr   -0.01518    0.01763   -0.09898
  7 Co   -0.03143    0.04681   -0.11923
  8 Co   -0.06441    0.05406    0.00979
  9 Fe   -0.11133    0.05148   -0.07552
 10 Ni   -0.03443    0.03103    0.04342
 11 Cr    0.11542    0.05120    0.05637
 12 Fe   -0.17491   -0.05647    0.14396
 13 Ni   -0.06823   -0.11110   -0.03917
 14 Co   -0.21843   -0.02629   -0.21923
 15 Cr   -0.09268    0.03084   -0.00495
 16 Ni   -0.17489   -0.19731    0.00558
 17 Fe    0.00098   -0.38454    0.21379
 18 Ni    0.01808   -0.16829   -0.07855
 19 Fe    0.13231   -0.13535   -0.02446
 20 Cr    0.05183    0.05145    0.27845
 21 Cr    0.19586   -0.05463   -0.06331
 22 Fe    0.37455    0.08010   -0.13012
 23 Cr    0.06693   -0.04378   -0.19307
 24 Ni   -0.11314   -0.12172   -0.08914
 25 Cr   -0.01148    0.06511   -0.03916
 26 Fe   -0.00555   -0.04441   -0.00733
 27 Ni    0.31294    0.11540   -0.04912
 28 Fe    0.06418    0.45689   -0.29489
 29 Co   -0.11187    0.23468    0.08565
 30 Cr   -0.07614    0.14437    0.07346
 31 Ni   -0.33810    0.11685    0.06999
 32 Co    0.22975   -0.17079    0.03022
 33 Fe    0.07687    0.02060   -0.17009
 34 Ni   -0.03278   -0.05712   -0.17968
 35 Cr   -0.14567   -0.09170   -0.24778
 36 Ni    0.10286    0.00503   -0.02497
 37 Fe    0.37480    0.03914    0.03796
 38 Cr    0.10330    0.11748    0.11434
 39 Co    0.01738    0.24760    0.15651
 40 Co   -0.04312   -0.38455   -0.00774
 41 Fe   -0.41644   -0.07412   -0.12006
 42 Fe    0.22816   -0.00671   -0.09298
 43 Co   -0.29927    0.27305    0.01819
 44 Ni   -0.01892    0.04403    0.06778
 45 Ni    0.11204    0.11727    0.07579
 46 Fe   -0.06471   -0.21675    0.01810
 47 Cr    0.18940    0.09641   -0.11175
 48 Cr   -0.05504    0.08673   -0.43755
 49 Co    0.06998   -0.24449    0.10526
 50 Cr    0.48685    0.01631   -0.06910
 51 Fe   -0.12728   -0.31100    0.35918
 52 Co   -0.05260   -0.07374    0.05926
 53 Fe   -0.11641   -0.11384   -0.06028
 54 Cr   -0.46783   -0.24132    0.08869
 55 Fe   -0.02045    0.04169    0.07118
 56 Cr   -0.11019   -0.08443   -0.51872
 57 Cr    0.21167    0.08044   -0.07758
 58 Ni    0.13860    0.01948    0.01702
 59 Cr   -0.14730    0.13646    0.18077
[...]
 93 Ni    0.19839    0.11552    0.16392
 94 Co    0.15092    0.30455    0.37090
 95 Ni    0.17662    0.11858   -0.04640
 96 Cr   -0.39654   -0.31515    0.35787
 97 Fe    0.18273   -0.20140    0.26494
 98 Co   -0.23227   -0.00689   -0.00489
 99 Fe    0.29820    0.03604    0.00014
100 Fe   -0.18730    0.05854    0.46004
101 Co   -0.13112    0.17742   -0.05274
102 Ni    0.21807   -0.05413    0.15341
103 Co   -0.22176    0.22899   -0.16683
104 Ni    0.29061    0.18907    0.07259
105 Fe   -0.05786   -0.10461    0.17172
106 Co    0.07728   -0.19276   -0.03100
107 Ni    0.01240   -0.14491    0.03419

Date: Sat Apr 15 17:48:47 2023