User:   c.zeng@d0127
Date:   Fri Apr 14 22:44:55 2023
Arch:   x86_64
Pid:    167164
CWD:    /home/c.zeng/projects/hea-corrosion/hea-mlp/data-curation/bulk-mcmc/dft-jobs/178
Python: 3.8.1
gpaw:   /home/c.zeng/usr/installs/gpaw/source/gpaw-22.8.0/gpaw
_gpaw:  /home/c.zeng/usr/installs/gpaw/source/gpaw-22.8.0/
        _gpaw.cpython-38-x86_64-linux-gnu.so
ase:    /home/c.zeng/.local/lib/python3.8/site-packages/ase-3.22.1-py3.8.egg/ase (version 3.22.1)
numpy:  /shared/centos7/python/3.8.1/lib/python3.8/site-packages/numpy (version 1.17.4)
scipy:  /shared/centos7/python/3.8.1/lib/python3.8/site-packages/scipy (version 1.4.1)
units:  Angstrom and eV
cores: 30
OpenMP: False
OMP_NUM_THREADS: 1

Input parameters:
  convergence: {energy: 0.0001}
  kpts: [2 2 2]
  maxiter: 666
  mode: {ecut: 350.0,
         name: pw}
  occupations: {fixmagmom: False,
                name: fermi-dirac,
                width: 0.1}
  spinpol: True
  xc: PBE

System changes: positions, numbers, cell, pbc, initial_charges, initial_magmoms

Initialize ...

species:
  Fe:
    name: Iron
    id: 37abbd8d6c3c35915a9b583b742da910
    Z: 26.0
    valence: 8
    core: 18
    charge: 0.0
    file: /home/c.zeng/usr/data/gpaw-setups-0.9.20000/Fe.PBE.gz
    compensation charges: {type: gauss,
                           rc: 0.33,
                           lmax: 2}
    cutoffs: {filter: 2.06,
              core: 2.67}
    valence states:
      #              energy  rcut
      - 4s(2.00)    -5.291   1.164
      - 4p(0.00)    -1.326   1.058
      - 3d(6.00)    -7.505   1.058
      -  s          21.920   1.164
      -  p          25.885   1.058
      -  d          19.706   1.058

    # Using partial waves for Fe as LCAO basis

  Co:
    name: Cobalt
    id: 339d20d5b0b93d2de9531a1bee871d91
    Z: 27.0
    valence: 9
    core: 18
    charge: 0.0
    file: /home/c.zeng/usr/data/gpaw-setups-0.9.20000/Co.PBE.gz
    compensation charges: {type: gauss,
                           rc: 0.32,
                           lmax: 2}
    cutoffs: {filter: 1.87,
              core: 2.55}
    valence states:
      #              energy  rcut
      - 4s(2.00)    -5.469   1.005
      - 4p(0.00)    -1.277   1.058
      - 3d(7.00)    -8.205   1.005
      -  s          21.742   1.005
      -  p          25.934   1.058
      -  d          19.007   1.005

[...]

  Al:
    name: Aluminium
    id: 0292cae29f5d6237e50f6abdd43a7bdd
    Z: 13.0
    valence: 3
    core: 10
    charge: 0.0
    file: /home/c.zeng/usr/data/gpaw-setups-0.9.20000/Al.PBE.gz
    compensation charges: {type: gauss,
                           rc: 0.34,
                           lmax: 2}
    cutoffs: {filter: 1.91,
              core: 2.36}
    valence states:
      #              energy  rcut
      - 3s(2.00)    -7.753   1.085
      - 3p(1.00)    -2.712   1.085
      -  s          19.459   1.085
      -  p          24.499   1.085
      -  d           0.000   1.085

[...]

  Cr:
    name: Chromium
    id: 33f258bda2ca9f93018e70263a35547b
    Z: 24.0
    valence: 6
    core: 18
    charge: 0.0
    file: /home/c.zeng/usr/data/gpaw-setups-0.9.20000/Cr.PBE.gz
    compensation charges: {type: gauss,
                           rc: 0.35,
                           lmax: 2}
    cutoffs: {filter: 2.14,
              core: 3.04}
    valence states:
      #              energy  rcut
      - 4s(1.00)    -4.007   1.164
      - 4p(0.00)    -0.989   1.217
      - 3d(5.00)    -2.913   1.111
      -  s          23.205   1.164
      -  p          26.223   1.217
      -  d          24.299   1.111

[...]

  Ni:
    name: Nickel
    id: 0d9f38a9d6e76a2886f07bb4381f212b
    Z: 28.0
    valence: 16
    core: 12
    charge: 0.0
    file: /home/c.zeng/usr/data/gpaw-setups-0.9.20000/Ni.PBE.gz
    compensation charges: {type: gauss,
                           rc: 0.36,
                           lmax: 2}
    cutoffs: {filter: 2.14,
              core: 1.98}
    valence states:
      #              energy  rcut
      - 4s(2.00)    -5.642   1.164
      - 3p(6.00)   -71.394   1.207
      - 4p(0.00)    -1.226   1.207
      - 3d(8.00)    -8.875   1.138
      -  s          21.570   1.164
      -  d          18.337   1.138

    # Using partial waves for Ni as LCAO basis

Reference energy: -3382523.201499  # eV

Spin-polarized calculation.
Magnetic moment: 128.800000

Convergence criteria:
 Maximum [total energy] change in last 3 cyles: 0.0001 eV / electron
 Maximum integral of absolute [dens]ity change: 0.0001 electrons / valence electron
 Maximum integral of absolute [eigenst]ate change: 4e-08 eV^2 / valence electron
 Maximum number of scf [iter]ations: 666
 (Square brackets indicate name in SCF output, whereas a 'c' in
 the SCF output indicates the quantity has converged.)

Symmetries present (total): 1

  ( 1  0  0)
  ( 0  1  0)
  ( 0  0  1)

8 k-points: 2 x 2 x 2 Monkhorst-Pack grid
4 k-points in the irreducible part of the Brillouin zone
       k-points in crystal coordinates                weights
   0:     0.25000000   -0.25000000   -0.25000000          2/8
   1:     0.25000000   -0.25000000    0.25000000          2/8
   2:     0.25000000    0.25000000   -0.25000000          2/8
   3:     0.25000000    0.25000000    0.25000000          2/8

Wave functions: Plane wave expansion
  Cutoff energy: 350.000 eV
  Number of coefficients (min, max): 18865, 18865
  Pulay-stress correction: 0.000000 eV/Ang^3 (de/decut=0.000000)
  Using FFTW library
  ScaLapack parameters: grid=1x1, blocksize=None
  Wavefunction extrapolation:
    Improved wavefunction reuse through dual PAW basis

Occupation numbers: Fermi-Dirac:
  width: 0.1000  # eV

Eigensolver
   Davidson(niter=2)

Densities:
  Coarse grid: 48*48*48 grid
  Fine grid: 96*96*96 grid
  Total Charge: 0.000000

Density mixing:
  Method: difference
  Backend: pulay
  Linear mixing parameter: 0.05
  old densities: 5
  Damping of long wavelength oscillations: 50

Hamiltonian:
  XC and Coulomb potentials evaluated on a 96*96*96 grid
  Using the PBE Exchange-Correlation functional
  External potential:
    NoExternalPotential

XC parameters: PBE with 2 nearest neighbor stencil

Total number of cores used: 30
Parallelization over k-points: 2
Domain decomposition: 5 x 3 x 1

Number of atoms: 108
Number of atomic orbitals: 961
Number of bands in calculation: 649
Number of valence electrons: 945
Bands to converge: occupied

... initialized

Initializing position-dependent things.

Density initialized from atomic densities
Creating initial wave functions:
  649 bands from LCAO basis set

       /|                     Co   |
      / |            Co Co     CrFe|
     /  |       Cr       Ni       Cr
    /   |Fe       Fel     CFer     |
   /i   | Coo        Fe      Co    |
  /  CrAl   NCr       Ni           |
 *      Ni     FeCo   AlFeCrFe   Cr|
 |      |CoNi   CrNiAl   NiAlNi   Co
 | CrFe | AlNi   AlAlFe     Ni     |
 |     Co  FeCr Cr  Fe FeNi  CrNi  |
 |      CoNi   AlCr   FeCoFeNi  Co |
 |Al    |CoCr   AlCrCo   CrCo     Co
 |      .-CrCo-----NiCr-FeFeCrNi---.
 |     /   Ni Fe    Cr FeNi    Al /
 |    Fe       AFei       Al     /
 |   /  Co         Al       Cr  /
 |  /      Co       Al       Fe/
 | / Co     Co       Ni Ni    /
 |/             Cr       Ni  /
 *--------Fe----------------*

Positions:
   0 Fe    10.764147   10.861293   10.805330    ( 0.0000,  0.0000,  2.0000)
   1 Fe    10.786221    1.792513    1.813624    ( 0.0000,  0.0000,  0.0000)
   2 Co     1.744156    0.036560    1.851269    ( 0.0000,  0.0000,  1.5000)
   3 Al     1.736571    1.831142   10.798805    ( 0.0000,  0.0000,  0.0000)
   4 Fe     3.575126    0.057318    0.061759    ( 0.0000,  0.0000,  0.0000)
   5 Co     3.594289    1.817617    1.845577    ( 0.0000,  0.0000,  2.0000)
   6 Fe     5.429813   10.817005    1.865054    ( 0.0000,  0.0000,  1.5000)
   7 Cr     5.429608    1.929425    0.057134    ( 0.0000,  0.0000,  0.0000)
   8 Fe     7.316909   10.723332    0.087382    ( 0.0000,  0.0000,  0.0000)
   9 Al     7.263142    1.825786    1.869404    ( 0.0000,  0.0000,  2.1000)
  10 Ni     9.063554    0.025226    1.863474    ( 0.0000,  0.0000,  1.5000)
  11 Ni     9.049217    1.829703    0.033106    ( 0.0000,  0.0000,  2.1000)
  12 Ni     0.004792    3.558981   10.794801    ( 0.0000,  0.0000,  1.5000)
  13 Al    10.759710    5.390697    1.778165    ( 0.0000,  0.0000,  0.0000)
  14 Co     1.733585    3.561849    1.761112    ( 0.0000,  0.0000,  2.0000)
  15 Fe     1.776899    5.391834   10.795505    ( 0.0000,  0.0000,  0.0000)
  16 Co     3.565452    3.619360   10.832619    ( 0.0000,  0.0000,  2.1000)
  17 Fe     3.633221    5.394614    1.719551    ( 0.0000,  0.0000,  0.0000)
  18 Ni     5.471624    3.659114    1.836033    ( 0.0000,  0.0000,  2.1000)
  19 Fe     5.440212    5.373060   -0.002773    ( 0.0000,  0.0000,  2.0000)
  20 Ni     7.258997    3.609080    0.031294    ( 0.0000,  0.0000,  0.0000)
  21 Fe     7.268941    5.378362    1.785274    ( 0.0000,  0.0000,  2.0000)
  22 Al     9.030724    3.577636    1.833728    ( 0.0000,  0.0000,  2.1000)
  23 Fe     9.040420    5.372281   10.801110    ( 0.0000,  0.0000,  0.0000)
  24 Fe    10.791663    7.196206   10.792486    ( 0.0000,  0.0000,  1.5000)
  25 Co    10.758434    9.040387    1.848239    ( 0.0000,  0.0000,  0.0000)
  26 Cr     1.690487    7.202493    1.786032    ( 0.0000,  0.0000,  0.0000)
  27 Ni     1.652691    8.981047    0.027217    ( 0.0000,  0.0000,  0.0000)
  28 Al     3.631241    7.164437    0.034633    ( 0.0000,  0.0000,  0.0000)
  29 Al     3.625452    9.063759    1.801678    ( 0.0000,  0.0000,  0.0000)
  30 Ni     5.490852    7.187095    1.746342    ( 0.0000,  0.0000,  2.0000)
  31 Cr     5.426935    8.989152    0.009861    ( 0.0000,  0.0000,  2.0000)
  32 Co     7.229122    7.237075   -0.008698    ( 0.0000,  0.0000,  1.5000)
  33 Cr     7.249194    8.995850    1.810713    ( 0.0000,  0.0000,  0.0000)
  34 Cr     9.052073    7.204300    1.764218    ( 0.0000,  0.0000,  2.1000)
  35 Co     9.092553    8.989639   10.808760    ( 0.0000,  0.0000,  1.5000)
  36 Cr    -0.000975   10.826235    3.639789    ( 0.0000,  0.0000,  1.5000)
  37 Al    10.822772    1.771770    5.422044    ( 0.0000,  0.0000,  2.1000)
  38 Ni     1.754263   10.802084    5.428872    ( 0.0000,  0.0000,  2.1000)
  39 Fe     1.741873    1.774270    3.610801    ( 0.0000,  0.0000,  0.0000)
  40 Al     3.591183   10.794152    3.612143    ( 0.0000,  0.0000,  2.0000)
  41 Cr     3.593088    1.736744    5.455177    ( 0.0000,  0.0000,  0.0000)
  42 Al     5.437150   10.794563    5.400804    ( 0.0000,  0.0000,  2.0000)
  43 Fe     5.451931    1.783251    3.601387    ( 0.0000,  0.0000,  1.5000)
  44 Al     7.226222    0.007781    3.626209    ( 0.0000,  0.0000,  0.0000)
  45 Co     7.236069    1.766512    5.381392    ( 0.0000,  0.0000,  2.1000)
  46 Fe     9.034587   10.848850    5.403844    ( 0.0000,  0.0000,  2.1000)
  47 Ni     9.031558    1.804946    3.616730    ( 0.0000,  0.0000,  1.5000)
  48 Ni    10.773885    3.543973    3.617867    ( 0.0000,  0.0000,  1.5000)
  49 Ni    10.772186    5.358409    5.454917    ( 0.0000,  0.0000,  0.0000)
  50 Co     1.757531    3.575678    5.428937    ( 0.0000,  0.0000,  2.1000)
  51 Co     1.621766    5.386986    3.572550    ( 0.0000,  0.0000,  0.0000)
  52 Co     3.634303    3.633188    3.540792    ( 0.0000,  0.0000,  0.0000)
  53 Cr     3.550606    5.397969    5.404753    ( 0.0000,  0.0000,  2.0000)
  54 Cr     5.402221    3.610887    5.370193    ( 0.0000,  0.0000,  2.0000)
  55 Cr     5.460241    5.433590    3.575613    ( 0.0000,  0.0000,  2.0000)
  56 Cr     7.250157    3.615183    3.623169    ( 0.0000,  0.0000,  1.5000)
  57 Fe     7.248707    5.410715    5.362099    ( 0.0000,  0.0000,  1.5000)
  58 Fe     9.058230    3.565236    5.380082    ( 0.0000,  0.0000,  2.1000)
  59 Co     9.074071    5.365323    3.589008    ( 0.0000,  0.0000,  2.1000)
[...]
  93 Ni     7.211073    5.388295    9.040181    ( 0.0000,  0.0000,  0.0000)
  94 Cr     9.095052    3.598119    8.980636    ( 0.0000,  0.0000,  2.0000)
  95 Al     9.078205    5.402416    7.227759    ( 0.0000,  0.0000,  0.0000)
  96 Cr    10.763411    7.244682    7.260285    ( 0.0000,  0.0000,  1.5000)
  97 Cr    10.795093    9.034566    8.977574    ( 0.0000,  0.0000,  2.0000)
  98 Co     1.740045    7.178947    8.984662    ( 0.0000,  0.0000,  2.1000)
  99 Co     1.734429    9.080207    7.236696    ( 0.0000,  0.0000,  1.5000)
 100 Fe     3.580482    7.154277    7.248285    ( 0.0000,  0.0000,  0.0000)
 101 Cr     3.612835    8.970898    8.958086    ( 0.0000,  0.0000,  0.0000)
 102 Al     5.410943    7.155878    9.067049    ( 0.0000,  0.0000,  0.0000)
 103 Fe     5.466441    9.064062    7.220963    ( 0.0000,  0.0000,  2.1000)
 104 Fe     7.307203    7.271549    7.289738    ( 0.0000,  0.0000,  0.0000)
 105 Ni     7.271073    9.044683    9.027879    ( 0.0000,  0.0000,  1.5000)
 106 Cr     9.081743    7.219805    9.041166    ( 0.0000,  0.0000,  2.1000)
 107 Co     9.063684    9.083009    7.213865    ( 0.0000,  0.0000,  2.0000)

Unit cell:
           periodic     x           y           z      points  spacing
  1. axis:    yes   10.820500    0.000000    0.000000    48     0.2254
  2. axis:    yes    0.000000   10.820500    0.000000    48     0.2254
  3. axis:    yes    0.000000    0.000000   10.820500    48     0.2254

  Lengths:  10.820500  10.820500  10.820500
  Angles:   90.000000  90.000000  90.000000

Effective grid spacing dv^(1/3) = 0.2254

     iter     time        total  log10-change:  magmom
                         energy  eigst   dens
iter:   1 22:48:59  -895.095837                  +128.4417
iter:   2 22:50:33  -864.200171  -0.40  -1.31    +96.0106
iter:   3 22:52:07  -844.728126  -0.94  -1.29    +67.4734
iter:   4 22:53:42  -832.483494  -1.27  -1.37    +56.8470
iter:   5 22:55:16  -825.805519  -1.84  -1.40    +52.0240
iter:   6 22:56:50  -826.839687  -1.99  -1.47    +49.5543
iter:   7 22:58:24  -826.689609  -1.67  -1.49    +48.1038
iter:   8 22:59:59  -824.847110  -1.71  -1.53    +47.6473
iter:   9 23:01:34  -829.027051  -1.80  -1.65    +48.0840
iter:  10 23:03:08  -823.250226  -1.97  -1.64    +47.5512
iter:  11 23:04:42  -824.325529  -2.21  -1.79    +48.0663
iter:  12 23:06:16  -822.415609  -2.38  -1.80    +48.4892
iter:  13 23:07:50  -822.860727  -2.54  -1.87    +49.4502
iter:  14 23:09:24  -822.714763  -2.54  -1.89    +50.5631
iter:  15 23:10:59  -824.186630  -2.51  -1.93    +51.1986
iter:  16 23:12:33  -823.271311  -2.49  -1.89    +52.6305
iter:  17 23:14:07  -824.125799  -2.61  -1.97    +53.4561
iter:  18 23:15:41  -823.537606  -2.64  -1.96    +54.3888
iter:  19 23:17:16  -823.863148  -2.78  -2.04    +55.4144
iter:  20 23:18:50  -823.557530  -2.88  -2.05    +56.2559
iter:  21 23:20:24  -823.912742  -3.04  -2.09    +57.1208
iter:  22 23:21:59  -824.104340  -3.02  -2.12    +57.5807
iter:  23 23:23:33  -824.133202  -3.12  -2.11    +58.3006
iter:  24 23:25:07  -824.196081c -3.15  -2.15    +58.5902
iter:  25 23:26:41  -824.433339  -3.18  -2.18    +58.9373
iter:  26 23:28:15  -824.623930  -3.02  -2.19    +59.0611
iter:  27 23:29:49  -824.830641  -3.04  -2.21    +59.1222
iter:  28 23:31:23  -825.038844  -2.91  -2.19    +59.4168
iter:  29 23:32:58  -824.895908  -3.01  -2.20    +59.2697
iter:  30 23:34:32  -824.657422  -3.27  -2.24    +59.5131
iter:  31 23:36:06  -824.640917  -3.48  -2.33    +59.4405
iter:  32 23:37:41  -824.623330c -3.83  -2.34    +59.5841
iter:  33 23:39:15  -824.728153  -3.82  -2.39    +59.6853
iter:  34 23:40:49  -824.782726  -3.89  -2.39    +59.7116
iter:  35 23:42:23  -825.013094  -3.46  -2.41    +59.8267
iter:  36 23:43:57  -824.962480  -3.53  -2.37    +59.7833
iter:  37 23:45:31  -825.277573  -3.20  -2.45    +59.8913
iter:  38 23:47:05  -825.132077  -3.39  -2.41    +59.7056
iter:  39 23:48:39  -825.249510  -3.28  -2.50    +59.5285
iter:  40 23:50:13  -825.150153  -3.54  -2.44    +59.6341
iter:  41 23:51:48  -825.086592  -3.76  -2.55    +59.5164
iter:  42 23:53:22  -825.097483c -4.19  -2.64    +59.5645
iter:  43 23:54:56  -825.132016c -4.48  -2.69    +59.4861
iter:  44 23:56:31  -825.285316  -3.59  -2.71    +58.9150
iter:  45 23:58:05  -825.212931  -4.38  -2.67    +59.2252
iter:  46 23:59:39  -825.269486c -3.98  -2.72    +59.2141
iter:  47 00:01:14  -825.283912c -3.96  -2.72    +59.0489
iter:  48 00:02:48  -825.303421c -4.00  -2.79    +58.8826
iter:  49 00:04:22  -825.322245c -4.05  -2.85    +58.7423
iter:  50 00:05:56  -825.309309c -4.28  -2.84    +58.6342
iter:  51 00:07:31  -825.357896c -4.21  -3.19    +58.3621
iter:  52 00:09:05  -825.336884c -4.87  -3.06    +58.4234
iter:  53 00:10:39  -825.362855c -4.75  -3.36    +58.3008
iter:  54 00:12:14  -825.375610c -5.02  -3.32    +58.2039
iter:  55 00:13:48  -825.411483c -4.46  -3.33    +57.9843
iter:  56 00:15:22  -825.491303  -3.76  -3.26    +57.3992
iter:  57 00:16:56  -825.573768  -3.33  -3.06    +56.5982
iter:  58 00:18:31  -825.558082c -4.61  -2.86    +56.9259
iter:  59 00:20:05  -825.571769c -4.85  -2.92    +56.9461
iter:  60 00:21:39  -825.565750c -5.15  -2.89    +57.0037
iter:  61 00:23:14  -825.557587c -4.68  -2.90    +57.0489
iter:  62 00:24:47  -825.534442c -4.41  -2.92    +57.0499
iter:  63 00:26:21  -825.550691c -4.10  -2.97    +57.0336
iter:  64 00:27:56  -825.523559c -4.13  -2.89    +56.9787
iter:  65 00:29:30  -825.513107c -4.53  -2.97    +57.0207
iter:  66 00:31:05  -825.511061c -4.92  -3.15    +57.0227
iter:  67 00:32:39  -825.512122c -4.99  -3.25    +57.0041
iter:  68 00:34:13  -825.516212c -4.87  -3.32    +57.0011
iter:  69 00:35:47  -825.513388c -5.02  -3.33    +56.9737
iter:  70 00:37:21  -825.514676c -5.10  -3.34    +56.9575
iter:  71 00:38:55  -825.512346c -5.16  -3.42    +56.9735
iter:  72 00:40:29  -825.511403c -5.52  -3.43    +56.9697
iter:  73 00:42:04  -825.511137c -5.77  -3.62    +56.9720
iter:  74 00:43:38  -825.510912c -6.07  -3.64    +56.9703
iter:  75 00:45:12  -825.511041c -5.87  -3.73    +56.9448
iter:  76 00:46:46  -825.511312c -6.03  -3.70    +56.9583
iter:  77 00:48:20  -825.511278c -5.89  -3.83    +56.9612
iter:  78 00:49:54  -825.510718c -6.35  -3.73    +56.9628
iter:  79 00:51:29  -825.511045c -6.26  -3.86    +56.9605
iter:  80 00:53:03  -825.511036c -6.23  -3.87    +56.9653
iter:  81 00:54:37  -825.511179c -6.40  -3.88    +56.9671
iter:  82 00:56:11  -825.511377c -6.49  -3.86    +56.9606
iter:  83 00:57:45  -825.511338c -6.62  -3.87    +56.9658
iter:  84 00:59:20  -825.511785c -6.29  -3.84    +56.9688
iter:  85 01:00:54  -825.511822c -6.31  -3.73    +56.9686
iter:  86 01:02:28  -825.511583c -6.49  -3.83    +56.9747
iter:  87 01:04:02  -825.511798c -6.48  -3.86    +56.9783
iter:  88 01:05:36  -825.512200c -6.30  -3.83    +56.9719
iter:  89 01:07:10  -825.511855c -6.54  -3.89    +56.9741
iter:  90 01:08:44  -825.512228c -6.61  -3.90    +56.9802
iter:  91 01:10:18  -825.512080c -6.32  -3.98    +56.9822
iter:  92 01:11:52  -825.512692c -6.26  -3.92    +56.9829
iter:  93 01:13:27  -825.512463c -6.35  -4.04c   +56.9808
iter:  94 01:15:01  -825.512497c -6.67  -4.06c   +56.9872
iter:  95 01:16:35  -825.513031c -6.53  -4.20c   +56.9878
iter:  96 01:18:09  -825.512701c -6.98  -4.11c   +56.9874
iter:  97 01:19:43  -825.512958c -7.00  -4.27c   +56.9928
iter:  98 01:21:17  -825.513166c -7.22  -4.28c   +56.9984
iter:  99 01:22:51  -825.514040c -6.14  -4.28c   +57.0250
iter: 100 01:24:25  -825.512691c -5.98  -4.19c   +56.9837
iter: 101 01:25:59  -825.515411c -5.46  -4.32c   +57.0566
iter: 102 01:27:33  -825.511808c -5.19  -4.05c   +56.9488
iter: 103 01:29:07  -825.510906c -5.57  -4.48c   +56.9066
iter: 104 01:30:42  -825.511335c -6.71  -4.27c   +56.9270
iter: 105 01:32:16  -825.511552c -7.26  -4.51c   +56.9315
iter: 106 01:33:50  -825.511597c -7.41c -4.58c   +56.9359

Converged after 106 iterations.

Dipole moment: (29.123149, -3.280502, -10.056382) |e|*Ang

Total magnetic moment: (0.000000, 0.000000, 56.935869)
Local magnetic moments:
   0 Fe ( 0.000000,  0.000000,  2.196977)
   1 Fe ( 0.000000,  0.000000,  2.392746)
   2 Co ( 0.000000,  0.000000,  1.295888)
   3 Al ( 0.000000,  0.000000, -0.046862)
   4 Fe ( 0.000000,  0.000000,  2.428781)
   5 Co ( 0.000000,  0.000000,  1.473662)
   6 Fe ( 0.000000,  0.000000,  1.912536)
   7 Cr ( 0.000000,  0.000000, -2.336952)
   8 Fe ( 0.000000,  0.000000,  2.219851)
   9 Al ( 0.000000,  0.000000, -0.013530)
  10 Ni ( 0.000000,  0.000000,  0.191345)
  11 Ni ( 0.000000,  0.000000,  0.152554)
  12 Ni ( 0.000000,  0.000000,  0.225135)
  13 Al ( 0.000000,  0.000000, -0.026378)
  14 Co ( 0.000000,  0.000000,  1.303309)
  15 Fe ( 0.000000,  0.000000,  2.056949)
  16 Co ( 0.000000,  0.000000,  1.321855)
  17 Fe ( 0.000000,  0.000000,  2.219510)
  18 Ni ( 0.000000,  0.000000,  0.267128)
  19 Fe ( 0.000000,  0.000000,  2.212312)
  20 Ni ( 0.000000,  0.000000,  0.112018)
  21 Fe ( 0.000000,  0.000000,  2.215839)
  22 Al ( 0.000000,  0.000000, -0.025391)
  23 Fe ( 0.000000,  0.000000,  2.009735)
  24 Fe ( 0.000000,  0.000000,  1.663167)
  25 Co ( 0.000000,  0.000000,  0.982701)
  26 Cr ( 0.000000,  0.000000, -1.954322)
  27 Ni ( 0.000000,  0.000000,  0.118446)
  28 Al ( 0.000000,  0.000000, -0.011782)
  29 Al ( 0.000000,  0.000000, -0.026392)
  30 Ni ( 0.000000,  0.000000,  0.290932)
  31 Cr ( 0.000000,  0.000000,  1.654177)
  32 Co ( 0.000000,  0.000000,  0.985494)
  33 Cr ( 0.000000,  0.000000, -1.396178)
  34 Cr ( 0.000000,  0.000000, -1.608415)
  35 Co ( 0.000000,  0.000000,  0.906994)
  36 Cr ( 0.000000,  0.000000, -1.542566)
  37 Al ( 0.000000,  0.000000, -0.025970)
  38 Ni ( 0.000000,  0.000000,  0.131096)
  39 Fe ( 0.000000,  0.000000,  2.270647)
  40 Al ( 0.000000,  0.000000, -0.033939)
  41 Cr ( 0.000000,  0.000000, -1.989122)
  42 Al ( 0.000000,  0.000000, -0.024712)
  43 Fe ( 0.000000,  0.000000,  1.887352)
  44 Al ( 0.000000,  0.000000, -0.029887)
  45 Co ( 0.000000,  0.000000,  0.464517)
  46 Fe ( 0.000000,  0.000000,  2.083193)
  47 Ni ( 0.000000,  0.000000,  0.145504)
  48 Ni ( 0.000000,  0.000000,  0.399273)
  49 Ni ( 0.000000,  0.000000,  0.310827)
  50 Co ( 0.000000,  0.000000,  1.147401)
  51 Co ( 0.000000,  0.000000,  1.219886)
  52 Co ( 0.000000,  0.000000,  1.234538)
  53 Cr ( 0.000000,  0.000000,  1.141136)
  54 Cr ( 0.000000,  0.000000, -1.169620)
  55 Cr ( 0.000000,  0.000000,  0.420630)
  56 Cr ( 0.000000,  0.000000, -1.463206)
  57 Fe ( 0.000000,  0.000000,  2.075460)
  58 Fe ( 0.000000,  0.000000,  2.144020)
  59 Co ( 0.000000,  0.000000,  1.061623)
[...]
  93 Ni ( 0.000000,  0.000000,  0.235475)
  94 Cr ( 0.000000,  0.000000,  1.431534)
  95 Al ( 0.000000,  0.000000, -0.005745)
  96 Cr ( 0.000000,  0.000000,  1.198298)
  97 Cr ( 0.000000,  0.000000, -0.795129)
  98 Co ( 0.000000,  0.000000,  0.193646)
  99 Co ( 0.000000,  0.000000,  0.848126)
 100 Fe ( 0.000000,  0.000000,  2.002780)
 101 Cr ( 0.000000,  0.000000, -2.249897)
 102 Al ( 0.000000,  0.000000, -0.025781)
 103 Fe ( 0.000000,  0.000000,  2.198435)
 104 Fe ( 0.000000,  0.000000,  2.436602)
 105 Ni ( 0.000000,  0.000000,  0.270200)
 106 Cr ( 0.000000,  0.000000, -1.400734)
 107 Co ( 0.000000,  0.000000,  0.959618)

Energy contributions relative to reference atoms: (reference = -3382523.201499)

Kinetic:       +219.180969
Potential:     -227.906593
External:        +0.000000
XC:            -847.983188
Entropy (-ST):   -4.195478
Local:          +33.294954
Free energy:   -827.609337
Extrapolated:  -825.511597

Spin contamination: 30.693932 electrons
Showing only first 2 kpts
                      Up                     Down
 Kpt  Band  Eigenvalues  Occupancy  Eigenvalues  Occupancy
  0   470      9.14824    0.99561     10.02858    0.03293
  0   471      9.16180    0.99497     10.04651    0.02767
  0   472      9.19138    0.99325     10.05468    0.02555
  0   473      9.22063    0.99098     10.07538    0.02088

  1   470      9.16378    0.99487     10.03016    0.03243
  1   471      9.16910    0.99459     10.05610    0.02520
  1   472      9.19530    0.99299     10.06503    0.02310
  1   473      9.21027    0.99186     10.07084    0.02183

Fermi level: 9.69058

No gap

Forces in eV/Ang:
  0 Fe    0.04770   -0.86347    0.25202
  1 Fe    0.38650   -0.18935    0.20214
  2 Co    0.08090   -0.23526   -0.50408
  3 Al    0.47486    0.09247   -0.00518
  4 Fe    0.33298    0.05150   -0.60599
  5 Co    0.05048    0.51493   -0.18278
  6 Fe    0.29888    0.38015   -0.80506
  7 Cr   -1.12444   -0.86239   -0.82474
  8 Fe   -0.45528    0.49105   -0.47356
  9 Al   -0.23733   -0.49021   -1.23131
 10 Ni   -0.20996   -0.25189   -0.40858
 11 Ni   -0.26719   -0.25545   -0.39571
 12 Ni   -0.30332    0.51367    0.09757
 13 Al    0.92906   -0.40115    0.17676
 14 Co    0.64385    0.28822    0.80607
 15 Fe   -0.19251   -0.31931   -0.17092
 16 Co    0.49159   -0.01204    0.38090
 17 Fe   -0.58439   -0.83159    0.97876
 18 Ni   -0.54338   -0.26069   -0.01931
 19 Fe    0.25527   -0.53838    0.18517
 20 Ni   -0.17055   -0.09189   -0.43533
 21 Fe   -0.01705    0.61133    0.29443
 22 Al    0.38602    0.05031   -0.49585
 23 Fe   -0.42546    0.72229   -0.59875
 24 Fe    0.30226    0.18531   -0.13344
 25 Co    0.27148   -0.11386   -0.19111
 26 Cr   -0.65996    0.19720    0.20719
 27 Ni    0.74074    0.39487   -0.23094
 28 Al   -1.01357    0.33380    0.06554
 29 Al   -0.64035    0.36197   -0.95249
 30 Ni   -0.14914    0.11164    0.50985
 31 Cr    0.63310    0.98559   -0.58445
 32 Co    0.50800   -0.16735    0.11737
 33 Cr    0.03248   -0.06844   -0.52942
 34 Cr   -0.46643    0.47072   -0.00856
 35 Co   -0.18524   -0.00603    0.24408
 36 Cr    0.07115   -0.75688   -0.83205
 37 Al    0.23691    0.21120    0.08060
 38 Ni    0.30654   -0.02664    0.16128
 39 Fe    0.69312    0.60209   -0.31033
 40 Al   -0.58662    0.85288   -0.42352
 41 Cr   -0.75326    1.38805    0.18031
 42 Al    0.43833    0.02079    0.89398
 43 Fe   -0.71049    0.72164    0.08703
 44 Al    0.83534   -0.11088    0.02574
 45 Co    0.10510    0.64786    0.30484
 46 Fe   -0.19752   -0.35455    0.31186
 47 Ni   -0.12193   -0.14487    0.06479
 48 Ni    0.61592    0.41561   -0.03592
 49 Ni    0.39203    0.23175   -0.47644
 50 Co    0.57967    0.26794   -0.26666
 51 Co    1.10667   -0.24378    0.20734
 52 Co   -0.31556    0.00267    0.29327
 53 Cr   -0.01142   -1.00835   -0.54301
 54 Cr   -0.14814    0.40421    0.00388
 55 Cr   -0.00034   -0.59454    0.04160
 56 Cr   -0.77765    0.60457    1.27755
 57 Fe    0.12482    0.04485   -0.18488
 58 Fe   -0.66741    0.21562    0.10642
 59 Co   -0.43093    0.63487    0.42473
[...]
 93 Ni    0.29632   -0.19111   -0.27592
 94 Cr    0.07350    0.22946    0.27812
 95 Al   -1.18378    0.10134   -0.79741
 96 Cr    0.10968    0.41885    0.88557
 97 Cr    0.51736    0.04455    0.28904
 98 Co    0.11987    0.36789   -0.12566
 99 Co    0.22453   -0.28743    0.24813
100 Fe   -0.41472    0.50872    0.20269
101 Cr   -0.49853    0.92219    0.12121
102 Al    1.37763    0.05969   -1.18754
103 Fe   -0.12034   -0.21933    0.65993
104 Fe   -0.02514   -0.10988   -0.52249
105 Ni   -0.01849    0.16564    0.03476
106 Cr   -0.92300    0.51953    0.45987
107 Co   -0.37294   -0.11378    0.04316

Date: Sat Apr 15 01:34:10 2023