User:   c.zeng@d0025
Date:   Fri Apr 14 02:02:02 2023
Arch:   x86_64
Pid:    96914
CWD:    /home/c.zeng/projects/hea-corrosion/hea-mlp/data-curation/bulk-md/dft-jobs/85
Python: 3.8.1
gpaw:   /home/c.zeng/usr/installs/gpaw/source/gpaw-22.8.0/gpaw
_gpaw:  /home/c.zeng/usr/installs/gpaw/source/gpaw-22.8.0/
        _gpaw.cpython-38-x86_64-linux-gnu.so
ase:    /home/c.zeng/.local/lib/python3.8/site-packages/ase-3.22.1-py3.8.egg/ase (version 3.22.1)
numpy:  /shared/centos7/python/3.8.1/lib/python3.8/site-packages/numpy (version 1.17.4)
scipy:  /shared/centos7/python/3.8.1/lib/python3.8/site-packages/scipy (version 1.4.1)
units:  Angstrom and eV
cores: 30
OpenMP: False
OMP_NUM_THREADS: 1

Input parameters:
  convergence: {energy: 0.0001}
  kpts: [2 2 2]
  maxiter: 666
  mode: {ecut: 350.0,
         name: pw}
  occupations: {fixmagmom: False,
                name: fermi-dirac,
                width: 0.1}
  spinpol: True
  xc: PBE

System changes: positions, numbers, cell, pbc, initial_charges, initial_magmoms

Initialize ...

species:
  Al:
    name: Aluminium
    id: 0292cae29f5d6237e50f6abdd43a7bdd
    Z: 13.0
    valence: 3
    core: 10
    charge: 0.0
    file: /home/c.zeng/usr/data/gpaw-setups-0.9.20000/Al.PBE.gz
    compensation charges: {type: gauss,
                           rc: 0.34,
                           lmax: 2}
    cutoffs: {filter: 1.91,
              core: 2.36}
    valence states:
      #              energy  rcut
      - 3s(2.00)    -7.753   1.085
      - 3p(1.00)    -2.712   1.085
      -  s          19.459   1.085
      -  p          24.499   1.085
      -  d           0.000   1.085

    # Using partial waves for Al as LCAO basis

  Fe:
    name: Iron
    id: 37abbd8d6c3c35915a9b583b742da910
    Z: 26.0
    valence: 8
    core: 18
    charge: 0.0
    file: /home/c.zeng/usr/data/gpaw-setups-0.9.20000/Fe.PBE.gz
    compensation charges: {type: gauss,
                           rc: 0.33,
                           lmax: 2}
    cutoffs: {filter: 2.06,
              core: 2.67}
    valence states:
      #              energy  rcut
      - 4s(2.00)    -5.291   1.164
      - 4p(0.00)    -1.326   1.058
      - 3d(6.00)    -7.505   1.058
      -  s          21.920   1.164
      -  p          25.885   1.058
      -  d          19.706   1.058

[...]

  Cr:
    name: Chromium
    id: 33f258bda2ca9f93018e70263a35547b
    Z: 24.0
    valence: 6
    core: 18
    charge: 0.0
    file: /home/c.zeng/usr/data/gpaw-setups-0.9.20000/Cr.PBE.gz
    compensation charges: {type: gauss,
                           rc: 0.35,
                           lmax: 2}
    cutoffs: {filter: 2.14,
              core: 3.04}
    valence states:
      #              energy  rcut
      - 4s(1.00)    -4.007   1.164
      - 4p(0.00)    -0.989   1.217
      - 3d(5.00)    -2.913   1.111
      -  s          23.205   1.164
      -  p          26.223   1.217
      -  d          24.299   1.111

[...]

  Ni:
    name: Nickel
    id: 0d9f38a9d6e76a2886f07bb4381f212b
    Z: 28.0
    valence: 16
    core: 12
    charge: 0.0
    file: /home/c.zeng/usr/data/gpaw-setups-0.9.20000/Ni.PBE.gz
    compensation charges: {type: gauss,
                           rc: 0.36,
                           lmax: 2}
    cutoffs: {filter: 2.14,
              core: 1.98}
    valence states:
      #              energy  rcut
      - 4s(2.00)    -5.642   1.164
      - 3p(6.00)   -71.394   1.207
      - 4p(0.00)    -1.226   1.207
      - 3d(8.00)    -8.875   1.138
      -  s          21.570   1.164
      -  d          18.337   1.138

[...]

  Co:
    name: Cobalt
    id: 339d20d5b0b93d2de9531a1bee871d91
    Z: 27.0
    valence: 9
    core: 18
    charge: 0.0
    file: /home/c.zeng/usr/data/gpaw-setups-0.9.20000/Co.PBE.gz
    compensation charges: {type: gauss,
                           rc: 0.32,
                           lmax: 2}
    cutoffs: {filter: 1.87,
              core: 2.55}
    valence states:
      #              energy  rcut
      - 4s(2.00)    -5.469   1.005
      - 4p(0.00)    -1.277   1.058
      - 3d(7.00)    -8.205   1.005
      -  s          21.742   1.005
      -  p          25.934   1.058
      -  d          19.007   1.005

    # Using partial waves for Co as LCAO basis

Reference energy: -3235165.067515  # eV

Spin-polarized calculation.
Magnetic moment: 121.100000

Convergence criteria:
 Maximum [total energy] change in last 3 cyles: 0.0001 eV / electron
 Maximum integral of absolute [dens]ity change: 0.0001 electrons / valence electron
 Maximum integral of absolute [eigenst]ate change: 4e-08 eV^2 / valence electron
 Maximum number of scf [iter]ations: 666
 (Square brackets indicate name in SCF output, whereas a 'c' in
 the SCF output indicates the quantity has converged.)

Symmetries present (total): 1

  ( 1  0  0)
  ( 0  1  0)
  ( 0  0  1)

8 k-points: 2 x 2 x 2 Monkhorst-Pack grid
4 k-points in the irreducible part of the Brillouin zone
       k-points in crystal coordinates                weights
   0:     0.25000000   -0.25000000   -0.25000000          2/8
   1:     0.25000000   -0.25000000    0.25000000          2/8
   2:     0.25000000    0.25000000   -0.25000000          2/8
   3:     0.25000000    0.25000000    0.25000000          2/8

Wave functions: Plane wave expansion
  Cutoff energy: 350.000 eV
  Number of coefficients (min, max): 19084, 19084
  Pulay-stress correction: 0.000000 eV/Ang^3 (de/decut=0.000000)
  Using FFTW library
  ScaLapack parameters: grid=1x1, blocksize=None
  Wavefunction extrapolation:
    Improved wavefunction reuse through dual PAW basis

Occupation numbers: Fermi-Dirac:
  width: 0.1000  # eV

Eigensolver
   Davidson(niter=2)

Densities:
  Coarse grid: 48*48*48 grid
  Fine grid: 96*96*96 grid
  Total Charge: 0.000000

Density mixing:
  Method: difference
  Backend: pulay
  Linear mixing parameter: 0.05
  old densities: 5
  Damping of long wavelength oscillations: 50

Hamiltonian:
  XC and Coulomb potentials evaluated on a 96*96*96 grid
  Using the PBE Exchange-Correlation functional
  External potential:
    NoExternalPotential

XC parameters: PBE with 2 nearest neighbor stencil

Total number of cores used: 30
Parallelization over k-points: 2
Domain decomposition: 5 x 3 x 1

Number of atoms: 108
Number of atomic orbitals: 933
Number of bands in calculation: 624
Number of valence electrons: 912
Bands to converge: occupied

... initialized

Initializing position-dependent things.

Density initialized from atomic densities
Creating initial wave functions:
  624 bands from LCAO basis set

        .--------Ni-------Fe-------.
       /|  Cr        Ni      Ni    |
      / |            Co            |
     /  |   Cr Feo       Ni     Ni |
    /   |Co        Al      Al    Alo
   /    |Fe       Co         CrCr  |
  /   Cr|   CoAle    FCoFe         |
 *      Cr       Co   CrCoNi  Cr Al|
 |     CrAl Al  NiNiFe   NiFeAl    |
 |      | Fe Cr  AlCoCrNi   FeCr   Fe
 |   FeCo   FeNiCr   CrCFe    Cr   |
 |    CoAl   CrAlNiNiAl NiNi  Ni   |
 |     AlCoAl   NiCoCo   CrCrCo    |
 |      .-Ni-Co----Ni-Al----FeFe---Al
 |    Ni      AlAl    Co Ni    Co /
 |    / Cr       Fe    Co        /
 |   /            FeAl    Al    /
 |  /      Ale      Cor    FeFe/
 | /e                         /
 |/             Ni           /

Positions:
   0 Al    10.860378   -0.033211    0.018959    ( 0.0000,  0.0000,  0.0000)
   1 Fe    10.835118    1.668493    1.687804    ( 0.0000,  0.0000,  2.0000)
   2 Cr     1.935061   10.797751    1.761421    ( 0.0000,  0.0000,  0.0000)
   3 Cr     1.695253    1.671950   -0.184882    ( 0.0000,  0.0000,  0.0000)
   4 Ni     3.746775   10.858839   10.845732    ( 0.0000,  0.0000,  1.5000)
   5 Al     3.478789    1.843544    1.659102    ( 0.0000,  0.0000,  0.0000)
   6 Al     5.253017   10.871398    1.722859    ( 0.0000,  0.0000,  0.0000)
   7 Ni     5.686216    1.791363   10.898910    ( 0.0000,  0.0000,  1.5000)
   8 Fe     7.317171   -0.017817   10.839098    ( 0.0000,  0.0000,  2.0000)
   9 Co     7.287833    1.814141    1.863236    ( 0.0000,  0.0000,  2.1000)
  10 Ni     8.868167   -0.109027    1.702084    ( 0.0000,  0.0000,  1.5000)
  11 Fe     8.895728    1.757807   10.820750    ( 0.0000,  0.0000,  2.0000)
  12 Fe    10.992255    3.409864    0.211669    ( 0.0000,  0.0000,  2.0000)
  13 Co    10.834117    5.486786    1.673491    ( 0.0000,  0.0000,  2.1000)
  14 Cr     1.784282    3.898164    2.015444    ( 0.0000,  0.0000,  0.0000)
  15 Co     1.656243    5.440242   10.754210    ( 0.0000,  0.0000,  2.1000)
  16 Fe     3.568511    3.630431    0.159043    ( 0.0000,  0.0000,  2.0000)
  17 Al     3.715569    5.354368    1.853940    ( 0.0000,  0.0000,  0.0000)
  18 Fe     5.365256    3.540389    2.032828    ( 0.0000,  0.0000,  2.0000)
  19 Fe     5.477163    5.528927    0.181844    ( 0.0000,  0.0000,  2.0000)
  20 Cr     7.177403    3.778541   10.969698    ( 0.0000,  0.0000,  0.0000)
  21 Co     7.201339    5.211959    1.925336    ( 0.0000,  0.0000,  2.1000)
  22 Al     9.053624    3.614627    1.680385    ( 0.0000,  0.0000,  0.0000)
  23 Fe     9.072801    5.382234    0.006338    ( 0.0000,  0.0000,  2.0000)
  24 Ni    10.615937    7.108409   -0.071087    ( 0.0000,  0.0000,  1.5000)
  25 Al     0.012841    9.079009    1.971465    ( 0.0000,  0.0000,  0.0000)
  26 Ni     1.896726    7.068003    1.740007    ( 0.0000,  0.0000,  1.5000)
  27 Cr     1.708385    8.844631   10.867813    ( 0.0000,  0.0000,  0.0000)
  28 Fe     3.569074    7.207561   -0.239682    ( 0.0000,  0.0000,  2.0000)
  29 Ni     3.534562    8.954575    1.692798    ( 0.0000,  0.0000,  1.5000)
  30 Ni     5.273251    7.189587    1.873745    ( 0.0000,  0.0000,  1.5000)
  31 Ni     5.559521    9.032947   10.852434    ( 0.0000,  0.0000,  1.5000)
  32 Co     7.084976    7.280261    0.102045    ( 0.0000,  0.0000,  2.1000)
  33 Cr     7.356615    9.065128    1.776319    ( 0.0000,  0.0000,  0.0000)
  34 Fe     8.948729    7.208931    1.828170    ( 0.0000,  0.0000,  2.0000)
  35 Ni     8.962359    9.026778   -0.077760    ( 0.0000,  0.0000,  1.5000)
  36 Fe    -0.139840   -0.089805    3.601613    ( 0.0000,  0.0000,  2.0000)
  37 Co    10.639136    1.827276    5.814006    ( 0.0000,  0.0000,  2.1000)
  38 Cr     1.983091   10.742006    5.522622    ( 0.0000,  0.0000,  0.0000)
  39 Ni     1.577326    1.813284    3.794550    ( 0.0000,  0.0000,  1.5000)
  40 Al     3.568731   10.624304    3.711688    ( 0.0000,  0.0000,  0.0000)
  41 Al     3.558919    1.702731    5.664319    ( 0.0000,  0.0000,  0.0000)
  42 Cr     5.460665   10.853940    5.237918    ( 0.0000,  0.0000,  0.0000)
  43 Al     5.374299    1.810557    3.694640    ( 0.0000,  0.0000,  0.0000)
  44 Al     7.459580   10.956932    3.635927    ( 0.0000,  0.0000,  0.0000)
  45 Co     7.088338    1.755322    5.426269    ( 0.0000,  0.0000,  2.1000)
  46 Cr     9.047798   -0.178187    5.500080    ( 0.0000,  0.0000,  0.0000)
  47 Ni     9.243761    1.839391    3.721454    ( 0.0000,  0.0000,  1.5000)
  48 Fe    -0.001350    3.706944    3.778888    ( 0.0000,  0.0000,  2.0000)
  49 Fe    10.898643    5.631351    5.448193    ( 0.0000,  0.0000,  2.0000)
  50 Al     1.850515    3.761576    5.431248    ( 0.0000,  0.0000,  0.0000)
  51 Co     1.892321    5.489233    3.783516    ( 0.0000,  0.0000,  2.1000)
  52 Co     3.771276    3.598083    3.517273    ( 0.0000,  0.0000,  2.1000)
  53 Ni     3.868793    5.419434    5.233593    ( 0.0000,  0.0000,  1.5000)
  54 Ni     5.478491    3.735114    5.318651    ( 0.0000,  0.0000,  1.5000)
  55 Co     5.432341    5.436022    3.663024    ( 0.0000,  0.0000,  2.1000)
  56 Al     7.388692    3.649069    3.778970    ( 0.0000,  0.0000,  0.0000)
  57 Cr     7.344700    5.585155    5.213555    ( 0.0000,  0.0000,  0.0000)
  58 Ni     9.168032    3.761210    5.561681    ( 0.0000,  0.0000,  1.5000)
  59 Cr     9.174449    5.624417    3.798689    ( 0.0000,  0.0000,  0.0000)
[...]
  93 Co     7.181280    5.468188    8.948758    ( 0.0000,  0.0000,  2.1000)
  94 Ni     9.169901    3.538272    9.035393    ( 0.0000,  0.0000,  1.5000)
  95 Fe     8.994701    5.662870    7.228828    ( 0.0000,  0.0000,  2.0000)
  96 Al    -0.056437    7.515589    6.949858    ( 0.0000,  0.0000,  0.0000)
  97 Al    -0.156714    9.012414    8.931252    ( 0.0000,  0.0000,  0.0000)
  98 Fe     1.408829    7.332125    8.963013    ( 0.0000,  0.0000,  2.0000)
  99 Co     2.104111    8.908060    7.196951    ( 0.0000,  0.0000,  2.1000)
 100 Fe     3.688433    7.440354    7.306539    ( 0.0000,  0.0000,  2.0000)
 101 Co     3.873924    8.988622    9.166062    ( 0.0000,  0.0000,  2.1000)
 102 Al     5.498643    7.353830    9.115685    ( 0.0000,  0.0000,  0.0000)
 103 Fe     5.711896    8.913498    7.297787    ( 0.0000,  0.0000,  2.0000)
 104 Co     7.230062    7.211668    7.036055    ( 0.0000,  0.0000,  2.1000)
 105 Ni     7.219155    9.315658    8.883529    ( 0.0000,  0.0000,  1.5000)
 106 Al     8.758691    7.195874    9.181349    ( 0.0000,  0.0000,  0.0000)
 107 Cr     8.950269    9.053053    7.262161    ( 0.0000,  0.0000,  0.0000)

Unit cell:
           periodic     x           y           z      points  spacing
  1. axis:    yes   10.872400    0.000000    0.000000    48     0.2265
  2. axis:    yes    0.000000   10.872400    0.000000    48     0.2265
  3. axis:    yes    0.000000    0.000000   10.872400    48     0.2265

  Lengths:  10.872400  10.872400  10.872400
  Angles:   90.000000  90.000000  90.000000

Effective grid spacing dv^(1/3) = 0.2265

     iter     time        total  log10-change:  magmom
                         energy  eigst   dens
iter:   1 02:06:35  -961.403905                  +121.3864
iter:   2 02:08:42  -845.638477  -0.18  -1.16    +64.4649
iter:   3 02:10:49  -832.326256  -0.85  -1.19    +55.4641
iter:   4 02:12:55  -816.652228  -1.24  -1.26    +50.9735
iter:   5 02:15:01  -805.924718  -1.57  -1.29    +49.1101
iter:   6 02:17:08  -804.611995  -1.36  -1.35    +49.6545
iter:   7 02:19:14  -801.924055  -1.33  -1.43    +49.0954
iter:   8 02:21:22  -799.372662  -1.57  -1.50    +49.7569
iter:   9 02:23:29  -793.335553  -1.97  -1.60    +50.4868
iter:  10 02:25:32  -793.531648  -2.37  -1.74    +51.6339
iter:  11 02:27:38  -793.790791  -2.41  -1.77    +52.9557
iter:  12 02:29:46  -794.669130  -2.38  -1.82    +54.4551
iter:  13 02:31:53  -794.170084  -2.43  -1.83    +54.8093
iter:  14 02:34:00  -793.831336  -2.58  -1.92    +55.5963
iter:  15 02:36:07  -793.820575  -2.85  -1.98    +56.3740
iter:  16 02:38:13  -793.871778c -2.98  -2.04    +56.5881
iter:  17 02:40:21  -793.912433  -2.93  -2.07    +57.2014
iter:  18 02:42:28  -793.964884  -3.02  -2.12    +57.4186
iter:  19 02:44:35  -793.831635  -3.05  -2.18    +57.4216
iter:  20 02:46:41  -793.829905  -3.27  -2.26    +57.7541
iter:  21 02:48:43  -793.870945c -3.28  -2.31    +57.8067
iter:  22 02:50:50  -793.823686c -3.39  -2.34    +57.8702
iter:  23 02:52:58  -793.866908c -3.57  -2.41    +57.9874
iter:  24 02:55:04  -793.922298  -3.56  -2.46    +57.9670
iter:  25 02:57:11  -793.930070c -3.75  -2.47    +57.9943
iter:  26 02:59:18  -793.998600c -3.72  -2.53    +58.0110
iter:  27 03:01:25  -794.015403c -3.81  -2.53    +57.8861
iter:  28 03:03:32  -794.053591c -3.93  -2.57    +57.8742
iter:  29 03:05:39  -794.097003c -3.91  -2.61    +57.7667
iter:  30 03:07:46  -794.129925c -4.19  -2.66    +57.7023
iter:  31 03:09:49  -794.195160  -3.94  -2.69    +57.6107
iter:  32 03:11:56  -794.217106c -4.21  -2.72    +57.5925
iter:  33 03:14:03  -794.262684c -4.13  -2.75    +57.4503
iter:  34 03:16:10  -794.291021c -4.34  -2.80    +57.4474
iter:  35 03:18:16  -794.362539  -4.08  -2.83    +57.3146
iter:  36 03:20:23  -794.420590  -4.08  -2.85    +57.3772
iter:  37 03:22:30  -794.507659  -3.83  -2.88    +57.4020
iter:  38 03:24:37  -794.694571  -3.12  -2.87    +57.5808
iter:  39 03:26:44  -794.721166  -4.00  -2.73    +57.7046
iter:  40 03:28:48  -794.686434c -4.07  -2.74    +57.6650
iter:  41 03:30:52  -794.698557c -4.21  -2.87    +57.8057
iter:  42 03:32:59  -794.701262c -4.52  -2.89    +57.7597
iter:  43 03:35:05  -794.697255c -3.96  -2.93    +57.7768
iter:  44 03:37:12  -794.691289c -4.57  -2.94    +57.6729
iter:  45 03:39:20  -794.699078c -4.87  -3.03    +57.5327
iter:  46 03:41:27  -794.714343c -4.56  -3.07    +57.3044
iter:  47 03:43:34  -794.730864c -4.25  -3.07    +56.9881
iter:  48 03:45:41  -794.749284c -4.34  -3.06    +56.8416
iter:  49 03:47:48  -794.750618c -5.21  -3.00    +56.9256
iter:  50 03:49:54  -794.752803c -5.35  -2.99    +56.9369
iter:  51 03:52:01  -794.754864c -4.95  -2.98    +56.9985
iter:  52 03:54:06  -794.746275c -4.93  -2.96    +57.0171
iter:  53 03:56:06  -794.751850c -4.25  -3.02    +57.0629
iter:  54 03:58:13  -794.737063c -4.75  -2.97    +57.0235
iter:  55 04:00:21  -794.735882c -4.77  -3.11    +56.9954
iter:  56 04:02:28  -794.734351c -4.73  -3.15    +56.9968
iter:  57 04:04:35  -794.734538c -4.84  -3.22    +57.0032
iter:  58 04:06:41  -794.732753c -5.15  -3.28    +56.9955
iter:  59 04:08:48  -794.731938c -5.39  -3.33    +57.0002
iter:  60 04:10:55  -794.731717c -5.65  -3.39    +57.0203
iter:  61 04:13:02  -794.732612c -5.57  -3.42    +57.0096
iter:  62 04:15:09  -794.731761c -5.60  -3.45    +57.0228
iter:  63 04:17:16  -794.731894c -5.52  -3.51    +57.0397
iter:  64 04:19:19  -794.731712c -5.66  -3.50    +57.0427
iter:  65 04:21:26  -794.731718c -5.73  -3.64    +57.0435
iter:  66 04:23:33  -794.730927c -6.04  -3.63    +57.0482
iter:  67 04:25:40  -794.730918c -5.97  -3.79    +57.0583
iter:  68 04:27:47  -794.731196c -6.18  -3.78    +57.0514
iter:  69 04:29:54  -794.730771c -6.22  -3.83    +57.0550
iter:  70 04:32:00  -794.730617c -6.27  -3.93    +57.0621
iter:  71 04:34:07  -794.730916c -6.44  -3.97    +57.0617
iter:  72 04:36:14  -794.730715c -6.59  -3.99    +57.0609
iter:  73 04:38:20  -794.730760c -6.63  -4.06c   +57.0634
iter:  74 04:40:26  -794.730831c -6.66  -4.05c   +57.0666
iter:  75 04:42:30  -794.730802c -6.94  -4.12c   +57.0679
iter:  76 04:44:37  -794.730927c -6.99  -4.20c   +57.0688
iter:  77 04:46:43  -794.730919c -7.09  -4.19c   +57.0710
iter:  78 04:48:50  -794.730971c -7.15  -4.23c   +57.0703
iter:  79 04:50:57  -794.730962c -7.08  -4.28c   +57.0711
iter:  80 04:53:03  -794.731053c -7.39  -4.28c   +57.0738
iter:  81 04:55:10  -794.731105c -7.43c -4.37c   +57.0754

Converged after 81 iterations.

Dipole moment: (52.179316, 63.404627, -0.995573) |e|*Ang

Total magnetic moment: (0.000000, 0.000000, 57.075386)
Local magnetic moments:
   0 Al ( 0.000000,  0.000000, -0.012321)
   1 Fe ( 0.000000,  0.000000,  2.207929)
   2 Cr ( 0.000000,  0.000000, -2.170710)
   3 Cr ( 0.000000,  0.000000,  1.755483)
   4 Ni ( 0.000000,  0.000000,  0.174882)
   5 Al ( 0.000000,  0.000000, -0.016853)
   6 Al ( 0.000000,  0.000000, -0.002883)
   7 Ni ( 0.000000,  0.000000,  0.329477)
   8 Fe ( 0.000000,  0.000000,  2.064722)
   9 Co ( 0.000000,  0.000000,  0.952141)
  10 Ni ( 0.000000,  0.000000,  0.112391)
  11 Fe ( 0.000000,  0.000000,  2.255152)
  12 Fe ( 0.000000,  0.000000,  2.125365)
  13 Co ( 0.000000,  0.000000,  1.323249)
  14 Cr ( 0.000000,  0.000000, -2.175788)
  15 Co ( 0.000000,  0.000000,  1.049589)
  16 Fe ( 0.000000,  0.000000,  2.067818)
  17 Al ( 0.000000,  0.000000, -0.036394)
  18 Fe ( 0.000000,  0.000000,  2.164401)
  19 Fe ( 0.000000,  0.000000,  2.194303)
  20 Cr ( 0.000000,  0.000000, -1.799000)
  21 Co ( 0.000000,  0.000000,  0.789543)
  22 Al ( 0.000000,  0.000000, -0.035596)
  23 Fe ( 0.000000,  0.000000,  2.030212)
  24 Ni ( 0.000000,  0.000000,  0.111169)
  25 Al ( 0.000000,  0.000000, -0.023289)
  26 Ni ( 0.000000,  0.000000,  0.310298)
  27 Cr ( 0.000000,  0.000000,  1.892470)
  28 Fe ( 0.000000,  0.000000,  2.243119)
  29 Ni ( 0.000000,  0.000000,  0.202797)
  30 Ni ( 0.000000,  0.000000,  0.297050)
  31 Ni ( 0.000000,  0.000000,  0.345193)
  32 Co ( 0.000000,  0.000000,  1.220435)
  33 Cr ( 0.000000,  0.000000, -1.868123)
  34 Fe ( 0.000000,  0.000000,  2.194774)
  35 Ni ( 0.000000,  0.000000,  0.149110)
  36 Fe ( 0.000000,  0.000000,  1.817983)
  37 Co ( 0.000000,  0.000000,  1.140579)
  38 Cr ( 0.000000,  0.000000, -1.485359)
  39 Ni ( 0.000000,  0.000000,  0.171089)
  40 Al ( 0.000000,  0.000000, -0.002186)
  41 Al ( 0.000000,  0.000000, -0.000323)
  42 Cr ( 0.000000,  0.000000, -1.744085)
  43 Al ( 0.000000,  0.000000, -0.009578)
  44 Al ( 0.000000,  0.000000, -0.005150)
  45 Co ( 0.000000,  0.000000, -0.156940)
  46 Cr ( 0.000000,  0.000000, -1.029989)
  47 Ni ( 0.000000,  0.000000,  0.298209)
  48 Fe ( 0.000000,  0.000000,  2.493792)
  49 Fe ( 0.000000,  0.000000,  1.741234)
  50 Al ( 0.000000,  0.000000, -0.032209)
  51 Co ( 0.000000,  0.000000,  1.051917)
  52 Co ( 0.000000,  0.000000,  1.030933)
  53 Ni ( 0.000000,  0.000000,  0.409836)
  54 Ni ( 0.000000,  0.000000,  0.148721)
  55 Co ( 0.000000,  0.000000,  1.070917)
  56 Al ( 0.000000,  0.000000, -0.007057)
  57 Cr ( 0.000000,  0.000000,  0.855022)
  58 Ni ( 0.000000,  0.000000,  0.239547)
  59 Cr ( 0.000000,  0.000000, -1.569461)
[...]
  93 Co ( 0.000000,  0.000000,  1.230650)
  94 Ni ( 0.000000,  0.000000,  0.322269)
  95 Fe ( 0.000000,  0.000000,  1.952473)
  96 Al ( 0.000000,  0.000000, -0.031785)
  97 Al ( 0.000000,  0.000000, -0.017780)
  98 Fe ( 0.000000,  0.000000,  1.256050)
  99 Co ( 0.000000,  0.000000,  1.023179)
 100 Fe ( 0.000000,  0.000000,  2.316938)
 101 Co ( 0.000000,  0.000000,  1.370925)
 102 Al ( 0.000000,  0.000000, -0.052762)
 103 Fe ( 0.000000,  0.000000,  2.327703)
 104 Co ( 0.000000,  0.000000,  1.113925)
 105 Ni ( 0.000000,  0.000000,  0.400275)
 106 Al ( 0.000000,  0.000000, -0.031643)
 107 Cr ( 0.000000,  0.000000,  1.159211)

Energy contributions relative to reference atoms: (reference = -3235165.067515)

Kinetic:       +423.528429
Potential:     -380.690596
External:        +0.000000
XC:            -866.767643
Entropy (-ST):   -3.957384
Local:          +31.177397
Free energy:   -796.709797
Extrapolated:  -794.731105

Spin contamination: 26.831593 electrons
Showing only first 2 kpts
                      Up                     Down
 Kpt  Band  Eigenvalues  Occupancy  Eigenvalues  Occupancy
  0   454      9.02153    0.99498      9.92385    0.02333
  0   455      9.03041    0.99451      9.94385    0.01919
  0   456      9.03608    0.99420      9.94654    0.01869
  0   457      9.05199    0.99320      9.97058    0.01475

  1   454      9.01108    0.99547      9.92599    0.02285
  1   455      9.02834    0.99463      9.93231    0.02148
  1   456      9.04108    0.99390      9.95027    0.01801
  1   457      9.05049    0.99330      9.96739    0.01522

Fermi level: 9.55043

No gap

Forces in eV/Ang:
  0 Al   -1.33833   -0.84814   -0.52620
  1 Fe    0.14514    0.41019    1.77965
  2 Cr   -1.26343    0.10080   -0.02747
  3 Cr    1.66946    0.34622   -0.21984
  4 Ni   -1.32187   -0.10332   -0.64981
  5 Al   -0.16553    0.43984    0.69856
  6 Al    1.66325   -0.81908   -0.40417
  7 Ni   -1.04614    0.28837    0.20118
  8 Fe   -0.81914   -0.17349    0.04634
  9 Co   -0.04533    0.26781    0.15644
 10 Ni    1.73068    0.83884    0.77342
 11 Fe    0.44098    0.52989    0.39125
 12 Fe   -0.08816    1.31911   -1.52009
 13 Co    0.20204   -0.17236    1.06965
 14 Cr   -1.39330   -1.61708   -0.59438
 15 Co    0.31014   -0.00430   -0.05895
 16 Fe    0.26057    0.52976   -1.05360
 17 Al   -0.39359    1.51265   -0.20192
 18 Fe    1.70344    0.05480   -1.95699
 19 Fe    0.58133   -0.95831   -1.30873
 20 Cr   -0.42252   -0.54200   -1.12994
 21 Co    0.15146    1.53430    0.10482
 22 Al    0.87332   -0.38632    1.69541
 23 Fe   -1.22824   -0.54581   -0.08512
 24 Ni    1.37738    2.22045    1.25885
 25 Al   -0.20845   -1.08789   -1.74075
 26 Ni   -0.52226    0.19405    0.28220
 27 Cr    0.43537    0.83725   -0.36351
 28 Fe   -0.30342    0.30293    1.70155
 29 Ni    0.55545   -0.02462   -0.01875
 30 Ni    1.07662    0.29060   -0.47907
 31 Ni   -0.56772    0.39758    0.95622
 32 Co    0.98757   -0.87632    0.73596
 33 Cr   -1.04329   -0.57107   -0.11904
 34 Fe    0.52388   -0.46979   -0.89034
 35 Ni    0.62751   -0.08451    0.03781
 36 Fe    0.77817    1.25622    0.70419
 37 Co    1.39344   -0.04440   -1.34671
 38 Cr   -2.52942   -0.13575    1.22950
 39 Ni    0.59845   -0.19994   -0.29577
 40 Al    0.62948    1.26738   -0.94982
 41 Al    0.67803    0.65799   -0.14310
 42 Cr    0.45474   -1.19033    2.12390
 43 Al    0.44652    0.53065   -0.14949
 44 Al   -0.13813   -0.00185   -0.65462
 45 Co    1.03682    0.09217    0.00236
 46 Cr    0.19032    0.67279    0.21844
 47 Ni   -0.15604    0.16729   -0.21006
 48 Fe   -0.39535    0.08043   -0.74051
 49 Fe   -0.32086   -0.52641   -0.42359
 50 Al    0.25048   -0.96346    0.38265
 51 Co   -0.42508    0.29301   -0.69798
 52 Co   -1.90070   -0.01524    1.33535
 53 Ni   -2.27632    0.32908    1.68802
 54 Ni    0.58896   -1.13785    0.61145
 55 Co    1.36314    0.63443   -0.99518
 56 Al    0.05788   -1.22867   -0.49230
 57 Cr   -0.92592    0.27328    1.12576
 58 Ni   -1.09149   -0.32863   -0.45514
 59 Cr    0.00997   -0.26341   -0.63056
[...]
 93 Co   -0.16128   -1.04390    0.49309
 94 Ni   -1.13640    0.78332    0.39997
 95 Fe    0.22810   -1.11669    0.05196
 96 Al    0.23308   -1.60251    0.86416
 97 Al   -0.42782    0.75328    1.06901
 98 Fe    2.15826   -0.53763    0.76441
 99 Co   -1.81950    1.00641    0.52199
100 Fe    0.54763   -2.04018    0.16885
101 Co   -1.76284    0.95682   -0.45489
102 Al    1.60521   -1.39184   -0.31015
103 Fe   -1.36624    1.47262   -1.88676
104 Co   -0.32702    0.01417    1.03556
105 Ni    0.57145   -1.57448    1.92427
106 Al   -1.24178    1.51658   -0.17182
107 Cr   -1.53303    0.64009   -1.32143

Date: Fri Apr 14 04:55:30 2023