User:   c.zeng@d0139
Date:   Sat Apr  8 12:51:48 2023
Arch:   x86_64
Pid:    50189
CWD:    /home/c.zeng/projects/hea-corrosion/hea-mlp/data-curation/volume/dft-jobs/70
Python: 3.8.1
gpaw:   /home/c.zeng/usr/installs/gpaw/source/gpaw-22.8.0/gpaw
_gpaw:  /home/c.zeng/usr/installs/gpaw/source/gpaw-22.8.0/
        _gpaw.cpython-38-x86_64-linux-gnu.so
ase:    /home/c.zeng/.local/lib/python3.8/site-packages/ase-3.22.1-py3.8.egg/ase (version 3.22.1)
numpy:  /shared/centos7/python/3.8.1/lib/python3.8/site-packages/numpy (version 1.17.4)
scipy:  /shared/centos7/python/3.8.1/lib/python3.8/site-packages/scipy (version 1.4.1)
units:  Angstrom and eV
cores: 64
OpenMP: False
OMP_NUM_THREADS: 1

Input parameters:
  convergence: {energy: 0.0001}
  kpts: [2 2 2]
  maxiter: 666
  mode: {ecut: 350.0,
         name: pw}
  occupations: {fixmagmom: False,
                name: fermi-dirac,
                width: 0.1}
  spinpol: True
  xc: PBE

System changes: positions, numbers, cell, pbc, initial_charges, initial_magmoms

Initialize ...

species:
  Co:
    name: Cobalt
    id: 339d20d5b0b93d2de9531a1bee871d91
    Z: 27.0
    valence: 9
    core: 18
    charge: 0.0
    file: /home/c.zeng/usr/data/gpaw-setups-0.9.20000/Co.PBE.gz
    compensation charges: {type: gauss,
                           rc: 0.32,
                           lmax: 2}
    cutoffs: {filter: 1.87,
              core: 2.55}
    valence states:
      #              energy  rcut
      - 4s(2.00)    -5.469   1.005
      - 4p(0.00)    -1.277   1.058
      - 3d(7.00)    -8.205   1.005
      -  s          21.742   1.005
      -  p          25.934   1.058
      -  d          19.007   1.005

    # Using partial waves for Co as LCAO basis

  Ni:
    name: Nickel
    id: 0d9f38a9d6e76a2886f07bb4381f212b
    Z: 28.0
    valence: 16
    core: 12
    charge: 0.0
    file: /home/c.zeng/usr/data/gpaw-setups-0.9.20000/Ni.PBE.gz
    compensation charges: {type: gauss,
                           rc: 0.36,
                           lmax: 2}
    cutoffs: {filter: 2.14,
              core: 1.98}
    valence states:
      #              energy  rcut
      - 4s(2.00)    -5.642   1.164
      - 3p(6.00)   -71.394   1.207
      - 4p(0.00)    -1.226   1.207
      - 3d(8.00)    -8.875   1.138
      -  s          21.570   1.164
      -  d          18.337   1.138

[...]

  Al:
    name: Aluminium
    id: 0292cae29f5d6237e50f6abdd43a7bdd
    Z: 13.0
    valence: 3
    core: 10
    charge: 0.0
    file: /home/c.zeng/usr/data/gpaw-setups-0.9.20000/Al.PBE.gz
    compensation charges: {type: gauss,
                           rc: 0.34,
                           lmax: 2}
    cutoffs: {filter: 1.91,
              core: 2.36}
    valence states:
      #              energy  rcut
      - 3s(2.00)    -7.753   1.085
      - 3p(1.00)    -2.712   1.085
      -  s          19.459   1.085
      -  p          24.499   1.085
      -  d           0.000   1.085

[...]

  Cr:
    name: Chromium
    id: 33f258bda2ca9f93018e70263a35547b
    Z: 24.0
    valence: 6
    core: 18
    charge: 0.0
    file: /home/c.zeng/usr/data/gpaw-setups-0.9.20000/Cr.PBE.gz
    compensation charges: {type: gauss,
                           rc: 0.35,
                           lmax: 2}
    cutoffs: {filter: 2.14,
              core: 3.04}
    valence states:
      #              energy  rcut
      - 4s(1.00)    -4.007   1.164
      - 4p(0.00)    -0.989   1.217
      - 3d(5.00)    -2.913   1.111
      -  s          23.205   1.164
      -  p          26.223   1.217
      -  d          24.299   1.111

[...]

  Fe:
    name: Iron
    id: 37abbd8d6c3c35915a9b583b742da910
    Z: 26.0
    valence: 8
    core: 18
    charge: 0.0
    file: /home/c.zeng/usr/data/gpaw-setups-0.9.20000/Fe.PBE.gz
    compensation charges: {type: gauss,
                           rc: 0.33,
                           lmax: 2}
    cutoffs: {filter: 2.06,
              core: 2.67}
    valence states:
      #              energy  rcut
      - 4s(2.00)    -5.291   1.164
      - 4p(0.00)    -1.326   1.058
      - 3d(6.00)    -7.505   1.058
      -  s          21.920   1.164
      -  p          25.885   1.058
      -  d          19.706   1.058

    # Using partial waves for Fe as LCAO basis

Reference energy: -3548577.034362  # eV

Spin-polarized calculation.
Magnetic moment: 136.400000

Convergence criteria:
 Maximum [total energy] change in last 3 cyles: 0.0001 eV / electron
 Maximum integral of absolute [dens]ity change: 0.0001 electrons / valence electron
 Maximum integral of absolute [eigenst]ate change: 4e-08 eV^2 / valence electron
 Maximum number of scf [iter]ations: 666
 (Square brackets indicate name in SCF output, whereas a 'c' in
 the SCF output indicates the quantity has converged.)

Symmetries present (total): 1

  ( 1  0  0)
  ( 0  1  0)
  ( 0  0  1)

8 k-points: 2 x 2 x 2 Monkhorst-Pack grid
4 k-points in the irreducible part of the Brillouin zone
       k-points in crystal coordinates                weights
   0:     0.25000000   -0.25000000   -0.25000000          2/8
   1:     0.25000000   -0.25000000    0.25000000          2/8
   2:     0.25000000    0.25000000   -0.25000000          2/8
   3:     0.25000000    0.25000000    0.25000000          2/8

Wave functions: Plane wave expansion
  Cutoff energy: 350.000 eV
  Number of coefficients (min, max): 21428, 21428
  Pulay-stress correction: 0.000000 eV/Ang^3 (de/decut=0.000000)
  Using FFTW library
  ScaLapack parameters: grid=1x1, blocksize=None
  Wavefunction extrapolation:
    Improved wavefunction reuse through dual PAW basis

Occupation numbers: Fermi-Dirac:
  width: 0.1000  # eV

Eigensolver
   Davidson(niter=2)

Densities:
  Coarse grid: 49*49*49 grid
  Fine grid: 98*98*98 grid
  Total Charge: 0.000000

Density mixing:
  Method: difference
  Backend: pulay
  Linear mixing parameter: 0.05
  old densities: 5
  Damping of long wavelength oscillations: 50

Hamiltonian:
  XC and Coulomb potentials evaluated on a 98*98*98 grid
  Using the PBE Exchange-Correlation functional
  External potential:
    NoExternalPotential

XC parameters: PBE with 2 nearest neighbor stencil

Total number of cores used: 64
Parallelization over k-points: 4
Domain decomposition: 4 x 2 x 2

Number of atoms: 108
Number of atomic orbitals: 994
Number of bands in calculation: 674
Number of valence electrons: 980
Bands to converge: occupied

... initialized

Initializing position-dependent things.

Density initialized from atomic densities
Creating initial wave functions:
  674 bands from LCAO basis set

       /|   Cr       Fe             |
      / |      Fe       Fe     Al   |
     /  |          Co               |
    /  NiAl     Ni       Ni         |
   /    | Ni Cr     Fe       FeCo   |
  /  CoCr   CoFe     CoNi     Fe    |
 *      NiCr   CoAl     Co Cr  Al Co|
 |Co    |FeFe   Co CoCr  Cr Cr     Ni
 | Cr Co| Cr CoFe   CoFe     Fe     |
 |      |   NiNi       Co           |
 |   FeFe       Cr   Cr  Ni   Ni    |
 Al     FeFe   CoCo Ni  Cr Cr     Ni|
 |Ni    |NiNi   Ni CrCo  Cr Fe     Al
 | Cr Co.-Ni-NiCo---CoCr-----Fe-----.
 |     Ni     CrNi     CrNi   CrFe /
 Ni   / AlCo     Al Cr     Cr     Fe
 |   /                      CrNi /
 |  /       Fe       Fe         /
 | /  Al       Fe     CoFe     /
 |/             Fe        Al  /
 Co-----------------Cr-------*

Positions:
   0 Co    11.299500    0.000008   11.299500    ( 0.0000,  0.0000,  2.1000)
   1 Ni    11.299477    1.883242    1.883254    ( 0.0000,  0.0000,  1.5000)
   2 Al     1.883299    0.000057    1.883288    ( 0.0000,  0.0000,  0.0000)
   3 Cr     1.883265    1.883242   11.299466    ( 0.0000,  0.0000,  0.0000)
   4 Cr     3.766564    0.000019   11.299489    ( 0.0000,  0.0000,  0.0000)
   5 Fe     3.766530    1.883231    1.883254    ( 0.0000,  0.0000,  2.0000)
   6 Fe     5.649739    0.000028    1.883242    ( 0.0000,  0.0000,  2.0000)
   7 Fe     5.649750    1.883220    0.000016    ( 0.0000,  0.0000,  2.0000)
   8 Cr     7.532936    0.000006    0.000040    ( 0.0000,  0.0000,  0.0000)
   9 Fe     7.532981    1.883231    1.883254    ( 0.0000,  0.0000,  2.0000)
  10 Fe     9.416246    0.000010    1.883265    ( 0.0000,  0.0000,  2.0000)
  11 Al     9.416246    1.883276    0.000089    ( 0.0000,  0.0000,  0.0000)
  12 Co    11.299489    3.766519   11.299489    ( 0.0000,  0.0000,  2.1000)
  13 Fe    11.299477    5.649784    1.883265    ( 0.0000,  0.0000,  2.0000)
  14 Al     1.883220    3.766462    1.883322    ( 0.0000,  0.0000,  0.0000)
  15 Al     1.883231    5.649829   11.299444    ( 0.0000,  0.0000,  0.0000)
  16 Cr     3.766519    3.766474   11.299477    ( 0.0000,  0.0000,  0.0000)
  17 Cr     3.766508    5.649806    1.883254    ( 0.0000,  0.0000,  0.0000)
  18 Al     5.649761    3.766417    1.883231    ( 0.0000,  0.0000,  0.0000)
  19 Co     5.649750    5.649806   11.299477    ( 0.0000,  0.0000,  2.1000)
  20 Co     7.532992    3.766496    0.000004    ( 0.0000,  0.0000,  2.1000)
  21 Cr     7.533038    5.649784    1.883242    ( 0.0000,  0.0000,  0.0000)
  22 Cr     9.416258    3.766508    1.883276    ( 0.0000,  0.0000,  0.0000)
  23 Cr     9.416269    5.649795    0.000017    ( 0.0000,  0.0000,  0.0000)
  24 Fe    11.299477    7.532981    0.000001    ( 0.0000,  0.0000,  2.0000)
  25 Al    11.299421    9.416190    1.883242    ( 0.0000,  0.0000,  0.0000)
  26 Ni     1.883242    7.532992    1.883254    ( 0.0000,  0.0000,  1.5000)
  27 Cr     1.883265    9.416212   11.299466    ( 0.0000,  0.0000,  0.0000)
  28 Fe     3.766530    7.533004   11.299489    ( 0.0000,  0.0000,  2.0000)
  29 Ni     3.766541    9.416235    1.883254    ( 0.0000,  0.0000,  1.5000)
  30 Co     5.649750    7.533015    1.883220    ( 0.0000,  0.0000,  2.1000)
  31 Fe     5.649739    9.416235   11.299489    ( 0.0000,  0.0000,  2.0000)
  32 Fe     7.532992    7.533004   11.299489    ( 0.0000,  0.0000,  2.0000)
  33 Cr     7.532992    9.416246    1.883231    ( 0.0000,  0.0000,  0.0000)
  34 Fe     9.416258    7.532992    1.883254    ( 0.0000,  0.0000,  2.0000)
  35 Cr     9.416235    9.416201    0.000005    ( 0.0000,  0.0000,  0.0000)
  36 Ni    11.299500    0.000013    3.766496    ( 0.0000,  0.0000,  1.5000)
  37 Ni     0.000032    1.883276    5.649750    ( 0.0000,  0.0000,  1.5000)
  38 Co     1.883276    0.000013    5.649750    ( 0.0000,  0.0000,  2.1000)
  39 Ni     1.883265    1.883254    3.766530    ( 0.0000,  0.0000,  1.5000)
  40 Co     3.766519    0.000006    3.766508    ( 0.0000,  0.0000,  2.1000)
  41 Ni     3.766485    1.883242    5.649761    ( 0.0000,  0.0000,  1.5000)
  42 Co     5.649739    0.000002    5.649761    ( 0.0000,  0.0000,  2.1000)
  43 Ni     5.649739    1.883220    3.766485    ( 0.0000,  0.0000,  1.5000)
  44 Cr     7.532992    0.000038    3.766462    ( 0.0000,  0.0000,  0.0000)
  45 Co     7.532992    1.883265    5.649750    ( 0.0000,  0.0000,  2.1000)
  46 Al     9.416212   11.299489    5.649694    ( 0.0000,  0.0000,  0.0000)
  47 Ni     9.416246    1.883242    3.766474    ( 0.0000,  0.0000,  1.5000)
  48 Cr    11.299500    3.766530    3.766519    ( 0.0000,  0.0000,  0.0000)
  49 Fe     0.000004    5.649750    5.649739    ( 0.0000,  0.0000,  2.0000)
  50 Fe     1.883254    3.766508    5.649750    ( 0.0000,  0.0000,  2.0000)
  51 Ni     1.883220    5.649750    3.766530    ( 0.0000,  0.0000,  1.5000)
  52 Ni     3.766485    3.766485    3.766530    ( 0.0000,  0.0000,  1.5000)
  53 Ni     3.766485    5.649739    5.649773    ( 0.0000,  0.0000,  1.5000)
  54 Co     5.649750    3.766508    5.649761    ( 0.0000,  0.0000,  2.1000)
  55 Cr     5.649750    5.649773    3.766530    ( 0.0000,  0.0000,  0.0000)
  56 Cr     7.533015    3.766485    3.766530    ( 0.0000,  0.0000,  0.0000)
  57 Co     7.533015    5.649750    5.649761    ( 0.0000,  0.0000,  2.1000)
  58 Cr     9.416235    3.766519    5.649750    ( 0.0000,  0.0000,  0.0000)
  59 Fe     9.416269    5.649784    3.766508    ( 0.0000,  0.0000,  2.0000)
[...]
  93 Ni     7.532992    5.649784    9.416246    ( 0.0000,  0.0000,  1.5000)
  94 Cr     9.416258    3.766508    9.416235    ( 0.0000,  0.0000,  0.0000)
  95 Cr     9.416246    5.649784    7.532970    ( 0.0000,  0.0000,  0.0000)
  96 Co    11.299489    7.533004    7.533004    ( 0.0000,  0.0000,  2.1000)
  97 Ni    11.299500    9.416201    9.416246    ( 0.0000,  0.0000,  1.5000)
  98 Ni     1.883254    7.532992    9.416235    ( 0.0000,  0.0000,  1.5000)
  99 Co     1.883265    9.416246    7.532992    ( 0.0000,  0.0000,  2.1000)
 100 Co     3.766508    7.532992    7.533015    ( 0.0000,  0.0000,  2.1000)
 101 Ni     3.766530    9.416246    9.416235    ( 0.0000,  0.0000,  1.5000)
 102 Fe     5.649750    7.533004    9.416280    ( 0.0000,  0.0000,  2.0000)
 103 Co     5.649739    9.416258    7.533015    ( 0.0000,  0.0000,  2.1000)
 104 Co     7.533004    7.532992    7.533015    ( 0.0000,  0.0000,  2.1000)
 105 Ni     7.532970    9.416212    9.416235    ( 0.0000,  0.0000,  1.5000)
 106 Fe     9.416246    7.533026    9.416258    ( 0.0000,  0.0000,  2.0000)
 107 Fe     9.416246    9.416212    7.532992    ( 0.0000,  0.0000,  2.0000)

Unit cell:
           periodic     x           y           z      points  spacing
  1. axis:    yes   11.299500    0.000000    0.000000    49     0.2306
  2. axis:    yes    0.000000   11.299500    0.000000    49     0.2306
  3. axis:    yes    0.000000    0.000000   11.299500    49     0.2306

  Lengths:  11.299500  11.299500  11.299500
  Angles:   90.000000  90.000000  90.000000

Effective grid spacing dv^(1/3) = 0.2306

     iter     time        total  log10-change:  magmom
                         energy  eigst   dens
iter:   1 12:55:17 -1052.547702                  +136.6834
iter:   2 12:57:07  -910.168557  -0.11  -1.16    +74.9425
iter:   3 12:58:56  -922.577524  -0.58  -1.14    +72.4370
iter:   4 13:00:47  -862.636222  -1.08  -1.20    +66.5350
iter:   5 13:02:37  -852.744893  -1.68  -1.29    +67.6746
iter:   6 13:04:24  -854.552287  -1.41  -1.33    +72.7731
iter:   7 13:06:14  -842.557418  -1.33  -1.37    +75.6117
iter:   8 13:08:05  -841.655724  -1.54  -1.49    +78.5278
iter:   9 13:09:57  -837.741215  -1.59  -1.57    +79.1404
iter:  10 13:11:49  -834.192177  -2.10  -1.68    +81.0462
iter:  11 13:13:41  -835.739913  -2.29  -1.81    +82.9312
iter:  12 13:15:30  -835.185841  -2.62  -1.82    +82.8372
iter:  13 13:17:19  -835.694150  -2.57  -1.86    +84.1875
iter:  14 13:19:05  -836.608822  -2.38  -1.90    +84.3696
iter:  15 13:20:54  -837.032234  -2.51  -1.97    +83.6179
iter:  16 13:22:45  -837.847159  -2.51  -2.01    +82.8181
iter:  17 13:24:32  -836.784062  -2.72  -1.97    +82.9831
iter:  18 13:26:21  -837.268656  -3.00  -2.14    +82.8525
iter:  19 13:28:13  -837.401584  -2.99  -2.15    +81.9101
iter:  20 13:30:07  -837.550176  -3.17  -2.20    +81.7031
iter:  21 13:32:02  -837.813251  -3.16  -2.25    +81.3597
iter:  22 13:33:56  -837.941191  -3.14  -2.24    +80.8059
iter:  23 13:35:45  -838.098211  -3.16  -2.28    +79.8091
iter:  24 13:37:33  -838.162886  -3.29  -2.30    +79.6951
iter:  25 13:39:24  -838.272306  -3.23  -2.36    +79.9222
iter:  26 13:41:13  -838.334236  -3.36  -2.39    +79.3388
iter:  27 13:43:00  -838.402538  -3.35  -2.42    +79.0502
iter:  28 13:44:49  -838.455112  -3.57  -2.46    +79.1100
iter:  29 13:46:44  -838.473143c -3.75  -2.49    +79.1787
iter:  30 13:48:35  -838.546791c -3.89  -2.49    +78.9623
iter:  31 13:50:28  -838.640686  -3.91  -2.53    +78.7130
iter:  32 13:52:19  -838.673044  -4.29  -2.54    +78.7673
iter:  33 13:54:08  -838.834676  -3.90  -2.54    +78.8549
iter:  34 13:55:55  -838.795090  -4.40  -2.49    +78.8294
iter:  35 13:57:44  -838.939624  -3.76  -2.53    +79.0436
iter:  36 13:59:36  -839.098022  -3.42  -2.48    +78.9836
iter:  37 14:01:28  -839.110613  -3.38  -2.46    +78.9244
iter:  38 14:03:15  -839.016425c -3.62  -2.50    +79.2533
iter:  39 14:05:06  -839.215179  -3.41  -2.65    +79.4741
iter:  40 14:06:57  -839.085291  -3.85  -2.55    +79.4173
iter:  41 14:08:49  -839.193400  -3.82  -2.72    +79.5055
iter:  42 14:10:45  -839.170136  -4.28  -2.69    +79.6442
iter:  43 14:12:41  -839.248239c -4.09  -2.77    +80.0571
iter:  44 14:14:35  -839.317237  -4.29  -2.77    +80.2791
iter:  45 14:16:30  -839.373077  -4.40  -2.75    +80.2979
iter:  46 14:18:18  -839.427082  -4.10  -2.70    +80.4989
iter:  47 14:20:07  -839.600977  -3.80  -2.73    +81.1758
iter:  48 14:21:58  -839.586380  -3.78  -2.65    +81.3073
iter:  49 14:23:53  -839.565748c -3.62  -2.65    +81.8310
iter:  50 14:25:45  -839.589617c -3.98  -2.67    +81.7924
iter:  51 14:27:38  -839.616793c -4.12  -2.72    +81.7770
iter:  52 14:29:25  -839.649100c -4.30  -2.74    +82.0094
iter:  53 14:31:14  -839.719986  -4.03  -2.74    +82.2627
iter:  54 14:33:05  -839.756071  -3.90  -2.72    +82.4785
iter:  55 14:34:56  -839.715278c -4.29  -2.68    +82.7571
iter:  56 14:36:50  -839.741417c -4.21  -2.80    +83.0313
iter:  57 14:38:41  -839.744849c -4.69  -2.78    +83.0431
iter:  58 14:40:32  -839.759042c -4.32  -2.81    +83.2818
iter:  59 14:42:23  -839.759996c -4.80  -2.76    +83.2562
iter:  60 14:44:13  -839.764636c -4.23  -2.81    +83.4318
iter:  61 14:46:03  -839.790633c -4.03  -2.84    +83.5315
iter:  62 14:47:53  -839.742836c -4.00  -2.75    +83.5738
iter:  63 14:49:43  -839.745206c -4.38  -2.96    +83.6801
iter:  64 14:51:36  -839.756357c -4.45  -2.99    +83.6734
iter:  65 14:53:23  -839.744171c -4.71  -2.93    +83.7576
iter:  66 14:55:11  -839.748709c -4.95  -3.00    +83.8263
iter:  67 14:57:03  -839.742796c -4.73  -3.03    +83.8788
iter:  68 14:58:58  -839.739406c -4.95  -3.04    +83.9087
iter:  69 15:00:52  -839.740746c -5.02  -3.11    +83.9072
iter:  70 15:02:47  -839.737329c -4.94  -3.18    +83.9351
iter:  71 15:04:42  -839.739699c -5.06  -3.18    +83.9177
iter:  72 15:06:35  -839.742614c -5.24  -3.22    +83.9247
iter:  73 15:08:29  -839.737715c -5.26  -3.25    +83.9603
iter:  74 15:10:24  -839.738259c -5.43  -3.34    +83.9397
iter:  75 15:12:19  -839.738437c -5.69  -3.41    +83.9422
iter:  76 15:14:14  -839.736704c -5.58  -3.44    +83.9411
iter:  77 15:15:45  -839.737998c -5.72  -3.44    +83.9229
iter:  78 15:17:20  -839.739543c -5.90  -3.51    +83.9227
iter:  79 15:19:10  -839.737225c -5.93  -3.54    +83.9323
iter:  80 15:21:00  -839.737999c -6.19  -3.60    +83.9193
iter:  81 15:22:48  -839.738228c -6.34  -3.68    +83.9229
iter:  82 15:24:35  -839.737193c -6.01  -3.69    +83.9213
iter:  83 15:26:24  -839.738586c -5.90  -3.71    +83.9149
iter:  84 15:28:11  -839.738686c -6.10  -3.71    +83.9212
iter:  85 15:30:02  -839.737726c -6.37  -3.83    +83.9312
iter:  86 15:31:51  -839.738265c -6.50  -3.89    +83.9280
iter:  87 15:33:41  -839.737861c -6.55  -3.94    +83.9357
iter:  88 15:35:30  -839.737638c -6.50  -3.95    +83.9390
iter:  89 15:37:22  -839.737787c -6.47  -3.97    +83.9358
iter:  90 15:39:11  -839.737833c -6.75  -3.99    +83.9398
iter:  91 15:41:01  -839.737340c -6.90  -4.08c   +83.9457
iter:  92 15:42:51  -839.737868c -7.04  -4.09c   +83.9460
iter:  93 15:44:42  -839.737385c -7.06  -4.13c   +83.9520
iter:  94 15:46:31  -839.737371c -7.04  -4.14c   +83.9543
iter:  95 15:48:20  -839.737427c -7.15  -4.16c   +83.9525
iter:  96 15:50:09  -839.737478c -7.16  -4.20c   +83.9551
iter:  97 15:51:59  -839.737284c -7.31  -4.23c   +83.9580
iter:  98 15:53:46  -839.737675c -7.26  -4.26c   +83.9583
iter:  99 15:55:35  -839.737278c -7.44c -4.30c   +83.9616

Converged after 99 iterations.

Dipole moment: (0.084675, 0.224742, -0.551084) |e|*Ang

Total magnetic moment: (0.000000, 0.000000, 83.961630)
Local magnetic moments:
   0 Co ( 0.000000,  0.000000,  0.881702)
   1 Ni ( 0.000000,  0.000000,  0.240449)
   2 Al ( 0.000000,  0.000000, -0.006659)
   3 Cr ( 0.000000,  0.000000,  2.241244)
   4 Cr ( 0.000000,  0.000000, -2.434682)
   5 Fe ( 0.000000,  0.000000,  2.525313)
   6 Fe ( 0.000000,  0.000000,  2.529391)
   7 Fe ( 0.000000,  0.000000,  2.297425)
   8 Cr ( 0.000000,  0.000000, -2.263231)
   9 Fe ( 0.000000,  0.000000,  2.344231)
  10 Fe ( 0.000000,  0.000000,  2.452323)
  11 Al ( 0.000000,  0.000000, -0.038795)
  12 Co ( 0.000000,  0.000000,  0.896629)
  13 Fe ( 0.000000,  0.000000,  2.533979)
  14 Al ( 0.000000,  0.000000, -0.021117)
  15 Al ( 0.000000,  0.000000, -0.042367)
  16 Cr ( 0.000000,  0.000000, -2.396640)
  17 Cr ( 0.000000,  0.000000,  2.173026)
  18 Al ( 0.000000,  0.000000, -0.022983)
  19 Co ( 0.000000,  0.000000,  1.434361)
  20 Co ( 0.000000,  0.000000,  1.285405)
  21 Cr ( 0.000000,  0.000000, -2.349870)
  22 Cr ( 0.000000,  0.000000,  2.221202)
  23 Cr ( 0.000000,  0.000000, -2.552454)
  24 Fe ( 0.000000,  0.000000,  2.487434)
  25 Al ( 0.000000,  0.000000, -0.018706)
  26 Ni ( 0.000000,  0.000000,  0.343490)
  27 Cr ( 0.000000,  0.000000, -2.644805)
  28 Fe ( 0.000000,  0.000000,  2.693140)
  29 Ni ( 0.000000,  0.000000,  0.227304)
  30 Co ( 0.000000,  0.000000,  1.396953)
  31 Fe ( 0.000000,  0.000000,  2.594423)
  32 Fe ( 0.000000,  0.000000,  2.531624)
  33 Cr ( 0.000000,  0.000000, -2.284812)
  34 Fe ( 0.000000,  0.000000,  2.393850)
  35 Cr ( 0.000000,  0.000000, -2.377332)
  36 Ni ( 0.000000,  0.000000,  0.422754)
  37 Ni ( 0.000000,  0.000000,  0.252063)
  38 Co ( 0.000000,  0.000000,  1.785041)
  39 Ni ( 0.000000,  0.000000,  0.436847)
  40 Co ( 0.000000,  0.000000,  1.738890)
  41 Ni ( 0.000000,  0.000000,  0.557135)
  42 Co ( 0.000000,  0.000000,  1.607535)
  43 Ni ( 0.000000,  0.000000,  0.360913)
  44 Cr ( 0.000000,  0.000000,  2.240626)
  45 Co ( 0.000000,  0.000000,  1.398906)
  46 Al ( 0.000000,  0.000000, -0.015455)
  47 Ni ( 0.000000,  0.000000,  0.282590)
  48 Cr ( 0.000000,  0.000000, -2.572795)
  49 Fe ( 0.000000,  0.000000,  2.632893)
  50 Fe ( 0.000000,  0.000000,  2.848980)
  51 Ni ( 0.000000,  0.000000,  0.423101)
  52 Ni ( 0.000000,  0.000000,  0.448973)
  53 Ni ( 0.000000,  0.000000,  0.553500)
  54 Co ( 0.000000,  0.000000,  1.678287)
  55 Cr ( 0.000000,  0.000000,  1.802545)
  56 Cr ( 0.000000,  0.000000, -2.482270)
  57 Co ( 0.000000,  0.000000,  1.413828)
  58 Cr ( 0.000000,  0.000000,  2.286697)
  59 Fe ( 0.000000,  0.000000,  2.437101)
[...]
  93 Ni ( 0.000000,  0.000000,  0.434941)
  94 Cr ( 0.000000,  0.000000,  2.080347)
  95 Cr ( 0.000000,  0.000000, -2.557184)
  96 Co ( 0.000000,  0.000000,  1.599652)
  97 Ni ( 0.000000,  0.000000,  0.315417)
  98 Ni ( 0.000000,  0.000000,  0.498448)
  99 Co ( 0.000000,  0.000000,  1.785556)
 100 Co ( 0.000000,  0.000000,  1.811626)
 101 Ni ( 0.000000,  0.000000,  0.494176)
 102 Fe ( 0.000000,  0.000000,  2.829536)
 103 Co ( 0.000000,  0.000000,  1.767494)
 104 Co ( 0.000000,  0.000000,  1.666518)
 105 Ni ( 0.000000,  0.000000,  0.340273)
 106 Fe ( 0.000000,  0.000000,  2.653172)
 107 Fe ( 0.000000,  0.000000,  2.561413)

Energy contributions relative to reference atoms: (reference = -3548577.034362)

Kinetic:       -191.141478
Potential:      +84.866853
External:        +0.000000
XC:            -765.127956
Entropy (-ST):   -4.490361
Local:          +33.910483
Free energy:   -841.982459
Extrapolated:  -839.737278

Spin contamination: 48.041661 electrons
Showing only first 2 kpts
                      Up                     Down
 Kpt  Band  Eigenvalues  Occupancy  Eigenvalues  Occupancy
  0   488      7.35576    0.99942      8.51519    0.01558
  0   489      7.36522    0.99936      8.53902    0.01232
  0   490      7.37169    0.99932      8.54577    0.01152
  0   491      7.38514    0.99922      8.55043    0.01101

  1   488      7.35104    0.99944      8.52860    0.01365
  1   489      7.35635    0.99941      8.53774    0.01248
  1   490      7.37258    0.99931      8.54914    0.01115
  1   491      7.38582    0.99921      8.55446    0.01058

Fermi level: 8.10060

No gap

Forces in eV/Ang:
  0 Co   -0.02651   -0.34042   -0.08333
  1 Ni    0.01922   -0.07939    0.10320
  2 Al    0.01701    0.44795    0.84803
  3 Cr   -0.44196   -0.00709   -0.55819
  4 Cr    0.66936    0.35894   -0.45232
  5 Fe    0.49785   -0.17462    0.46044
  6 Fe   -0.22721    0.01451   -0.08436
  7 Fe   -0.20811    0.04501    0.10403
  8 Cr   -0.93367   -0.00848   -0.13247
  9 Fe   -0.13790   -0.16356   -0.06882
 10 Fe    0.13000    0.25474   -0.03432
 11 Al    0.77226    0.39079    0.42787
 12 Co    0.04476    0.17424   -0.28965
 13 Fe    0.18822    0.42591    0.29257
 14 Al   -0.21144   -0.57439    0.64962
 15 Al   -0.63369    0.47704   -0.73902
 16 Cr   -0.29277   -0.31574   -0.09992
 17 Cr    0.01521    0.20782    0.16186
 18 Al    0.04357   -0.47718    0.03780
 19 Co    0.09944    0.26700   -0.08931
 20 Co   -0.27287   -0.00861   -0.06197
 21 Cr   -0.15903    0.74386    0.00103
 22 Cr   -0.09571    0.10262    0.14881
 23 Cr    0.41039   -0.04453   -0.49544
 24 Fe   -0.11156    0.12415   -0.38207
 25 Al   -0.23449   -0.38887    0.94119
 26 Ni    0.10329   -0.21553    0.03405
 27 Cr   -0.16954   -0.59490   -0.84585
 28 Fe    0.18150    0.41110   -0.06087
 29 Ni    0.06747   -0.11172    0.03044
 30 Co   -0.27359    0.13284   -0.14093
 31 Fe   -0.05388   -0.03610    0.13924
 32 Fe   -0.16949   -0.03857    0.08704
 33 Cr    0.05890   -0.31973    0.30316
 34 Fe   -0.03557   -0.16271    0.09052
 35 Cr    0.39613   -0.64541   -0.34553
 36 Ni    0.05058    0.11463   -0.01066
 37 Ni    0.21099   -0.12995   -0.15021
 38 Co    0.39388   -0.12041   -0.22093
 39 Ni    0.02637   -0.06656    0.14812
 40 Co    0.21059    0.08523    0.54283
 41 Ni   -0.11555   -0.04700   -0.13804
 42 Co   -0.25547    0.07011    0.05275
 43 Ni   -0.06702   -0.07200    0.15196
 44 Cr   -0.39466   -0.31106    0.22270
 45 Co   -0.29590    0.18557    0.20184
 46 Al    0.08705    0.54064   -0.48579
 47 Ni    0.13974   -0.13620   -0.13801
 48 Cr   -0.58187   -0.08120    0.55763
 49 Fe    0.37857    0.50461   -0.08345
 50 Fe    0.31306   -0.10764   -0.28856
 51 Ni    0.13395    0.09766   -0.02042
 52 Ni    0.08914    0.02812    0.13514
 53 Ni    0.04492    0.03948    0.07022
 54 Co    0.09521   -0.00965    0.15236
 55 Cr    0.12861    0.18110    0.26146
 56 Cr    0.28024   -0.51719    0.95677
 57 Co   -0.21230    0.20925    0.20627
 58 Cr    0.02859   -0.56690    0.02850
 59 Fe   -0.03065    0.38925    0.12941
[...]
 93 Ni   -0.11711    0.08087    0.03244
 94 Cr    0.32199    0.52240   -0.19240
 95 Cr   -0.37178    0.43094    0.17528
 96 Co    0.03119    0.21615    0.18888
 97 Ni    0.04914   -0.03316   -0.03748
 98 Ni   -0.05669    0.02596   -0.13375
 99 Co    0.24461   -0.13859    0.06541
100 Co    0.12918    0.18636   -0.01715
101 Ni   -0.13483   -0.04873   -0.04131
102 Fe    0.29136    0.04961   -0.22434
103 Co   -0.00071    0.04784   -0.14902
104 Co   -0.15050   -0.11498    0.05860
105 Ni   -0.05977    0.02824    0.04798
106 Fe   -0.08544   -0.15986   -0.19807
107 Fe   -0.09581   -0.69050   -0.06755

Date: Sat Apr  8 15:56:03 2023