User:   c.zeng@d0019
Date:   Sat Apr 15 23:38:35 2023
Arch:   x86_64
Pid:    190300
CWD:    /home/c.zeng/projects/hea-corrosion/hea-mlp/data-curation/bulk-mcmc/dft-jobs/98
Python: 3.8.1
gpaw:   /home/c.zeng/usr/installs/gpaw/source/gpaw-22.8.0/gpaw
_gpaw:  /home/c.zeng/usr/installs/gpaw/source/gpaw-22.8.0/
        _gpaw.cpython-38-x86_64-linux-gnu.so
ase:    /home/c.zeng/.local/lib/python3.8/site-packages/ase-3.22.1-py3.8.egg/ase (version 3.22.1)
numpy:  /home/c.zeng/.local/lib/python3.8/site-packages/numpy (version 1.24.2)
scipy:  /home/c.zeng/.local/lib/python3.8/site-packages/scipy (version 1.10.1)
units:  Angstrom and eV
cores: 30
OpenMP: False
OMP_NUM_THREADS: 1

Input parameters:
  convergence: {energy: 0.0001}
  kpts: [2 2 2]
  maxiter: 666
  mode: {ecut: 350.0,
         name: pw}
  occupations: {fixmagmom: False,
                name: fermi-dirac,
                width: 0.1}
  spinpol: True
  xc: PBE

System changes: positions, numbers, cell, pbc, initial_charges, initial_magmoms

Initialize ...

species:
  Cr:
    name: Chromium
    id: 33f258bda2ca9f93018e70263a35547b
    Z: 24.0
    valence: 6
    core: 18
    charge: 0.0
    file: /home/c.zeng/usr/data/gpaw-setups-0.9.20000/Cr.PBE.gz
    compensation charges: {type: gauss,
                           rc: 0.35,
                           lmax: 2}
    cutoffs: {filter: 2.14,
              core: 3.04}
    valence states:
      #              energy  rcut
      - 4s(1.00)    -4.007   1.164
      - 4p(0.00)    -0.989   1.217
      - 3d(5.00)    -2.913   1.111
      -  s          23.205   1.164
      -  p          26.223   1.217
      -  d          24.299   1.111

    # Using partial waves for Cr as LCAO basis

  Fe:
    name: Iron
    id: 37abbd8d6c3c35915a9b583b742da910
    Z: 26.0
    valence: 8
    core: 18
    charge: 0.0
    file: /home/c.zeng/usr/data/gpaw-setups-0.9.20000/Fe.PBE.gz
    compensation charges: {type: gauss,
                           rc: 0.33,
                           lmax: 2}
    cutoffs: {filter: 2.06,
              core: 2.67}
    valence states:
      #              energy  rcut
      - 4s(2.00)    -5.291   1.164
      - 4p(0.00)    -1.326   1.058
      - 3d(6.00)    -7.505   1.058
      -  s          21.920   1.164
      -  p          25.885   1.058
      -  d          19.706   1.058

[...]

  Ni:
    name: Nickel
    id: 0d9f38a9d6e76a2886f07bb4381f212b
    Z: 28.0
    valence: 16
    core: 12
    charge: 0.0
    file: /home/c.zeng/usr/data/gpaw-setups-0.9.20000/Ni.PBE.gz
    compensation charges: {type: gauss,
                           rc: 0.36,
                           lmax: 2}
    cutoffs: {filter: 2.14,
              core: 1.98}
    valence states:
      #              energy  rcut
      - 4s(2.00)    -5.642   1.164
      - 3p(6.00)   -71.394   1.207
      - 4p(0.00)    -1.226   1.207
      - 3d(8.00)    -8.875   1.138
      -  s          21.570   1.164
      -  d          18.337   1.138

[...]

  Co:
    name: Cobalt
    id: 339d20d5b0b93d2de9531a1bee871d91
    Z: 27.0
    valence: 9
    core: 18
    charge: 0.0
    file: /home/c.zeng/usr/data/gpaw-setups-0.9.20000/Co.PBE.gz
    compensation charges: {type: gauss,
                           rc: 0.32,
                           lmax: 2}
    cutoffs: {filter: 1.87,
              core: 2.55}
    valence states:
      #              energy  rcut
      - 4s(2.00)    -5.469   1.005
      - 4p(0.00)    -1.277   1.058
      - 3d(7.00)    -8.205   1.005
      -  s          21.742   1.005
      -  p          25.934   1.058
      -  d          19.007   1.005

[...]

  Al:
    name: Aluminium
    id: 0292cae29f5d6237e50f6abdd43a7bdd
    Z: 13.0
    valence: 3
    core: 10
    charge: 0.0
    file: /home/c.zeng/usr/data/gpaw-setups-0.9.20000/Al.PBE.gz
    compensation charges: {type: gauss,
                           rc: 0.34,
                           lmax: 2}
    cutoffs: {filter: 1.91,
              core: 2.36}
    valence states:
      #              energy  rcut
      - 3s(2.00)    -7.753   1.085
      - 3p(1.00)    -2.712   1.085
      -  s          19.459   1.085
      -  p          24.499   1.085
      -  d           0.000   1.085

    # Using partial waves for Al as LCAO basis

Reference energy: -3699400.456887  # eV

Spin-polarized calculation.
Magnetic moment: 143.500000

Convergence criteria:
 Maximum [total energy] change in last 3 cyles: 0.0001 eV / electron
 Maximum integral of absolute [dens]ity change: 0.0001 electrons / valence electron
 Maximum integral of absolute [eigenst]ate change: 4e-08 eV^2 / valence electron
 Maximum number of scf [iter]ations: 666
 (Square brackets indicate name in SCF output, whereas a 'c' in
 the SCF output indicates the quantity has converged.)

Symmetries present (total): 1

  ( 1  0  0)
  ( 0  1  0)
  ( 0  0  1)

8 k-points: 2 x 2 x 2 Monkhorst-Pack grid
4 k-points in the irreducible part of the Brillouin zone
       k-points in crystal coordinates                weights
   0:     0.25000000   -0.25000000   -0.25000000          2/8
   1:     0.25000000   -0.25000000    0.25000000          2/8
   2:     0.25000000    0.25000000   -0.25000000          2/8
   3:     0.25000000    0.25000000    0.25000000          2/8

Wave functions: Plane wave expansion
  Cutoff energy: 350.000 eV
  Number of coefficients (min, max): 18052, 18052
  Pulay-stress correction: 0.000000 eV/Ang^3 (de/decut=0.000000)
  Using FFTW library
  ScaLapack parameters: grid=1x1, blocksize=None
  Wavefunction extrapolation:
    Improved wavefunction reuse through dual PAW basis

Occupation numbers: Fermi-Dirac:
  width: 0.1000  # eV

Eigensolver
   Davidson(niter=2)

Densities:
  Coarse grid: 48*48*48 grid
  Fine grid: 96*96*96 grid
  Total Charge: 0.000000

Density mixing:
  Method: difference
  Backend: pulay
  Linear mixing parameter: 0.05
  old densities: 5
  Damping of long wavelength oscillations: 50

Hamiltonian:
  XC and Coulomb potentials evaluated on a 96*96*96 grid
  Using the PBE Exchange-Correlation functional
  External potential:
    NoExternalPotential

XC parameters: PBE with 2 nearest neighbor stencil

Total number of cores used: 30
Parallelization over k-points: 2
Domain decomposition: 5 x 3 x 1

Number of atoms: 108
Number of atomic orbitals: 1025
Number of bands in calculation: 703
Number of valence electrons: 1020
Bands to converge: occupied

... initialized

Initializing position-dependent things.

Density initialized from atomic densities
Creating initial wave functions:
  703 bands from LCAO basis set

        Cr------------------------.
       /|  Co                Co   |
      Cr|   Cr         Cr         |
     / Fe      Fe       Al        |
    /   CCo      Ni       Fe      |
   /e   | CoNi     CoAl    NiCr   |
  /  FeNi  CrCo     NiNiCo        |
 *    FeFe  FeCoCr     CoAl       |
 |     CoFeCr  CoFe Ni  NiFeNi    |
 | Fe   CrNiNiCo NiCrCrFe  Cr     |
 |   CoCr  NiAlCr   CrCrCr   Fe   |
 |    FeNi  FeFeCoNi CoFeNi   Ni  |
 |     NiFeFe  Ni NiCr  CoFeFe    |
 |      .-CoNiCo-FeCrNiCo--CoCr---.
 |   CrCo    CoAl   CrNiFe       /
 |    / Cr    CrFe       Ni     /
 |   /            Ni           /
 |Cr/      Co       Co        /
 |/            Ni           /
 *----------------Cr-------*

Positions:
   0 Cr     0.005316   -0.016350   10.639749    ( 0.0000,  0.0000,  0.0000)
   1 Cr    10.672340    1.801276    1.786848    ( 0.0000,  0.0000,  0.0000)
   2 Fe     1.795727   10.625972    1.782259    ( 0.0000,  0.0000,  0.0000)
   3 Ni     1.780787    1.796175   10.644605    ( 0.0000,  0.0000,  2.1000)
   4 Fe     3.523539   -0.014558    0.017268    ( 0.0000,  0.0000,  2.0000)
   5 Co     3.522568    1.781672    1.746648    ( 0.0000,  0.0000,  0.0000)
   6 Co     5.320952   10.642342    1.763136    ( 0.0000,  0.0000,  1.5000)
   7 Ni     5.342082    1.828767    0.007462    ( 0.0000,  0.0000,  2.0000)
   8 Cr     7.144895    0.019195    0.012033    ( 0.0000,  0.0000,  0.0000)
   9 Co     7.143497    1.798064    1.764939    ( 0.0000,  0.0000,  2.1000)
  10 Ni     8.891362   10.651627    1.788353    ( 0.0000,  0.0000,  1.5000)
  11 Co     8.888779    1.804777   10.642609    ( 0.0000,  0.0000,  2.0000)
  12 Fe     0.008694    3.581540   10.650250    ( 0.0000,  0.0000,  2.1000)
  13 Cr     0.018979    5.332745    1.789751    ( 0.0000,  0.0000,  2.1000)
  14 Cr     1.778129    3.600941    1.760019    ( 0.0000,  0.0000,  2.0000)
  15 Co     1.790423    5.343267   -0.017766    ( 0.0000,  0.0000,  2.0000)
  16 Ni     3.542802    3.589864   -0.015614    ( 0.0000,  0.0000,  2.0000)
  17 Co     3.526837    5.358538    1.765793    ( 0.0000,  0.0000,  2.0000)
  18 Fe     5.336650    3.606501    1.755815    ( 0.0000,  0.0000,  0.0000)
  19 Ni     5.300399    5.323642   -0.012797    ( 0.0000,  0.0000,  2.1000)
  20 Al     7.122858    3.584816   10.659524    ( 0.0000,  0.0000,  2.0000)
  21 Ni     7.120500    5.315168    1.805502    ( 0.0000,  0.0000,  1.5000)
  22 Ni     8.892034    3.590952    1.773146    ( 0.0000,  0.0000,  2.1000)
  23 Fe     8.925340    5.301487   -0.003100    ( 0.0000,  0.0000,  0.0000)
  24 Cr     0.023055    7.096680   -0.007939    ( 0.0000,  0.0000,  0.0000)
  25 Ni     0.019141    8.871245    1.787510    ( 0.0000,  0.0000,  1.5000)
  26 Co     1.784372    7.104567    1.776443    ( 0.0000,  0.0000,  2.0000)
  27 Co     1.779944    8.867628   10.659406    ( 0.0000,  0.0000,  1.5000)
  28 Cr     3.547785    7.097897    0.009215    ( 0.0000,  0.0000,  2.1000)
  29 Ni     3.541137    8.858109    1.788225    ( 0.0000,  0.0000,  2.1000)
  30 Cr     5.295105    7.099391    1.787894    ( 0.0000,  0.0000,  2.1000)
  31 Cr     5.303685    8.873828    0.029898    ( 0.0000,  0.0000,  0.0000)
  32 Cr     7.106883    7.088719   10.645159    ( 0.0000,  0.0000,  0.0000)
  33 Co     7.111055    8.901137    1.809472    ( 0.0000,  0.0000,  0.0000)
  34 Co     8.939384    7.093404    1.799238    ( 0.0000,  0.0000,  0.0000)
  35 Co     8.919972    8.915853   10.664881    ( 0.0000,  0.0000,  0.0000)
  36 Cr    10.679704   10.658873    3.584517    ( 0.0000,  0.0000,  2.0000)
  37 Fe    10.670921    1.796367    5.340289    ( 0.0000,  0.0000,  2.1000)
  38 Fe     1.770350   10.649001    5.343491    ( 0.0000,  0.0000,  0.0000)
  39 Co     1.791800    1.784671    3.584891    ( 0.0000,  0.0000,  2.0000)
  40 Ni     3.529718   10.626388    3.565234    ( 0.0000,  0.0000,  2.1000)
  41 Fe     3.535716    1.793465    5.367289    ( 0.0000,  0.0000,  1.5000)
  42 Co     5.311497    0.001574    5.366254    ( 0.0000,  0.0000,  1.5000)
  43 Al     5.332627    1.768055    3.580793    ( 0.0000,  0.0000,  0.0000)
  44 Ni     7.136966   10.673941    3.563804    ( 0.0000,  0.0000,  2.0000)
  45 Cr     7.136774    1.794126    5.358944    ( 0.0000,  0.0000,  2.1000)
  46 Co     8.925938   10.673621    5.347589    ( 0.0000,  0.0000,  2.0000)
  47 Fe     8.883827    1.779111    3.582404    ( 0.0000,  0.0000,  1.5000)
  48 Cr    -0.010038    3.572341    3.580996    ( 0.0000,  0.0000,  2.0000)
  49 Co    10.685573    5.328935    5.338550    ( 0.0000,  0.0000,  2.0000)
  50 Ni     1.784180    3.582949    5.348357    ( 0.0000,  0.0000,  1.5000)
  51 Fe     1.766326    5.339510    3.565255    ( 0.0000,  0.0000,  1.5000)
[...]
iter: 139 03:13:58  -871.163888c -5.82  -3.97    +66.1210
iter: 140 03:15:30  -871.162915c -6.04  -3.79    +66.1181
iter: 141 03:17:01  -871.163761c -6.20  -4.01c   +66.0995
iter: 142 03:18:33  -871.164321c -6.02  -4.00c   +66.0989
iter: 143 03:20:04  -871.164756c -5.93  -3.87    +66.0913
iter: 144 03:21:36  -871.164803c -6.37  -3.94    +66.0914
iter: 145 03:23:07  -871.165351c -6.26  -4.12c   +66.0798
iter: 146 03:24:38  -871.166161c -6.33  -4.14c   +66.0732
iter: 147 03:26:10  -871.166316c -6.68  -4.21c   +66.0705
iter: 148 03:27:41  -871.167120c -6.33  -4.38c   +66.0607
iter: 149 03:29:12  -871.168953c -5.86  -4.45c   +66.0377
iter: 150 03:30:43  -871.163811c -5.16  -4.37c   +66.1033
iter: 151 03:32:14  -871.155115c -4.40  -4.33c   +66.2418
iter: 152 03:33:46  -871.150550c -4.55  -3.82    +66.3338
iter: 153 03:35:17  -871.147811c -4.74  -3.65    +66.4041
iter: 154 03:36:49  -871.142674c -4.51  -3.55    +66.5236
iter: 155 03:38:20  -871.146177c -5.26  -3.42    +66.4507
iter: 156 03:39:51  -871.148192c -5.34  -3.49    +66.4016
iter: 157 03:41:23  -871.151805c -5.15  -3.56    +66.3437
iter: 158 03:42:54  -871.149429c -5.71  -3.58    +66.3898
iter: 159 03:44:25  -871.150961c -6.07  -3.54    +66.3795
iter: 160 03:45:57  -871.150724c -5.65  -3.52    +66.3844
iter: 161 03:47:28  -871.162211c -4.57  -3.44    +66.3774
iter: 162 03:49:00  -871.146437c -5.13  -3.16    +66.3642
iter: 163 03:50:31  -871.153923c -4.95  -3.52    +66.3299
iter: 164 03:52:02  -871.146658c -5.40  -3.34    +66.3171
iter: 165 03:53:33  -871.148375c -5.48  -3.63    +66.2812
iter: 166 03:55:05  -871.151506c -5.52  -3.62    +66.2551
iter: 167 03:56:36  -871.151585c -5.51  -3.62    +66.2331
iter: 168 03:58:07  -871.151065c -5.71  -3.63    +66.2195
iter: 169 03:59:38  -871.153747c -5.47  -3.86    +66.1972
iter: 170 04:01:10  -871.153919c -5.68  -3.64    +66.1910
iter: 171 04:02:44  -871.154019c -5.91  -3.78    +66.1699
iter: 172 04:04:17  -871.154463c -5.92  -3.98    +66.1559
iter: 173 04:05:50  -871.155778c -5.96  -3.93    +66.1439
iter: 174 04:07:24  -871.156154c -6.33  -4.08c   +66.1372
iter: 175 04:08:58  -871.156905c -6.06  -4.13c   +66.1210
iter: 176 04:10:32  -871.157423c -6.22  -4.23c   +66.1134
iter: 177 04:12:05  -871.158199c -6.31  -4.10c   +66.1053
iter: 178 04:13:38  -871.159150c -6.33  -4.27c   +66.0935
iter: 179 04:15:12  -871.158767c -7.16  -4.36c   +66.0959
iter: 180 04:16:46  -871.158072c -6.56  -4.49c   +66.1079
iter: 181 04:18:20  -871.159066c -6.52  -4.43c   +66.0904
iter: 182 04:19:53  -871.159072c -7.28  -4.49c   +66.0907
iter: 183 04:21:26  -871.159766c -6.49  -4.53c   +66.0812
iter: 184 04:23:00  -871.160236c -6.82  -4.48c   +66.0761
iter: 185 04:24:33  -871.160628c -6.72  -4.50c   +66.0716
iter: 186 04:26:06  -871.162755c -5.75  -4.52c   +66.0550
iter: 187 04:27:40  -871.157934c -5.20  -4.36c   +66.0920
iter: 188 04:29:14  -871.156786c -5.80  -4.55c   +66.0968
iter: 189 04:30:48  -871.159109c -5.97  -4.53c   +66.0795
iter: 190 04:32:21  -871.150704c -4.68  -4.74c   +66.1473
iter: 191 04:33:54  -871.143373c -4.47  -4.01c   +66.2149
iter: 192 04:35:27  -871.148450c -5.20  -3.71    +66.1657
iter: 193 04:37:01  -871.162525c -4.15  -3.90    +66.0433
iter: 194 04:38:35  -871.147531c -4.34  -4.33c   +66.1726
iter: 195 04:40:08  -871.141473c -4.53  -3.85    +66.2272
iter: 196 04:41:42  -871.160440c -3.99  -3.66    +66.0680
iter: 197 04:43:15  -871.124626c -3.46  -4.51c   +66.3553
iter: 198 04:44:49  -871.204867c -2.89  -3.36    +65.8120
iter: 199 04:46:22  -871.093908  -2.73  -3.40    +66.4677
iter: 200 04:47:56  -871.255426  -2.32  -3.17    +65.5028
iter: 201 04:49:30  -871.149170  -2.85  -3.07    +66.1127
iter: 202 04:51:03  -871.169492  -4.59  -4.05c   +65.9994
iter: 203 04:52:36  -871.158082c -4.49  -3.91    +66.0570
iter: 204 04:54:10  -871.144613c -3.99  -4.42c   +66.1374
iter: 205 04:55:44  -871.145010c -5.00  -3.70    +66.1296
iter: 206 04:57:17  -871.146562c -5.63  -3.72    +66.0948
iter: 207 04:58:51  -871.147867c -5.82  -3.75    +66.0682
iter: 208 05:00:24  -871.144082c -5.11  -3.80    +66.1426
iter: 209 05:01:58  -871.150972c -4.65  -3.66    +66.0095
iter: 210 05:03:31  -871.143165c -4.70  -3.87    +66.1473
iter: 211 05:05:04  -871.142975c -5.90  -3.67    +66.1546
iter: 212 05:06:37  -871.143567c -6.39  -3.75    +66.1494
iter: 213 05:08:11  -871.144191c -5.74  -3.74    +66.1509
iter: 214 05:09:44  -871.143942c -5.92  -3.59    +66.1593
iter: 215 05:11:18  -871.145692c -5.57  -3.82    +66.1518
iter: 216 05:12:51  -871.143549c -6.28  -3.80    +66.1693
iter: 217 05:14:25  -871.143873c -5.88  -3.84    +66.1611
iter: 218 05:15:58  -871.145501c -6.01  -3.79    +66.1356
iter: 219 05:17:32  -871.145999c -6.16  -3.94    +66.1260
iter: 220 05:19:05  -871.147358c -5.89  -3.92    +66.1049
iter: 221 05:20:39  -871.148365c -5.81  -4.03c   +66.0855
iter: 222 05:22:12  -871.149354c -6.09  -3.98    +66.0791
iter: 223 05:23:45  -871.150200c -6.19  -4.35c   +66.0713
iter: 224 05:25:19  -871.151405c -6.14  -4.40c   +66.0574
iter: 225 05:26:52  -871.153886c -5.70  -4.42c   +66.0434
iter: 226 05:28:25  -871.152710c -6.72  -4.40c   +66.0500
iter: 227 05:29:59  -871.147006c -5.09  -4.50c   +66.0854
iter: 228 05:31:33  -871.154419c -5.04  -4.26c   +66.0376
iter: 229 05:33:06  -871.149207c -5.42  -4.37c   +66.0699
iter: 230 05:34:39  -871.136937c -4.35  -4.38c   +66.1513
iter: 231 05:36:13  -871.177656c -3.54  -3.76    +65.9204
iter: 232 05:37:46  -871.057731  -2.83  -3.61    +66.4233
iter: 233 05:39:19  -871.216715  -2.63  -3.14    +65.7838
iter: 234 05:40:53  -871.280024  -2.81  -3.28    +65.5493
iter: 235 05:42:27  -871.228040c -3.46  -3.01    +65.7835
iter: 236 05:44:00  -871.239554c -4.94  -3.24    +65.7742
iter: 237 05:45:33  -871.238223c -5.35  -3.20    +65.7848
iter: 238 05:47:07  -871.232869c -4.71  -3.19    +65.7821
iter: 239 05:48:40  -871.229253c -5.26  -3.16    +65.7898
iter: 240 05:50:14  -871.228268c -4.85  -3.23    +65.7609
iter: 241 05:51:47  -871.225163c -4.50  -3.22    +65.7617
iter: 242 05:53:21  -871.224447c -4.98  -3.31    +65.7437
iter: 243 05:54:54  -871.224806c -5.27  -3.31    +65.6698
iter: 244 05:56:27  -871.225941c -5.49  -3.47    +65.6345
iter: 245 05:58:01  -871.229899c -5.16  -3.46    +65.5418
iter: 246 05:59:34  -871.230974c -5.13  -3.45    +65.4901
iter: 247 06:01:07  -871.231526c -5.30  -3.58    +65.4428
iter: 248 06:02:41  -871.234124c -5.41  -3.65    +65.3914
iter: 249 06:04:14  -871.236126c -5.61  -3.74    +65.3480
iter: 250 06:05:47  -871.239571c -5.42  -3.77    +65.2699
iter: 251 06:07:21  -871.243075c -5.47  -3.82    +65.2113
iter: 252 06:08:54  -871.244426c -5.95  -3.75    +65.1980
iter: 253 06:10:27  -871.245894c -5.67  -3.69    +65.1613
iter: 254 06:12:00  -871.248142c -5.61  -3.66    +65.1093
iter: 255 06:13:30  -871.252026c -5.43  -3.72    +65.0407
iter: 256 06:15:01  -871.270444c -3.82  -3.65    +64.4824
iter: 257 06:16:32  -871.269490c -4.84  -3.32    +64.4843
iter: 258 06:18:03  -871.270072c -5.31  -3.32    +64.4866
iter: 259 06:19:34  -871.270451c -5.63  -3.33    +64.4878
iter: 260 06:21:05  -871.272102c -5.39  -3.33    +64.4852
iter: 261 06:22:36  -871.269816c -4.74  -3.27    +64.4857
iter: 262 06:24:06  -871.264742c -5.36  -3.21    +64.4806
iter: 263 06:25:36  -871.269502c -5.01  -3.30    +64.5200
iter: 264 06:27:07  -871.269532c -4.93  -3.20    +64.5437
iter: 265 06:28:37  -871.273389c -4.74  -3.24    +64.6077
iter: 266 06:30:08  -871.265034c -5.15  -3.23    +64.6394
iter: 267 06:31:38  -871.266013c -5.23  -3.42    +64.6724
iter: 268 06:33:09  -871.269163c -5.12  -3.43    +64.6948
iter: 269 06:34:39  -871.269626c -5.09  -3.37    +64.7421
iter: 270 06:36:10  -871.269506c -5.01  -3.37    +64.7662
iter: 271 06:37:40  -871.266435c -5.21  -3.34    +64.7617
iter: 272 06:39:11  -871.267839c -5.22  -3.50    +64.7853
iter: 273 06:40:41  -871.266239c -5.61  -3.51    +64.8065
iter: 274 06:42:11  -871.265147c -5.85  -3.63    +64.8306
iter: 275 06:43:42  -871.265976c -5.88  -3.74    +64.8370
iter: 276 06:45:13  -871.266327c -5.96  -3.73    +64.8460
iter: 277 06:46:44  -871.265923c -6.16  -3.75    +64.8726
iter: 278 06:48:15  -871.266131c -5.96  -3.85    +64.8831
iter: 279 06:49:45  -871.265996c -5.98  -3.73    +64.8875
iter: 280 06:51:16  -871.266333c -6.20  -3.77    +64.8972
iter: 281 06:52:47  -871.266175c -6.20  -3.92    +64.9125
iter: 282 06:54:18  -871.266026c -6.33  -3.91    +64.9157
iter: 283 06:55:49  -871.265971c -6.50  -3.89    +64.9158
iter: 284 06:57:19  -871.266332c -6.63  -4.04c   +64.9228
iter: 285 06:58:50  -871.266404c -6.54  -4.02c   +64.9288
iter: 286 07:00:21  -871.265919c -6.55  -4.00c   +64.9330
iter: 287 07:01:52  -871.266319c -6.57  -4.06c   +64.9339
iter: 288 07:03:22  -871.266461c -6.52  -4.01c   +64.9373
iter: 289 07:04:53  -871.266295c -6.44  -4.03c   +64.9447
iter: 290 07:06:24  -871.266108c -6.77  -4.08c   +64.9445
iter: 291 07:07:55  -871.266096c -6.75  -4.13c   +64.9429
iter: 292 07:09:26  -871.266463c -6.73  -4.15c   +64.9446
iter: 293 07:10:57  -871.266292c -6.97  -4.18c   +64.9482
iter: 294 07:12:28  -871.266205c -7.09  -4.24c   +64.9481
iter: 295 07:13:58  -871.266339c -6.80  -4.28c   +64.9478
iter: 296 07:15:29  -871.266380c -7.03  -4.19c   +64.9501
iter: 297 07:17:00  -871.266392c -7.11  -4.30c   +64.9547
iter: 298 07:18:31  -871.266111c -6.94  -4.35c   +64.9550
iter: 299 07:20:02  -871.266253c -7.21  -4.29c   +64.9547
iter: 300 07:21:33  -871.266287c -7.44c -4.40c   +64.9564

Converged after 300 iterations.

Dipole moment: (-10.543523, 7.893698, 8.443913) |e|*Ang

Total magnetic moment: (0.000000, 0.000000, 64.956386)
Local magnetic moments:
   0 Cr ( 0.000000,  0.000000, -1.497144)
   1 Cr ( 0.000000,  0.000000,  1.314211)
   2 Fe ( 0.000000,  0.000000,  2.334427)
   3 Ni ( 0.000000,  0.000000,  0.297142)
   4 Fe ( 0.000000,  0.000000,  2.130887)
   5 Co ( 0.000000,  0.000000,  1.393834)
   6 Co ( 0.000000,  0.000000,  1.133906)
   7 Ni ( 0.000000,  0.000000,  0.288383)
   8 Cr ( 0.000000,  0.000000, -1.658031)
   9 Co ( 0.000000,  0.000000,  1.334148)
  10 Ni ( 0.000000,  0.000000,  0.216806)
  11 Co ( 0.000000,  0.000000,  0.996660)
  12 Fe ( 0.000000,  0.000000,  1.942062)
  13 Cr ( 0.000000,  0.000000, -0.403253)
  14 Cr ( 0.000000,  0.000000, -0.809426)
  15 Co ( 0.000000,  0.000000,  1.057332)
  16 Ni ( 0.000000,  0.000000,  0.380665)
  17 Co ( 0.000000,  0.000000,  1.057849)
  18 Fe ( 0.000000,  0.000000,  2.606702)
  19 Ni ( 0.000000,  0.000000,  0.234912)
  20 Al ( 0.000000,  0.000000, -0.028671)
  21 Ni ( 0.000000,  0.000000,  0.291179)
  22 Ni ( 0.000000,  0.000000,  0.195933)
  23 Fe ( 0.000000,  0.000000,  1.996589)
  24 Cr ( 0.000000,  0.000000, -1.650575)
  25 Ni ( 0.000000,  0.000000,  0.307783)
  26 Co ( 0.000000,  0.000000,  1.129532)
  27 Co ( 0.000000,  0.000000,  0.868646)
  28 Cr ( 0.000000,  0.000000, -1.238384)
  29 Ni ( 0.000000,  0.000000,  0.318316)
  30 Cr ( 0.000000,  0.000000,  0.771269)
  31 Cr ( 0.000000,  0.000000,  0.733589)
  32 Cr ( 0.000000,  0.000000, -1.684888)
  33 Co ( 0.000000,  0.000000,  1.069082)
  34 Co ( 0.000000,  0.000000,  0.983966)
  35 Co ( 0.000000,  0.000000,  0.959715)
  36 Cr ( 0.000000,  0.000000, -1.773064)
  37 Fe ( 0.000000,  0.000000,  2.070671)
  38 Fe ( 0.000000,  0.000000,  2.174062)
  39 Co ( 0.000000,  0.000000,  1.206464)
  40 Ni ( 0.000000,  0.000000,  0.357580)
  41 Fe ( 0.000000,  0.000000,  2.181010)
  42 Co ( 0.000000,  0.000000,  1.058858)
  43 Al ( 0.000000,  0.000000, -0.038676)
  44 Ni ( 0.000000,  0.000000,  0.376775)
  45 Cr ( 0.000000,  0.000000,  1.011703)
  46 Co ( 0.000000,  0.000000,  1.035648)
  47 Fe ( 0.000000,  0.000000,  2.063135)
  48 Cr ( 0.000000,  0.000000, -1.330959)
  49 Co ( 0.000000,  0.000000,  1.096377)
  50 Ni ( 0.000000,  0.000000,  0.332105)
  51 Fe ( 0.000000,  0.000000,  1.990156)
  52 Ni ( 0.000000,  0.000000,  0.372858)
  53 Al ( 0.000000,  0.000000, -0.037810)
  54 Co ( 0.000000,  0.000000,  0.761536)
  55 Ni ( 0.000000,  0.000000,  0.135469)
  56 Ni ( 0.000000,  0.000000,  0.281282)
  57 Cr ( 0.000000,  0.000000, -0.557632)
  58 Ni ( 0.000000,  0.000000,  0.169632)
  59 Fe ( 0.000000,  0.000000,  2.005409)
[...]
  93 Ni ( 0.000000,  0.000000,  0.202980)
  94 Al ( 0.000000,  0.000000, -0.032958)
  95 Fe ( 0.000000,  0.000000,  1.803344)
  96 Fe ( 0.000000,  0.000000,  2.025309)
  97 Fe ( 0.000000,  0.000000,  1.871112)
  98 Co ( 0.000000,  0.000000,  1.157839)
  99 Cr ( 0.000000,  0.000000, -1.643630)
 100 Co ( 0.000000,  0.000000,  1.156684)
 101 Fe ( 0.000000,  0.000000,  1.909220)
 102 Co ( 0.000000,  0.000000,  1.144786)
 103 Ni ( 0.000000,  0.000000,  0.356342)
 104 Co ( 0.000000,  0.000000,  0.847066)
 105 Al ( 0.000000,  0.000000, -0.012217)
 106 Ni ( 0.000000,  0.000000,  0.156409)
 107 Cr ( 0.000000,  0.000000, -1.431701)

Energy contributions relative to reference atoms: (reference = -3699400.456887)

Kinetic:       +146.392786
Potential:     -196.194030
External:        +0.000000
XC:            -857.012219
Entropy (-ST):   -4.508978
Local:          +37.801666
Free energy:   -873.520776
Extrapolated:  -871.266287

Spin contamination: 29.491196 electrons
Showing only first 2 kpts
                      Up                     Down
 Kpt  Band  Eigenvalues  Occupancy  Eigenvalues  Occupancy
  0   508      9.62593    0.99523     10.53441    0.02312
  0   509      9.64765    0.99408     10.54263    0.02133
  0   510      9.66249    0.99314     10.55174    0.01951
  0   511      9.67563    0.99219     10.55924    0.01813

  1   508      9.62837    0.99511     10.53437    0.02313
  1   509      9.64621    0.99417     10.54886    0.02007
  1   510      9.65792    0.99345     10.55570    0.01877
  1   511      9.67012    0.99260     10.57258    0.01590

Fermi level: 10.16003

No gap

Forces in eV/Ang:
  0 Cr   -0.16847    0.18388    0.17746
  1 Cr   -0.24605    0.32237    0.09440
  2 Fe   -0.13629    0.17010    0.10117
  3 Ni    0.01262    0.07329    0.24414
  4 Fe    0.60396    0.36655   -0.27836
  5 Co   -0.17618    0.01242    0.12122
  6 Co    0.09419   -0.14080   -0.03689
  7 Ni   -0.13484   -0.46186   -0.06277
  8 Cr   -0.29127    0.34257    0.45171
  9 Co    0.04256   -0.44925    0.02415
 10 Ni    0.11109    0.24849   -0.24762
 11 Co    0.28495   -0.47287    0.74220
 12 Fe    0.30824   -0.15687    0.52397
 13 Cr    0.04391   -0.13116   -0.08517
 14 Cr    0.19972   -0.29681   -0.10724
 15 Co    0.11716    0.03221    0.23228
 16 Ni   -0.11796   -0.20466    0.12199
 17 Co   -0.15627   -0.02547    0.17356
 18 Fe   -0.51364   -0.31443    0.49776
 19 Ni    0.25805    0.32478   -0.04713
 20 Al   -0.29286   -0.21685    0.86846
 21 Ni    0.01376    0.62153   -0.33212
 22 Ni    0.28484   -0.44833    0.20810
 23 Fe    0.10085    1.07906    0.35489
 24 Cr   -0.15434   -0.00156   -0.08458
 25 Ni   -0.10744    0.05404   -0.32289
 26 Co   -0.09839   -0.01792   -0.25644
 27 Co    0.07107   -0.09673    0.19459
 28 Cr   -0.14138    0.03043   -0.21404
 29 Ni   -0.08322    0.30875   -0.10884
 30 Cr    0.48424   -0.12687   -0.02024
 31 Cr    0.15331   -0.00620    0.35376
 32 Cr   -0.12030   -0.16907    0.93480
 33 Co    0.14989   -0.21789   -0.35303
 34 Co   -0.44697    0.21920   -0.46446
 35 Co   -0.24111   -0.36495    0.58176
 36 Cr    0.03486    0.22625   -0.01401
 37 Fe    0.01154   -0.17410   -0.07325
 38 Fe   -0.01958   -0.09874   -0.13919
 39 Co    0.17655    0.19850   -0.31616
 40 Ni    0.22304    0.33910    0.10200
 41 Fe   -0.15633   -0.04300    0.06049
 42 Co   -0.08944   -0.31405    0.07076
 43 Al   -0.31360   -0.03650   -0.53103
 44 Ni   -0.22308   -0.21060    0.09582
 45 Cr    0.32724   -0.04157    0.60769
 46 Co   -0.09199   -0.06302    0.24405
 47 Fe    0.00910    0.07366   -0.26814
 48 Cr    0.00478   -0.14583    0.01425
 49 Co    0.01436   -0.06594   -0.01050
 50 Ni   -0.19599   -0.27677   -0.14601
 51 Fe   -0.29185   -0.05277   -0.54250
 52 Ni    0.22401   -0.47362   -0.29346
 53 Al   -0.33492   -0.82709   -0.28085
 54 Co    0.45399   -0.14670   -0.02870
 55 Ni    0.02868   -0.05258   -0.11940
 56 Ni   -0.27807    0.02963    0.07837
 57 Cr   -0.23579   -0.49706   -0.13219
 58 Ni    0.07451    0.14703   -0.03867
 59 Fe   -0.04468   -0.09800   -0.07262
[...]
 93 Ni    0.12782    0.44236    0.26731
 94 Al    0.48591    0.08734   -0.06230
 95 Fe   -0.27167    0.40431   -0.06193
 96 Fe   -0.12922    0.18545   -0.17046
 97 Fe   -0.09611   -0.35730    0.14759
 98 Co    0.02721    0.11797    0.14677
 99 Cr   -0.08420    0.06050    0.02627
100 Co    0.16282    0.36436    0.28963
101 Fe    0.39669    0.13722   -0.25500
102 Co   -0.04296   -0.22684    0.18795
103 Ni    0.01069    0.22849   -0.02300
104 Co   -0.03378   -0.08975   -0.76576
105 Al   -0.73738   -0.13051   -0.21509
106 Ni   -0.11357   -0.20859    0.38755
107 Cr    0.81676    0.38688   -0.80391

Date: Sun Apr 16 07:21:51 2023