User:   c.zeng@d0142
Date:   Sat Apr  8 17:27:49 2023
Arch:   x86_64
Pid:    39798
CWD:    /home/c.zeng/projects/hea-corrosion/hea-mlp/data-curation/volume/dft-jobs/98
Python: 3.8.1
gpaw:   /home/c.zeng/usr/installs/gpaw/source/gpaw-22.8.0/gpaw
_gpaw:  /home/c.zeng/usr/installs/gpaw/source/gpaw-22.8.0/
        _gpaw.cpython-38-x86_64-linux-gnu.so
ase:    /home/c.zeng/.local/lib/python3.8/site-packages/ase-3.22.1-py3.8.egg/ase (version 3.22.1)
numpy:  /shared/centos7/python/3.8.1/lib/python3.8/site-packages/numpy (version 1.17.4)
scipy:  /shared/centos7/python/3.8.1/lib/python3.8/site-packages/scipy (version 1.4.1)
units:  Angstrom and eV
cores: 64
OpenMP: False
OMP_NUM_THREADS: 1

Input parameters:
  convergence: {energy: 0.0001}
  kpts: [2 2 2]
  maxiter: 666
  mode: {ecut: 350.0,
         name: pw}
  occupations: {fixmagmom: False,
                name: fermi-dirac,
                width: 0.1}
  spinpol: True
  xc: PBE

System changes: positions, numbers, cell, pbc, initial_charges, initial_magmoms

Initialize ...

species:
  Fe:
    name: Iron
    id: 37abbd8d6c3c35915a9b583b742da910
    Z: 26.0
    valence: 8
    core: 18
    charge: 0.0
    file: /home/c.zeng/usr/data/gpaw-setups-0.9.20000/Fe.PBE.gz
    compensation charges: {type: gauss,
                           rc: 0.33,
                           lmax: 2}
    cutoffs: {filter: 2.06,
              core: 2.67}
    valence states:
      #              energy  rcut
      - 4s(2.00)    -5.291   1.164
      - 4p(0.00)    -1.326   1.058
      - 3d(6.00)    -7.505   1.058
      -  s          21.920   1.164
      -  p          25.885   1.058
      -  d          19.706   1.058

    # Using partial waves for Fe as LCAO basis

  Cr:
    name: Chromium
    id: 33f258bda2ca9f93018e70263a35547b
    Z: 24.0
    valence: 6
    core: 18
    charge: 0.0
    file: /home/c.zeng/usr/data/gpaw-setups-0.9.20000/Cr.PBE.gz
    compensation charges: {type: gauss,
                           rc: 0.35,
                           lmax: 2}
    cutoffs: {filter: 2.14,
              core: 3.04}
    valence states:
      #              energy  rcut
      - 4s(1.00)    -4.007   1.164
      - 4p(0.00)    -0.989   1.217
      - 3d(5.00)    -2.913   1.111
      -  s          23.205   1.164
      -  p          26.223   1.217
      -  d          24.299   1.111

[...]

  Ni:
    name: Nickel
    id: 0d9f38a9d6e76a2886f07bb4381f212b
    Z: 28.0
    valence: 16
    core: 12
    charge: 0.0
    file: /home/c.zeng/usr/data/gpaw-setups-0.9.20000/Ni.PBE.gz
    compensation charges: {type: gauss,
                           rc: 0.36,
                           lmax: 2}
    cutoffs: {filter: 2.14,
              core: 1.98}
    valence states:
      #              energy  rcut
      - 4s(2.00)    -5.642   1.164
      - 3p(6.00)   -71.394   1.207
      - 4p(0.00)    -1.226   1.207
      - 3d(8.00)    -8.875   1.138
      -  s          21.570   1.164
      -  d          18.337   1.138

[...]

  Al:
    name: Aluminium
    id: 0292cae29f5d6237e50f6abdd43a7bdd
    Z: 13.0
    valence: 3
    core: 10
    charge: 0.0
    file: /home/c.zeng/usr/data/gpaw-setups-0.9.20000/Al.PBE.gz
    compensation charges: {type: gauss,
                           rc: 0.34,
                           lmax: 2}
    cutoffs: {filter: 1.91,
              core: 2.36}
    valence states:
      #              energy  rcut
      - 3s(2.00)    -7.753   1.085
      - 3p(1.00)    -2.712   1.085
      -  s          19.459   1.085
      -  p          24.499   1.085
      -  d           0.000   1.085

[...]

  Co:
    name: Cobalt
    id: 339d20d5b0b93d2de9531a1bee871d91
    Z: 27.0
    valence: 9
    core: 18
    charge: 0.0
    file: /home/c.zeng/usr/data/gpaw-setups-0.9.20000/Co.PBE.gz
    compensation charges: {type: gauss,
                           rc: 0.32,
                           lmax: 2}
    cutoffs: {filter: 1.87,
              core: 2.55}
    valence states:
      #              energy  rcut
      - 4s(2.00)    -5.469   1.005
      - 4p(0.00)    -1.277   1.058
      - 3d(7.00)    -8.205   1.005
      -  s          21.742   1.005
      -  p          25.934   1.058
      -  d          19.007   1.005

    # Using partial waves for Co as LCAO basis

Reference energy: -3382523.201499  # eV

Spin-polarized calculation.
Magnetic moment: 128.800000

Convergence criteria:
 Maximum [total energy] change in last 3 cyles: 0.0001 eV / electron
 Maximum integral of absolute [dens]ity change: 0.0001 electrons / valence electron
 Maximum integral of absolute [eigenst]ate change: 4e-08 eV^2 / valence electron
 Maximum number of scf [iter]ations: 666
 (Square brackets indicate name in SCF output, whereas a 'c' in
 the SCF output indicates the quantity has converged.)

Symmetries present (total): 1

  ( 1  0  0)
  ( 0  1  0)
  ( 0  0  1)

8 k-points: 2 x 2 x 2 Monkhorst-Pack grid
4 k-points in the irreducible part of the Brillouin zone
       k-points in crystal coordinates                weights
   0:     0.25000000   -0.25000000   -0.25000000          2/8
   1:     0.25000000   -0.25000000    0.25000000          2/8
   2:     0.25000000    0.25000000   -0.25000000          2/8
   3:     0.25000000    0.25000000    0.25000000          2/8

Wave functions: Plane wave expansion
  Cutoff energy: 350.000 eV
  Number of coefficients (min, max): 18805, 18805
  Pulay-stress correction: 0.000000 eV/Ang^3 (de/decut=0.000000)
  Using FFTW library
  ScaLapack parameters: grid=1x1, blocksize=None
  Wavefunction extrapolation:
    Improved wavefunction reuse through dual PAW basis

Occupation numbers: Fermi-Dirac:
  width: 0.1000  # eV

Eigensolver
   Davidson(niter=2)

Densities:
  Coarse grid: 48*48*48 grid
  Fine grid: 96*96*96 grid
  Total Charge: 0.000000

Density mixing:
  Method: difference
  Backend: pulay
  Linear mixing parameter: 0.05
  old densities: 5
  Damping of long wavelength oscillations: 50

Hamiltonian:
  XC and Coulomb potentials evaluated on a 96*96*96 grid
  Using the PBE Exchange-Correlation functional
  External potential:
    NoExternalPotential

XC parameters: PBE with 2 nearest neighbor stencil

Total number of cores used: 64
Parallelization over k-points: 4
Domain decomposition: 4 x 2 x 2

Number of atoms: 108
Number of atomic orbitals: 961
Number of bands in calculation: 649
Number of valence electrons: 945
Bands to converge: occupied

... initialized

Initializing position-dependent things.

Density initialized from atomic densities
Creating initial wave functions:
  649 bands from LCAO basis set

       /|                    Ni    |
      / |            Cr        NiNi|
     /  |       Al       Ni       Fe
    /   |Cr        Cr     CoCo     Fe
   /i   | CoCo      Co       Fe    |
  /  FeCr   CFe       Cr           |
 *      Co     CrNi   FeAlFeFe   Ni|
 |      |CrFe   CrCoAl   FeCrCo   Co
 |   Co NiAlNi   FeAlAl     CrNi   |
 |     Co  Ni FeFe  NiNi Ni  CrCr  |
 |      CoFe   AlFe  Ni AlCo     Fe|
 |      |AlAl   CrFeCo   CrCoCo   Cr
 |      .-CrAl-----FeNi-CoAlCoNi---.
 |     /   Al Cr    FeFe Ni    Cr /
 |    /Cr      CNio     NiCo     /
 |   /  Fe        FCr           /
 |  /      Fe       Co     AlCr/
 | / Ni              Cr Ni    /
 |/             Al       Co  /
 *--------Al----------------*

Positions:
   0 Fe    10.813403   10.813500   10.813424    ( 0.0000,  0.0000,  2.0000)
   1 Cr    10.813446    1.802243    1.802243    ( 0.0000,  0.0000,  0.0000)
   2 Ni     1.802189    0.000088    1.802416    ( 0.0000,  0.0000,  1.5000)
   3 Cr     1.802145    1.802362   10.813457    ( 0.0000,  0.0000,  0.0000)
   4 Al     3.604475    0.000309    0.000350    ( 0.0000,  0.0000,  0.0000)
   5 Fe     3.604486    1.802254    1.802286    ( 0.0000,  0.0000,  2.0000)
   6 Ni     5.406707   10.813435    1.802481    ( 0.0000,  0.0000,  1.5000)
   7 Al     5.406436    1.802838    0.000338    ( 0.0000,  0.0000,  0.0000)
   8 Al     7.209371   10.812916    0.000312    ( 0.0000,  0.0000,  0.0000)
   9 Co     7.209090    1.802351    1.802383    ( 0.0000,  0.0000,  2.1000)
  10 Ni     9.011355    0.000063    1.802275    ( 0.0000,  0.0000,  1.5000)
  11 Co     9.011409    1.802308    0.000081    ( 0.0000,  0.0000,  2.1000)
  12 Ni     0.000045    3.604399   10.813424    ( 0.0000,  0.0000,  1.5000)
  13 Cr    10.813403    5.406750    1.802286    ( 0.0000,  0.0000,  0.0000)
  14 Fe     1.802200    3.604421    1.802145    ( 0.0000,  0.0000,  2.0000)
  15 Cr     1.802286    5.406685   10.813359    ( 0.0000,  0.0000,  0.0000)
  16 Co     3.604453    3.604561   10.813489    ( 0.0000,  0.0000,  2.1000)
  17 Cr     3.604723    5.406685    1.802005    ( 0.0000,  0.0000,  0.0000)
  18 Co     5.406826    3.604626    1.802275    ( 0.0000,  0.0000,  2.1000)
  19 Fe     5.406761    5.406782    0.000038    ( 0.0000,  0.0000,  2.0000)
  20 Cr     7.208993    3.604605    0.000176    ( 0.0000,  0.0000,  0.0000)
  21 Fe     7.208917    5.406696    1.802254    ( 0.0000,  0.0000,  2.0000)
  22 Co     9.011246    3.604453    1.802340    ( 0.0000,  0.0000,  2.1000)
  23 Al     9.011236    5.406728   10.813500    ( 0.0000,  0.0000,  0.0000)
  24 Ni    10.813457    7.209068   10.813424    ( 0.0000,  0.0000,  1.5000)
  25 Cr    10.813413    9.011257    1.802318    ( 0.0000,  0.0000,  0.0000)
  26 Cr     1.802113    7.209004    1.802221    ( 0.0000,  0.0000,  0.0000)
  27 Al     1.801605    9.011019    0.000183    ( 0.0000,  0.0000,  0.0000)
  28 Cr     3.604691    7.208798    0.000042    ( 0.0000,  0.0000,  0.0000)
  29 Cr     3.604648    9.011322    1.802362    ( 0.0000,  0.0000,  0.0000)
  30 Fe     5.406847    7.208939    1.802124    ( 0.0000,  0.0000,  2.0000)
  31 Fe     5.406826    9.011095    0.000083    ( 0.0000,  0.0000,  2.0000)
  32 Ni     7.208874    7.209058    0.000076    ( 0.0000,  0.0000,  1.5000)
  33 Cr     7.208939    9.011203    1.802200    ( 0.0000,  0.0000,  0.0000)
  34 Co     9.011290    7.208982    1.802264    ( 0.0000,  0.0000,  2.1000)
  35 Ni     9.011344    9.011214   10.813413    ( 0.0000,  0.0000,  1.5000)
  36 Ni     0.000028   10.813446    3.604572    ( 0.0000,  0.0000,  1.5000)
  37 Co    10.813457    1.802189    5.406793    ( 0.0000,  0.0000,  2.1000)
  38 Co     1.802145   10.813435    5.406793    ( 0.0000,  0.0000,  2.1000)
  39 Cr     1.802091    1.802135    3.604432    ( 0.0000,  0.0000,  0.0000)
  40 Fe     3.604518   10.813457    3.604475    ( 0.0000,  0.0000,  2.0000)
  41 Al     3.604561    1.801886    5.407118    ( 0.0000,  0.0000,  0.0000)
  42 Fe     5.406793   10.813446    5.406761    ( 0.0000,  0.0000,  2.0000)
  43 Ni     5.406869    1.802178    3.604453    ( 0.0000,  0.0000,  1.5000)
  44 Cr     7.208950    0.000033    3.604605    ( 0.0000,  0.0000,  0.0000)
  45 Co     7.209025    1.802145    5.406718    ( 0.0000,  0.0000,  2.1000)
  46 Co     9.011290   10.813500    5.406793    ( 0.0000,  0.0000,  2.1000)
  47 Ni     9.011268    1.802308    3.604496    ( 0.0000,  0.0000,  1.5000)
  48 Ni    10.813381    3.604475    3.604518    ( 0.0000,  0.0000,  1.5000)
  49 Cr    10.813370    5.406631    5.406782    ( 0.0000,  0.0000,  0.0000)
  50 Co     1.802091    3.604486    5.406869    ( 0.0000,  0.0000,  2.1000)
  51 Al     1.801659    5.406512    3.604280    ( 0.0000,  0.0000,  0.0000)
  52 Al     3.604832    3.604496    3.604161    ( 0.0000,  0.0000,  0.0000)
  53 Fe     3.604594    5.406599    5.406934    ( 0.0000,  0.0000,  2.0000)
  54 Fe     5.406826    3.604550    5.406750    ( 0.0000,  0.0000,  2.0000)
  55 Fe     5.406847    5.406653    3.604410    ( 0.0000,  0.0000,  2.0000)
  56 Ni     7.209025    3.604540    3.604475    ( 0.0000,  0.0000,  1.5000)
  57 Ni     7.208982    5.406545    5.406609    ( 0.0000,  0.0000,  1.5000)
  58 Co     9.011333    3.604442    5.406663    ( 0.0000,  0.0000,  2.1000)
  59 Co     9.011311    5.406663    3.604421    ( 0.0000,  0.0000,  2.1000)
[...]
  93 Cr     7.208917    5.406750    9.011376    ( 0.0000,  0.0000,  0.0000)
  94 Fe     9.011506    3.604529    9.011268    ( 0.0000,  0.0000,  2.0000)
  95 Cr     9.011419    5.406739    7.209047    ( 0.0000,  0.0000,  0.0000)
  96 Ni    10.813392    7.209123    7.209155    ( 0.0000,  0.0000,  1.5000)
  97 Fe    10.813424    9.011257    9.011149    ( 0.0000,  0.0000,  2.0000)
  98 Co     1.802081    7.208852    9.011171    ( 0.0000,  0.0000,  2.1000)
  99 Ni     1.802070    9.011419    7.209025    ( 0.0000,  0.0000,  1.5000)
 100 Cr     3.604518    7.208874    7.209112    ( 0.0000,  0.0000,  0.0000)
 101 Al     3.604702    9.011019    9.010695    ( 0.0000,  0.0000,  0.0000)
 102 Cr     5.406707    7.208874    9.011419    ( 0.0000,  0.0000,  0.0000)
 103 Co     5.406837    9.011441    7.208982    ( 0.0000,  0.0000,  2.1000)
 104 Al     7.209263    7.209231    7.209306    ( 0.0000,  0.0000,  0.0000)
 105 Ni     7.209090    9.011236    9.011192    ( 0.0000,  0.0000,  1.5000)
 106 Co     9.011441    7.209068    9.011257    ( 0.0000,  0.0000,  2.1000)
 107 Fe     9.011344    9.011355    7.209014    ( 0.0000,  0.0000,  2.0000)

Unit cell:
           periodic     x           y           z      points  spacing
  1. axis:    yes   10.813500    0.000000    0.000000    48     0.2253
  2. axis:    yes    0.000000   10.813500    0.000000    48     0.2253
  3. axis:    yes    0.000000    0.000000   10.813500    48     0.2253

  Lengths:  10.813500  10.813500  10.813500
  Angles:   90.000000  90.000000  90.000000

Effective grid spacing dv^(1/3) = 0.2253

     iter     time        total  log10-change:  magmom
                         energy  eigst   dens
iter:   1 17:30:02  -994.771077                  +129.0860
iter:   2 17:31:02  -887.383942  -0.20  -1.18    +71.9701
iter:   3 17:32:01  -874.758246  -0.81  -1.19    +62.6725
iter:   4 17:33:00  -848.714244  -1.24  -1.26    +58.5907
iter:   5 17:34:00  -840.614565  -1.51  -1.31    +56.8033
iter:   6 17:34:59  -841.569416  -1.31  -1.36    +57.6719
iter:   7 17:35:58  -832.884115  -1.32  -1.41    +56.8100
iter:   8 17:36:58  -826.166419  -1.69  -1.53    +57.0015
iter:   9 17:37:57  -826.049855  -1.89  -1.67    +58.8577
iter:  10 17:38:57  -823.737948  -2.40  -1.72    +59.6489
iter:  11 17:39:56  -823.969510  -2.47  -1.79    +62.0999
iter:  12 17:40:56  -826.287999  -2.34  -1.86    +63.6913
iter:  13 17:41:55  -824.951573  -2.36  -1.83    +64.1387
iter:  14 17:42:55  -825.186232  -2.50  -1.94    +65.3875
iter:  15 17:43:54  -824.985146  -2.65  -1.96    +65.8654
iter:  16 17:44:52  -824.782781  -2.85  -2.02    +66.1824
iter:  17 17:45:51  -825.229429  -2.85  -2.08    +67.3846
iter:  18 17:46:51  -824.721524  -3.02  -2.05    +67.4197
iter:  19 17:47:50  -825.176727  -2.87  -2.18    +67.5096
iter:  20 17:48:50  -825.360441  -2.78  -2.16    +67.5630
iter:  21 17:49:49  -824.650409  -3.06  -2.16    +67.7988
iter:  22 17:50:49  -824.852589  -3.20  -2.36    +68.1843
iter:  23 17:51:48  -824.768484  -3.18  -2.34    +68.1049
iter:  24 17:52:47  -824.739665  -3.46  -2.42    +68.4660
iter:  25 17:53:48  -824.778277c -3.58  -2.46    +68.5152
iter:  26 17:54:47  -824.789132c -3.59  -2.51    +68.5204
iter:  27 17:55:46  -824.867733c -3.60  -2.55    +68.4813
iter:  28 17:56:45  -824.833678c -3.80  -2.53    +68.4952
iter:  29 17:57:45  -824.839648c -3.91  -2.60    +68.7085
iter:  30 17:58:45  -824.901448c -3.87  -2.66    +68.6433
iter:  31 17:59:44  -824.883817c -4.05  -2.63    +68.7414
iter:  32 18:00:43  -824.917564c -4.18  -2.70    +68.7308
iter:  33 18:01:43  -824.945229c -4.12  -2.71    +68.7446
iter:  34 18:02:41  -824.943764c -4.28  -2.71    +68.6745
iter:  35 18:03:40  -824.974451c -4.24  -2.76    +68.6035
iter:  36 18:04:40  -824.975096c -4.28  -2.74    +68.6844
iter:  37 18:05:39  -825.005644c -4.06  -2.83    +68.3700
iter:  38 18:06:38  -825.016770c -4.06  -2.82    +68.5060
iter:  39 18:07:38  -825.013252c -4.12  -2.84    +68.5372
iter:  40 18:08:38  -825.012478c -4.37  -2.95    +68.5266
iter:  41 18:09:36  -825.027654c -4.28  -3.03    +68.5274
iter:  42 18:10:36  -825.013334c -4.66  -2.97    +68.4064
iter:  43 18:11:35  -825.021338c -4.89  -3.11    +68.3966
iter:  44 18:12:35  -825.032532c -4.99  -3.15    +68.2946
iter:  45 18:13:36  -825.087238c -3.76  -3.13    +67.6891
iter:  46 18:14:36  -825.110543c -4.08  -2.98    +67.5102
iter:  47 18:15:36  -825.096942c -4.71  -2.95    +67.6025
iter:  48 18:16:36  -825.100538c -5.06  -3.08    +67.5948
iter:  49 18:17:35  -825.104590c -5.24  -3.09    +67.5835
iter:  50 18:18:35  -825.123601c -4.30  -3.06    +67.5245
iter:  51 18:19:34  -825.092969c -4.62  -2.94    +67.4904
iter:  52 18:20:34  -825.094298c -5.39  -3.17    +67.2993
iter:  53 18:21:33  -825.101083c -4.74  -3.20    +67.1880
iter:  54 18:22:33  -825.095803c -5.04  -3.12    +67.1717
iter:  55 18:23:32  -825.093291c -5.00  -3.27    +67.0841
iter:  56 18:24:32  -825.093561c -5.22  -3.41    +67.0777
iter:  57 18:25:32  -825.095750c -5.22  -3.46    +67.0460
iter:  58 18:26:32  -825.094730c -5.58  -3.45    +66.9945
iter:  59 18:27:32  -825.095216c -5.69  -3.55    +66.9609
iter:  60 18:28:31  -825.096335c -5.78  -3.59    +66.9231
iter:  61 18:29:31  -825.096802c -5.83  -3.64    +66.8693
iter:  62 18:30:31  -825.097364c -6.00  -3.69    +66.8499
iter:  63 18:31:30  -825.098598c -5.89  -3.76    +66.8025
iter:  64 18:32:30  -825.098568c -6.17  -3.76    +66.7946
iter:  65 18:33:30  -825.099512c -5.98  -3.78    +66.7576
iter:  66 18:34:31  -825.100061c -6.26  -3.84    +66.7370
iter:  67 18:35:31  -825.101064c -6.11  -3.89    +66.6996
iter:  68 18:36:31  -825.100767c -6.56  -3.92    +66.6999
iter:  69 18:37:31  -825.102257c -6.01  -3.98    +66.6520
iter:  70 18:38:30  -825.102034c -6.46  -3.96    +66.6532
iter:  71 18:39:30  -825.103352c -6.06  -3.99    +66.6167
iter:  72 18:40:30  -825.103142c -7.02  -4.06c   +66.6191
iter:  73 18:41:29  -825.104025c -6.44  -4.11c   +66.5952
iter:  74 18:42:29  -825.101752c -5.65  -4.15c   +66.6780
iter:  75 18:43:29  -825.099483c -5.30  -4.11c   +66.7974
iter:  76 18:44:27  -825.100467c -6.57  -4.02c   +66.7626
iter:  77 18:45:27  -825.100626c -6.73  -4.05c   +66.7500
iter:  78 18:46:27  -825.101128c -6.69  -4.12c   +66.7351
iter:  79 18:47:26  -825.102028c -6.20  -4.15c   +66.6924
iter:  80 18:48:26  -825.099732c -5.67  -4.23c   +66.7922
iter:  81 18:49:26  -825.100769c -6.52  -4.06c   +66.7427
iter:  82 18:50:25  -825.101171c -6.52  -4.25c   +66.7205
iter:  83 18:51:25  -825.101830c -6.40  -4.22c   +66.6917
iter:  84 18:52:24  -825.102002c -6.92  -4.51c   +66.7072
iter:  85 18:53:24  -825.102826c -6.13  -4.45c   +66.6357
iter:  86 18:54:24  -825.104194c -5.98  -4.51c   +66.5843
iter:  87 18:55:23  -825.099159c -5.02  -4.41c   +66.7833
iter:  88 18:56:23  -825.096228c -5.03  -4.37c   +66.9262
iter:  89 18:57:23  -825.096233c -6.01  -4.08c   +66.9213
iter:  90 18:58:23  -825.096979c -5.02  -4.10c   +66.8628
iter:  91 18:59:22  -825.097997c -5.25  -3.98    +66.8249
iter:  92 19:00:22  -825.098604c -5.82  -3.86    +66.8026
iter:  93 19:01:22  -825.097940c -6.12  -3.82    +66.8305
iter:  94 19:02:21  -825.099379c -5.71  -3.75    +66.7751
iter:  95 19:03:21  -825.099347c -5.84  -3.74    +66.7706
iter:  96 19:04:21  -825.099936c -5.52  -3.65    +66.7477
iter:  97 19:05:21  -825.100160c -5.77  -3.65    +66.7304
iter:  98 19:06:19  -825.100091c -6.00  -3.76    +66.7285
iter:  99 19:07:20  -825.100696c -5.65  -3.87    +66.7118
iter: 100 19:08:20  -825.100712c -6.01  -3.74    +66.7117
iter: 101 19:09:19  -825.101123c -6.35  -3.93    +66.6925
iter: 102 19:10:19  -825.101021c -6.51  -3.99    +66.6918
iter: 103 19:11:19  -825.102087c -6.08  -4.03c   +66.6748
iter: 104 19:12:20  -825.101984c -6.19  -3.94    +66.6766
iter: 105 19:13:20  -825.102031c -6.11  -4.00c   +66.6738
iter: 106 19:14:20  -825.102477c -6.41  -4.19c   +66.6648
iter: 107 19:15:20  -825.102772c -6.65  -4.27c   +66.6638
iter: 108 19:16:20  -825.103350c -6.33  -4.32c   +66.6543
iter: 109 19:17:20  -825.102959c -6.88  -4.28c   +66.6623
iter: 110 19:18:20  -825.104572c -5.66  -4.24c   +66.6360
iter: 111 19:19:20  -825.099856c -4.74  -4.09c   +66.7132
iter: 112 19:20:20  -825.099952c -5.80  -4.27c   +66.7168
iter: 113 19:21:20  -825.100331c -6.69  -4.27c   +66.7071
iter: 114 19:22:19  -825.100753c -6.49  -4.34c   +66.7026
iter: 115 19:23:20  -825.101296c -6.48  -4.47c   +66.6961
iter: 116 19:24:20  -825.101119c -7.36  -4.48c   +66.6965
iter: 117 19:25:19  -825.101641c -6.60  -4.64c   +66.6908
iter: 118 19:26:19  -825.101586c -7.49c -4.75c   +66.6906

Converged after 118 iterations.

Dipole moment: (-0.428981, -0.106552, 0.247235) |e|*Ang

Total magnetic moment: (0.000000, 0.000000, 66.690561)
Local magnetic moments:
   0 Fe ( 0.000000,  0.000000,  2.185973)
   1 Cr ( 0.000000,  0.000000,  1.759612)
   2 Ni ( 0.000000,  0.000000, -0.006353)
   3 Cr ( 0.000000,  0.000000, -1.979091)
   4 Al ( 0.000000,  0.000000, -0.013241)
   5 Fe ( 0.000000,  0.000000,  2.195132)
   6 Ni ( 0.000000,  0.000000,  0.189841)
   7 Al ( 0.000000,  0.000000, -0.016438)
   8 Al ( 0.000000,  0.000000, -0.015787)
   9 Co ( 0.000000,  0.000000,  1.398989)
  10 Ni ( 0.000000,  0.000000,  0.209121)
  11 Co ( 0.000000,  0.000000,  1.129705)
  12 Ni ( 0.000000,  0.000000,  0.277977)
  13 Cr ( 0.000000,  0.000000,  1.367828)
  14 Fe ( 0.000000,  0.000000,  1.548190)
  15 Cr ( 0.000000,  0.000000, -1.644744)
  16 Co ( 0.000000,  0.000000,  0.856932)
  17 Cr ( 0.000000,  0.000000,  0.120918)
  18 Co ( 0.000000,  0.000000,  1.136852)
  19 Fe ( 0.000000,  0.000000,  1.974744)
  20 Cr ( 0.000000,  0.000000, -1.974979)
  21 Fe ( 0.000000,  0.000000,  2.412460)
  22 Co ( 0.000000,  0.000000,  1.106128)
  23 Al ( 0.000000,  0.000000, -0.029367)
  24 Ni ( 0.000000,  0.000000,  0.214763)
  25 Cr ( 0.000000,  0.000000, -1.281489)
  26 Cr ( 0.000000,  0.000000,  0.611764)
  27 Al ( 0.000000,  0.000000, -0.012622)
  28 Cr ( 0.000000,  0.000000, -0.869158)
  29 Cr ( 0.000000,  0.000000, -1.719874)
  30 Fe ( 0.000000,  0.000000,  1.824811)
  31 Fe ( 0.000000,  0.000000,  1.390393)
  32 Ni ( 0.000000,  0.000000,  0.272299)
  33 Cr ( 0.000000,  0.000000,  1.550204)
  34 Co ( 0.000000,  0.000000,  0.981141)
  35 Ni ( 0.000000,  0.000000,  0.335998)
  36 Ni ( 0.000000,  0.000000,  0.152067)
  37 Co ( 0.000000,  0.000000,  1.636912)
  38 Co ( 0.000000,  0.000000,  1.313153)
  39 Cr ( 0.000000,  0.000000, -1.912971)
  40 Fe ( 0.000000,  0.000000,  2.207994)
  41 Al ( 0.000000,  0.000000, -0.038108)
  42 Fe ( 0.000000,  0.000000,  2.284052)
  43 Ni ( 0.000000,  0.000000,  0.377765)
  44 Cr ( 0.000000,  0.000000, -1.826744)
  45 Co ( 0.000000,  0.000000,  1.530643)
  46 Co ( 0.000000,  0.000000,  1.418173)
  47 Ni ( 0.000000,  0.000000,  0.438233)
  48 Ni ( 0.000000,  0.000000,  0.310593)
  49 Cr ( 0.000000,  0.000000,  1.624133)
  50 Co ( 0.000000,  0.000000,  0.879382)
  51 Al ( 0.000000,  0.000000, -0.028098)
  52 Al ( 0.000000,  0.000000, -0.035379)
  53 Fe ( 0.000000,  0.000000,  1.880561)
  54 Fe ( 0.000000,  0.000000,  2.336518)
  55 Fe ( 0.000000,  0.000000,  2.110165)
  56 Ni ( 0.000000,  0.000000,  0.562593)
  57 Ni ( 0.000000,  0.000000,  0.156466)
  58 Co ( 0.000000,  0.000000,  1.310674)
  59 Co ( 0.000000,  0.000000,  0.994297)
[...]
  93 Cr ( 0.000000,  0.000000,  1.472034)
  94 Fe ( 0.000000,  0.000000,  2.098921)
  95 Cr ( 0.000000,  0.000000, -1.419915)
  96 Ni ( 0.000000,  0.000000,  0.216382)
  97 Fe ( 0.000000,  0.000000,  2.543358)
  98 Co ( 0.000000,  0.000000,  0.330183)
  99 Ni ( 0.000000,  0.000000,  0.376503)
 100 Cr ( 0.000000,  0.000000,  1.286761)
 101 Al ( 0.000000,  0.000000, -0.014213)
 102 Cr ( 0.000000,  0.000000, -0.263984)
 103 Co ( 0.000000,  0.000000,  0.743838)
 104 Al ( 0.000000,  0.000000, -0.024895)
 105 Ni ( 0.000000,  0.000000,  0.281757)
 106 Co ( 0.000000,  0.000000,  1.194335)
 107 Fe ( 0.000000,  0.000000,  2.365134)

Energy contributions relative to reference atoms: (reference = -3382523.201499)

Kinetic:       +224.956665
Potential:     -232.665749
External:        +0.000000
XC:            -848.678172
Entropy (-ST):   -4.259278
Local:          +33.415309
Free energy:   -827.231226
Extrapolated:  -825.101586

Spin contamination: 26.252037 electrons
Showing only first 2 kpts
                      Up                     Down
 Kpt  Band  Eigenvalues  Occupancy  Eigenvalues  Occupancy
  0   470      9.11378    0.99705     10.09149    0.01884
  0   471      9.11537    0.99701     10.10225    0.01695
  0   472      9.12839    0.99659     10.11654    0.01473
  0   473      9.14146    0.99612     10.12482    0.01357

  1   470      9.11767    0.99694     10.08570    0.01994
  1   471      9.13233    0.99646     10.10021    0.01730
  1   472      9.14090    0.99614     10.10941    0.01580
  1   473      9.14922    0.99581     10.13239    0.01260

Fermi level: 9.69622

No gap

Forces in eV/Ang:
  0 Fe   -0.40562    0.16503   -0.34655
  1 Cr   -0.13141    0.07444    0.06415
  2 Ni   -0.05544   -0.12095    0.09327
  3 Cr   -0.51060    0.81226    0.05147
  4 Al   -0.03527    0.24292    0.61326
  5 Fe   -0.29287    0.44601    0.12115
  6 Ni   -0.05302    0.24885    0.21182
  7 Al   -0.63615    1.12499    0.81371
  8 Al    1.12914   -0.75933    0.49910
  9 Co    0.36110    0.48130    0.23746
 10 Ni    0.15236    0.05583    0.03621
 11 Co    0.15163    0.30246    0.26833
 12 Ni    0.12248   -0.28129   -0.13365
 13 Cr   -0.18421   -0.02779    0.34469
 14 Fe    0.23600   -0.05141   -0.41915
 15 Cr   -0.20165   -0.46243   -0.44627
 16 Co   -0.33051    0.40552    0.06360
 17 Cr    0.23276    0.00281   -1.29817
 18 Co    0.20078   -0.05307    0.14419
 19 Fe   -0.33009   -0.09229    0.31081
 20 Cr    0.34825    0.70137    0.61514
 21 Fe   -0.01909   -0.32388   -0.02694
 22 Co   -0.16116   -0.24133    0.13983
 23 Al    0.34809    0.54715    0.13071
 24 Ni   -0.16682    0.10268   -0.03478
 25 Cr   -0.60937   -0.26844    0.48899
 26 Cr   -0.22078    0.15120   -0.08993
 27 Al   -1.29093   -0.17653   -0.17971
 28 Cr    0.59903   -0.67441    0.02567
 29 Cr    0.54637    0.01368    0.60685
 30 Fe   -0.11053    0.00380   -0.39300
 31 Fe   -0.09084   -0.37336   -0.02923
 32 Ni   -0.12902    0.28847   -0.12292
 33 Cr    0.19577   -0.20356    0.10057
 34 Co    0.37227    0.30260    0.17238
 35 Ni    0.11807   -0.21750    0.13287
 36 Ni   -0.11140   -0.12730    0.09360
 37 Co    0.07361    0.16318    0.03073
 38 Co   -0.15937   -0.30483    0.04256
 39 Cr   -1.14104   -0.27135   -0.61560
 40 Fe   -0.05449   -0.40862   -0.28796
 41 Al   -0.04244   -0.24052    0.77157
 42 Fe    0.37610   -0.29218   -0.06158
 43 Ni    0.14598    0.10149   -0.14621
 44 Cr   -0.13016    0.13786    0.19601
 45 Co   -0.09341   -0.15825   -0.02341
 46 Co   -0.00739   -0.03827   -0.20487
 47 Ni   -0.08815   -0.01026    0.00796
 48 Ni   -0.06077   -0.05687    0.09425
 49 Cr   -0.83066   -0.57650    0.27183
 50 Co   -0.15415   -0.18935    0.11643
 51 Al   -1.01473   -0.96001   -0.04013
 52 Al    0.72863   -0.00039   -0.23954
 53 Fe   -0.02066   -0.20171    0.01956
 54 Fe    0.37094    0.20587   -0.02671
 55 Fe    0.10979   -0.46041   -0.43903
 56 Ni    0.13772   -0.14515   -0.09452
 57 Ni    0.02834   -0.01390   -0.20878
 58 Co    0.23926   -0.02820   -0.23485
 59 Co    0.11652   -0.18899    0.05088
[...]
 93 Cr   -0.46208    0.30809    0.10210
 94 Fe    0.80548   -0.47914   -0.06724
 95 Cr    1.12638    0.09331    0.02557
 96 Ni   -0.16440    0.07783    0.23877
 97 Fe   -0.09168   -0.11952   -0.26778
 98 Co   -0.12399   -0.25872    0.07805
 99 Ni   -0.11279    0.08150    0.05792
100 Cr    0.08838   -0.21230    0.38308
101 Al   -0.21086   -0.28544   -1.08356
102 Cr    0.09423   -0.04929    0.48818
103 Co    0.35559    0.30606    0.24820
104 Al    0.04558    0.36819    0.48396
105 Ni    0.01435   -0.05866   -0.08002
106 Co    0.15113    0.19244   -0.02113
107 Fe    0.12654    0.12676   -0.10714

Date: Sat Apr  8 19:26:39 2023