User:   c.zeng@d0085
Date:   Fri Apr 14 08:11:58 2023
Arch:   x86_64
Pid:    233394
CWD:    /home/c.zeng/projects/hea-corrosion/hea-mlp/data-curation/bulk-mcmc/dft-jobs/118
Python: 3.8.1
gpaw:   /home/c.zeng/usr/installs/gpaw/source/gpaw-22.8.0/gpaw
_gpaw:  /home/c.zeng/usr/installs/gpaw/source/gpaw-22.8.0/
        _gpaw.cpython-38-x86_64-linux-gnu.so
ase:    /home/c.zeng/.local/lib/python3.8/site-packages/ase-3.22.1-py3.8.egg/ase (version 3.22.1)
numpy:  /shared/centos7/python/3.8.1/lib/python3.8/site-packages/numpy (version 1.17.4)
scipy:  /shared/centos7/python/3.8.1/lib/python3.8/site-packages/scipy (version 1.4.1)
units:  Angstrom and eV
cores: 30
OpenMP: False
OMP_NUM_THREADS: 1

Input parameters:
  convergence: {energy: 0.0001}
  kpts: [2 2 2]
  maxiter: 666
  mode: {ecut: 350.0,
         name: pw}
  occupations: {fixmagmom: False,
                name: fermi-dirac,
                width: 0.1}
  spinpol: True
  xc: PBE

System changes: positions, numbers, cell, pbc, initial_charges, initial_magmoms

Initialize ...

species:
  Co:
    name: Cobalt
    id: 339d20d5b0b93d2de9531a1bee871d91
    Z: 27.0
    valence: 9
    core: 18
    charge: 0.0
    file: /home/c.zeng/usr/data/gpaw-setups-0.9.20000/Co.PBE.gz
    compensation charges: {type: gauss,
                           rc: 0.32,
                           lmax: 2}
    cutoffs: {filter: 1.87,
              core: 2.55}
    valence states:
      #              energy  rcut
      - 4s(2.00)    -5.469   1.005
      - 4p(0.00)    -1.277   1.058
      - 3d(7.00)    -8.205   1.005
      -  s          21.742   1.005
      -  p          25.934   1.058
      -  d          19.007   1.005

    # Using partial waves for Co as LCAO basis

  Fe:
    name: Iron
    id: 37abbd8d6c3c35915a9b583b742da910
    Z: 26.0
    valence: 8
    core: 18
    charge: 0.0
    file: /home/c.zeng/usr/data/gpaw-setups-0.9.20000/Fe.PBE.gz
    compensation charges: {type: gauss,
                           rc: 0.33,
                           lmax: 2}
    cutoffs: {filter: 2.06,
              core: 2.67}
    valence states:
      #              energy  rcut
      - 4s(2.00)    -5.291   1.164
      - 4p(0.00)    -1.326   1.058
      - 3d(6.00)    -7.505   1.058
      -  s          21.920   1.164
      -  p          25.885   1.058
      -  d          19.706   1.058

[...]

  Ni:
    name: Nickel
    id: 0d9f38a9d6e76a2886f07bb4381f212b
    Z: 28.0
    valence: 16
    core: 12
    charge: 0.0
    file: /home/c.zeng/usr/data/gpaw-setups-0.9.20000/Ni.PBE.gz
    compensation charges: {type: gauss,
                           rc: 0.36,
                           lmax: 2}
    cutoffs: {filter: 2.14,
              core: 1.98}
    valence states:
      #              energy  rcut
      - 4s(2.00)    -5.642   1.164
      - 3p(6.00)   -71.394   1.207
      - 4p(0.00)    -1.226   1.207
      - 3d(8.00)    -8.875   1.138
      -  s          21.570   1.164
      -  d          18.337   1.138

[...]

  Al:
    name: Aluminium
    id: 0292cae29f5d6237e50f6abdd43a7bdd
    Z: 13.0
    valence: 3
    core: 10
    charge: 0.0
    file: /home/c.zeng/usr/data/gpaw-setups-0.9.20000/Al.PBE.gz
    compensation charges: {type: gauss,
                           rc: 0.34,
                           lmax: 2}
    cutoffs: {filter: 1.91,
              core: 2.36}
    valence states:
      #              energy  rcut
      - 3s(2.00)    -7.753   1.085
      - 3p(1.00)    -2.712   1.085
      -  s          19.459   1.085
      -  p          24.499   1.085
      -  d           0.000   1.085

[...]

  Cr:
    name: Chromium
    id: 33f258bda2ca9f93018e70263a35547b
    Z: 24.0
    valence: 6
    core: 18
    charge: 0.0
    file: /home/c.zeng/usr/data/gpaw-setups-0.9.20000/Cr.PBE.gz
    compensation charges: {type: gauss,
                           rc: 0.35,
                           lmax: 2}
    cutoffs: {filter: 2.14,
              core: 3.04}
    valence states:
      #              energy  rcut
      - 4s(1.00)    -4.007   1.164
      - 4p(0.00)    -0.989   1.217
      - 3d(5.00)    -2.913   1.111
      -  s          23.205   1.164
      -  p          26.223   1.217
      -  d          24.299   1.111

    # Using partial waves for Cr as LCAO basis

Reference energy: -3548577.034362  # eV

Spin-polarized calculation.
Magnetic moment: 136.400000

Convergence criteria:
 Maximum [total energy] change in last 3 cyles: 0.0001 eV / electron
 Maximum integral of absolute [dens]ity change: 0.0001 electrons / valence electron
 Maximum integral of absolute [eigenst]ate change: 4e-08 eV^2 / valence electron
 Maximum number of scf [iter]ations: 666
 (Square brackets indicate name in SCF output, whereas a 'c' in
 the SCF output indicates the quantity has converged.)

Symmetries present (total): 1

  ( 1  0  0)
  ( 0  1  0)
  ( 0  0  1)

8 k-points: 2 x 2 x 2 Monkhorst-Pack grid
4 k-points in the irreducible part of the Brillouin zone
       k-points in crystal coordinates                weights
   0:     0.25000000   -0.25000000   -0.25000000          2/8
   1:     0.25000000   -0.25000000    0.25000000          2/8
   2:     0.25000000    0.25000000   -0.25000000          2/8
   3:     0.25000000    0.25000000    0.25000000          2/8

Wave functions: Plane wave expansion
  Cutoff energy: 350.000 eV
  Number of coefficients (min, max): 18331, 18331
  Pulay-stress correction: 0.000000 eV/Ang^3 (de/decut=0.000000)
  Using FFTW library
  ScaLapack parameters: grid=1x1, blocksize=None
  Wavefunction extrapolation:
    Improved wavefunction reuse through dual PAW basis

Occupation numbers: Fermi-Dirac:
  width: 0.1000  # eV

Eigensolver
   Davidson(niter=2)

Densities:
  Coarse grid: 48*48*48 grid
  Fine grid: 96*96*96 grid
  Total Charge: 0.000000

Density mixing:
  Method: difference
  Backend: pulay
  Linear mixing parameter: 0.05
  old densities: 5
  Damping of long wavelength oscillations: 50

Hamiltonian:
  XC and Coulomb potentials evaluated on a 96*96*96 grid
  Using the PBE Exchange-Correlation functional
  External potential:
    NoExternalPotential

XC parameters: PBE with 2 nearest neighbor stencil

Total number of cores used: 30
Parallelization over k-points: 2
Domain decomposition: 5 x 3 x 1

Number of atoms: 108
Number of atomic orbitals: 994
Number of bands in calculation: 674
Number of valence electrons: 980
Bands to converge: occupied

... initialized

Initializing position-dependent things.

Density initialized from atomic densities
Creating initial wave functions:
  674 bands from LCAO basis set

        Co-------Co---------------.
       /|  Co       Fe            |
      / |   AlCr     CrCo     CrCo|
     / Ni       CAl     Ni        |
    /   CCo      Ni      FAl      |
   /    | CoCo     Co      CoCo   |
  /   Co|  NiFeAl   NiNi    CrCr  |
 *      Cr  CrCoNi   CoNiNi   FeNi|
 |Fe   NiNiCr   CrACr   FeCr      |
 | Fe   | NiNi   NiNiCr    Cr     |
 |     Co  CoFeNi   FeNiAl  NiAl  |
 |      Fe    FeNi   FeAlFe   AlCr|
 |Cr    |CoNi   NFeFe   FeFe     Fe
 |      .-FeCr-----FeCr--FeCoNi---.
 |     Cr    CoCr     FeCo  Cr Fe/
 |    / Al      Co       Cr     /
 Cr  /            Cr           /
 |  /      Ni      Cr       Fe/
 | / Co              Fe      /
 |/                     Co  /

Positions:
   0 Co    10.732479   -0.010418   10.721263    ( 0.0000,  0.0000,  2.1000)
   1 Fe    10.706231    1.787006    1.816653    ( 0.0000,  0.0000,  1.5000)
   2 Co     1.827923    0.046024    1.820803    ( 0.0000,  0.0000,  0.0000)
   3 Co     1.781666    1.794790   10.668295    ( 0.0000,  0.0000,  0.0000)
   4 Co     3.605675   -0.024615   10.696977    ( 0.0000,  0.0000,  0.0000)
   5 Ni     3.626284    1.755611    1.827590    ( 0.0000,  0.0000,  2.0000)
   6 Fe     5.347186   -0.032870    1.798425    ( 0.0000,  0.0000,  2.0000)
   7 Al     5.383406    1.755353   -0.004078    ( 0.0000,  0.0000,  2.0000)
   8 Fe     7.108694   -0.021619    0.052076    ( 0.0000,  0.0000,  0.0000)
   9 Cr     7.129131    1.783639    1.838109    ( 0.0000,  0.0000,  2.0000)
  10 Al     8.928414   -0.004386    1.840918    ( 0.0000,  0.0000,  2.0000)
  11 Co     8.945645    1.852509    0.063651    ( 0.0000,  0.0000,  0.0000)
  12 Co    10.721403    3.615743   10.707625    ( 0.0000,  0.0000,  2.1000)
  13 Fe    10.714905    5.407607    1.816064    ( 0.0000,  0.0000,  2.0000)
  14 Al     1.786931    3.537020    1.885127    ( 0.0000,  0.0000,  0.0000)
  15 Co     1.774396    5.426328   10.657058    ( 0.0000,  0.0000,  0.0000)
  16 Co     3.564340    3.564490   10.690115    ( 0.0000,  0.0000,  0.0000)
  17 Co     3.570334    5.434059    1.813919    ( 0.0000,  0.0000,  0.0000)
  18 Co     5.350145    3.574934    1.808708    ( 0.0000,  0.0000,  0.0000)
  19 Al     5.345084    5.410577   10.703464    ( 0.0000,  0.0000,  2.1000)
  20 Fe     7.157695    3.624514    0.002553    ( 0.0000,  0.0000,  2.1000)
  21 Fe     7.157792    5.380200    1.803904    ( 0.0000,  0.0000,  0.0000)
  22 Cr     8.944980    3.620622    1.842988    ( 0.0000,  0.0000,  0.0000)
  23 Al     8.940316    5.370571   -0.005231    ( 0.0000,  0.0000,  0.0000)
  24 Co    10.674578    7.138041   10.683446    ( 0.0000,  0.0000,  2.0000)
  25 Fe    10.668413    8.869012    1.800001    ( 0.0000,  0.0000,  0.0000)
  26 Fe     1.807904    7.157309    1.806960    ( 0.0000,  0.0000,  1.5000)
  27 Co     1.808086    8.895217   10.689064    ( 0.0000,  0.0000,  0.0000)
  28 Cr     3.612462    7.185391   10.698339    ( 0.0000,  0.0000,  2.0000)
  29 Ni     3.598277    8.905404    1.808097    ( 0.0000,  0.0000,  1.5000)
  30 Fe     5.362229    7.149643    1.778835    ( 0.0000,  0.0000,  2.1000)
  31 Fe     5.368084    8.904170   10.708750    ( 0.0000,  0.0000,  2.0000)
  32 Co     7.127640    7.124156   10.700741    ( 0.0000,  0.0000,  2.0000)
  33 Fe     7.139982    8.914904    1.783157    ( 0.0000,  0.0000,  0.0000)
  34 Co     8.884516    7.107975    1.798232    ( 0.0000,  0.0000,  2.0000)
  35 Cr     8.895410    8.880302    0.005476    ( 0.0000,  0.0000,  0.0000)
  36 Cr    10.737840    0.006469    3.587908    ( 0.0000,  0.0000,  1.5000)
  37 Cr     0.009110    1.816214    5.359506    ( 0.0000,  0.0000,  1.5000)
  38 Cr     1.833434   -0.010553    5.335488    ( 0.0000,  0.0000,  2.1000)
  39 Cr     1.814369    1.777409    3.664755    ( 0.0000,  0.0000,  1.5000)
  40 Ni     3.608002   -0.027958    3.615958    ( 0.0000,  0.0000,  2.1000)
  41 Ni     3.597397    1.774364    5.368180    ( 0.0000,  0.0000,  1.5000)
  42 Co     5.355185   -0.018813    5.365682    ( 0.0000,  0.0000,  2.1000)
  43 Cr     5.354005    1.762698    3.609396    ( 0.0000,  0.0000,  1.5000)
  44 Cr     7.096449    0.004839    3.553950    ( 0.0000,  0.0000,  0.0000)
  45 Fe     7.124574    1.817747    5.354692    ( 0.0000,  0.0000,  2.1000)
  46 Fe     8.888698   10.712332    5.289714    ( 0.0000,  0.0000,  0.0000)
  47 Co     8.931727    1.815495    3.558979    ( 0.0000,  0.0000,  1.5000)
  48 Ni    10.700248    3.599864    3.631730    ( 0.0000,  0.0000,  0.0000)
  49 Al    -0.007893    5.382698    5.388017    ( 0.0000,  0.0000,  2.0000)
  50 Fe     1.794265    3.594073    5.365264    ( 0.0000,  0.0000,  2.0000)
  51 Co     1.782020    5.398675    3.628600    ( 0.0000,  0.0000,  1.5000)
[...]
iter:   8 08:25:56  -850.851113  -1.72  -1.51    +48.7908
iter:   9 08:27:23  -865.987307  -1.61  -1.68    +48.8541
iter:  10 08:28:50  -849.014959  -1.84  -1.57    +48.1599
iter:  11 08:30:18  -850.414076  -2.27  -1.86    +48.7311
iter:  12 08:31:45  -848.832760  -2.57  -1.84    +49.1937
iter:  13 08:33:12  -849.911760  -2.50  -1.92    +49.9575
iter:  14 08:34:39  -849.696952  -2.61  -1.91    +50.8040
iter:  15 08:36:06  -851.574115  -2.47  -2.01    +51.3526
iter:  16 08:37:33  -851.631068  -2.42  -1.96    +52.2908
iter:  17 08:39:00  -851.762488  -2.48  -1.97    +52.3155
iter:  18 08:40:27  -850.409564  -2.65  -2.01    +52.8485
iter:  19 08:41:54  -850.806268  -2.61  -2.12    +53.5049
iter:  20 08:43:21  -849.879404  -3.03  -2.08    +53.7769
iter:  21 08:44:48  -850.102613  -3.17  -2.25    +54.6574
iter:  22 08:46:16  -850.086482  -3.24  -2.25    +54.9267
iter:  23 08:47:43  -850.150898c -3.39  -2.26    +56.0428
iter:  24 08:49:10  -850.356779  -3.31  -2.33    +56.7628
iter:  25 08:50:38  -850.476878  -3.44  -2.34    +56.9856
iter:  26 08:52:05  -850.556236  -3.36  -2.32    +57.8088
iter:  27 08:53:32  -850.831421  -3.33  -2.39    +58.3875
iter:  28 08:54:59  -851.033247  -3.17  -2.35    +58.9707
iter:  29 08:56:26  -851.021041  -3.36  -2.37    +59.0668
iter:  30 08:57:53  -850.942557c -3.47  -2.40    +59.3799
iter:  31 08:59:20  -851.017272c -3.60  -2.44    +59.7260
iter:  32 09:00:47  -851.002193c -3.93  -2.46    +60.0237
iter:  33 09:02:15  -851.086218c -3.96  -2.52    +60.2951
iter:  34 09:03:42  -851.149918  -4.01  -2.52    +60.6219
iter:  35 09:05:09  -851.374087  -3.38  -2.55    +61.1342
iter:  36 09:06:36  -851.327724  -3.57  -2.57    +60.9368
iter:  37 09:08:03  -851.357526c -3.81  -2.73    +61.0594
iter:  38 09:09:30  -851.357833c -4.07  -2.80    +61.0515
iter:  39 09:10:57  -851.389082c -4.27  -2.88    +61.1659
iter:  40 09:12:25  -851.402051c -4.49  -2.93    +61.2649
iter:  41 09:13:52  -851.430877c -4.50  -2.99    +61.3398
iter:  42 09:15:19  -851.470906c -4.32  -3.03    +61.5094
iter:  43 09:16:46  -851.512913c -4.27  -3.13    +61.6441
iter:  44 09:18:14  -851.525000c -4.57  -3.15    +61.7251
iter:  45 09:19:41  -851.551346c -4.59  -3.24    +61.8902
iter:  46 09:21:08  -851.592017c -4.31  -3.28    +62.0921
iter:  47 09:22:36  -851.687945  -3.72  -3.23    +62.6188
iter:  48 09:24:03  -851.714803  -4.05  -2.98    +62.9191
iter:  49 09:25:30  -851.755707c -3.90  -2.99    +63.3546
iter:  50 09:26:58  -851.769600c -4.17  -2.90    +63.5991
iter:  51 09:28:25  -851.788094c -4.66  -2.87    +63.6687
iter:  52 09:29:53  -851.799896c -4.67  -2.82    +63.5939
iter:  53 09:31:20  -851.817472c -4.72  -2.78    +63.7237
iter:  54 09:32:48  -851.817884c -4.01  -2.77    +63.8125
iter:  55 09:34:15  -851.785717c -3.95  -2.72    +63.7859
iter:  56 09:35:43  -851.893328  -3.52  -2.76    +63.8793
iter:  57 09:37:10  -851.717720  -4.05  -2.64    +63.8510
iter:  58 09:38:38  -851.717183  -4.67  -3.04    +63.6878
iter:  59 09:40:05  -851.720886c -4.90  -3.10    +63.6881
iter:  60 09:41:33  -851.724318c -4.90  -3.13    +63.6088
iter:  61 09:43:00  -851.726684c -4.98  -3.17    +63.6163
iter:  62 09:44:28  -851.733952c -4.85  -3.20    +63.6024
iter:  63 09:45:56  -851.734407c -4.82  -3.17    +63.6279
iter:  64 09:47:24  -851.734759c -4.99  -3.23    +63.6722
iter:  65 09:48:52  -851.734327c -5.02  -3.27    +63.6261
iter:  66 09:50:20  -851.735847c -5.22  -3.34    +63.6282
iter:  67 09:51:47  -851.738521c -5.23  -3.37    +63.6476
iter:  68 09:53:16  -851.740901c -5.42  -3.41    +63.6685
iter:  69 09:54:44  -851.742384c -5.53  -3.44    +63.6785
iter:  70 09:56:12  -851.744835c -5.58  -3.46    +63.6814
iter:  71 09:57:40  -851.746235c -5.77  -3.47    +63.6911
iter:  72 09:59:08  -851.750781c -5.31  -3.53    +63.6898
iter:  73 10:00:35  -851.749682c -5.46  -3.52    +63.6916
iter:  74 10:02:03  -851.754832c -5.23  -3.50    +63.7150
iter:  75 10:03:30  -851.755757c -5.48  -3.53    +63.7148
iter:  76 10:04:57  -851.759569c -5.27  -3.60    +63.7445
iter:  77 10:06:25  -851.759539c -5.70  -3.57    +63.7416
iter:  78 10:07:52  -851.763056c -5.61  -3.67    +63.7560
iter:  79 10:09:20  -851.766869c -5.59  -3.71    +63.7701
iter:  80 10:10:48  -851.710455c -3.30  -3.68    +63.4537
iter:  81 10:12:15  -851.705329c -3.90  -3.50    +63.3782
iter:  82 10:13:43  -851.704089c -4.34  -3.44    +63.3180
iter:  83 10:15:11  -851.703640c -4.30  -3.38    +63.2106
iter:  84 10:16:39  -851.704065c -5.15  -3.28    +63.2398
iter:  85 10:18:07  -851.704690c -5.07  -3.30    +63.2294
iter:  86 10:19:34  -851.698523c -5.22  -3.21    +63.2410
iter:  87 10:21:00  -851.698548c -5.30  -3.35    +63.2814
iter:  88 10:22:27  -851.697669c -4.84  -3.33    +63.2851
iter:  89 10:23:53  -851.697351c -5.10  -3.33    +63.3204
iter:  90 10:25:20  -851.694636c -5.43  -3.39    +63.3155
iter:  91 10:26:46  -851.694841c -5.63  -3.48    +63.3626
iter:  92 10:28:13  -851.695539c -5.47  -3.56    +63.3854
iter:  93 10:29:40  -851.695376c -5.52  -3.54    +63.3754
iter:  94 10:31:06  -851.694297c -5.54  -3.58    +63.3829
iter:  95 10:32:32  -851.696048c -5.54  -3.63    +63.4174
iter:  96 10:33:58  -851.696461c -5.50  -3.61    +63.4380
iter:  97 10:35:24  -851.695306c -5.67  -3.61    +63.4368
iter:  98 10:36:50  -851.694827c -6.02  -3.74    +63.4311
iter:  99 10:38:16  -851.695240c -6.10  -3.85    +63.4660
iter: 100 10:39:42  -851.695806c -6.32  -3.91    +63.4702
iter: 101 10:41:08  -851.695699c -6.38  -3.98    +63.4778
iter: 102 10:42:34  -851.696157c -6.33  -4.02c   +63.4859
iter: 103 10:44:00  -851.696604c -6.28  -3.99    +63.4862
iter: 104 10:45:26  -851.696858c -6.22  -3.97    +63.4997
iter: 105 10:46:52  -851.696823c -6.47  -4.05c   +63.4947
iter: 106 10:48:19  -851.696930c -6.27  -4.07c   +63.5112
iter: 107 10:49:45  -851.697459c -6.60  -4.09c   +63.5203
iter: 108 10:51:11  -851.697820c -6.42  -4.19c   +63.5299
iter: 109 10:52:38  -851.697808c -7.22  -4.24c   +63.5339
iter: 110 10:54:04  -851.698187c -6.51  -4.29c   +63.5452
iter: 111 10:55:31  -851.697826c -6.62  -4.26c   +63.5197
iter: 112 10:56:57  -851.696866c -5.66  -4.27c   +63.4335
iter: 113 10:58:23  -851.697555c -6.51  -4.04c   +63.4621
iter: 114 10:59:50  -851.696238c -5.88  -4.09c   +63.4105
iter: 115 11:01:16  -851.696710c -6.69  -3.97    +63.4155
iter: 116 11:02:42  -851.697329c -6.46  -3.93    +63.4286
iter: 117 11:04:08  -851.697403c -5.97  -3.94    +63.4287
iter: 118 11:05:34  -851.697301c -6.10  -3.83    +63.4497
iter: 119 11:07:01  -851.698129c -5.90  -4.08c   +63.4613
iter: 120 11:08:27  -851.697229c -6.51  -4.02c   +63.4554
iter: 121 11:09:53  -851.697508c -6.73  -4.28c   +63.4762
iter: 122 11:11:19  -851.697777c -6.62  -4.32c   +63.4659
iter: 123 11:12:46  -851.698557c -6.31  -4.44c   +63.4871
iter: 124 11:14:12  -851.698721c -6.85  -4.47c   +63.4864
iter: 125 11:15:39  -851.699558c -6.06  -4.55c   +63.5006
iter: 126 11:17:05  -851.697133c -5.37  -4.41c   +63.4473
iter: 127 11:18:31  -851.692933c -4.24  -4.34c   +63.2602
iter: 128 11:19:58  -851.693033c -5.01  -3.64    +63.2228
iter: 129 11:21:24  -851.693306c -5.20  -3.60    +63.1632
iter: 130 11:22:50  -851.694003c -5.28  -3.56    +63.1162
iter: 131 11:24:17  -851.694118c -5.87  -3.54    +63.1158
iter: 132 11:25:43  -851.694268c -5.85  -3.55    +63.1318
iter: 133 11:27:09  -851.694825c -5.89  -3.51    +63.1264
iter: 134 11:28:35  -851.701216c -4.93  -3.48    +63.1426
iter: 135 11:30:02  -851.692956c -4.89  -3.32    +63.1353
iter: 136 11:31:28  -851.691993c -5.54  -3.44    +63.1975
iter: 137 11:32:54  -851.692625c -5.74  -3.75    +63.2395
iter: 138 11:34:21  -851.693444c -5.76  -3.75    +63.2491
iter: 139 11:35:47  -851.693653c -5.84  -3.75    +63.2630
iter: 140 11:37:13  -851.693153c -5.99  -3.87    +63.2898
iter: 141 11:38:40  -851.694005c -6.03  -3.96    +63.3206
iter: 142 11:40:06  -851.693831c -6.23  -4.03c   +63.3304
iter: 143 11:41:33  -851.694244c -6.19  -4.03c   +63.3395
iter: 144 11:42:59  -851.694149c -6.29  -3.95    +63.3764
iter: 145 11:44:25  -851.694395c -6.37  -4.13c   +63.3972
iter: 146 11:45:52  -851.694604c -6.68  -4.07c   +63.4097
iter: 147 11:47:18  -851.694788c -6.70  -4.22c   +63.4262
iter: 148 11:48:45  -851.695239c -6.11  -4.22c   +63.4596
iter: 149 11:50:11  -851.694651c -6.14  -4.13c   +63.4094
iter: 150 11:51:37  -851.694954c -6.50  -4.14c   +63.4519
iter: 151 11:53:03  -851.695040c -7.35  -4.08c   +63.4522
iter: 152 11:54:30  -851.695344c -6.60  -4.11c   +63.4779
iter: 153 11:55:56  -851.694972c -6.43  -4.07c   +63.4480
iter: 154 11:57:22  -851.695104c -6.86  -4.12c   +63.4463
iter: 155 11:58:49  -851.695196c -6.63  -4.16c   +63.4605
iter: 156 12:00:15  -851.695407c -6.61  -4.06c   +63.4899
iter: 157 12:01:41  -851.695637c -6.63  -4.17c   +63.5093
iter: 158 12:03:07  -851.695953c -6.28  -4.11c   +63.5407
iter: 159 12:04:33  -851.695778c -6.74  -4.04c   +63.5369
iter: 160 12:06:00  -851.696570c -6.25  -3.98    +63.5602
iter: 161 12:07:26  -851.696394c -6.29  -3.96    +63.5664
iter: 162 12:08:52  -851.696975c -6.23  -3.95    +63.5929
iter: 163 12:10:18  -851.697203c -6.05  -3.99    +63.6047
iter: 164 12:11:45  -851.696899c -6.30  -3.91    +63.6080
iter: 165 12:13:11  -851.697062c -6.59  -4.10c   +63.6204
iter: 166 12:14:38  -851.697315c -6.62  -4.20c   +63.6348
iter: 167 12:16:04  -851.697261c -6.98  -4.22c   +63.6263
iter: 168 12:17:30  -851.697572c -6.34  -4.15c   +63.6477
iter: 169 12:18:56  -851.697456c -7.42c -4.18c   +63.6354

Converged after 169 iterations.

Dipole moment: (-1.869583, 13.112782, 14.363987) |e|*Ang

Total magnetic moment: (0.000000, 0.000000, 63.635405)
Local magnetic moments:
   0 Co ( 0.000000,  0.000000,  1.059302)
   1 Fe ( 0.000000,  0.000000,  2.193240)
   2 Co ( 0.000000,  0.000000,  1.449651)
   3 Co ( 0.000000,  0.000000,  1.127418)
   4 Co ( 0.000000,  0.000000,  1.112271)
   5 Ni ( 0.000000,  0.000000,  0.193805)
   6 Fe ( 0.000000,  0.000000,  1.943164)
   7 Al ( 0.000000,  0.000000, -0.018781)
   8 Fe ( 0.000000,  0.000000, -1.489828)
   9 Cr ( 0.000000,  0.000000,  0.965213)
  10 Al ( 0.000000,  0.000000, -0.014852)
  11 Co ( 0.000000,  0.000000,  1.038570)
  12 Co ( 0.000000,  0.000000,  1.037876)
  13 Fe ( 0.000000,  0.000000,  2.247924)
  14 Al ( 0.000000,  0.000000, -0.029873)
  15 Co ( 0.000000,  0.000000,  1.270890)
  16 Co ( 0.000000,  0.000000,  1.260951)
  17 Co ( 0.000000,  0.000000,  1.132347)
  18 Co ( 0.000000,  0.000000,  1.064057)
  19 Al ( 0.000000,  0.000000, -0.041746)
  20 Fe ( 0.000000,  0.000000,  2.177492)
  21 Fe ( 0.000000,  0.000000,  2.061555)
  22 Cr ( 0.000000,  0.000000, -1.327476)
  23 Al ( 0.000000,  0.000000, -0.036260)
  24 Co ( 0.000000,  0.000000,  1.219665)
  25 Fe ( 0.000000,  0.000000,  2.222772)
  26 Fe ( 0.000000,  0.000000,  2.301917)
  27 Co ( 0.000000,  0.000000,  1.477850)
  28 Cr ( 0.000000,  0.000000, -2.083881)
  29 Ni ( 0.000000,  0.000000,  0.476126)
  30 Fe ( 0.000000,  0.000000,  1.978488)
  31 Fe ( 0.000000,  0.000000,  2.143822)
  32 Co ( 0.000000,  0.000000,  1.133391)
  33 Fe ( 0.000000,  0.000000,  1.802217)
  34 Co ( 0.000000,  0.000000,  1.093575)
  35 Cr ( 0.000000,  0.000000, -1.315296)
  36 Cr ( 0.000000,  0.000000, -1.616114)
  37 Cr ( 0.000000,  0.000000,  0.168510)
  38 Cr ( 0.000000,  0.000000,  0.911837)
  39 Cr ( 0.000000,  0.000000,  0.245843)
  40 Ni ( 0.000000,  0.000000,  0.282618)
  41 Ni ( 0.000000,  0.000000,  0.172794)
  42 Co ( 0.000000,  0.000000,  1.056171)
  43 Cr ( 0.000000,  0.000000,  0.426725)
  44 Cr ( 0.000000,  0.000000, -1.443030)
  45 Fe ( 0.000000,  0.000000,  1.585109)
  46 Fe ( 0.000000,  0.000000,  1.997883)
  47 Co ( 0.000000,  0.000000,  0.390156)
  48 Ni ( 0.000000,  0.000000,  0.265937)
  49 Al ( 0.000000,  0.000000, -0.020174)
  50 Fe ( 0.000000,  0.000000,  2.092271)
  51 Co ( 0.000000,  0.000000,  1.034172)
  52 Cr ( 0.000000,  0.000000, -1.693231)
  53 Fe ( 0.000000,  0.000000,  2.265093)
  54 Ni ( 0.000000,  0.000000,  0.142455)
  55 Fe ( 0.000000,  0.000000,  2.184127)
  56 Cr ( 0.000000,  0.000000, -1.373868)
  57 Ni ( 0.000000,  0.000000,  0.202502)
  58 Fe ( 0.000000,  0.000000,  1.720981)
  59 Fe ( 0.000000,  0.000000,  1.566667)
[...]
  93 Ni ( 0.000000,  0.000000,  0.244080)
  94 Ni ( 0.000000,  0.000000,  0.211782)
  95 Cr ( 0.000000,  0.000000,  0.027972)
  96 Ni ( 0.000000,  0.000000,  0.105791)
  97 Ni ( 0.000000,  0.000000,  0.193256)
  98 Co ( 0.000000,  0.000000,  1.357568)
  99 Ni ( 0.000000,  0.000000,  0.191881)
 100 Co ( 0.000000,  0.000000,  1.363124)
 101 Co ( 0.000000,  0.000000,  1.245789)
 102 Co ( 0.000000,  0.000000,  1.268576)
 103 Ni ( 0.000000,  0.000000,  0.349252)
 104 Ni ( 0.000000,  0.000000,  0.230889)
 105 Ni ( 0.000000,  0.000000,  0.204402)
 106 Co ( 0.000000,  0.000000,  0.713306)
 107 Cr ( 0.000000,  0.000000,  0.202795)

Energy contributions relative to reference atoms: (reference = -3548577.034362)

Kinetic:       +174.680049
Potential:     -208.340772
External:        +0.000000
XC:            -851.729510
Entropy (-ST):   -4.549064
Local:          +35.967309
Free energy:   -853.971988
Extrapolated:  -851.697456

Spin contamination: 25.137693 electrons
Showing only first 2 kpts
                      Up                     Down
 Kpt  Band  Eigenvalues  Occupancy  Eigenvalues  Occupancy
  0   488      9.49111    0.99354     10.35904    0.02551
  0   489      9.49432    0.99334     10.37488    0.02185
  0   490      9.51021    0.99220     10.38625    0.01955
  0   491      9.51919    0.99147     10.40023    0.01704

  1   488      9.48318    0.99403     10.37487    0.02186
  1   489      9.48974    0.99363     10.38169    0.02044
  1   490      9.50551    0.99255     10.39721    0.01756
  1   491      9.51886    0.99150     10.40899    0.01564

Fermi level: 9.99475

No gap

Forces in eV/Ang:
  0 Co   -0.24487    0.12315    0.08649
  1 Fe    0.14014   -0.00053   -0.31674
  2 Co   -0.16907   -0.45173   -0.15927
  3 Co    0.08917    0.04128    0.48080
  4 Co   -0.34387   -0.10174    0.42746
  5 Ni   -0.45397    0.08199   -0.24366
  6 Fe   -0.22516   -0.48403    0.11417
  7 Al   -0.73710    0.78605    0.42287
  8 Fe    0.48269    0.22270   -0.62122
  9 Cr    0.03744    0.56239   -0.04008
 10 Al    0.30401   -0.05111   -0.84514
 11 Co   -0.00996   -0.08016   -0.74912
 12 Co    0.08686   -0.37403    0.06801
 13 Fe    0.12617   -0.06189   -0.15111
 14 Al    0.00198    0.70397   -1.32580
 15 Co    0.16641   -0.32098    0.20080
 16 Co   -0.25702    0.24226    0.32588
 17 Co   -0.19690   -0.38183    0.05098
 18 Co   -0.01354    0.23520    0.17026
 19 Al    0.37953   -1.17352    0.00384
 20 Fe    0.07864   -0.59604   -0.14821
 21 Fe   -0.14206   -0.47830    0.09729
 22 Cr    0.33398   -0.76683    0.08915
 23 Al   -0.26011    0.46013   -0.53425
 24 Co    0.50202    0.26152    0.15725
 25 Fe    0.57684    0.09659   -0.23490
 26 Fe   -0.00354    0.08417   -0.44532
 27 Co   -0.08000   -0.11167    0.59538
 28 Cr   -1.11387    0.57378   -0.01723
 29 Ni   -0.41932    0.42819   -0.13261
 30 Fe   -0.28866    0.25024    0.02424
 31 Fe    0.02391    0.03655    0.02736
 32 Co    0.18989    0.62738    0.07999
 33 Fe    0.00493    0.06435   -0.22025
 34 Co    0.36075    0.36785   -0.03154
 35 Cr   -0.03980   -0.51430   -0.58123
 36 Cr    0.53162   -0.36240    0.77254
 37 Cr    0.16436    0.07437   -0.24811
 38 Cr   -0.55458    0.33469    0.23916
 39 Cr    0.05617   -0.84159   -0.18987
 40 Ni   -0.10097    0.27414   -0.39664
 41 Ni   -0.12169   -0.04444    0.03758
 42 Co    0.13564    0.01069   -0.00793
 43 Cr   -0.12722    0.09832   -0.08785
 44 Cr   -0.35052    0.11079    0.74367
 45 Fe    0.13096   -0.24453   -0.33410
 46 Fe    0.48575   -0.41393    0.20452
 47 Co    0.11258    0.20068    0.44826
 48 Ni    0.04882   -0.23681   -0.31614
 49 Al    0.87999   -0.53800    0.20037
 50 Fe    0.28208   -0.52071    0.27196
 51 Co    0.38325    0.06343   -0.32643
 52 Cr    0.65524    0.11633   -0.05412
 53 Fe   -0.57005    0.01275   -0.33432
 54 Ni    0.12394   -0.07372   -0.15321
 55 Fe   -0.37747   -0.97868   -0.50237
 56 Cr   -0.38843    0.00125    0.13756
 57 Ni    0.07769   -0.06213   -0.18360
 58 Fe   -0.17847    0.01141   -0.41694
 59 Fe   -0.30914   -0.27070   -0.09982
[...]
 93 Ni    0.10376   -0.25077   -0.19718
 94 Ni    0.11130   -0.25931    0.52120
 95 Cr   -0.61748   -0.03212    0.61564
 96 Ni   -0.07298    0.14875    0.13463
 97 Ni   -0.26250    0.18519   -0.04927
 98 Co    0.16001   -0.29533    0.40763
 99 Ni   -0.40192    0.07659    0.16438
100 Co   -0.22575    0.10258    0.27262
101 Co    0.21271   -0.34200    0.22655
102 Co   -0.24219    0.51633   -0.05445
103 Ni   -0.07035    0.06845    0.06744
104 Ni    0.26351    0.25880    0.17825
105 Ni    0.44368    0.25447    0.02825
106 Co    0.12624    0.30568   -0.10483
107 Cr    0.05793    0.19055    0.38508

Date: Fri Apr 14 12:19:14 2023