User:   c.zeng@d0029
Date:   Sat Apr 15 16:26:31 2023
Arch:   x86_64
Pid:    167023
CWD:    /home/c.zeng/projects/hea-corrosion/hea-mlp/data-curation/bulk-mcmc/dft-jobs/57
Python: 3.8.1
gpaw:   /home/c.zeng/usr/installs/gpaw/source/gpaw-22.8.0/gpaw
_gpaw:  /home/c.zeng/usr/installs/gpaw/source/gpaw-22.8.0/
        _gpaw.cpython-38-x86_64-linux-gnu.so
ase:    /home/c.zeng/.local/lib/python3.8/site-packages/ase-3.22.1-py3.8.egg/ase (version 3.22.1)
numpy:  /shared/centos7/python/3.8.1/lib/python3.8/site-packages/numpy (version 1.17.4)
scipy:  /shared/centos7/python/3.8.1/lib/python3.8/site-packages/scipy (version 1.4.1)
units:  Angstrom and eV
cores: 30
OpenMP: False
OMP_NUM_THREADS: 1

Input parameters:
  convergence: {energy: 0.0001}
  kpts: [2 2 2]
  maxiter: 666
  mode: {ecut: 350.0,
         name: pw}
  occupations: {fixmagmom: False,
                name: fermi-dirac,
                width: 0.1}
  spinpol: True
  xc: PBE

System changes: positions, numbers, cell, pbc, initial_charges, initial_magmoms

Initialize ...

species:
  Cr:
    name: Chromium
    id: 33f258bda2ca9f93018e70263a35547b
    Z: 24.0
    valence: 6
    core: 18
    charge: 0.0
    file: /home/c.zeng/usr/data/gpaw-setups-0.9.20000/Cr.PBE.gz
    compensation charges: {type: gauss,
                           rc: 0.35,
                           lmax: 2}
    cutoffs: {filter: 2.14,
              core: 3.04}
    valence states:
      #              energy  rcut
      - 4s(1.00)    -4.007   1.164
      - 4p(0.00)    -0.989   1.217
      - 3d(5.00)    -2.913   1.111
      -  s          23.205   1.164
      -  p          26.223   1.217
      -  d          24.299   1.111

    # Using partial waves for Cr as LCAO basis

  Fe:
    name: Iron
    id: 37abbd8d6c3c35915a9b583b742da910
    Z: 26.0
    valence: 8
    core: 18
    charge: 0.0
    file: /home/c.zeng/usr/data/gpaw-setups-0.9.20000/Fe.PBE.gz
    compensation charges: {type: gauss,
                           rc: 0.33,
                           lmax: 2}
    cutoffs: {filter: 2.06,
              core: 2.67}
    valence states:
      #              energy  rcut
      - 4s(2.00)    -5.291   1.164
      - 4p(0.00)    -1.326   1.058
      - 3d(6.00)    -7.505   1.058
      -  s          21.920   1.164
      -  p          25.885   1.058
      -  d          19.706   1.058

[...]

  Ni:
    name: Nickel
    id: 0d9f38a9d6e76a2886f07bb4381f212b
    Z: 28.0
    valence: 16
    core: 12
    charge: 0.0
    file: /home/c.zeng/usr/data/gpaw-setups-0.9.20000/Ni.PBE.gz
    compensation charges: {type: gauss,
                           rc: 0.36,
                           lmax: 2}
    cutoffs: {filter: 2.14,
              core: 1.98}
    valence states:
      #              energy  rcut
      - 4s(2.00)    -5.642   1.164
      - 3p(6.00)   -71.394   1.207
      - 4p(0.00)    -1.226   1.207
      - 3d(8.00)    -8.875   1.138
      -  s          21.570   1.164
      -  d          18.337   1.138

[...]

  Co:
    name: Cobalt
    id: 339d20d5b0b93d2de9531a1bee871d91
    Z: 27.0
    valence: 9
    core: 18
    charge: 0.0
    file: /home/c.zeng/usr/data/gpaw-setups-0.9.20000/Co.PBE.gz
    compensation charges: {type: gauss,
                           rc: 0.32,
                           lmax: 2}
    cutoffs: {filter: 1.87,
              core: 2.55}
    valence states:
      #              energy  rcut
      - 4s(2.00)    -5.469   1.005
      - 4p(0.00)    -1.277   1.058
      - 3d(7.00)    -8.205   1.005
      -  s          21.742   1.005
      -  p          25.934   1.058
      -  d          19.007   1.005

[...]

  Al:
    name: Aluminium
    id: 0292cae29f5d6237e50f6abdd43a7bdd
    Z: 13.0
    valence: 3
    core: 10
    charge: 0.0
    file: /home/c.zeng/usr/data/gpaw-setups-0.9.20000/Al.PBE.gz
    compensation charges: {type: gauss,
                           rc: 0.34,
                           lmax: 2}
    cutoffs: {filter: 1.91,
              core: 2.36}
    valence states:
      #              energy  rcut
      - 3s(2.00)    -7.753   1.085
      - 3p(1.00)    -2.712   1.085
      -  s          19.459   1.085
      -  p          24.499   1.085
      -  d           0.000   1.085

    # Using partial waves for Al as LCAO basis

Reference energy: -3699400.456887  # eV

Spin-polarized calculation.
Magnetic moment: 143.500000

Convergence criteria:
 Maximum [total energy] change in last 3 cyles: 0.0001 eV / electron
 Maximum integral of absolute [dens]ity change: 0.0001 electrons / valence electron
 Maximum integral of absolute [eigenst]ate change: 4e-08 eV^2 / valence electron
 Maximum number of scf [iter]ations: 666
 (Square brackets indicate name in SCF output, whereas a 'c' in
 the SCF output indicates the quantity has converged.)

Symmetries present (total): 1

  ( 1  0  0)
  ( 0  1  0)
  ( 0  0  1)

8 k-points: 2 x 2 x 2 Monkhorst-Pack grid
4 k-points in the irreducible part of the Brillouin zone
       k-points in crystal coordinates                weights
   0:     0.25000000   -0.25000000   -0.25000000          2/8
   1:     0.25000000   -0.25000000    0.25000000          2/8
   2:     0.25000000    0.25000000   -0.25000000          2/8
   3:     0.25000000    0.25000000    0.25000000          2/8

Wave functions: Plane wave expansion
  Cutoff energy: 350.000 eV
  Number of coefficients (min, max): 18052, 18052
  Pulay-stress correction: 0.000000 eV/Ang^3 (de/decut=0.000000)
  Using FFTW library
  ScaLapack parameters: grid=1x1, blocksize=None
  Wavefunction extrapolation:
    Improved wavefunction reuse through dual PAW basis

Occupation numbers: Fermi-Dirac:
  width: 0.1000  # eV

Eigensolver
   Davidson(niter=2)

Densities:
  Coarse grid: 48*48*48 grid
  Fine grid: 96*96*96 grid
  Total Charge: 0.000000

Density mixing:
  Method: difference
  Backend: pulay
  Linear mixing parameter: 0.05
  old densities: 5
  Damping of long wavelength oscillations: 50

Hamiltonian:
  XC and Coulomb potentials evaluated on a 96*96*96 grid
  Using the PBE Exchange-Correlation functional
  External potential:
    NoExternalPotential

XC parameters: PBE with 2 nearest neighbor stencil

Total number of cores used: 30
Parallelization over k-points: 2
Domain decomposition: 5 x 3 x 1

Number of atoms: 108
Number of atomic orbitals: 1025
Number of bands in calculation: 703
Number of valence electrons: 1020
Bands to converge: occupied

... initialized

Initializing position-dependent things.

Density initialized from atomic densities
Creating initial wave functions:
  703 bands from LCAO basis set

        Cr------------------------.
       /|  Co                Co   |
      Ni|   Ni         Cr         |
     / Fe      Fe       Al        |
    /   CCo      Cr       Fe      |
   /e   | CoCr     CoAl    NiNi   |
  /  FeNi  CrCo     NiNiCo        |
 *    FeFe  FeCoCr     CoAl       |
 |     CoFeCr  CoFe Ni  NiFeNi    |
 | Fe   CrNiCrCo NiCrCrFe  Cr     |
 |   CoNi  CrAlCr   CrNiCr   Fe   |
 |    FeCr  FeFeCoNi CoFeCr   Cr  |
 |     NiFeFe  Cr NiNi  CoFeFe    |
 |      .-CoNiCo-FeCrCrCo--CoCr---.
 |   CrCo    CoAl   NiNiFe       /
 |    / Ni    NiFe       Ni     /
 |   /            Ni           /
 |Cr/      Co       Co        /
 |/            Cr           /
 *----------------Ni-------*

Positions:
   0 Cr     0.005316   -0.016350   10.639749    ( 0.0000,  0.0000,  0.0000)
   1 Cr    10.672340    1.801276    1.786848    ( 0.0000,  0.0000,  0.0000)
   2 Fe     1.795727   10.625972    1.782259    ( 0.0000,  0.0000,  0.0000)
   3 Ni     1.780787    1.796175   10.644605    ( 0.0000,  0.0000,  2.1000)
   4 Fe     3.523539   -0.014558    0.017268    ( 0.0000,  0.0000,  2.0000)
   5 Co     3.522568    1.781672    1.746648    ( 0.0000,  0.0000,  0.0000)
   6 Co     5.320952   10.642342    1.763136    ( 0.0000,  0.0000,  1.5000)
   7 Cr     5.342082    1.828767    0.007462    ( 0.0000,  0.0000,  2.0000)
   8 Ni     7.144895    0.019195    0.012033    ( 0.0000,  0.0000,  0.0000)
   9 Co     7.143497    1.798064    1.764939    ( 0.0000,  0.0000,  2.1000)
  10 Cr     8.891362   10.651627    1.788353    ( 0.0000,  0.0000,  1.5000)
  11 Co     8.888779    1.804777   10.642609    ( 0.0000,  0.0000,  2.0000)
  12 Fe     0.008694    3.581540   10.650250    ( 0.0000,  0.0000,  2.1000)
  13 Cr     0.018979    5.332745    1.789751    ( 0.0000,  0.0000,  2.1000)
  14 Ni     1.778129    3.600941    1.760019    ( 0.0000,  0.0000,  2.0000)
  15 Co     1.790423    5.343267   -0.017766    ( 0.0000,  0.0000,  2.0000)
  16 Cr     3.542802    3.589864   -0.015614    ( 0.0000,  0.0000,  2.0000)
  17 Co     3.526837    5.358538    1.765793    ( 0.0000,  0.0000,  2.0000)
  18 Fe     5.336650    3.606501    1.755815    ( 0.0000,  0.0000,  0.0000)
  19 Cr     5.300399    5.323642   -0.012797    ( 0.0000,  0.0000,  2.1000)
  20 Al     7.122858    3.584816   10.659524    ( 0.0000,  0.0000,  2.0000)
  21 Ni     7.120500    5.315168    1.805502    ( 0.0000,  0.0000,  1.5000)
  22 Ni     8.892034    3.590952    1.773146    ( 0.0000,  0.0000,  2.1000)
  23 Fe     8.925340    5.301487   -0.003100    ( 0.0000,  0.0000,  0.0000)
  24 Ni     0.023055    7.096680   -0.007939    ( 0.0000,  0.0000,  0.0000)
  25 Ni     0.019141    8.871245    1.787510    ( 0.0000,  0.0000,  1.5000)
  26 Co     1.784372    7.104567    1.776443    ( 0.0000,  0.0000,  2.0000)
  27 Co     1.779944    8.867628   10.659406    ( 0.0000,  0.0000,  1.5000)
  28 Ni     3.547785    7.097897    0.009215    ( 0.0000,  0.0000,  2.1000)
  29 Cr     3.541137    8.858109    1.788225    ( 0.0000,  0.0000,  2.1000)
  30 Cr     5.295105    7.099391    1.787894    ( 0.0000,  0.0000,  2.1000)
  31 Ni     5.303685    8.873828    0.029898    ( 0.0000,  0.0000,  0.0000)
  32 Cr     7.106883    7.088719   10.645159    ( 0.0000,  0.0000,  0.0000)
  33 Co     7.111055    8.901137    1.809472    ( 0.0000,  0.0000,  0.0000)
  34 Co     8.939384    7.093404    1.799238    ( 0.0000,  0.0000,  0.0000)
  35 Co     8.919972    8.915853   10.664881    ( 0.0000,  0.0000,  0.0000)
  36 Cr    10.679704   10.658873    3.584517    ( 0.0000,  0.0000,  2.0000)
  37 Fe    10.670921    1.796367    5.340289    ( 0.0000,  0.0000,  2.1000)
  38 Fe     1.770350   10.649001    5.343491    ( 0.0000,  0.0000,  0.0000)
  39 Co     1.791800    1.784671    3.584891    ( 0.0000,  0.0000,  2.0000)
  40 Ni     3.529718   10.626388    3.565234    ( 0.0000,  0.0000,  2.1000)
  41 Fe     3.535716    1.793465    5.367289    ( 0.0000,  0.0000,  1.5000)
  42 Co     5.311497    0.001574    5.366254    ( 0.0000,  0.0000,  1.5000)
  43 Al     5.332627    1.768055    3.580793    ( 0.0000,  0.0000,  0.0000)
  44 Ni     7.136966   10.673941    3.563804    ( 0.0000,  0.0000,  2.0000)
  45 Ni     7.136774    1.794126    5.358944    ( 0.0000,  0.0000,  2.1000)
  46 Co     8.925938   10.673621    5.347589    ( 0.0000,  0.0000,  2.0000)
  47 Fe     8.883827    1.779111    3.582404    ( 0.0000,  0.0000,  1.5000)
  48 Cr    -0.010038    3.572341    3.580996    ( 0.0000,  0.0000,  2.0000)
  49 Co    10.685573    5.328935    5.338550    ( 0.0000,  0.0000,  2.0000)
  50 Cr     1.784180    3.582949    5.348357    ( 0.0000,  0.0000,  1.5000)
  51 Fe     1.766326    5.339510    3.565255    ( 0.0000,  0.0000,  1.5000)
  52 Ni     3.522387    3.605007    3.574059    ( 0.0000,  0.0000,  0.0000)
  53 Al     3.543581    5.347343    5.347962    ( 0.0000,  0.0000,  2.1000)
  54 Co     5.333950    3.591678    5.360630    ( 0.0000,  0.0000,  2.0000)
  55 Ni     5.336458    5.346308    3.560132    ( 0.0000,  0.0000,  0.0000)
  56 Cr     7.143102    3.570089    3.572138    ( 0.0000,  0.0000,  2.1000)
  57 Ni     7.120265    5.347471    5.345689    ( 0.0000,  0.0000,  2.0000)
  58 Cr     8.888299    3.570665    5.342018    ( 0.0000,  0.0000,  1.5000)
  59 Fe     8.904573    5.339084    3.577453    ( 0.0000,  0.0000,  2.0000)
[...]
  93 Ni     7.108740    5.307762    8.854395    ( 0.0000,  0.0000,  1.5000)
  94 Al     8.907593    3.561296    8.890348    ( 0.0000,  0.0000,  2.1000)
  95 Fe     8.917806    5.336309    7.100224    ( 0.0000,  0.0000,  0.0000)
  96 Fe     0.016270    7.102027    7.111664    ( 0.0000,  0.0000,  2.0000)
  97 Fe     0.000822    8.895150    8.883817    ( 0.0000,  0.0000,  1.5000)
  98 Co     1.771182    7.105090    8.888608    ( 0.0000,  0.0000,  1.5000)
  99 Cr     1.775184    8.850318    7.108494    ( 0.0000,  0.0000,  2.0000)
 100 Co     3.530401    7.086478    7.104972    ( 0.0000,  0.0000,  1.5000)
 101 Fe     3.524841    8.851001    8.894798    ( 0.0000,  0.0000,  0.0000)
 102 Co     5.310654    7.102827    8.871128    ( 0.0000,  0.0000,  0.0000)
 103 Ni     5.290613    8.850286    7.104876    ( 0.0000,  0.0000,  0.0000)
 104 Co     7.129016    7.083330    7.142750    ( 0.0000,  0.0000,  2.1000)
 105 Al     7.143241    8.903186    8.854384    ( 0.0000,  0.0000,  2.0000)
 106 Ni     8.926504    7.115858    8.862313    ( 0.0000,  0.0000,  0.0000)
 107 Ni     8.932896    8.877648    7.127479    ( 0.0000,  0.0000,  1.5000)

Unit cell:
           periodic     x           y           z      points  spacing
  1. axis:    yes   10.671700    0.000000    0.000000    48     0.2223
  2. axis:    yes    0.000000   10.671700    0.000000    48     0.2223
  3. axis:    yes    0.000000    0.000000   10.671700    48     0.2223

  Lengths:  10.671700  10.671700  10.671700
  Angles:   90.000000  90.000000  90.000000

Effective grid spacing dv^(1/3) = 0.2223

     iter     time        total  log10-change:  magmom
                         energy  eigst   dens
iter:   1 16:32:36  -926.210194                  +143.1276
iter:   2 16:35:27  -961.791913  -0.46  -1.34    +107.6678
iter:   3 16:38:19  -893.244094  -0.90  -1.26    +77.5637
iter:   4 16:41:10  -872.777212  -1.49  -1.41    +64.1957
iter:   5 16:44:01  -871.498347  -1.95  -1.49    +56.9028
iter:   6 16:46:52  -873.382469  -2.04  -1.52    +53.2704
iter:   7 16:49:43  -869.645379  -1.87  -1.53    +51.9351
iter:   8 16:52:35  -870.605376  -1.85  -1.62    +51.2853
iter:   9 16:55:27  -873.024362  -1.74  -1.69    +51.1956
iter:  10 16:58:18  -867.164849  -2.15  -1.73    +50.7787
iter:  11 17:01:09  -867.714315  -2.62  -1.92    +51.4168
iter:  12 17:04:01  -868.622411  -2.62  -1.96    +52.2186
iter:  13 17:06:52  -868.288542  -2.78  -1.93    +53.0226
iter:  14 17:09:44  -869.467525  -2.65  -2.00    +53.6729
iter:  15 17:12:36  -870.693314  -2.49  -2.01    +54.2998
iter:  16 17:15:27  -870.001217  -2.51  -1.97    +54.9310
iter:  17 17:18:19  -869.325608  -2.82  -2.05    +55.8086
iter:  18 17:21:11  -871.092857  -2.56  -2.15    +56.4634
iter:  19 17:24:03  -869.394468  -2.79  -2.06    +56.8446
iter:  20 17:26:55  -869.229242  -3.16  -2.22    +57.8299
iter:  21 17:29:46  -869.329001  -3.46  -2.29    +58.5878
iter:  22 17:32:38  -869.559551  -3.25  -2.31    +59.5138
iter:  23 17:35:30  -869.448833  -3.61  -2.32    +60.0328
iter:  24 17:38:21  -869.860270  -3.28  -2.41    +61.2494
iter:  25 17:41:13  -870.175792  -3.09  -2.39    +61.7789
iter:  26 17:44:05  -870.372978  -3.09  -2.37    +62.2461
iter:  27 17:46:56  -870.059797  -3.22  -2.34    +62.6019
iter:  28 17:49:48  -870.263729  -3.34  -2.53    +63.2910
iter:  29 17:52:40  -870.107868  -3.66  -2.48    +63.6019
iter:  30 17:55:33  -870.179781  -3.97  -2.63    +63.9605
iter:  31 17:58:24  -870.244899  -3.97  -2.66    +64.4254
iter:  32 18:01:16  -870.323995  -4.11  -2.66    +64.8484
iter:  33 18:04:07  -870.711418  -3.14  -2.64    +66.1927
iter:  34 18:06:59  -870.558754  -3.93  -2.48    +65.6831
iter:  35 18:09:51  -870.631159  -3.95  -2.60    +66.0003
iter:  36 18:12:44  -870.656764c -4.04  -2.62    +66.0977
iter:  37 18:15:36  -870.690813c -3.74  -2.66    +66.0551
iter:  38 18:18:29  -870.640383c -3.33  -2.58    +65.9709
iter:  39 18:21:21  -870.533292  -4.00  -2.68    +65.7580
iter:  40 18:24:14  -870.522377  -4.47  -2.87    +65.5622
iter:  41 18:27:06  -870.544253c -4.42  -2.97    +65.3696
iter:  42 18:29:58  -870.528008c -4.61  -2.91    +65.3116
iter:  43 18:32:50  -870.543157c -4.51  -2.99    +65.2150
iter:  44 18:35:42  -870.522654c -4.81  -2.95    +65.1240
iter:  45 18:38:35  -870.531182c -4.79  -3.07    +64.9791
iter:  46 18:41:27  -870.527117c -4.98  -3.04    +64.9512
iter:  47 18:44:19  -870.528037c -4.98  -3.09    +64.8641
iter:  48 18:47:12  -870.533818c -4.90  -3.12    +64.7820
iter:  49 18:50:05  -870.528552c -5.03  -3.10    +64.7237
iter:  50 18:52:57  -870.534836c -4.97  -3.18    +64.6832
iter:  51 18:55:48  -870.533459c -5.09  -3.14    +64.6384
iter:  52 18:58:40  -870.535133c -5.06  -3.18    +64.5432
iter:  53 19:01:32  -870.535080c -5.10  -3.21    +64.5052
iter:  54 19:04:25  -870.536257c -5.19  -3.21    +64.4969
iter:  55 19:07:18  -870.536925c -5.22  -3.24    +64.4562
iter:  56 19:10:10  -870.537975c -5.23  -3.25    +64.4097
iter:  57 19:13:02  -870.538970c -5.29  -3.26    +64.4012
iter:  58 19:15:55  -870.538505c -5.31  -3.27    +64.3962
iter:  59 19:18:47  -870.540027c -5.31  -3.31    +64.3769
iter:  60 19:21:40  -870.540343c -5.49  -3.30    +64.3288
iter:  61 19:24:32  -870.539782c -5.26  -3.35    +64.3124
iter:  62 19:27:25  -870.542284c -5.40  -3.34    +64.3047
iter:  63 19:30:15  -870.541846c -5.32  -3.35    +64.2708
iter:  64 19:33:07  -870.542436c -5.33  -3.38    +64.2314
iter:  65 19:35:59  -870.541989c -5.34  -3.40    +64.2165
iter:  66 19:38:51  -870.541066c -5.65  -3.40    +64.2312
iter:  67 19:41:44  -870.542267c -5.49  -3.51    +64.2104
iter:  68 19:44:35  -870.541503c -5.84  -3.46    +64.1972
iter:  69 19:47:28  -870.542223c -5.78  -3.53    +64.1931
iter:  70 19:50:21  -870.542536c -5.65  -3.54    +64.1940
iter:  71 19:53:12  -870.543654c -5.62  -3.53    +64.1856
iter:  72 19:56:04  -870.542317c -5.82  -3.54    +64.1521
iter:  73 19:58:57  -870.542868c -5.59  -3.64    +64.1486
iter:  74 20:01:50  -870.542843c -5.89  -3.56    +64.1516
iter:  75 20:04:42  -870.542312c -5.96  -3.65    +64.1386
iter:  76 20:07:34  -870.542493c -6.08  -3.71    +64.1249
iter:  77 20:10:28  -870.542355c -6.33  -3.71    +64.1188
iter:  78 20:13:21  -870.542485c -6.37  -3.75    +64.1230
iter:  79 20:16:13  -870.543203c -6.19  -3.79    +64.1121
iter:  80 20:19:06  -870.542810c -6.28  -3.74    +64.1012
iter:  81 20:21:59  -870.543361c -6.08  -3.81    +64.0947
iter:  82 20:24:50  -870.543794c -5.89  -3.77    +64.0936
iter:  83 20:27:42  -870.543743c -6.03  -3.71    +64.0867
iter:  84 20:30:35  -870.543143c -6.02  -3.85    +64.0649
iter:  85 20:33:27  -870.543151c -6.30  -3.86    +64.0685
iter:  86 20:36:18  -870.543266c -6.48  -3.89    +64.0741
iter:  87 20:39:11  -870.543222c -6.46  -4.01c   +64.0710
iter:  88 20:42:04  -870.543367c -6.60  -3.99    +64.0669
iter:  89 20:44:55  -870.543233c -6.81  -4.04c   +64.0644
iter:  90 20:47:45  -870.543993c -6.21  -4.17c   +64.0627
iter:  91 20:50:37  -870.543442c -6.59  -3.93    +64.0576
iter:  92 20:53:29  -870.543364c -6.71  -4.28c   +64.0495
iter:  93 20:56:22  -870.543519c -6.81  -4.27c   +64.0471
iter:  94 20:59:14  -870.543431c -7.00  -4.24c   +64.0442
iter:  95 21:02:06  -870.543479c -7.27  -4.41c   +64.0381
iter:  96 21:04:58  -870.543514c -7.58c -4.53c   +64.0328

Converged after 96 iterations.

Dipole moment: (-10.350824, 8.337110, 8.974737) |e|*Ang

Total magnetic moment: (0.000000, 0.000000, 64.032847)
Local magnetic moments:
   0 Cr ( 0.000000,  0.000000, -1.295248)
   1 Cr ( 0.000000,  0.000000, -0.767597)
   2 Fe ( 0.000000,  0.000000,  1.889725)
   3 Ni ( 0.000000,  0.000000,  0.253332)
   4 Fe ( 0.000000,  0.000000,  2.194340)
   5 Co ( 0.000000,  0.000000,  1.237072)
   6 Co ( 0.000000,  0.000000,  1.160189)
   7 Cr ( 0.000000,  0.000000, -0.866667)
   8 Ni ( 0.000000,  0.000000,  0.278709)
   9 Co ( 0.000000,  0.000000,  1.004121)
  10 Cr ( 0.000000,  0.000000, -0.534291)
  11 Co ( 0.000000,  0.000000,  0.831137)
  12 Fe ( 0.000000,  0.000000,  2.276414)
  13 Cr ( 0.000000,  0.000000, -1.697114)
  14 Ni ( 0.000000,  0.000000,  0.201308)
  15 Co ( 0.000000,  0.000000,  1.284552)
  16 Cr ( 0.000000,  0.000000, -0.347389)
  17 Co ( 0.000000,  0.000000,  1.063173)
  18 Fe ( 0.000000,  0.000000,  1.969692)
  19 Cr ( 0.000000,  0.000000,  0.533512)
  20 Al ( 0.000000,  0.000000, -0.021982)
  21 Ni ( 0.000000,  0.000000,  0.205280)
  22 Ni ( 0.000000,  0.000000,  0.155880)
  23 Fe ( 0.000000,  0.000000,  2.199896)
  24 Ni ( 0.000000,  0.000000,  0.523711)
  25 Ni ( 0.000000,  0.000000,  0.234749)
  26 Co ( 0.000000,  0.000000,  1.221604)
  27 Co ( 0.000000,  0.000000,  1.263838)
  28 Ni ( 0.000000,  0.000000,  0.289661)
  29 Cr ( 0.000000,  0.000000, -0.589757)
  30 Cr ( 0.000000,  0.000000, -0.475329)
  31 Ni ( 0.000000,  0.000000,  0.216493)
  32 Cr ( 0.000000,  0.000000, -1.773817)
  33 Co ( 0.000000,  0.000000,  1.025443)
  34 Co ( 0.000000,  0.000000,  1.303037)
  35 Co ( 0.000000,  0.000000,  1.203804)
  36 Cr ( 0.000000,  0.000000, -0.203607)
  37 Fe ( 0.000000,  0.000000,  1.716942)
  38 Fe ( 0.000000,  0.000000,  1.970859)
  39 Co ( 0.000000,  0.000000,  1.156720)
  40 Ni ( 0.000000,  0.000000,  0.251676)
  41 Fe ( 0.000000,  0.000000,  2.023535)
  42 Co ( 0.000000,  0.000000,  1.252155)
  43 Al ( 0.000000,  0.000000, -0.030153)
  44 Ni ( 0.000000,  0.000000,  0.312770)
  45 Ni ( 0.000000,  0.000000,  0.089505)
  46 Co ( 0.000000,  0.000000,  1.297761)
  47 Fe ( 0.000000,  0.000000,  1.744722)
  48 Cr ( 0.000000,  0.000000,  0.236467)
  49 Co ( 0.000000,  0.000000,  0.475763)
  50 Cr ( 0.000000,  0.000000, -1.404557)
  51 Fe ( 0.000000,  0.000000,  2.048692)
  52 Ni ( 0.000000,  0.000000,  0.284856)
  53 Al ( 0.000000,  0.000000, -0.026334)
  54 Co ( 0.000000,  0.000000,  0.645618)
  55 Ni ( 0.000000,  0.000000,  0.190190)
  56 Cr ( 0.000000,  0.000000, -1.377169)
  57 Ni ( 0.000000,  0.000000,  0.127153)
  58 Cr ( 0.000000,  0.000000, -0.744806)
  59 Fe ( 0.000000,  0.000000,  1.883369)
[...]
  93 Ni ( 0.000000,  0.000000,  0.190128)
  94 Al ( 0.000000,  0.000000, -0.035775)
  95 Fe ( 0.000000,  0.000000,  1.887376)
  96 Fe ( 0.000000,  0.000000,  2.251406)
  97 Fe ( 0.000000,  0.000000,  2.315487)
  98 Co ( 0.000000,  0.000000,  1.391396)
  99 Cr ( 0.000000,  0.000000, -1.918060)
 100 Co ( 0.000000,  0.000000,  1.156779)
 101 Fe ( 0.000000,  0.000000,  2.399637)
 102 Co ( 0.000000,  0.000000,  1.034711)
 103 Ni ( 0.000000,  0.000000,  0.391224)
 104 Co ( 0.000000,  0.000000,  1.386231)
 105 Al ( 0.000000,  0.000000, -0.030554)
 106 Ni ( 0.000000,  0.000000,  0.345866)
 107 Ni ( 0.000000,  0.000000,  0.408534)

Energy contributions relative to reference atoms: (reference = -3699400.456887)

Kinetic:       +133.071969
Potential:     -186.120113
External:        +0.000000
XC:            -852.979510
Entropy (-ST):   -4.643891
Local:          +37.806085
Free energy:   -872.865460
Extrapolated:  -870.543514

Spin contamination: 26.192919 electrons
Showing only first 2 kpts
                      Up                     Down
 Kpt  Band  Eigenvalues  Occupancy  Eigenvalues  Occupancy
  0   508      9.61787    0.99509     10.51038    0.02625
  0   509      9.63317    0.99428     10.52746    0.02222
  0   510      9.63916    0.99393     10.53578    0.02048
  0   511      9.65607    0.99282     10.54440    0.01882

  1   508      9.62038    0.99497     10.50455    0.02778
  1   509      9.63328    0.99428     10.51578    0.02491
  1   510      9.64978    0.99326     10.52261    0.02330
  1   511      9.67281    0.99153     10.53769    0.02010

Fermi level: 10.14904

No gap

Forces in eV/Ang:
  0 Cr   -0.00530    0.20797    0.42026
  1 Cr   -0.01073   -0.05510    0.04365
  2 Fe   -0.18608    0.37160   -0.04949
  3 Ni   -0.05558   -0.09657    0.30014
  4 Fe    0.35038    0.49382   -0.21119
  5 Co   -0.00896    0.00946    0.07429
  6 Co    0.11913    0.04640   -0.10784
  7 Cr   -0.43063   -1.03516    0.01621
  8 Ni   -0.30613   -0.02996    0.04107
  9 Co   -0.10307   -0.34002    0.07365
 10 Cr   -0.05495    0.28507   -0.28721
 11 Co    0.38283   -0.58290    0.73897
 12 Fe    0.50317   -0.42706    0.65232
 13 Cr   -0.09327    0.13724   -0.07231
 14 Ni   -0.02191   -0.59555    0.17451
 15 Co    0.15788    0.02340    0.03265
 16 Cr   -0.43765   -0.01333   -0.02943
 17 Co    0.27395   -0.03895    0.25462
 18 Fe   -0.46810   -0.20156    0.31339
 19 Cr   -0.41855    0.71921   -0.24199
 20 Al    0.37483   -0.13283    0.87684
 21 Ni    0.01820    0.50636   -0.25381
 22 Ni    0.21480   -0.46630    0.30129
 23 Fe   -0.07024    1.20461    0.22239
 24 Ni   -0.23388    0.06726   -0.00352
 25 Ni   -0.13926    0.18000   -0.23563
 26 Co    0.05828    0.02561   -0.30967
 27 Co    0.06276    0.02438    0.22122
 28 Ni    0.00168   -0.08089   -0.09086
 29 Cr    0.23881    0.11332   -0.41202
 30 Cr    0.07935   -0.09572    0.45509
 31 Ni    0.28130    0.07005   -0.08534
 32 Cr    0.15642   -0.48589    0.85935
 33 Co    0.05021   -0.13811   -0.31763
 34 Co   -0.42993    0.20290   -0.35148
 35 Co   -0.05068   -0.33505    0.45319
 36 Cr   -0.10611    0.27632   -0.11976
 37 Fe    0.08978   -0.12712   -0.01206
 38 Fe   -0.01462    0.16239   -0.24939
 39 Co   -0.08981    0.05012   -0.35681
 40 Ni    0.17610    0.21761    0.14226
 41 Fe   -0.11117   -0.11982   -0.01098
 42 Co   -0.05150   -0.27155    0.26141
 43 Al   -0.29046   -0.32249   -0.26711
 44 Ni   -0.08958   -0.18000    0.10639
 45 Ni   -0.22622   -0.34859   -0.02433
 46 Co   -0.02378    0.10084    0.11548
 47 Fe    0.13962    0.09672   -0.12718
 48 Cr   -0.08762   -0.41099   -0.07993
 49 Co    0.03676   -0.05467   -0.00088
 50 Cr   -0.89945   -0.81337    0.01691
 51 Fe   -0.12804    0.01933   -0.37172
 52 Ni    0.17199   -0.39412   -0.44939
 53 Al    0.15177    0.01511   -0.61895
 54 Co    0.49751   -0.36939    0.23261
 55 Ni   -0.00447    0.03132   -0.23078
 56 Cr    0.34914    0.34233   -0.12710
 57 Ni   -0.13684   -0.00262    0.07578
 58 Cr    0.37700    0.29022    0.14256
 59 Fe   -0.20823   -0.13115   -0.07299
[...]
 93 Ni    0.21209    0.57685    0.25351
 94 Al    0.49001    0.04154   -0.16500
 95 Fe   -0.21938    0.22055   -0.32931
 96 Fe    0.01738    0.04528   -0.29784
 97 Fe    0.06652   -0.24922    0.19115
 98 Co    0.01913   -0.12886    0.28224
 99 Cr    0.03827    0.12453   -0.16361
100 Co    0.06749    0.36949    0.32370
101 Fe    0.34447    0.04943   -0.16202
102 Co    0.07334   -0.28439    0.24332
103 Ni    0.08025    0.26640   -0.10124
104 Co   -0.16127   -0.17186   -0.44538
105 Al   -0.48507    0.23358   -0.17372
106 Ni   -0.09097   -0.27823    0.46286
107 Ni   -0.03932    0.14026   -0.39153

Date: Sat Apr 15 21:05:20 2023