User:   c.zeng@d0150
Date:   Sat Apr  8 13:49:05 2023
Arch:   x86_64
Pid:    36158
CWD:    /home/c.zeng/projects/hea-corrosion/hea-mlp/data-curation/volume/dft-jobs/75
Python: 3.8.1
gpaw:   /home/c.zeng/usr/installs/gpaw/source/gpaw-22.8.0/gpaw
_gpaw:  /home/c.zeng/usr/installs/gpaw/source/gpaw-22.8.0/
        _gpaw.cpython-38-x86_64-linux-gnu.so
ase:    /home/c.zeng/.local/lib/python3.8/site-packages/ase-3.22.1-py3.8.egg/ase (version 3.22.1)
numpy:  /shared/centos7/python/3.8.1/lib/python3.8/site-packages/numpy (version 1.17.4)
scipy:  /shared/centos7/python/3.8.1/lib/python3.8/site-packages/scipy (version 1.4.1)
units:  Angstrom and eV
cores: 64
OpenMP: False
OMP_NUM_THREADS: 1

Input parameters:
  convergence: {energy: 0.0001}
  kpts: [2 2 2]
  maxiter: 666
  mode: {ecut: 350.0,
         name: pw}
  occupations: {fixmagmom: False,
                name: fermi-dirac,
                width: 0.1}
  spinpol: True
  xc: PBE

System changes: positions, numbers, cell, pbc, initial_charges, initial_magmoms

Initialize ...

species:
  Co:
    name: Cobalt
    id: 339d20d5b0b93d2de9531a1bee871d91
    Z: 27.0
    valence: 9
    core: 18
    charge: 0.0
    file: /home/c.zeng/usr/data/gpaw-setups-0.9.20000/Co.PBE.gz
    compensation charges: {type: gauss,
                           rc: 0.32,
                           lmax: 2}
    cutoffs: {filter: 1.87,
              core: 2.55}
    valence states:
      #              energy  rcut
      - 4s(2.00)    -5.469   1.005
      - 4p(0.00)    -1.277   1.058
      - 3d(7.00)    -8.205   1.005
      -  s          21.742   1.005
      -  p          25.934   1.058
      -  d          19.007   1.005

    # Using partial waves for Co as LCAO basis

  Ni:
    name: Nickel
    id: 0d9f38a9d6e76a2886f07bb4381f212b
    Z: 28.0
    valence: 16
    core: 12
    charge: 0.0
    file: /home/c.zeng/usr/data/gpaw-setups-0.9.20000/Ni.PBE.gz
    compensation charges: {type: gauss,
                           rc: 0.36,
                           lmax: 2}
    cutoffs: {filter: 2.14,
              core: 1.98}
    valence states:
      #              energy  rcut
      - 4s(2.00)    -5.642   1.164
      - 3p(6.00)   -71.394   1.207
      - 4p(0.00)    -1.226   1.207
      - 3d(8.00)    -8.875   1.138
      -  s          21.570   1.164
      -  d          18.337   1.138

[...]

  Al:
    name: Aluminium
    id: 0292cae29f5d6237e50f6abdd43a7bdd
    Z: 13.0
    valence: 3
    core: 10
    charge: 0.0
    file: /home/c.zeng/usr/data/gpaw-setups-0.9.20000/Al.PBE.gz
    compensation charges: {type: gauss,
                           rc: 0.34,
                           lmax: 2}
    cutoffs: {filter: 1.91,
              core: 2.36}
    valence states:
      #              energy  rcut
      - 3s(2.00)    -7.753   1.085
      - 3p(1.00)    -2.712   1.085
      -  s          19.459   1.085
      -  p          24.499   1.085
      -  d           0.000   1.085

[...]

  Cr:
    name: Chromium
    id: 33f258bda2ca9f93018e70263a35547b
    Z: 24.0
    valence: 6
    core: 18
    charge: 0.0
    file: /home/c.zeng/usr/data/gpaw-setups-0.9.20000/Cr.PBE.gz
    compensation charges: {type: gauss,
                           rc: 0.35,
                           lmax: 2}
    cutoffs: {filter: 2.14,
              core: 3.04}
    valence states:
      #              energy  rcut
      - 4s(1.00)    -4.007   1.164
      - 4p(0.00)    -0.989   1.217
      - 3d(5.00)    -2.913   1.111
      -  s          23.205   1.164
      -  p          26.223   1.217
      -  d          24.299   1.111

[...]

  Fe:
    name: Iron
    id: 37abbd8d6c3c35915a9b583b742da910
    Z: 26.0
    valence: 8
    core: 18
    charge: 0.0
    file: /home/c.zeng/usr/data/gpaw-setups-0.9.20000/Fe.PBE.gz
    compensation charges: {type: gauss,
                           rc: 0.33,
                           lmax: 2}
    cutoffs: {filter: 2.06,
              core: 2.67}
    valence states:
      #              energy  rcut
      - 4s(2.00)    -5.291   1.164
      - 4p(0.00)    -1.326   1.058
      - 3d(6.00)    -7.505   1.058
      -  s          21.920   1.164
      -  p          25.885   1.058
      -  d          19.706   1.058

    # Using partial waves for Fe as LCAO basis

Reference energy: -3548577.034362  # eV

Spin-polarized calculation.
Magnetic moment: 136.400000

Convergence criteria:
 Maximum [total energy] change in last 3 cyles: 0.0001 eV / electron
 Maximum integral of absolute [dens]ity change: 0.0001 electrons / valence electron
 Maximum integral of absolute [eigenst]ate change: 4e-08 eV^2 / valence electron
 Maximum number of scf [iter]ations: 666
 (Square brackets indicate name in SCF output, whereas a 'c' in
 the SCF output indicates the quantity has converged.)

Symmetries present (total): 1

  ( 1  0  0)
  ( 0  1  0)
  ( 0  0  1)

8 k-points: 2 x 2 x 2 Monkhorst-Pack grid
4 k-points in the irreducible part of the Brillouin zone
       k-points in crystal coordinates                weights
   0:     0.25000000   -0.25000000   -0.25000000          2/8
   1:     0.25000000   -0.25000000    0.25000000          2/8
   2:     0.25000000    0.25000000   -0.25000000          2/8
   3:     0.25000000    0.25000000    0.25000000          2/8

Wave functions: Plane wave expansion
  Cutoff energy: 350.000 eV
  Number of coefficients (min, max): 18256, 18256
  Pulay-stress correction: 0.000000 eV/Ang^3 (de/decut=0.000000)
  Using FFTW library
  ScaLapack parameters: grid=1x1, blocksize=None
  Wavefunction extrapolation:
    Improved wavefunction reuse through dual PAW basis

Occupation numbers: Fermi-Dirac:
  width: 0.1000  # eV

Eigensolver
   Davidson(niter=2)

Densities:
  Coarse grid: 48*48*48 grid
  Fine grid: 96*96*96 grid
  Total Charge: 0.000000

Density mixing:
  Method: difference
  Backend: pulay
  Linear mixing parameter: 0.05
  old densities: 5
  Damping of long wavelength oscillations: 50

Hamiltonian:
  XC and Coulomb potentials evaluated on a 96*96*96 grid
  Using the PBE Exchange-Correlation functional
  External potential:
    NoExternalPotential

XC parameters: PBE with 2 nearest neighbor stencil

Total number of cores used: 64
Parallelization over k-points: 4
Domain decomposition: 4 x 2 x 2

Number of atoms: 108
Number of atomic orbitals: 994
Number of bands in calculation: 674
Number of valence electrons: 980
Bands to converge: occupied

... initialized

Initializing position-dependent things.

Density initialized from atomic densities
Creating initial wave functions:
  674 bands from LCAO basis set

        .--------Cr---------------.
       /|  Cr       Fe            |
      / |            FeFe     AlFe|
     / Ni       NiCo    Ni        |
    /   AAl      FeFe             |
   /    | NiCr      CCo    FeCo   |
  /   Cr|  CoFe       Ni    FeCo  |
 Co     Ni    CoAl     CoCr   AlCo|
 |Co   NiFeFe  Co CCr   CrCr      |
 | CrCo | CrCo   CoCoFe    Fe     |
 |     Fe  NiNiCr   CrCoNi  NiFe  |
 |      Fe    CoCoNi   CrCr     Ni|
 |Ni    |NiNi   NiCCo   CrFe     Al
 |      .-NiNiCo---CoCr--CrFeCr---.
 |   CoNi    Cr       Cr    CrFe /
 |    / Al    FNi       Nir     /
 Ni  /          AlCr      Cr   /
 |  /      Fe      Fe       Ni/
 | / Al       Fe       Fe    /
 |/            Fe       Al  /

Positions:
   0 Co    10.714451    0.002006   10.696925    ( 0.0000,  0.0000,  2.1000)
   1 Ni    10.691872    1.780114    1.788218    ( 0.0000,  0.0000,  1.5000)
   2 Al     1.819255    0.046623    1.795595    ( 0.0000,  0.0000,  0.0000)
   3 Cr     1.777544    1.781463   10.679206    ( 0.0000,  0.0000,  0.0000)
   4 Cr     3.577454   -0.004130   10.693713    ( 0.0000,  0.0000,  0.0000)
   5 Fe     3.582390    1.770082    1.790606    ( 0.0000,  0.0000,  2.0000)
   6 Fe     5.351316    0.000307    1.785927    ( 0.0000,  0.0000,  2.0000)
   7 Fe     5.356840    1.767823    0.003104    ( 0.0000,  0.0000,  2.0000)
   8 Cr     7.118090   -0.008724    0.014686    ( 0.0000,  0.0000,  0.0000)
   9 Fe     7.136922    1.774707    1.798079    ( 0.0000,  0.0000,  2.0000)
  10 Fe     8.921125    0.003724    1.798057    ( 0.0000,  0.0000,  2.0000)
  11 Al     8.931221    1.831193    0.044223    ( 0.0000,  0.0000,  0.0000)
  12 Co    10.692460    3.568011   10.695565    ( 0.0000,  0.0000,  2.1000)
  13 Fe    10.688992    5.367311    1.795616    ( 0.0000,  0.0000,  2.0000)
  14 Al     1.778947    3.525165    1.839683    ( 0.0000,  0.0000,  0.0000)
  15 Al     1.773016    5.402116   10.657002    ( 0.0000,  0.0000,  0.0000)
  16 Cr     3.570656    3.560046   10.694388    ( 0.0000,  0.0000,  0.0000)
  17 Cr     3.575088    5.382288    1.794706    ( 0.0000,  0.0000,  0.0000)
  18 Al     5.354859    3.555956    1.787640    ( 0.0000,  0.0000,  0.0000)
  19 Co     5.353639    5.382588   10.701015    ( 0.0000,  0.0000,  2.1000)
  20 Co     7.148495    3.578664   -0.001483    ( 0.0000,  0.0000,  2.1000)
  21 Cr     7.151846    5.366144    1.782930    ( 0.0000,  0.0000,  0.0000)
  22 Cr     8.924562    3.571855    1.793143    ( 0.0000,  0.0000,  0.0000)
  23 Cr     8.923192    5.357793    0.002601    ( 0.0000,  0.0000,  0.0000)
  24 Fe    10.694934    7.136900   10.693188    ( 0.0000,  0.0000,  2.0000)
  25 Al    10.658747    8.876556    1.786613    ( 0.0000,  0.0000,  0.0000)
  26 Ni     1.795135    7.137639    1.795156    ( 0.0000,  0.0000,  1.5000)
  27 Cr     1.793743    8.908043   10.683189    ( 0.0000,  0.0000,  0.0000)
  28 Fe     3.588856    7.149865   10.707385    ( 0.0000,  0.0000,  2.0000)
  29 Ni     3.580826    8.907657    1.791559    ( 0.0000,  0.0000,  1.5000)
  30 Co     5.348586    7.139299    1.776506    ( 0.0000,  0.0000,  2.1000)
  31 Fe     5.350877    8.910227   10.702160    ( 0.0000,  0.0000,  2.0000)
  32 Fe     7.130123    7.134631   10.699923    ( 0.0000,  0.0000,  2.0000)
  33 Cr     7.136986    8.921725    1.780103    ( 0.0000,  0.0000,  0.0000)
  34 Fe     8.913524    7.130263    1.786323    ( 0.0000,  0.0000,  2.0000)
  35 Cr     8.914734    8.905291    0.000317    ( 0.0000,  0.0000,  0.0000)
  36 Ni    10.707278    0.011961    3.572294    ( 0.0000,  0.0000,  1.5000)
  37 Ni     0.009125    1.805070    5.345031    ( 0.0000,  0.0000,  1.5000)
  38 Co     1.797340    0.003766    5.344624    ( 0.0000,  0.0000,  2.1000)
  39 Ni     1.786538    1.781988    3.593406    ( 0.0000,  0.0000,  1.5000)
  40 Co     3.576137   -0.003428    3.583524    ( 0.0000,  0.0000,  2.1000)
  41 Ni     3.567123    1.779750    5.352012    ( 0.0000,  0.0000,  1.5000)
  42 Co     5.347718    0.000742    5.354549    ( 0.0000,  0.0000,  2.1000)
  43 Ni     5.350866    1.770650    3.575366    ( 0.0000,  0.0000,  1.5000)
  44 Cr     7.128111    0.008232    3.559939    ( 0.0000,  0.0000,  0.0000)
  45 Co     7.127864    1.799792    5.350770    ( 0.0000,  0.0000,  2.1000)
  46 Al     8.882712   10.705875    5.298513    ( 0.0000,  0.0000,  0.0000)
  47 Ni     8.921853    1.790638    3.557316    ( 0.0000,  0.0000,  1.5000)
  48 Cr    10.697717    3.570431    3.580291    ( 0.0000,  0.0000,  0.0000)
  49 Fe    -0.001561    5.357771    5.350448    ( 0.0000,  0.0000,  2.0000)
  50 Fe     1.788989    3.566427    5.351605    ( 0.0000,  0.0000,  2.0000)
  51 Ni     1.780200    5.364431    3.583685    ( 0.0000,  0.0000,  1.5000)
[...]
  96 Co    10.702877    7.138517    7.140005    ( 0.0000,  0.0000,  2.1000)
  97 Ni    10.715628    8.901533    8.932602    ( 0.0000,  0.0000,  1.5000)
  98 Ni     1.784289    7.148688    8.911362    ( 0.0000,  0.0000,  1.5000)
  99 Co     1.797833    8.914862    7.134588    ( 0.0000,  0.0000,  2.1000)
 100 Co     3.570955    7.138506    7.138281    ( 0.0000,  0.0000,  2.1000)
 101 Ni     3.573846    8.919595    8.915697    ( 0.0000,  0.0000,  1.5000)
 102 Fe     5.358264    7.140562    8.929808    ( 0.0000,  0.0000,  2.0000)
 103 Co     5.349742    8.918877    7.140027    ( 0.0000,  0.0000,  2.1000)
 104 Co     7.139117    7.135905    7.139994    ( 0.0000,  0.0000,  2.1000)
 105 Ni     7.122758    8.903418    8.919070    ( 0.0000,  0.0000,  1.5000)
 106 Fe     8.916104    7.137596    8.918545    ( 0.0000,  0.0000,  2.0000)
 107 Fe     8.911297    8.888622    7.136354    ( 0.0000,  0.0000,  2.0000)

Unit cell:
           periodic     x           y           z      points  spacing
  1. axis:    yes   10.706100    0.000000    0.000000    48     0.2230
  2. axis:    yes    0.000000   10.706100    0.000000    48     0.2230
  3. axis:    yes    0.000000    0.000000   10.706100    48     0.2230

  Lengths:  10.706100  10.706100  10.706100
  Angles:   90.000000  90.000000  90.000000

Effective grid spacing dv^(1/3) = 0.2230

     iter     time        total  log10-change:  magmom
                         energy  eigst   dens
iter:   1 13:51:39 -1033.521135                  +136.6827
iter:   2 13:52:51  -915.352347  -0.23  -1.18    +75.7201
iter:   3 13:54:04  -910.929710  -0.80  -1.21    +64.1152
iter:   4 13:55:16  -885.939496  -1.18  -1.26    +59.6810
iter:   5 13:56:28  -871.609232  -1.55  -1.29    +56.4891
iter:   6 13:57:41  -876.783779  -1.24  -1.36    +56.8479
iter:   7 13:58:53  -860.599497  -1.29  -1.41    +54.9563
iter:   8 14:00:05  -852.866842  -1.64  -1.57    +54.3981
iter:   9 14:01:18  -852.660804  -2.10  -1.75    +55.3400
iter:  10 14:02:30  -851.895160  -2.34  -1.78    +56.4905
iter:  11 14:03:42  -852.444759  -2.55  -1.84    +57.2141
iter:  12 14:04:54  -852.458513  -2.50  -1.84    +58.7190
iter:  13 14:06:07  -854.284943  -2.36  -1.90    +59.7967
iter:  14 14:07:19  -852.721117  -2.37  -1.89    +59.7308
iter:  15 14:08:31  -853.867186  -2.48  -2.02    +60.6631
iter:  16 14:09:43  -852.796775  -2.62  -1.99    +60.9400
iter:  17 14:10:55  -852.765057  -2.84  -2.08    +61.8872
iter:  18 14:12:08  -852.918656  -2.80  -2.12    +61.8083
iter:  19 14:13:19  -852.799197  -2.91  -2.14    +62.1982
iter:  20 14:14:31  -852.436031  -3.14  -2.17    +62.9789
iter:  21 14:15:44  -852.671201  -3.14  -2.27    +63.0200
iter:  22 14:16:56  -852.635777  -3.11  -2.27    +63.1510
iter:  23 14:18:09  -852.550398  -3.18  -2.28    +63.0073
iter:  24 14:19:22  -852.537210  -3.30  -2.33    +63.3971
iter:  25 14:20:36  -852.666025  -3.24  -2.38    +63.4536
iter:  26 14:21:48  -852.454155  -3.45  -2.37    +63.3830
iter:  27 14:23:01  -852.509916  -3.64  -2.46    +63.7385
iter:  28 14:23:56  -852.507674c -3.63  -2.47    +63.7417
iter:  29 14:25:07  -852.539691c -3.59  -2.52    +63.8978
iter:  30 14:26:20  -852.492060c -3.89  -2.49    +63.8073
iter:  31 14:27:34  -852.574568c -3.71  -2.59    +63.8158
iter:  32 14:28:46  -852.558291c -3.77  -2.55    +63.7612
iter:  33 14:29:58  -852.562123c -3.84  -2.60    +63.5209
iter:  34 14:31:11  -852.544158c -3.99  -2.60    +63.5667
iter:  35 14:32:24  -852.618385c -3.72  -2.67    +63.4460
iter:  36 14:33:36  -852.553847c -4.06  -2.60    +63.4609
iter:  37 14:34:49  -852.568094c -4.06  -2.71    +63.3489
iter:  38 14:36:01  -852.554182c -4.21  -2.71    +63.3427
iter:  39 14:37:12  -852.552353c -4.36  -2.75    +63.4497
iter:  40 14:38:25  -852.554797c -4.65  -2.78    +63.3516
iter:  41 14:39:38  -852.579990c -4.37  -2.81    +63.3308
iter:  42 14:40:49  -852.569270c -4.43  -2.77    +63.2472
iter:  43 14:42:01  -852.589994c -4.37  -2.82    +63.2243
iter:  44 14:43:12  -852.604643c -4.28  -2.81    +63.1889
iter:  45 14:44:24  -852.602012c -4.25  -2.81    +63.0523
iter:  46 14:45:36  -852.588543c -4.43  -2.81    +63.1091
iter:  47 14:46:48  -852.606764c -4.44  -2.88    +63.0788
iter:  48 14:48:00  -852.593417c -4.45  -2.87    +63.0888
iter:  49 14:49:14  -852.596741c -4.78  -2.91    +63.0009
iter:  50 14:50:28  -852.597812c -4.79  -2.94    +62.9252
iter:  51 14:51:39  -852.611727c -4.61  -2.96    +62.9095
iter:  52 14:52:52  -852.612835c -4.58  -2.94    +62.8156
iter:  53 14:54:07  -852.617603c -4.66  -2.96    +62.7582
iter:  54 14:55:21  -852.641686c -4.21  -3.00    +62.6751
iter:  55 14:56:38  -852.631153c -4.39  -2.90    +62.6829
iter:  56 14:57:56  -852.626413c -4.52  -2.98    +62.7036
iter:  57 14:59:08  -852.623445c -4.69  -3.08    +62.6429
iter:  58 15:00:21  -852.619452c -4.79  -3.11    +62.6980
iter:  59 15:01:34  -852.620102c -5.42  -3.17    +62.6815
iter:  60 15:02:48  -852.625548c -5.02  -3.26    +62.6760
iter:  61 15:04:01  -852.627319c -5.36  -3.21    +62.6199
iter:  62 15:05:14  -852.630243c -5.12  -3.27    +62.5673
iter:  63 15:06:27  -852.637036c -5.08  -3.27    +62.5526
iter:  64 15:07:39  -852.644648c -4.77  -3.25    +62.4891
iter:  65 15:08:51  -852.637377c -5.03  -3.21    +62.4725
iter:  66 15:10:06  -852.645258c -4.97  -3.35    +62.4284
iter:  67 15:11:19  -852.641011c -5.32  -3.29    +62.4213
iter:  68 15:12:33  -852.644526c -5.44  -3.43    +62.3950
iter:  69 15:13:45  -852.647426c -5.81  -3.48    +62.3728
iter:  70 15:14:59  -852.662311c -4.66  -3.49    +62.2735
iter:  71 15:16:13  -852.657563c -5.90  -3.47    +62.3148
iter:  72 15:17:25  -852.655499c -5.56  -3.48    +62.3578
iter:  73 15:18:38  -852.663110c -5.18  -3.49    +62.2937
iter:  74 15:19:51  -852.665217c -5.44  -3.44    +62.2993
iter:  75 15:21:04  -852.668207c -5.24  -3.47    +62.2530
iter:  76 15:22:17  -852.668241c -5.34  -3.49    +62.2730
iter:  77 15:23:31  -852.671907c -5.36  -3.45    +62.2128
iter:  78 15:24:43  -852.674764c -5.39  -3.49    +62.1736
iter:  79 15:25:55  -852.677520c -5.25  -3.58    +62.1565
iter:  80 15:27:11  -852.677649c -5.29  -3.43    +62.1728
iter:  81 15:28:22  -852.679134c -5.53  -3.66    +62.1707
iter:  82 15:29:34  -852.682816c -5.58  -3.73    +62.1581
iter:  83 15:30:46  -852.682789c -5.76  -3.66    +62.1713
iter:  84 15:31:58  -852.684812c -5.78  -3.81    +62.1761
iter:  85 15:33:13  -852.688148c -5.75  -3.80    +62.1724
iter:  86 15:34:26  -852.677491c -4.69  -3.67    +62.2335
iter:  87 15:35:39  -852.688919c -4.74  -3.67    +62.1600
[...]
iter: 107 16:00:07  -852.711413c -5.70  -3.58    +62.1821
iter: 108 16:01:24  -852.712209c -5.78  -3.63    +62.1875
iter: 109 16:02:36  -852.712584c -5.54  -3.65    +62.1902
iter: 110 16:03:50  -852.712275c -5.78  -3.58    +62.1708
iter: 111 16:05:03  -852.711677c -6.05  -3.73    +62.1899
iter: 112 16:06:15  -852.711675c -6.34  -3.77    +62.1841
iter: 113 16:07:28  -852.712427c -6.26  -3.84    +62.1896
iter: 114 16:08:41  -852.712066c -6.67  -3.83    +62.1875
iter: 115 16:09:56  -852.712587c -6.27  -3.88    +62.1832
iter: 116 16:11:09  -852.712276c -6.01  -3.86    +62.1846
iter: 117 16:12:21  -852.713320c -6.01  -3.79    +62.1715
iter: 118 16:13:35  -852.712765c -6.18  -3.84    +62.1718
iter: 119 16:14:49  -852.712149c -6.14  -3.96    +62.1661
iter: 120 16:16:02  -852.712716c -6.21  -3.94    +62.1588
iter: 121 16:17:15  -852.712546c -6.67  -4.00    +62.1578
iter: 122 16:18:27  -852.712782c -6.74  -4.17c   +62.1487
iter: 123 16:19:40  -852.712675c -7.22  -4.18c   +62.1513
iter: 124 16:20:54  -852.712803c -6.99  -4.23c   +62.1437
iter: 125 16:22:07  -852.713042c -6.33  -4.24c   +62.1354
iter: 126 16:23:19  -852.713625c -5.75  -4.27c   +62.1173
iter: 127 16:24:34  -852.713761c -6.38  -4.15c   +62.1111
iter: 128 16:25:45  -852.713690c -7.08  -4.05c   +62.1122
iter: 129 16:26:59  -852.713617c -6.91  -4.05c   +62.1067
iter: 130 16:28:14  -852.713851c -6.58  -4.03c   +62.1000
iter: 131 16:29:27  -852.713628c -6.73  -4.24c   +62.0969
iter: 132 16:30:38  -852.713692c -7.04  -4.48c   +62.0941
iter: 133 16:31:51  -852.713657c -7.25  -4.63c   +62.0852
iter: 134 16:33:04  -852.713714c -7.17  -4.61c   +62.0791
iter: 135 16:34:16  -852.713806c -7.17  -4.65c   +62.0709
iter: 136 16:35:28  -852.713945c -6.75  -4.61c   +62.0611
iter: 137 16:36:41  -852.714595c -5.35  -4.54c   +62.0032
iter: 138 16:37:53  -852.714636c -6.17  -4.23c   +61.9947
iter: 139 16:39:05  -852.714684c -6.53  -4.20c   +61.9869
iter: 140 16:40:17  -852.714740c -6.78  -4.18c   +61.9818
iter: 141 16:41:30  -852.714563c -7.08  -4.15c   +61.9844
iter: 142 16:42:43  -852.714712c -6.82  -4.13c   +61.9834
iter: 143 16:43:56  -852.714769c -6.47  -4.10c   +61.9765
iter: 144 16:45:08  -852.714314c -6.27  -3.92    +61.9797
iter: 145 16:46:23  -852.714737c -6.49  -4.06c   +61.9795
iter: 146 16:47:34  -852.714599c -7.04  -4.04c   +61.9758
iter: 147 16:48:46  -852.714358c -6.93  -4.24c   +61.9810
iter: 148 16:49:59  -852.714496c -7.09  -4.19c   +61.9753
iter: 149 16:51:11  -852.714459c -7.27  -4.26c   +61.9709
iter: 150 16:52:25  -852.714780c -6.73  -4.29c   +61.9712
iter: 151 16:53:38  -852.714483c -6.65  -4.19c   +61.9714
iter: 152 16:54:53  -852.714376c -6.72  -4.17c   +61.9748
iter: 153 16:56:06  -852.714521c -7.15  -4.28c   +61.9676
iter: 154 16:57:20  -852.714354c -7.08  -4.47c   +61.9695
iter: 155 16:58:34  -852.714391c -7.28  -4.37c   +61.9696
iter: 156 16:59:47  -852.714354c -7.81c -4.53c   +61.9649

Converged after 156 iterations.

Dipole moment: (-1.400464, -0.841149, 5.655416) |e|*Ang

Total magnetic moment: (0.000000, 0.000000, 61.964876)
Local magnetic moments:
   0 Co ( 0.000000,  0.000000,  0.421102)
   1 Ni ( 0.000000,  0.000000,  0.125747)
   2 Al ( 0.000000,  0.000000, -0.009101)
   3 Cr ( 0.000000,  0.000000,  0.874691)
   4 Cr ( 0.000000,  0.000000, -1.192260)
   5 Fe ( 0.000000,  0.000000,  2.012001)
   6 Fe ( 0.000000,  0.000000,  1.729853)
   7 Fe ( 0.000000,  0.000000,  1.587284)
   8 Cr ( 0.000000,  0.000000, -1.026811)
   9 Fe ( 0.000000,  0.000000,  1.668926)
  10 Fe ( 0.000000,  0.000000,  2.045381)
  11 Al ( 0.000000,  0.000000, -0.019255)
  12 Co ( 0.000000,  0.000000, -0.394956)
  13 Fe ( 0.000000,  0.000000,  1.923962)
  14 Al ( 0.000000,  0.000000, -0.010713)
  15 Al ( 0.000000,  0.000000, -0.029552)
  16 Cr ( 0.000000,  0.000000, -1.391698)
  17 Cr ( 0.000000,  0.000000,  1.030011)
  18 Al ( 0.000000,  0.000000, -0.013198)
  19 Co ( 0.000000,  0.000000,  1.017134)
  20 Co ( 0.000000,  0.000000,  0.788611)
  21 Cr ( 0.000000,  0.000000, -0.465741)
  22 Cr ( 0.000000,  0.000000,  0.770479)
  23 Cr ( 0.000000,  0.000000, -1.374831)
  24 Fe ( 0.000000,  0.000000,  1.894283)
  25 Al ( 0.000000,  0.000000, -0.016411)
  26 Ni ( 0.000000,  0.000000,  0.225629)
  27 Cr ( 0.000000,  0.000000, -1.640487)
  28 Fe ( 0.000000,  0.000000,  2.120362)
  29 Ni ( 0.000000,  0.000000,  0.190974)
  30 Co ( 0.000000,  0.000000,  0.811093)
  31 Fe ( 0.000000,  0.000000,  1.937221)
  32 Fe ( 0.000000,  0.000000,  1.654977)
  33 Cr ( 0.000000,  0.000000, -0.053771)
  34 Fe ( 0.000000,  0.000000,  1.590970)
  35 Cr ( 0.000000,  0.000000, -1.177350)
  36 Ni ( 0.000000,  0.000000,  0.318361)
  37 Ni ( 0.000000,  0.000000,  0.162183)
  38 Co ( 0.000000,  0.000000,  1.509986)
  39 Ni ( 0.000000,  0.000000,  0.332497)
  40 Co ( 0.000000,  0.000000,  1.447460)
  41 Ni ( 0.000000,  0.000000,  0.442406)
  42 Co ( 0.000000,  0.000000,  1.346625)
  43 Ni ( 0.000000,  0.000000,  0.208536)
  44 Cr ( 0.000000,  0.000000, -0.579951)
  45 Co ( 0.000000,  0.000000,  0.914873)
  46 Al ( 0.000000,  0.000000, -0.009121)
  47 Ni ( 0.000000,  0.000000,  0.031746)
  48 Cr ( 0.000000,  0.000000, -1.497982)
  49 Fe ( 0.000000,  0.000000,  1.994774)
  50 Fe ( 0.000000,  0.000000,  2.443634)
  51 Ni ( 0.000000,  0.000000,  0.297010)
  52 Ni ( 0.000000,  0.000000,  0.320538)
  53 Ni ( 0.000000,  0.000000,  0.400486)
  54 Co ( 0.000000,  0.000000,  1.357193)
  55 Cr ( 0.000000,  0.000000, -0.683041)
  56 Cr ( 0.000000,  0.000000, -0.816034)
  57 Co ( 0.000000,  0.000000,  0.838152)
  58 Cr ( 0.000000,  0.000000,  0.952277)
  59 Fe ( 0.000000,  0.000000, -1.486575)
[...]
  93 Ni ( 0.000000,  0.000000,  0.306119)
  94 Cr ( 0.000000,  0.000000,  0.757981)
  95 Cr ( 0.000000,  0.000000, -1.445917)
  96 Co ( 0.000000,  0.000000,  1.237434)
  97 Ni ( 0.000000,  0.000000,  0.223819)
  98 Ni ( 0.000000,  0.000000,  0.407514)
  99 Co ( 0.000000,  0.000000,  1.549649)
 100 Co ( 0.000000,  0.000000,  1.596016)
 101 Ni ( 0.000000,  0.000000,  0.415538)
 102 Fe ( 0.000000,  0.000000,  2.367762)
 103 Co ( 0.000000,  0.000000,  1.477481)
 104 Co ( 0.000000,  0.000000,  1.297164)
 105 Ni ( 0.000000,  0.000000,  0.304139)
 106 Fe ( 0.000000,  0.000000,  2.027478)
 107 Fe ( 0.000000,  0.000000,  2.152450)

Energy contributions relative to reference atoms: (reference = -3548577.034362)

Kinetic:       +183.896861
Potential:     -216.238075
External:        +0.000000
XC:            -854.300514
Entropy (-ST):   -4.416072
Local:          +36.135410
Free energy:   -854.922390
Extrapolated:  -852.714354

Spin contamination: 26.321510 electrons
Showing only first 2 kpts
                      Up                     Down
 Kpt  Band  Eigenvalues  Occupancy  Eigenvalues  Occupancy
  0   488      9.54847    0.99386     10.41675    0.02671
  0   489      9.55930    0.99317     10.42667    0.02425
  0   490      9.57080    0.99234     10.43829    0.02165
  0   491      9.58331    0.99133     10.44957    0.01939

  1   488      9.54429    0.99411     10.41422    0.02738
  1   489      9.55611    0.99338     10.42931    0.02364
  1   490      9.58753    0.99096     10.44267    0.02074
  1   491      9.59353    0.99040     10.44956    0.01939

Fermi level: 10.05720

No gap

Forces in eV/Ang:
  0 Co    0.22042   -0.58173   -0.03425
  1 Ni    0.13031    0.05203    0.11373
  2 Al   -0.41257   -0.27858    0.91200
  3 Cr   -0.40932    0.10108   -1.12041
  4 Cr    0.68896    0.18173   -0.61156
  5 Fe    0.47847   -0.16084    0.15582
  6 Fe   -0.08738    0.01441    0.14908
  7 Fe   -0.32961    0.01015    0.01958
  8 Cr   -0.83051   -0.46811    0.19666
  9 Fe    0.01269   -0.23537    0.08418
 10 Fe   -0.14298    0.26247    0.03794
 11 Al    0.67695   -0.33021   -0.20537
 12 Co    0.07077   -0.02869   -0.07951
 13 Fe   -0.09714    0.39857    0.31685
 14 Al   -0.08290    0.03862    0.05442
 15 Al   -0.62926   -0.12992   -0.20985
 16 Cr   -0.46288   -0.41712    0.00029
 17 Cr    0.44140    0.34431    0.01294
 18 Al    0.11247   -0.42067    0.00619
 19 Co    0.03789    0.01076    0.21352
 20 Co   -0.00169    0.12913   -0.01041
 21 Cr   -0.18441    0.81286   -0.01811
 22 Cr    0.00205    0.74820    0.64905
 23 Cr    0.35258    0.32952   -0.20028
 24 Fe   -0.30274    0.19864   -0.34688
 25 Al    0.40716    0.08689    1.09169
 26 Ni    0.02811   -0.11509   -0.02453
 27 Cr   -0.00296   -0.28022   -0.76460
 28 Fe    0.00747    0.41322   -0.00912
 29 Ni    0.03842    0.04171   -0.01828
 30 Co    0.14007    0.03930   -0.07286
 31 Fe   -0.03385    0.32769    0.25621
 32 Fe    0.11495    0.06308    0.29401
 33 Cr   -0.09454   -0.38584    0.36711
 34 Fe   -0.47045   -0.57353   -0.29862
 35 Cr   -0.37607   -0.66823   -0.03145
 36 Ni    0.17551   -0.14458   -0.07246
 37 Ni    0.06943   -0.21781   -0.04582
 38 Co    0.44038   -0.17382   -0.24137
 39 Ni   -0.00286   -0.03332    0.18315
 40 Co    0.31345   -0.06137    0.59328
 41 Ni   -0.03159   -0.05102   -0.10064
 42 Co    0.02879   -0.13773   -0.02276
 43 Ni    0.02797   -0.04442    0.16688
 44 Cr   -0.74154    0.02754   -0.67552
 45 Co   -0.19632    0.19276   -0.03109
 46 Al    0.69632    0.55267    0.36695
 47 Ni    0.01073    0.13207    0.00092
 48 Cr   -0.79889    0.02449    0.82511
 49 Fe    0.19807    0.36579   -0.10577
 50 Fe    0.03220    0.04558   -0.23267
 51 Ni    0.16930    0.04483   -0.10652
 52 Ni    0.16509    0.05433    0.01671
 53 Ni    0.10797    0.08401    0.06161
 54 Co    0.21008    0.12468    0.11103
 55 Cr   -0.08616    0.49945    0.44727
 56 Cr    0.43130   -0.10726    0.81315
 57 Co   -0.21382    0.26472   -0.06405
 58 Cr   -0.17977   -0.27120   -0.26012
 59 Fe   -0.11143    0.05188    0.11652
[...]
 93 Ni   -0.00485    0.04636   -0.00808
 94 Cr    0.19321    0.43540   -0.30305
 95 Cr   -0.15578    0.38221    0.26828
 96 Co    0.03379    0.11297    0.12700
 97 Ni    0.02399    0.16616   -0.10856
 98 Ni   -0.01505    0.07415   -0.11830
 99 Co    0.34628   -0.33748   -0.14393
100 Co    0.04114    0.22731   -0.15579
101 Ni   -0.26196   -0.05192   -0.01039
102 Fe    0.29964   -0.00632   -0.20417
103 Co    0.06626    0.13315   -0.26195
104 Co   -0.13872   -0.19990   -0.09854
105 Ni   -0.06424    0.07278    0.02842
106 Fe   -0.01605   -0.25700    0.06852
107 Fe   -0.01592   -0.44547   -0.37925

Date: Sat Apr  8 17:00:06 2023