User:   c.zeng@d0006
Date:   Fri Apr 14 16:29:39 2023
Arch:   x86_64
Pid:    258168
CWD:    /home/c.zeng/projects/hea-corrosion/hea-mlp/data-curation/bulk-mcmc/dft-jobs/144
Python: 3.8.1
gpaw:   /home/c.zeng/usr/installs/gpaw/source/gpaw-22.8.0/gpaw
_gpaw:  /home/c.zeng/usr/installs/gpaw/source/gpaw-22.8.0/
        _gpaw.cpython-38-x86_64-linux-gnu.so
ase:    /home/c.zeng/.local/lib/python3.8/site-packages/ase-3.22.1-py3.8.egg/ase (version 3.22.1)
numpy:  /shared/centos7/python/3.8.1/lib/python3.8/site-packages/numpy (version 1.17.4)
scipy:  /shared/centos7/python/3.8.1/lib/python3.8/site-packages/scipy (version 1.4.1)
units:  Angstrom and eV
cores: 30
OpenMP: False
OMP_NUM_THREADS: 1

Input parameters:
  convergence: {energy: 0.0001}
  kpts: [2 2 2]
  maxiter: 666
  mode: {ecut: 350.0,
         name: pw}
  occupations: {fixmagmom: False,
                name: fermi-dirac,
                width: 0.1}
  spinpol: True
  xc: PBE

System changes: positions, numbers, cell, pbc, initial_charges, initial_magmoms

Initialize ...

species:
  Co:
    name: Cobalt
    id: 339d20d5b0b93d2de9531a1bee871d91
    Z: 27.0
    valence: 9
    core: 18
    charge: 0.0
    file: /home/c.zeng/usr/data/gpaw-setups-0.9.20000/Co.PBE.gz
    compensation charges: {type: gauss,
                           rc: 0.32,
                           lmax: 2}
    cutoffs: {filter: 1.87,
              core: 2.55}
    valence states:
      #              energy  rcut
      - 4s(2.00)    -5.469   1.005
      - 4p(0.00)    -1.277   1.058
      - 3d(7.00)    -8.205   1.005
      -  s          21.742   1.005
      -  p          25.934   1.058
      -  d          19.007   1.005

    # Using partial waves for Co as LCAO basis

  Fe:
    name: Iron
    id: 37abbd8d6c3c35915a9b583b742da910
    Z: 26.0
    valence: 8
    core: 18
    charge: 0.0
    file: /home/c.zeng/usr/data/gpaw-setups-0.9.20000/Fe.PBE.gz
    compensation charges: {type: gauss,
                           rc: 0.33,
                           lmax: 2}
    cutoffs: {filter: 2.06,
              core: 2.67}
    valence states:
      #              energy  rcut
      - 4s(2.00)    -5.291   1.164
      - 4p(0.00)    -1.326   1.058
      - 3d(6.00)    -7.505   1.058
      -  s          21.920   1.164
      -  p          25.885   1.058
      -  d          19.706   1.058

[...]

  Ni:
    name: Nickel
    id: 0d9f38a9d6e76a2886f07bb4381f212b
    Z: 28.0
    valence: 16
    core: 12
    charge: 0.0
    file: /home/c.zeng/usr/data/gpaw-setups-0.9.20000/Ni.PBE.gz
    compensation charges: {type: gauss,
                           rc: 0.36,
                           lmax: 2}
    cutoffs: {filter: 2.14,
              core: 1.98}
    valence states:
      #              energy  rcut
      - 4s(2.00)    -5.642   1.164
      - 3p(6.00)   -71.394   1.207
      - 4p(0.00)    -1.226   1.207
      - 3d(8.00)    -8.875   1.138
      -  s          21.570   1.164
      -  d          18.337   1.138

[...]

  Al:
    name: Aluminium
    id: 0292cae29f5d6237e50f6abdd43a7bdd
    Z: 13.0
    valence: 3
    core: 10
    charge: 0.0
    file: /home/c.zeng/usr/data/gpaw-setups-0.9.20000/Al.PBE.gz
    compensation charges: {type: gauss,
                           rc: 0.34,
                           lmax: 2}
    cutoffs: {filter: 1.91,
              core: 2.36}
    valence states:
      #              energy  rcut
      - 3s(2.00)    -7.753   1.085
      - 3p(1.00)    -2.712   1.085
      -  s          19.459   1.085
      -  p          24.499   1.085
      -  d           0.000   1.085

[...]

  Cr:
    name: Chromium
    id: 33f258bda2ca9f93018e70263a35547b
    Z: 24.0
    valence: 6
    core: 18
    charge: 0.0
    file: /home/c.zeng/usr/data/gpaw-setups-0.9.20000/Cr.PBE.gz
    compensation charges: {type: gauss,
                           rc: 0.35,
                           lmax: 2}
    cutoffs: {filter: 2.14,
              core: 3.04}
    valence states:
      #              energy  rcut
      - 4s(1.00)    -4.007   1.164
      - 4p(0.00)    -0.989   1.217
      - 3d(5.00)    -2.913   1.111
      -  s          23.205   1.164
      -  p          26.223   1.217
      -  d          24.299   1.111

    # Using partial waves for Cr as LCAO basis

Reference energy: -3548577.034362  # eV

Spin-polarized calculation.
Magnetic moment: 136.400000

Convergence criteria:
 Maximum [total energy] change in last 3 cyles: 0.0001 eV / electron
 Maximum integral of absolute [dens]ity change: 0.0001 electrons / valence electron
 Maximum integral of absolute [eigenst]ate change: 4e-08 eV^2 / valence electron
 Maximum number of scf [iter]ations: 666
 (Square brackets indicate name in SCF output, whereas a 'c' in
 the SCF output indicates the quantity has converged.)

Symmetries present (total): 1

  ( 1  0  0)
  ( 0  1  0)
  ( 0  0  1)

8 k-points: 2 x 2 x 2 Monkhorst-Pack grid
4 k-points in the irreducible part of the Brillouin zone
       k-points in crystal coordinates                weights
   0:     0.25000000   -0.25000000   -0.25000000          2/8
   1:     0.25000000   -0.25000000    0.25000000          2/8
   2:     0.25000000    0.25000000   -0.25000000          2/8
   3:     0.25000000    0.25000000    0.25000000          2/8

Wave functions: Plane wave expansion
  Cutoff energy: 350.000 eV
  Number of coefficients (min, max): 18331, 18331
  Pulay-stress correction: 0.000000 eV/Ang^3 (de/decut=0.000000)
  Using FFTW library
  ScaLapack parameters: grid=1x1, blocksize=None
  Wavefunction extrapolation:
    Improved wavefunction reuse through dual PAW basis

Occupation numbers: Fermi-Dirac:
  width: 0.1000  # eV

Eigensolver
   Davidson(niter=2)

Densities:
  Coarse grid: 48*48*48 grid
  Fine grid: 96*96*96 grid
  Total Charge: 0.000000

Density mixing:
  Method: difference
  Backend: pulay
  Linear mixing parameter: 0.05
  old densities: 5
  Damping of long wavelength oscillations: 50

Hamiltonian:
  XC and Coulomb potentials evaluated on a 96*96*96 grid
  Using the PBE Exchange-Correlation functional
  External potential:
    NoExternalPotential

XC parameters: PBE with 2 nearest neighbor stencil

Total number of cores used: 30
Parallelization over k-points: 2
Domain decomposition: 5 x 3 x 1

Number of atoms: 108
Number of atomic orbitals: 994
Number of bands in calculation: 674
Number of valence electrons: 980
Bands to converge: occupied

... initialized

Initializing position-dependent things.

Density initialized from atomic densities
Creating initial wave functions:
  674 bands from LCAO basis set

        Co-------Co---------------.
       /|  Co       Fe            |
      / |   AlCr     CrCo     CrCo|
     / Ni       CAl     Ni        |
    /   CCo      Ni      FNi      |
   /    | CoCo     Co      CoCo   |
  /   Co|  NiFeAl   NiNi    CrCr  |
 *      Cr  CrCoNi   CoNiAl   FeNi|
 |Fe   NiNiCr   CrACr   FeCr      |
 | Fe   | NiNi   NiNiCr    Cr     |
 |     Co  CoFeNi   FeNiAl  NiAl  |
 |      Fe    FeNi   FeAlFe   AlCr|
 |Cr    |CoNi   NFeFe   FeFe     Fe
 |      .-FeCr-----FeCr--FeCoNi---.
 |     Cr    CoCr     FeCo  Cr Fe/
 |    / Al      Co       Cr     /
 Cr  /            Cr           /
 |  /      Ni      Cr       Fe/
 | / Co              Fe      /
 |/                     Co  /

Positions:
   0 Co    10.732479   -0.010418   10.721263    ( 0.0000,  0.0000,  2.1000)
   1 Fe    10.706231    1.787006    1.816653    ( 0.0000,  0.0000,  1.5000)
   2 Co     1.827923    0.046024    1.820803    ( 0.0000,  0.0000,  0.0000)
   3 Co     1.781666    1.794790   10.668295    ( 0.0000,  0.0000,  0.0000)
   4 Co     3.605675   -0.024615   10.696977    ( 0.0000,  0.0000,  0.0000)
   5 Ni     3.626284    1.755611    1.827590    ( 0.0000,  0.0000,  2.0000)
   6 Fe     5.347186   -0.032870    1.798425    ( 0.0000,  0.0000,  2.0000)
   7 Al     5.383406    1.755353   -0.004078    ( 0.0000,  0.0000,  2.0000)
   8 Fe     7.108694   -0.021619    0.052076    ( 0.0000,  0.0000,  0.0000)
   9 Cr     7.129131    1.783639    1.838109    ( 0.0000,  0.0000,  2.0000)
  10 Al     8.928414   -0.004386    1.840918    ( 0.0000,  0.0000,  2.0000)
  11 Co     8.945645    1.852509    0.063651    ( 0.0000,  0.0000,  0.0000)
  12 Co    10.721403    3.615743   10.707625    ( 0.0000,  0.0000,  2.1000)
  13 Fe    10.714905    5.407607    1.816064    ( 0.0000,  0.0000,  2.0000)
  14 Al     1.786931    3.537020    1.885127    ( 0.0000,  0.0000,  0.0000)
  15 Co     1.774396    5.426328   10.657058    ( 0.0000,  0.0000,  0.0000)
  16 Co     3.564340    3.564490   10.690115    ( 0.0000,  0.0000,  0.0000)
  17 Co     3.570334    5.434059    1.813919    ( 0.0000,  0.0000,  0.0000)
  18 Co     5.350145    3.574934    1.808708    ( 0.0000,  0.0000,  0.0000)
  19 Al     5.345084    5.410577   10.703464    ( 0.0000,  0.0000,  2.1000)
  20 Fe     7.157695    3.624514    0.002553    ( 0.0000,  0.0000,  2.1000)
  21 Fe     7.157792    5.380200    1.803904    ( 0.0000,  0.0000,  0.0000)
  22 Cr     8.944980    3.620622    1.842988    ( 0.0000,  0.0000,  0.0000)
  23 Ni     8.940316    5.370571   -0.005231    ( 0.0000,  0.0000,  0.0000)
  24 Co    10.674578    7.138041   10.683446    ( 0.0000,  0.0000,  2.0000)
  25 Fe    10.668413    8.869012    1.800001    ( 0.0000,  0.0000,  0.0000)
  26 Fe     1.807904    7.157309    1.806960    ( 0.0000,  0.0000,  1.5000)
  27 Co     1.808086    8.895217   10.689064    ( 0.0000,  0.0000,  0.0000)
  28 Cr     3.612462    7.185391   10.698339    ( 0.0000,  0.0000,  2.0000)
  29 Ni     3.598277    8.905404    1.808097    ( 0.0000,  0.0000,  1.5000)
  30 Fe     5.362229    7.149643    1.778835    ( 0.0000,  0.0000,  2.1000)
  31 Fe     5.368084    8.904170   10.708750    ( 0.0000,  0.0000,  2.0000)
  32 Co     7.127640    7.124156   10.700741    ( 0.0000,  0.0000,  2.0000)
  33 Fe     7.139982    8.914904    1.783157    ( 0.0000,  0.0000,  0.0000)
  34 Co     8.884516    7.107975    1.798232    ( 0.0000,  0.0000,  2.0000)
  35 Cr     8.895410    8.880302    0.005476    ( 0.0000,  0.0000,  0.0000)
  36 Cr    10.737840    0.006469    3.587908    ( 0.0000,  0.0000,  1.5000)
  37 Cr     0.009110    1.816214    5.359506    ( 0.0000,  0.0000,  1.5000)
  38 Cr     1.833434   -0.010553    5.335488    ( 0.0000,  0.0000,  2.1000)
  39 Cr     1.814369    1.777409    3.664755    ( 0.0000,  0.0000,  1.5000)
  40 Ni     3.608002   -0.027958    3.615958    ( 0.0000,  0.0000,  2.1000)
  41 Ni     3.597397    1.774364    5.368180    ( 0.0000,  0.0000,  1.5000)
  42 Co     5.355185   -0.018813    5.365682    ( 0.0000,  0.0000,  2.1000)
  43 Cr     5.354005    1.762698    3.609396    ( 0.0000,  0.0000,  1.5000)
  44 Cr     7.096449    0.004839    3.553950    ( 0.0000,  0.0000,  0.0000)
  45 Fe     7.124574    1.817747    5.354692    ( 0.0000,  0.0000,  2.1000)
  46 Fe     8.888698   10.712332    5.289714    ( 0.0000,  0.0000,  0.0000)
  47 Co     8.931727    1.815495    3.558979    ( 0.0000,  0.0000,  1.5000)
  48 Ni    10.700248    3.599864    3.631730    ( 0.0000,  0.0000,  0.0000)
  49 Al    -0.007893    5.382698    5.388017    ( 0.0000,  0.0000,  2.0000)
  50 Fe     1.794265    3.594073    5.365264    ( 0.0000,  0.0000,  2.0000)
  51 Co     1.782020    5.398675    3.628600    ( 0.0000,  0.0000,  1.5000)
[...]
iter: 144 20:00:29  -851.438399c -6.11  -3.80    +64.4360
iter: 145 20:01:57  -851.440374c -5.42  -3.82    +64.4263
iter: 146 20:03:26  -851.439694c -5.63  -3.62    +64.4576
iter: 147 20:04:55  -851.440281c -5.89  -3.76    +64.4745
iter: 148 20:06:23  -851.441016c -5.76  -3.97    +64.4865
iter: 149 20:07:53  -851.441265c -6.35  -3.81    +64.4889
iter: 150 20:09:21  -851.442438c -5.97  -4.03c   +64.4904
iter: 151 20:10:50  -851.442857c -6.45  -4.00    +64.4948
iter: 152 20:12:19  -851.442843c -6.71  -3.92    +64.4720
iter: 153 20:13:47  -851.444147c -6.07  -3.93    +64.5062
iter: 154 20:15:16  -851.443856c -6.71  -3.86    +64.4874
iter: 155 20:16:45  -851.445225c -5.90  -3.90    +64.4931
iter: 156 20:18:14  -851.446415c -5.82  -3.89    +64.5179
iter: 157 20:19:42  -851.446426c -6.17  -3.77    +64.5211
iter: 158 20:21:11  -851.447765c -5.96  -3.86    +64.5351
iter: 159 20:22:39  -851.448459c -5.96  -3.84    +64.5270
iter: 160 20:24:08  -851.449127c -6.14  -3.88    +64.5294
iter: 161 20:25:37  -851.449557c -5.99  -3.72    +64.5231
iter: 162 20:27:05  -851.450638c -5.83  -3.77    +64.5371
iter: 163 20:28:34  -851.450347c -6.15  -3.74    +64.5391
iter: 164 20:30:02  -851.451953c -5.83  -3.93    +64.5553
iter: 165 20:31:31  -851.452641c -5.88  -4.01c   +64.5569
iter: 166 20:33:00  -851.453422c -6.14  -4.13c   +64.5634
iter: 167 20:34:28  -851.454279c -6.07  -4.17c   +64.5741
iter: 168 20:35:56  -851.454134c -6.91  -4.22c   +64.5700
iter: 169 20:37:25  -851.455045c -6.27  -4.22c   +64.5768
iter: 170 20:38:54  -851.453169c -5.89  -4.22c   +64.5647
iter: 171 20:40:22  -851.449588c -5.05  -4.22c   +64.5470
iter: 172 20:41:51  -851.446484c -4.93  -4.14c   +64.5002
iter: 173 20:43:19  -851.441568c -4.31  -3.92    +64.3860
iter: 174 20:44:48  -851.440899c -4.80  -3.60    +64.3256
iter: 175 20:46:16  -851.440496c -4.78  -3.52    +64.2256
iter: 176 20:47:45  -851.440629c -4.92  -3.45    +64.1523
iter: 177 20:49:13  -851.442819c -4.53  -3.40    +64.0321
iter: 178 20:50:42  -851.441340c -5.46  -3.29    +64.0752
iter: 179 20:52:10  -851.446809c -5.10  -3.34    +64.0502
iter: 180 20:53:39  -851.447891c -4.99  -3.21    +64.0989
iter: 181 20:55:07  -851.453875c -4.71  -3.18    +64.1044
iter: 182 20:56:36  -851.440769c -4.46  -3.11    +64.0684
iter: 183 20:58:04  -851.439393c -4.70  -3.27    +64.0359
iter: 184 20:59:32  -851.433379c -5.19  -3.26    +64.1471
iter: 185 21:01:01  -851.436005c -5.40  -3.59    +64.1723
iter: 186 21:02:30  -851.434955c -5.44  -3.56    +64.1807
iter: 187 21:03:58  -851.436842c -5.37  -3.55    +64.2187
iter: 188 21:05:26  -851.436337c -5.44  -3.48    +64.2266
iter: 189 21:06:55  -851.437498c -5.33  -3.56    +64.2510
iter: 190 21:08:24  -851.435734c -5.45  -3.57    +64.2360
iter: 191 21:09:52  -851.435703c -5.74  -3.67    +64.2746
iter: 192 21:11:18  -851.437256c -5.72  -3.75    +64.3066
iter: 193 21:12:42  -851.436440c -6.00  -3.73    +64.3107
iter: 194 21:14:07  -851.436799c -5.90  -3.88    +64.3277
iter: 195 21:15:32  -851.436729c -6.30  -3.86    +64.3386
iter: 196 21:16:57  -851.437931c -5.93  -3.99    +64.3694
iter: 197 21:18:21  -851.437844c -6.25  -3.89    +64.3679
iter: 198 21:19:46  -851.437845c -6.09  -4.00    +64.3818
iter: 199 21:21:11  -851.438336c -6.31  -4.03c   +64.3984
iter: 200 21:22:36  -851.438601c -6.50  -4.10c   +64.4077
iter: 201 21:24:01  -851.439056c -6.31  -4.17c   +64.4168
iter: 202 21:25:26  -851.439097c -6.71  -4.22c   +64.4201
iter: 203 21:26:51  -851.439660c -6.35  -4.22c   +64.4369
iter: 204 21:28:16  -851.439917c -6.79  -4.23c   +64.4405
iter: 205 21:29:42  -851.440308c -6.24  -4.28c   +64.4479
iter: 206 21:31:07  -851.440242c -6.94  -4.19c   +64.4465
iter: 207 21:32:32  -851.440877c -6.28  -4.31c   +64.4570
iter: 208 21:33:57  -851.440922c -6.85  -4.21c   +64.4575
iter: 209 21:35:22  -851.441322c -6.30  -4.39c   +64.4567
iter: 210 21:36:47  -851.441154c -7.03  -4.26c   +64.4557
iter: 211 21:38:12  -851.441850c -6.38  -4.40c   +64.4664
iter: 212 21:39:37  -851.441549c -7.31  -4.38c   +64.4620
iter: 213 21:41:03  -851.436067c -4.37  -4.43c   +64.3468
iter: 214 21:42:28  -851.434145c -4.44  -4.00    +64.2760
iter: 215 21:43:53  -851.433162c -4.38  -3.75    +64.1928
iter: 216 21:45:18  -851.433230c -4.86  -3.57    +64.1673
iter: 217 21:46:43  -851.433421c -5.15  -3.52    +64.1611
iter: 218 21:48:07  -851.433938c -5.15  -3.49    +64.1480
iter: 219 21:49:32  -851.433357c -5.86  -3.44    +64.1471
iter: 220 21:50:57  -851.432156c -5.83  -3.46    +64.1533
iter: 221 21:52:22  -851.444761c -4.90  -3.46    +64.1534
iter: 222 21:53:48  -851.432307c -4.95  -3.18    +64.1787
iter: 223 21:55:14  -851.437687c -4.74  -3.37    +64.2056
iter: 224 21:56:39  -851.432252c -4.93  -3.26    +64.1889
iter: 225 21:58:04  -851.428118c -5.42  -3.35    +64.2334
iter: 226 21:59:30  -851.429428c -5.67  -3.67    +64.2642
iter: 227 22:00:55  -851.428790c -5.64  -3.67    +64.2772
iter: 228 22:02:20  -851.429325c -5.83  -3.65    +64.2997
iter: 229 22:03:46  -851.429901c -5.67  -3.73    +64.3079
iter: 230 22:05:11  -851.430238c -5.67  -3.65    +64.3343
iter: 231 22:06:37  -851.429804c -5.79  -3.71    +64.3392
iter: 232 22:08:02  -851.429192c -6.02  -3.80    +64.3430
iter: 233 22:09:28  -851.430357c -6.03  -3.82    +64.3689
iter: 234 22:10:53  -851.429663c -6.17  -3.87    +64.3745
iter: 235 22:12:18  -851.430190c -6.31  -3.99    +64.3994
iter: 236 22:13:44  -851.430094c -6.45  -4.01c   +64.4033
iter: 237 22:15:09  -851.430520c -6.20  -4.04c   +64.4184
iter: 238 22:16:34  -851.430828c -6.39  -3.97    +64.4245
iter: 239 22:17:59  -851.430494c -6.44  -4.07c   +64.4289
iter: 240 22:19:24  -851.431016c -6.42  -4.15c   +64.4399
iter: 241 22:20:49  -851.430851c -6.81  -4.12c   +64.4425
iter: 242 22:22:13  -851.431193c -6.51  -4.29c   +64.4567
iter: 243 22:23:38  -851.431217c -6.96  -4.31c   +64.4551
iter: 244 22:25:03  -851.431354c -6.65  -4.31c   +64.4615
iter: 245 22:26:28  -851.431707c -6.56  -4.36c   +64.4644
iter: 246 22:27:54  -851.431561c -7.24  -4.35c   +64.4639
iter: 247 22:29:19  -851.431799c -6.72  -4.37c   +64.4694
iter: 248 22:30:44  -851.431742c -7.17  -4.47c   +64.4688
iter: 249 22:32:09  -851.431989c -6.66  -4.39c   +64.4748
iter: 250 22:33:34  -851.432103c -6.86  -4.56c   +64.4752
iter: 251 22:34:59  -851.432140c -6.75  -4.62c   +64.4765
iter: 252 22:36:24  -851.432359c -6.82  -4.49c   +64.4779
iter: 253 22:37:49  -851.432485c -6.83  -4.72c   +64.4774
iter: 254 22:39:14  -851.432146c -6.50  -4.69c   +64.4749
iter: 255 22:40:39  -851.430974c -5.20  -4.75c   +64.4669
iter: 256 22:42:04  -851.429600c -4.64  -4.39c   +64.4434
iter: 257 22:43:30  -851.429300c -5.09  -3.93    +64.4284
iter: 258 22:44:54  -851.428882c -4.73  -3.85    +64.3821
iter: 259 22:46:20  -851.428942c -5.11  -3.68    +64.3579
iter: 260 22:47:45  -851.428901c -5.69  -3.63    +64.3789
iter: 261 22:49:10  -851.428837c -5.99  -3.69    +64.3614
iter: 262 22:50:34  -851.428973c -6.25  -3.64    +64.3708
iter: 263 22:51:59  -851.429385c -5.91  -3.68    +64.3702
iter: 264 22:53:24  -851.428864c -6.45  -3.65    +64.3671
iter: 265 22:54:49  -851.433342c -5.09  -3.67    +64.3581
iter: 266 22:56:15  -851.427593c -5.42  -3.34    +64.3512
iter: 267 22:57:40  -851.433292c -5.11  -3.67    +64.3732
iter: 268 22:59:05  -851.427835c -5.36  -3.40    +64.3714
iter: 269 23:00:30  -851.426801c -5.91  -3.62    +64.3468
iter: 270 23:01:55  -851.427213c -6.15  -3.97    +64.3612
iter: 271 23:03:21  -851.427466c -6.15  -3.89    +64.3579
iter: 272 23:04:46  -851.427570c -6.19  -3.94    +64.3643
iter: 273 23:06:11  -851.427660c -6.10  -3.96    +64.3669
iter: 274 23:07:37  -851.428427c -6.03  -3.86    +64.3782
iter: 275 23:09:02  -851.427968c -6.22  -3.92    +64.3890
iter: 276 23:10:27  -851.427992c -6.30  -4.06c   +64.3845
iter: 277 23:11:52  -851.428246c -6.54  -4.11c   +64.3937
iter: 278 23:13:18  -851.428397c -6.57  -4.24c   +64.3975
iter: 279 23:14:44  -851.428477c -6.58  -4.30c   +64.4002
iter: 280 23:16:09  -851.428563c -6.83  -4.36c   +64.4037
iter: 281 23:17:35  -851.428952c -6.42  -4.44c   +64.4077
iter: 282 23:19:00  -851.428795c -7.31  -4.31c   +64.4056
iter: 283 23:20:25  -851.428820c -6.89  -4.54c   +64.4034
iter: 284 23:21:51  -851.428964c -7.04  -4.48c   +64.4112
iter: 285 23:23:18  -851.429298c -6.52  -4.61c   +64.4204
iter: 286 23:24:45  -851.429321c -7.07  -4.49c   +64.4221
iter: 287 23:26:11  -851.429494c -6.84  -4.58c   +64.4270
iter: 288 23:27:38  -851.429021c -6.12  -4.48c   +64.4171
iter: 289 23:29:05  -851.428630c -6.21  -4.53c   +64.4002
iter: 290 23:30:32  -851.428973c -6.69  -4.65c   +64.4093
iter: 291 23:31:58  -851.428364c -6.01  -4.74c   +64.3904
iter: 292 23:33:25  -851.427890c -5.91  -4.55c   +64.3740
iter: 293 23:34:51  -851.427987c -7.09  -4.42c   +64.3772
iter: 294 23:36:18  -851.429424c -5.11  -4.45c   +64.4152
iter: 295 23:37:45  -851.429152c -6.56  -4.33c   +64.4054
iter: 296 23:39:12  -851.429667c -5.92  -4.49c   +64.4174
iter: 297 23:40:38  -851.429078c -6.03  -4.28c   +64.4030
iter: 298 23:42:05  -851.429598c -6.05  -4.59c   +64.4167
iter: 299 23:43:32  -851.428940c -5.99  -4.35c   +64.4007
iter: 300 23:44:59  -851.429138c -7.24  -4.52c   +64.4071
iter: 301 23:46:25  -851.429263c -7.29  -4.54c   +64.4100
iter: 302 23:47:52  -851.429419c -6.71  -4.63c   +64.4144
iter: 303 23:49:19  -851.429561c -6.82  -4.31c   +64.4180
iter: 304 23:50:46  -851.429736c -7.08  -4.52c   +64.4213
iter: 305 23:52:12  -851.429637c -7.69c -4.41c   +64.4193

Converged after 305 iterations.

Dipole moment: (-1.857214, 13.105379, 14.539398) |e|*Ang

Total magnetic moment: (0.000000, 0.000000, 64.419276)
Local magnetic moments:
   0 Co ( 0.000000,  0.000000,  1.041668)
   1 Fe ( 0.000000,  0.000000,  2.193744)
   2 Co ( 0.000000,  0.000000,  1.438797)
   3 Co ( 0.000000,  0.000000,  1.099945)
   4 Co ( 0.000000,  0.000000,  1.089465)
   5 Ni ( 0.000000,  0.000000,  0.192278)
   6 Fe ( 0.000000,  0.000000,  1.919493)
   7 Al ( 0.000000,  0.000000, -0.020003)
   8 Fe ( 0.000000,  0.000000, -1.380273)
   9 Cr ( 0.000000,  0.000000,  0.930769)
  10 Al ( 0.000000,  0.000000, -0.015417)
  11 Co ( 0.000000,  0.000000,  0.951574)
  12 Co ( 0.000000,  0.000000,  1.081106)
  13 Fe ( 0.000000,  0.000000,  2.336470)
  14 Al ( 0.000000,  0.000000, -0.031038)
  15 Co ( 0.000000,  0.000000,  1.295280)
  16 Co ( 0.000000,  0.000000,  1.263539)
  17 Co ( 0.000000,  0.000000,  1.136074)
  18 Co ( 0.000000,  0.000000,  1.099914)
  19 Al ( 0.000000,  0.000000, -0.042755)
  20 Fe ( 0.000000,  0.000000,  2.208786)
  21 Fe ( 0.000000,  0.000000,  2.134408)
  22 Cr ( 0.000000,  0.000000, -1.473887)
  23 Ni ( 0.000000,  0.000000,  0.327723)
  24 Co ( 0.000000,  0.000000,  1.344613)
  25 Fe ( 0.000000,  0.000000,  2.231156)
  26 Fe ( 0.000000,  0.000000,  2.313454)
  27 Co ( 0.000000,  0.000000,  1.465988)
  28 Cr ( 0.000000,  0.000000, -2.085757)
  29 Ni ( 0.000000,  0.000000,  0.470471)
  30 Fe ( 0.000000,  0.000000,  2.009995)
  31 Fe ( 0.000000,  0.000000,  2.134257)
  32 Co ( 0.000000,  0.000000,  1.226305)
  33 Fe ( 0.000000,  0.000000,  1.849947)
  34 Co ( 0.000000,  0.000000,  1.159527)
  35 Cr ( 0.000000,  0.000000, -1.332399)
  36 Cr ( 0.000000,  0.000000, -1.619496)
  37 Cr ( 0.000000,  0.000000,  0.094019)
  38 Cr ( 0.000000,  0.000000,  0.882541)
  39 Cr ( 0.000000,  0.000000,  0.317300)
  40 Ni ( 0.000000,  0.000000,  0.281604)
  41 Ni ( 0.000000,  0.000000,  0.170712)
  42 Co ( 0.000000,  0.000000,  1.036082)
  43 Cr ( 0.000000,  0.000000,  0.461496)
  44 Cr ( 0.000000,  0.000000, -1.444815)
  45 Fe ( 0.000000,  0.000000,  1.657415)
  46 Fe ( 0.000000,  0.000000,  2.014327)
  47 Co ( 0.000000,  0.000000,  0.370348)
  48 Ni ( 0.000000,  0.000000,  0.275460)
  49 Al ( 0.000000,  0.000000, -0.019386)
  50 Fe ( 0.000000,  0.000000,  2.104675)
  51 Co ( 0.000000,  0.000000,  1.011824)
  52 Cr ( 0.000000,  0.000000, -1.725103)
  53 Fe ( 0.000000,  0.000000,  2.280423)
  54 Ni ( 0.000000,  0.000000,  0.146096)
  55 Fe ( 0.000000,  0.000000,  2.199021)
  56 Cr ( 0.000000,  0.000000, -1.346202)
  57 Ni ( 0.000000,  0.000000,  0.203380)
  58 Fe ( 0.000000,  0.000000,  1.752297)
  59 Fe ( 0.000000,  0.000000,  1.628542)
[...]
  93 Ni ( 0.000000,  0.000000,  0.277980)
  94 Al ( 0.000000,  0.000000, -0.029693)
  95 Cr ( 0.000000,  0.000000,  0.219443)
  96 Ni ( 0.000000,  0.000000,  0.103384)
  97 Ni ( 0.000000,  0.000000,  0.182099)
  98 Co ( 0.000000,  0.000000,  1.343506)
  99 Ni ( 0.000000,  0.000000,  0.202943)
 100 Co ( 0.000000,  0.000000,  1.361256)
 101 Co ( 0.000000,  0.000000,  1.266931)
 102 Co ( 0.000000,  0.000000,  1.302799)
 103 Ni ( 0.000000,  0.000000,  0.353818)
 104 Ni ( 0.000000,  0.000000,  0.233429)
 105 Ni ( 0.000000,  0.000000,  0.207880)
 106 Co ( 0.000000,  0.000000,  0.936630)
 107 Cr ( 0.000000,  0.000000,  0.323720)

Energy contributions relative to reference atoms: (reference = -3548577.034362)

Kinetic:       +185.119354
Potential:     -216.761602
External:        +0.000000
XC:            -853.463623
Entropy (-ST):   -4.529717
Local:          +35.941093
Free energy:   -853.694496
Extrapolated:  -851.429637

Spin contamination: 25.904752 electrons
Showing only first 2 kpts
                      Up                     Down
 Kpt  Band  Eigenvalues  Occupancy  Eigenvalues  Occupancy
  0   488      9.47599    0.99455     10.36600    0.02430
  0   489      9.48325    0.99415     10.37965    0.02126
  0   490      9.50042    0.99306     10.38867    0.01947
  0   491      9.51105    0.99228     10.40753    0.01617

  1   488      9.47501    0.99461     10.37795    0.02162
  1   489      9.48425    0.99409     10.38507    0.02016
  1   490      9.49178    0.99363     10.40796    0.01611
  1   491      9.50895    0.99244     10.41507    0.01502

Fermi level: 9.99672

No gap

Forces in eV/Ang:
  0 Co   -0.24626    0.14406    0.08850
  1 Fe    0.13456   -0.02999   -0.35027
  2 Co   -0.15983   -0.44857   -0.16311
  3 Co    0.09099    0.03074    0.48538
  4 Co   -0.36362   -0.11934    0.45984
  5 Ni   -0.45032    0.07750   -0.25386
  6 Fe   -0.22437   -0.47082    0.10193
  7 Al   -0.74778    0.77636    0.45026
  8 Fe    0.51089    0.16786   -0.46634
  9 Cr    0.04361    0.53194   -0.10946
 10 Al    0.30334   -0.01890   -0.88515
 11 Co    0.01031   -0.33993   -0.55835
 12 Co    0.16600   -0.19367    0.10196
 13 Fe   -0.28169   -0.01502   -0.49758
 14 Al   -0.02655    0.69053   -1.35834
 15 Co    0.16460   -0.31542    0.18800
 16 Co   -0.24299    0.25356    0.33203
 17 Co   -0.18336   -0.38466    0.06471
 18 Co   -0.03076    0.24185    0.16337
 19 Al    0.35484   -1.16193    0.00758
 20 Fe    0.07507   -0.22533    0.19404
 21 Fe    0.07574   -0.52663   -0.12772
 22 Cr    0.33092   -0.15064   -0.60375
 23 Ni    0.03935    0.09248    0.08532
 24 Co    0.33685    0.08346    0.15146
 25 Fe    0.58771    0.11756   -0.22906
 26 Fe    0.01753    0.08776   -0.45288
 27 Co   -0.05907   -0.09381    0.59763
 28 Cr   -1.11755    0.59194   -0.02028
 29 Ni   -0.42236    0.43380   -0.12898
 30 Fe   -0.28767    0.23917    0.02107
 31 Fe   -0.02717    0.12852    0.02782
 32 Co    0.44743    0.32653    0.03718
 33 Fe    0.01732    0.08838   -0.20924
 34 Co    0.41588    0.13641   -0.28713
 35 Cr   -0.08007   -0.39275   -0.53597
 36 Cr    0.52012   -0.36674    0.75467
 37 Cr    0.18199    0.04679   -0.26984
 38 Cr   -0.56687    0.33307    0.26396
 39 Cr    0.04990   -0.85099   -0.20159
 40 Ni   -0.10814    0.26926   -0.39687
 41 Ni   -0.13236   -0.05552    0.04468
 42 Co    0.11603    0.00542   -0.00867
 43 Cr   -0.12375    0.09305   -0.10716
 44 Cr   -0.35045    0.11349    0.74527
 45 Fe    0.10450   -0.24044   -0.32494
 46 Fe    0.49604   -0.39244    0.23521
 47 Co    0.10004    0.13476    0.52942
 48 Ni    0.04644   -0.24233   -0.29609
 49 Al    0.88605   -0.52628    0.17630
 50 Fe    0.28870   -0.51382    0.26146
 51 Co    0.42361    0.07431   -0.30006
 52 Cr    0.65367    0.10415   -0.04567
 53 Fe   -0.58385    0.01631   -0.34754
 54 Ni    0.16739   -0.06740   -0.10105
 55 Fe   -0.37882   -0.96780   -0.50885
 56 Cr   -0.41041   -0.01912    0.14313
 57 Ni    0.01760   -0.09098   -0.18137
 58 Fe   -0.19071   -0.02982   -0.36758
 59 Fe   -0.30615   -0.23941   -0.04833
[...]
 93 Ni    0.11713   -0.09689   -0.00968
 94 Al    0.10085    0.24249    1.58008
 95 Cr   -0.61719    0.41667    0.16336
 96 Ni   -0.04178    0.14044    0.14085
 97 Ni   -0.27403    0.21422   -0.02606
 98 Co    0.06259   -0.40620    0.39324
 99 Ni   -0.40382    0.09996    0.16230
100 Co   -0.21793    0.09918    0.27393
101 Co    0.21497   -0.33570    0.23053
102 Co   -0.24879    0.54070   -0.02040
103 Ni   -0.07478    0.04780    0.05023
104 Ni    0.22151    0.23417    0.14423
105 Ni    0.46618    0.26143    0.05522
106 Co    0.12428    0.15636    0.01405
107 Cr    0.12707    0.22130    0.32912

Date: Fri Apr 14 23:52:30 2023