User:   c.zeng@d0100
Date:   Sat Apr 15 04:21:59 2023
Arch:   x86_64
Pid:    80243
CWD:    /home/c.zeng/projects/hea-corrosion/hea-mlp/data-curation/bulk-mcmc/dft-jobs/219
Python: 3.8.1
gpaw:   /home/c.zeng/usr/installs/gpaw/source/gpaw-22.8.0/gpaw
_gpaw:  /home/c.zeng/usr/installs/gpaw/source/gpaw-22.8.0/
        _gpaw.cpython-38-x86_64-linux-gnu.so
ase:    /home/c.zeng/.local/lib/python3.8/site-packages/ase-3.22.1-py3.8.egg/ase (version 3.22.1)
numpy:  /shared/centos7/python/3.8.1/lib/python3.8/site-packages/numpy (version 1.17.4)
scipy:  /shared/centos7/python/3.8.1/lib/python3.8/site-packages/scipy (version 1.4.1)
units:  Angstrom and eV
cores: 30
OpenMP: False
OMP_NUM_THREADS: 1

Input parameters:
  convergence: {energy: 0.0001}
  kpts: [2 2 2]
  maxiter: 666
  mode: {ecut: 350.0,
         name: pw}
  occupations: {fixmagmom: False,
                name: fermi-dirac,
                width: 0.1}
  spinpol: True
  xc: PBE

System changes: positions, numbers, cell, pbc, initial_charges, initial_magmoms

Initialize ...

species:
  Cr:
    name: Chromium
    id: 33f258bda2ca9f93018e70263a35547b
    Z: 24.0
    valence: 6
    core: 18
    charge: 0.0
    file: /home/c.zeng/usr/data/gpaw-setups-0.9.20000/Cr.PBE.gz
    compensation charges: {type: gauss,
                           rc: 0.35,
                           lmax: 2}
    cutoffs: {filter: 2.14,
              core: 3.04}
    valence states:
      #              energy  rcut
      - 4s(1.00)    -4.007   1.164
      - 4p(0.00)    -0.989   1.217
      - 3d(5.00)    -2.913   1.111
      -  s          23.205   1.164
      -  p          26.223   1.217
      -  d          24.299   1.111

    # Using partial waves for Cr as LCAO basis

  Al:
    name: Aluminium
    id: 0292cae29f5d6237e50f6abdd43a7bdd
    Z: 13.0
    valence: 3
    core: 10
    charge: 0.0
    file: /home/c.zeng/usr/data/gpaw-setups-0.9.20000/Al.PBE.gz
    compensation charges: {type: gauss,
                           rc: 0.34,
                           lmax: 2}
    cutoffs: {filter: 1.91,
              core: 2.36}
    valence states:
      #              energy  rcut
      - 3s(2.00)    -7.753   1.085
      - 3p(1.00)    -2.712   1.085
      -  s          19.459   1.085
      -  p          24.499   1.085
      -  d           0.000   1.085

[...]

  Ni:
    name: Nickel
    id: 0d9f38a9d6e76a2886f07bb4381f212b
    Z: 28.0
    valence: 16
    core: 12
    charge: 0.0
    file: /home/c.zeng/usr/data/gpaw-setups-0.9.20000/Ni.PBE.gz
    compensation charges: {type: gauss,
                           rc: 0.36,
                           lmax: 2}
    cutoffs: {filter: 2.14,
              core: 1.98}
    valence states:
      #              energy  rcut
      - 4s(2.00)    -5.642   1.164
      - 3p(6.00)   -71.394   1.207
      - 4p(0.00)    -1.226   1.207
      - 3d(8.00)    -8.875   1.138
      -  s          21.570   1.164
      -  d          18.337   1.138

[...]

  Co:
    name: Cobalt
    id: 339d20d5b0b93d2de9531a1bee871d91
    Z: 27.0
    valence: 9
    core: 18
    charge: 0.0
    file: /home/c.zeng/usr/data/gpaw-setups-0.9.20000/Co.PBE.gz
    compensation charges: {type: gauss,
                           rc: 0.32,
                           lmax: 2}
    cutoffs: {filter: 1.87,
              core: 2.55}
    valence states:
      #              energy  rcut
      - 4s(2.00)    -5.469   1.005
      - 4p(0.00)    -1.277   1.058
      - 3d(7.00)    -8.205   1.005
      -  s          21.742   1.005
      -  p          25.934   1.058
      -  d          19.007   1.005

[...]

  Fe:
    name: Iron
    id: 37abbd8d6c3c35915a9b583b742da910
    Z: 26.0
    valence: 8
    core: 18
    charge: 0.0
    file: /home/c.zeng/usr/data/gpaw-setups-0.9.20000/Fe.PBE.gz
    compensation charges: {type: gauss,
                           rc: 0.33,
                           lmax: 2}
    cutoffs: {filter: 2.06,
              core: 2.67}
    valence states:
      #              energy  rcut
      - 4s(2.00)    -5.291   1.164
      - 4p(0.00)    -1.326   1.058
      - 3d(6.00)    -7.505   1.058
      -  s          21.920   1.164
      -  p          25.885   1.058
      -  d          19.706   1.058

    # Using partial waves for Fe as LCAO basis

Reference energy: -3235165.067515  # eV

Spin-polarized calculation.
Magnetic moment: 121.100000

Convergence criteria:
 Maximum [total energy] change in last 3 cyles: 0.0001 eV / electron
 Maximum integral of absolute [dens]ity change: 0.0001 electrons / valence electron
 Maximum integral of absolute [eigenst]ate change: 4e-08 eV^2 / valence electron
 Maximum number of scf [iter]ations: 666
 (Square brackets indicate name in SCF output, whereas a 'c' in
 the SCF output indicates the quantity has converged.)

Symmetries present (total): 1

  ( 1  0  0)
  ( 0  1  0)
  ( 0  0  1)

8 k-points: 2 x 2 x 2 Monkhorst-Pack grid
4 k-points in the irreducible part of the Brillouin zone
       k-points in crystal coordinates                weights
   0:     0.25000000   -0.25000000   -0.25000000          2/8
   1:     0.25000000   -0.25000000    0.25000000          2/8
   2:     0.25000000    0.25000000   -0.25000000          2/8
   3:     0.25000000    0.25000000    0.25000000          2/8

Wave functions: Plane wave expansion
  Cutoff energy: 350.000 eV
  Number of coefficients (min, max): 19084, 19084
  Pulay-stress correction: 0.000000 eV/Ang^3 (de/decut=0.000000)
  Using FFTW library
  ScaLapack parameters: grid=1x1, blocksize=None
  Wavefunction extrapolation:
    Improved wavefunction reuse through dual PAW basis

Occupation numbers: Fermi-Dirac:
  width: 0.1000  # eV

Eigensolver
   Davidson(niter=2)

Densities:
  Coarse grid: 48*48*48 grid
  Fine grid: 96*96*96 grid
  Total Charge: 0.000000

Density mixing:
  Method: difference
  Backend: pulay
  Linear mixing parameter: 0.05
  old densities: 5
  Damping of long wavelength oscillations: 50

Hamiltonian:
  XC and Coulomb potentials evaluated on a 96*96*96 grid
  Using the PBE Exchange-Correlation functional
  External potential:
    NoExternalPotential

XC parameters: PBE with 2 nearest neighbor stencil

Total number of cores used: 30
Parallelization over k-points: 2
Domain decomposition: 5 x 3 x 1

Number of atoms: 108
Number of atomic orbitals: 933
Number of bands in calculation: 624
Number of valence electrons: 912
Bands to converge: occupied

... initialized

Initializing position-dependent things.

Density initialized from atomic densities
Creating initial wave functions:
  624 bands from LCAO basis set

        .--------Al----------------.
       /|           Fe             |
      / |    FeFe     Ni           |
     / Cr       Cr       Al        |
    /   |Fe      CrCo       Fe     |
   /    | CrNi      ACo            |
  /    Co  FeiAlAl    Co Fe  CoAl  |
 *      Fe     AlCoAl   NiFe     Cr|
 |      |FeNi   NiFeFe   AlCrNi   Co
 |      | CoCr   AlCoCoAl CrCrFe   |
 |     Fe  Al CoCo  CrNi Ni  NiNi  |
 |      Cr  Ni CrNiCo CoNiCoAl   Fe|
 |      |CrCo   CoAlAl   CoNiFe   Fe
 |      .-FeCr-----NiCr-Al--CrFe---.
 |     Al  Cr CoCr    Al Co  Cr Cr/
 |    / Co              Ni       Ni
 |   /           Ali      NiFe  /
 |  /      Cr       Fe     NiAl/
 | /                   Fe     /i
 *--------------------------Cr

Positions:
   0 Cr    10.797848    0.093654    0.085777    ( 0.0000,  0.0000,  0.0000)
   1 Al    10.831824    1.844742    1.870716    ( 0.0000,  0.0000,  2.0000)
   2 Ni     1.786803   10.847372    1.827335    ( 0.0000,  0.0000,  0.0000)
   3 Co     1.769614    1.870531   -0.031264    ( 0.0000,  0.0000,  0.0000)
   4 Al     3.620857   10.822050   10.833629    ( 0.0000,  0.0000,  1.5000)
   5 Cr     3.571246    1.883176    1.708402    ( 0.0000,  0.0000,  0.0000)
   6 Co     5.521103   10.788063    1.666217    ( 0.0000,  0.0000,  0.0000)
   7 Al     5.520831    1.813973   10.830911    ( 0.0000,  0.0000,  1.5000)
   8 Al     7.330846    0.011025   10.815657    ( 0.0000,  0.0000,  2.0000)
   9 Fe     7.282018    1.809483    1.793250    ( 0.0000,  0.0000,  2.1000)
  10 Fe     9.029996    0.022005    1.811918    ( 0.0000,  0.0000,  1.5000)
  11 Fe     9.007196    1.868639   10.825714    ( 0.0000,  0.0000,  2.0000)
  12 Ni    10.861310    3.649723    0.014171    ( 0.0000,  0.0000,  2.0000)
  13 Cr    10.867442    5.463468    1.819235    ( 0.0000,  0.0000,  2.1000)
  14 Co     1.756088    3.650267    1.845949    ( 0.0000,  0.0000,  0.0000)
  15 Fe     1.790358    5.439092   10.869084    ( 0.0000,  0.0000,  2.1000)
  16 Ni     3.687842    3.622792   -0.049287    ( 0.0000,  0.0000,  2.0000)
  17 Co     3.667347    5.391145    1.745368    ( 0.0000,  0.0000,  0.0000)
  18 Al     5.497977    3.634415    1.792370    ( 0.0000,  0.0000,  2.0000)
  19 Ni     5.524908    5.448029    0.002551    ( 0.0000,  0.0000,  2.0000)
  20 Co     7.223340    3.611877   10.834270    ( 0.0000,  0.0000,  0.0000)
  21 Al     7.217762    5.474830    1.807776    ( 0.0000,  0.0000,  2.1000)
  22 Ni     9.073442    3.654344    1.775148    ( 0.0000,  0.0000,  0.0000)
  23 Ni     9.008740    5.418608    0.007692    ( 0.0000,  0.0000,  2.0000)
  24 Ni    10.859190    7.178720    0.014480    ( 0.0000,  0.0000,  1.5000)
  25 Fe    -0.018106    8.970948    1.875391    ( 0.0000,  0.0000,  0.0000)
  26 Fe     1.817615    7.224025    1.802546    ( 0.0000,  0.0000,  1.5000)
  27 Cr     1.880729    8.993464   10.874031    ( 0.0000,  0.0000,  0.0000)
  28 Fe     3.684428    7.260447   -0.001356    ( 0.0000,  0.0000,  2.0000)
  29 Co     3.612616    9.025636    1.761807    ( 0.0000,  0.0000,  1.5000)
  30 Ni     5.481440    7.275114    1.811211    ( 0.0000,  0.0000,  1.5000)
  31 Fe     5.461261    9.048153   10.833988    ( 0.0000,  0.0000,  1.5000)
  32 Ni     7.245704    7.257881    0.056891    ( 0.0000,  0.0000,  2.1000)
  33 Co     7.301969    9.004609    1.790315    ( 0.0000,  0.0000,  0.0000)
  34 Cr     9.029343    7.181775    1.815549    ( 0.0000,  0.0000,  2.0000)
  35 Cr     9.030561    9.042010    0.020232    ( 0.0000,  0.0000,  1.5000)
  36 Fe    -0.031046    0.001947    3.645701    ( 0.0000,  0.0000,  2.0000)
  37 Fe    10.825910    1.804351    5.434602    ( 0.0000,  0.0000,  2.1000)
  38 Ni     1.743552   10.849296    5.484376    ( 0.0000,  0.0000,  0.0000)
  39 Al     1.769755    1.791891    3.636068    ( 0.0000,  0.0000,  1.5000)
  40 Al     3.516667   10.719828    3.663227    ( 0.0000,  0.0000,  0.0000)
  41 Co     3.644244    1.785205    5.586728    ( 0.0000,  0.0000,  0.0000)
  42 Al     5.484778   10.815439    5.504022    ( 0.0000,  0.0000,  0.0000)
  43 Cr     5.457934    1.842230    3.658769    ( 0.0000,  0.0000,  0.0000)
  44 Cr     7.360615   10.815439    3.672229    ( 0.0000,  0.0000,  0.0000)
  45 Al     7.266884    1.811614    5.485528    ( 0.0000,  0.0000,  2.1000)
  46 Al     9.077986    0.023590    5.491921    ( 0.0000,  0.0000,  0.0000)
  47 Co     9.066788    1.824226    3.671175    ( 0.0000,  0.0000,  1.5000)
  48 Fe    -0.047135    3.649615    3.617291    ( 0.0000,  0.0000,  2.0000)
  49 Ni    10.809264    5.435993    5.379805    ( 0.0000,  0.0000,  2.0000)
  50 Cr     1.752316    3.624989    5.344676    ( 0.0000,  0.0000,  0.0000)
  51 Cr     1.805786    5.472046    3.619389    ( 0.0000,  0.0000,  2.1000)
  52 Cr     3.649408    3.633491    3.631251    ( 0.0000,  0.0000,  2.1000)
  53 Co     3.657628    5.433797    5.434015    ( 0.0000,  0.0000,  1.5000)
  54 Ni     5.413368    3.672642    5.480309    ( 0.0000,  0.0000,  1.5000)
  55 Al     5.413835    5.465588    3.639666    ( 0.0000,  0.0000,  2.1000)
  56 Cr     7.223449    3.731734    3.720829    ( 0.0000,  0.0000,  0.0000)
  57 Ni     7.220557    5.483180    5.485572    ( 0.0000,  0.0000,  0.0000)
  58 Co     9.069039    3.623673    5.469720    ( 0.0000,  0.0000,  1.5000)
  59 Ni     9.064766    5.503837    3.636731    ( 0.0000,  0.0000,  0.0000)
[...]
  93 Co     7.214631    5.385893    9.048577    ( 0.0000,  0.0000,  2.1000)
  94 Fe     8.994291    3.655975    9.039237    ( 0.0000,  0.0000,  1.5000)
  95 Cr     9.006577    5.423262    7.223296    ( 0.0000,  0.0000,  2.0000)
  96 Cr    -0.070637    7.291956    7.110419    ( 0.0000,  0.0000,  0.0000)
  97 Cr     0.073012    9.104570    9.068375    ( 0.0000,  0.0000,  0.0000)
  98 Cr     1.863247    7.257381    9.054785    ( 0.0000,  0.0000,  2.0000)
  99 Fe     1.858343    9.053708    7.225808    ( 0.0000,  0.0000,  2.1000)
 100 Al     3.683906    7.292456    7.235550    ( 0.0000,  0.0000,  2.0000)
 101 Cr     3.628218    9.069550    9.051262    ( 0.0000,  0.0000,  2.1000)
 102 Co     5.530605    7.331890    9.040129    ( 0.0000,  0.0000,  0.0000)
 103 Al     5.476232    9.097209    7.250467    ( 0.0000,  0.0000,  2.0000)
 104 Ni     7.256827    7.264242    7.208456    ( 0.0000,  0.0000,  2.1000)
 105 Al     7.272548    9.136437    9.056861    ( 0.0000,  0.0000,  1.5000)
 106 Fe     8.936493    7.190875    9.109767    ( 0.0000,  0.0000,  0.0000)
 107 Co     8.994682    9.112169    7.218480    ( 0.0000,  0.0000,  0.0000)

Unit cell:
           periodic     x           y           z      points  spacing
  1. axis:    yes   10.872400    0.000000    0.000000    48     0.2265
  2. axis:    yes    0.000000   10.872400    0.000000    48     0.2265
  3. axis:    yes    0.000000    0.000000   10.872400    48     0.2265

  Lengths:  10.872400  10.872400  10.872400
  Angles:   90.000000  90.000000  90.000000

Effective grid spacing dv^(1/3) = 0.2265

     iter     time        total  log10-change:  magmom
                         energy  eigst   dens
iter:   1 04:26:05  -920.130594                  +120.1377
iter:   2 04:27:51  -839.364947  -0.26  -1.25    +81.2786
iter:   3 04:29:37  -842.214471  -0.74  -1.27    +50.3446
iter:   4 04:31:22  -815.848033  -1.25  -1.26    +45.5902
iter:   5 04:33:08  -810.901148  -1.66  -1.37    +42.6862
iter:   6 04:34:53  -810.461951  -1.74  -1.40    +42.4748
iter:   7 04:36:39  -805.667435  -1.45  -1.44    +42.1350
iter:   8 04:38:24  -802.145675  -1.70  -1.55    +42.4058
iter:   9 04:40:08  -804.861372  -1.96  -1.68    +43.8005
iter:  10 04:41:55  -802.377961  -2.17  -1.69    +44.7748
iter:  11 04:43:58  -802.257370  -2.46  -1.78    +46.1836
iter:  12 04:45:56  -802.683940  -2.54  -1.85    +47.4849
iter:  13 04:47:54  -803.344980  -2.49  -1.87    +49.1305
iter:  14 04:49:52  -803.059130  -2.52  -1.90    +50.4801
iter:  15 04:51:49  -803.332951  -2.69  -2.01    +51.7842
iter:  16 04:53:46  -803.475717  -2.80  -2.01    +53.2015
iter:  17 04:55:43  -803.627772  -2.91  -2.08    +54.2545
iter:  18 04:57:51  -803.647311  -2.97  -2.09    +55.5789
iter:  19 04:59:51  -803.944101  -2.90  -2.15    +56.7847
iter:  20 05:01:49  -803.960308  -2.97  -2.19    +57.3780
iter:  21 05:03:46  -804.234164  -2.89  -2.23    +58.3370
iter:  22 05:05:44  -804.002018  -3.13  -2.25    +58.9876
iter:  23 05:07:41  -804.310642  -3.09  -2.36    +59.9624
iter:  24 05:09:39  -804.186972  -3.27  -2.34    +60.1952
iter:  25 05:11:36  -804.248033  -3.50  -2.44    +60.8021
iter:  26 05:13:42  -804.277211c -3.67  -2.46    +61.4975
iter:  27 05:15:45  -804.368386  -3.74  -2.52    +62.0600
iter:  28 05:17:43  -804.439055  -3.88  -2.51    +62.4612
iter:  29 05:19:40  -804.575318  -3.81  -2.52    +62.9667
iter:  30 05:21:37  -804.616743  -4.05  -2.47    +63.1009
iter:  31 05:23:34  -804.625419c -3.62  -2.49    +63.1918
iter:  32 05:25:31  -804.569945c -3.53  -2.57    +63.3718
iter:  33 05:27:31  -804.592424c -3.76  -2.78    +63.2917
iter:  34 05:29:39  -804.596303c -4.01  -2.82    +63.3255
iter:  35 05:31:36  -804.605053c -4.39  -2.90    +63.1767
iter:  36 05:33:33  -804.625637c -4.58  -2.97    +63.0848
iter:  37 05:35:31  -804.670814c -4.18  -2.98    +62.8828
iter:  38 05:37:28  -804.710585c -4.17  -2.99    +62.6319
iter:  39 05:39:25  -804.765295  -4.05  -2.96    +62.3990
iter:  40 05:41:22  -804.732461c -4.89  -2.89    +62.5375
iter:  41 05:43:20  -804.766291c -4.66  -2.93    +62.4511
iter:  42 05:45:17  -804.800183c -4.44  -2.89    +62.3929
iter:  43 05:47:15  -804.792359c -4.45  -2.86    +62.3814
iter:  44 05:49:12  -804.800632c -4.49  -2.95    +62.3127
iter:  45 05:51:12  -804.818157c -4.48  -3.01    +62.2886
iter:  46 05:53:20  -804.859727c -3.99  -3.01    +62.2078
iter:  47 05:55:17  -804.821926c -4.46  -2.86    +62.1159
iter:  48 05:57:15  -804.837697c -4.76  -3.14    +61.9849
iter:  49 05:59:13  -804.847952c -4.87  -3.16    +61.8583
iter:  50 06:01:11  -804.861481c -4.73  -3.16    +61.7122
iter:  51 06:03:09  -804.872364c -4.91  -3.20    +61.6516
iter:  52 06:05:07  -804.907711c -4.13  -3.22    +61.3639
iter:  53 06:07:04  -804.956258c -3.75  -3.18    +60.9858
iter:  54 06:09:02  -804.963155c -4.38  -2.98    +60.9157
iter:  55 06:10:59  -804.948665c -4.59  -3.01    +60.8943
iter:  56 06:12:56  -804.948987c -4.95  -3.14    +60.8460
iter:  57 06:14:54  -804.949216c -5.33  -3.18    +60.8290
iter:  58 06:17:00  -804.948469c -4.48  -3.20    +60.7608
iter:  59 06:19:01  -804.948166c -5.15  -3.26    +60.7594
iter:  60 06:20:58  -804.948772c -5.34  -3.27    +60.6767
iter:  61 06:22:56  -804.947967c -5.33  -3.35    +60.6461
iter:  62 06:24:54  -804.948666c -5.31  -3.37    +60.6232
iter:  63 06:26:42  -804.949614c -5.49  -3.50    +60.6097
iter:  64 06:28:28  -804.949014c -5.43  -3.52    +60.5799
iter:  65 06:30:14  -804.950573c -5.58  -3.64    +60.5790
iter:  66 06:32:00  -804.950492c -5.71  -3.61    +60.5467
iter:  67 06:33:46  -804.950881c -5.99  -3.74    +60.5305
iter:  68 06:35:31  -804.952207c -5.51  -3.81    +60.4926
iter:  69 06:37:17  -804.954668c -5.02  -3.79    +60.4271
iter:  70 06:39:01  -804.958269c -4.80  -3.73    +60.3519
iter:  71 06:40:47  -804.957518c -5.97  -3.54    +60.3825
iter:  72 06:42:32  -804.958760c -5.73  -3.59    +60.3597
iter:  73 06:44:17  -804.959200c -5.75  -3.52    +60.3574
iter:  74 06:46:03  -804.957383c -5.60  -3.51    +60.3631
iter:  75 06:47:48  -804.956631c -5.60  -3.59    +60.3612
iter:  76 06:49:34  -804.955901c -5.74  -3.53    +60.3638
iter:  77 06:51:21  -804.958302c -5.46  -3.58    +60.3573
iter:  78 06:53:08  -804.955484c -5.69  -3.52    +60.3434
iter:  79 06:54:55  -804.956048c -6.04  -3.71    +60.3217
iter:  80 06:56:41  -804.957066c -5.66  -3.76    +60.3245
iter:  81 06:58:27  -804.955608c -5.90  -3.70    +60.3211
iter:  82 07:00:14  -804.955983c -6.09  -3.81    +60.3073
iter:  83 07:01:57  -804.955727c -6.14  -3.91    +60.3080
iter:  84 07:03:44  -804.956305c -6.30  -3.99    +60.3132
iter:  85 07:05:31  -804.955616c -6.63  -3.95    +60.3122
iter:  86 07:07:18  -804.955702c -6.59  -4.13c   +60.3093
iter:  87 07:09:05  -804.956021c -6.69  -4.11c   +60.3127
iter:  88 07:10:51  -804.955701c -6.85  -4.13c   +60.3177
iter:  89 07:12:38  -804.955767c -6.76  -4.20c   +60.3179
iter:  90 07:14:24  -804.955615c -6.79  -4.21c   +60.3174
iter:  91 07:16:09  -804.955932c -6.91  -4.28c   +60.3209
iter:  92 07:17:54  -804.955777c -7.12  -4.31c   +60.3242
iter:  93 07:19:41  -804.955596c -7.15  -4.35c   +60.3249
iter:  94 07:21:28  -804.955768c -7.28  -4.37c   +60.3244
iter:  95 07:23:14  -804.955752c -7.53c -4.46c   +60.3272

Converged after 95 iterations.

Dipole moment: (28.406148, 16.979413, 7.682205) |e|*Ang

Total magnetic moment: (0.000000, 0.000000, 60.327194)
Local magnetic moments:
   0 Cr ( 0.000000,  0.000000, -1.856406)
   1 Al ( 0.000000,  0.000000, -0.035503)
   2 Ni ( 0.000000,  0.000000,  0.133792)
   3 Co ( 0.000000,  0.000000,  1.047002)
   4 Al ( 0.000000,  0.000000, -0.026493)
   5 Cr ( 0.000000,  0.000000,  1.726914)
   6 Co ( 0.000000,  0.000000,  0.972515)
   7 Al ( 0.000000,  0.000000, -0.033130)
   8 Al ( 0.000000,  0.000000, -0.047433)
   9 Fe ( 0.000000,  0.000000,  2.150400)
  10 Fe ( 0.000000,  0.000000,  2.072097)
  11 Fe ( 0.000000,  0.000000,  2.220836)
  12 Ni ( 0.000000,  0.000000,  0.388049)
  13 Cr ( 0.000000,  0.000000, -1.747393)
  14 Co ( 0.000000,  0.000000,  0.759153)
  15 Fe ( 0.000000,  0.000000,  2.204918)
  16 Ni ( 0.000000,  0.000000,  0.328506)
  17 Co ( 0.000000,  0.000000,  1.191504)
  18 Al ( 0.000000,  0.000000, -0.030971)
  19 Ni ( 0.000000,  0.000000,  0.435903)
  20 Co ( 0.000000,  0.000000,  1.277389)
  21 Al ( 0.000000,  0.000000, -0.001944)
  22 Ni ( 0.000000,  0.000000,  0.290226)
  23 Ni ( 0.000000,  0.000000,  0.357669)
  24 Ni ( 0.000000,  0.000000,  0.209329)
  25 Fe ( 0.000000,  0.000000,  2.056950)
  26 Fe ( 0.000000,  0.000000,  2.087785)
  27 Cr ( 0.000000,  0.000000, -0.915596)
  28 Fe ( 0.000000,  0.000000,  2.202106)
  29 Co ( 0.000000,  0.000000,  0.947803)
  30 Ni ( 0.000000,  0.000000,  0.248494)
  31 Fe ( 0.000000,  0.000000,  2.250305)
  32 Ni ( 0.000000,  0.000000,  0.334578)
  33 Co ( 0.000000,  0.000000,  1.120458)
  34 Cr ( 0.000000,  0.000000,  1.501155)
  35 Cr ( 0.000000,  0.000000,  1.040217)
  36 Fe ( 0.000000,  0.000000,  2.374689)
  37 Fe ( 0.000000,  0.000000,  1.976911)
  38 Ni ( 0.000000,  0.000000,  0.241066)
  39 Al ( 0.000000,  0.000000, -0.032979)
  40 Al ( 0.000000,  0.000000, -0.015842)
  41 Co ( 0.000000,  0.000000,  0.839486)
  42 Al ( 0.000000,  0.000000, -0.002925)
  43 Cr ( 0.000000,  0.000000,  1.614045)
  44 Cr ( 0.000000,  0.000000, -1.726953)
  45 Al ( 0.000000,  0.000000, -0.012458)
  46 Al ( 0.000000,  0.000000, -0.024735)
  47 Co ( 0.000000,  0.000000,  1.075514)
  48 Fe ( 0.000000,  0.000000,  2.188016)
  49 Ni ( 0.000000,  0.000000,  0.194479)
  50 Cr ( 0.000000,  0.000000, -1.809754)
  51 Cr ( 0.000000,  0.000000, -1.534918)
  52 Cr ( 0.000000,  0.000000,  1.232020)
  53 Co ( 0.000000,  0.000000,  0.501729)
  54 Ni ( 0.000000,  0.000000,  0.071034)
  55 Al ( 0.000000,  0.000000, -0.010755)
  56 Cr ( 0.000000,  0.000000, -2.067626)
  57 Ni ( 0.000000,  0.000000,  0.216287)
  58 Co ( 0.000000,  0.000000,  1.281245)
  59 Ni ( 0.000000,  0.000000,  0.195765)
[...]
  93 Co ( 0.000000,  0.000000,  1.490176)
  94 Fe ( 0.000000,  0.000000,  2.397271)
  95 Cr ( 0.000000,  0.000000, -1.623155)
  96 Cr ( 0.000000,  0.000000, -1.614944)
  97 Cr ( 0.000000,  0.000000, -1.349110)
  98 Cr ( 0.000000,  0.000000,  0.826780)
  99 Fe ( 0.000000,  0.000000,  2.043762)
 100 Al ( 0.000000,  0.000000, -0.031448)
 101 Cr ( 0.000000,  0.000000, -0.295065)
 102 Co ( 0.000000,  0.000000,  0.963830)
 103 Al ( 0.000000,  0.000000, -0.003245)
 104 Ni ( 0.000000,  0.000000,  0.190654)
 105 Al ( 0.000000,  0.000000, -0.025298)
 106 Fe ( 0.000000,  0.000000,  2.365968)
 107 Co ( 0.000000,  0.000000,  0.483977)

Energy contributions relative to reference atoms: (reference = -3235165.067515)

Kinetic:       +249.554327
Potential:     -239.254911
External:        +0.000000
XC:            -844.387523
Entropy (-ST):   -4.020114
Local:          +31.142412
Free energy:   -806.965810
Extrapolated:  -804.955752

Spin contamination: 27.032424 electrons
Showing only first 2 kpts
                      Up                     Down
 Kpt  Band  Eigenvalues  Occupancy  Eigenvalues  Occupancy
  0   454      8.95851    0.99684      9.91991    0.02064
  0   455      8.96948    0.99648      9.93074    0.01856
  0   456      8.97979    0.99609      9.94242    0.01655
  0   457      8.99639    0.99539      9.95447    0.01470

  1   454      8.95494    0.99695      9.91848    0.02093
  1   455      8.97304    0.99635      9.93187    0.01836
  1   456      8.99306    0.99554      9.94413    0.01627
  1   457      8.99910    0.99527      9.95118    0.01518

Fermi level: 9.53395

No gap

Forces in eV/Ang:
  0 Cr    0.53824   -0.73834   -0.54848
  1 Al   -0.36533    0.68272   -0.70300
  2 Ni   -0.03880    0.08071   -0.14408
  3 Co    0.11579   -0.26986   -0.16547
  4 Al   -0.12108    0.64403    0.44528
  5 Cr   -0.07935   -0.34550    0.42089
  6 Co   -0.34984    0.44389    1.09788
  7 Al   -0.70209    0.20948   -0.54385
  8 Al   -0.85799    0.03289    1.76403
  9 Fe    0.41116   -0.02848    0.55156
 10 Fe    0.02454   -0.54350    0.41551
 11 Fe    0.46354    0.25253    0.23980
 12 Ni   -0.08315   -0.21589   -0.15948
 13 Cr   -0.34638   -0.20417   -0.41120
 14 Co    0.48461    0.08526   -0.24671
 15 Fe    0.49000   -0.18371    0.54358
 16 Ni   -0.33767   -0.09606    0.32389
 17 Co   -0.55400    0.36753    0.15660
 18 Al   -0.66014   -0.08529   -0.54621
 19 Ni   -0.40643    0.11321   -0.30377
 20 Co    0.52082    0.12229   -0.23156
 21 Al    0.96004    0.11103   -0.63527
 22 Ni   -0.44609   -0.13539    0.32927
 23 Ni    0.00150   -0.04934   -0.01865
 24 Ni   -0.00092    0.78637   -0.25226
 25 Fe   -0.19054    0.40784   -0.69321
 26 Fe    0.00521   -0.25951   -0.27966
 27 Cr   -0.98806   -0.59519    0.07152
 28 Fe    0.15884   -0.09509    0.52676
 29 Co    0.25351   -0.24267    0.35714
 30 Ni   -0.67382    0.26662    0.05091
 31 Fe    0.03820   -0.53366    0.38310
 32 Ni   -0.04439   -0.15794   -0.64636
 33 Co   -0.04476    0.36018    0.59584
 34 Cr    0.80915    0.88738    0.14574
 35 Cr    1.12921   -0.38364    0.08072
 36 Fe   -0.35904   -0.36694   -0.22945
 37 Fe    0.15388    0.64957   -0.21662
 38 Ni    0.78363    0.11747   -0.18149
 39 Al    0.72894   -0.01231    0.42074
 40 Al    1.22945    1.10033   -0.48456
 41 Co    0.11037    0.26743   -0.69947
 42 Al   -0.85685    1.44055   -0.68669
 43 Cr   -0.18374   -0.52362   -0.16119
 44 Cr   -0.95351    0.56043   -1.86194
 45 Al    0.09198    1.08189    0.29762
 46 Al    0.14750   -0.56692   -0.41758
 47 Co   -0.42605    0.28108   -0.33482
 48 Fe   -0.10163    0.48874    0.42261
 49 Ni    0.40048   -0.02532    0.40430
 50 Cr    0.23386    0.38825    0.98955
 51 Cr    0.74648    0.13620    0.17552
 52 Cr   -0.81811    0.01763    0.48059
 53 Co   -0.60858    0.00390    0.21309
 54 Ni   -0.07172   -0.53449   -0.22849
 55 Al   -0.43945    1.09461    0.93596
 56 Cr    0.83556   -1.26323   -0.17257
 57 Ni    0.15672   -0.26279   -0.10527
 58 Co    0.01999    0.29853   -0.21281
 59 Ni   -0.21812   -0.55343   -0.04350
[...]
 93 Co   -0.11060    0.22585   -0.03329
 94 Fe   -0.25862   -0.21981   -0.05206
 95 Cr   -0.35766   -0.21987   -0.25745
 96 Cr    0.07923    0.14314    0.18850
 97 Cr    0.05177   -1.07955    0.46339
 98 Cr   -0.99400    0.73095    0.46233
 99 Fe   -0.64507    0.13869   -0.10264
100 Al   -0.31132   -0.91575   -0.87051
101 Cr   -0.31182   -0.63671    0.51093
102 Co   -0.43876   -0.64124    0.23866
103 Al   -0.04439   -0.89732    0.87577
104 Ni    0.06409   -0.04083    0.58096
105 Al   -0.22462   -1.82529   -0.56239
106 Fe    0.68410    0.26885   -0.50304
107 Co    1.02827   -0.64043    0.54629

Date: Sat Apr 15 07:23:36 2023