User:   c.zeng@d0150
Date:   Sat Apr  8 08:12:03 2023
Arch:   x86_64
Pid:    70806
CWD:    /home/c.zeng/projects/hea-corrosion/hea-mlp/data-curation/volume/dft-jobs/32
Python: 3.8.1
gpaw:   /home/c.zeng/usr/installs/gpaw/source/gpaw-22.8.0/gpaw
_gpaw:  /home/c.zeng/usr/installs/gpaw/source/gpaw-22.8.0/
        _gpaw.cpython-38-x86_64-linux-gnu.so
ase:    /home/c.zeng/.local/lib/python3.8/site-packages/ase-3.22.1-py3.8.egg/ase (version 3.22.1)
numpy:  /shared/centos7/python/3.8.1/lib/python3.8/site-packages/numpy (version 1.17.4)
scipy:  /shared/centos7/python/3.8.1/lib/python3.8/site-packages/scipy (version 1.4.1)
units:  Angstrom and eV
cores: 64
OpenMP: False
OMP_NUM_THREADS: 1

Input parameters:
  convergence: {energy: 0.0001}
  kpts: [2 2 2]
  maxiter: 666
  mode: {ecut: 350.0,
         name: pw}
  occupations: {fixmagmom: False,
                name: fermi-dirac,
                width: 0.1}
  spinpol: True
  xc: PBE

System changes: positions, numbers, cell, pbc, initial_charges, initial_magmoms

Initialize ...

species:
  Cr:
    name: Chromium
    id: 33f258bda2ca9f93018e70263a35547b
    Z: 24.0
    valence: 6
    core: 18
    charge: 0.0
    file: /home/c.zeng/usr/data/gpaw-setups-0.9.20000/Cr.PBE.gz
    compensation charges: {type: gauss,
                           rc: 0.35,
                           lmax: 2}
    cutoffs: {filter: 2.14,
              core: 3.04}
    valence states:
      #              energy  rcut
      - 4s(1.00)    -4.007   1.164
      - 4p(0.00)    -0.989   1.217
      - 3d(5.00)    -2.913   1.111
      -  s          23.205   1.164
      -  p          26.223   1.217
      -  d          24.299   1.111

    # Using partial waves for Cr as LCAO basis

  Al:
    name: Aluminium
    id: 0292cae29f5d6237e50f6abdd43a7bdd
    Z: 13.0
    valence: 3
    core: 10
    charge: 0.0
    file: /home/c.zeng/usr/data/gpaw-setups-0.9.20000/Al.PBE.gz
    compensation charges: {type: gauss,
                           rc: 0.34,
                           lmax: 2}
    cutoffs: {filter: 1.91,
              core: 2.36}
    valence states:
      #              energy  rcut
      - 3s(2.00)    -7.753   1.085
      - 3p(1.00)    -2.712   1.085
      -  s          19.459   1.085
      -  p          24.499   1.085
      -  d           0.000   1.085

[...]

  Co:
    name: Cobalt
    id: 339d20d5b0b93d2de9531a1bee871d91
    Z: 27.0
    valence: 9
    core: 18
    charge: 0.0
    file: /home/c.zeng/usr/data/gpaw-setups-0.9.20000/Co.PBE.gz
    compensation charges: {type: gauss,
                           rc: 0.32,
                           lmax: 2}
    cutoffs: {filter: 1.87,
              core: 2.55}
    valence states:
      #              energy  rcut
      - 4s(2.00)    -5.469   1.005
      - 4p(0.00)    -1.277   1.058
      - 3d(7.00)    -8.205   1.005
      -  s          21.742   1.005
      -  p          25.934   1.058
      -  d          19.007   1.005

[...]

  Fe:
    name: Iron
    id: 37abbd8d6c3c35915a9b583b742da910
    Z: 26.0
    valence: 8
    core: 18
    charge: 0.0
    file: /home/c.zeng/usr/data/gpaw-setups-0.9.20000/Fe.PBE.gz
    compensation charges: {type: gauss,
                           rc: 0.33,
                           lmax: 2}
    cutoffs: {filter: 2.06,
              core: 2.67}
    valence states:
      #              energy  rcut
      - 4s(2.00)    -5.291   1.164
      - 4p(0.00)    -1.326   1.058
      - 3d(6.00)    -7.505   1.058
      -  s          21.920   1.164
      -  p          25.885   1.058
      -  d          19.706   1.058

[...]

  Ni:
    name: Nickel
    id: 0d9f38a9d6e76a2886f07bb4381f212b
    Z: 28.0
    valence: 16
    core: 12
    charge: 0.0
    file: /home/c.zeng/usr/data/gpaw-setups-0.9.20000/Ni.PBE.gz
    compensation charges: {type: gauss,
                           rc: 0.36,
                           lmax: 2}
    cutoffs: {filter: 2.14,
              core: 1.98}
    valence states:
      #              energy  rcut
      - 4s(2.00)    -5.642   1.164
      - 3p(6.00)   -71.394   1.207
      - 4p(0.00)    -1.226   1.207
      - 3d(8.00)    -8.875   1.138
      -  s          21.570   1.164
      -  d          18.337   1.138

    # Using partial waves for Ni as LCAO basis

Reference energy: -3699400.456887  # eV

Spin-polarized calculation.
Magnetic moment: 143.500000

Convergence criteria:
 Maximum [total energy] change in last 3 cyles: 0.0001 eV / electron
 Maximum integral of absolute [dens]ity change: 0.0001 electrons / valence electron
 Maximum integral of absolute [eigenst]ate change: 4e-08 eV^2 / valence electron
 Maximum number of scf [iter]ations: 666
 (Square brackets indicate name in SCF output, whereas a 'c' in
 the SCF output indicates the quantity has converged.)

Symmetries present (total): 1

  ( 1  0  0)
  ( 0  1  0)
  ( 0  0  1)

8 k-points: 2 x 2 x 2 Monkhorst-Pack grid
4 k-points in the irreducible part of the Brillouin zone
       k-points in crystal coordinates                weights
   0:     0.25000000   -0.25000000   -0.25000000          2/8
   1:     0.25000000   -0.25000000    0.25000000          2/8
   2:     0.25000000    0.25000000   -0.25000000          2/8
   3:     0.25000000    0.25000000    0.25000000          2/8

Wave functions: Plane wave expansion
  Cutoff energy: 350.000 eV
  Number of coefficients (min, max): 21428, 21428
  Pulay-stress correction: 0.000000 eV/Ang^3 (de/decut=0.000000)
  Using FFTW library
  ScaLapack parameters: grid=1x1, blocksize=None
  Wavefunction extrapolation:
    Improved wavefunction reuse through dual PAW basis

Occupation numbers: Fermi-Dirac:
  width: 0.1000  # eV

Eigensolver
   Davidson(niter=2)

Densities:
  Coarse grid: 49*49*49 grid
  Fine grid: 98*98*98 grid
  Total Charge: 0.000000

Density mixing:
  Method: difference
  Backend: pulay
  Linear mixing parameter: 0.05
  old densities: 5
  Damping of long wavelength oscillations: 50

Hamiltonian:
  XC and Coulomb potentials evaluated on a 98*98*98 grid
  Using the PBE Exchange-Correlation functional
  External potential:
    NoExternalPotential

XC parameters: PBE with 2 nearest neighbor stencil

Total number of cores used: 64
Parallelization over k-points: 4
Domain decomposition: 4 x 2 x 2

Number of atoms: 108
Number of atomic orbitals: 1025
Number of bands in calculation: 703
Number of valence electrons: 1020
Bands to converge: occupied

... initialized

Initializing position-dependent things.

Density initialized from atomic densities
Creating initial wave functions:
  703 bands from LCAO basis set

       /|   Ni                Cr    |
      / |    Fe         Al          |
     /  |       Cr                  |
    /  Ni                 Fe        |
   /o   CrNi     Cr CrFe     Cr     |
  /  NiCo  Fe Co     CrNiFe   Ni    |
 Cr   FeCo   CrNiNi     Co Co       |
 |     NiCoCr   CoNi Co   AlCrFe    |
 | Ni   | Fe CoAlCo NiNiCo FeNi     |
 |     Cr   NiCo     FeFe Cr  FeFe  |
 |      |       Co                  |
 |    CrNi   CrCoFe CrNiNi Ni  Ni   |
 |Co   NiNi Ni  Co CrCo  Cr Fe      |
 | Fe   .-Fe-CrNi---CoCoFe---Cr-----.
 |   CoFe     FeAl   CrNiNi        /
 |    CrFe     CoCr        CoFe   /
 |   /   Fe                   Al /
 |  /      Cr     Co Co     Cr  /
 | /         Fe                /
 |/             Fe            /
 *--------Fe--------Cr-------*

Positions:
   0 Cr     0.000010    0.000009   11.299466    ( 0.0000,  0.0000,  0.0000)
   1 Al    -0.000001    1.883288    1.883276    ( 0.0000,  0.0000,  0.0000)
   2 Cr     1.883276   11.299489    1.883254    ( 0.0000,  0.0000,  0.0000)
   3 Co     1.883265    1.883265   11.299477    ( 0.0000,  0.0000,  2.1000)
   4 Fe     3.766496    0.000008    0.000001    ( 0.0000,  0.0000,  2.0000)
   5 Cr     3.766474    1.883254    1.883209    ( 0.0000,  0.0000,  0.0000)
   6 Ni     5.649739   11.299489    1.883254    ( 0.0000,  0.0000,  1.5000)
   7 Fe     5.649750    1.883265    0.000004    ( 0.0000,  0.0000,  2.0000)
   8 Cr     7.533015    0.000034   11.299500    ( 0.0000,  0.0000,  0.0000)
   9 Co     7.533015    1.883254    1.883231    ( 0.0000,  0.0000,  2.1000)
  10 Ni     9.416235   11.299489    1.883288    ( 0.0000,  0.0000,  1.5000)
  11 Fe     9.416235    1.883265   11.299477    ( 0.0000,  0.0000,  2.0000)
  12 Co     0.000009    3.766496   11.299489    ( 0.0000,  0.0000,  2.1000)
  13 Co     0.000025    5.649727    1.883265    ( 0.0000,  0.0000,  2.1000)
  14 Fe     1.883254    3.766530    1.883242    ( 0.0000,  0.0000,  2.0000)
  15 Fe     1.883265    5.649739    0.000017    ( 0.0000,  0.0000,  2.0000)
  16 Fe     3.766496    3.766508    0.000006    ( 0.0000,  0.0000,  2.0000)
  17 Fe     3.766474    5.649761    1.883231    ( 0.0000,  0.0000,  2.0000)
  18 Cr     5.649761    3.766519    1.883197    ( 0.0000,  0.0000,  0.0000)
  19 Co     5.649727    5.649727    0.000004    ( 0.0000,  0.0000,  2.1000)
  20 Fe     7.532992    3.766496   11.299489    ( 0.0000,  0.0000,  2.0000)
  21 Ni     7.533004    5.649727    1.883265    ( 0.0000,  0.0000,  1.5000)
  22 Co     9.416246    3.766508    1.883254    ( 0.0000,  0.0000,  2.1000)
  23 Cr     9.416258    5.649705    0.000009    ( 0.0000,  0.0000,  0.0000)
  24 Cr     0.000038    7.532992    0.000004    ( 0.0000,  0.0000,  0.0000)
  25 Ni     0.000003    9.416246    1.883276    ( 0.0000,  0.0000,  1.5000)
  26 Fe     1.883265    7.532981    1.883242    ( 0.0000,  0.0000,  2.0000)
  27 Ni     1.883265    9.416246   11.299489    ( 0.0000,  0.0000,  1.5000)
  28 Co     3.766485    7.532981    0.000023    ( 0.0000,  0.0000,  2.1000)
  29 Co     3.766496    9.416235    1.883254    ( 0.0000,  0.0000,  2.1000)
  30 Co     5.649716    7.532992    1.883265    ( 0.0000,  0.0000,  2.1000)
  31 Cr     5.649727    9.416258    0.000019    ( 0.0000,  0.0000,  0.0000)
  32 Al     7.532970    7.532992   11.299477    ( 0.0000,  0.0000,  0.0000)
  33 Cr     7.532992    9.416269    1.883299    ( 0.0000,  0.0000,  0.0000)
  34 Cr     9.416269    7.532992    1.883288    ( 0.0000,  0.0000,  0.0000)
  35 Cr     9.416258    9.416280   11.299489    ( 0.0000,  0.0000,  0.0000)
  36 Fe    11.299477   11.299500    3.766519    ( 0.0000,  0.0000,  2.0000)
  37 Co    11.299500    1.883254    5.649716    ( 0.0000,  0.0000,  2.1000)
  38 Cr     1.883242   11.299489    5.649727    ( 0.0000,  0.0000,  0.0000)
  39 Fe     1.883242    1.883254    3.766508    ( 0.0000,  0.0000,  2.0000)
  40 Co     3.766496   11.299477    3.766496    ( 0.0000,  0.0000,  2.1000)
  41 Ni     3.766508    1.883265    5.649750    ( 0.0000,  0.0000,  1.5000)
  42 Ni     5.649750    0.000002    5.649727    ( 0.0000,  0.0000,  1.5000)
  43 Al     5.649773    1.883209    3.766530    ( 0.0000,  0.0000,  0.0000)
  44 Fe     7.533015   11.299489    3.766508    ( 0.0000,  0.0000,  2.0000)
  45 Co     7.533004    1.883254    5.649750    ( 0.0000,  0.0000,  2.1000)
  46 Fe     9.416258   11.299500    5.649716    ( 0.0000,  0.0000,  2.0000)
  47 Ni     9.416246    1.883231    3.766519    ( 0.0000,  0.0000,  1.5000)
  48 Fe     0.000004    3.766508    3.766508    ( 0.0000,  0.0000,  2.0000)
  49 Fe    -0.000000    5.649750    5.649750    ( 0.0000,  0.0000,  2.0000)
  50 Ni     1.883231    3.766508    5.649739    ( 0.0000,  0.0000,  1.5000)
  51 Ni     1.883231    5.649750    3.766485    ( 0.0000,  0.0000,  1.5000)
  52 Cr     3.766462    3.766519    3.766508    ( 0.0000,  0.0000,  0.0000)
  53 Co     3.766496    5.649750    5.649761    ( 0.0000,  0.0000,  2.1000)
  54 Fe     5.649761    3.766508    5.649773    ( 0.0000,  0.0000,  2.0000)
  55 Cr     5.649761    5.649761    3.766519    ( 0.0000,  0.0000,  0.0000)
  56 Co     7.533026    3.766519    3.766519    ( 0.0000,  0.0000,  2.1000)
  57 Fe     7.533004    5.649750    5.649750    ( 0.0000,  0.0000,  2.0000)
  58 Ni     9.416246    3.766519    5.649727    ( 0.0000,  0.0000,  1.5000)
  59 Fe     9.416246    5.649739    3.766519    ( 0.0000,  0.0000,  2.0000)
[...]
  93 Ni     7.532992    5.649727    9.416246    ( 0.0000,  0.0000,  1.5000)
  94 Co     9.416246    3.766474    9.416269    ( 0.0000,  0.0000,  2.1000)
  95 Cr     9.416258    5.649761    7.532970    ( 0.0000,  0.0000,  0.0000)
  96 Fe     0.000025    7.533004    7.532992    ( 0.0000,  0.0000,  2.0000)
  97 Ni     0.000015    9.416258    9.416224    ( 0.0000,  0.0000,  1.5000)
  98 Ni     1.883242    7.533004    9.416235    ( 0.0000,  0.0000,  1.5000)
  99 Fe     1.883242    9.416224    7.533004    ( 0.0000,  0.0000,  2.0000)
 100 Ni     3.766462    7.532992    7.532981    ( 0.0000,  0.0000,  1.5000)
 101 Cr     3.766462    9.416258    9.416258    ( 0.0000,  0.0000,  0.0000)
 102 Cr     5.649750    7.532992    9.416246    ( 0.0000,  0.0000,  0.0000)
 103 Cr     5.649750    9.416224    7.532992    ( 0.0000,  0.0000,  0.0000)
 104 Co     7.533004    7.532981    7.533004    ( 0.0000,  0.0000,  2.1000)
 105 Fe     7.533015    9.416246    9.416235    ( 0.0000,  0.0000,  2.0000)
 106 Cr     9.416258    7.533026    9.416212    ( 0.0000,  0.0000,  0.0000)
 107 Ni     9.416269    9.416246    7.533004    ( 0.0000,  0.0000,  1.5000)

Unit cell:
           periodic     x           y           z      points  spacing
  1. axis:    yes   11.299500    0.000000    0.000000    49     0.2306
  2. axis:    yes    0.000000   11.299500    0.000000    49     0.2306
  3. axis:    yes    0.000000    0.000000   11.299500    49     0.2306

  Lengths:  11.299500  11.299500  11.299500
  Angles:   90.000000  90.000000  90.000000

Effective grid spacing dv^(1/3) = 0.2306

     iter     time        total  log10-change:  magmom
                         energy  eigst   dens
iter:   1 08:15:02 -1076.013768                  +143.7778
iter:   2 08:16:30  -934.255416  -0.10  -1.18    +80.8170
iter:   3 08:17:59  -926.406581  -0.69  -1.15    +80.7922
iter:   4 08:19:25  -877.635459  -1.19  -1.23    +76.3532
iter:   5 08:20:53  -867.181426  -1.72  -1.32    +77.6087
iter:   6 08:22:22  -875.143648  -1.40  -1.37    +82.9759
iter:   7 08:23:50  -864.030414  -1.22  -1.35    +85.7691
iter:   8 08:25:18  -858.810752  -1.52  -1.48    +88.8548
iter:   9 08:26:47  -852.488614  -1.53  -1.59    +89.4443
iter:  10 08:28:15  -851.488811  -2.16  -1.76    +89.6173
iter:  11 08:29:42  -850.835598  -2.42  -1.79    +91.1529
iter:  12 08:31:09  -851.957647  -2.61  -1.87    +92.3689
iter:  13 08:32:37  -853.544575  -2.46  -1.87    +92.4083
iter:  14 08:34:06  -852.398832  -2.39  -1.83    +92.2735
iter:  15 08:35:34  -853.157744  -2.62  -2.04    +90.8445
iter:  16 08:37:02  -853.556395  -2.57  -2.00    +90.7364
iter:  17 08:38:32  -853.002955  -2.87  -2.04    +90.3551
iter:  18 08:40:01  -853.633918  -2.89  -2.20    +89.3032
iter:  19 08:41:32  -853.498733  -3.14  -2.14    +88.7248
iter:  20 08:43:01  -853.674556  -3.26  -2.25    +87.7263
iter:  21 08:44:29  -853.879540  -3.36  -2.28    +86.8445
iter:  22 08:45:59  -854.282011  -3.19  -2.33    +85.8048
iter:  23 08:47:26  -854.254806  -3.32  -2.32    +85.2116
iter:  24 08:48:52  -854.490006  -3.29  -2.36    +84.2831
iter:  25 08:50:21  -854.690962  -3.31  -2.41    +83.2577
iter:  26 08:51:49  -854.875026  -3.37  -2.40    +82.5991
iter:  27 08:53:18  -854.867759  -3.60  -2.41    +82.0332
iter:  28 08:54:48  -855.042858  -3.50  -2.49    +81.2884
iter:  29 08:56:17  -855.338951  -3.48  -2.53    +80.2165
iter:  30 08:57:48  -855.360953  -4.01  -2.48    +80.1254
iter:  31 08:59:17  -855.666024  -3.51  -2.51    +79.1224
iter:  32 09:00:46  -856.385566  -2.64  -2.45    +76.9126
iter:  33 09:02:17  -856.218183  -3.53  -2.30    +77.7573
iter:  34 09:03:46  -856.479112  -3.54  -2.37    +77.6078
iter:  35 09:05:16  -856.283441  -3.66  -2.30    +77.9349
iter:  36 09:06:45  -856.387783  -3.24  -2.34    +77.7923
iter:  37 09:08:15  -855.851788  -2.97  -2.31    +77.6920
iter:  38 09:09:45  -856.010641  -3.45  -2.59    +77.3245
iter:  39 09:11:15  -856.010635  -3.57  -2.55    +77.0850
iter:  40 09:12:46  -856.047004c -3.62  -2.65    +77.0509
iter:  41 09:14:17  -856.033917c -3.93  -2.69    +77.1473
iter:  42 09:15:48  -856.059278c -4.10  -2.75    +77.0642
iter:  43 09:17:06  -856.078819c -4.18  -2.78    +77.0470
iter:  44 09:18:32  -856.075906c -4.34  -2.76    +77.0548
iter:  45 09:19:59  -856.099968c -4.18  -2.83    +77.0793
iter:  46 09:21:30  -856.077522c -3.95  -2.82    +77.0288
iter:  47 09:23:00  -856.078684c -4.41  -3.01    +77.0678
iter:  48 09:24:28  -856.085756c -4.42  -3.05    +77.0987
iter:  49 09:25:57  -856.076474c -4.71  -3.04    +77.1003
iter:  50 09:27:25  -856.076200c -5.15  -3.18    +77.1268
iter:  51 09:28:53  -856.075830c -5.15  -3.24    +77.1460
iter:  52 09:30:22  -856.076452c -5.18  -3.29    +77.1364
iter:  53 09:31:51  -856.075155c -5.27  -3.39    +77.1332
iter:  54 09:33:20  -856.075478c -5.41  -3.43    +77.1301
iter:  55 09:34:49  -856.075647c -5.67  -3.48    +77.1147
iter:  56 09:36:18  -856.075994c -5.64  -3.53    +77.1047
iter:  57 09:37:50  -856.075347c -5.72  -3.53    +77.1009
iter:  58 09:39:20  -856.076073c -5.83  -3.61    +77.0857
iter:  59 09:40:51  -856.076078c -6.04  -3.66    +77.0751
iter:  60 09:42:20  -856.075948c -6.11  -3.71    +77.0700
iter:  61 09:43:51  -856.076959c -6.11  -3.72    +77.0603
iter:  62 09:45:19  -856.076583c -6.14  -3.76    +77.0554
iter:  63 09:46:48  -856.076496c -6.32  -3.80    +77.0520
iter:  64 09:48:17  -856.076866c -6.50  -3.88    +77.0451
iter:  65 09:49:45  -856.076863c -6.50  -3.91    +77.0427
iter:  66 09:51:14  -856.076772c -6.51  -3.95    +77.0410
iter:  67 09:52:45  -856.077219c -6.36  -3.96    +77.0355
iter:  68 09:54:15  -856.076994c -6.61  -4.00c   +77.0347
iter:  69 09:55:45  -856.077084c -6.71  -4.08c   +77.0337
iter:  70 09:57:14  -856.077068c -6.83  -4.10c   +77.0312
iter:  71 09:58:43  -856.077196c -6.74  -4.14c   +77.0307
iter:  72 10:00:12  -856.076956c -6.76  -4.18c   +77.0299
iter:  73 10:01:41  -856.077058c -6.82  -4.17c   +77.0275
iter:  74 10:03:08  -856.076991c -7.00  -4.23c   +77.0264
iter:  75 10:04:39  -856.077110c -7.27  -4.30c   +77.0243
iter:  76 10:06:10  -856.076933c -7.30  -4.31c   +77.0242
iter:  77 10:07:39  -856.077015c -7.38  -4.35c   +77.0225
iter:  78 10:09:09  -856.076901c -7.34  -4.39c   +77.0213
iter:  79 10:10:39  -856.076913c -7.53c -4.44c   +77.0204

Converged after 79 iterations.

Dipole moment: (0.146075, -0.191022, 0.003168) |e|*Ang

Total magnetic moment: (0.000000, 0.000000, 77.020429)
Local magnetic moments:
   0 Cr ( 0.000000,  0.000000, -2.465253)
   1 Al ( 0.000000,  0.000000, -0.035716)
   2 Cr ( 0.000000,  0.000000, -2.446597)
   3 Co ( 0.000000,  0.000000,  1.295442)
   4 Fe ( 0.000000,  0.000000,  2.429043)
   5 Cr ( 0.000000,  0.000000, -2.386097)
   6 Ni ( 0.000000,  0.000000,  0.285375)
   7 Fe ( 0.000000,  0.000000,  2.542145)
   8 Cr ( 0.000000,  0.000000, -2.398032)
   9 Co ( 0.000000,  0.000000,  1.513014)
  10 Ni ( 0.000000,  0.000000,  0.302412)
  11 Fe ( 0.000000,  0.000000,  2.719774)
  12 Co ( 0.000000,  0.000000,  1.695109)
  13 Co ( 0.000000,  0.000000,  1.496705)
  14 Fe ( 0.000000,  0.000000,  2.581670)
  15 Fe ( 0.000000,  0.000000,  2.820206)
  16 Fe ( 0.000000,  0.000000,  2.650230)
  17 Fe ( 0.000000,  0.000000,  2.622893)
  18 Cr ( 0.000000,  0.000000, -1.933480)
  19 Co ( 0.000000,  0.000000,  1.617802)
  20 Fe ( 0.000000,  0.000000,  2.788633)
  21 Ni ( 0.000000,  0.000000,  0.327295)
  22 Co ( 0.000000,  0.000000,  1.641332)
  23 Cr ( 0.000000,  0.000000, -2.481656)
  24 Cr ( 0.000000,  0.000000, -2.472024)
  25 Ni ( 0.000000,  0.000000,  0.202514)
  26 Fe ( 0.000000,  0.000000,  2.788285)
  27 Ni ( 0.000000,  0.000000,  0.388554)
  28 Co ( 0.000000,  0.000000,  1.602166)
  29 Co ( 0.000000,  0.000000,  1.603940)
  30 Co ( 0.000000,  0.000000,  1.573601)
  31 Cr ( 0.000000,  0.000000,  2.191260)
  32 Al ( 0.000000,  0.000000, -0.023339)
  33 Cr ( 0.000000,  0.000000, -2.475211)
  34 Cr ( 0.000000,  0.000000,  2.407173)
  35 Cr ( 0.000000,  0.000000,  2.209207)
  36 Fe ( 0.000000,  0.000000,  2.732642)
  37 Co ( 0.000000,  0.000000,  1.353085)
  38 Cr ( 0.000000,  0.000000, -2.342902)
  39 Fe ( 0.000000,  0.000000,  2.507957)
  40 Co ( 0.000000,  0.000000,  1.451992)
  41 Ni ( 0.000000,  0.000000,  0.212128)
  42 Ni ( 0.000000,  0.000000,  0.349263)
  43 Al ( 0.000000,  0.000000, -0.015730)
  44 Fe ( 0.000000,  0.000000,  2.694592)
  45 Co ( 0.000000,  0.000000,  1.546985)
  46 Fe ( 0.000000,  0.000000,  2.551316)
  47 Ni ( 0.000000,  0.000000,  0.624521)
  48 Fe ( 0.000000,  0.000000,  2.801201)
  49 Fe ( 0.000000,  0.000000,  2.762337)
  50 Ni ( 0.000000,  0.000000,  0.538755)
  51 Ni ( 0.000000,  0.000000,  0.519743)
  52 Cr ( 0.000000,  0.000000, -2.087668)
  53 Co ( 0.000000,  0.000000,  1.676796)
  54 Fe ( 0.000000,  0.000000,  2.686894)
  55 Cr ( 0.000000,  0.000000, -2.518186)
  56 Co ( 0.000000,  0.000000,  1.598047)
  57 Fe ( 0.000000,  0.000000,  2.809592)
  58 Ni ( 0.000000,  0.000000,  0.508183)
  59 Fe ( 0.000000,  0.000000,  2.756537)
[...]
  93 Ni ( 0.000000,  0.000000,  0.268054)
  94 Co ( 0.000000,  0.000000,  1.639944)
  95 Cr ( 0.000000,  0.000000, -2.766427)
  96 Fe ( 0.000000,  0.000000,  2.805670)
  97 Ni ( 0.000000,  0.000000,  0.352242)
  98 Ni ( 0.000000,  0.000000,  0.536604)
  99 Fe ( 0.000000,  0.000000,  2.625953)
 100 Ni ( 0.000000,  0.000000,  0.539416)
 101 Cr ( 0.000000,  0.000000, -2.429648)
 102 Cr ( 0.000000,  0.000000, -2.500115)
 103 Cr ( 0.000000,  0.000000,  2.258382)
 104 Co ( 0.000000,  0.000000,  1.463143)
 105 Fe ( 0.000000,  0.000000,  2.225400)
 106 Cr ( 0.000000,  0.000000,  2.280451)
 107 Ni ( 0.000000,  0.000000,  0.278545)

Energy contributions relative to reference atoms: (reference = -3699400.456887)

Kinetic:       -232.801291
Potential:     +108.726107
External:        +0.000000
XC:            -764.955223
Entropy (-ST):   -4.689239
Local:          +35.298114
Free energy:   -858.421532
Extrapolated:  -856.076913

Spin contamination: 57.909237 electrons
Showing only first 2 kpts
                      Up                     Down
 Kpt  Band  Eigenvalues  Occupancy  Eigenvalues  Occupancy
  0   508      7.30903    0.99950      8.43166    0.02592
  0   509      7.32235    0.99943      8.43858    0.02423
  0   510      7.34556    0.99928      8.44551    0.02265
  0   511      7.35964    0.99917      8.46483    0.01874

  1   508      7.30447    0.99952      8.43095    0.02610
  1   509      7.31871    0.99945      8.44738    0.02224
  1   510      7.32635    0.99941      8.45244    0.02116
  1   511      7.34807    0.99926      8.46472    0.01876

Fermi level: 8.06903

No gap

Forces in eV/Ang:
  0 Cr   -0.23991   -0.39390   -0.73877
  1 Al   -0.35258    0.42171    0.11706
  2 Cr    0.39762   -0.78947    0.28965
  3 Co    0.23525    0.03335   -0.06648
  4 Fe   -0.36078    0.19108    0.33079
  5 Cr   -0.29032   -0.18379   -0.63702
  6 Ni   -0.08137    0.05335   -0.00889
  7 Fe    0.23727    0.04813    0.16448
  8 Cr    0.37663    0.24151    0.00392
  9 Co    0.27968    0.06985   -0.03328
 10 Ni   -0.11907   -0.03033    0.12339
 11 Fe   -0.33113   -0.03506   -0.09762
 12 Co   -0.01911    0.19451   -0.22369
 13 Co    0.17161   -0.39740    0.08029
 14 Fe    0.04121    0.23853   -0.13882
 15 Fe   -0.07196    0.01905   -0.39914
 16 Fe    0.16030    0.12347   -0.27871
 17 Fe    0.16108    0.09937    0.20359
 18 Cr    0.32731    0.32456   -0.41567
 19 Co   -0.46010   -0.07928    0.06504
 20 Fe   -0.07885    0.19580   -0.04799
 21 Ni   -0.06167   -0.09437    0.20358
 22 Co   -0.10210    0.12818    0.06865
 23 Cr    0.14116   -0.68919   -0.09072
 24 Cr    0.35307    0.51346   -0.09772
 25 Ni    0.02919    0.13712   -0.00630
 26 Fe    0.00109    0.13836    0.23078
 27 Ni    0.07741   -0.02614    0.03613
 28 Co   -0.08918   -0.27909    0.10221
 29 Co   -0.15416    0.00872    0.19074
 30 Co   -0.16389   -0.21887    0.22655
 31 Cr   -0.31303    0.00645    0.52203
 32 Al   -0.42023   -0.59859    0.05890
 33 Cr    0.01244   -0.02441    0.66926
 34 Cr    0.13236   -0.46235    0.01556
 35 Cr    0.26233    0.93028    0.13090
 36 Fe   -0.03048   -0.14205    0.26586
 37 Co   -0.00793   -0.02052    0.02033
 38 Cr    0.33780   -0.24590   -0.65170
 39 Fe    0.34570   -0.03986    0.31701
 40 Co   -0.16021   -0.38258    0.04318
 41 Ni    0.00577    0.08305    0.03386
 42 Ni   -0.05758    0.11781    0.01525
 43 Al    0.26581   -0.48858    0.29321
 44 Fe    0.27664    0.33841   -0.24560
 45 Co    0.07911    0.16467   -0.06260
 46 Fe    0.22788    0.21469    0.07576
 47 Ni   -0.15837    0.00077    0.06858
 48 Fe   -0.12492    0.08578    0.25322
 49 Fe    0.13270   -0.28136    0.14128
 50 Ni    0.03081    0.09917    0.03524
 51 Ni    0.20824   -0.06908    0.03204
 52 Cr   -0.76928    0.41019    0.36429
 53 Co   -0.07438    0.01130    0.01708
 54 Fe   -0.09479   -0.03091    0.38204
 55 Cr    0.32161    0.48715    0.06128
 56 Co    0.19491    0.01526    0.03431
 57 Fe    0.02598    0.17688    0.18266
 58 Ni   -0.04800   -0.10045   -0.12347
 59 Fe   -0.10539   -0.28221    0.01078
[...]
 93 Ni   -0.12776   -0.04173   -0.04915
 94 Co    0.05410   -0.15674    0.10442
 95 Cr    0.02181   -0.16896    0.12476
 96 Fe    0.26678    0.03561   -0.22559
 97 Ni    0.01052    0.00790   -0.11406
 98 Ni    0.09832   -0.11710   -0.13131
 99 Fe    0.07199   -0.18487   -0.05511
100 Ni   -0.06929   -0.12416   -0.03823
101 Cr   -0.76606    0.05359    0.00104
102 Cr    0.25474   -0.36863   -0.46414
103 Cr   -0.40436   -0.38813   -0.17999
104 Co   -0.11588   -0.16098    0.19873
105 Fe    0.50951    0.05357   -0.57108
106 Cr    0.12437   -0.26085   -0.16366
107 Ni    0.02722    0.10184    0.15318

Date: Sat Apr  8 10:11:02 2023