User:   c.zeng@d0019
Date:   Sat Apr 15 15:46:11 2023
Arch:   x86_64
Pid:    156783
CWD:    /home/c.zeng/projects/hea-corrosion/hea-mlp/data-curation/bulk-mcmc/dft-jobs/51
Python: 3.8.1
gpaw:   /home/c.zeng/usr/installs/gpaw/source/gpaw-22.8.0/gpaw
_gpaw:  /home/c.zeng/usr/installs/gpaw/source/gpaw-22.8.0/
        _gpaw.cpython-38-x86_64-linux-gnu.so
ase:    /home/c.zeng/.local/lib/python3.8/site-packages/ase-3.22.1-py3.8.egg/ase (version 3.22.1)
numpy:  /shared/centos7/python/3.8.1/lib/python3.8/site-packages/numpy (version 1.17.4)
scipy:  /shared/centos7/python/3.8.1/lib/python3.8/site-packages/scipy (version 1.4.1)
units:  Angstrom and eV
cores: 30
OpenMP: False
OMP_NUM_THREADS: 1

Input parameters:
  convergence: {energy: 0.0001}
  kpts: [2 2 2]
  maxiter: 666
  mode: {ecut: 350.0,
         name: pw}
  occupations: {fixmagmom: False,
                name: fermi-dirac,
                width: 0.1}
  spinpol: True
  xc: PBE

System changes: positions, numbers, cell, pbc, initial_charges, initial_magmoms

Initialize ...

species:
  Cr:
    name: Chromium
    id: 33f258bda2ca9f93018e70263a35547b
    Z: 24.0
    valence: 6
    core: 18
    charge: 0.0
    file: /home/c.zeng/usr/data/gpaw-setups-0.9.20000/Cr.PBE.gz
    compensation charges: {type: gauss,
                           rc: 0.35,
                           lmax: 2}
    cutoffs: {filter: 2.14,
              core: 3.04}
    valence states:
      #              energy  rcut
      - 4s(1.00)    -4.007   1.164
      - 4p(0.00)    -0.989   1.217
      - 3d(5.00)    -2.913   1.111
      -  s          23.205   1.164
      -  p          26.223   1.217
      -  d          24.299   1.111

    # Using partial waves for Cr as LCAO basis

  Ni:
    name: Nickel
    id: 0d9f38a9d6e76a2886f07bb4381f212b
    Z: 28.0
    valence: 16
    core: 12
    charge: 0.0
    file: /home/c.zeng/usr/data/gpaw-setups-0.9.20000/Ni.PBE.gz
    compensation charges: {type: gauss,
                           rc: 0.36,
                           lmax: 2}
    cutoffs: {filter: 2.14,
              core: 1.98}
    valence states:
      #              energy  rcut
      - 4s(2.00)    -5.642   1.164
      - 3p(6.00)   -71.394   1.207
      - 4p(0.00)    -1.226   1.207
      - 3d(8.00)    -8.875   1.138
      -  s          21.570   1.164
      -  d          18.337   1.138

[...]

  Fe:
    name: Iron
    id: 37abbd8d6c3c35915a9b583b742da910
    Z: 26.0
    valence: 8
    core: 18
    charge: 0.0
    file: /home/c.zeng/usr/data/gpaw-setups-0.9.20000/Fe.PBE.gz
    compensation charges: {type: gauss,
                           rc: 0.33,
                           lmax: 2}
    cutoffs: {filter: 2.06,
              core: 2.67}
    valence states:
      #              energy  rcut
      - 4s(2.00)    -5.291   1.164
      - 4p(0.00)    -1.326   1.058
      - 3d(6.00)    -7.505   1.058
      -  s          21.920   1.164
      -  p          25.885   1.058
      -  d          19.706   1.058

[...]

  Co:
    name: Cobalt
    id: 339d20d5b0b93d2de9531a1bee871d91
    Z: 27.0
    valence: 9
    core: 18
    charge: 0.0
    file: /home/c.zeng/usr/data/gpaw-setups-0.9.20000/Co.PBE.gz
    compensation charges: {type: gauss,
                           rc: 0.32,
                           lmax: 2}
    cutoffs: {filter: 1.87,
              core: 2.55}
    valence states:
      #              energy  rcut
      - 4s(2.00)    -5.469   1.005
      - 4p(0.00)    -1.277   1.058
      - 3d(7.00)    -8.205   1.005
      -  s          21.742   1.005
      -  p          25.934   1.058
      -  d          19.007   1.005

[...]

  Al:
    name: Aluminium
    id: 0292cae29f5d6237e50f6abdd43a7bdd
    Z: 13.0
    valence: 3
    core: 10
    charge: 0.0
    file: /home/c.zeng/usr/data/gpaw-setups-0.9.20000/Al.PBE.gz
    compensation charges: {type: gauss,
                           rc: 0.34,
                           lmax: 2}
    cutoffs: {filter: 1.91,
              core: 2.36}
    valence states:
      #              energy  rcut
      - 3s(2.00)    -7.753   1.085
      - 3p(1.00)    -2.712   1.085
      -  s          19.459   1.085
      -  p          24.499   1.085
      -  d           0.000   1.085

    # Using partial waves for Al as LCAO basis

Reference energy: -3699400.456887  # eV

Spin-polarized calculation.
Magnetic moment: 143.500000

Convergence criteria:
 Maximum [total energy] change in last 3 cyles: 0.0001 eV / electron
 Maximum integral of absolute [dens]ity change: 0.0001 electrons / valence electron
 Maximum integral of absolute [eigenst]ate change: 4e-08 eV^2 / valence electron
 Maximum number of scf [iter]ations: 666
 (Square brackets indicate name in SCF output, whereas a 'c' in
 the SCF output indicates the quantity has converged.)

Symmetries present (total): 1

  ( 1  0  0)
  ( 0  1  0)
  ( 0  0  1)

8 k-points: 2 x 2 x 2 Monkhorst-Pack grid
4 k-points in the irreducible part of the Brillouin zone
       k-points in crystal coordinates                weights
   0:     0.25000000   -0.25000000   -0.25000000          2/8
   1:     0.25000000   -0.25000000    0.25000000          2/8
   2:     0.25000000    0.25000000   -0.25000000          2/8
   3:     0.25000000    0.25000000    0.25000000          2/8

Wave functions: Plane wave expansion
  Cutoff energy: 350.000 eV
  Number of coefficients (min, max): 18052, 18052
  Pulay-stress correction: 0.000000 eV/Ang^3 (de/decut=0.000000)
  Using FFTW library
  ScaLapack parameters: grid=1x1, blocksize=None
  Wavefunction extrapolation:
    Improved wavefunction reuse through dual PAW basis

Occupation numbers: Fermi-Dirac:
  width: 0.1000  # eV

Eigensolver
   Davidson(niter=2)

Densities:
  Coarse grid: 48*48*48 grid
  Fine grid: 96*96*96 grid
  Total Charge: 0.000000

Density mixing:
  Method: difference
  Backend: pulay
  Linear mixing parameter: 0.05
  old densities: 5
  Damping of long wavelength oscillations: 50

Hamiltonian:
  XC and Coulomb potentials evaluated on a 96*96*96 grid
  Using the PBE Exchange-Correlation functional
  External potential:
    NoExternalPotential

XC parameters: PBE with 2 nearest neighbor stencil

Total number of cores used: 30
Parallelization over k-points: 2
Domain decomposition: 5 x 3 x 1

Number of atoms: 108
Number of atomic orbitals: 1025
Number of bands in calculation: 703
Number of valence electrons: 1020
Bands to converge: occupied

... initialized

Initializing position-dependent things.

Density initialized from atomic densities
Creating initial wave functions:
  703 bands from LCAO basis set

        Cr------------------------.
       /|  Co                Co   |
      Ni|   Cr         Cr         |
     / Fe      Fe       Al        |
    /   CCo      Ni       Fe      |
   /e   | CoCr     CoAl    NiCr   |
  /  FeNi  NiCo     NiCrCo        |
 *    FeFe  FeCoNi     CoAl       |
 |     CoFeCr  CoFe Ni  NiFeNi    |
 | Fe   NiNiNiCo NiNiNiFe  Cr     |
 |   CoCr  NiAlCr   NiCrCr   Fe   |
 |    FeNi  FeFeCoCr CoFeCr   Cr  |
 |     CrFeFe  Cr CrCr  CoFeFe    |
 |      .-CoNiCo-FeCrNiCo--CoNi---.
 |   CrCo    CoAl   NiCrFe       /
 |    / Ni    NiFe       Cr     /
 |   /            Cr           /
 |Ni/      Co       Co        /
 |/            Cr           /
 *----------------Cr-------*

Positions:
   0 Cr     0.005316   -0.016350   10.639749    ( 0.0000,  0.0000,  0.0000)
   1 Ni    10.672340    1.801276    1.786848    ( 0.0000,  0.0000,  0.0000)
   2 Fe     1.795727   10.625972    1.782259    ( 0.0000,  0.0000,  0.0000)
   3 Ni     1.780787    1.796175   10.644605    ( 0.0000,  0.0000,  2.1000)
   4 Fe     3.523539   -0.014558    0.017268    ( 0.0000,  0.0000,  2.0000)
   5 Co     3.522568    1.781672    1.746648    ( 0.0000,  0.0000,  0.0000)
   6 Co     5.320952   10.642342    1.763136    ( 0.0000,  0.0000,  1.5000)
   7 Cr     5.342082    1.828767    0.007462    ( 0.0000,  0.0000,  2.0000)
   8 Cr     7.144895    0.019195    0.012033    ( 0.0000,  0.0000,  0.0000)
   9 Co     7.143497    1.798064    1.764939    ( 0.0000,  0.0000,  2.1000)
  10 Cr     8.891362   10.651627    1.788353    ( 0.0000,  0.0000,  1.5000)
  11 Co     8.888779    1.804777   10.642609    ( 0.0000,  0.0000,  2.0000)
  12 Fe     0.008694    3.581540   10.650250    ( 0.0000,  0.0000,  2.1000)
  13 Cr     0.018979    5.332745    1.789751    ( 0.0000,  0.0000,  2.1000)
  14 Ni     1.778129    3.600941    1.760019    ( 0.0000,  0.0000,  2.0000)
  15 Co     1.790423    5.343267   -0.017766    ( 0.0000,  0.0000,  2.0000)
  16 Cr     3.542802    3.589864   -0.015614    ( 0.0000,  0.0000,  2.0000)
  17 Co     3.526837    5.358538    1.765793    ( 0.0000,  0.0000,  2.0000)
  18 Fe     5.336650    3.606501    1.755815    ( 0.0000,  0.0000,  0.0000)
  19 Ni     5.300399    5.323642   -0.012797    ( 0.0000,  0.0000,  2.1000)
  20 Al     7.122858    3.584816   10.659524    ( 0.0000,  0.0000,  2.0000)
  21 Cr     7.120500    5.315168    1.805502    ( 0.0000,  0.0000,  1.5000)
  22 Cr     8.892034    3.590952    1.773146    ( 0.0000,  0.0000,  2.1000)
  23 Fe     8.925340    5.301487   -0.003100    ( 0.0000,  0.0000,  0.0000)
  24 Ni     0.023055    7.096680   -0.007939    ( 0.0000,  0.0000,  0.0000)
  25 Cr     0.019141    8.871245    1.787510    ( 0.0000,  0.0000,  1.5000)
  26 Co     1.784372    7.104567    1.776443    ( 0.0000,  0.0000,  2.0000)
  27 Co     1.779944    8.867628   10.659406    ( 0.0000,  0.0000,  1.5000)
  28 Ni     3.547785    7.097897    0.009215    ( 0.0000,  0.0000,  2.1000)
  29 Cr     3.541137    8.858109    1.788225    ( 0.0000,  0.0000,  2.1000)
  30 Cr     5.295105    7.099391    1.787894    ( 0.0000,  0.0000,  2.1000)
  31 Ni     5.303685    8.873828    0.029898    ( 0.0000,  0.0000,  0.0000)
  32 Cr     7.106883    7.088719   10.645159    ( 0.0000,  0.0000,  0.0000)
  33 Co     7.111055    8.901137    1.809472    ( 0.0000,  0.0000,  0.0000)
  34 Co     8.939384    7.093404    1.799238    ( 0.0000,  0.0000,  0.0000)
  35 Co     8.919972    8.915853   10.664881    ( 0.0000,  0.0000,  0.0000)
  36 Ni    10.679704   10.658873    3.584517    ( 0.0000,  0.0000,  2.0000)
  37 Fe    10.670921    1.796367    5.340289    ( 0.0000,  0.0000,  2.1000)
  38 Fe     1.770350   10.649001    5.343491    ( 0.0000,  0.0000,  0.0000)
  39 Co     1.791800    1.784671    3.584891    ( 0.0000,  0.0000,  2.0000)
  40 Ni     3.529718   10.626388    3.565234    ( 0.0000,  0.0000,  2.1000)
  41 Fe     3.535716    1.793465    5.367289    ( 0.0000,  0.0000,  1.5000)
  42 Co     5.311497    0.001574    5.366254    ( 0.0000,  0.0000,  1.5000)
  43 Al     5.332627    1.768055    3.580793    ( 0.0000,  0.0000,  0.0000)
  44 Cr     7.136966   10.673941    3.563804    ( 0.0000,  0.0000,  2.0000)
  45 Cr     7.136774    1.794126    5.358944    ( 0.0000,  0.0000,  2.1000)
  46 Co     8.925938   10.673621    5.347589    ( 0.0000,  0.0000,  2.0000)
  47 Fe     8.883827    1.779111    3.582404    ( 0.0000,  0.0000,  1.5000)
  48 Ni    -0.010038    3.572341    3.580996    ( 0.0000,  0.0000,  2.0000)
  49 Co    10.685573    5.328935    5.338550    ( 0.0000,  0.0000,  2.0000)
  50 Ni     1.784180    3.582949    5.348357    ( 0.0000,  0.0000,  1.5000)
  51 Fe     1.766326    5.339510    3.565255    ( 0.0000,  0.0000,  1.5000)
  52 Ni     3.522387    3.605007    3.574059    ( 0.0000,  0.0000,  0.0000)
  53 Al     3.543581    5.347343    5.347962    ( 0.0000,  0.0000,  2.1000)
  54 Co     5.333950    3.591678    5.360630    ( 0.0000,  0.0000,  2.0000)
  55 Cr     5.336458    5.346308    3.560132    ( 0.0000,  0.0000,  0.0000)
  56 Ni     7.143102    3.570089    3.572138    ( 0.0000,  0.0000,  2.1000)
  57 Cr     7.120265    5.347471    5.345689    ( 0.0000,  0.0000,  2.0000)
  58 Cr     8.888299    3.570665    5.342018    ( 0.0000,  0.0000,  1.5000)
  59 Fe     8.904573    5.339084    3.577453    ( 0.0000,  0.0000,  2.0000)
[...]
  93 Cr     7.108740    5.307762    8.854395    ( 0.0000,  0.0000,  1.5000)
  94 Al     8.907593    3.561296    8.890348    ( 0.0000,  0.0000,  2.1000)
  95 Fe     8.917806    5.336309    7.100224    ( 0.0000,  0.0000,  0.0000)
  96 Fe     0.016270    7.102027    7.111664    ( 0.0000,  0.0000,  2.0000)
  97 Fe     0.000822    8.895150    8.883817    ( 0.0000,  0.0000,  1.5000)
  98 Co     1.771182    7.105090    8.888608    ( 0.0000,  0.0000,  1.5000)
  99 Ni     1.775184    8.850318    7.108494    ( 0.0000,  0.0000,  2.0000)
 100 Co     3.530401    7.086478    7.104972    ( 0.0000,  0.0000,  1.5000)
 101 Fe     3.524841    8.851001    8.894798    ( 0.0000,  0.0000,  0.0000)
 102 Co     5.310654    7.102827    8.871128    ( 0.0000,  0.0000,  0.0000)
 103 Ni     5.290613    8.850286    7.104876    ( 0.0000,  0.0000,  0.0000)
 104 Co     7.129016    7.083330    7.142750    ( 0.0000,  0.0000,  2.1000)
 105 Al     7.143241    8.903186    8.854384    ( 0.0000,  0.0000,  2.0000)
 106 Ni     8.926504    7.115858    8.862313    ( 0.0000,  0.0000,  0.0000)
 107 Cr     8.932896    8.877648    7.127479    ( 0.0000,  0.0000,  1.5000)

Unit cell:
           periodic     x           y           z      points  spacing
  1. axis:    yes   10.671700    0.000000    0.000000    48     0.2223
  2. axis:    yes    0.000000   10.671700    0.000000    48     0.2223
  3. axis:    yes    0.000000    0.000000   10.671700    48     0.2223

  Lengths:  10.671700  10.671700  10.671700
  Angles:   90.000000  90.000000  90.000000

Effective grid spacing dv^(1/3) = 0.2223

     iter     time        total  log10-change:  magmom
                         energy  eigst   dens
iter:   1 15:50:11  -949.266148                  +143.1616
iter:   2 15:51:44  -972.164567  -0.44  -1.31    +107.7752
iter:   3 15:53:17  -901.895106  -0.83  -1.25    +78.9398
iter:   4 15:54:49  -876.308926  -1.41  -1.35    +67.0938
iter:   5 15:56:22  -876.390289  -1.85  -1.46    +58.9979
iter:   6 15:57:55  -875.964719  -1.90  -1.48    +55.8790
iter:   7 15:59:27  -871.007019  -1.80  -1.50    +53.7145
iter:   8 16:01:00  -874.075798  -1.66  -1.59    +53.3650
iter:   9 16:02:33  -874.986952  -1.73  -1.67    +52.5394
iter:  10 16:04:05  -875.385302  -1.91  -1.71    +51.3373
iter:  11 16:05:37  -868.590342  -2.19  -1.70    +51.7586
iter:  12 16:07:10  -870.602697  -2.27  -1.86    +52.1705
iter:  13 16:08:41  -867.670059  -2.57  -1.84    +52.2104
iter:  14 16:10:13  -867.372022  -2.83  -1.93    +52.3999
iter:  15 16:11:44  -867.896243  -2.98  -1.96    +53.1810
iter:  16 16:13:16  -870.145071  -2.60  -1.97    +54.1361
iter:  17 16:14:48  -868.512514  -2.62  -1.91    +54.2066
iter:  18 16:16:19  -870.637001  -2.56  -2.00    +54.7408
iter:  19 16:17:50  -869.433937  -2.53  -1.95    +55.4445
iter:  20 16:19:22  -870.220092  -2.53  -2.04    +56.1638
iter:  21 16:20:53  -869.163012  -2.83  -2.00    +56.3721
iter:  22 16:22:25  -870.001886  -2.78  -2.13    +56.7833
iter:  23 16:23:56  -869.007198  -2.86  -2.08    +57.5779
iter:  24 16:25:28  -869.086620  -3.40  -2.16    +58.2554
iter:  25 16:26:59  -869.494022  -3.19  -2.24    +58.9380
iter:  26 16:28:31  -870.139469  -2.92  -2.22    +59.1811
iter:  27 16:30:02  -869.748381  -3.02  -2.18    +59.9999
iter:  28 16:31:33  -870.381855  -3.01  -2.30    +60.7273
iter:  29 16:33:05  -870.215657  -2.94  -2.24    +60.8709
iter:  30 16:34:36  -870.011293  -3.22  -2.31    +61.3272
iter:  31 16:36:08  -869.837308  -3.49  -2.38    +61.9743
iter:  32 16:37:39  -869.968003  -3.76  -2.48    +62.6613
iter:  33 16:39:10  -869.977845  -4.10  -2.49    +62.9933
iter:  34 16:40:41  -870.082203  -3.98  -2.52    +63.6246
iter:  35 16:42:13  -870.304529  -3.25  -2.53    +65.0212
iter:  36 16:43:44  -870.378612  -3.69  -2.54    +64.9471
iter:  37 16:45:16  -870.418967  -3.73  -2.61    +64.9297
iter:  38 16:46:47  -870.404964c -3.89  -2.68    +64.9192
iter:  39 16:48:18  -870.427263c -3.80  -2.76    +64.9316
iter:  40 16:49:49  -870.407933c -4.03  -2.79    +64.9086
iter:  41 16:51:20  -870.412201c -4.40  -2.97    +65.0143
iter:  42 16:52:51  -870.433668c -4.54  -3.11    +65.0746
iter:  43 16:54:23  -870.442753c -4.71  -3.13    +65.1756
iter:  44 16:55:54  -870.459959c -4.81  -3.18    +65.2811
iter:  45 16:57:25  -870.496861c -4.43  -3.23    +65.4817
iter:  46 16:58:57  -870.520087c -4.63  -3.24    +65.6376
iter:  47 17:00:28  -870.654338  -3.32  -3.23    +66.5970
iter:  48 17:01:59  -870.661867  -4.34  -2.95    +66.6354
iter:  49 17:03:31  -870.672449c -4.51  -2.94    +66.7377
iter:  50 17:05:02  -870.672268c -5.06  -2.92    +66.7605
iter:  51 17:06:33  -870.666136c -4.91  -2.91    +66.7938
iter:  52 17:08:04  -870.706248c -3.68  -2.96    +66.8540
iter:  53 17:09:36  -870.641113c -4.10  -2.83    +66.8238
iter:  54 17:11:07  -870.625487c -4.62  -3.06    +66.7199
iter:  55 17:12:39  -870.626147c -4.94  -3.29    +66.6411
iter:  56 17:14:10  -870.628265c -5.21  -3.33    +66.6326
iter:  57 17:15:42  -870.627029c -5.44  -3.37    +66.5987
iter:  58 17:17:14  -870.628427c -5.41  -3.41    +66.5792
iter:  59 17:18:45  -870.629055c -5.41  -3.42    +66.5638
iter:  60 17:20:16  -870.630702c -5.29  -3.49    +66.5384
iter:  61 17:21:47  -870.632119c -5.21  -3.43    +66.5349
iter:  62 17:23:19  -870.629326c -5.33  -3.47    +66.5137
iter:  63 17:24:50  -870.631873c -5.37  -3.57    +66.5035
iter:  64 17:26:21  -870.630668c -5.60  -3.52    +66.4970
iter:  65 17:27:52  -870.629753c -5.86  -3.64    +66.4857
iter:  66 17:29:23  -870.630088c -6.19  -3.75    +66.4855
iter:  67 17:30:54  -870.630624c -6.22  -3.81    +66.4676
iter:  68 17:32:26  -870.633370c -4.91  -3.80    +66.3825
iter:  69 17:33:57  -870.634536c -5.39  -3.65    +66.3818
iter:  70 17:35:28  -870.634179c -5.82  -3.62    +66.3963
iter:  71 17:37:00  -870.633845c -5.84  -3.71    +66.4066
iter:  72 17:38:31  -870.634185c -6.20  -3.80    +66.4178
iter:  73 17:40:02  -870.634561c -5.58  -3.78    +66.4187
iter:  74 17:41:34  -870.633682c -6.10  -3.69    +66.4234
iter:  75 17:43:05  -870.634212c -6.07  -3.99    +66.4294
iter:  76 17:44:36  -870.633780c -6.41  -3.84    +66.4287
iter:  77 17:46:07  -870.633693c -6.67  -4.04c   +66.4345
iter:  78 17:47:39  -870.633859c -6.97  -4.07c   +66.4405
iter:  79 17:49:10  -870.634062c -6.72  -4.10c   +66.4450
iter:  80 17:50:41  -870.633860c -6.76  -4.10c   +66.4460
iter:  81 17:52:12  -870.634173c -6.49  -4.11c   +66.4525
iter:  82 17:53:44  -870.634166c -6.59  -4.18c   +66.4567
iter:  83 17:55:15  -870.634297c -6.66  -4.14c   +66.4583
iter:  84 17:56:46  -870.634177c -6.92  -4.21c   +66.4631
iter:  85 17:58:18  -870.634213c -7.14  -4.31c   +66.4681
iter:  86 17:59:49  -870.634330c -7.32  -4.39c   +66.4736
iter:  87 18:01:20  -870.634303c -7.67c -4.43c   +66.4756

Converged after 87 iterations.

Dipole moment: (-10.441092, 7.625733, 8.718091) |e|*Ang

Total magnetic moment: (0.000000, 0.000000, 66.475635)
Local magnetic moments:
   0 Cr ( 0.000000,  0.000000, -0.946738)
   1 Ni ( 0.000000,  0.000000,  0.265746)
   2 Fe ( 0.000000,  0.000000,  2.276255)
   3 Ni ( 0.000000,  0.000000,  0.209103)
   4 Fe ( 0.000000,  0.000000,  2.158933)
   5 Co ( 0.000000,  0.000000,  1.333413)
   6 Co ( 0.000000,  0.000000,  1.084795)
   7 Cr ( 0.000000,  0.000000, -1.356761)
   8 Cr ( 0.000000,  0.000000, -0.698408)
   9 Co ( 0.000000,  0.000000,  0.397103)
  10 Cr ( 0.000000,  0.000000,  0.804323)
  11 Co ( 0.000000,  0.000000,  0.744375)
  12 Fe ( 0.000000,  0.000000,  2.155604)
  13 Cr ( 0.000000,  0.000000, -1.603574)
  14 Ni ( 0.000000,  0.000000,  0.367837)
  15 Co ( 0.000000,  0.000000,  1.331612)
  16 Cr ( 0.000000,  0.000000, -1.079267)
  17 Co ( 0.000000,  0.000000,  1.179895)
  18 Fe ( 0.000000,  0.000000,  1.986805)
  19 Ni ( 0.000000,  0.000000,  0.208822)
  20 Al ( 0.000000,  0.000000, -0.014027)
  21 Cr ( 0.000000,  0.000000, -1.072326)
  22 Cr ( 0.000000,  0.000000, -0.445566)
  23 Fe ( 0.000000,  0.000000,  1.585723)
  24 Ni ( 0.000000,  0.000000,  0.398129)
  25 Cr ( 0.000000,  0.000000, -1.492846)
  26 Co ( 0.000000,  0.000000,  1.168481)
  27 Co ( 0.000000,  0.000000,  0.992470)
  28 Ni ( 0.000000,  0.000000,  0.421770)
  29 Cr ( 0.000000,  0.000000, -1.377218)
  30 Cr ( 0.000000,  0.000000, -0.436805)
  31 Ni ( 0.000000,  0.000000,  0.206500)
  32 Cr ( 0.000000,  0.000000,  1.508304)
  33 Co ( 0.000000,  0.000000,  0.557583)
  34 Co ( 0.000000,  0.000000,  0.790575)
  35 Co ( 0.000000,  0.000000,  0.417195)
  36 Ni ( 0.000000,  0.000000,  0.357111)
  37 Fe ( 0.000000,  0.000000,  2.103497)
  38 Fe ( 0.000000,  0.000000,  2.412918)
  39 Co ( 0.000000,  0.000000,  1.576583)
  40 Ni ( 0.000000,  0.000000,  0.425347)
  41 Fe ( 0.000000,  0.000000,  2.249589)
  42 Co ( 0.000000,  0.000000,  0.998019)
  43 Al ( 0.000000,  0.000000, -0.024965)
  44 Cr ( 0.000000,  0.000000, -1.089847)
  45 Cr ( 0.000000,  0.000000,  0.740006)
  46 Co ( 0.000000,  0.000000,  0.854448)
  47 Fe ( 0.000000,  0.000000,  2.014656)
  48 Ni ( 0.000000,  0.000000,  0.294126)
  49 Co ( 0.000000,  0.000000,  1.221376)
  50 Ni ( 0.000000,  0.000000,  0.419119)
  51 Fe ( 0.000000,  0.000000,  2.350032)
  52 Ni ( 0.000000,  0.000000,  0.336483)
  53 Al ( 0.000000,  0.000000, -0.042089)
  54 Co ( 0.000000,  0.000000,  0.543525)
  55 Cr ( 0.000000,  0.000000,  0.924682)
  56 Ni ( 0.000000,  0.000000,  0.119386)
  57 Cr ( 0.000000,  0.000000, -0.940357)
  58 Cr ( 0.000000,  0.000000, -1.145923)
  59 Fe ( 0.000000,  0.000000,  1.375248)
[...]
  93 Cr ( 0.000000,  0.000000, -1.534937)
  94 Al ( 0.000000,  0.000000, -0.030057)
  95 Fe ( 0.000000,  0.000000,  1.717236)
  96 Fe ( 0.000000,  0.000000,  2.071920)
  97 Fe ( 0.000000,  0.000000,  2.083357)
  98 Co ( 0.000000,  0.000000,  1.458259)
  99 Ni ( 0.000000,  0.000000,  0.472500)
 100 Co ( 0.000000,  0.000000,  1.497165)
 101 Fe ( 0.000000,  0.000000,  2.436025)
 102 Co ( 0.000000,  0.000000,  1.161547)
 103 Ni ( 0.000000,  0.000000,  0.428406)
 104 Co ( 0.000000,  0.000000,  0.844906)
 105 Al ( 0.000000,  0.000000, -0.018251)
 106 Ni ( 0.000000,  0.000000,  0.245079)
 107 Cr ( 0.000000,  0.000000, -1.323496)

Energy contributions relative to reference atoms: (reference = -3699400.456887)

Kinetic:       +142.579686
Potential:     -193.437549
External:        +0.000000
XC:            -855.282321
Entropy (-ST):   -4.545512
Local:          +37.778637
Free energy:   -872.907059
Extrapolated:  -870.634303

Spin contamination: 27.154642 electrons
Showing only first 2 kpts
                      Up                     Down
 Kpt  Band  Eigenvalues  Occupancy  Eigenvalues  Occupancy
  0   508      9.62797    0.99444     10.52920    0.02136
  0   509      9.63499    0.99404     10.55013    0.01739
  0   510      9.64992    0.99309     10.56133    0.01558
  0   511      9.66534    0.99195     10.57011    0.01429

  1   508      9.61500    0.99512     10.53896    0.01941
  1   509      9.63101    0.99427     10.55465    0.01664
  1   510      9.63657    0.99395     10.57012    0.01429
  1   511      9.64390    0.99349     10.57394    0.01376

Fermi level: 10.14671

No gap

Forces in eV/Ang:
  0 Cr   -0.30176    0.55081    0.11623
  1 Ni   -0.12141   -0.17056   -0.06943
  2 Fe   -0.36464    0.32201    0.13362
  3 Ni   -0.14625   -0.16032    0.35186
  4 Fe    0.44877    0.24961   -0.03555
  5 Co    0.00832   -0.00338    0.01312
  6 Co    0.19038    0.04016   -0.12070
  7 Cr   -0.99614   -1.31930    0.24053
  8 Cr   -0.02134    0.17100    0.49279
  9 Co   -0.00026   -0.14596   -0.01697
 10 Cr    0.20834    0.52080   -0.59476
 11 Co    0.35338   -0.56766    0.80653
 12 Fe    0.44814   -0.31183    0.69608
 13 Cr   -0.10866    0.37384   -0.12914
 14 Ni    0.13760   -0.43713    0.16916
 15 Co   -0.04880    0.20789    0.05502
 16 Cr   -0.18046   -0.08960    0.09437
 17 Co    0.33120   -0.17105    0.11893
 18 Fe   -0.34184   -0.13293    0.15285
 19 Ni   -0.01974    0.23996    0.08244
 20 Al   -0.73528   -0.46742    0.15772
 21 Cr   -0.08476    0.92277    0.32768
 22 Cr    0.39809   -0.59920    0.72690
 23 Fe   -0.01438    0.63643    0.16494
 24 Ni   -0.32919    0.08189    0.13181
 25 Cr   -0.18516   -0.34302   -0.22639
 26 Co   -0.01165    0.08225   -0.19892
 27 Co   -0.02031   -0.10371    0.21407
 28 Ni   -0.07461    0.04829   -0.10431
 29 Cr   -0.03268    0.29183   -0.14694
 30 Cr    0.33337   -0.36384   -0.13842
 31 Ni    0.29720    0.24536   -0.23905
 32 Cr    0.28762   -0.22763    0.82319
 33 Co    0.06745    0.03828   -0.32199
 34 Co   -0.18553    0.19521   -0.38458
 35 Co   -0.09980   -0.32986    0.49798
 36 Ni   -0.04051    0.11308   -0.27705
 37 Fe   -0.11393   -0.18362    0.09991
 38 Fe   -0.04915   -0.18840   -0.18920
 39 Co   -0.07414   -0.04502   -0.23390
 40 Ni    0.10436    0.23430    0.01677
 41 Fe   -0.06886    0.11871    0.24334
 42 Co    0.11238   -0.47157    0.01494
 43 Al   -0.57178    0.50198   -0.65978
 44 Cr    0.36922   -0.80547   -0.06488
 45 Cr    0.12837    0.03811    0.53682
 46 Co   -0.01545   -0.25331    0.04698
 47 Fe    0.21317    0.08847   -0.27492
 48 Ni    0.01995   -0.10044   -0.22222
 49 Co   -0.04772   -0.06199    0.03627
 50 Ni   -0.14401   -0.25953   -0.12704
 51 Fe   -0.22804   -0.08233   -0.42896
 52 Ni    0.29509   -0.43109   -0.34869
 53 Al   -0.08302   -0.29801    0.10768
 54 Co    0.27762   -0.11462   -0.11217
 55 Cr    0.42628   -0.34724   -0.46868
 56 Ni   -0.17285    0.01530   -0.00019
 57 Cr   -0.42566   -0.20014    0.12312
 58 Cr    0.40115    0.21635   -0.30281
 59 Fe   -0.20159   -0.13203    0.05767
[...]
 93 Cr   -0.44370    1.88989   -0.40897
 94 Al    0.56783   -0.27859   -0.37100
 95 Fe   -0.30911    0.34627   -0.31925
 96 Fe   -0.14353    0.15517   -0.35664
 97 Fe    0.18311   -0.00923    0.17337
 98 Co    0.04997   -0.09040    0.25726
 99 Ni    0.00277    0.12143   -0.03837
100 Co    0.01803    0.45019    0.32358
101 Fe    0.34386    0.27633   -0.23039
102 Co   -0.09691   -0.22129    0.11103
103 Ni    0.20809    0.29027   -0.05644
104 Co   -0.03215   -0.28425   -0.23816
105 Al   -0.94895   -0.57296    0.48443
106 Ni   -0.16757   -0.17198    0.35908
107 Cr    0.55899    0.48366   -0.87935

Date: Sat Apr 15 18:01:37 2023