User:   c.zeng@d0093
Date:   Sat Apr 15 15:37:07 2023
Arch:   x86_64
Pid:    272511
CWD:    /home/c.zeng/projects/hea-corrosion/hea-mlp/data-curation/bulk-mcmc/dft-jobs/50
Python: 3.8.1
gpaw:   /home/c.zeng/usr/installs/gpaw/source/gpaw-22.8.0/gpaw
_gpaw:  /home/c.zeng/usr/installs/gpaw/source/gpaw-22.8.0/
        _gpaw.cpython-38-x86_64-linux-gnu.so
ase:    /home/c.zeng/.local/lib/python3.8/site-packages/ase-3.22.1-py3.8.egg/ase (version 3.22.1)
numpy:  /shared/centos7/python/3.8.1/lib/python3.8/site-packages/numpy (version 1.17.4)
scipy:  /shared/centos7/python/3.8.1/lib/python3.8/site-packages/scipy (version 1.4.1)
units:  Angstrom and eV
cores: 30
OpenMP: False
OMP_NUM_THREADS: 1

Input parameters:
  convergence: {energy: 0.0001}
  kpts: [2 2 2]
  maxiter: 666
  mode: {ecut: 350.0,
         name: pw}
  occupations: {fixmagmom: False,
                name: fermi-dirac,
                width: 0.1}
  spinpol: True
  xc: PBE

System changes: positions, numbers, cell, pbc, initial_charges, initial_magmoms

Initialize ...

species:
  Cr:
    name: Chromium
    id: 33f258bda2ca9f93018e70263a35547b
    Z: 24.0
    valence: 6
    core: 18
    charge: 0.0
    file: /home/c.zeng/usr/data/gpaw-setups-0.9.20000/Cr.PBE.gz
    compensation charges: {type: gauss,
                           rc: 0.35,
                           lmax: 2}
    cutoffs: {filter: 2.14,
              core: 3.04}
    valence states:
      #              energy  rcut
      - 4s(1.00)    -4.007   1.164
      - 4p(0.00)    -0.989   1.217
      - 3d(5.00)    -2.913   1.111
      -  s          23.205   1.164
      -  p          26.223   1.217
      -  d          24.299   1.111

    # Using partial waves for Cr as LCAO basis

  Fe:
    name: Iron
    id: 37abbd8d6c3c35915a9b583b742da910
    Z: 26.0
    valence: 8
    core: 18
    charge: 0.0
    file: /home/c.zeng/usr/data/gpaw-setups-0.9.20000/Fe.PBE.gz
    compensation charges: {type: gauss,
                           rc: 0.33,
                           lmax: 2}
    cutoffs: {filter: 2.06,
              core: 2.67}
    valence states:
      #              energy  rcut
      - 4s(2.00)    -5.291   1.164
      - 4p(0.00)    -1.326   1.058
      - 3d(6.00)    -7.505   1.058
      -  s          21.920   1.164
      -  p          25.885   1.058
      -  d          19.706   1.058

[...]

  Co:
    name: Cobalt
    id: 339d20d5b0b93d2de9531a1bee871d91
    Z: 27.0
    valence: 9
    core: 18
    charge: 0.0
    file: /home/c.zeng/usr/data/gpaw-setups-0.9.20000/Co.PBE.gz
    compensation charges: {type: gauss,
                           rc: 0.32,
                           lmax: 2}
    cutoffs: {filter: 1.87,
              core: 2.55}
    valence states:
      #              energy  rcut
      - 4s(2.00)    -5.469   1.005
      - 4p(0.00)    -1.277   1.058
      - 3d(7.00)    -8.205   1.005
      -  s          21.742   1.005
      -  p          25.934   1.058
      -  d          19.007   1.005

[...]

  Ni:
    name: Nickel
    id: 0d9f38a9d6e76a2886f07bb4381f212b
    Z: 28.0
    valence: 16
    core: 12
    charge: 0.0
    file: /home/c.zeng/usr/data/gpaw-setups-0.9.20000/Ni.PBE.gz
    compensation charges: {type: gauss,
                           rc: 0.36,
                           lmax: 2}
    cutoffs: {filter: 2.14,
              core: 1.98}
    valence states:
      #              energy  rcut
      - 4s(2.00)    -5.642   1.164
      - 3p(6.00)   -71.394   1.207
      - 4p(0.00)    -1.226   1.207
      - 3d(8.00)    -8.875   1.138
      -  s          21.570   1.164
      -  d          18.337   1.138

[...]

  Al:
    name: Aluminium
    id: 0292cae29f5d6237e50f6abdd43a7bdd
    Z: 13.0
    valence: 3
    core: 10
    charge: 0.0
    file: /home/c.zeng/usr/data/gpaw-setups-0.9.20000/Al.PBE.gz
    compensation charges: {type: gauss,
                           rc: 0.34,
                           lmax: 2}
    cutoffs: {filter: 1.91,
              core: 2.36}
    valence states:
      #              energy  rcut
      - 3s(2.00)    -7.753   1.085
      - 3p(1.00)    -2.712   1.085
      -  s          19.459   1.085
      -  p          24.499   1.085
      -  d           0.000   1.085

    # Using partial waves for Al as LCAO basis

Reference energy: -3699400.456887  # eV

Spin-polarized calculation.
Magnetic moment: 143.500000

Convergence criteria:
 Maximum [total energy] change in last 3 cyles: 0.0001 eV / electron
 Maximum integral of absolute [dens]ity change: 0.0001 electrons / valence electron
 Maximum integral of absolute [eigenst]ate change: 4e-08 eV^2 / valence electron
 Maximum number of scf [iter]ations: 666
 (Square brackets indicate name in SCF output, whereas a 'c' in
 the SCF output indicates the quantity has converged.)

Symmetries present (total): 1

  ( 1  0  0)
  ( 0  1  0)
  ( 0  0  1)

8 k-points: 2 x 2 x 2 Monkhorst-Pack grid
4 k-points in the irreducible part of the Brillouin zone
       k-points in crystal coordinates                weights
   0:     0.25000000   -0.25000000   -0.25000000          2/8
   1:     0.25000000   -0.25000000    0.25000000          2/8
   2:     0.25000000    0.25000000   -0.25000000          2/8
   3:     0.25000000    0.25000000    0.25000000          2/8

Wave functions: Plane wave expansion
  Cutoff energy: 350.000 eV
  Number of coefficients (min, max): 18052, 18052
  Pulay-stress correction: 0.000000 eV/Ang^3 (de/decut=0.000000)
  Using FFTW library
  ScaLapack parameters: grid=1x1, blocksize=None
  Wavefunction extrapolation:
    Improved wavefunction reuse through dual PAW basis

Occupation numbers: Fermi-Dirac:
  width: 0.1000  # eV

Eigensolver
   Davidson(niter=2)

Densities:
  Coarse grid: 48*48*48 grid
  Fine grid: 96*96*96 grid
  Total Charge: 0.000000

Density mixing:
  Method: difference
  Backend: pulay
  Linear mixing parameter: 0.05
  old densities: 5
  Damping of long wavelength oscillations: 50

Hamiltonian:
  XC and Coulomb potentials evaluated on a 96*96*96 grid
  Using the PBE Exchange-Correlation functional
  External potential:
    NoExternalPotential

XC parameters: PBE with 2 nearest neighbor stencil

Total number of cores used: 30
Parallelization over k-points: 2
Domain decomposition: 5 x 3 x 1

Number of atoms: 108
Number of atomic orbitals: 1025
Number of bands in calculation: 703
Number of valence electrons: 1020
Bands to converge: occupied

... initialized

Initializing position-dependent things.

Density initialized from atomic densities
Creating initial wave functions:
  703 bands from LCAO basis set

        Cr------------------------.
       /|  Co                Co   |
      Cr|   Cr         Cr         |
     / Fe      Fe       Al        |
    /   CCo      Ni       Fe      |
   /e   | CoCr     CoAl    NiCr   |
  /  FeCr  NiCo     NiNiCo        |
 *    FeFe  FeCoNi     CoAl       |
 |     CoFeCr  CoFe Ni  CrFeNi    |
 | Fe   CrNiNiCo NiCrCrFe  Cr     |
 |   CoNi  CrAlCr   CrNiCr   Fe   |
 |    FeNi  FeFeCoNi CoFeCr   Ni  |
 |     NiFeFe  Ni CrNi  CoFeFe    |
 |      .-CoCrCo-FeCrNiCo--CoCr---.
 |   CrCo    CoAl   NiCrFe       /
 |    / Cr    NiFe       Ni     /
 |   /            Ni           /
 |Cr/      Co       Co        /
 |/            Ni           /
 *----------------Ni-------*

Positions:
   0 Cr     0.005316   -0.016350   10.639749    ( 0.0000,  0.0000,  0.0000)
   1 Cr    10.672340    1.801276    1.786848    ( 0.0000,  0.0000,  0.0000)
   2 Fe     1.795727   10.625972    1.782259    ( 0.0000,  0.0000,  0.0000)
   3 Cr     1.780787    1.796175   10.644605    ( 0.0000,  0.0000,  2.1000)
   4 Fe     3.523539   -0.014558    0.017268    ( 0.0000,  0.0000,  2.0000)
   5 Co     3.522568    1.781672    1.746648    ( 0.0000,  0.0000,  0.0000)
   6 Co     5.320952   10.642342    1.763136    ( 0.0000,  0.0000,  1.5000)
   7 Ni     5.342082    1.828767    0.007462    ( 0.0000,  0.0000,  2.0000)
   8 Ni     7.144895    0.019195    0.012033    ( 0.0000,  0.0000,  0.0000)
   9 Co     7.143497    1.798064    1.764939    ( 0.0000,  0.0000,  2.1000)
  10 Ni     8.891362   10.651627    1.788353    ( 0.0000,  0.0000,  1.5000)
  11 Co     8.888779    1.804777   10.642609    ( 0.0000,  0.0000,  2.0000)
  12 Fe     0.008694    3.581540   10.650250    ( 0.0000,  0.0000,  2.1000)
  13 Cr     0.018979    5.332745    1.789751    ( 0.0000,  0.0000,  2.1000)
  14 Cr     1.778129    3.600941    1.760019    ( 0.0000,  0.0000,  2.0000)
  15 Co     1.790423    5.343267   -0.017766    ( 0.0000,  0.0000,  2.0000)
  16 Cr     3.542802    3.589864   -0.015614    ( 0.0000,  0.0000,  2.0000)
  17 Co     3.526837    5.358538    1.765793    ( 0.0000,  0.0000,  2.0000)
  18 Fe     5.336650    3.606501    1.755815    ( 0.0000,  0.0000,  0.0000)
  19 Ni     5.300399    5.323642   -0.012797    ( 0.0000,  0.0000,  2.1000)
  20 Al     7.122858    3.584816   10.659524    ( 0.0000,  0.0000,  2.0000)
  21 Cr     7.120500    5.315168    1.805502    ( 0.0000,  0.0000,  1.5000)
  22 Ni     8.892034    3.590952    1.773146    ( 0.0000,  0.0000,  2.1000)
  23 Fe     8.925340    5.301487   -0.003100    ( 0.0000,  0.0000,  0.0000)
  24 Cr     0.023055    7.096680   -0.007939    ( 0.0000,  0.0000,  0.0000)
  25 Ni     0.019141    8.871245    1.787510    ( 0.0000,  0.0000,  1.5000)
  26 Co     1.784372    7.104567    1.776443    ( 0.0000,  0.0000,  2.0000)
  27 Co     1.779944    8.867628   10.659406    ( 0.0000,  0.0000,  1.5000)
  28 Ni     3.547785    7.097897    0.009215    ( 0.0000,  0.0000,  2.1000)
  29 Ni     3.541137    8.858109    1.788225    ( 0.0000,  0.0000,  2.1000)
  30 Cr     5.295105    7.099391    1.787894    ( 0.0000,  0.0000,  2.1000)
  31 Ni     5.303685    8.873828    0.029898    ( 0.0000,  0.0000,  0.0000)
  32 Cr     7.106883    7.088719   10.645159    ( 0.0000,  0.0000,  0.0000)
  33 Co     7.111055    8.901137    1.809472    ( 0.0000,  0.0000,  0.0000)
  34 Co     8.939384    7.093404    1.799238    ( 0.0000,  0.0000,  0.0000)
  35 Co     8.919972    8.915853   10.664881    ( 0.0000,  0.0000,  0.0000)
  36 Cr    10.679704   10.658873    3.584517    ( 0.0000,  0.0000,  2.0000)
  37 Fe    10.670921    1.796367    5.340289    ( 0.0000,  0.0000,  2.1000)
  38 Fe     1.770350   10.649001    5.343491    ( 0.0000,  0.0000,  0.0000)
  39 Co     1.791800    1.784671    3.584891    ( 0.0000,  0.0000,  2.0000)
  40 Ni     3.529718   10.626388    3.565234    ( 0.0000,  0.0000,  2.1000)
  41 Fe     3.535716    1.793465    5.367289    ( 0.0000,  0.0000,  1.5000)
  42 Co     5.311497    0.001574    5.366254    ( 0.0000,  0.0000,  1.5000)
  43 Al     5.332627    1.768055    3.580793    ( 0.0000,  0.0000,  0.0000)
  44 Ni     7.136966   10.673941    3.563804    ( 0.0000,  0.0000,  2.0000)
  45 Ni     7.136774    1.794126    5.358944    ( 0.0000,  0.0000,  2.1000)
  46 Co     8.925938   10.673621    5.347589    ( 0.0000,  0.0000,  2.0000)
  47 Fe     8.883827    1.779111    3.582404    ( 0.0000,  0.0000,  1.5000)
  48 Cr    -0.010038    3.572341    3.580996    ( 0.0000,  0.0000,  2.0000)
  49 Co    10.685573    5.328935    5.338550    ( 0.0000,  0.0000,  2.0000)
  50 Ni     1.784180    3.582949    5.348357    ( 0.0000,  0.0000,  1.5000)
  51 Fe     1.766326    5.339510    3.565255    ( 0.0000,  0.0000,  1.5000)
[...]
iter:  90 19:53:19  -870.399149c -5.37  -4.19c   +63.0978
iter:  91 19:55:53  -870.409122c -4.64  -4.24c   +63.0802
iter:  92 19:58:28  -870.416560c -4.65  -3.88    +63.0638
iter:  93 20:01:02  -870.414643c -5.76  -3.70    +63.0657
iter:  94 20:03:36  -870.419992c -5.16  -3.75    +63.0576
iter:  95 20:06:09  -870.421716c -5.56  -3.64    +63.0500
iter:  96 20:08:43  -870.417732c -5.54  -3.61    +63.0758
iter:  97 20:11:15  -870.419731c -5.97  -3.66    +63.0692
iter:  98 20:13:49  -870.419015c -6.32  -3.57    +63.0680
iter:  99 20:16:23  -870.425032c -5.02  -3.63    +63.0649
iter: 100 20:18:56  -870.419525c -5.45  -3.35    +63.0524
iter: 101 20:21:29  -870.420159c -5.70  -3.66    +63.0405
iter: 102 20:24:15  -870.422185c -5.54  -3.58    +63.0279
iter: 103 20:27:23  -870.420630c -5.72  -3.57    +62.9787
iter: 104 20:29:57  -870.421346c -6.05  -3.73    +62.9437
iter: 105 20:32:30  -870.422352c -6.09  -3.75    +62.9122
iter: 106 20:35:03  -870.422736c -6.27  -3.77    +62.9011
iter: 107 20:37:37  -870.424309c -5.96  -3.81    +62.8800
iter: 108 20:40:10  -870.423729c -5.80  -3.73    +62.8888
iter: 109 20:42:45  -870.424649c -5.72  -3.75    +62.8449
iter: 110 20:45:19  -870.425772c -5.86  -3.91    +62.8378
iter: 111 20:47:53  -870.426123c -6.17  -3.94    +62.8171
iter: 112 20:50:26  -870.426547c -6.54  -4.08c   +62.7976
iter: 113 20:52:59  -870.427324c -6.36  -4.08c   +62.7956
iter: 114 20:55:32  -870.427427c -6.52  -4.07c   +62.7642
iter: 115 20:58:06  -870.428911c -6.12  -4.14c   +62.7497
iter: 116 21:00:39  -870.426855c -6.08  -4.25c   +62.7480
iter: 117 21:03:13  -870.424147c -5.60  -4.22c   +62.7206
iter: 118 21:05:47  -870.426350c -6.13  -4.14c   +62.7121
iter: 119 21:08:20  -870.420808c -5.14  -4.26c   +62.7370
iter: 120 21:11:24  -870.415339c -4.80  -3.98    +62.7849
iter: 121 21:14:16  -870.410716c -4.44  -3.76    +62.8902
iter: 122 21:16:50  -870.410687c -5.22  -3.53    +62.9407
iter: 123 21:19:23  -870.411317c -5.56  -3.53    +63.0031
iter: 124 21:21:57  -870.411946c -5.67  -3.53    +63.0638
iter: 125 21:24:31  -870.412341c -5.97  -3.53    +63.0491
iter: 126 21:27:05  -870.415337c -4.75  -3.50    +63.0831
iter: 127 21:29:39  -870.408974c -5.30  -3.33    +63.0729
iter: 128 21:32:14  -870.408677c -5.91  -3.76    +63.0613
iter: 129 21:34:47  -870.409240c -6.33  -3.83    +63.0674
iter: 130 21:37:21  -870.410106c -5.85  -3.96    +63.0822
iter: 131 21:39:55  -870.410935c -5.85  -3.95    +63.0792
iter: 132 21:42:29  -870.412352c -6.01  -4.04c   +63.0903
iter: 133 21:45:04  -870.411897c -6.17  -3.90    +63.0873
iter: 134 21:47:37  -870.412265c -6.48  -4.10c   +63.0823
iter: 135 21:50:11  -870.412369c -6.54  -4.17c   +63.0810
iter: 136 21:52:44  -870.412855c -6.54  -4.08c   +63.0776
iter: 137 21:55:36  -870.413430c -6.29  -4.19c   +63.0815
iter: 138 21:58:40  -870.413047c -7.19  -4.21c   +63.0841
iter: 139 22:01:14  -870.413438c -6.83  -4.30c   +63.0972
iter: 140 22:03:47  -870.413870c -6.56  -4.29c   +63.0860
iter: 141 22:06:21  -870.413592c -6.92  -4.28c   +63.0923
iter: 142 22:08:54  -870.413740c -6.86  -4.27c   +63.0806
iter: 143 22:11:27  -870.413940c -7.06  -4.34c   +63.0828
iter: 144 22:14:02  -870.414823c -6.46  -4.35c   +63.0854
iter: 145 22:16:36  -870.414163c -7.02  -4.28c   +63.0857
iter: 146 22:19:10  -870.413112c -6.12  -4.63c   +63.0908
iter: 147 22:21:44  -870.414010c -6.54  -4.50c   +63.0841
iter: 148 22:24:17  -870.412119c -5.72  -4.63c   +63.1035
iter: 149 22:26:51  -870.411253c -5.92  -4.39c   +63.1206
iter: 150 22:29:23  -870.410042c -5.63  -4.23c   +63.1476
iter: 151 22:31:57  -870.408979c -5.43  -4.13c   +63.1977
iter: 152 22:34:30  -870.408088c -5.08  -4.00c   +63.2874
iter: 153 22:37:04  -870.408531c -5.50  -3.85    +63.3301
iter: 154 22:39:37  -870.408085c -6.27  -3.78    +63.3188
iter: 155 22:42:11  -870.408307c -6.36  -3.86    +63.3371
iter: 156 22:44:44  -870.408025c -6.18  -3.83    +63.3533
iter: 157 22:48:03  -870.409336c -5.49  -3.79    +63.3356
iter: 158 22:50:38  -870.408245c -5.49  -3.57    +63.3636
iter: 159 22:53:12  -870.407489c -6.26  -3.74    +63.3416
iter: 160 22:55:46  -870.407980c -5.94  -3.98    +63.3417
iter: 161 22:58:20  -870.407831c -6.36  -3.81    +63.3393
iter: 162 23:00:54  -870.408439c -6.27  -4.10c   +63.3317
iter: 163 23:03:29  -870.408517c -6.28  -4.07c   +63.3320
iter: 164 23:06:02  -870.408544c -6.35  -4.09c   +63.3280
iter: 165 23:08:36  -870.409025c -6.46  -4.09c   +63.3275
iter: 166 23:11:09  -870.409085c -6.61  -4.20c   +63.3264
iter: 167 23:13:43  -870.409466c -6.55  -4.25c   +63.3237
iter: 168 23:16:17  -870.409546c -6.81  -4.23c   +63.3228
iter: 169 23:18:51  -870.409780c -6.77  -4.40c   +63.3183
iter: 170 23:21:24  -870.410150c -6.62  -4.53c   +63.3139
iter: 171 23:23:56  -870.409691c -6.91  -4.46c   +63.3197
iter: 172 23:26:31  -870.408833c -6.04  -4.55c   +63.3378
iter: 173 23:29:03  -870.408614c -6.67  -4.46c   +63.3418
iter: 174 23:32:00  -870.408986c -7.01  -4.41c   +63.3354
iter: 175 23:35:00  -870.406915c -5.30  -4.52c   +63.3756
iter: 176 23:37:34  -870.405759c -5.26  -4.12c   +63.4071
iter: 177 23:40:07  -870.405082c -5.18  -3.94    +63.4424
iter: 178 23:42:40  -870.404575c -5.25  -3.80    +63.4730
iter: 179 23:45:14  -870.404744c -5.91  -3.73    +63.4801
iter: 180 23:47:47  -870.404591c -6.13  -3.72    +63.4910
iter: 181 23:50:22  -870.405308c -6.43  -3.72    +63.4835
iter: 182 23:52:55  -870.405659c -6.07  -3.67    +63.4960
iter: 183 23:55:28  -870.409135c -4.95  -3.61    +63.4951
iter: 184 23:58:02  -870.410023c -4.81  -3.34    +63.5055
iter: 185 00:00:36  -870.403303c -5.40  -3.31    +63.4883
iter: 186 00:03:08  -870.403596c -5.73  -3.85    +63.4708
iter: 187 00:05:41  -870.403792c -5.90  -3.84    +63.4708
iter: 188 00:08:15  -870.404906c -5.92  -3.98    +63.4586
iter: 189 00:10:48  -870.405178c -5.88  -3.86    +63.4530
iter: 190 00:13:20  -870.405290c -5.99  -3.88    +63.4477
iter: 191 00:15:53  -870.404642c -6.34  -3.88    +63.4419
iter: 192 00:18:44  -870.405292c -6.39  -4.10c   +63.4327
iter: 193 00:21:49  -870.405685c -6.13  -4.24c   +63.4231
iter: 194 00:24:23  -870.405627c -6.65  -4.04c   +63.4234
iter: 195 00:26:57  -870.405995c -6.58  -4.32c   +63.4129
iter: 196 00:29:30  -870.405991c -6.82  -4.39c   +63.4112
iter: 197 00:32:03  -870.406474c -6.57  -4.27c   +63.4093
iter: 198 00:34:36  -870.406459c -6.86  -4.37c   +63.4046
iter: 199 00:37:10  -870.406620c -7.21  -4.56c   +63.4026
iter: 200 00:39:43  -870.407145c -6.19  -4.60c   +63.3872
iter: 201 00:42:17  -870.406705c -6.76  -4.56c   +63.3980
iter: 202 00:44:50  -870.406469c -6.53  -4.58c   +63.4091
iter: 203 00:47:23  -870.406743c -7.23  -4.51c   +63.4067
iter: 204 00:49:56  -870.405836c -6.12  -4.49c   +63.4148
iter: 205 00:52:29  -870.404505c -5.53  -4.55c   +63.4282
iter: 206 00:55:03  -870.400985c -4.52  -4.35c   +63.4699
iter: 207 00:57:36  -870.401634c -5.81  -3.78    +63.4616
iter: 208 01:00:09  -870.402907c -6.08  -3.88    +63.4530
iter: 209 01:02:42  -870.402518c -6.68  -3.83    +63.4507
iter: 210 01:05:15  -870.402428c -6.62  -3.87    +63.4475
iter: 211 01:07:48  -870.402316c -6.17  -3.84    +63.4493
iter: 212 01:11:06  -870.403740c -5.29  -3.87    +63.4511
iter: 213 01:13:43  -870.402445c -5.66  -3.53    +63.4543
iter: 214 01:16:16  -870.401886c -6.25  -3.89    +63.4497
iter: 215 01:18:50  -870.402234c -6.61  -4.16c   +63.4456
iter: 216 01:21:24  -870.402685c -6.37  -4.11c   +63.4315
iter: 217 01:23:58  -870.403414c -6.14  -4.18c   +63.4204
iter: 218 01:26:31  -870.404042c -6.09  -4.24c   +63.4043
iter: 219 01:29:04  -870.403787c -6.63  -4.03c   +63.4077
iter: 220 01:31:37  -870.404278c -6.62  -4.59c   +63.3990
iter: 221 01:34:11  -870.403746c -6.73  -4.65c   +63.4126
iter: 222 01:36:44  -870.402591c -5.71  -4.58c   +63.4654
iter: 223 01:39:18  -870.403130c -6.89  -4.33c   +63.4486
iter: 224 01:41:51  -870.402931c -7.30  -4.43c   +63.4565
iter: 225 01:44:24  -870.402293c -6.22  -4.38c   +63.4758
iter: 226 01:46:57  -870.400107c -5.00  -4.24c   +63.5526
iter: 227 01:49:31  -870.398887c -5.21  -3.88    +63.5865
iter: 228 01:52:04  -870.401811c -4.88  -3.76    +63.4973
iter: 229 01:54:48  -870.399256c -5.06  -4.14c   +63.5694
iter: 230 01:57:58  -870.398864c -5.44  -3.79    +63.5790
iter: 231 02:00:32  -870.399580c -5.93  -3.69    +63.5545
iter: 232 02:03:05  -870.399558c -6.55  -3.76    +63.5440
iter: 233 02:05:39  -870.400035c -6.55  -3.76    +63.5348
iter: 234 02:08:13  -870.403644c -5.33  -3.76    +63.5252
iter: 235 02:10:47  -870.399154c -5.65  -3.45    +63.5106
iter: 236 02:13:21  -870.401711c -5.20  -3.85    +63.4919
iter: 237 02:15:54  -870.398203c -5.77  -3.47    +63.5087
iter: 238 02:18:27  -870.399179c -6.04  -3.92    +63.5204
iter: 239 02:21:01  -870.398192c -6.08  -3.85    +63.4959
iter: 240 02:23:34  -870.399890c -5.96  -3.90    +63.4792
iter: 241 02:26:07  -870.400622c -5.91  -3.99    +63.4607
iter: 242 02:28:40  -870.401836c -5.86  -4.01c   +63.4345
iter: 243 02:31:13  -870.402078c -5.91  -3.95    +63.4309
iter: 244 02:33:47  -870.401949c -6.18  -4.19c   +63.4231
iter: 245 02:36:19  -870.402232c -6.64  -4.15c   +63.4194
iter: 246 02:38:52  -870.402557c -6.33  -4.49c   +63.4001
iter: 247 02:42:03  -870.402926c -6.63  -4.55c   +63.3954
iter: 248 02:44:47  -870.403265c -6.53  -4.43c   +63.3899
iter: 249 02:47:21  -870.403712c -6.48  -4.66c   +63.3801
iter: 250 02:49:55  -870.403119c -6.50  -4.56c   +63.3947
iter: 251 02:52:28  -870.403057c -7.60c -4.67c   +63.3937

Converged after 251 iterations.

Dipole moment: (-10.526290, 8.227760, 9.395164) |e|*Ang

Total magnetic moment: (0.000000, 0.000000, 63.393749)
Local magnetic moments:
   0 Cr ( 0.000000,  0.000000, -0.878053)
   1 Cr ( 0.000000,  0.000000, -0.725411)
   2 Fe ( 0.000000,  0.000000,  1.860641)
   3 Cr ( 0.000000,  0.000000, -0.381494)
   4 Fe ( 0.000000,  0.000000,  2.158790)
   5 Co ( 0.000000,  0.000000,  0.751975)
   6 Co ( 0.000000,  0.000000,  1.368534)
   7 Ni ( 0.000000,  0.000000,  0.292635)
   8 Ni ( 0.000000,  0.000000,  0.521308)
   9 Co ( 0.000000,  0.000000,  1.441889)
  10 Ni ( 0.000000,  0.000000,  0.222681)
  11 Co ( 0.000000,  0.000000,  1.086686)
  12 Fe ( 0.000000,  0.000000,  1.757801)
  13 Cr ( 0.000000,  0.000000, -0.808911)
  14 Cr ( 0.000000,  0.000000,  0.470079)
  15 Co ( 0.000000,  0.000000,  0.907805)
  16 Cr ( 0.000000,  0.000000, -1.308328)
  17 Co ( 0.000000,  0.000000,  0.489118)
  18 Fe ( 0.000000,  0.000000,  2.016216)
  19 Ni ( 0.000000,  0.000000,  0.117913)
  20 Al ( 0.000000,  0.000000, -0.025771)
  21 Cr ( 0.000000,  0.000000, -1.077399)
  22 Ni ( 0.000000,  0.000000,  0.159396)
  23 Fe ( 0.000000,  0.000000,  1.858709)
  24 Cr ( 0.000000,  0.000000, -1.639233)
  25 Ni ( 0.000000,  0.000000,  0.222218)
  26 Co ( 0.000000,  0.000000,  1.167339)
  27 Co ( 0.000000,  0.000000,  1.050835)
  28 Ni ( 0.000000,  0.000000,  0.440805)
  29 Ni ( 0.000000,  0.000000,  0.292752)
  30 Cr ( 0.000000,  0.000000,  0.644714)
  31 Ni ( 0.000000,  0.000000,  0.306644)
  32 Cr ( 0.000000,  0.000000, -1.951635)
  33 Co ( 0.000000,  0.000000,  1.180371)
  34 Co ( 0.000000,  0.000000,  0.826527)
  35 Co ( 0.000000,  0.000000,  1.194281)
  36 Cr ( 0.000000,  0.000000, -1.328603)
  37 Fe ( 0.000000,  0.000000,  1.998181)
  38 Fe ( 0.000000,  0.000000,  2.154721)
  39 Co ( 0.000000,  0.000000,  0.823433)
  40 Ni ( 0.000000,  0.000000,  0.273760)
  41 Fe ( 0.000000,  0.000000,  2.158747)
  42 Co ( 0.000000,  0.000000,  1.055142)
  43 Al ( 0.000000,  0.000000, -0.031715)
  44 Ni ( 0.000000,  0.000000,  0.382921)
  45 Ni ( 0.000000,  0.000000,  0.153336)
  46 Co ( 0.000000,  0.000000,  0.982202)
  47 Fe ( 0.000000,  0.000000,  2.134805)
  48 Cr ( 0.000000,  0.000000, -0.374169)
  49 Co ( 0.000000,  0.000000,  0.794969)
  50 Ni ( 0.000000,  0.000000,  0.270024)
  51 Fe ( 0.000000,  0.000000,  1.847307)
  52 Cr ( 0.000000,  0.000000, -1.377659)
  53 Al ( 0.000000,  0.000000, -0.033577)
  54 Co ( 0.000000,  0.000000,  0.656533)
  55 Cr ( 0.000000,  0.000000,  0.883773)
  56 Ni ( 0.000000,  0.000000,  0.273185)
  57 Ni ( 0.000000,  0.000000,  0.165181)
  58 Cr ( 0.000000,  0.000000, -1.186465)
  59 Fe ( 0.000000,  0.000000,  1.953919)
[...]
  93 Ni ( 0.000000,  0.000000,  0.148146)
  94 Al ( 0.000000,  0.000000, -0.033857)
  95 Fe ( 0.000000,  0.000000,  1.896371)
  96 Fe ( 0.000000,  0.000000,  2.165449)
  97 Fe ( 0.000000,  0.000000,  2.034901)
  98 Co ( 0.000000,  0.000000,  1.377165)
  99 Ni ( 0.000000,  0.000000,  0.480163)
 100 Co ( 0.000000,  0.000000,  1.408452)
 101 Fe ( 0.000000,  0.000000,  2.426497)
 102 Co ( 0.000000,  0.000000,  1.377952)
 103 Ni ( 0.000000,  0.000000,  0.368039)
 104 Co ( 0.000000,  0.000000,  0.914126)
 105 Al ( 0.000000,  0.000000, -0.028439)
 106 Ni ( 0.000000,  0.000000,  0.214690)
 107 Cr ( 0.000000,  0.000000, -1.493543)

Energy contributions relative to reference atoms: (reference = -3699400.456887)

Kinetic:       +135.010216
Potential:     -187.551315
External:        +0.000000
XC:            -853.425815
Entropy (-ST):   -4.602602
Local:          +37.865159
Free energy:   -872.704358
Extrapolated:  -870.403057

Spin contamination: 27.825816 electrons
Showing only first 2 kpts
                      Up                     Down
 Kpt  Band  Eigenvalues  Occupancy  Eigenvalues  Occupancy
  0   508      9.65380    0.99293     10.51306    0.02540
  0   509      9.66217    0.99232     10.53218    0.02107
  0   510      9.66786    0.99187     10.53534    0.02043
  0   511      9.67949    0.99088     10.55031    0.01764

  1   508      9.63784    0.99397     10.51156    0.02577
  1   509      9.64568    0.99348     10.52065    0.02358
  1   510      9.65878    0.99257     10.52476    0.02266
  1   511      9.66836    0.99183     10.53993    0.01953

Fermi level: 10.14832

No gap

Forces in eV/Ang:
  0 Cr   -0.05718    0.08778    0.48014
  1 Cr   -0.22565    0.09172   -0.26768
  2 Fe   -0.21731    0.50787    0.08694
  3 Cr    0.11431   -0.07744    0.16183
  4 Fe    0.42776    0.27163   -0.19031
  5 Co   -0.05366    0.01778    0.13812
  6 Co    0.22068    0.07315   -0.05294
  7 Ni   -0.41173   -0.55085    0.06065
  8 Ni   -0.38080   -0.09626   -0.00334
  9 Co   -0.13487   -0.27268    0.09929
 10 Ni    0.28451    0.22352   -0.21574
 11 Co    0.42694   -0.50328    0.73649
 12 Fe    0.28247   -0.32833    0.70871
 13 Cr   -0.12431   -0.07386   -0.08948
 14 Cr    0.09435   -0.43839    0.05156
 15 Co   -0.02993    0.03674   -0.08268
 16 Cr    0.11470   -0.05182    0.33377
 17 Co    0.03024   -0.19518   -0.03443
 18 Fe   -0.44681   -0.32575    0.11142
 19 Ni    0.13718    0.37790    0.05552
 20 Al   -0.95097   -0.52205   -0.07324
 21 Cr    0.03189    0.90693    0.65073
 22 Ni    0.25976   -0.31897    0.18796
 23 Fe    0.00218    1.08507    0.27462
 24 Cr   -0.39046    0.16003   -0.05881
 25 Ni   -0.13879    0.17452   -0.22489
 26 Co   -0.10612   -0.17632   -0.05081
 27 Co   -0.04053    0.05146    0.22889
 28 Ni   -0.04852    0.04227   -0.22261
 29 Ni   -0.02958    0.24400   -0.11692
 30 Cr    0.13099   -0.21559   -0.20202
 31 Ni    0.30708    0.13631   -0.23031
 32 Cr    0.27010   -0.17807    0.88873
 33 Co    0.04575   -0.29971   -0.27813
 34 Co   -0.37409    0.16518   -0.43314
 35 Co   -0.08809   -0.40720    0.35682
 36 Cr   -0.28480    0.33982   -0.03113
 37 Fe    0.14297   -0.19801   -0.10799
 38 Fe   -0.13257    0.02310   -0.20095
 39 Co   -0.00494   -0.05860   -0.28553
 40 Ni    0.19867    0.30548    0.00710
 41 Fe   -0.14108    0.00160   -0.02682
 42 Co   -0.03589   -0.34304    0.16711
 43 Al    0.45939   -0.27339   -0.17751
 44 Ni   -0.11830   -0.14803    0.06412
 45 Ni   -0.07451   -0.36011    0.14080
 46 Co   -0.22044   -0.04300    0.15812
 47 Fe    0.23932   -0.05229   -0.26210
 48 Cr    0.62366   -0.16970   -0.20542
 49 Co    0.06576   -0.00978    0.03154
 50 Ni   -0.15898   -0.29568   -0.15080
 51 Fe    0.02773   -0.04753   -0.05143
 52 Cr   -0.32828   -0.46941   -1.01113
 53 Al   -0.57488   -0.24905    0.48437
 54 Co    0.14069   -0.19853   -0.17014
 55 Cr    0.30303   -0.07688    0.01364
 56 Ni   -0.08566    0.00383    0.04679
 57 Ni   -0.08219    0.05426   -0.03480
 58 Cr    0.08821    0.10973   -0.06422
 59 Fe   -0.17215    0.03566   -0.08164
[...]
 93 Ni    0.16488    0.46351    0.27810
 94 Al    0.56283    0.07539   -0.06331
 95 Fe   -0.18430    0.24926   -0.18466
 96 Fe   -0.03309    0.17016   -0.25158
 97 Fe    0.20246   -0.06893    0.19285
 98 Co    0.04370   -0.09999    0.10357
 99 Ni    0.00792    0.08831   -0.05816
100 Co    0.01352    0.55875    0.14629
101 Fe    0.21774    0.08176   -0.06238
102 Co    0.01842   -0.24440    0.18872
103 Ni    0.19044    0.31058   -0.01257
104 Co   -0.10664   -0.16455   -0.47514
105 Al   -0.99058    0.24675    0.27582
106 Ni   -0.15226   -0.27633    0.45171
107 Cr    0.60083    0.39025   -0.87140

Date: Sun Apr 16 02:52:52 2023