User:   c.zeng@d0143
Date:   Sat Apr 15 00:23:00 2023
Arch:   x86_64
Pid:    121003
CWD:    /home/c.zeng/projects/hea-corrosion/hea-mlp/data-curation/bulk-mcmc/dft-jobs/194
Python: 3.8.1
gpaw:   /home/c.zeng/usr/installs/gpaw/source/gpaw-22.8.0/gpaw
_gpaw:  /home/c.zeng/usr/installs/gpaw/source/gpaw-22.8.0/
        _gpaw.cpython-38-x86_64-linux-gnu.so
ase:    /home/c.zeng/.local/lib/python3.8/site-packages/ase-3.22.1-py3.8.egg/ase (version 3.22.1)
numpy:  /shared/centos7/python/3.8.1/lib/python3.8/site-packages/numpy (version 1.17.4)
scipy:  /shared/centos7/python/3.8.1/lib/python3.8/site-packages/scipy (version 1.4.1)
units:  Angstrom and eV
cores: 30
OpenMP: False
OMP_NUM_THREADS: 1

Input parameters:
  convergence: {energy: 0.0001}
  kpts: [2 2 2]
  maxiter: 666
  mode: {ecut: 350.0,
         name: pw}
  occupations: {fixmagmom: False,
                name: fermi-dirac,
                width: 0.1}
  spinpol: True
  xc: PBE

System changes: positions, numbers, cell, pbc, initial_charges, initial_magmoms

Initialize ...

species:
  Co:
    name: Cobalt
    id: 339d20d5b0b93d2de9531a1bee871d91
    Z: 27.0
    valence: 9
    core: 18
    charge: 0.0
    file: /home/c.zeng/usr/data/gpaw-setups-0.9.20000/Co.PBE.gz
    compensation charges: {type: gauss,
                           rc: 0.32,
                           lmax: 2}
    cutoffs: {filter: 1.87,
              core: 2.55}
    valence states:
      #              energy  rcut
      - 4s(2.00)    -5.469   1.005
      - 4p(0.00)    -1.277   1.058
      - 3d(7.00)    -8.205   1.005
      -  s          21.742   1.005
      -  p          25.934   1.058
      -  d          19.007   1.005

    # Using partial waves for Co as LCAO basis

  Fe:
    name: Iron
    id: 37abbd8d6c3c35915a9b583b742da910
    Z: 26.0
    valence: 8
    core: 18
    charge: 0.0
    file: /home/c.zeng/usr/data/gpaw-setups-0.9.20000/Fe.PBE.gz
    compensation charges: {type: gauss,
                           rc: 0.33,
                           lmax: 2}
    cutoffs: {filter: 2.06,
              core: 2.67}
    valence states:
      #              energy  rcut
      - 4s(2.00)    -5.291   1.164
      - 4p(0.00)    -1.326   1.058
      - 3d(6.00)    -7.505   1.058
      -  s          21.920   1.164
      -  p          25.885   1.058
      -  d          19.706   1.058

[...]

  Al:
    name: Aluminium
    id: 0292cae29f5d6237e50f6abdd43a7bdd
    Z: 13.0
    valence: 3
    core: 10
    charge: 0.0
    file: /home/c.zeng/usr/data/gpaw-setups-0.9.20000/Al.PBE.gz
    compensation charges: {type: gauss,
                           rc: 0.34,
                           lmax: 2}
    cutoffs: {filter: 1.91,
              core: 2.36}
    valence states:
      #              energy  rcut
      - 3s(2.00)    -7.753   1.085
      - 3p(1.00)    -2.712   1.085
      -  s          19.459   1.085
      -  p          24.499   1.085
      -  d           0.000   1.085

[...]

  Cr:
    name: Chromium
    id: 33f258bda2ca9f93018e70263a35547b
    Z: 24.0
    valence: 6
    core: 18
    charge: 0.0
    file: /home/c.zeng/usr/data/gpaw-setups-0.9.20000/Cr.PBE.gz
    compensation charges: {type: gauss,
                           rc: 0.35,
                           lmax: 2}
    cutoffs: {filter: 2.14,
              core: 3.04}
    valence states:
      #              energy  rcut
      - 4s(1.00)    -4.007   1.164
      - 4p(0.00)    -0.989   1.217
      - 3d(5.00)    -2.913   1.111
      -  s          23.205   1.164
      -  p          26.223   1.217
      -  d          24.299   1.111

[...]

  Ni:
    name: Nickel
    id: 0d9f38a9d6e76a2886f07bb4381f212b
    Z: 28.0
    valence: 16
    core: 12
    charge: 0.0
    file: /home/c.zeng/usr/data/gpaw-setups-0.9.20000/Ni.PBE.gz
    compensation charges: {type: gauss,
                           rc: 0.36,
                           lmax: 2}
    cutoffs: {filter: 2.14,
              core: 1.98}
    valence states:
      #              energy  rcut
      - 4s(2.00)    -5.642   1.164
      - 3p(6.00)   -71.394   1.207
      - 4p(0.00)    -1.226   1.207
      - 3d(8.00)    -8.875   1.138
      -  s          21.570   1.164
      -  d          18.337   1.138

    # Using partial waves for Ni as LCAO basis

Reference energy: -3382523.201499  # eV

Spin-polarized calculation.
Magnetic moment: 128.800000

Convergence criteria:
 Maximum [total energy] change in last 3 cyles: 0.0001 eV / electron
 Maximum integral of absolute [dens]ity change: 0.0001 electrons / valence electron
 Maximum integral of absolute [eigenst]ate change: 4e-08 eV^2 / valence electron
 Maximum number of scf [iter]ations: 666
 (Square brackets indicate name in SCF output, whereas a 'c' in
 the SCF output indicates the quantity has converged.)

Symmetries present (total): 1

  ( 1  0  0)
  ( 0  1  0)
  ( 0  0  1)

8 k-points: 2 x 2 x 2 Monkhorst-Pack grid
4 k-points in the irreducible part of the Brillouin zone
       k-points in crystal coordinates                weights
   0:     0.25000000   -0.25000000   -0.25000000          2/8
   1:     0.25000000   -0.25000000    0.25000000          2/8
   2:     0.25000000    0.25000000   -0.25000000          2/8
   3:     0.25000000    0.25000000    0.25000000          2/8

Wave functions: Plane wave expansion
  Cutoff energy: 350.000 eV
  Number of coefficients (min, max): 18865, 18865
  Pulay-stress correction: 0.000000 eV/Ang^3 (de/decut=0.000000)
  Using FFTW library
  ScaLapack parameters: grid=1x1, blocksize=None
  Wavefunction extrapolation:
    Improved wavefunction reuse through dual PAW basis

Occupation numbers: Fermi-Dirac:
  width: 0.1000  # eV

Eigensolver
   Davidson(niter=2)

Densities:
  Coarse grid: 48*48*48 grid
  Fine grid: 96*96*96 grid
  Total Charge: 0.000000

Density mixing:
  Method: difference
  Backend: pulay
  Linear mixing parameter: 0.05
  old densities: 5
  Damping of long wavelength oscillations: 50

Hamiltonian:
  XC and Coulomb potentials evaluated on a 96*96*96 grid
  Using the PBE Exchange-Correlation functional
  External potential:
    NoExternalPotential

XC parameters: PBE with 2 nearest neighbor stencil

Total number of cores used: 30
Parallelization over k-points: 2
Domain decomposition: 5 x 3 x 1

Number of atoms: 108
Number of atomic orbitals: 961
Number of bands in calculation: 649
Number of valence electrons: 945
Bands to converge: occupied

... initialized

Initializing position-dependent things.

Density initialized from atomic densities
Creating initial wave functions:
  649 bands from LCAO basis set

       /|                     Co   |
      / |            Fe Fe     CrFe|
     /  |       Cr       Ni       Cr
    /   |Fe       Fel     FFer     |
   /i   | Coo        Fe      Co    |
  /  CrAl   NCr       Ni           |
 *      Ni     FeCo   AlFeCrCo   Cr|
 |      |CoNi   CrNiAl   NiAlNi   Co
 | CrCo | AlNi   AlAlCo     Ni     |
 |     Fe  FeCr Cr  Fe CoNi  CrNi  |
 |      CoNi   AlCr   FeCoFeNi  Co |
 |Al    |FeCr   AlCrCo   CrCo     Co
 |      .-CrCo-----NiCr-FeFeCrNi---.
 |     /   Ni Co    Cr CoNi    Al /
 |    Fe       AFei       Al     /
 |   /  Fe         Al       Cr  /
 |  /      Co       Al       Fe/
 | / Fe     Co       Ni Ni    /
 |/             Cr       Ni  /
 *--------Co----------------*

Positions:
   0 Co    10.764147   10.861293   10.805330    ( 0.0000,  0.0000,  2.0000)
   1 Fe    10.786221    1.792513    1.813624    ( 0.0000,  0.0000,  0.0000)
   2 Fe     1.744156    0.036560    1.851269    ( 0.0000,  0.0000,  1.5000)
   3 Al     1.736571    1.831142   10.798805    ( 0.0000,  0.0000,  0.0000)
   4 Co     3.575126    0.057318    0.061759    ( 0.0000,  0.0000,  0.0000)
   5 Co     3.594289    1.817617    1.845577    ( 0.0000,  0.0000,  2.0000)
   6 Fe     5.429813   10.817005    1.865054    ( 0.0000,  0.0000,  1.5000)
   7 Cr     5.429608    1.929425    0.057134    ( 0.0000,  0.0000,  0.0000)
   8 Fe     7.316909   10.723332    0.087382    ( 0.0000,  0.0000,  0.0000)
   9 Al     7.263142    1.825786    1.869404    ( 0.0000,  0.0000,  2.1000)
  10 Ni     9.063554    0.025226    1.863474    ( 0.0000,  0.0000,  1.5000)
  11 Ni     9.049217    1.829703    0.033106    ( 0.0000,  0.0000,  2.1000)
  12 Ni     0.004792    3.558981   10.794801    ( 0.0000,  0.0000,  1.5000)
  13 Al    10.759710    5.390697    1.778165    ( 0.0000,  0.0000,  0.0000)
  14 Fe     1.733585    3.561849    1.761112    ( 0.0000,  0.0000,  2.0000)
  15 Fe     1.776899    5.391834   10.795505    ( 0.0000,  0.0000,  0.0000)
  16 Co     3.565452    3.619360   10.832619    ( 0.0000,  0.0000,  2.1000)
  17 Co     3.633221    5.394614    1.719551    ( 0.0000,  0.0000,  0.0000)
  18 Ni     5.471624    3.659114    1.836033    ( 0.0000,  0.0000,  2.1000)
  19 Fe     5.440212    5.373060   -0.002773    ( 0.0000,  0.0000,  2.0000)
  20 Ni     7.258997    3.609080    0.031294    ( 0.0000,  0.0000,  0.0000)
  21 Co     7.268941    5.378362    1.785274    ( 0.0000,  0.0000,  2.0000)
  22 Al     9.030724    3.577636    1.833728    ( 0.0000,  0.0000,  2.1000)
  23 Fe     9.040420    5.372281   10.801110    ( 0.0000,  0.0000,  0.0000)
  24 Fe    10.791663    7.196206   10.792486    ( 0.0000,  0.0000,  1.5000)
  25 Co    10.758434    9.040387    1.848239    ( 0.0000,  0.0000,  0.0000)
  26 Cr     1.690487    7.202493    1.786032    ( 0.0000,  0.0000,  0.0000)
  27 Ni     1.652691    8.981047    0.027217    ( 0.0000,  0.0000,  0.0000)
  28 Al     3.631241    7.164437    0.034633    ( 0.0000,  0.0000,  0.0000)
  29 Al     3.625452    9.063759    1.801678    ( 0.0000,  0.0000,  0.0000)
  30 Ni     5.490852    7.187095    1.746342    ( 0.0000,  0.0000,  2.0000)
  31 Cr     5.426935    8.989152    0.009861    ( 0.0000,  0.0000,  2.0000)
  32 Fe     7.229122    7.237075   -0.008698    ( 0.0000,  0.0000,  1.5000)
  33 Cr     7.249194    8.995850    1.810713    ( 0.0000,  0.0000,  0.0000)
  34 Cr     9.052073    7.204300    1.764218    ( 0.0000,  0.0000,  2.1000)
  35 Co     9.092553    8.989639   10.808760    ( 0.0000,  0.0000,  1.5000)
  36 Cr    -0.000975   10.826235    3.639789    ( 0.0000,  0.0000,  1.5000)
  37 Al    10.822772    1.771770    5.422044    ( 0.0000,  0.0000,  2.1000)
  38 Ni     1.754263   10.802084    5.428872    ( 0.0000,  0.0000,  2.1000)
  39 Fe     1.741873    1.774270    3.610801    ( 0.0000,  0.0000,  0.0000)
  40 Al     3.591183   10.794152    3.612143    ( 0.0000,  0.0000,  2.0000)
  41 Cr     3.593088    1.736744    5.455177    ( 0.0000,  0.0000,  0.0000)
  42 Al     5.437150   10.794563    5.400804    ( 0.0000,  0.0000,  2.0000)
  43 Fe     5.451931    1.783251    3.601387    ( 0.0000,  0.0000,  1.5000)
  44 Al     7.226222    0.007781    3.626209    ( 0.0000,  0.0000,  0.0000)
  45 Co     7.236069    1.766512    5.381392    ( 0.0000,  0.0000,  2.1000)
  46 Fe     9.034587   10.848850    5.403844    ( 0.0000,  0.0000,  2.1000)
  47 Ni     9.031558    1.804946    3.616730    ( 0.0000,  0.0000,  1.5000)
  48 Ni    10.773885    3.543973    3.617867    ( 0.0000,  0.0000,  1.5000)
  49 Ni    10.772186    5.358409    5.454917    ( 0.0000,  0.0000,  0.0000)
  50 Co     1.757531    3.575678    5.428937    ( 0.0000,  0.0000,  2.1000)
  51 Fe     1.621766    5.386986    3.572550    ( 0.0000,  0.0000,  0.0000)
  52 Co     3.634303    3.633188    3.540792    ( 0.0000,  0.0000,  0.0000)
  53 Cr     3.550606    5.397969    5.404753    ( 0.0000,  0.0000,  2.0000)
  54 Cr     5.402221    3.610887    5.370193    ( 0.0000,  0.0000,  2.0000)
  55 Cr     5.460241    5.433590    3.575613    ( 0.0000,  0.0000,  2.0000)
  56 Cr     7.250157    3.615183    3.623169    ( 0.0000,  0.0000,  1.5000)
  57 Co     7.248707    5.410715    5.362099    ( 0.0000,  0.0000,  1.5000)
  58 Fe     9.058230    3.565236    5.380082    ( 0.0000,  0.0000,  2.1000)
  59 Co     9.074071    5.365323    3.589008    ( 0.0000,  0.0000,  2.1000)
[...]
  93 Ni     7.211073    5.388295    9.040181    ( 0.0000,  0.0000,  0.0000)
  94 Cr     9.095052    3.598119    8.980636    ( 0.0000,  0.0000,  2.0000)
  95 Al     9.078205    5.402416    7.227759    ( 0.0000,  0.0000,  0.0000)
  96 Cr    10.763411    7.244682    7.260285    ( 0.0000,  0.0000,  1.5000)
  97 Cr    10.795093    9.034566    8.977574    ( 0.0000,  0.0000,  2.0000)
  98 Co     1.740045    7.178947    8.984662    ( 0.0000,  0.0000,  2.1000)
  99 Co     1.734429    9.080207    7.236696    ( 0.0000,  0.0000,  1.5000)
 100 Fe     3.580482    7.154277    7.248285    ( 0.0000,  0.0000,  0.0000)
 101 Cr     3.612835    8.970898    8.958086    ( 0.0000,  0.0000,  0.0000)
 102 Al     5.410943    7.155878    9.067049    ( 0.0000,  0.0000,  0.0000)
 103 Fe     5.466441    9.064062    7.220963    ( 0.0000,  0.0000,  2.1000)
 104 Fe     7.307203    7.271549    7.289738    ( 0.0000,  0.0000,  0.0000)
 105 Ni     7.271073    9.044683    9.027879    ( 0.0000,  0.0000,  1.5000)
 106 Cr     9.081743    7.219805    9.041166    ( 0.0000,  0.0000,  2.1000)
 107 Co     9.063684    9.083009    7.213865    ( 0.0000,  0.0000,  2.0000)

Unit cell:
           periodic     x           y           z      points  spacing
  1. axis:    yes   10.820500    0.000000    0.000000    48     0.2254
  2. axis:    yes    0.000000   10.820500    0.000000    48     0.2254
  3. axis:    yes    0.000000    0.000000   10.820500    48     0.2254

  Lengths:  10.820500  10.820500  10.820500
  Angles:   90.000000  90.000000  90.000000

Effective grid spacing dv^(1/3) = 0.2254

     iter     time        total  log10-change:  magmom
                         energy  eigst   dens
iter:   1 00:26:07  -894.589383                  +128.4417
iter:   2 00:27:24  -861.351389  -0.41  -1.31    +96.5524
iter:   3 00:28:41  -843.492643  -0.94  -1.29    +68.6325
iter:   4 00:29:58  -832.626763  -1.26  -1.37    +58.2439
iter:   5 00:31:15  -825.791208  -1.85  -1.40    +53.7227
iter:   6 00:32:32  -827.034408  -1.96  -1.47    +51.5917
iter:   7 00:33:49  -825.214264  -1.68  -1.49    +50.4351
iter:   8 00:35:06  -824.893432  -1.77  -1.55    +50.5619
iter:   9 00:36:23  -828.239931  -1.80  -1.65    +51.1610
iter:  10 00:37:39  -823.008947  -2.00  -1.66    +50.8607
iter:  11 00:38:56  -823.993741  -2.26  -1.80    +51.7552
iter:  12 00:40:13  -822.669547  -2.39  -1.81    +52.6413
iter:  13 00:41:30  -822.958289  -2.64  -1.90    +53.9411
iter:  14 00:42:47  -823.884325  -2.53  -1.95    +55.1270
iter:  15 00:44:04  -824.379171  -2.56  -1.95    +56.0289
iter:  16 00:45:21  -824.775838  -2.43  -1.97    +57.5119
iter:  17 00:46:38  -823.698492  -2.76  -1.98    +58.0364
iter:  18 00:47:55  -824.459431  -2.72  -2.15    +59.2429
iter:  19 00:49:12  -823.948695  -2.96  -2.13    +59.8628
iter:  20 00:50:28  -824.129558  -3.19  -2.23    +60.8838
iter:  21 00:51:45  -824.408897  -3.13  -2.28    +61.7728
iter:  22 00:53:02  -824.519782  -3.17  -2.27    +62.0604
iter:  23 00:54:19  -824.528142  -3.21  -2.30    +62.6761
iter:  24 00:55:36  -824.714205  -3.29  -2.36    +62.9714
iter:  25 00:56:53  -824.680678  -3.28  -2.37    +63.2977
iter:  26 00:58:09  -824.781405  -3.37  -2.46    +63.4457
iter:  27 00:59:27  -824.799235  -3.50  -2.46    +63.6834
iter:  28 01:00:45  -824.848363c -3.61  -2.52    +63.8949
iter:  29 01:02:02  -824.877456c -3.69  -2.55    +63.9730
iter:  30 01:03:19  -824.910374c -3.94  -2.56    +64.1153
iter:  31 01:04:36  -824.961397c -4.05  -2.61    +64.2506
iter:  32 01:05:53  -825.041023  -4.04  -2.64    +64.4079
iter:  33 01:07:11  -825.068870  -4.45  -2.65    +64.4308
iter:  34 01:08:27  -825.215957  -3.53  -2.67    +64.4508
iter:  35 01:09:44  -825.283939  -3.72  -2.79    +64.3801
iter:  36 01:11:02  -825.328678  -3.93  -2.86    +64.2906
iter:  37 01:12:19  -825.349960c -4.13  -2.91    +64.2202
iter:  38 01:13:37  -825.393101c -4.30  -3.00    +64.1456
iter:  39 01:14:54  -825.420702c -4.60  -3.02    +64.0504
iter:  40 01:16:11  -825.525086  -4.01  -3.06    +63.7730
iter:  41 01:17:28  -825.350204  -3.72  -2.95    +64.2285
iter:  42 01:18:45  -825.505796  -3.86  -3.08    +63.8405
iter:  43 01:20:03  -825.492479  -5.10  -3.05    +63.8980
iter:  44 01:21:21  -825.543796c -4.54  -3.06    +63.7519
iter:  45 01:22:38  -825.604815  -4.44  -3.03    +63.6375
iter:  46 01:23:55  -825.601964c -4.91  -2.96    +63.6381
iter:  47 01:25:12  -825.659345c -4.24  -2.92    +63.5122
iter:  48 01:26:29  -825.667753c -4.57  -2.86    +63.4261
iter:  49 01:27:46  -825.724227c -4.36  -2.92    +63.2820
iter:  50 01:29:04  -825.784910  -3.76  -2.85    +63.0147
iter:  51 01:30:21  -825.786737c -4.25  -2.78    +62.7979
iter:  52 01:31:38  -825.807006c -4.55  -2.80    +62.6343
iter:  53 01:32:55  -825.834903c -4.28  -2.77    +62.3655
iter:  54 01:34:13  -825.861588c -3.83  -2.75    +62.3303
iter:  55 01:35:30  -825.815416c -4.21  -2.70    +62.2276
iter:  56 01:36:47  -825.812449c -4.32  -2.79    +62.1006
iter:  57 01:38:04  -825.815969c -4.43  -2.80    +62.0034
iter:  58 01:39:21  -825.818380c -4.34  -2.84    +61.9682
iter:  59 01:40:39  -825.810916c -4.63  -2.83    +61.9010
iter:  60 01:41:57  -825.823247c -4.41  -2.89    +61.8487
iter:  61 01:43:14  -825.837517c -4.14  -2.86    +61.8141
iter:  62 01:44:31  -825.831538c -4.18  -2.83    +61.7692
iter:  63 01:45:49  -825.843456c -4.12  -2.90    +61.8217
iter:  64 01:47:06  -825.823231c -4.26  -2.87    +61.7453
iter:  65 01:48:24  -825.838255c -4.17  -2.99    +61.7349
iter:  66 01:49:41  -825.810947c -4.60  -2.91    +61.7520
iter:  67 01:50:59  -825.813467c -4.78  -3.09    +61.7630
iter:  68 01:52:16  -825.810213c -5.02  -3.13    +61.7607
iter:  69 01:53:34  -825.812816c -5.26  -3.16    +61.7403
iter:  70 01:54:51  -825.813128c -5.27  -3.19    +61.7577
iter:  71 01:56:08  -825.825826c -4.77  -3.22    +61.7536
iter:  72 01:57:26  -825.820883c -4.88  -3.13    +61.7592
iter:  73 01:58:43  -825.819675c -4.89  -3.21    +61.7612
iter:  74 02:00:01  -825.824855c -4.89  -3.24    +61.7663
iter:  75 02:01:19  -825.821188c -5.03  -3.23    +61.8189
iter:  76 02:02:37  -825.820961c -5.18  -3.31    +61.8026
iter:  77 02:03:55  -825.821830c -5.63  -3.37    +61.8168
iter:  78 02:05:12  -825.822723c -5.51  -3.40    +61.8451
iter:  79 02:06:30  -825.825275c -5.40  -3.43    +61.8794
iter:  80 02:07:48  -825.824688c -5.52  -3.41    +61.8920
iter:  81 02:09:05  -825.826909c -5.39  -3.49    +61.8861
iter:  82 02:10:23  -825.827617c -5.23  -3.52    +61.9076
iter:  83 02:11:40  -825.826435c -5.50  -3.48    +61.9257
iter:  84 02:12:58  -825.828811c -5.45  -3.74    +61.9415
iter:  85 02:14:15  -825.827088c -5.71  -3.60    +61.9495
iter:  86 02:15:33  -825.827857c -5.96  -3.77    +61.9729
iter:  87 02:16:51  -825.828250c -6.27  -3.92    +61.9983
iter:  88 02:18:08  -825.829376c -6.01  -3.95    +62.0230
iter:  89 02:19:26  -825.829757c -6.29  -3.84    +62.0336
iter:  90 02:20:44  -825.830828c -6.04  -3.83    +62.0392
iter:  91 02:22:02  -825.830653c -6.29  -3.82    +62.0475
iter:  92 02:23:20  -825.831174c -6.47  -3.81    +62.0577
iter:  93 02:24:37  -825.833701c -5.76  -3.80    +62.0744
iter:  94 02:25:55  -825.832038c -6.02  -3.69    +62.0691
iter:  95 02:27:12  -825.833118c -5.70  -3.74    +62.0955
iter:  96 02:28:30  -825.833225c -5.76  -3.66    +62.1052
iter:  97 02:29:47  -825.832354c -5.78  -3.71    +62.1093
iter:  98 02:31:05  -825.832161c -6.55  -3.75    +62.1089
iter:  99 02:32:24  -825.832436c -6.88  -3.94    +62.1210
iter: 100 02:33:42  -825.834014c -5.53  -3.93    +62.2002
iter: 101 02:35:00  -825.834481c -6.24  -3.82    +62.2210
iter: 102 02:36:18  -825.834978c -6.40  -3.78    +62.2399
iter: 103 02:37:36  -825.834920c -6.52  -3.78    +62.2346
iter: 104 02:38:55  -825.834913c -6.56  -3.76    +62.2520
iter: 105 02:40:13  -825.834762c -6.11  -3.74    +62.2590
iter: 106 02:41:31  -825.833885c -5.85  -3.75    +62.2565
iter: 107 02:42:49  -825.833734c -6.69  -3.71    +62.2439
iter: 108 02:44:08  -825.834316c -6.14  -3.85    +62.2270
iter: 109 02:45:27  -825.834154c -5.99  -3.76    +62.2227
iter: 110 02:46:45  -825.835322c -5.58  -3.84    +62.2175
iter: 111 02:48:03  -825.833864c -6.07  -3.69    +62.2275
iter: 112 02:49:22  -825.834625c -6.11  -4.07c   +62.2264
iter: 113 02:50:39  -825.833812c -6.56  -3.97    +62.2264
iter: 114 02:51:58  -825.833861c -6.94  -4.19c   +62.2245
iter: 115 02:53:16  -825.833966c -7.03  -4.32c   +62.2256
iter: 116 02:54:35  -825.833861c -7.32  -4.27c   +62.2257
iter: 117 02:55:54  -825.833879c -7.16  -4.43c   +62.2254
iter: 118 02:57:11  -825.833827c -7.27  -4.34c   +62.2271
iter: 119 02:58:30  -825.833951c -7.33  -4.54c   +62.2278
iter: 120 02:59:48  -825.833815c -7.57c -4.55c   +62.2298

Converged after 120 iterations.

Dipole moment: (29.410765, -4.204325, -10.457513) |e|*Ang

Total magnetic moment: (0.000000, 0.000000, 62.229792)
Local magnetic moments:
   0 Co ( 0.000000,  0.000000,  1.241180)
   1 Fe ( 0.000000,  0.000000,  2.334514)
   2 Fe ( 0.000000,  0.000000,  2.306710)
   3 Al ( 0.000000,  0.000000, -0.042003)
   4 Co ( 0.000000,  0.000000,  1.355217)
   5 Co ( 0.000000,  0.000000,  1.431444)
   6 Fe ( 0.000000,  0.000000,  1.925775)
   7 Cr ( 0.000000,  0.000000, -2.347216)
   8 Fe ( 0.000000,  0.000000,  2.195552)
   9 Al ( 0.000000,  0.000000, -0.012985)
  10 Ni ( 0.000000,  0.000000,  0.186565)
  11 Ni ( 0.000000,  0.000000,  0.148262)
  12 Ni ( 0.000000,  0.000000,  0.247292)
  13 Al ( 0.000000,  0.000000, -0.034713)
  14 Fe ( 0.000000,  0.000000,  2.248916)
  15 Fe ( 0.000000,  0.000000,  2.066322)
  16 Co ( 0.000000,  0.000000,  1.306993)
  17 Co ( 0.000000,  0.000000,  1.034181)
  18 Ni ( 0.000000,  0.000000,  0.278024)
  19 Fe ( 0.000000,  0.000000,  2.290947)
  20 Ni ( 0.000000,  0.000000,  0.099371)
  21 Co ( 0.000000,  0.000000,  1.201468)
  22 Al ( 0.000000,  0.000000, -0.021836)
  23 Fe ( 0.000000,  0.000000,  2.035889)
  24 Fe ( 0.000000,  0.000000,  1.659635)
  25 Co ( 0.000000,  0.000000,  1.001819)
  26 Cr ( 0.000000,  0.000000, -1.926957)
  27 Ni ( 0.000000,  0.000000,  0.098269)
  28 Al ( 0.000000,  0.000000, -0.006754)
  29 Al ( 0.000000,  0.000000, -0.022922)
  30 Ni ( 0.000000,  0.000000,  0.325262)
  31 Cr ( 0.000000,  0.000000,  1.528314)
  32 Fe ( 0.000000,  0.000000,  1.999966)
  33 Cr ( 0.000000,  0.000000, -1.484396)
  34 Cr ( 0.000000,  0.000000, -1.674855)
  35 Co ( 0.000000,  0.000000,  0.962442)
  36 Cr ( 0.000000,  0.000000, -1.537532)
  37 Al ( 0.000000,  0.000000, -0.030551)
  38 Ni ( 0.000000,  0.000000,  0.147470)
  39 Fe ( 0.000000,  0.000000,  2.229520)
  40 Al ( 0.000000,  0.000000, -0.038931)
  41 Cr ( 0.000000,  0.000000, -2.034694)
  42 Al ( 0.000000,  0.000000, -0.027811)
  43 Fe ( 0.000000,  0.000000,  1.929238)
  44 Al ( 0.000000,  0.000000, -0.032048)
  45 Co ( 0.000000,  0.000000,  0.788453)
  46 Fe ( 0.000000,  0.000000,  2.057335)
  47 Ni ( 0.000000,  0.000000,  0.137470)
  48 Ni ( 0.000000,  0.000000,  0.368037)
  49 Ni ( 0.000000,  0.000000,  0.301558)
  50 Co ( 0.000000,  0.000000,  1.263373)
  51 Fe ( 0.000000,  0.000000,  2.338859)
  52 Co ( 0.000000,  0.000000,  1.226148)
  53 Cr ( 0.000000,  0.000000, -1.999506)
  54 Cr ( 0.000000,  0.000000,  1.382702)
  55 Cr ( 0.000000,  0.000000,  1.554109)
  56 Cr ( 0.000000,  0.000000, -1.687351)
  57 Co ( 0.000000,  0.000000,  1.227803)
  58 Fe ( 0.000000,  0.000000,  2.292596)
  59 Co ( 0.000000,  0.000000,  1.147819)
[...]
  93 Ni ( 0.000000,  0.000000,  0.333328)
  94 Cr ( 0.000000,  0.000000,  1.516446)
  95 Al ( 0.000000,  0.000000, -0.011434)
  96 Cr ( 0.000000,  0.000000,  1.222853)
  97 Cr ( 0.000000,  0.000000, -0.335405)
  98 Co ( 0.000000,  0.000000,  0.168817)
  99 Co ( 0.000000,  0.000000,  0.988397)
 100 Fe ( 0.000000,  0.000000,  2.017539)
 101 Cr ( 0.000000,  0.000000, -2.268529)
 102 Al ( 0.000000,  0.000000, -0.030532)
 103 Fe ( 0.000000,  0.000000,  2.086472)
 104 Fe ( 0.000000,  0.000000,  2.484314)
 105 Ni ( 0.000000,  0.000000,  0.274823)
 106 Cr ( 0.000000,  0.000000, -1.449386)
 107 Co ( 0.000000,  0.000000,  0.991235)

Energy contributions relative to reference atoms: (reference = -3382523.201499)

Kinetic:       +237.636018
Potential:     -242.590016
External:        +0.000000
XC:            -852.067786
Entropy (-ST):   -4.102619
Local:          +33.239278
Free energy:   -827.885124
Extrapolated:  -825.833815

Spin contamination: 29.975496 electrons
Showing only first 2 kpts
                      Up                     Down
 Kpt  Band  Eigenvalues  Occupancy  Eigenvalues  Occupancy
  0   470      9.11314    0.99698     10.07813    0.02085
  0   471      9.13277    0.99633     10.09373    0.01789
  0   472      9.15415    0.99546     10.09948    0.01691
  0   473      9.16553    0.99492     10.12314    0.01339

  1   470      9.11765    0.99684     10.07630    0.02123
  1   471      9.13426    0.99628     10.08362    0.01976
  1   472      9.16596    0.99489     10.10419    0.01614
  1   473      9.17151    0.99460     10.12164    0.01359

Fermi level: 9.69319

No gap

Forces in eV/Ang:
  0 Co    0.16983   -0.60793    0.17596
  1 Fe    0.13452   -0.38778    0.05754
  2 Fe   -0.00221   -0.12076   -0.77309
  3 Al    0.51872   -0.35659   -0.39634
  4 Co    0.26786   -0.26131   -0.52166
  5 Co    0.18899    0.28371   -0.27060
  6 Fe    0.17223    0.49238   -0.88428
  7 Cr   -1.15708   -1.04139   -0.81349
  8 Fe   -0.42326    0.42263   -0.42406
  9 Al   -0.23028   -0.53379   -1.28099
 10 Ni   -0.14637   -0.27409   -0.41137
 11 Ni   -0.20273   -0.36552   -0.39744
 12 Ni   -0.28587    0.53230    0.10512
 13 Al    0.62788   -0.26749   -0.03352
 14 Fe    0.93226    0.34107    0.83257
 15 Fe   -0.08306   -0.16105   -0.01135
 16 Co    0.46144    0.05028    0.33795
 17 Co   -0.39527   -0.46562    0.61410
 18 Ni   -0.55430   -0.21756   -0.00829
 19 Fe    0.19093   -0.62838    0.42226
 20 Ni   -0.14368   -0.07832   -0.40706
 21 Co    0.08838    0.54873    0.11421
 22 Al    0.27802    0.13197   -0.50297
 23 Fe   -0.50906    0.75149   -0.44495
 24 Fe    0.25947    0.21759   -0.13034
 25 Co    0.23488   -0.05990   -0.30116
 26 Cr   -0.65725    0.13218    0.16324
 27 Ni    0.74384    0.50587   -0.32509
 28 Al   -0.98020    0.10585    0.30984
 29 Al   -0.55543    0.43384   -1.11668
 30 Ni   -0.17527    0.05953    0.50946
 31 Cr    0.39714    1.09139   -0.44438
 32 Fe    0.72786   -0.19525    0.23313
 33 Cr   -0.05436    0.03464   -0.48042
 34 Cr   -0.44041    0.28445    0.01884
 35 Co   -0.08129    0.06444    0.21490
 36 Cr   -0.03440   -0.67557   -0.75218
 37 Al    0.05889    0.13583   -0.07258
 38 Ni    0.20904   -0.08234    0.12049
 39 Fe    0.70799    0.62840   -0.06998
 40 Al   -0.45212    0.83513   -0.27019
 41 Cr   -0.40032    1.55961    0.12085
 42 Al    0.28071    0.01248    0.83311
 43 Fe   -0.60516    0.54216   -0.05670
 44 Al    0.87731   -0.12881    0.04172
 45 Co    0.02456    0.35471    0.46720
 46 Fe   -0.01848   -0.23492    0.21521
 47 Ni   -0.13092   -0.17964    0.08169
 48 Ni    0.55010    0.40321   -0.01031
 49 Ni    0.30040    0.25826   -0.41233
 50 Co    0.64651    0.28240   -0.26983
 51 Fe    1.26192   -0.23528    0.27395
 52 Co   -0.34831   -0.03568    0.15692
 53 Cr   -0.18166   -0.87095   -0.14411
 54 Cr    0.05712    0.17224    0.45486
 55 Cr   -0.06461   -0.24717   -0.31898
 56 Cr   -0.92086    0.62990    1.22117
 57 Co    0.21637    0.25574    0.18390
 58 Fe   -0.93945    0.20262    0.18840
 59 Co   -0.47956    0.66017    0.47969
[...]
 93 Ni    0.24432   -0.24924   -0.27449
 94 Cr    0.18140    0.21428    0.30716
 95 Al   -1.46325   -0.07221   -0.88610
 96 Cr    0.12265    0.40115    0.89613
 97 Cr    0.53126    0.22120    0.38406
 98 Co    0.12373    0.28082   -0.14038
 99 Co    0.21233   -0.19079    0.32357
100 Fe   -0.42446    0.45878    0.22448
101 Cr   -0.63961    1.04200    0.17466
102 Al    1.23082    0.09634   -1.27021
103 Fe   -0.22608   -0.50774    0.43927
104 Fe   -0.03276   -0.07467   -0.54985
105 Ni    0.09241    0.11871    0.03306
106 Cr   -0.80613    0.56516    0.32264
107 Co   -0.45390   -0.20797   -0.03618

Date: Sat Apr 15 03:00:07 2023