User:   c.zeng@d0098
Date:   Sat Apr 15 11:37:09 2023
Arch:   x86_64
Pid:    160419
CWD:    /home/c.zeng/projects/hea-corrosion/hea-mlp/data-curation/bulk-mcmc/dft-jobs/31
Python: 3.8.1
gpaw:   /home/c.zeng/usr/installs/gpaw/source/gpaw-22.8.0/gpaw
_gpaw:  /home/c.zeng/usr/installs/gpaw/source/gpaw-22.8.0/
        _gpaw.cpython-38-x86_64-linux-gnu.so
ase:    /home/c.zeng/.local/lib/python3.8/site-packages/ase-3.22.1-py3.8.egg/ase (version 3.22.1)
numpy:  /shared/centos7/python/3.8.1/lib/python3.8/site-packages/numpy (version 1.17.4)
scipy:  /shared/centos7/python/3.8.1/lib/python3.8/site-packages/scipy (version 1.4.1)
units:  Angstrom and eV
cores: 30
OpenMP: False
OMP_NUM_THREADS: 1

Input parameters:
  convergence: {energy: 0.0001}
  kpts: [2 2 2]
  maxiter: 666
  mode: {ecut: 350.0,
         name: pw}
  occupations: {fixmagmom: False,
                name: fermi-dirac,
                width: 0.1}
  spinpol: True
  xc: PBE

System changes: positions, numbers, cell, pbc, initial_charges, initial_magmoms

Initialize ...

species:
  Co:
    name: Cobalt
    id: 339d20d5b0b93d2de9531a1bee871d91
    Z: 27.0
    valence: 9
    core: 18
    charge: 0.0
    file: /home/c.zeng/usr/data/gpaw-setups-0.9.20000/Co.PBE.gz
    compensation charges: {type: gauss,
                           rc: 0.32,
                           lmax: 2}
    cutoffs: {filter: 1.87,
              core: 2.55}
    valence states:
      #              energy  rcut
      - 4s(2.00)    -5.469   1.005
      - 4p(0.00)    -1.277   1.058
      - 3d(7.00)    -8.205   1.005
      -  s          21.742   1.005
      -  p          25.934   1.058
      -  d          19.007   1.005

    # Using partial waves for Co as LCAO basis

  Fe:
    name: Iron
    id: 37abbd8d6c3c35915a9b583b742da910
    Z: 26.0
    valence: 8
    core: 18
    charge: 0.0
    file: /home/c.zeng/usr/data/gpaw-setups-0.9.20000/Fe.PBE.gz
    compensation charges: {type: gauss,
                           rc: 0.33,
                           lmax: 2}
    cutoffs: {filter: 2.06,
              core: 2.67}
    valence states:
      #              energy  rcut
      - 4s(2.00)    -5.291   1.164
      - 4p(0.00)    -1.326   1.058
      - 3d(6.00)    -7.505   1.058
      -  s          21.920   1.164
      -  p          25.885   1.058
      -  d          19.706   1.058

[...]

  Ni:
    name: Nickel
    id: 0d9f38a9d6e76a2886f07bb4381f212b
    Z: 28.0
    valence: 16
    core: 12
    charge: 0.0
    file: /home/c.zeng/usr/data/gpaw-setups-0.9.20000/Ni.PBE.gz
    compensation charges: {type: gauss,
                           rc: 0.36,
                           lmax: 2}
    cutoffs: {filter: 2.14,
              core: 1.98}
    valence states:
      #              energy  rcut
      - 4s(2.00)    -5.642   1.164
      - 3p(6.00)   -71.394   1.207
      - 4p(0.00)    -1.226   1.207
      - 3d(8.00)    -8.875   1.138
      -  s          21.570   1.164
      -  d          18.337   1.138

[...]

  Cr:
    name: Chromium
    id: 33f258bda2ca9f93018e70263a35547b
    Z: 24.0
    valence: 6
    core: 18
    charge: 0.0
    file: /home/c.zeng/usr/data/gpaw-setups-0.9.20000/Cr.PBE.gz
    compensation charges: {type: gauss,
                           rc: 0.35,
                           lmax: 2}
    cutoffs: {filter: 2.14,
              core: 3.04}
    valence states:
      #              energy  rcut
      - 4s(1.00)    -4.007   1.164
      - 4p(0.00)    -0.989   1.217
      - 3d(5.00)    -2.913   1.111
      -  s          23.205   1.164
      -  p          26.223   1.217
      -  d          24.299   1.111

    # Using partial waves for Cr as LCAO basis

Reference energy: -3846758.590871  # eV

Spin-polarized calculation.
Magnetic moment: 151.200000

Convergence criteria:
 Maximum [total energy] change in last 3 cyles: 0.0001 eV / electron
 Maximum integral of absolute [dens]ity change: 0.0001 electrons / valence electron
 Maximum integral of absolute [eigenst]ate change: 4e-08 eV^2 / valence electron
 Maximum number of scf [iter]ations: 666
 (Square brackets indicate name in SCF output, whereas a 'c' in
 the SCF output indicates the quantity has converged.)

Symmetries present (total): 1

  ( 1  0  0)
  ( 0  1  0)
  ( 0  0  1)

8 k-points: 2 x 2 x 2 Monkhorst-Pack grid
4 k-points in the irreducible part of the Brillouin zone
       k-points in crystal coordinates                weights
   0:     0.25000000   -0.25000000   -0.25000000          2/8
   1:     0.25000000   -0.25000000    0.25000000          2/8
   2:     0.25000000    0.25000000   -0.25000000          2/8
   3:     0.25000000    0.25000000    0.25000000          2/8

Wave functions: Plane wave expansion
  Cutoff energy: 350.000 eV
  Number of coefficients (min, max): 17755, 17755
  Pulay-stress correction: 0.000000 eV/Ang^3 (de/decut=0.000000)
  Using FFTW library
  ScaLapack parameters: grid=1x1, blocksize=None
  Wavefunction extrapolation:
    Improved wavefunction reuse through dual PAW basis

Occupation numbers: Fermi-Dirac:
  width: 0.1000  # eV

Eigensolver
   Davidson(niter=2)

Densities:
  Coarse grid: 48*48*48 grid
  Fine grid: 96*96*96 grid
  Total Charge: 0.000000

Density mixing:
  Method: difference
  Backend: pulay
  Linear mixing parameter: 0.05
  old densities: 5
  Damping of long wavelength oscillations: 50

Hamiltonian:
  XC and Coulomb potentials evaluated on a 96*96*96 grid
  Using the PBE Exchange-Correlation functional
  External potential:
    NoExternalPotential

XC parameters: PBE with 2 nearest neighbor stencil

Total number of cores used: 30
Parallelization over k-points: 2
Domain decomposition: 5 x 3 x 1

Number of atoms: 108
Number of atomic orbitals: 1053
Number of bands in calculation: 727
Number of valence electrons: 1053
Bands to converge: occupied

... initialized

Initializing position-dependent things.

Density initialized from atomic densities
Creating initial wave functions:
  727 bands from LCAO basis set

       /|  Cr       Ni      Ni    |
      / |   NiFe     Ni           |
     /  |       Co      Fe       Fe
    /   |Ni      CFe       Co     Ni
   /    | Co       Ni       NFe   |
  /  CCo|  FeNi     CoNi          |
 *    CrCr    FeCr   FeCrCo       |
 |      |CoNi   FeFeCr  CoCrFe   Cr
 |      | CrCo     CoNiFeNiNiCr   |
 |    Co|  CoFeNi   CoNiFe   CrCo |
 |      Ni    CrCrNi NiNiNi     Ni|
 |      |FeFe  CoFeCr   FeCrFe   Ni
 |      .-FeCo-----CrCrFe--CrCr---Co
 |   Cro     Fe       Ni         /
 |    CrCo     Cor     CCre     /
 |   /    Co               Cr  /
 |  /      Fe       Fe    CrFe/
 | / Fe     Ni       CrNi    /
 |/            Co       Cr  /
 *--------Co------Co-------*

Positions:
   0 Co    -0.012479   -0.003723   10.616104    ( 0.0000,  0.0000,  2.1000)
   1 Fe    -0.011321    1.761305    1.763386    ( 0.0000,  0.0000,  2.1000)
   2 Fe     1.758365    0.001326    1.769011    ( 0.0000,  0.0000,  2.0000)
   3 Co     1.752686    1.779222   10.610436    ( 0.0000,  0.0000,  2.0000)
   4 Co     3.541196    0.004726   10.616104    ( 0.0000,  0.0000,  0.0000)
   5 Fe     3.534711    1.782438    1.778999    ( 0.0000,  0.0000,  0.0000)
   6 Ni     5.305717   10.600629    1.767950    ( 0.0000,  0.0000,  2.1000)
   7 Co     5.324780    1.765604   10.614618    ( 0.0000,  0.0000,  0.0000)
   8 Co     7.089121    0.014598   10.619926    ( 0.0000,  0.0000,  2.0000)
   9 Fe     7.085279    1.771219    1.773543    ( 0.0000,  0.0000,  1.5000)
  10 Ni     8.850554    0.011470    1.768756    ( 0.0000,  0.0000,  1.5000)
  11 Cr     8.842381    1.777333   10.615680    ( 0.0000,  0.0000,  2.1000)
  12 Fe    10.590535    3.538203   -0.001956    ( 0.0000,  0.0000,  0.0000)
  13 Ni    10.624277    5.310674    1.769786    ( 0.0000,  0.0000,  2.0000)
  14 Co     1.761379    3.535623    1.784572    ( 0.0000,  0.0000,  0.0000)
  15 Ni     1.770200    5.301408   10.611753    ( 0.0000,  0.0000,  2.0000)
  16 Ni     3.556003    3.551407   10.618333    ( 0.0000,  0.0000,  1.5000)
  17 Fe     3.539370    5.311290    1.775199    ( 0.0000,  0.0000,  2.1000)
  18 Cr     5.320142    3.545059    1.779678    ( 0.0000,  0.0000,  1.5000)
  19 Fe     5.306980    5.314654   10.602720    ( 0.0000,  0.0000,  0.0000)
  20 Cr     7.081585    3.529127   10.614725    ( 0.0000,  0.0000,  2.1000)
  21 Ni     7.069241    5.303361    1.781271    ( 0.0000,  0.0000,  1.5000)
  22 Fe     8.841447    3.542671    1.781600    ( 0.0000,  0.0000,  2.1000)
  23 Cr     8.850893    5.290379    0.000220    ( 0.0000,  0.0000,  0.0000)
  24 Cr     0.005868    7.083411   10.614937    ( 0.0000,  0.0000,  2.0000)
  25 Ni    10.601043    8.849694    1.772960    ( 0.0000,  0.0000,  2.1000)
  26 Fe     1.773713    7.072329    1.777184    ( 0.0000,  0.0000,  0.0000)
  27 Cr     1.755520    8.842943   10.608324    ( 0.0000,  0.0000,  0.0000)
  28 Fe     3.544009    7.063116   10.610489    ( 0.0000,  0.0000,  2.0000)
  29 Co     3.542225    8.826820    1.785580    ( 0.0000,  0.0000,  0.0000)
  30 Cr     5.309835    7.081776    1.776600    ( 0.0000,  0.0000,  2.1000)
  31 Ni     5.331945    8.840321   10.604673    ( 0.0000,  0.0000,  2.1000)
  32 Co     7.068434    7.069028   10.623110    ( 0.0000,  0.0000,  0.0000)
  33 Fe     7.083750    8.846796    1.774509    ( 0.0000,  0.0000,  1.5000)
  34 Cr     8.841404    7.058180    1.777173    ( 0.0000,  0.0000,  1.5000)
  35 Ni     8.835524    8.853600   10.611753    ( 0.0000,  0.0000,  0.0000)
  36 Cr    -0.009351   10.618864    3.531070    ( 0.0000,  0.0000,  2.0000)
  37 Fe    10.602508    1.764818    5.300452    ( 0.0000,  0.0000,  1.5000)
  38 Cr     1.756720    0.001379    5.295867    ( 0.0000,  0.0000,  0.0000)
  39 Co     1.766506    1.767154    3.539222    ( 0.0000,  0.0000,  2.0000)
  40 Co     3.539742    0.013881    3.542873    ( 0.0000,  0.0000,  2.0000)
  41 Fe     3.548944    1.788658    5.306237    ( 0.0000,  0.0000,  2.1000)
  42 Fe     5.320174   -0.004685    5.301386    ( 0.0000,  0.0000,  0.0000)
  43 Co     5.316862    1.765551    3.538935    ( 0.0000,  0.0000,  2.0000)
  44 Ni     7.081086   -0.000289    3.531325    ( 0.0000,  0.0000,  2.0000)
  45 Cr     7.072902    1.777407    5.300537    ( 0.0000,  0.0000,  2.0000)
  46 Fe     8.840544    0.012372    5.307851    ( 0.0000,  0.0000,  1.5000)
  47 Cr     8.833592    1.767928    3.534318    ( 0.0000,  0.0000,  2.1000)
  48 Cr    -0.004066    3.525285    3.545951    ( 0.0000,  0.0000,  0.0000)
  49 Co    -0.001689    5.317934    5.307787    ( 0.0000,  0.0000,  1.5000)
  50 Ni     1.769043    3.555101    5.297279    ( 0.0000,  0.0000,  2.0000)
  51 Fe     1.773692    5.305929    3.538266    ( 0.0000,  0.0000,  2.1000)
  52 Co     3.542746    3.537364    3.547575    ( 0.0000,  0.0000,  2.1000)
  53 Fe     3.548477    5.306927    5.301153    ( 0.0000,  0.0000,  2.0000)
  54 Cr     5.316246    3.553031    5.303637    ( 0.0000,  0.0000,  2.0000)
  55 Fe     5.303286    5.303531    3.542385    ( 0.0000,  0.0000,  1.5000)
  56 Cr     7.074962    3.533023    3.537215    ( 0.0000,  0.0000,  1.5000)
  57 Ni     7.066046    5.306046    5.300081    ( 0.0000,  0.0000,  2.0000)
  58 Ni     8.834526    3.538160    5.294530    ( 0.0000,  0.0000,  2.1000)
  59 Cr     8.846255    5.300452    3.537672    ( 0.0000,  0.0000,  1.5000)
[...]
  93 Ni     7.071130    5.304220    8.839313    ( 0.0000,  0.0000,  1.5000)
  94 Co     8.837997    3.524669    8.843389    ( 0.0000,  0.0000,  1.5000)
  95 Cr     8.833772    5.299051    7.076862    ( 0.0000,  0.0000,  0.0000)
  96 Cr     0.012168    7.080333    7.083835    ( 0.0000,  0.0000,  1.5000)
  97 Fe    -0.017034    8.848707    8.843941    ( 0.0000,  0.0000,  2.1000)
  98 Co     1.777938    7.075503    8.840194    ( 0.0000,  0.0000,  2.0000)
  99 Fe     1.758800    8.840035    7.069803    ( 0.0000,  0.0000,  0.0000)
 100 Fe     3.549921    7.066194    7.070090    ( 0.0000,  0.0000,  2.1000)
 101 Co     3.553137    8.839111    8.836776    ( 0.0000,  0.0000,  0.0000)
 102 Ni     5.304189    7.079929    8.840215    ( 0.0000,  0.0000,  2.0000)
 103 Co     5.321946    8.832180    7.082997    ( 0.0000,  0.0000,  2.1000)
 104 Cr     7.057077    7.072149    7.064167    ( 0.0000,  0.0000,  1.5000)
 105 Fe     7.082402    8.855500    8.837487    ( 0.0000,  0.0000,  2.1000)
 106 Co     8.846786    7.077881    8.846732    ( 0.0000,  0.0000,  0.0000)
 107 Ni     8.839313    8.848272    7.075153    ( 0.0000,  0.0000,  0.0000)

Unit cell:
           periodic     x           y           z      points  spacing
  1. axis:    yes   10.614300    0.000000    0.000000    48     0.2211
  2. axis:    yes    0.000000   10.614300    0.000000    48     0.2211
  3. axis:    yes    0.000000    0.000000   10.614300    48     0.2211

  Lengths:  10.614300  10.614300  10.614300
  Angles:   90.000000  90.000000  90.000000

Effective grid spacing dv^(1/3) = 0.2211

     iter     time        total  log10-change:  magmom
                         energy  eigst   dens
iter:   1 11:43:44  -966.348135                  +151.1229
iter:   2 11:46:42  -978.924329  -0.47  -1.33    +115.4750
iter:   3 11:49:39  -916.511743  -0.92  -1.28    +87.1802
iter:   4 11:52:40  -895.399260  -1.49  -1.40    +71.1009
iter:   5 11:55:41  -892.810371  -1.91  -1.48    +63.0272
iter:   6 11:58:42  -895.611768  -1.96  -1.52    +59.1747
iter:   7 12:01:42  -892.504594  -1.80  -1.52    +56.9731
iter:   8 12:04:44  -888.302529  -1.78  -1.58    +55.4769
iter:   9 12:07:45  -898.506611  -1.76  -1.74    +54.9852
iter:  10 12:10:44  -888.178985  -1.93  -1.68    +54.0347
iter:  11 12:13:43  -888.566161  -2.40  -1.88    +53.9592
iter:  12 12:16:44  -887.275180  -2.69  -1.89    +54.1195
iter:  13 12:19:44  -887.998412  -2.80  -1.96    +54.6601
iter:  14 12:22:45  -888.335275  -2.70  -1.97    +55.3527
iter:  15 12:25:46  -890.369787  -2.66  -1.99    +55.7005
iter:  16 12:28:46  -891.281001  -2.32  -1.98    +55.8580
iter:  17 12:31:46  -892.305296  -2.35  -1.96    +56.1564
iter:  18 12:34:43  -889.754679  -2.45  -1.96    +56.9218
iter:  19 12:37:45  -889.823864  -2.68  -2.14    +56.9761
iter:  20 12:40:46  -888.698203  -2.96  -2.10    +57.1876
iter:  21 12:43:47  -888.703284  -3.44  -2.25    +57.9535
iter:  22 12:46:49  -888.887367  -3.41  -2.32    +58.8339
iter:  23 12:49:51  -889.015310  -3.71  -2.31    +59.2453
iter:  24 12:52:52  -889.291782  -3.34  -2.34    +59.8638
iter:  25 12:55:53  -889.890378  -3.11  -2.36    +60.4270
iter:  26 12:58:54  -889.832482  -2.95  -2.29    +60.6543
iter:  27 13:01:55  -889.890465c -3.15  -2.40    +60.7599
iter:  28 13:04:56  -889.880524c -3.16  -2.40    +61.0918
iter:  29 13:07:57  -889.763307  -3.40  -2.44    +61.4606
iter:  30 13:10:57  -889.629728  -3.78  -2.50    +61.6617
iter:  31 13:13:58  -889.641029  -4.15  -2.64    +61.8232
iter:  32 13:16:54  -889.684664c -4.33  -2.66    +62.1508
iter:  33 13:19:55  -889.809023  -3.82  -2.71    +62.4578
iter:  34 13:22:56  -889.797120  -3.94  -2.70    +62.5223
iter:  35 13:25:58  -889.816837c -4.10  -2.92    +62.6098
iter:  36 13:29:00  -889.812733c -4.26  -2.99    +62.5547
iter:  37 13:32:04  -889.818674c -4.47  -3.06    +62.6121
iter:  38 13:35:07  -889.831355c -4.63  -3.21    +62.7238
iter:  39 13:38:06  -889.841044c -4.88  -3.25    +62.7773
iter:  40 13:41:10  -889.857186c -4.91  -3.30    +62.8007
iter:  41 13:44:14  -889.896646c -4.39  -3.27    +62.9068
iter:  42 13:47:18  -889.894895c -5.24  -3.16    +62.9241
iter:  43 13:50:21  -889.914574c -4.88  -3.18    +63.0158
iter:  44 13:53:24  -889.919226c -5.02  -3.11    +63.0388
iter:  45 13:56:28  -889.922945c -4.99  -3.10    +63.1518
iter:  46 13:59:31  -889.947079c -4.46  -3.14    +63.1921
iter:  47 14:02:34  -889.934145c -4.94  -3.04    +63.1749
iter:  48 14:05:37  -889.948571c -4.84  -3.17    +63.1880
iter:  49 14:08:39  -889.945623c -5.32  -3.10    +63.1916
iter:  50 14:11:38  -889.958505c -4.90  -3.18    +63.2440
iter:  51 14:14:43  -889.956033c -5.53  -3.14    +63.2724
iter:  52 14:17:46  -889.966905c -5.23  -3.21    +63.3033
iter:  53 14:20:50  -889.993387c -4.37  -3.17    +63.4086
iter:  54 14:23:53  -890.011752c -4.07  -3.17    +63.5819
iter:  55 14:26:56  -890.005180c -4.87  -3.09    +63.5159
iter:  56 14:29:55  -889.997976c -5.05  -3.14    +63.5224
iter:  57 14:32:58  -890.015505c -4.66  -3.26    +63.5360
iter:  58 14:36:02  -890.002148c -4.35  -3.09    +63.5556
iter:  59 14:39:06  -889.996647c -4.84  -3.26    +63.5887
iter:  60 14:42:10  -889.997952c -5.01  -3.29    +63.6241
iter:  61 14:45:14  -889.993111c -5.42  -3.31    +63.6700
iter:  62 14:48:18  -889.994530c -5.69  -3.51    +63.6814
iter:  63 14:51:20  -889.994666c -5.87  -3.48    +63.6851
iter:  64 14:54:20  -889.995934c -5.73  -3.53    +63.6915
iter:  65 14:57:23  -890.000026c -5.35  -3.54    +63.6889
iter:  66 15:00:28  -889.998275c -5.36  -3.45    +63.7249
iter:  67 15:03:31  -890.000147c -5.42  -3.60    +63.7054
iter:  68 15:06:35  -890.002590c -5.39  -3.58    +63.7397
iter:  69 15:09:39  -890.003016c -5.51  -3.55    +63.7539
iter:  70 15:12:43  -890.004801c -5.74  -3.69    +63.7940
iter:  71 15:15:41  -890.005225c -6.43  -3.81    +63.8027
iter:  72 15:18:45  -890.008673c -5.84  -3.83    +63.8082
iter:  73 15:21:48  -889.999138c -4.92  -3.83    +63.7704
iter:  74 15:24:52  -889.997859c -5.42  -3.77    +63.7222
iter:  75 15:27:55  -890.001611c -5.56  -3.69    +63.7436
iter:  76 15:30:59  -890.000512c -6.24  -3.76    +63.7385
iter:  77 15:34:03  -890.004779c -5.67  -3.99    +63.7606
iter:  78 15:37:07  -889.992888c -4.81  -3.96    +63.6696
iter:  79 15:40:11  -889.991320c -5.40  -3.89    +63.5812
iter:  80 15:43:13  -889.991787c -4.92  -3.83    +63.3550
iter:  81 15:46:16  -889.992659c -5.76  -3.83    +63.2869
iter:  82 15:49:20  -889.994759c -5.58  -3.86    +63.1915
iter:  83 15:52:22  -889.996470c -5.82  -3.82    +63.1588
iter:  84 15:55:23  -889.997748c -5.76  -3.72    +63.1704
iter:  85 15:58:26  -889.996109c -5.64  -3.57    +63.1202
iter:  86 16:01:29  -889.996384c -5.97  -3.78    +63.0954
iter:  87 16:04:33  -889.996959c -5.92  -3.85    +63.0618
iter:  88 16:07:36  -889.997288c -6.04  -3.85    +63.0443
iter:  89 16:10:39  -889.997549c -6.39  -3.84    +63.0216
iter:  90 16:13:42  -889.997835c -6.44  -3.96    +62.9953
iter:  91 16:16:45  -889.998489c -6.55  -3.96    +62.9858
iter:  92 16:19:49  -889.998843c -6.17  -3.93    +62.9551
iter:  93 16:22:52  -889.999416c -6.11  -3.98    +62.9371
iter:  94 16:25:55  -890.000034c -6.09  -3.90    +62.9228
iter:  95 16:28:58  -890.000418c -6.17  -3.97    +62.8961
iter:  96 16:32:01  -890.001199c -6.39  -4.02c   +62.8814
iter:  97 16:35:05  -890.001524c -6.54  -4.11c   +62.8535
iter:  98 16:38:07  -890.001609c -7.11  -4.12c   +62.8351
iter:  99 16:41:06  -890.003054c -6.33  -4.18c   +62.8003
iter: 100 16:44:09  -889.997791c -5.20  -4.15c   +62.9500
iter: 101 16:47:12  -889.996788c -5.75  -4.28c   +63.0189
iter: 102 16:50:15  -889.996673c -6.02  -4.23c   +63.0582
iter: 103 16:53:18  -889.997139c -6.80  -4.23c   +63.0479
iter: 104 16:56:22  -889.997641c -6.61  -4.25c   +63.0308
iter: 105 16:59:25  -889.997924c -6.62  -4.25c   +63.0274
iter: 106 17:02:29  -889.997968c -6.84  -4.09c   +63.0208
iter: 107 17:05:32  -889.998473c -6.45  -4.20c   +63.0158
iter: 108 17:08:35  -889.998790c -6.66  -4.09c   +63.0098
iter: 109 17:11:38  -889.998992c -6.68  -4.18c   +62.9924
iter: 110 17:14:42  -889.999158c -6.92  -4.24c   +62.9779
iter: 111 17:17:46  -889.999481c -7.00  -4.31c   +62.9688
iter: 112 17:20:48  -890.000260c -6.38  -4.35c   +62.9405
iter: 113 17:23:52  -889.999758c -6.95  -4.25c   +62.9587
iter: 114 17:26:53  -890.000133c -6.78  -4.41c   +62.9471
iter: 115 17:29:55  -890.000345c -7.07  -4.45c   +62.9376
iter: 116 17:32:59  -890.000626c -6.90  -4.62c   +62.9183
iter: 117 17:36:03  -890.000719c -7.59c -4.67c   +62.9147

Converged after 117 iterations.

Dipole moment: (6.709875, -2.207059, 0.714624) |e|*Ang

Total magnetic moment: (0.000000, 0.000000, 62.914657)
Local magnetic moments:
   0 Co ( 0.000000,  0.000000,  1.292362)
   1 Fe ( 0.000000,  0.000000,  1.832886)
   2 Fe ( 0.000000,  0.000000,  2.305002)
   3 Co ( 0.000000,  0.000000,  1.418977)
   4 Co ( 0.000000,  0.000000,  1.566074)
   5 Fe ( 0.000000,  0.000000,  2.395156)
   6 Ni ( 0.000000,  0.000000,  0.569910)
   7 Co ( 0.000000,  0.000000,  1.090583)
   8 Co ( 0.000000,  0.000000,  1.190121)
   9 Fe ( 0.000000,  0.000000,  1.894064)
  10 Ni ( 0.000000,  0.000000,  0.231189)
  11 Cr ( 0.000000,  0.000000, -1.385457)
  12 Fe ( 0.000000,  0.000000,  2.104858)
  13 Ni ( 0.000000,  0.000000,  0.109188)
  14 Co ( 0.000000,  0.000000,  1.335210)
  15 Ni ( 0.000000,  0.000000,  0.234672)
  16 Ni ( 0.000000,  0.000000,  0.225733)
  17 Fe ( 0.000000,  0.000000,  1.829102)
  18 Cr ( 0.000000,  0.000000, -1.410789)
  19 Fe ( 0.000000,  0.000000,  1.897592)
  20 Cr ( 0.000000,  0.000000,  0.595206)
  21 Ni ( 0.000000,  0.000000,  0.084536)
  22 Fe ( 0.000000,  0.000000, -0.123425)
  23 Cr ( 0.000000,  0.000000, -0.673041)
  24 Cr ( 0.000000,  0.000000,  0.287521)
  25 Ni ( 0.000000,  0.000000,  0.056401)
  26 Fe ( 0.000000,  0.000000, -0.121328)
  27 Cr ( 0.000000,  0.000000, -1.660180)
  28 Fe ( 0.000000,  0.000000,  2.244004)
  29 Co ( 0.000000,  0.000000,  1.192332)
  30 Cr ( 0.000000,  0.000000, -1.577358)
  31 Ni ( 0.000000,  0.000000,  0.521875)
  32 Co ( 0.000000,  0.000000,  1.034193)
  33 Fe ( 0.000000,  0.000000,  2.281243)
  34 Cr ( 0.000000,  0.000000, -0.862733)
  35 Ni ( 0.000000,  0.000000,  0.295247)
  36 Cr ( 0.000000,  0.000000, -0.895743)
  37 Fe ( 0.000000,  0.000000,  1.833568)
  38 Cr ( 0.000000,  0.000000, -1.526759)
  39 Co ( 0.000000,  0.000000,  1.091700)
  40 Co ( 0.000000,  0.000000,  1.262920)
  41 Fe ( 0.000000,  0.000000,  2.280782)
  42 Fe ( 0.000000,  0.000000,  2.352028)
  43 Co ( 0.000000,  0.000000,  1.090832)
  44 Ni ( 0.000000,  0.000000,  0.258380)
  45 Cr ( 0.000000,  0.000000, -0.517647)
  46 Fe ( 0.000000,  0.000000,  1.539528)
  47 Cr ( 0.000000,  0.000000, -0.274241)
  48 Cr ( 0.000000,  0.000000, -1.327609)
  49 Co ( 0.000000,  0.000000,  0.714387)
  50 Ni ( 0.000000,  0.000000,  0.347931)
  51 Fe ( 0.000000,  0.000000,  2.027435)
  52 Co ( 0.000000,  0.000000,  1.139048)
  53 Fe ( 0.000000,  0.000000,  1.855468)
  54 Cr ( 0.000000,  0.000000, -1.516875)
  55 Fe ( 0.000000,  0.000000,  1.725361)
  56 Cr ( 0.000000,  0.000000, -0.009942)
  57 Ni ( 0.000000,  0.000000,  0.130942)
  58 Ni ( 0.000000,  0.000000,  0.045704)
  59 Cr ( 0.000000,  0.000000,  0.887197)
[...]
  93 Ni ( 0.000000,  0.000000,  0.175277)
  94 Co ( 0.000000,  0.000000,  0.205683)
  95 Cr ( 0.000000,  0.000000,  1.204929)
  96 Cr ( 0.000000,  0.000000, -1.117247)
  97 Fe ( 0.000000,  0.000000,  2.064658)
  98 Co ( 0.000000,  0.000000,  1.140727)
  99 Fe ( 0.000000,  0.000000,  1.806695)
 100 Fe ( 0.000000,  0.000000,  2.159337)
 101 Co ( 0.000000,  0.000000,  1.484015)
 102 Ni ( 0.000000,  0.000000,  0.524534)
 103 Co ( 0.000000,  0.000000,  1.435212)
 104 Cr ( 0.000000,  0.000000, -1.807187)
 105 Fe ( 0.000000,  0.000000,  2.459572)
 106 Co ( 0.000000,  0.000000,  0.636442)
 107 Ni ( 0.000000,  0.000000,  0.352163)

Energy contributions relative to reference atoms: (reference = -3846758.590871)

Kinetic:       +113.259881
Potential:     -181.904755
External:        +0.000000
XC:            -859.086811
Entropy (-ST):   -4.669267
Local:          +40.065600
Free energy:   -892.335353
Extrapolated:  -890.000719

Spin contamination: 29.522992 electrons
Showing only first 2 kpts
                      Up                     Down
 Kpt  Band  Eigenvalues  Occupancy  Eigenvalues  Occupancy
  0   524      9.83728    0.99371     10.70519    0.02618
  0   525      9.85686    0.99236     10.71628    0.02349
  0   526      9.85878    0.99222     10.73688    0.01920
  0   527      9.88116    0.99028     10.74897    0.01706

  1   524      9.83229    0.99402     10.70897    0.02523
  1   525      9.84381    0.99329     10.72231    0.02215
  1   526      9.85975    0.99214     10.73339    0.01987
  1   527      9.86479    0.99174     10.74808    0.01721

Fermi level: 10.34356

No gap

Forces in eV/Ang:
  0 Co    0.08691   -0.00538    0.05033
  1 Fe    0.05343    0.24280    0.06045
  2 Fe    0.17751   -0.13736    0.08472
  3 Co    0.20697   -0.04397    0.00400
  4 Co    0.02098    0.00655   -0.07633
  5 Fe    0.04971    0.13241    0.01884
  6 Ni   -0.05091    0.06246   -0.07870
  7 Co   -0.05980   -0.11294   -0.08534
  8 Co   -0.27817    0.31574   -0.04722
  9 Fe   -0.11936   -0.29279   -0.05322
 10 Ni   -0.08808   -0.13357    0.00393
 11 Cr    0.08954   -0.04614    0.24379
 12 Fe    0.10893    0.30567   -0.00719
 13 Ni    0.05203   -0.05847   -0.02089
 14 Co   -0.00101   -0.15427   -0.12998
 15 Ni    0.01034    0.15136    0.12522
 16 Ni   -0.02800   -0.25582   -0.07317
 17 Fe   -0.30169   -0.13625   -0.11098
 18 Cr   -0.33370   -0.17921    0.03737
 19 Fe    0.08043   -0.07533    0.06452
 20 Cr    0.30137    0.25943    0.19316
 21 Ni    0.06817    0.11998   -0.07500
 22 Fe   -0.20355    0.25630    0.25670
 23 Cr    0.06141    0.28303   -0.21435
 24 Cr    0.13530   -0.53520   -0.24262
 25 Ni    0.21039   -0.15099    0.23262
 26 Fe   -0.03609    0.32714   -0.03619
 27 Cr    0.28532   -0.07550    0.03085
 28 Fe   -0.28256    0.24467    0.22253
 29 Co   -0.08604    0.07012    0.03552
 30 Cr    0.08860   -0.00445   -0.14592
 31 Ni   -0.24715    0.16154    0.07656
 32 Co    0.28748   -0.15312    0.11189
 33 Fe   -0.07775   -0.09095   -0.20261
 34 Cr   -0.15576    0.06391   -0.34805
 35 Ni    0.06920   -0.26563   -0.03352
 36 Cr    0.10930    0.00926   -0.16510
 37 Fe    0.28846    0.01557   -0.03287
 38 Cr    0.44911   -0.13243    0.14013
 39 Co   -0.07176    0.22083    0.02731
 40 Co   -0.07974   -0.40937   -0.07150
 41 Fe   -0.35866    0.01335   -0.11390
 42 Fe    0.19464   -0.17521    0.03217
 43 Co   -0.17590    0.02034    0.07579
 44 Ni    0.03873    0.12676   -0.01941
 45 Cr    0.17586   -0.18366    0.18448
 46 Fe   -0.25963   -0.01256    0.21808
 47 Cr   -0.17805   -0.05356   -0.28902
 48 Cr    0.16161   -0.12263   -0.03653
 49 Co    0.08743   -0.08108    0.04394
 50 Ni   -0.14516   -0.13403    0.16632
 51 Fe   -0.02083   -0.07403   -0.05956
 52 Co    0.06062   -0.02771   -0.14378
 53 Fe   -0.17249   -0.25576    0.13841
 54 Cr   -0.13591   -0.09941   -0.02021
 55 Fe    0.11478   -0.06235   -0.01265
 56 Cr    0.37623   -0.06217   -0.43698
 57 Ni    0.01939    0.01355   -0.12086
 58 Ni    0.01347    0.08698    0.12633
 59 Cr    0.14626    0.01349   -0.02596
[...]
 93 Ni    0.14934    0.07832    0.24185
 94 Co    0.06113    0.22052    0.09780
 95 Cr    0.25550    0.00647    0.32282
 96 Cr   -0.15316   -0.17981    0.50729
 97 Fe    0.10652   -0.17168   -0.10116
 98 Co   -0.27077   -0.13007   -0.13368
 99 Fe    0.36427    0.13363    0.30389
100 Fe   -0.19916    0.07073    0.35189
101 Co   -0.18141    0.06148   -0.12399
102 Ni    0.12285    0.12088    0.07825
103 Co   -0.20730    0.11967   -0.14369
104 Cr    0.30057    0.20811   -0.07620
105 Fe   -0.10998   -0.28949    0.35122
106 Co    0.19593    0.06155    0.12717
107 Ni    0.04410    0.04318   -0.01608

Date: Sat Apr 15 17:36:26 2023