User:   c.zeng@d0136
Date:   Sat Apr  8 02:31:48 2023
Arch:   x86_64
Pid:    80718
CWD:    /home/c.zeng/projects/hea-corrosion/hea-mlp/data-curation/volume/dft-jobs/120
Python: 3.8.1
gpaw:   /home/c.zeng/usr/installs/gpaw/source/gpaw-22.8.0/gpaw
_gpaw:  /home/c.zeng/usr/installs/gpaw/source/gpaw-22.8.0/
        _gpaw.cpython-38-x86_64-linux-gnu.so
ase:    /home/c.zeng/.local/lib/python3.8/site-packages/ase-3.22.1-py3.8.egg/ase (version 3.22.1)
numpy:  /shared/centos7/python/3.8.1/lib/python3.8/site-packages/numpy (version 1.17.4)
scipy:  /shared/centos7/python/3.8.1/lib/python3.8/site-packages/scipy (version 1.4.1)
units:  Angstrom and eV
cores: 64
OpenMP: False
OMP_NUM_THREADS: 1

Input parameters:
  convergence: {energy: 0.0001}
  kpts: [2 2 2]
  maxiter: 666
  mode: {ecut: 350.0,
         name: pw}
  occupations: {fixmagmom: False,
                name: fermi-dirac,
                width: 0.1}
  spinpol: True
  xc: PBE

System changes: positions, numbers, cell, pbc, initial_charges, initial_magmoms

Initialize ...

species:
  Al:
    name: Aluminium
    id: 0292cae29f5d6237e50f6abdd43a7bdd
    Z: 13.0
    valence: 3
    core: 10
    charge: 0.0
    file: /home/c.zeng/usr/data/gpaw-setups-0.9.20000/Al.PBE.gz
    compensation charges: {type: gauss,
                           rc: 0.34,
                           lmax: 2}
    cutoffs: {filter: 1.91,
              core: 2.36}
    valence states:
      #              energy  rcut
      - 3s(2.00)    -7.753   1.085
      - 3p(1.00)    -2.712   1.085
      -  s          19.459   1.085
      -  p          24.499   1.085
      -  d           0.000   1.085

    # Using partial waves for Al as LCAO basis

  Fe:
    name: Iron
    id: 37abbd8d6c3c35915a9b583b742da910
    Z: 26.0
    valence: 8
    core: 18
    charge: 0.0
    file: /home/c.zeng/usr/data/gpaw-setups-0.9.20000/Fe.PBE.gz
    compensation charges: {type: gauss,
                           rc: 0.33,
                           lmax: 2}
    cutoffs: {filter: 2.06,
              core: 2.67}
    valence states:
      #              energy  rcut
      - 4s(2.00)    -5.291   1.164
      - 4p(0.00)    -1.326   1.058
      - 3d(6.00)    -7.505   1.058
      -  s          21.920   1.164
      -  p          25.885   1.058
      -  d          19.706   1.058

[...]

  Cr:
    name: Chromium
    id: 33f258bda2ca9f93018e70263a35547b
    Z: 24.0
    valence: 6
    core: 18
    charge: 0.0
    file: /home/c.zeng/usr/data/gpaw-setups-0.9.20000/Cr.PBE.gz
    compensation charges: {type: gauss,
                           rc: 0.35,
                           lmax: 2}
    cutoffs: {filter: 2.14,
              core: 3.04}
    valence states:
      #              energy  rcut
      - 4s(1.00)    -4.007   1.164
      - 4p(0.00)    -0.989   1.217
      - 3d(5.00)    -2.913   1.111
      -  s          23.205   1.164
      -  p          26.223   1.217
      -  d          24.299   1.111

[...]

  Ni:
    name: Nickel
    id: 0d9f38a9d6e76a2886f07bb4381f212b
    Z: 28.0
    valence: 16
    core: 12
    charge: 0.0
    file: /home/c.zeng/usr/data/gpaw-setups-0.9.20000/Ni.PBE.gz
    compensation charges: {type: gauss,
                           rc: 0.36,
                           lmax: 2}
    cutoffs: {filter: 2.14,
              core: 1.98}
    valence states:
      #              energy  rcut
      - 4s(2.00)    -5.642   1.164
      - 3p(6.00)   -71.394   1.207
      - 4p(0.00)    -1.226   1.207
      - 3d(8.00)    -8.875   1.138
      -  s          21.570   1.164
      -  d          18.337   1.138

[...]

  Co:
    name: Cobalt
    id: 339d20d5b0b93d2de9531a1bee871d91
    Z: 27.0
    valence: 9
    core: 18
    charge: 0.0
    file: /home/c.zeng/usr/data/gpaw-setups-0.9.20000/Co.PBE.gz
    compensation charges: {type: gauss,
                           rc: 0.32,
                           lmax: 2}
    cutoffs: {filter: 1.87,
              core: 2.55}
    valence states:
      #              energy  rcut
      - 4s(2.00)    -5.469   1.005
      - 4p(0.00)    -1.277   1.058
      - 3d(7.00)    -8.205   1.005
      -  s          21.742   1.005
      -  p          25.934   1.058
      -  d          19.007   1.005

    # Using partial waves for Co as LCAO basis

Reference energy: -3235165.067515  # eV

Spin-polarized calculation.
Magnetic moment: 121.100000

Convergence criteria:
 Maximum [total energy] change in last 3 cyles: 0.0001 eV / electron
 Maximum integral of absolute [dens]ity change: 0.0001 electrons / valence electron
 Maximum integral of absolute [eigenst]ate change: 4e-08 eV^2 / valence electron
 Maximum number of scf [iter]ations: 666
 (Square brackets indicate name in SCF output, whereas a 'c' in
 the SCF output indicates the quantity has converged.)

Symmetries present (total): 1

  ( 1  0  0)
  ( 0  1  0)
  ( 0  0  1)

8 k-points: 2 x 2 x 2 Monkhorst-Pack grid
4 k-points in the irreducible part of the Brillouin zone
       k-points in crystal coordinates                weights
   0:     0.25000000   -0.25000000   -0.25000000          2/8
   1:     0.25000000   -0.25000000    0.25000000          2/8
   2:     0.25000000    0.25000000   -0.25000000          2/8
   3:     0.25000000    0.25000000    0.25000000          2/8

Wave functions: Plane wave expansion
  Cutoff energy: 350.000 eV
  Number of coefficients (min, max): 22145, 22145
  Pulay-stress correction: 0.000000 eV/Ang^3 (de/decut=0.000000)
  Using FFTW library
  ScaLapack parameters: grid=1x1, blocksize=None
  Wavefunction extrapolation:
    Improved wavefunction reuse through dual PAW basis

Occupation numbers: Fermi-Dirac:
  width: 0.1000  # eV

Eigensolver
   Davidson(niter=2)

Densities:
  Coarse grid: 50*50*50 grid
  Fine grid: 100*100*100 grid
  Total Charge: 0.000000

Density mixing:
  Method: difference
  Backend: pulay
  Linear mixing parameter: 0.05
  old densities: 5
  Damping of long wavelength oscillations: 50

Hamiltonian:
  XC and Coulomb potentials evaluated on a 100*100*100 grid
  Using the PBE Exchange-Correlation functional
  External potential:
    NoExternalPotential

XC parameters: PBE with 2 nearest neighbor stencil

Total number of cores used: 64
Parallelization over k-points: 4
Domain decomposition: 4 x 2 x 2

Number of atoms: 108
Number of atomic orbitals: 933
Number of bands in calculation: 624
Number of valence electrons: 912
Bands to converge: occupied

... initialized

Initializing position-dependent things.

Density initialized from atomic densities
Creating initial wave functions:
  624 bands from LCAO basis set

        .--------Ni-----------------.
       /|   Cr       Ni             |
      / |    Cr       Co            |
     /  |                Ni         |
    /  Al       Co                  |
   /    | Fe     Co AlCr     Al     |
  /     |   CoAlNi   FeCoFe   CrCr  |
 *    AlCr   CrFeCo FeCrCo Ni       |
 |     CrAl Al  Ni NiFe  Ni FeAl    |
 |      | Fe Cr  Al CoCrNi AlFeCr   |
 |      |  Fe NiCr   CrCrFe         |
 |     Co                     CrFe  |
 |    CoAl     AlNi NiAlNi NiCo     |
 |     AlCoAl   Ni CoCo   CrCrCo    |
 | Fe   .-Ni-Co-----NiAlCr---Fe-----.
 |   CoNi     AlAl     Co Ni  Ni   /
 Fe   NiCr     FeFe     Co Al     /
 |   /   Co       Fe        FeFe /
 |  /      Al        Co         /
 | /  Cr     Fe         Ni     /e
 |/    Cr                     /
 *---------------------------Al

Positions:
   0 Al    11.420943    0.000088    0.000070    ( 0.0000,  0.0000,  0.0000)
   1 Fe    11.420989    1.903504    1.903504    ( 0.0000,  0.0000,  2.0000)
   2 Cr     1.903481   11.421000    1.903527    ( 0.0000,  0.0000,  0.0000)
   3 Cr     1.903481    1.903538    0.000024    ( 0.0000,  0.0000,  0.0000)
   4 Ni     3.807019   11.420977   11.420977    ( 0.0000,  0.0000,  1.5000)
   5 Al     3.806951    1.903584    1.903424    ( 0.0000,  0.0000,  0.0000)
   6 Al     5.710546   11.420954    1.903355    ( 0.0000,  0.0000,  0.0000)
   7 Ni     5.710534    1.903515   11.420989    ( 0.0000,  0.0000,  1.5000)
   8 Fe     7.614015    0.000011   11.420989    ( 0.0000,  0.0000,  2.0000)
   9 Co     7.614015    1.903492    1.903458    ( 0.0000,  0.0000,  2.1000)
  10 Ni     9.517508    0.000034    1.903481    ( 0.0000,  0.0000,  1.5000)
  11 Fe     9.517496    1.903504   11.420989    ( 0.0000,  0.0000,  2.0000)
  12 Fe    11.420989    3.806985    0.000024    ( 0.0000,  0.0000,  2.0000)
  13 Co    11.421000    5.710511    1.903492    ( 0.0000,  0.0000,  2.1000)
  14 Cr     1.903458    3.806996    1.903492    ( 0.0000,  0.0000,  0.0000)
  15 Co     1.903492    5.710511   11.421000    ( 0.0000,  0.0000,  2.1000)
  16 Fe     3.807019    3.807019    0.000005    ( 0.0000,  0.0000,  2.0000)
  17 Al     3.807042    5.710454    1.903424    ( 0.0000,  0.0000,  0.0000)
  18 Fe     5.710500    3.807008    1.903481    ( 0.0000,  0.0000,  2.0000)
  19 Fe     5.710500    5.710489    0.000013    ( 0.0000,  0.0000,  2.0000)
  20 Cr     7.613981    3.806996   11.420977    ( 0.0000,  0.0000,  0.0000)
  21 Co     7.613992    5.710523    1.903470    ( 0.0000,  0.0000,  2.1000)
  22 Al     9.517576    3.806973    1.903424    ( 0.0000,  0.0000,  0.0000)
  23 Fe     9.517508    5.710500    0.000005    ( 0.0000,  0.0000,  2.0000)
  24 Ni     0.000000    7.613958    0.000027    ( 0.0000,  0.0000,  1.5000)
  25 Al     0.000000    9.517462    1.903584    ( 0.0000,  0.0000,  0.0000)
  26 Ni     1.903481    7.614004    1.903492    ( 0.0000,  0.0000,  1.5000)
  27 Cr     1.903561    9.517451   11.420989    ( 0.0000,  0.0000,  0.0000)
  28 Fe     3.806996    7.614004    0.000002    ( 0.0000,  0.0000,  2.0000)
  29 Ni     3.806985    9.517485    1.903470    ( 0.0000,  0.0000,  1.5000)
  30 Ni     5.710523    7.613981    1.903470    ( 0.0000,  0.0000,  1.5000)
  31 Ni     5.710489    9.517496   11.420989    ( 0.0000,  0.0000,  1.5000)
  32 Co     7.614004    7.613992    0.000025    ( 0.0000,  0.0000,  2.1000)
  33 Cr     7.614015    9.517473    1.903458    ( 0.0000,  0.0000,  0.0000)
  34 Fe     9.517496    7.613981    1.903481    ( 0.0000,  0.0000,  2.0000)
  35 Ni     9.517462    9.517496    0.000017    ( 0.0000,  0.0000,  1.5000)
  36 Fe     0.000007    0.000021    3.806985    ( 0.0000,  0.0000,  2.0000)
  37 Co    11.420977    1.903492    5.710489    ( 0.0000,  0.0000,  2.1000)
  38 Cr     1.903470   11.420977    5.710500    ( 0.0000,  0.0000,  0.0000)
  39 Ni     1.903424    1.903492    3.806996    ( 0.0000,  0.0000,  1.5000)
  40 Al     3.806871   11.420886    3.807030    ( 0.0000,  0.0000,  0.0000)
  41 Al     3.806996    1.903504    5.710569    ( 0.0000,  0.0000,  0.0000)
  42 Cr     5.710523   11.420966    5.710557    ( 0.0000,  0.0000,  0.0000)
  43 Al     5.710534    1.903618    3.807019    ( 0.0000,  0.0000,  0.0000)
  44 Al     7.614095   11.420977    3.807019    ( 0.0000,  0.0000,  0.0000)
  45 Co     7.614027    1.903504    5.710534    ( 0.0000,  0.0000,  2.1000)
  46 Cr     9.517519    0.000024    5.710523    ( 0.0000,  0.0000,  0.0000)
  47 Ni     9.517553    1.903492    3.807008    ( 0.0000,  0.0000,  1.5000)
  48 Fe    11.421000    3.806985    3.806996    ( 0.0000,  0.0000,  2.0000)
  49 Fe    11.420977    5.710511    5.710477    ( 0.0000,  0.0000,  2.0000)
  50 Al     1.903447    3.807019    5.710431    ( 0.0000,  0.0000,  0.0000)
  51 Co     1.903458    5.710511    3.807019    ( 0.0000,  0.0000,  2.1000)
  52 Co     3.807008    3.807019    3.806996    ( 0.0000,  0.0000,  2.1000)
  53 Ni     3.807019    5.710523    5.710500    ( 0.0000,  0.0000,  1.5000)
  54 Ni     5.710500    3.807019    5.710500    ( 0.0000,  0.0000,  1.5000)
  55 Co     5.710511    5.710500    3.806996    ( 0.0000,  0.0000,  2.1000)
  56 Al     7.613958    3.807019    3.807019    ( 0.0000,  0.0000,  0.0000)
  57 Cr     7.614015    5.710534    5.710523    ( 0.0000,  0.0000,  0.0000)
  58 Ni     9.517530    3.807008    5.710523    ( 0.0000,  0.0000,  1.5000)
  59 Cr     9.517542    5.710546    3.807019    ( 0.0000,  0.0000,  0.0000)
[...]
  93 Co     7.614004    5.710489    9.517508    ( 0.0000,  0.0000,  2.1000)
  94 Ni     9.517485    3.806996    9.517508    ( 0.0000,  0.0000,  1.5000)
  95 Fe     9.517496    5.710500    7.613981    ( 0.0000,  0.0000,  2.0000)
  96 Al     0.000019    7.613970    7.613878    ( 0.0000,  0.0000,  0.0000)
  97 Al     0.000064    9.517519    9.517485    ( 0.0000,  0.0000,  0.0000)
  98 Fe     1.903527    7.614015    9.517508    ( 0.0000,  0.0000,  2.0000)
  99 Co     1.903538    9.517485    7.613981    ( 0.0000,  0.0000,  2.1000)
 100 Fe     3.806996    7.614027    7.613981    ( 0.0000,  0.0000,  2.0000)
 101 Co     3.806996    9.517496    9.517485    ( 0.0000,  0.0000,  2.1000)
 102 Al     5.710489    7.614038    9.517496    ( 0.0000,  0.0000,  0.0000)
 103 Fe     5.710489    9.517496    7.613992    ( 0.0000,  0.0000,  2.0000)
 104 Co     7.614004    7.614004    7.613970    ( 0.0000,  0.0000,  2.1000)
 105 Ni     7.613981    9.517542    9.517508    ( 0.0000,  0.0000,  1.5000)
 106 Al     9.517428    7.613935    9.517553    ( 0.0000,  0.0000,  0.0000)
 107 Cr     9.517462    9.517519    7.613970    ( 0.0000,  0.0000,  0.0000)

Unit cell:
           periodic     x           y           z      points  spacing
  1. axis:    yes   11.421000    0.000000    0.000000    50     0.2284
  2. axis:    yes    0.000000   11.421000    0.000000    50     0.2284
  3. axis:    yes    0.000000    0.000000   11.421000    50     0.2284

  Lengths:  11.421000  11.421000  11.421000
  Angles:   90.000000  90.000000  90.000000

Effective grid spacing dv^(1/3) = 0.2284

     iter     time        total  log10-change:  magmom
                         energy  eigst   dens
iter:   1 02:34:16  -985.328685                  +121.3864
iter:   2 02:35:23  -846.557497  -0.09  -1.15    +65.2810
iter:   3 02:36:32  -840.214167  -0.69  -1.15    +64.1592
iter:   4 02:37:43  -809.680027  -1.12  -1.21    +60.4231
iter:   5 02:38:49  -797.850789  -1.61  -1.29    +61.4195
iter:   6 02:39:55  -798.479821  -1.42  -1.35    +66.0656
iter:   7 02:41:00  -794.578836  -1.39  -1.39    +68.2302
iter:   8 02:42:08  -797.662385  -1.56  -1.48    +71.7872
iter:   9 02:43:15  -790.189888  -1.61  -1.51    +72.7242
iter:  10 02:44:22  -789.342851  -2.15  -1.69    +72.4672
iter:  11 02:45:27  -789.403005  -2.33  -1.74    +73.6516
iter:  12 02:46:33  -789.457587  -2.57  -1.78    +74.3055
iter:  13 02:47:41  -790.734547  -2.41  -1.86    +74.2960
iter:  14 02:48:45  -790.944523  -2.43  -1.83    +74.2262
iter:  15 02:49:52  -790.715183  -2.62  -1.91    +73.2777
iter:  16 02:50:57  -790.900102  -2.86  -1.98    +72.7174
iter:  17 02:52:01  -791.263399  -3.00  -2.05    +72.0349
iter:  18 02:53:07  -791.696565  -2.96  -2.08    +71.0796
iter:  19 02:54:13  -791.764150  -3.00  -2.10    +70.1203
iter:  20 02:55:18  -792.219156  -2.99  -2.19    +68.7903
iter:  21 02:56:24  -792.299838  -3.13  -2.21    +68.1457
iter:  22 02:57:28  -792.623688  -3.10  -2.27    +66.7529
iter:  23 02:58:36  -792.803905  -3.25  -2.30    +65.9128
iter:  24 02:59:42  -793.128257  -3.28  -2.35    +64.4754
iter:  25 03:00:50  -793.579245  -3.13  -2.37    +62.8378
iter:  26 03:01:58  -794.166061  -2.96  -2.33    +61.1338
iter:  27 03:03:05  -794.398325  -3.47  -2.23    +61.1824
iter:  28 03:04:12  -793.948482  -3.22  -2.21    +60.8251
iter:  29 03:05:18  -794.012157  -3.25  -2.38    +60.8468
iter:  30 03:06:26  -793.906773  -3.59  -2.43    +60.9297
iter:  31 03:07:31  -793.964195  -3.41  -2.54    +60.9255
iter:  32 03:08:36  -794.020349  -3.91  -2.60    +60.9812
iter:  33 03:09:44  -794.109873  -3.73  -2.61    +61.0587
iter:  34 03:10:51  -794.205316  -3.76  -2.67    +61.1489
iter:  35 03:11:59  -794.250378  -4.03  -2.64    +61.2660
iter:  36 03:13:02  -794.345849  -4.06  -2.71    +61.4251
iter:  37 03:14:08  -794.691036  -3.03  -2.70    +61.7629
iter:  38 03:15:15  -794.795988  -3.35  -2.58    +61.9015
iter:  39 03:16:22  -794.756841  -4.05  -2.52    +61.8959
iter:  40 03:17:28  -794.719139c -4.00  -2.59    +61.8801
iter:  41 03:18:35  -794.683428c -4.14  -2.65    +61.7974
iter:  42 03:19:41  -794.657480c -3.82  -2.70    +61.7027
iter:  43 03:20:50  -794.599670c -3.63  -2.69    +61.6605
iter:  44 03:21:58  -794.609115c -4.36  -2.74    +61.4139
iter:  45 03:23:03  -794.612493c -4.41  -2.80    +61.1366
iter:  46 03:24:09  -794.624849c -4.21  -2.81    +61.0426
iter:  47 03:25:13  -794.606636c -4.27  -2.89    +61.0104
iter:  48 03:26:19  -794.606530c -4.45  -3.04    +61.0520
iter:  49 03:27:25  -794.599681c -4.58  -3.08    +61.0174
iter:  50 03:28:32  -794.599750c -4.96  -3.20    +60.9553
iter:  51 03:29:41  -794.598180c -5.33  -3.25    +60.9471
iter:  52 03:30:47  -794.600575c -5.31  -3.33    +60.9248
iter:  53 03:31:54  -794.598307c -5.28  -3.31    +60.9125
iter:  54 03:33:00  -794.598494c -5.30  -3.37    +60.9075
iter:  55 03:34:08  -794.597588c -5.56  -3.50    +60.9017
iter:  56 03:35:13  -794.597231c -5.73  -3.56    +60.8886
iter:  57 03:36:19  -794.597464c -5.89  -3.64    +60.8715
iter:  58 03:37:27  -794.597369c -5.91  -3.69    +60.8663
iter:  59 03:38:31  -794.596900c -6.07  -3.73    +60.8575
iter:  60 03:39:36  -794.597142c -6.33  -3.77    +60.8506
iter:  61 03:40:45  -794.596851c -6.38  -3.84    +60.8450
iter:  62 03:41:54  -794.596992c -6.53  -3.88    +60.8420
iter:  63 03:42:58  -794.597076c -6.56  -3.91    +60.8391
iter:  64 03:44:04  -794.596901c -6.78  -3.97    +60.8379
iter:  65 03:45:10  -794.596985c -6.91  -4.03c   +60.8339
iter:  66 03:46:14  -794.597041c -6.99  -4.07c   +60.8331
iter:  67 03:47:19  -794.596863c -6.90  -4.12c   +60.8317
iter:  68 03:48:25  -794.597028c -6.97  -4.14c   +60.8305
iter:  69 03:49:34  -794.597050c -7.15  -4.19c   +60.8287
iter:  70 03:50:43  -794.596947c -7.21  -4.24c   +60.8275
iter:  71 03:51:51  -794.597048c -7.21  -4.27c   +60.8256
iter:  72 03:53:00  -794.597061c -7.27  -4.29c   +60.8249
iter:  73 03:54:05  -794.596958c -7.32  -4.33c   +60.8238
iter:  74 03:55:11  -794.597083c -7.43c -4.36c   +60.8232

Converged after 74 iterations.

Dipole moment: (0.189232, -0.423561, 0.127335) |e|*Ang

Total magnetic moment: (0.000000, 0.000000, 60.823166)
Local magnetic moments:
   0 Al ( 0.000000,  0.000000,  0.004279)
   1 Fe ( 0.000000,  0.000000,  2.560336)
   2 Cr ( 0.000000,  0.000000, -2.606286)
   3 Cr ( 0.000000,  0.000000,  2.262389)
   4 Ni ( 0.000000,  0.000000,  0.114155)
   5 Al ( 0.000000,  0.000000, -0.009845)
   6 Al ( 0.000000,  0.000000, -0.014829)
   7 Ni ( 0.000000,  0.000000,  0.423152)
   8 Fe ( 0.000000,  0.000000,  2.822013)
   9 Co ( 0.000000,  0.000000,  1.162654)
  10 Ni ( 0.000000,  0.000000,  0.373105)
  11 Fe ( 0.000000,  0.000000,  2.537765)
  12 Fe ( 0.000000,  0.000000,  2.516145)
  13 Co ( 0.000000,  0.000000,  1.610532)
  14 Cr ( 0.000000,  0.000000, -2.754250)
  15 Co ( 0.000000,  0.000000,  1.300648)
  16 Fe ( 0.000000,  0.000000,  2.449909)
  17 Al ( 0.000000,  0.000000, -0.039908)
  18 Fe ( 0.000000,  0.000000,  2.582810)
  19 Fe ( 0.000000,  0.000000,  2.593626)
  20 Cr ( 0.000000,  0.000000, -2.861887)
  21 Co ( 0.000000,  0.000000,  1.429889)
  22 Al ( 0.000000,  0.000000, -0.033322)
  23 Fe ( 0.000000,  0.000000,  2.655132)
  24 Ni ( 0.000000,  0.000000,  0.119419)
  25 Al ( 0.000000,  0.000000, -0.016680)
  26 Ni ( 0.000000,  0.000000,  0.342681)
  27 Cr ( 0.000000,  0.000000, -2.371566)
  28 Fe ( 0.000000,  0.000000,  2.718929)
  29 Ni ( 0.000000,  0.000000,  0.272165)
  30 Ni ( 0.000000,  0.000000,  0.404872)
  31 Ni ( 0.000000,  0.000000,  0.332367)
  32 Co ( 0.000000,  0.000000,  1.620408)
  33 Cr ( 0.000000,  0.000000, -2.818368)
  34 Fe ( 0.000000,  0.000000,  2.723003)
  35 Ni ( 0.000000,  0.000000,  0.220275)
  36 Fe ( 0.000000,  0.000000,  2.486040)
  37 Co ( 0.000000,  0.000000,  1.440826)
  38 Cr ( 0.000000,  0.000000, -2.775780)
  39 Ni ( 0.000000,  0.000000,  0.028551)
  40 Al ( 0.000000,  0.000000,  0.007918)
  41 Al ( 0.000000,  0.000000, -0.006111)
  42 Cr ( 0.000000,  0.000000, -2.587462)
  43 Al ( 0.000000,  0.000000, -0.002309)
  44 Al ( 0.000000,  0.000000, -0.005776)
  45 Co ( 0.000000,  0.000000,  0.878082)
  46 Cr ( 0.000000,  0.000000, -2.747414)
  47 Ni ( 0.000000,  0.000000,  0.338879)
  48 Fe ( 0.000000,  0.000000,  2.671495)
  49 Fe ( 0.000000,  0.000000,  2.507469)
  50 Al ( 0.000000,  0.000000, -0.033080)
  51 Co ( 0.000000,  0.000000,  1.485832)
  52 Co ( 0.000000,  0.000000,  1.266899)
  53 Ni ( 0.000000,  0.000000,  0.480846)
  54 Ni ( 0.000000,  0.000000,  0.197853)
  55 Co ( 0.000000,  0.000000,  1.496684)
  56 Al ( 0.000000,  0.000000, -0.009329)
  57 Cr ( 0.000000,  0.000000, -2.767871)
  58 Ni ( 0.000000,  0.000000,  0.147568)
  59 Cr ( 0.000000,  0.000000, -2.700965)
[...]
  93 Co ( 0.000000,  0.000000,  1.598800)
  94 Ni ( 0.000000,  0.000000,  0.294193)
  95 Fe ( 0.000000,  0.000000,  2.513071)
  96 Al ( 0.000000,  0.000000, -0.030321)
  97 Al ( 0.000000,  0.000000, -0.010896)
  98 Fe ( 0.000000,  0.000000,  2.465452)
  99 Co ( 0.000000,  0.000000,  1.403177)
 100 Fe ( 0.000000,  0.000000,  2.682944)
 101 Co ( 0.000000,  0.000000,  1.627768)
 102 Al ( 0.000000,  0.000000, -0.051924)
 103 Fe ( 0.000000,  0.000000,  2.838884)
 104 Co ( 0.000000,  0.000000,  1.525836)
 105 Ni ( 0.000000,  0.000000,  0.469453)
 106 Al ( 0.000000,  0.000000, -0.029987)
 107 Cr ( 0.000000,  0.000000,  2.435921)

Energy contributions relative to reference atoms: (reference = -3235165.067515)

Kinetic:       -111.022081
Potential:      +45.103954
External:        +0.000000
XC:            -755.978746
Entropy (-ST):   -4.059982
Local:          +29.329782
Free energy:   -796.627074
Extrapolated:  -794.597083

Spin contamination: 50.382661 electrons
Showing only first 2 kpts
                      Up                     Down
 Kpt  Band  Eigenvalues  Occupancy  Eigenvalues  Occupancy
  0   454      7.15101    0.99899      8.17383    0.03440
  0   455      7.16302    0.99886      8.18935    0.02961
  0   456      7.17247    0.99874      8.20497    0.02543
  0   457      7.17971    0.99865      8.21238    0.02366

  1   454      7.14495    0.99905      8.16499    0.03746
  1   455      7.15689    0.99893      8.17894    0.03275
  1   456      7.17865    0.99866      8.19065    0.02923
  1   457      7.18913    0.99852      8.20044    0.02658

Fermi level: 7.84037

No gap

Forces in eV/Ang:
  0 Al   -0.79702    0.12171    0.34326
  1 Fe   -0.11694    0.08288    0.41528
  2 Cr   -0.03529    0.22141    0.06960
  3 Cr   -0.00144   -0.15122   -0.20894
  4 Ni   -0.14179   -0.24323   -0.18017
  5 Al   -0.32829    0.72769   -0.63473
  6 Al   -0.05048   -0.47280   -1.56651
  7 Ni    0.10103    0.05725   -0.06536
  8 Fe    0.27825   -0.04574   -0.23801
  9 Co   -0.02655   -0.08344   -0.10633
 10 Ni   -0.06513    0.11516   -0.01323
 11 Fe   -0.29107    0.10838    0.10259
 12 Fe   -0.04500    0.37019    0.03853
 13 Co    0.46725    0.14814   -0.09193
 14 Cr   -0.66030   -0.05080   -0.01341
 15 Co   -0.14492    0.00070   -0.02313
 16 Fe    0.31624    0.43787   -0.02010
 17 Al    0.11429   -0.01774   -0.14698
 18 Fe    0.12077    0.19332   -0.02064
 19 Fe    0.40070   -0.06511    0.01892
 20 Cr   -0.40486   -0.04827   -0.32833
 21 Co   -0.28597    0.38324    0.03944
 22 Al    0.39871   -0.28049   -0.26165
 23 Fe   -0.21648    0.02253   -0.03482
 24 Ni    0.15569   -0.19333   -0.01644
 25 Al   -0.33651   -0.71631    0.14332
 26 Ni   -0.03491   -0.22587    0.02526
 27 Cr    0.77632   -0.69792   -0.07038
 28 Fe   -0.21081    0.36292    0.07760
 29 Ni   -0.05132   -0.01001   -0.03053
 30 Ni    0.08480   -0.25710   -0.21099
 31 Ni   -0.02269    0.03018   -0.05102
 32 Co   -0.07455   -0.15758    0.30990
 33 Cr    0.20495   -0.51854   -0.35177
 34 Fe   -0.25599   -0.60030   -0.27727
 35 Ni    0.00586    0.05242   -0.04257
 36 Fe    0.18532    0.69783    0.33543
 37 Co   -0.06015   -0.22049    0.03651
 38 Cr   -0.42932   -0.01640    0.55977
 39 Ni   -0.09348   -0.12118   -0.01055
 40 Al   -0.63671   -0.98398    0.29642
 41 Al   -0.21678    0.31943    0.38356
 42 Cr    0.34751   -0.39235    0.68706
 43 Al    0.53047    1.11035    0.47208
 44 Al    0.99495    0.28312    0.21825
 45 Co    0.15784   -0.17524    0.09835
 46 Cr   -0.13021    0.44597    0.33504
 47 Ni    0.27535   -0.00877   -0.09650
 48 Fe   -0.02683    0.06431    0.10901
 49 Fe   -0.13248   -0.13327   -0.33584
 50 Al   -0.09989   -0.15597   -0.89559
 51 Co   -0.35609    0.07536    0.16270
 52 Co    0.18022    0.37668   -0.08589
 53 Ni    0.10181   -0.05429   -0.01454
 54 Ni   -0.01960    0.05980   -0.03777
 55 Co   -0.00212   -0.03212   -0.02361
 56 Al   -0.08859   -0.10795    0.36403
 57 Cr   -0.58584    0.86128    0.26060
 58 Ni   -0.04242   -0.00796    0.12182
 59 Cr    0.74339    0.77137   -0.06452
[...]
 93 Co    0.08220   -0.22592   -0.02663
 94 Ni    0.02484    0.09385   -0.08281
 95 Fe   -0.21787   -0.26169   -0.04431
 96 Al    0.18240   -0.09932   -0.63446
 97 Al    0.06127    0.43918    0.05257
 98 Fe    0.19970    0.14663    0.19082
 99 Co    0.26293   -0.04758   -0.10338
100 Fe   -0.00959    0.37528   -0.35416
101 Co   -0.11033    0.35456   -0.14429
102 Al    0.82229    0.48298    0.05328
103 Fe    0.19184    0.32996   -0.26888
104 Co   -0.15077   -0.06341   -0.40069
105 Ni   -0.15711    0.13344    0.06693
106 Al   -1.12254   -0.03032    0.72648
107 Cr   -0.38025    0.68897   -0.33634

Date: Sat Apr  8 03:55:30 2023