User:   c.zeng@d0140
Date:   Sat Apr  8 13:37:03 2023
Arch:   x86_64
Pid:    96582
CWD:    /home/c.zeng/projects/hea-corrosion/hea-mlp/data-curation/volume/dft-jobs/74
Python: 3.8.1
gpaw:   /home/c.zeng/usr/installs/gpaw/source/gpaw-22.8.0/gpaw
_gpaw:  /home/c.zeng/usr/installs/gpaw/source/gpaw-22.8.0/
        _gpaw.cpython-38-x86_64-linux-gnu.so
ase:    /home/c.zeng/.local/lib/python3.8/site-packages/ase-3.22.1-py3.8.egg/ase (version 3.22.1)
numpy:  /shared/centos7/python/3.8.1/lib/python3.8/site-packages/numpy (version 1.17.4)
scipy:  /shared/centos7/python/3.8.1/lib/python3.8/site-packages/scipy (version 1.4.1)
units:  Angstrom and eV
cores: 64
OpenMP: False
OMP_NUM_THREADS: 1

Input parameters:
  convergence: {energy: 0.0001}
  kpts: [2 2 2]
  maxiter: 666
  mode: {ecut: 350.0,
         name: pw}
  occupations: {fixmagmom: False,
                name: fermi-dirac,
                width: 0.1}
  spinpol: True
  xc: PBE

System changes: positions, numbers, cell, pbc, initial_charges, initial_magmoms

Initialize ...

species:
  Co:
    name: Cobalt
    id: 339d20d5b0b93d2de9531a1bee871d91
    Z: 27.0
    valence: 9
    core: 18
    charge: 0.0
    file: /home/c.zeng/usr/data/gpaw-setups-0.9.20000/Co.PBE.gz
    compensation charges: {type: gauss,
                           rc: 0.32,
                           lmax: 2}
    cutoffs: {filter: 1.87,
              core: 2.55}
    valence states:
      #              energy  rcut
      - 4s(2.00)    -5.469   1.005
      - 4p(0.00)    -1.277   1.058
      - 3d(7.00)    -8.205   1.005
      -  s          21.742   1.005
      -  p          25.934   1.058
      -  d          19.007   1.005

    # Using partial waves for Co as LCAO basis

  Ni:
    name: Nickel
    id: 0d9f38a9d6e76a2886f07bb4381f212b
    Z: 28.0
    valence: 16
    core: 12
    charge: 0.0
    file: /home/c.zeng/usr/data/gpaw-setups-0.9.20000/Ni.PBE.gz
    compensation charges: {type: gauss,
                           rc: 0.36,
                           lmax: 2}
    cutoffs: {filter: 2.14,
              core: 1.98}
    valence states:
      #              energy  rcut
      - 4s(2.00)    -5.642   1.164
      - 3p(6.00)   -71.394   1.207
      - 4p(0.00)    -1.226   1.207
      - 3d(8.00)    -8.875   1.138
      -  s          21.570   1.164
      -  d          18.337   1.138

[...]

  Al:
    name: Aluminium
    id: 0292cae29f5d6237e50f6abdd43a7bdd
    Z: 13.0
    valence: 3
    core: 10
    charge: 0.0
    file: /home/c.zeng/usr/data/gpaw-setups-0.9.20000/Al.PBE.gz
    compensation charges: {type: gauss,
                           rc: 0.34,
                           lmax: 2}
    cutoffs: {filter: 1.91,
              core: 2.36}
    valence states:
      #              energy  rcut
      - 3s(2.00)    -7.753   1.085
      - 3p(1.00)    -2.712   1.085
      -  s          19.459   1.085
      -  p          24.499   1.085
      -  d           0.000   1.085

[...]

  Cr:
    name: Chromium
    id: 33f258bda2ca9f93018e70263a35547b
    Z: 24.0
    valence: 6
    core: 18
    charge: 0.0
    file: /home/c.zeng/usr/data/gpaw-setups-0.9.20000/Cr.PBE.gz
    compensation charges: {type: gauss,
                           rc: 0.35,
                           lmax: 2}
    cutoffs: {filter: 2.14,
              core: 3.04}
    valence states:
      #              energy  rcut
      - 4s(1.00)    -4.007   1.164
      - 4p(0.00)    -0.989   1.217
      - 3d(5.00)    -2.913   1.111
      -  s          23.205   1.164
      -  p          26.223   1.217
      -  d          24.299   1.111

[...]

  Fe:
    name: Iron
    id: 37abbd8d6c3c35915a9b583b742da910
    Z: 26.0
    valence: 8
    core: 18
    charge: 0.0
    file: /home/c.zeng/usr/data/gpaw-setups-0.9.20000/Fe.PBE.gz
    compensation charges: {type: gauss,
                           rc: 0.33,
                           lmax: 2}
    cutoffs: {filter: 2.06,
              core: 2.67}
    valence states:
      #              energy  rcut
      - 4s(2.00)    -5.291   1.164
      - 4p(0.00)    -1.326   1.058
      - 3d(6.00)    -7.505   1.058
      -  s          21.920   1.164
      -  p          25.885   1.058
      -  d          19.706   1.058

    # Using partial waves for Fe as LCAO basis

Reference energy: -3548577.034362  # eV

Spin-polarized calculation.
Magnetic moment: 136.400000

Convergence criteria:
 Maximum [total energy] change in last 3 cyles: 0.0001 eV / electron
 Maximum integral of absolute [dens]ity change: 0.0001 electrons / valence electron
 Maximum integral of absolute [eigenst]ate change: 4e-08 eV^2 / valence electron
 Maximum number of scf [iter]ations: 666
 (Square brackets indicate name in SCF output, whereas a 'c' in
 the SCF output indicates the quantity has converged.)

Symmetries present (total): 1

  ( 1  0  0)
  ( 0  1  0)
  ( 0  0  1)

8 k-points: 2 x 2 x 2 Monkhorst-Pack grid
4 k-points in the irreducible part of the Brillouin zone
       k-points in crystal coordinates                weights
   0:     0.25000000   -0.25000000   -0.25000000          2/8
   1:     0.25000000   -0.25000000    0.25000000          2/8
   2:     0.25000000    0.25000000   -0.25000000          2/8
   3:     0.25000000    0.25000000    0.25000000          2/8

Wave functions: Plane wave expansion
  Cutoff energy: 350.000 eV
  Number of coefficients (min, max): 18805, 18805
  Pulay-stress correction: 0.000000 eV/Ang^3 (de/decut=0.000000)
  Using FFTW library
  ScaLapack parameters: grid=1x1, blocksize=None
  Wavefunction extrapolation:
    Improved wavefunction reuse through dual PAW basis

Occupation numbers: Fermi-Dirac:
  width: 0.1000  # eV

Eigensolver
   Davidson(niter=2)

Densities:
  Coarse grid: 48*48*48 grid
  Fine grid: 96*96*96 grid
  Total Charge: 0.000000

Density mixing:
  Method: difference
  Backend: pulay
  Linear mixing parameter: 0.05
  old densities: 5
  Damping of long wavelength oscillations: 50

Hamiltonian:
  XC and Coulomb potentials evaluated on a 96*96*96 grid
  Using the PBE Exchange-Correlation functional
  External potential:
    NoExternalPotential

XC parameters: PBE with 2 nearest neighbor stencil

Total number of cores used: 64
Parallelization over k-points: 4
Domain decomposition: 4 x 2 x 2

Number of atoms: 108
Number of atomic orbitals: 994
Number of bands in calculation: 674
Number of valence electrons: 980
Bands to converge: occupied

... initialized

Initializing position-dependent things.

Density initialized from atomic densities
Creating initial wave functions:
  674 bands from LCAO basis set

       /|  Cr       Fe             |
      / |      Fe    Fe Fe    Al Fe|
     / Ni       NiCo     Ni        |
    /   AAl        Fe       Fe     |
   /    | NiCr      Co        Co   |
  /  CoCr  Co Fe       Ni    Fe    |
 Co     NiCr   CoAl     CoCr  Al Co|
 |Co   NiFeFe   CoCoCr   CrCr      |
 | Cr Co| CrCo     CoFe     Fe     |
 |   FeFe  NiNi Cr  Cr CoNi  Ni    |
 |      FeFe   CoCoNi   CrCr     Ni|
 |Ni    |NiNi   NiCrCo   CrFe     Al
 |    Co.-NiNiCo---CoCr---CrFeCr---.
 |     Ni     Cr       Cr    CrFe /
 |    / Al      Ni       Nir     /
 Ni  /    Co     AlCr      Cr   /
 |  /      Fe       Fe       Ni/
 | /  Al      Fe     Co Fe    /
 |/             Fe       Al  /

Positions:
   0 Co    10.813500    0.000021   10.813478    ( 0.0000,  0.0000,  2.1000)
   1 Ni    10.813435    1.802232    1.802264    ( 0.0000,  0.0000,  1.5000)
   2 Al     1.802383    0.000159    1.802329    ( 0.0000,  0.0000,  0.0000)
   3 Cr     1.802254    1.802232   10.813392    ( 0.0000,  0.0000,  0.0000)
   4 Cr     3.604615    0.000021   10.813457    ( 0.0000,  0.0000,  0.0000)
   5 Fe     3.604583    1.802189    1.802275    ( 0.0000,  0.0000,  2.0000)
   6 Fe     5.406728    0.000046    1.802232    ( 0.0000,  0.0000,  2.0000)
   7 Fe     5.406761    1.802167    0.000036    ( 0.0000,  0.0000,  2.0000)
   8 Cr     7.208863   -0.000004    0.000088    ( 0.0000,  0.0000,  0.0000)
   9 Fe     7.208971    1.802210    1.802275    ( 0.0000,  0.0000,  2.0000)
  10 Fe     9.011246    0.000023    1.802308    ( 0.0000,  0.0000,  2.0000)
  11 Al     9.011257    1.802362    0.000208    ( 0.0000,  0.0000,  0.0000)
  12 Co    10.813468    3.604518   10.813468    ( 0.0000,  0.0000,  2.1000)
  13 Fe    10.813424    5.406826    1.802286    ( 0.0000,  0.0000,  2.0000)
  14 Al     1.802210    3.604367    1.802459    ( 0.0000,  0.0000,  0.0000)
  15 Al     1.802200    5.406955   10.813327    ( 0.0000,  0.0000,  0.0000)
  16 Cr     3.604540    3.604442   10.813435    ( 0.0000,  0.0000,  0.0000)
  17 Cr     3.604529    5.406891    1.802275    ( 0.0000,  0.0000,  0.0000)
  18 Al     5.406772    3.604356    1.802243    ( 0.0000,  0.0000,  0.0000)
  19 Co     5.406750    5.406891   10.813457    ( 0.0000,  0.0000,  2.1000)
  20 Co     7.209004    3.604507    0.000003    ( 0.0000,  0.0000,  2.1000)
  21 Cr     7.209079    5.406826    1.802243    ( 0.0000,  0.0000,  0.0000)
  22 Cr     9.011257    3.604529    1.802297    ( 0.0000,  0.0000,  0.0000)
  23 Cr     9.011279    5.406847    0.000033    ( 0.0000,  0.0000,  0.0000)
  24 Fe    10.813446    7.208971   10.813478    ( 0.0000,  0.0000,  2.0000)
  25 Al    10.813305    9.011084    1.802243    ( 0.0000,  0.0000,  0.0000)
  26 Ni     1.802264    7.208982    1.802275    ( 0.0000,  0.0000,  1.5000)
  27 Cr     1.802286    9.011171   10.813413    ( 0.0000,  0.0000,  0.0000)
  28 Fe     3.604583    7.209036   10.813478    ( 0.0000,  0.0000,  2.0000)
  29 Ni     3.604583    9.011203    1.802264    ( 0.0000,  0.0000,  1.5000)
  30 Co     5.406739    7.209025    1.802189    ( 0.0000,  0.0000,  2.1000)
  31 Fe     5.406739    9.011203   10.813478    ( 0.0000,  0.0000,  2.0000)
  32 Fe     7.208971    7.208993   10.813468    ( 0.0000,  0.0000,  2.0000)
  33 Cr     7.208982    9.011246    1.802210    ( 0.0000,  0.0000,  0.0000)
  34 Fe     9.011246    7.208960    1.802254    ( 0.0000,  0.0000,  2.0000)
  35 Cr     9.011225    9.011127    0.000001    ( 0.0000,  0.0000,  0.0000)
  36 Ni    10.813500    0.000039    3.604496    ( 0.0000,  0.0000,  1.5000)
  37 Ni     0.000066    1.802329    5.406739    ( 0.0000,  0.0000,  1.5000)
  38 Co     1.802318    0.000029    5.406739    ( 0.0000,  0.0000,  2.1000)
  39 Ni     1.802275    1.802243    3.604594    ( 0.0000,  0.0000,  1.5000)
  40 Co     3.604529    0.000000    3.604540    ( 0.0000,  0.0000,  2.1000)
  41 Ni     3.604464    1.802232    5.406761    ( 0.0000,  0.0000,  1.5000)
  42 Co     5.406718    0.000003    5.406761    ( 0.0000,  0.0000,  2.1000)
  43 Ni     5.406739    1.802189    3.604475    ( 0.0000,  0.0000,  1.5000)
  44 Cr     7.208960    0.000076    3.604432    ( 0.0000,  0.0000,  0.0000)
  45 Co     7.208971    1.802308    5.406750    ( 0.0000,  0.0000,  2.1000)
  46 Al     9.011127   10.813489    5.406577    ( 0.0000,  0.0000,  0.0000)
  47 Ni     9.011236    1.802243    3.604442    ( 0.0000,  0.0000,  1.5000)
  48 Cr    10.813489    3.604550    3.604550    ( 0.0000,  0.0000,  0.0000)
  49 Fe     0.000003    5.406761    5.406728    ( 0.0000,  0.0000,  2.0000)
  50 Fe     1.802264    3.604507    5.406761    ( 0.0000,  0.0000,  2.0000)
  51 Ni     1.802200    5.406772    3.604583    ( 0.0000,  0.0000,  1.5000)
[...]
  58 Cr     9.011225    3.604540    5.406739    ( 0.0000,  0.0000,  0.0000)
  59 Fe     9.011300    5.406815    3.604529    ( 0.0000,  0.0000,  2.0000)
[...]
  93 Ni     7.208993    5.406837    9.011236    ( 0.0000,  0.0000,  1.5000)
  94 Cr     9.011257    3.604529    9.011203    ( 0.0000,  0.0000,  0.0000)
  95 Cr     9.011257    5.406837    7.208950    ( 0.0000,  0.0000,  0.0000)
  96 Co    10.813468    7.209004    7.209014    ( 0.0000,  0.0000,  2.1000)
  97 Ni    10.813500    9.011149    9.011257    ( 0.0000,  0.0000,  1.5000)
  98 Ni     1.802254    7.208993    9.011214    ( 0.0000,  0.0000,  1.5000)
  99 Co     1.802297    9.011236    7.208982    ( 0.0000,  0.0000,  2.1000)
 100 Co     3.604518    7.208993    7.209014    ( 0.0000,  0.0000,  2.1000)
 101 Ni     3.604561    9.011236    9.011225    ( 0.0000,  0.0000,  1.5000)
 102 Fe     5.406761    7.209014    9.011311    ( 0.0000,  0.0000,  2.0000)
 103 Co     5.406728    9.011246    7.209025    ( 0.0000,  0.0000,  2.1000)
 104 Co     7.209014    7.208993    7.209025    ( 0.0000,  0.0000,  2.1000)
 105 Ni     7.208928    9.011149    9.011225    ( 0.0000,  0.0000,  1.5000)
 106 Fe     9.011225    7.209036    9.011257    ( 0.0000,  0.0000,  2.0000)
 107 Fe     9.011225    9.011127    7.208993    ( 0.0000,  0.0000,  2.0000)

Unit cell:
           periodic     x           y           z      points  spacing
  1. axis:    yes   10.813500    0.000000    0.000000    48     0.2253
  2. axis:    yes    0.000000   10.813500    0.000000    48     0.2253
  3. axis:    yes    0.000000    0.000000   10.813500    48     0.2253

  Lengths:  10.813500  10.813500  10.813500
  Angles:   90.000000  90.000000  90.000000

Effective grid spacing dv^(1/3) = 0.2253

     iter     time        total  log10-change:  magmom
                         energy  eigst   dens
iter:   1 13:38:55 -1038.023873                  +136.6825
iter:   2 13:39:45  -915.482046  -0.21  -1.18    +75.9982
iter:   3 13:40:36  -913.018440  -0.76  -1.20    +66.6714
iter:   4 13:41:26  -883.590654  -1.16  -1.25    +61.9183
iter:   5 13:42:16  -869.944557  -1.58  -1.29    +59.7066
iter:   6 13:43:07  -874.974039  -1.26  -1.36    +60.9617
iter:   7 13:43:57  -858.638755  -1.30  -1.40    +59.7346
iter:   8 13:44:47  -851.631553  -1.62  -1.56    +59.6852
iter:   9 13:45:37  -851.477715  -2.03  -1.73    +60.8913
iter:  10 13:46:29  -850.394269  -2.33  -1.76    +62.3120
iter:  11 13:47:18  -851.108718  -2.56  -1.84    +63.4103
iter:  12 13:48:08  -851.212848  -2.50  -1.83    +65.1097
iter:  13 13:48:58  -852.858685  -2.39  -1.89    +66.2028
iter:  14 13:49:49  -851.589663  -2.36  -1.88    +66.1593
iter:  15 13:50:39  -852.373804  -2.51  -2.01    +67.2390
iter:  16 13:51:29  -851.713814  -2.63  -2.01    +67.4459
iter:  17 13:52:21  -851.467516  -2.89  -2.08    +68.1023
iter:  18 13:53:11  -851.958931  -2.78  -2.14    +68.0243
iter:  19 13:54:01  -851.649464  -2.92  -2.12    +68.4566
iter:  20 13:54:52  -851.496114  -3.10  -2.18    +69.0632
iter:  21 13:55:41  -851.626991  -3.11  -2.25    +68.8013
iter:  22 13:56:31  -851.646238  -3.07  -2.27    +68.8306
iter:  23 13:57:21  -851.540470  -3.15  -2.29    +68.6269
iter:  24 13:58:12  -851.535224  -3.23  -2.34    +68.9322
iter:  25 13:59:03  -851.698594  -3.24  -2.41    +68.8415
iter:  26 13:59:53  -851.505682  -3.40  -2.39    +68.7406
iter:  27 14:00:43  -851.523006  -3.68  -2.48    +69.0668
iter:  28 14:01:33  -851.525963c -3.70  -2.52    +68.9904
iter:  29 14:02:23  -851.555546c -3.70  -2.58    +69.1036
iter:  30 14:03:13  -851.524624c -4.01  -2.56    +68.9879
iter:  31 14:04:04  -851.612016c -3.83  -2.65    +68.9312
iter:  32 14:04:54  -851.602787c -3.82  -2.59    +68.8121
iter:  33 14:05:44  -851.621015c -3.91  -2.66    +68.5996
iter:  34 14:06:34  -851.597095c -4.04  -2.66    +68.6680
iter:  35 14:07:25  -851.677826c -3.80  -2.74    +68.5083
iter:  36 14:08:15  -851.606933c -4.10  -2.66    +68.4915
iter:  37 14:09:05  -851.625692c -4.23  -2.78    +68.4038
iter:  38 14:09:55  -851.612375c -4.48  -2.79    +68.4116
iter:  39 14:10:45  -851.622833c -4.56  -2.85    +68.4412
iter:  40 14:11:35  -851.623289c -4.92  -2.85    +68.3663
iter:  41 14:12:27  -851.639124c -4.69  -2.88    +68.3830
iter:  42 14:13:16  -851.654359c -4.48  -2.89    +68.3141
iter:  43 14:14:06  -851.683914c -4.26  -2.87    +68.3178
iter:  44 14:14:59  -851.682900c -4.22  -2.83    +68.2909
iter:  45 14:15:50  -851.697379c -4.09  -2.90    +68.1964
iter:  46 14:16:40  -851.687449c -4.19  -2.85    +68.3382
iter:  47 14:17:30  -851.676553c -4.47  -2.90    +68.2901
iter:  48 14:18:22  -851.666791c -4.63  -3.04    +68.3206
iter:  49 14:19:12  -851.669066c -5.16  -3.08    +68.2798
iter:  50 14:20:03  -851.671390c -5.28  -3.14    +68.2729
iter:  51 14:20:54  -851.680649c -5.10  -3.16    +68.2492
iter:  52 14:21:45  -851.688079c -4.82  -3.16    +68.2293
iter:  53 14:22:35  -851.685560c -4.87  -3.12    +68.2498
iter:  54 14:23:26  -851.709943c -4.50  -3.25    +68.2493
iter:  55 14:24:18  -851.688629c -4.82  -3.08    +68.2561
iter:  56 14:25:09  -851.698866c -4.84  -3.41    +68.2643
iter:  57 14:25:58  -851.692859c -5.24  -3.29    +68.2734
iter:  58 14:26:49  -851.696160c -5.37  -3.48    +68.3519
iter:  59 14:27:42  -851.698044c -5.70  -3.54    +68.3632
iter:  60 14:28:32  -851.703131c -5.55  -3.60    +68.4038
iter:  61 14:29:23  -851.695501c -5.50  -3.54    +68.3120
iter:  62 14:30:14  -851.698922c -5.99  -3.62    +68.3257
iter:  63 14:31:06  -851.701535c -5.67  -3.63    +68.3556
iter:  64 14:32:00  -851.705401c -5.51  -3.53    +68.4054
iter:  65 14:32:53  -851.706919c -5.70  -3.54    +68.4238
iter:  66 14:33:44  -851.708402c -5.65  -3.59    +68.4663
iter:  67 14:34:36  -851.712768c -5.44  -3.60    +68.4908
iter:  68 14:35:28  -851.710715c -5.69  -3.47    +68.4893
iter:  69 14:36:20  -851.714033c -5.31  -3.48    +68.4590
iter:  70 14:37:14  -851.716966c -5.39  -3.48    +68.4776
iter:  71 14:38:06  -851.718422c -5.36  -3.49    +68.4794
iter:  72 14:38:56  -851.719509c -5.67  -3.49    +68.4966
iter:  73 14:39:47  -851.723089c -5.32  -3.66    +68.5563
iter:  74 14:40:42  -851.724183c -5.71  -3.58    +68.5522
iter:  75 14:41:34  -851.725528c -5.65  -3.65    +68.5725
iter:  76 14:42:26  -851.728744c -5.46  -3.73    +68.5645
iter:  77 14:43:18  -851.729548c -5.61  -3.77    +68.6040
iter:  78 14:44:09  -851.730162c -5.88  -3.74    +68.6090
iter:  79 14:45:02  -851.732294c -5.83  -3.95    +68.6318
iter:  80 14:45:55  -851.733139c -5.97  -3.90    +68.6515
iter:  81 14:46:45  -851.735716c -5.65  -3.95    +68.6780
iter:  82 14:47:35  -851.733271c -6.06  -3.83    +68.6468
iter:  83 14:48:27  -851.745442c -4.53  -3.89    +68.8142
iter:  84 14:49:18  -851.752831c -4.42  -3.65    +68.9596
iter:  85 14:50:10  -851.759836c -4.49  -3.53    +69.0784
iter:  86 14:51:04  -851.762850c -5.33  -3.38    +69.0792
iter:  87 14:51:56  -851.761629c -5.73  -3.33    +69.0888
iter:  88 14:52:48  -851.757022c -5.36  -3.35    +69.0947
iter:  89 14:53:40  -851.757230c -5.86  -3.36    +69.0908
iter:  90 14:54:31  -851.756723c -4.62  -3.43    +69.0889
iter:  91 14:55:23  -851.749600c -5.14  -3.25    +69.0699
iter:  92 14:56:14  -851.749520c -5.76  -3.61    +69.0259
iter:  93 14:57:05  -851.749433c -5.79  -3.71    +68.9397
iter:  94 14:57:58  -851.748912c -5.85  -3.70    +68.8940
iter:  95 14:58:50  -851.749700c -6.11  -3.73    +68.8611
iter:  96 14:59:42  -851.749467c -6.26  -3.78    +68.8380
iter:  97 15:00:34  -851.749333c -6.22  -3.83    +68.8285
iter:  98 15:01:26  -851.749373c -6.28  -3.83    +68.8031
iter:  99 15:02:19  -851.749963c -6.07  -3.91    +68.7922
iter: 100 15:03:11  -851.749637c -6.41  -3.89    +68.7887
iter: 101 15:04:01  -851.749066c -6.43  -4.03c   +68.7710
iter: 102 15:04:52  -851.749409c -6.69  -4.00c   +68.7559
iter: 103 15:05:45  -851.749477c -6.58  -4.12c   +68.7430
iter: 104 15:06:39  -851.749443c -6.72  -4.11c   +68.7398
iter: 105 15:07:31  -851.749314c -6.75  -4.11c   +68.7254
iter: 106 15:08:23  -851.749462c -6.64  -4.22c   +68.7159
iter: 107 15:09:15  -851.749763c -6.71  -4.16c   +68.7136
iter: 108 15:10:06  -851.749265c -6.80  -4.22c   +68.7083
iter: 109 15:10:57  -851.749411c -6.91  -4.25c   +68.6983
iter: 110 15:11:50  -851.749407c -6.84  -4.31c   +68.6882
iter: 111 15:12:42  -851.749437c -7.18  -4.29c   +68.6883
iter: 112 15:13:33  -851.749414c -7.17  -4.42c   +68.6814
iter: 113 15:14:24  -851.749461c -6.98  -4.43c   +68.6699
iter: 114 15:15:16  -851.749604c -5.61  -4.40c   +68.6036
iter: 115 15:16:06  -851.749668c -5.72  -4.18c   +68.5585
iter: 116 15:17:00  -851.749513c -6.62  -4.06c   +68.5837
iter: 117 15:17:52  -851.749608c -6.80  -4.16c   +68.5702
iter: 118 15:18:44  -851.749717c -7.11  -4.16c   +68.5671
iter: 119 15:19:36  -851.749574c -6.51  -4.15c   +68.5633
iter: 120 15:20:27  -851.749641c -6.58  -4.02c   +68.5636
iter: 121 15:21:17  -851.749772c -7.07  -4.25c   +68.5606
iter: 122 15:22:08  -851.749370c -6.67  -4.26c   +68.5625
iter: 123 15:22:59  -851.749661c -7.05  -4.12c   +68.5664
iter: 124 15:23:50  -851.749604c -7.25  -4.39c   +68.5648
iter: 125 15:24:42  -851.749863c -7.06  -4.42c   +68.5618
iter: 126 15:25:36  -851.749628c -6.98  -4.38c   +68.5621
iter: 127 15:26:27  -851.749646c -7.15  -4.36c   +68.5633
iter: 128 15:27:20  -851.749824c -7.33  -4.55c   +68.5550
iter: 129 15:28:11  -851.749708c -7.61c -4.61c   +68.5549

Converged after 129 iterations.

Dipole moment: (0.079089, 0.044527, -0.426412) |e|*Ang

Total magnetic moment: (0.000000, 0.000000, 68.554852)
Local magnetic moments:
   0 Co ( 0.000000,  0.000000,  0.402064)
   1 Ni ( 0.000000,  0.000000,  0.136602)
   2 Al ( 0.000000,  0.000000, -0.007599)
   3 Cr ( 0.000000,  0.000000,  1.221252)
   4 Cr ( 0.000000,  0.000000, -1.472109)
   5 Fe ( 0.000000,  0.000000,  2.164400)
   6 Fe ( 0.000000,  0.000000,  2.008918)
   7 Fe ( 0.000000,  0.000000,  1.763172)
   8 Cr ( 0.000000,  0.000000, -1.237818)
   9 Fe ( 0.000000,  0.000000,  1.842935)
  10 Fe ( 0.000000,  0.000000,  2.145057)
  11 Al ( 0.000000,  0.000000, -0.022530)
  12 Co ( 0.000000,  0.000000, -0.489164)
  13 Fe ( 0.000000,  0.000000,  2.044111)
  14 Al ( 0.000000,  0.000000, -0.011573)
  15 Al ( 0.000000,  0.000000, -0.030924)
  16 Cr ( 0.000000,  0.000000, -1.491022)
  17 Cr ( 0.000000,  0.000000,  1.121690)
  18 Al ( 0.000000,  0.000000, -0.014159)
  19 Co ( 0.000000,  0.000000,  1.142838)
  20 Co ( 0.000000,  0.000000,  0.866642)
  21 Cr ( 0.000000,  0.000000, -0.846752)
  22 Cr ( 0.000000,  0.000000,  0.784709)
  23 Cr ( 0.000000,  0.000000, -1.698148)
  24 Fe ( 0.000000,  0.000000,  2.099275)
  25 Al ( 0.000000,  0.000000, -0.018297)
  26 Ni ( 0.000000,  0.000000,  0.257220)
  27 Cr ( 0.000000,  0.000000, -1.824516)
  28 Fe ( 0.000000,  0.000000,  2.283577)
  29 Ni ( 0.000000,  0.000000,  0.192424)
  30 Co ( 0.000000,  0.000000,  1.001435)
  31 Fe ( 0.000000,  0.000000,  2.152318)
  32 Fe ( 0.000000,  0.000000,  1.911444)
  33 Cr ( 0.000000,  0.000000,  0.007031)
  34 Fe ( 0.000000,  0.000000,  1.956247)
  35 Cr ( 0.000000,  0.000000, -1.439449)
  36 Ni ( 0.000000,  0.000000,  0.345020)
  37 Ni ( 0.000000,  0.000000,  0.168335)
  38 Co ( 0.000000,  0.000000,  1.590965)
  39 Ni ( 0.000000,  0.000000,  0.363764)
  40 Co ( 0.000000,  0.000000,  1.536909)
  41 Ni ( 0.000000,  0.000000,  0.467048)
  42 Co ( 0.000000,  0.000000,  1.445114)
  43 Ni ( 0.000000,  0.000000,  0.252552)
  44 Cr ( 0.000000,  0.000000, -0.838887)
  45 Co ( 0.000000,  0.000000,  1.019418)
  46 Al ( 0.000000,  0.000000, -0.008845)
  47 Ni ( 0.000000,  0.000000,  0.043030)
  48 Cr ( 0.000000,  0.000000, -1.755638)
  49 Fe ( 0.000000,  0.000000,  2.153291)
  50 Fe ( 0.000000,  0.000000,  2.552536)
  51 Ni ( 0.000000,  0.000000,  0.328227)
  52 Ni ( 0.000000,  0.000000,  0.347596)
  53 Ni ( 0.000000,  0.000000,  0.432441)
  54 Co ( 0.000000,  0.000000,  1.428786)
  55 Cr ( 0.000000,  0.000000, -0.245682)
  56 Cr ( 0.000000,  0.000000, -1.418999)
  57 Co ( 0.000000,  0.000000,  0.970068)
  58 Cr ( 0.000000,  0.000000,  1.231807)
  59 Fe ( 0.000000,  0.000000,  1.440687)
[...]
  93 Ni ( 0.000000,  0.000000,  0.330817)
  94 Cr ( 0.000000,  0.000000,  1.064355)
  95 Cr ( 0.000000,  0.000000, -1.723258)
  96 Co ( 0.000000,  0.000000,  1.332838)
  97 Ni ( 0.000000,  0.000000,  0.251387)
  98 Ni ( 0.000000,  0.000000,  0.439201)
  99 Co ( 0.000000,  0.000000,  1.620556)
 100 Co ( 0.000000,  0.000000,  1.651024)
 101 Ni ( 0.000000,  0.000000,  0.434257)
 102 Fe ( 0.000000,  0.000000,  2.522657)
 103 Co ( 0.000000,  0.000000,  1.564457)
 104 Co ( 0.000000,  0.000000,  1.393955)
 105 Ni ( 0.000000,  0.000000,  0.309885)
 106 Fe ( 0.000000,  0.000000,  2.220830)
 107 Fe ( 0.000000,  0.000000,  2.210898)

Energy contributions relative to reference atoms: (reference = -3548577.034362)

Kinetic:        +79.896810
Potential:     -132.615360
External:        +0.000000
XC:            -832.592687
Entropy (-ST):   -4.454394
Local:          +35.788726
Free energy:   -853.976905
Extrapolated:  -851.749708

Spin contamination: 29.102476 electrons
Showing only first 2 kpts
                      Up                     Down
 Kpt  Band  Eigenvalues  Occupancy  Eigenvalues  Occupancy
  0   488      9.09268    0.99668     10.05067    0.02031
  0   489      9.10851    0.99611     10.05448    0.01957
  0   490      9.11425    0.99588     10.07090    0.01665
  0   491      9.13323    0.99503     10.08366    0.01469

  1   488      9.08942    0.99678     10.05151    0.02015
  1   489      9.10472    0.99625     10.06115    0.01833
  1   490      9.13541    0.99492     10.07556    0.01591
  1   491      9.14580    0.99436     10.09362    0.01331

Fermi level: 9.66307

Gap: 0.002 eV
Transition (v -> c):
  (s=0, k=0, n=524, [0.25, -0.25, -0.25]) -> (s=0, k=2, n=525, [0.25, 0.25, -0.25])

Forces in eV/Ang:
  0 Co    0.28518   -0.51343   -0.17157
  1 Ni   -0.04663    0.02989    0.12133
  2 Al    0.08936    0.47889    1.00934
  3 Cr   -0.48135    0.00187   -1.21932
  4 Cr    0.66184    0.23863   -0.65217
  5 Fe    0.43191   -0.30323    0.26622
  6 Fe   -0.04641    0.04374    0.17789
  7 Fe   -0.29465   -0.10157    0.10640
  8 Cr   -1.04502   -0.55543    0.20638
  9 Fe    0.08362   -0.29232    0.16062
 10 Fe   -0.12065    0.33523    0.18023
 11 Al    0.91051    0.38166    0.49893
 12 Co   -0.23990   -0.17343   -0.22179
 13 Fe   -0.27021    0.40815    0.53546
 14 Al   -0.25661   -0.59002    0.81041
 15 Al   -0.84416    0.52945   -0.85811
 16 Cr   -0.27329   -0.52783   -0.13744
 17 Cr    0.55377    0.67043    0.18215
 18 Al    0.09562   -0.62463   -0.00975
 19 Co    0.08946    0.30363    0.12727
 20 Co    0.11725    0.15462    0.01981
 21 Cr    0.02853    0.85496    0.09254
 22 Cr   -0.02868    0.48159    0.35692
 23 Cr    0.36293    0.15954   -0.28365
 24 Fe   -0.20865    0.19500   -0.47909
 25 Al   -0.36211   -0.49319    1.07602
 26 Ni    0.16966   -0.15806    0.08292
 27 Cr    0.08525   -0.49539   -1.17498
 28 Fe    0.14206    0.46782    0.03886
 29 Ni    0.16708   -0.13553    0.03700
 30 Co    0.03727    0.04101   -0.15819
 31 Fe   -0.07091    0.15959    0.20059
 32 Fe   -0.04305   -0.01047    0.18526
 33 Cr   -0.16430   -0.34168    0.45974
 34 Fe   -0.39743   -0.38079   -0.02077
 35 Cr   -0.22712   -0.65100   -0.03646
 36 Ni    0.11144    0.08320   -0.02144
 37 Ni    0.21933   -0.03170   -0.19804
 38 Co    0.46913   -0.13513   -0.24243
 39 Ni    0.01582   -0.02712    0.24245
 40 Co    0.32448   -0.00518    0.66440
 41 Ni   -0.08926   -0.07051   -0.13893
 42 Co   -0.02775   -0.07449   -0.03570
 43 Ni    0.00494   -0.17808    0.18455
 44 Cr   -0.57199    0.10815   -0.52278
 45 Co   -0.24961    0.26170   -0.03244
 46 Al    0.01583    0.55786   -0.52337
 47 Ni    0.03647    0.10891   -0.13776
 48 Cr   -0.81940    0.03281    0.70632
 49 Fe    0.21286    0.44416   -0.19152
 50 Fe    0.14833   -0.07822   -0.28806
 51 Ni    0.13119    0.13801   -0.01118
 52 Ni    0.08026    0.02123    0.21599
 53 Ni    0.10972    0.06195    0.07139
 54 Co    0.23700    0.09957    0.10504
 55 Cr   -0.02496    0.63255    0.47865
 56 Cr    0.51708   -0.22242    0.96706
 57 Co   -0.21128    0.22424   -0.13664
 58 Cr   -0.13580   -0.39547   -0.10756
 59 Fe   -0.19601    0.14122    0.11487
[...]
 93 Ni    0.01948    0.17171    0.01049
 94 Cr    0.25556    0.48168   -0.32732
 95 Cr   -0.21359    0.44178    0.28837
 96 Co    0.03031    0.17491    0.20043
 97 Ni    0.11827   -0.02203    0.02709
 98 Ni   -0.05219    0.10252   -0.09337
 99 Co    0.32353   -0.22363   -0.07587
100 Co    0.06007    0.22652   -0.07875
101 Ni   -0.21665   -0.05312   -0.00691
102 Fe    0.35544    0.03986   -0.13585
103 Co    0.06636    0.12747   -0.21559
104 Co   -0.09424   -0.16979   -0.01857
105 Ni   -0.09649   -0.03004    0.02104
106 Fe   -0.09425   -0.21855   -0.05171
107 Fe   -0.22049   -0.87707   -0.23170

Date: Sat Apr  8 15:28:25 2023