User:   c.zeng@d0053
Date:   Fri Apr 14 06:32:16 2023
Arch:   x86_64
Pid:    214133
CWD:    /home/c.zeng/projects/hea-corrosion/hea-mlp/data-curation/bulk-mcmc/dft-jobs/113
Python: 3.8.1
gpaw:   /home/c.zeng/usr/installs/gpaw/source/gpaw-22.8.0/gpaw
_gpaw:  /home/c.zeng/usr/installs/gpaw/source/gpaw-22.8.0/
        _gpaw.cpython-38-x86_64-linux-gnu.so
ase:    /home/c.zeng/.local/lib/python3.8/site-packages/ase-3.22.1-py3.8.egg/ase (version 3.22.1)
numpy:  /shared/centos7/python/3.8.1/lib/python3.8/site-packages/numpy (version 1.17.4)
scipy:  /shared/centos7/python/3.8.1/lib/python3.8/site-packages/scipy (version 1.4.1)
units:  Angstrom and eV
cores: 30
OpenMP: False
OMP_NUM_THREADS: 1

Input parameters:
  convergence: {energy: 0.0001}
  kpts: [2 2 2]
  maxiter: 666
  mode: {ecut: 350.0,
         name: pw}
  occupations: {fixmagmom: False,
                name: fermi-dirac,
                width: 0.1}
  spinpol: True
  xc: PBE

System changes: positions, numbers, cell, pbc, initial_charges, initial_magmoms

Initialize ...

species:
  Co:
    name: Cobalt
    id: 339d20d5b0b93d2de9531a1bee871d91
    Z: 27.0
    valence: 9
    core: 18
    charge: 0.0
    file: /home/c.zeng/usr/data/gpaw-setups-0.9.20000/Co.PBE.gz
    compensation charges: {type: gauss,
                           rc: 0.32,
                           lmax: 2}
    cutoffs: {filter: 1.87,
              core: 2.55}
    valence states:
      #              energy  rcut
      - 4s(2.00)    -5.469   1.005
      - 4p(0.00)    -1.277   1.058
      - 3d(7.00)    -8.205   1.005
      -  s          21.742   1.005
      -  p          25.934   1.058
      -  d          19.007   1.005

    # Using partial waves for Co as LCAO basis

  Fe:
    name: Iron
    id: 37abbd8d6c3c35915a9b583b742da910
    Z: 26.0
    valence: 8
    core: 18
    charge: 0.0
    file: /home/c.zeng/usr/data/gpaw-setups-0.9.20000/Fe.PBE.gz
    compensation charges: {type: gauss,
                           rc: 0.33,
                           lmax: 2}
    cutoffs: {filter: 2.06,
              core: 2.67}
    valence states:
      #              energy  rcut
      - 4s(2.00)    -5.291   1.164
      - 4p(0.00)    -1.326   1.058
      - 3d(6.00)    -7.505   1.058
      -  s          21.920   1.164
      -  p          25.885   1.058
      -  d          19.706   1.058

[...]

  Ni:
    name: Nickel
    id: 0d9f38a9d6e76a2886f07bb4381f212b
    Z: 28.0
    valence: 16
    core: 12
    charge: 0.0
    file: /home/c.zeng/usr/data/gpaw-setups-0.9.20000/Ni.PBE.gz
    compensation charges: {type: gauss,
                           rc: 0.36,
                           lmax: 2}
    cutoffs: {filter: 2.14,
              core: 1.98}
    valence states:
      #              energy  rcut
      - 4s(2.00)    -5.642   1.164
      - 3p(6.00)   -71.394   1.207
      - 4p(0.00)    -1.226   1.207
      - 3d(8.00)    -8.875   1.138
      -  s          21.570   1.164
      -  d          18.337   1.138

[...]

  Al:
    name: Aluminium
    id: 0292cae29f5d6237e50f6abdd43a7bdd
    Z: 13.0
    valence: 3
    core: 10
    charge: 0.0
    file: /home/c.zeng/usr/data/gpaw-setups-0.9.20000/Al.PBE.gz
    compensation charges: {type: gauss,
                           rc: 0.34,
                           lmax: 2}
    cutoffs: {filter: 1.91,
              core: 2.36}
    valence states:
      #              energy  rcut
      - 3s(2.00)    -7.753   1.085
      - 3p(1.00)    -2.712   1.085
      -  s          19.459   1.085
      -  p          24.499   1.085
      -  d           0.000   1.085

[...]

  Cr:
    name: Chromium
    id: 33f258bda2ca9f93018e70263a35547b
    Z: 24.0
    valence: 6
    core: 18
    charge: 0.0
    file: /home/c.zeng/usr/data/gpaw-setups-0.9.20000/Cr.PBE.gz
    compensation charges: {type: gauss,
                           rc: 0.35,
                           lmax: 2}
    cutoffs: {filter: 2.14,
              core: 3.04}
    valence states:
      #              energy  rcut
      - 4s(1.00)    -4.007   1.164
      - 4p(0.00)    -0.989   1.217
      - 3d(5.00)    -2.913   1.111
      -  s          23.205   1.164
      -  p          26.223   1.217
      -  d          24.299   1.111

    # Using partial waves for Cr as LCAO basis

Reference energy: -3548577.034362  # eV

Spin-polarized calculation.
Magnetic moment: 136.400000

Convergence criteria:
 Maximum [total energy] change in last 3 cyles: 0.0001 eV / electron
 Maximum integral of absolute [dens]ity change: 0.0001 electrons / valence electron
 Maximum integral of absolute [eigenst]ate change: 4e-08 eV^2 / valence electron
 Maximum number of scf [iter]ations: 666
 (Square brackets indicate name in SCF output, whereas a 'c' in
 the SCF output indicates the quantity has converged.)

Symmetries present (total): 1

  ( 1  0  0)
  ( 0  1  0)
  ( 0  0  1)

8 k-points: 2 x 2 x 2 Monkhorst-Pack grid
4 k-points in the irreducible part of the Brillouin zone
       k-points in crystal coordinates                weights
   0:     0.25000000   -0.25000000   -0.25000000          2/8
   1:     0.25000000   -0.25000000    0.25000000          2/8
   2:     0.25000000    0.25000000   -0.25000000          2/8
   3:     0.25000000    0.25000000    0.25000000          2/8

Wave functions: Plane wave expansion
  Cutoff energy: 350.000 eV
  Number of coefficients (min, max): 18331, 18331
  Pulay-stress correction: 0.000000 eV/Ang^3 (de/decut=0.000000)
  Using FFTW library
  ScaLapack parameters: grid=1x1, blocksize=None
  Wavefunction extrapolation:
    Improved wavefunction reuse through dual PAW basis

Occupation numbers: Fermi-Dirac:
  width: 0.1000  # eV

Eigensolver
   Davidson(niter=2)

Densities:
  Coarse grid: 48*48*48 grid
  Fine grid: 96*96*96 grid
  Total Charge: 0.000000

Density mixing:
  Method: difference
  Backend: pulay
  Linear mixing parameter: 0.05
  old densities: 5
  Damping of long wavelength oscillations: 50

Hamiltonian:
  XC and Coulomb potentials evaluated on a 96*96*96 grid
  Using the PBE Exchange-Correlation functional
  External potential:
    NoExternalPotential

XC parameters: PBE with 2 nearest neighbor stencil

Total number of cores used: 30
Parallelization over k-points: 2
Domain decomposition: 5 x 3 x 1

Number of atoms: 108
Number of atomic orbitals: 994
Number of bands in calculation: 674
Number of valence electrons: 980
Bands to converge: occupied

... initialized

Initializing position-dependent things.

Density initialized from atomic densities
Creating initial wave functions:
  674 bands from LCAO basis set

        Co-------Co---------------.
       /|  Co       Fe            |
      / |   AlCr     CrCo     CrCo|
     / Ni       CAl     Ni        |
    /   CCo      Ni      FAl      |
   /    | CoCo     Co      CoCo   |
  /   Co|  NiFeAl   NiNi    CrCr  |
 *      Cr  CrCoNi   CoNiNi   FeNi|
 |Fe   AlNiCr   CrNCr   FeCr      |
 | Fe   | NiAl   NiNiCr    Cr     |
 |     Co  CoFeNi   FeNiAl  NiNi  |
 |      Fe    FeNi   FeAlFe   AlCr|
 |Cr    |CoNi   NFeFe   FeFe     Fe
 |      .-FeCr-----FeCr--FeCoNi---.
 |     Cr    CoCr     FeCo  Cr Fe/
 |    / Al      Co       Cr     /
 Cr  /            Cr           /
 |  /      Ni      Cr       Fe/
 | / Co              Fe      /
 |/                     Co  /

Positions:
   0 Co    10.732479   -0.010418   10.721263    ( 0.0000,  0.0000,  2.1000)
   1 Fe    10.706231    1.787006    1.816653    ( 0.0000,  0.0000,  1.5000)
   2 Co     1.827923    0.046024    1.820803    ( 0.0000,  0.0000,  0.0000)
   3 Co     1.781666    1.794790   10.668295    ( 0.0000,  0.0000,  0.0000)
   4 Co     3.605675   -0.024615   10.696977    ( 0.0000,  0.0000,  0.0000)
   5 Ni     3.626284    1.755611    1.827590    ( 0.0000,  0.0000,  2.0000)
   6 Fe     5.347186   -0.032870    1.798425    ( 0.0000,  0.0000,  2.0000)
   7 Al     5.383406    1.755353   -0.004078    ( 0.0000,  0.0000,  2.0000)
   8 Fe     7.108694   -0.021619    0.052076    ( 0.0000,  0.0000,  0.0000)
   9 Cr     7.129131    1.783639    1.838109    ( 0.0000,  0.0000,  2.0000)
  10 Al     8.928414   -0.004386    1.840918    ( 0.0000,  0.0000,  2.0000)
  11 Co     8.945645    1.852509    0.063651    ( 0.0000,  0.0000,  0.0000)
  12 Co    10.721403    3.615743   10.707625    ( 0.0000,  0.0000,  2.1000)
  13 Fe    10.714905    5.407607    1.816064    ( 0.0000,  0.0000,  2.0000)
  14 Al     1.786931    3.537020    1.885127    ( 0.0000,  0.0000,  0.0000)
  15 Co     1.774396    5.426328   10.657058    ( 0.0000,  0.0000,  0.0000)
  16 Co     3.564340    3.564490   10.690115    ( 0.0000,  0.0000,  0.0000)
  17 Co     3.570334    5.434059    1.813919    ( 0.0000,  0.0000,  0.0000)
  18 Co     5.350145    3.574934    1.808708    ( 0.0000,  0.0000,  0.0000)
  19 Al     5.345084    5.410577   10.703464    ( 0.0000,  0.0000,  2.1000)
  20 Fe     7.157695    3.624514    0.002553    ( 0.0000,  0.0000,  2.1000)
  21 Fe     7.157792    5.380200    1.803904    ( 0.0000,  0.0000,  0.0000)
  22 Cr     8.944980    3.620622    1.842988    ( 0.0000,  0.0000,  0.0000)
  23 Al     8.940316    5.370571   -0.005231    ( 0.0000,  0.0000,  0.0000)
  24 Co    10.674578    7.138041   10.683446    ( 0.0000,  0.0000,  2.0000)
  25 Fe    10.668413    8.869012    1.800001    ( 0.0000,  0.0000,  0.0000)
  26 Fe     1.807904    7.157309    1.806960    ( 0.0000,  0.0000,  1.5000)
  27 Co     1.808086    8.895217   10.689064    ( 0.0000,  0.0000,  0.0000)
  28 Cr     3.612462    7.185391   10.698339    ( 0.0000,  0.0000,  2.0000)
  29 Ni     3.598277    8.905404    1.808097    ( 0.0000,  0.0000,  1.5000)
  30 Fe     5.362229    7.149643    1.778835    ( 0.0000,  0.0000,  2.1000)
  31 Fe     5.368084    8.904170   10.708750    ( 0.0000,  0.0000,  2.0000)
  32 Co     7.127640    7.124156   10.700741    ( 0.0000,  0.0000,  2.0000)
  33 Fe     7.139982    8.914904    1.783157    ( 0.0000,  0.0000,  0.0000)
  34 Co     8.884516    7.107975    1.798232    ( 0.0000,  0.0000,  2.0000)
  35 Cr     8.895410    8.880302    0.005476    ( 0.0000,  0.0000,  0.0000)
  36 Cr    10.737840    0.006469    3.587908    ( 0.0000,  0.0000,  1.5000)
  37 Cr     0.009110    1.816214    5.359506    ( 0.0000,  0.0000,  1.5000)
  38 Cr     1.833434   -0.010553    5.335488    ( 0.0000,  0.0000,  2.1000)
  39 Cr     1.814369    1.777409    3.664755    ( 0.0000,  0.0000,  1.5000)
  40 Ni     3.608002   -0.027958    3.615958    ( 0.0000,  0.0000,  2.1000)
  41 Ni     3.597397    1.774364    5.368180    ( 0.0000,  0.0000,  1.5000)
  42 Co     5.355185   -0.018813    5.365682    ( 0.0000,  0.0000,  2.1000)
  43 Cr     5.354005    1.762698    3.609396    ( 0.0000,  0.0000,  1.5000)
  44 Cr     7.096449    0.004839    3.553950    ( 0.0000,  0.0000,  0.0000)
  45 Fe     7.124574    1.817747    5.354692    ( 0.0000,  0.0000,  2.1000)
  46 Fe     8.888698   10.712332    5.289714    ( 0.0000,  0.0000,  0.0000)
  47 Co     8.931727    1.815495    3.558979    ( 0.0000,  0.0000,  1.5000)
  48 Ni    10.700248    3.599864    3.631730    ( 0.0000,  0.0000,  0.0000)
  49 Ni    -0.007893    5.382698    5.388017    ( 0.0000,  0.0000,  2.0000)
  50 Fe     1.794265    3.594073    5.365264    ( 0.0000,  0.0000,  2.0000)
  51 Co     1.782020    5.398675    3.628600    ( 0.0000,  0.0000,  1.5000)
  52 Cr     3.583351    3.582086    3.661657    ( 0.0000,  0.0000,  1.5000)
  53 Fe     3.572253    5.392895    5.375354    ( 0.0000,  0.0000,  1.5000)
  54 Ni     5.361747    3.593312    5.376780    ( 0.0000,  0.0000,  2.1000)
  55 Fe     5.348633    5.403146    3.628053    ( 0.0000,  0.0000,  0.0000)
  56 Cr     7.166745    3.584809    3.633875    ( 0.0000,  0.0000,  0.0000)
  57 Ni     7.149503    5.367108    5.369102    ( 0.0000,  0.0000,  2.1000)
  58 Fe     8.930869    3.577164    5.375332    ( 0.0000,  0.0000,  0.0000)
  59 Fe     8.940702    5.382345    3.619239    ( 0.0000,  0.0000,  2.0000)
[...]
  93 Ni     7.158199    5.390858    8.905983    ( 0.0000,  0.0000,  1.5000)
  94 Ni     8.930826    3.597912    8.885374    ( 0.0000,  0.0000,  0.0000)
  95 Cr     8.935737    5.388735    7.127651    ( 0.0000,  0.0000,  0.0000)
  96 Ni    10.717929    7.165190    7.144378    ( 0.0000,  0.0000,  2.1000)
  97 Ni    10.739341    8.898756    8.943093    ( 0.0000,  0.0000,  1.5000)
  98 Co     1.793750    7.182882    8.888666    ( 0.0000,  0.0000,  1.5000)
  99 Ni     1.836501    8.904825    7.123094    ( 0.0000,  0.0000,  2.1000)
 100 Co     3.587511    7.157223    7.133645    ( 0.0000,  0.0000,  2.1000)
 101 Co     3.596025    8.923803    8.905018    ( 0.0000,  0.0000,  1.5000)
 102 Co     5.369413    7.149278    8.921112    ( 0.0000,  0.0000,  2.0000)
 103 Ni     5.343776    8.916533    7.143070    ( 0.0000,  0.0000,  2.1000)
 104 Ni     7.139778    7.140400    7.139349    ( 0.0000,  0.0000,  2.1000)
 105 Ni     7.106892    8.889835    8.908727    ( 0.0000,  0.0000,  1.5000)
 106 Co     8.907419    7.146362    8.906765    ( 0.0000,  0.0000,  2.0000)
 107 Cr     8.922313    8.892279    7.115031    ( 0.0000,  0.0000,  2.0000)

Unit cell:
           periodic     x           y           z      points  spacing
  1. axis:    yes   10.722400    0.000000    0.000000    48     0.2234
  2. axis:    yes    0.000000   10.722400    0.000000    48     0.2234
  3. axis:    yes    0.000000    0.000000   10.722400    48     0.2234

  Lengths:  10.722400  10.722400  10.722400
  Angles:   90.000000  90.000000  90.000000

Effective grid spacing dv^(1/3) = 0.2234

     iter     time        total  log10-change:  magmom
                         energy  eigst   dens
iter:   1 06:37:07  -928.620231                  +135.8763
iter:   2 06:39:10  -903.990589  -0.44  -1.31    +99.5723
iter:   3 06:41:14  -887.248642  -0.85  -1.29    +70.7217
iter:   4 06:43:17  -857.542278  -1.41  -1.32    +60.5766
iter:   5 06:45:20  -855.511656  -1.81  -1.45    +54.4575
iter:   6 06:47:23  -855.228831  -1.94  -1.46    +51.6937
iter:   7 06:49:26  -855.923950  -1.69  -1.50    +50.1407
iter:   8 06:51:29  -850.568056  -1.71  -1.52    +49.4717
iter:   9 06:53:32  -863.330659  -1.62  -1.68    +49.5275
iter:  10 06:55:35  -848.518456  -1.89  -1.59    +48.8130
iter:  11 06:57:38  -849.823334  -2.32  -1.86    +49.4346
iter:  12 06:59:41  -848.562615  -2.58  -1.85    +49.8758
iter:  13 07:01:45  -849.531551  -2.52  -1.92    +50.6571
iter:  14 07:03:48  -849.407249  -2.61  -1.91    +51.5098
iter:  15 07:05:50  -850.933387  -2.48  -1.99    +52.0671
iter:  16 07:07:53  -851.179865  -2.41  -1.99    +52.9064
iter:  17 07:09:57  -850.600588  -2.57  -1.98    +53.1103
iter:  18 07:12:00  -850.040967  -2.73  -2.08    +53.9449
iter:  19 07:14:04  -850.547423  -2.68  -2.15    +54.4952
iter:  20 07:16:07  -849.731088  -3.02  -2.12    +54.7849
iter:  21 07:18:11  -849.781800  -3.33  -2.26    +55.8114
iter:  22 07:20:14  -849.882796  -3.39  -2.31    +56.4333
iter:  23 07:22:17  -849.942780  -3.59  -2.32    +57.2797
iter:  24 07:24:20  -850.239576  -3.44  -2.37    +58.1952
iter:  25 07:26:23  -850.198116  -3.77  -2.36    +58.2189
iter:  26 07:28:25  -850.460985  -3.34  -2.39    +58.6707
iter:  27 07:30:29  -850.617753  -3.33  -2.38    +59.0966
iter:  28 07:32:32  -850.734082  -3.19  -2.37    +59.8165
iter:  29 07:34:35  -850.785963  -3.35  -2.43    +59.9803
iter:  30 07:36:39  -850.726786c -3.42  -2.41    +60.5169
iter:  31 07:38:42  -850.717712c -3.69  -2.48    +60.7265
iter:  32 07:40:46  -850.741451c -4.08  -2.53    +61.1656
iter:  33 07:42:50  -850.825821  -4.03  -2.57    +61.5909
iter:  34 07:44:53  -850.959994  -3.71  -2.57    +62.2669
iter:  35 07:46:56  -851.034260  -3.95  -2.56    +62.5598
iter:  36 07:48:59  -851.114671  -4.22  -2.54    +62.7444
iter:  37 07:51:02  -851.134399  -4.51  -2.51    +62.5296
iter:  38 07:53:05  -851.247815  -4.10  -2.50    +63.3110
iter:  39 07:55:08  -851.309746  -3.74  -2.46    +64.1031
iter:  40 07:57:11  -851.379885  -3.53  -2.49    +64.5604
iter:  41 07:59:13  -851.248100  -3.82  -2.50    +64.5196
iter:  42 08:01:18  -851.325433  -3.57  -2.66    +64.6705
iter:  43 08:03:21  -851.276252c -4.15  -2.69    +64.5591
iter:  44 08:05:25  -851.288192c -4.26  -2.81    +64.3129
iter:  45 08:07:28  -851.318105c -4.36  -2.87    +64.3767
iter:  46 08:09:32  -851.330806c -4.49  -2.87    +64.3536
iter:  47 08:11:35  -851.345704c -4.37  -2.91    +64.2965
iter:  48 08:13:38  -851.366389c -4.28  -2.99    +64.2906
iter:  49 08:15:40  -851.364437c -4.33  -2.96    +64.3768
iter:  50 08:17:42  -851.369680c -4.55  -3.03    +64.4301
iter:  51 08:19:45  -851.375257c -4.53  -3.10    +64.3672
iter:  52 08:21:49  -851.372398c -4.74  -3.07    +64.4132
iter:  53 08:23:53  -851.375142c -5.16  -3.17    +64.4903
iter:  54 08:25:56  -851.384152c -5.09  -3.24    +64.5568
iter:  55 08:28:00  -851.401168c -4.65  -3.24    +64.6429
iter:  56 08:30:04  -851.406341c -5.22  -3.18    +64.6494
iter:  57 08:32:07  -851.406687c -5.13  -3.15    +64.6627
iter:  58 08:34:11  -851.418562c -4.73  -3.29    +64.6919
iter:  59 08:36:14  -851.415233c -4.90  -3.21    +64.6875
iter:  60 08:38:18  -851.419232c -4.73  -3.33    +64.7074
iter:  61 08:40:21  -851.417324c -5.19  -3.33    +64.7656
iter:  62 08:42:24  -851.420671c -5.43  -3.55    +64.7575
iter:  63 08:44:26  -851.423485c -5.51  -3.62    +64.7767
iter:  64 08:46:28  -851.426883c -5.61  -3.62    +64.7937
iter:  65 08:48:32  -851.441797c -4.56  -3.62    +64.8334
iter:  66 08:50:36  -851.470948c -3.96  -3.51    +64.9812
iter:  67 08:52:39  -851.473594c -4.82  -3.28    +65.0814
iter:  68 08:54:43  -851.476828c -5.20  -3.28    +65.1259
iter:  69 08:56:46  -851.482330c -5.33  -3.26    +65.1874
iter:  70 08:58:49  -851.475851c -5.32  -3.23    +65.1770
iter:  71 09:00:52  -851.475481c -5.02  -3.25    +65.2532
iter:  72 09:02:55  -851.476408c -5.00  -3.18    +65.2770
iter:  73 09:04:57  -851.474671c -4.76  -3.15    +65.2965
iter:  74 09:07:00  -851.480062c -4.69  -3.17    +65.2306
iter:  75 09:09:04  -851.467590c -5.41  -3.11    +65.1170
iter:  76 09:11:08  -851.469074c -5.36  -3.30    +65.0209
iter:  77 09:13:11  -851.470430c -5.30  -3.26    +64.9523
iter:  78 09:15:14  -851.467972c -5.05  -3.25    +64.8633
iter:  79 09:17:17  -851.469432c -5.00  -3.36    +64.8512
iter:  80 09:19:19  -851.474017c -4.76  -3.29    +64.8637
iter:  81 09:21:23  -851.467339c -5.07  -3.26    +64.8334
iter:  82 09:23:27  -851.465993c -5.34  -3.41    +64.7647
iter:  83 09:25:31  -851.466378c -5.18  -3.49    +64.7524
iter:  84 09:27:34  -851.464745c -5.52  -3.42    +64.7706
iter:  85 09:29:38  -851.464482c -5.67  -3.57    +64.7386
iter:  86 09:31:42  -851.464351c -6.02  -3.63    +64.7208
iter:  87 09:33:43  -851.464689c -5.65  -3.67    +64.7147
iter:  88 09:35:47  -851.464303c -5.98  -3.61    +64.7212
iter:  89 09:37:50  -851.465977c -5.66  -3.71    +64.7007
iter:  90 09:39:53  -851.464648c -5.82  -3.63    +64.6858
iter:  91 09:41:57  -851.464782c -5.76  -3.76    +64.6894
iter:  92 09:44:00  -851.464472c -6.13  -3.71    +64.7015
iter:  93 09:46:03  -851.464881c -6.10  -3.86    +64.6926
iter:  94 09:48:05  -851.464523c -6.49  -3.84    +64.6795
iter:  95 09:50:08  -851.464621c -6.82  -3.96    +64.6777
iter:  96 09:52:12  -851.465080c -6.44  -3.99    +64.6806
iter:  97 09:54:16  -851.465414c -6.29  -3.94    +64.6744
iter:  98 09:56:19  -851.465199c -6.39  -3.93    +64.6663
iter:  99 09:58:22  -851.465525c -6.16  -4.03c   +64.6673
iter: 100 10:00:25  -851.465525c -6.19  -3.91    +64.6692
iter: 101 10:02:27  -851.465529c -6.43  -4.00    +64.6562
iter: 102 10:04:32  -851.465576c -6.50  -4.16c   +64.6513
iter: 103 10:06:38  -851.465609c -6.86  -4.10c   +64.6565
iter: 104 10:08:43  -851.465829c -6.84  -4.26c   +64.6621
iter: 105 10:10:48  -851.465919c -7.36  -4.33c   +64.6635
iter: 106 10:12:53  -851.466754c -5.99  -4.34c   +64.6774
iter: 107 10:14:57  -851.466581c -7.12  -4.27c   +64.6699
iter: 108 10:17:00  -851.466612c -7.22  -4.31c   +64.6642
iter: 109 10:19:06  -851.466771c -6.86  -4.42c   +64.6664
iter: 110 10:21:11  -851.466965c -6.79  -4.46c   +64.6676
iter: 111 10:23:16  -851.466958c -7.42c -4.44c   +64.6681

Converged after 111 iterations.

Dipole moment: (-1.702647, 13.265752, 14.401968) |e|*Ang

Total magnetic moment: (0.000000, 0.000000, 64.668103)
Local magnetic moments:
   0 Co ( 0.000000,  0.000000,  1.058951)
   1 Fe ( 0.000000,  0.000000,  2.166356)
   2 Co ( 0.000000,  0.000000,  1.427373)
   3 Co ( 0.000000,  0.000000,  1.131214)
   4 Co ( 0.000000,  0.000000,  1.101770)
   5 Ni ( 0.000000,  0.000000,  0.204174)
   6 Fe ( 0.000000,  0.000000,  1.978775)
   7 Al ( 0.000000,  0.000000, -0.017635)
   8 Fe ( 0.000000,  0.000000, -1.491965)
   9 Cr ( 0.000000,  0.000000,  0.910216)
  10 Al ( 0.000000,  0.000000, -0.015169)
  11 Co ( 0.000000,  0.000000,  1.038208)
  12 Co ( 0.000000,  0.000000,  1.033551)
  13 Fe ( 0.000000,  0.000000,  2.268767)
  14 Al ( 0.000000,  0.000000, -0.030991)
  15 Co ( 0.000000,  0.000000,  1.231542)
  16 Co ( 0.000000,  0.000000,  1.277883)
  17 Co ( 0.000000,  0.000000,  1.134734)
  18 Co ( 0.000000,  0.000000,  1.071898)
  19 Al ( 0.000000,  0.000000, -0.041577)
  20 Fe ( 0.000000,  0.000000,  2.217143)
  21 Fe ( 0.000000,  0.000000,  2.065048)
  22 Cr ( 0.000000,  0.000000, -1.209556)
  23 Al ( 0.000000,  0.000000, -0.037730)
  24 Co ( 0.000000,  0.000000,  1.240805)
  25 Fe ( 0.000000,  0.000000,  2.224596)
  26 Fe ( 0.000000,  0.000000,  2.320819)
  27 Co ( 0.000000,  0.000000,  1.473614)
  28 Cr ( 0.000000,  0.000000, -2.097417)
  29 Ni ( 0.000000,  0.000000,  0.465019)
  30 Fe ( 0.000000,  0.000000,  1.981893)
  31 Fe ( 0.000000,  0.000000,  2.112501)
  32 Co ( 0.000000,  0.000000,  1.192174)
  33 Fe ( 0.000000,  0.000000,  1.845659)
  34 Co ( 0.000000,  0.000000,  1.212020)
  35 Cr ( 0.000000,  0.000000, -1.581357)
  36 Cr ( 0.000000,  0.000000, -1.617688)
  37 Cr ( 0.000000,  0.000000,  0.027640)
  38 Cr ( 0.000000,  0.000000,  0.792643)
  39 Cr ( 0.000000,  0.000000,  0.302176)
  40 Ni ( 0.000000,  0.000000,  0.283681)
  41 Ni ( 0.000000,  0.000000,  0.125641)
  42 Co ( 0.000000,  0.000000,  1.088450)
  43 Cr ( 0.000000,  0.000000,  0.517468)
  44 Cr ( 0.000000,  0.000000, -1.430251)
  45 Fe ( 0.000000,  0.000000,  1.547870)
  46 Fe ( 0.000000,  0.000000,  2.017562)
  47 Co ( 0.000000,  0.000000,  0.428505)
  48 Ni ( 0.000000,  0.000000,  0.291763)
  49 Ni ( 0.000000,  0.000000,  0.265318)
  50 Fe ( 0.000000,  0.000000,  2.073018)
  51 Co ( 0.000000,  0.000000,  1.177880)
  52 Cr ( 0.000000,  0.000000, -1.703945)
  53 Fe ( 0.000000,  0.000000,  2.260107)
  54 Ni ( 0.000000,  0.000000,  0.089554)
  55 Fe ( 0.000000,  0.000000,  2.196408)
  56 Cr ( 0.000000,  0.000000, -1.437849)
  57 Ni ( 0.000000,  0.000000,  0.195666)
  58 Fe ( 0.000000,  0.000000,  1.803486)
  59 Fe ( 0.000000,  0.000000,  1.708005)
[...]
  93 Ni ( 0.000000,  0.000000,  0.237340)
  94 Ni ( 0.000000,  0.000000,  0.190853)
  95 Cr ( 0.000000,  0.000000, -1.355912)
  96 Ni ( 0.000000,  0.000000,  0.091341)
  97 Ni ( 0.000000,  0.000000,  0.252326)
  98 Co ( 0.000000,  0.000000,  1.351489)
  99 Ni ( 0.000000,  0.000000,  0.201561)
 100 Co ( 0.000000,  0.000000,  1.434395)
 101 Co ( 0.000000,  0.000000,  1.276625)
 102 Co ( 0.000000,  0.000000,  1.314787)
 103 Ni ( 0.000000,  0.000000,  0.348035)
 104 Ni ( 0.000000,  0.000000,  0.307589)
 105 Ni ( 0.000000,  0.000000,  0.262549)
 106 Co ( 0.000000,  0.000000,  0.957417)
 107 Cr ( 0.000000,  0.000000, -1.196329)

Energy contributions relative to reference atoms: (reference = -3548577.034362)

Kinetic:       +199.099355
Potential:     -228.029819
External:        +0.000000
XC:            -856.170697
Entropy (-ST):   -4.565519
Local:          +35.916963
Free energy:   -853.749717
Extrapolated:  -851.466958

Spin contamination: 27.235324 electrons
Showing only first 2 kpts
                      Up                     Down
 Kpt  Band  Eigenvalues  Occupancy  Eigenvalues  Occupancy
  0   488      9.48807    0.99403     10.37050    0.02393
  0   489      9.50072    0.99324     10.38397    0.02098
  0   490      9.50961    0.99261     10.39521    0.01879
  0   491      9.52247    0.99161     10.40216    0.01755

  1   488      9.47506    0.99476     10.38061    0.02168
  1   489      9.49242    0.99377     10.38957    0.01986
  1   490      9.50541    0.99291     10.40612    0.01688
  1   491      9.51471    0.99223     10.41703    0.01516

Fermi level: 9.99965

No gap

Forces in eV/Ang:
  0 Co   -0.13590    0.12639    0.15787
  1 Fe    0.11307   -0.02439   -0.22501
  2 Co   -0.20079   -0.46258   -0.16849
  3 Co    0.10796    0.05963    0.48602
  4 Co   -0.30870   -0.07629    0.34172
  5 Ni   -0.45380    0.08172   -0.24159
  6 Fe   -0.23063   -0.52341    0.06393
  7 Al   -0.76672    0.76226    0.43307
  8 Fe    0.26473    0.22554   -0.54276
  9 Cr    0.08135    0.55489   -0.07033
 10 Al    0.31494   -0.02065   -0.83307
 11 Co    0.01326    0.02412   -0.64959
 12 Co    0.15125   -0.38122    0.07448
 13 Fe    0.19156   -0.03272   -0.20738
 14 Al   -0.00029    0.67929   -1.35695
 15 Co    0.17325   -0.32709    0.27022
 16 Co   -0.30102    0.27085    0.28147
 17 Co   -0.18275   -0.40677   -0.02177
 18 Co   -0.01893    0.22770    0.12725
 19 Al    0.35543   -1.18176   -0.00868
 20 Fe    0.06530   -0.56549   -0.11859
 21 Fe   -0.18548   -0.47992    0.06475
 22 Cr    0.31873   -0.76541    0.13178
 23 Al   -0.26185    0.42889   -0.51595
 24 Co    0.48554    0.27485    0.16605
 25 Fe    0.56548    0.18568   -0.26054
 26 Fe   -0.04347    0.09093   -0.39896
 27 Co   -0.08696   -0.09543    0.57570
 28 Cr   -1.11043    0.54389   -0.08828
 29 Ni   -0.43797    0.42001   -0.11964
 30 Fe   -0.28577    0.26097    0.00101
 31 Fe   -0.00257    0.08055    0.10848
 32 Co    0.12739    0.61385    0.09637
 33 Fe   -0.04685    0.07106   -0.25861
 34 Co    0.34322    0.36187   -0.02676
 35 Cr    0.04113   -0.50158   -0.52628
 36 Cr    0.51286    0.28075    0.15288
 37 Cr    0.13226    0.00722   -0.22084
 38 Cr   -0.05848    0.75037    0.18609
 39 Cr    0.02453   -0.84666   -0.15231
 40 Ni   -0.12099    0.23403   -0.39899
 41 Ni   -0.09348   -0.18923   -0.06571
 42 Co    0.26491   -0.01276    0.04634
 43 Cr   -0.13358    0.14292   -0.06295
 44 Cr   -0.33864    0.09284    0.73254
 45 Fe    0.11763   -0.17523   -0.29308
 46 Fe    0.14171   -0.12970    0.25639
 47 Co    0.10523    0.17997    0.41863
 48 Ni    0.09381   -0.02828   -0.11639
 49 Ni   -0.04384   -0.34002   -0.13268
 50 Fe   -0.43224   -0.05034   -0.20467
 51 Co    0.18263    0.08843   -0.13519
 52 Cr    0.70820    0.11545    0.02914
 53 Fe   -0.03600    0.27131   -0.22940
 54 Ni    0.24473    0.04784   -0.19135
 55 Fe   -0.33995   -0.99318   -0.53916
 56 Cr   -0.34762    0.04000    0.06848
 57 Ni   -0.09519   -0.02551   -0.03004
 58 Fe    0.07013    0.20761   -0.42913
 59 Fe    0.04916   -0.62256   -0.07624
[...]
 93 Ni   -0.07589   -0.21630   -0.17618
 94 Ni    0.16727   -0.25662    0.50870
 95 Cr    0.07138   -0.13786    0.22899
 96 Ni    0.03682   -0.01681    0.13287
 97 Ni   -0.16441    0.10940   -0.15511
 98 Co    0.24806   -0.30982    0.42299
 99 Ni   -0.30333    0.11887    0.32369
100 Co   -0.09801    0.06070    0.25866
101 Co    0.26811   -0.36962    0.22049
102 Co   -0.25048    0.12856   -0.34411
103 Ni   -0.04174    0.11856    0.07521
104 Ni    0.06158    0.12907    0.13418
105 Ni    0.35956    0.27617   -0.02322
106 Co    0.07520    0.30705   -0.01008
107 Cr   -0.47664    0.34368    0.76772

Date: Fri Apr 14 10:23:38 2023