User:   c.zeng@d0146
Date:   Fri Apr 14 23:51:48 2023
Arch:   x86_64
Pid:    95118
CWD:    /home/c.zeng/projects/hea-corrosion/hea-mlp/data-curation/bulk-mcmc/dft-jobs/187
Python: 3.8.1
gpaw:   /home/c.zeng/usr/installs/gpaw/source/gpaw-22.8.0/gpaw
_gpaw:  /home/c.zeng/usr/installs/gpaw/source/gpaw-22.8.0/
        _gpaw.cpython-38-x86_64-linux-gnu.so
ase:    /home/c.zeng/.local/lib/python3.8/site-packages/ase-3.22.1-py3.8.egg/ase (version 3.22.1)
numpy:  /shared/centos7/python/3.8.1/lib/python3.8/site-packages/numpy (version 1.17.4)
scipy:  /shared/centos7/python/3.8.1/lib/python3.8/site-packages/scipy (version 1.4.1)
units:  Angstrom and eV
cores: 30
OpenMP: False
OMP_NUM_THREADS: 1

Input parameters:
  convergence: {energy: 0.0001}
  kpts: [2 2 2]
  maxiter: 666
  mode: {ecut: 350.0,
         name: pw}
  occupations: {fixmagmom: False,
                name: fermi-dirac,
                width: 0.1}
  spinpol: True
  xc: PBE

System changes: positions, numbers, cell, pbc, initial_charges, initial_magmoms

Initialize ...

species:
  Co:
    name: Cobalt
    id: 339d20d5b0b93d2de9531a1bee871d91
    Z: 27.0
    valence: 9
    core: 18
    charge: 0.0
    file: /home/c.zeng/usr/data/gpaw-setups-0.9.20000/Co.PBE.gz
    compensation charges: {type: gauss,
                           rc: 0.32,
                           lmax: 2}
    cutoffs: {filter: 1.87,
              core: 2.55}
    valence states:
      #              energy  rcut
      - 4s(2.00)    -5.469   1.005
      - 4p(0.00)    -1.277   1.058
      - 3d(7.00)    -8.205   1.005
      -  s          21.742   1.005
      -  p          25.934   1.058
      -  d          19.007   1.005

    # Using partial waves for Co as LCAO basis

  Al:
    name: Aluminium
    id: 0292cae29f5d6237e50f6abdd43a7bdd
    Z: 13.0
    valence: 3
    core: 10
    charge: 0.0
    file: /home/c.zeng/usr/data/gpaw-setups-0.9.20000/Al.PBE.gz
    compensation charges: {type: gauss,
                           rc: 0.34,
                           lmax: 2}
    cutoffs: {filter: 1.91,
              core: 2.36}
    valence states:
      #              energy  rcut
      - 3s(2.00)    -7.753   1.085
      - 3p(1.00)    -2.712   1.085
      -  s          19.459   1.085
      -  p          24.499   1.085
      -  d           0.000   1.085

[...]

  Fe:
    name: Iron
    id: 37abbd8d6c3c35915a9b583b742da910
    Z: 26.0
    valence: 8
    core: 18
    charge: 0.0
    file: /home/c.zeng/usr/data/gpaw-setups-0.9.20000/Fe.PBE.gz
    compensation charges: {type: gauss,
                           rc: 0.33,
                           lmax: 2}
    cutoffs: {filter: 2.06,
              core: 2.67}
    valence states:
      #              energy  rcut
      - 4s(2.00)    -5.291   1.164
      - 4p(0.00)    -1.326   1.058
      - 3d(6.00)    -7.505   1.058
      -  s          21.920   1.164
      -  p          25.885   1.058
      -  d          19.706   1.058

[...]

  Cr:
    name: Chromium
    id: 33f258bda2ca9f93018e70263a35547b
    Z: 24.0
    valence: 6
    core: 18
    charge: 0.0
    file: /home/c.zeng/usr/data/gpaw-setups-0.9.20000/Cr.PBE.gz
    compensation charges: {type: gauss,
                           rc: 0.35,
                           lmax: 2}
    cutoffs: {filter: 2.14,
              core: 3.04}
    valence states:
      #              energy  rcut
      - 4s(1.00)    -4.007   1.164
      - 4p(0.00)    -0.989   1.217
      - 3d(5.00)    -2.913   1.111
      -  s          23.205   1.164
      -  p          26.223   1.217
      -  d          24.299   1.111

[...]

  Ni:
    name: Nickel
    id: 0d9f38a9d6e76a2886f07bb4381f212b
    Z: 28.0
    valence: 16
    core: 12
    charge: 0.0
    file: /home/c.zeng/usr/data/gpaw-setups-0.9.20000/Ni.PBE.gz
    compensation charges: {type: gauss,
                           rc: 0.36,
                           lmax: 2}
    cutoffs: {filter: 2.14,
              core: 1.98}
    valence states:
      #              energy  rcut
      - 4s(2.00)    -5.642   1.164
      - 3p(6.00)   -71.394   1.207
      - 4p(0.00)    -1.226   1.207
      - 3d(8.00)    -8.875   1.138
      -  s          21.570   1.164
      -  d          18.337   1.138

    # Using partial waves for Ni as LCAO basis

Reference energy: -3382523.201499  # eV

Spin-polarized calculation.
Magnetic moment: 128.800000

Convergence criteria:
 Maximum [total energy] change in last 3 cyles: 0.0001 eV / electron
 Maximum integral of absolute [dens]ity change: 0.0001 electrons / valence electron
 Maximum integral of absolute [eigenst]ate change: 4e-08 eV^2 / valence electron
 Maximum number of scf [iter]ations: 666
 (Square brackets indicate name in SCF output, whereas a 'c' in
 the SCF output indicates the quantity has converged.)

Symmetries present (total): 1

  ( 1  0  0)
  ( 0  1  0)
  ( 0  0  1)

8 k-points: 2 x 2 x 2 Monkhorst-Pack grid
4 k-points in the irreducible part of the Brillouin zone
       k-points in crystal coordinates                weights
   0:     0.25000000   -0.25000000   -0.25000000          2/8
   1:     0.25000000   -0.25000000    0.25000000          2/8
   2:     0.25000000    0.25000000   -0.25000000          2/8
   3:     0.25000000    0.25000000    0.25000000          2/8

Wave functions: Plane wave expansion
  Cutoff energy: 350.000 eV
  Number of coefficients (min, max): 18865, 18865
  Pulay-stress correction: 0.000000 eV/Ang^3 (de/decut=0.000000)
  Using FFTW library
  ScaLapack parameters: grid=1x1, blocksize=None
  Wavefunction extrapolation:
    Improved wavefunction reuse through dual PAW basis

Occupation numbers: Fermi-Dirac:
  width: 0.1000  # eV

Eigensolver
   Davidson(niter=2)

Densities:
  Coarse grid: 48*48*48 grid
  Fine grid: 96*96*96 grid
  Total Charge: 0.000000

Density mixing:
  Method: difference
  Backend: pulay
  Linear mixing parameter: 0.05
  old densities: 5
  Damping of long wavelength oscillations: 50

Hamiltonian:
  XC and Coulomb potentials evaluated on a 96*96*96 grid
  Using the PBE Exchange-Correlation functional
  External potential:
    NoExternalPotential

XC parameters: PBE with 2 nearest neighbor stencil

Total number of cores used: 30
Parallelization over k-points: 2
Domain decomposition: 5 x 3 x 1

Number of atoms: 108
Number of atomic orbitals: 961
Number of bands in calculation: 649
Number of valence electrons: 945
Bands to converge: occupied

... initialized

Initializing position-dependent things.

Density initialized from atomic densities
Creating initial wave functions:
  649 bands from LCAO basis set

       /|                     Co   |
      / |            Fe Co     CrFe|
     /  |       Cr       Ni       Cr
    /   |Co       Fel     CCor     |
   /i   | Fee        Fe      Fe    |
  /  CrAl   NCr       Ni           |
 *      Ni     CoCo   AlFeCrCo   Cr|
 |      |CoNi   CrNiAl   NiAlNi   Co
 | CrCo | AlNi   AlAlFe     Ni     |
 |     Fe  FeCr Cr  Fe CoNi  CrNi  |
 |      FeNi   AlCr   FeCoCoNi  Fe |
 |Al    |FeCr   AlCrCo   CrCo     Co
 |      .-CrCo-----NiCr-FeFeCrNi---.
 |     /   Ni Fe    Cr FeNi    Al /
 |    Co       AFei       Al     /
 |   /  Fe         Al       Cr  /
 |  /      Co       Al       Co/
 | / Co     Co       Ni Ni    /
 |/             Cr       Ni  /
 *--------Fe----------------*

Positions:
   0 Co    10.764147   10.861293   10.805330    ( 0.0000,  0.0000,  2.0000)
   1 Co    10.786221    1.792513    1.813624    ( 0.0000,  0.0000,  0.0000)
   2 Co     1.744156    0.036560    1.851269    ( 0.0000,  0.0000,  1.5000)
   3 Al     1.736571    1.831142   10.798805    ( 0.0000,  0.0000,  0.0000)
   4 Fe     3.575126    0.057318    0.061759    ( 0.0000,  0.0000,  0.0000)
   5 Co     3.594289    1.817617    1.845577    ( 0.0000,  0.0000,  2.0000)
   6 Fe     5.429813   10.817005    1.865054    ( 0.0000,  0.0000,  1.5000)
   7 Cr     5.429608    1.929425    0.057134    ( 0.0000,  0.0000,  0.0000)
   8 Fe     7.316909   10.723332    0.087382    ( 0.0000,  0.0000,  0.0000)
   9 Al     7.263142    1.825786    1.869404    ( 0.0000,  0.0000,  2.1000)
  10 Ni     9.063554    0.025226    1.863474    ( 0.0000,  0.0000,  1.5000)
  11 Ni     9.049217    1.829703    0.033106    ( 0.0000,  0.0000,  2.1000)
  12 Ni     0.004792    3.558981   10.794801    ( 0.0000,  0.0000,  1.5000)
  13 Al    10.759710    5.390697    1.778165    ( 0.0000,  0.0000,  0.0000)
  14 Fe     1.733585    3.561849    1.761112    ( 0.0000,  0.0000,  2.0000)
  15 Co     1.776899    5.391834   10.795505    ( 0.0000,  0.0000,  0.0000)
  16 Co     3.565452    3.619360   10.832619    ( 0.0000,  0.0000,  2.1000)
  17 Fe     3.633221    5.394614    1.719551    ( 0.0000,  0.0000,  0.0000)
  18 Ni     5.471624    3.659114    1.836033    ( 0.0000,  0.0000,  2.1000)
  19 Fe     5.440212    5.373060   -0.002773    ( 0.0000,  0.0000,  2.0000)
  20 Ni     7.258997    3.609080    0.031294    ( 0.0000,  0.0000,  0.0000)
  21 Fe     7.268941    5.378362    1.785274    ( 0.0000,  0.0000,  2.0000)
  22 Al     9.030724    3.577636    1.833728    ( 0.0000,  0.0000,  2.1000)
  23 Co     9.040420    5.372281   10.801110    ( 0.0000,  0.0000,  0.0000)
  24 Fe    10.791663    7.196206   10.792486    ( 0.0000,  0.0000,  1.5000)
  25 Co    10.758434    9.040387    1.848239    ( 0.0000,  0.0000,  0.0000)
  26 Cr     1.690487    7.202493    1.786032    ( 0.0000,  0.0000,  0.0000)
  27 Ni     1.652691    8.981047    0.027217    ( 0.0000,  0.0000,  0.0000)
  28 Al     3.631241    7.164437    0.034633    ( 0.0000,  0.0000,  0.0000)
  29 Al     3.625452    9.063759    1.801678    ( 0.0000,  0.0000,  0.0000)
  30 Ni     5.490852    7.187095    1.746342    ( 0.0000,  0.0000,  2.0000)
  31 Cr     5.426935    8.989152    0.009861    ( 0.0000,  0.0000,  2.0000)
  32 Co     7.229122    7.237075   -0.008698    ( 0.0000,  0.0000,  1.5000)
  33 Cr     7.249194    8.995850    1.810713    ( 0.0000,  0.0000,  0.0000)
  34 Cr     9.052073    7.204300    1.764218    ( 0.0000,  0.0000,  2.1000)
  35 Co     9.092553    8.989639   10.808760    ( 0.0000,  0.0000,  1.5000)
  36 Cr    -0.000975   10.826235    3.639789    ( 0.0000,  0.0000,  1.5000)
  37 Al    10.822772    1.771770    5.422044    ( 0.0000,  0.0000,  2.1000)
  38 Ni     1.754263   10.802084    5.428872    ( 0.0000,  0.0000,  2.1000)
  39 Co     1.741873    1.774270    3.610801    ( 0.0000,  0.0000,  0.0000)
  40 Al     3.591183   10.794152    3.612143    ( 0.0000,  0.0000,  2.0000)
  41 Cr     3.593088    1.736744    5.455177    ( 0.0000,  0.0000,  0.0000)
  42 Al     5.437150   10.794563    5.400804    ( 0.0000,  0.0000,  2.0000)
  43 Fe     5.451931    1.783251    3.601387    ( 0.0000,  0.0000,  1.5000)
  44 Al     7.226222    0.007781    3.626209    ( 0.0000,  0.0000,  0.0000)
  45 Co     7.236069    1.766512    5.381392    ( 0.0000,  0.0000,  2.1000)
  46 Fe     9.034587   10.848850    5.403844    ( 0.0000,  0.0000,  2.1000)
  47 Ni     9.031558    1.804946    3.616730    ( 0.0000,  0.0000,  1.5000)
  48 Ni    10.773885    3.543973    3.617867    ( 0.0000,  0.0000,  1.5000)
  49 Ni    10.772186    5.358409    5.454917    ( 0.0000,  0.0000,  0.0000)
  50 Fe     1.757531    3.575678    5.428937    ( 0.0000,  0.0000,  2.1000)
  51 Fe     1.621766    5.386986    3.572550    ( 0.0000,  0.0000,  0.0000)
  52 Co     3.634303    3.633188    3.540792    ( 0.0000,  0.0000,  0.0000)
  53 Cr     3.550606    5.397969    5.404753    ( 0.0000,  0.0000,  2.0000)
  54 Cr     5.402221    3.610887    5.370193    ( 0.0000,  0.0000,  2.0000)
  55 Cr     5.460241    5.433590    3.575613    ( 0.0000,  0.0000,  2.0000)
  56 Cr     7.250157    3.615183    3.623169    ( 0.0000,  0.0000,  1.5000)
  57 Co     7.248707    5.410715    5.362099    ( 0.0000,  0.0000,  1.5000)
  58 Co     9.058230    3.565236    5.380082    ( 0.0000,  0.0000,  2.1000)
  59 Co     9.074071    5.365323    3.589008    ( 0.0000,  0.0000,  2.1000)
[...]
  93 Ni     7.211073    5.388295    9.040181    ( 0.0000,  0.0000,  0.0000)
  94 Cr     9.095052    3.598119    8.980636    ( 0.0000,  0.0000,  2.0000)
  95 Al     9.078205    5.402416    7.227759    ( 0.0000,  0.0000,  0.0000)
  96 Cr    10.763411    7.244682    7.260285    ( 0.0000,  0.0000,  1.5000)
  97 Cr    10.795093    9.034566    8.977574    ( 0.0000,  0.0000,  2.0000)
  98 Fe     1.740045    7.178947    8.984662    ( 0.0000,  0.0000,  2.1000)
  99 Fe     1.734429    9.080207    7.236696    ( 0.0000,  0.0000,  1.5000)
 100 Co     3.580482    7.154277    7.248285    ( 0.0000,  0.0000,  0.0000)
 101 Cr     3.612835    8.970898    8.958086    ( 0.0000,  0.0000,  0.0000)
 102 Al     5.410943    7.155878    9.067049    ( 0.0000,  0.0000,  0.0000)
 103 Fe     5.466441    9.064062    7.220963    ( 0.0000,  0.0000,  2.1000)
 104 Fe     7.307203    7.271549    7.289738    ( 0.0000,  0.0000,  0.0000)
 105 Ni     7.271073    9.044683    9.027879    ( 0.0000,  0.0000,  1.5000)
 106 Cr     9.081743    7.219805    9.041166    ( 0.0000,  0.0000,  2.1000)
 107 Fe     9.063684    9.083009    7.213865    ( 0.0000,  0.0000,  2.0000)

Unit cell:
           periodic     x           y           z      points  spacing
  1. axis:    yes   10.820500    0.000000    0.000000    48     0.2254
  2. axis:    yes    0.000000   10.820500    0.000000    48     0.2254
  3. axis:    yes    0.000000    0.000000   10.820500    48     0.2254

  Lengths:  10.820500  10.820500  10.820500
  Angles:   90.000000  90.000000  90.000000

Effective grid spacing dv^(1/3) = 0.2254

     iter     time        total  log10-change:  magmom
                         energy  eigst   dens
iter:   1 23:55:41  -895.092852                  +128.4417
iter:   2 23:57:20  -864.504564  -0.40  -1.31    +96.2486
iter:   3 23:58:59  -843.767091  -0.95  -1.29    +68.8098
iter:   4 00:00:38  -833.105444  -1.27  -1.37    +59.8477
iter:   5 00:02:18  -825.908370  -1.87  -1.40    +54.5578
iter:   6 00:03:58  -827.037798  -1.99  -1.47    +52.3342
iter:   7 00:05:37  -826.987984  -1.64  -1.50    +50.8928
iter:   8 00:07:17  -823.919544  -1.78  -1.54    +50.3954
iter:   9 00:08:57  -826.505004  -1.88  -1.68    +50.5074
iter:  10 00:10:36  -822.874989  -2.08  -1.70    +50.1803
iter:  11 00:12:11  -823.286968  -2.40  -1.83    +50.9887
iter:  12 00:13:52  -822.902065  -2.50  -1.85    +51.4950
iter:  13 00:15:37  -823.057358  -2.69  -1.90    +52.5797
iter:  14 00:17:21  -824.029072  -2.55  -1.97    +53.5137
iter:  15 00:19:06  -823.726635  -2.70  -1.99    +54.0935
iter:  16 00:20:50  -824.561690  -2.59  -2.06    +55.3782
iter:  17 00:22:35  -823.708227  -2.92  -2.04    +55.8824
iter:  18 00:24:20  -824.221413  -2.99  -2.20    +57.2140
iter:  19 00:26:04  -824.189481  -3.17  -2.21    +57.8457
iter:  20 00:27:49  -824.442912  -3.17  -2.27    +58.9238
iter:  21 00:29:34  -824.653713  -3.10  -2.32    +59.7264
iter:  22 00:31:16  -824.704294  -3.19  -2.36    +60.3269
iter:  23 00:33:00  -824.867070  -3.39  -2.45    +60.6472
iter:  24 00:34:46  -824.922022  -3.59  -2.47    +60.8938
iter:  25 00:36:31  -825.075457  -3.53  -2.52    +61.1815
iter:  26 00:38:16  -825.282804  -3.38  -2.53    +61.2222
iter:  27 00:40:02  -825.505764  -3.25  -2.51    +60.9573
iter:  28 00:41:47  -825.800810  -3.17  -2.45    +60.3586
iter:  29 00:43:34  -825.739606  -3.61  -2.38    +60.5439
iter:  30 00:45:19  -825.872841  -3.55  -2.45    +60.1477
iter:  31 00:47:03  -825.929597  -3.89  -2.44    +59.9922
iter:  32 00:48:49  -825.952213c -3.15  -2.42    +59.9263
iter:  33 00:50:34  -825.878213c -3.06  -2.32    +59.7429
iter:  34 00:52:19  -825.636453  -3.52  -2.42    +59.2275
iter:  35 00:54:04  -825.668494  -3.79  -2.55    +58.7677
iter:  36 00:55:50  -825.660546c -3.92  -2.60    +58.4087
iter:  37 00:57:35  -825.622193c -3.78  -2.63    +58.1073
iter:  38 00:59:21  -825.637803c -4.07  -2.89    +57.8785
iter:  39 01:01:07  -825.657004c -4.24  -2.94    +57.7024
iter:  40 01:02:52  -825.655146c -4.43  -2.91    +57.4881
iter:  41 01:04:37  -825.667526c -4.64  -3.04    +57.2772
iter:  42 01:06:22  -825.684650c -4.75  -3.07    +57.0635
iter:  43 01:08:09  -825.750434c -3.87  -3.07    +56.3993
iter:  44 01:09:53  -825.822942  -3.48  -2.95    +55.6404
iter:  45 01:11:39  -825.828313c -3.99  -2.86    +55.6659
iter:  46 01:13:24  -825.826593c -4.45  -2.87    +55.8289
iter:  47 01:15:10  -825.820247c -4.93  -2.90    +55.8972
iter:  48 01:16:55  -825.824562c -4.65  -2.94    +56.0303
iter:  49 01:18:41  -825.802486c -4.02  -2.95    +56.0118
iter:  50 01:20:27  -825.801622c -4.64  -3.07    +56.2200
iter:  51 01:22:13  -825.807712c -4.77  -3.19    +56.3165
iter:  52 01:23:57  -825.805371c -5.12  -3.20    +56.3559
iter:  53 01:25:43  -825.808986c -5.00  -3.30    +56.4363
iter:  54 01:27:27  -825.809634c -5.20  -3.36    +56.4916
iter:  55 01:29:14  -825.810978c -5.52  -3.46    +56.5598
iter:  56 01:31:00  -825.811789c -5.66  -3.50    +56.6060
iter:  57 01:32:45  -825.812704c -5.65  -3.53    +56.6569
iter:  58 01:34:30  -825.814114c -5.73  -3.56    +56.7094
iter:  59 01:36:16  -825.814472c -5.72  -3.58    +56.7548
iter:  60 01:38:02  -825.815147c -5.83  -3.65    +56.7806
iter:  61 01:39:47  -825.815545c -5.94  -3.70    +56.8126
iter:  62 01:41:31  -825.816560c -5.84  -3.75    +56.8340
iter:  63 01:43:16  -825.816265c -6.09  -3.77    +56.8406
iter:  64 01:45:01  -825.817097c -6.06  -3.81    +56.8712
iter:  65 01:46:46  -825.817475c -6.23  -3.86    +56.8876
iter:  66 01:48:30  -825.818261c -6.10  -3.89    +56.9079
iter:  67 01:50:05  -825.819034c -5.94  -3.91    +56.9362
iter:  68 01:51:50  -825.819856c -6.03  -3.93    +56.9480
iter:  69 01:53:37  -825.820130c -6.27  -3.96    +56.9592
iter:  70 01:55:20  -825.820955c -6.06  -3.98    +56.9670
iter:  71 01:57:05  -825.820931c -6.47  -3.97    +56.9681
iter:  72 01:58:50  -825.821442c -6.30  -4.04c   +56.9702
iter:  73 02:00:33  -825.821528c -6.53  -4.05c   +56.9751
iter:  74 02:02:20  -825.821961c -6.46  -4.13c   +56.9735
iter:  75 02:04:02  -825.821803c -6.93  -4.12c   +56.9731
iter:  76 02:05:48  -825.822195c -6.63  -4.21c   +56.9753
iter:  77 02:07:31  -825.822321c -6.84  -4.22c   +56.9788
iter:  78 02:09:16  -825.822708c -6.42  -4.26c   +56.9834
iter:  79 02:11:00  -825.822970c -6.45  -4.35c   +56.9840
iter:  80 02:12:43  -825.823130c -6.79  -4.36c   +56.9881
iter:  81 02:14:28  -825.823394c -6.64  -4.41c   +56.9861
iter:  82 02:16:14  -825.823660c -6.47  -4.42c   +56.9900
iter:  83 02:17:59  -825.824308c -5.99  -4.39c   +56.9989
iter:  84 02:19:44  -825.825724c -5.32  -4.30c   +57.0197
iter:  85 02:21:29  -825.827003c -5.24  -4.07c   +57.0441
iter:  86 02:23:13  -825.830146c -4.40  -3.90    +57.1305
iter:  87 02:24:58  -825.829758c -5.60  -3.59    +57.1138
iter:  88 02:26:42  -825.829951c -5.65  -3.65    +57.1326
iter:  89 02:28:27  -825.830112c -6.06  -3.62    +57.1403
iter:  90 02:30:10  -825.830302c -6.15  -3.60    +57.1562
iter:  91 02:31:55  -825.830890c -5.77  -3.59    +57.1572
iter:  92 02:33:39  -825.831320c -5.35  -3.46    +57.1616
iter:  93 02:35:24  -825.833210c -5.36  -3.42    +57.1495
iter:  94 02:37:10  -825.829933c -5.23  -3.38    +57.1051
iter:  95 02:38:54  -825.830119c -5.14  -3.43    +57.0710
iter:  96 02:40:38  -825.827655c -5.72  -3.47    +57.0164
iter:  97 02:42:23  -825.828434c -5.28  -3.68    +56.9793
iter:  98 02:44:09  -825.827122c -5.66  -3.51    +56.9872
iter:  99 02:45:54  -825.827113c -5.81  -3.80    +56.9697
iter: 100 02:47:38  -825.827515c -5.77  -3.73    +56.9614
iter: 101 02:49:23  -825.826464c -6.04  -3.79    +56.9685
iter: 102 02:51:08  -825.826596c -6.12  -3.95    +56.9641
iter: 103 02:52:54  -825.826554c -6.46  -3.95    +56.9554
iter: 104 02:54:40  -825.826196c -6.48  -4.10c   +56.9466
iter: 105 02:56:26  -825.826296c -6.81  -4.07c   +56.9469
iter: 106 02:58:14  -825.826130c -6.90  -4.15c   +56.9435
iter: 107 02:59:59  -825.826338c -6.99  -4.22c   +56.9383
iter: 108 03:01:46  -825.826181c -6.95  -4.19c   +56.9382
iter: 109 03:03:32  -825.826110c -7.03  -4.26c   +56.9377
iter: 110 03:05:18  -825.826284c -7.02  -4.27c   +56.9361
iter: 111 03:07:02  -825.826091c -6.96  -4.28c   +56.9318
iter: 112 03:08:50  -825.826127c -7.14  -4.30c   +56.9300
iter: 113 03:10:37  -825.825922c -6.96  -4.37c   +56.9322
iter: 114 03:12:24  -825.826063c -7.24  -4.33c   +56.9291
iter: 115 03:14:13  -825.826096c -7.10  -4.46c   +56.9269
iter: 116 03:16:00  -825.825943c -7.38  -4.40c   +56.9263
iter: 117 03:17:47  -825.826024c -7.37  -4.48c   +56.9267
iter: 118 03:19:33  -825.825969c -7.46c -4.54c   +56.9247

Converged after 118 iterations.

Dipole moment: (28.957184, -3.678324, -9.599608) |e|*Ang

Total magnetic moment: (0.000000, 0.000000, 56.924665)
Local magnetic moments:
   0 Co ( 0.000000,  0.000000,  1.309639)
   1 Co ( 0.000000,  0.000000,  1.390826)
   2 Co ( 0.000000,  0.000000,  1.377128)
   3 Al ( 0.000000,  0.000000, -0.040502)
   4 Fe ( 0.000000,  0.000000,  2.457760)
   5 Co ( 0.000000,  0.000000,  1.460840)
   6 Fe ( 0.000000,  0.000000,  1.933983)
   7 Cr ( 0.000000,  0.000000, -2.359117)
   8 Fe ( 0.000000,  0.000000,  2.188206)
   9 Al ( 0.000000,  0.000000, -0.011990)
  10 Ni ( 0.000000,  0.000000,  0.174247)
  11 Ni ( 0.000000,  0.000000,  0.147764)
  12 Ni ( 0.000000,  0.000000,  0.209339)
  13 Al ( 0.000000,  0.000000, -0.029030)
  14 Fe ( 0.000000,  0.000000,  2.378015)
  15 Co ( 0.000000,  0.000000,  0.908592)
  16 Co ( 0.000000,  0.000000,  1.306253)
  17 Fe ( 0.000000,  0.000000,  2.209983)
  18 Ni ( 0.000000,  0.000000,  0.282959)
  19 Fe ( 0.000000,  0.000000,  2.238735)
  20 Ni ( 0.000000,  0.000000,  0.073386)
  21 Fe ( 0.000000,  0.000000,  2.275306)
  22 Al ( 0.000000,  0.000000, -0.018399)
  23 Co ( 0.000000,  0.000000,  0.804028)
  24 Fe ( 0.000000,  0.000000,  1.722762)
  25 Co ( 0.000000,  0.000000,  1.020534)
  26 Cr ( 0.000000,  0.000000, -1.839101)
  27 Ni ( 0.000000,  0.000000,  0.142618)
  28 Al ( 0.000000,  0.000000, -0.014207)
  29 Al ( 0.000000,  0.000000, -0.028944)
  30 Ni ( 0.000000,  0.000000,  0.332353)
  31 Cr ( 0.000000,  0.000000,  1.669663)
  32 Co ( 0.000000,  0.000000,  0.982529)
  33 Cr ( 0.000000,  0.000000, -1.400861)
  34 Cr ( 0.000000,  0.000000, -1.663252)
  35 Co ( 0.000000,  0.000000,  0.989773)
  36 Cr ( 0.000000,  0.000000, -1.394025)
  37 Al ( 0.000000,  0.000000, -0.031428)
  38 Ni ( 0.000000,  0.000000,  0.108963)
  39 Co ( 0.000000,  0.000000,  1.114903)
  40 Al ( 0.000000,  0.000000, -0.026666)
  41 Cr ( 0.000000,  0.000000, -2.028277)
  42 Al ( 0.000000,  0.000000, -0.016549)
  43 Fe ( 0.000000,  0.000000,  1.926850)
  44 Al ( 0.000000,  0.000000, -0.029793)
  45 Co ( 0.000000,  0.000000,  0.763215)
  46 Fe ( 0.000000,  0.000000,  2.040121)
  47 Ni ( 0.000000,  0.000000,  0.155619)
  48 Ni ( 0.000000,  0.000000,  0.357435)
  49 Ni ( 0.000000,  0.000000,  0.256116)
  50 Fe ( 0.000000,  0.000000,  2.313728)
  51 Fe ( 0.000000,  0.000000,  2.263420)
  52 Co ( 0.000000,  0.000000,  1.203334)
  53 Cr ( 0.000000,  0.000000, -2.040946)
  54 Cr ( 0.000000,  0.000000,  1.191263)
  55 Cr ( 0.000000,  0.000000,  1.297573)
  56 Cr ( 0.000000,  0.000000, -1.608708)
  57 Co ( 0.000000,  0.000000,  1.266911)
  58 Co ( 0.000000,  0.000000,  1.194888)
  59 Co ( 0.000000,  0.000000,  1.112603)
[...]
  93 Ni ( 0.000000,  0.000000,  0.312030)
  94 Cr ( 0.000000,  0.000000,  1.402801)
  95 Al ( 0.000000,  0.000000, -0.013760)
  96 Cr ( 0.000000,  0.000000,  0.679773)
  97 Cr ( 0.000000,  0.000000, -0.710423)
  98 Fe ( 0.000000,  0.000000,  1.780502)
  99 Fe ( 0.000000,  0.000000,  2.027220)
 100 Co ( 0.000000,  0.000000, -0.377136)
 101 Cr ( 0.000000,  0.000000, -2.239542)
 102 Al ( 0.000000,  0.000000, -0.015751)
 103 Fe ( 0.000000,  0.000000,  2.158737)
 104 Fe ( 0.000000,  0.000000,  2.439789)
 105 Ni ( 0.000000,  0.000000,  0.276872)
 106 Cr ( 0.000000,  0.000000, -1.141157)
 107 Fe ( 0.000000,  0.000000,  1.955484)

Energy contributions relative to reference atoms: (reference = -3382523.201499)

Kinetic:       +226.333668
Potential:     -233.609059
External:        +0.000000
XC:            -849.713663
Entropy (-ST):   -4.185650
Local:          +33.255909
Free energy:   -827.918794
Extrapolated:  -825.825969

Spin contamination: 31.596897 electrons
Showing only first 2 kpts
                      Up                     Down
 Kpt  Band  Eigenvalues  Occupancy  Eigenvalues  Occupancy
  0   470      9.14675    0.99577     10.01041    0.04015
  0   471      9.17058    0.99464     10.03878    0.03054
  0   472      9.18418    0.99387     10.05323    0.02654
  0   473      9.20882    0.99217     10.06020    0.02479

  1   470      9.14219    0.99596     10.02519    0.03483
  1   471      9.16585    0.99489     10.03656    0.03120
  1   472      9.18841    0.99361     10.04305    0.02930
  1   473      9.19376    0.99326     10.04700    0.02820

Fermi level: 9.69300

No gap

Forces in eV/Ang:
  0 Co    0.13813   -0.55988    0.26010
  1 Co    0.52868   -0.31668    0.11311
  2 Co    0.06614   -0.12230   -0.40820
  3 Al    0.18541   -0.34136   -0.20370
  4 Fe    0.07172   -0.04229   -0.60848
  5 Co    0.02280    0.36668   -0.23343
  6 Fe    0.25139    0.37959   -0.66733
  7 Cr   -1.06630   -0.88303   -0.83565
  8 Fe   -0.43757    0.49769   -0.41937
  9 Al   -0.25100   -0.51349   -1.27701
 10 Ni   -0.16955   -0.21927   -0.34260
 11 Ni   -0.17728   -0.38387   -0.36471
 12 Ni   -0.23453    0.62304    0.05464
 13 Al    0.50526   -0.34429   -0.41681
 14 Fe    0.63604    0.06121    0.86533
 15 Co   -0.12850   -0.02501    0.00529
 16 Co    0.40201    0.02244    0.36977
 17 Fe   -0.52082   -0.71901    0.64380
 18 Ni   -0.56446   -0.29777   -0.03508
 19 Fe    0.22237   -0.49862    0.17688
 20 Ni   -0.12445   -0.13245   -0.41844
 21 Fe    0.23637    0.60054    0.02969
 22 Al    0.63325   -0.03722   -0.66226
 23 Co   -0.34207    0.49765   -0.42110
 24 Fe    0.23625    0.00988   -0.05079
 25 Co    0.27193    0.05295   -0.31999
 26 Cr   -0.63350    0.07487    0.10277
 27 Ni    0.74542    0.52680   -0.22940
 28 Al   -1.06946    0.18185    0.18655
 29 Al   -0.63177    0.33590   -0.95407
 30 Ni   -0.16832    0.13600    0.52711
 31 Cr    0.62420    0.82114   -0.50233
 32 Co    0.54945   -0.19694    0.09610
 33 Cr    0.02830   -0.08599   -0.52436
 34 Cr   -0.51058    0.44242   -0.10021
 35 Co   -0.11706    0.07768    0.13601
 36 Cr    0.08648   -0.69735   -0.88566
 37 Al   -0.07675    0.16086   -0.26930
 38 Ni    0.27352   -0.02115    0.11219
 39 Co    0.32138    0.59601   -0.26027
 40 Al   -0.78100    1.20903   -0.51084
 41 Cr   -0.40559    1.46167    0.08541
 42 Al    0.49202    0.21100    0.92485
 43 Fe   -0.63224    0.53946   -0.00837
 44 Al    0.84648   -0.13646    0.03981
 45 Co    0.12042    0.50020    0.40295
 46 Fe   -0.10869   -0.21152    0.20049
 47 Ni   -0.14446   -0.17081    0.05204
 48 Ni    0.53109    0.33043   -0.12124
 49 Ni    0.21109    0.20821   -0.38493
 50 Fe    0.82477    0.37265   -0.37286
 51 Fe    1.21021   -0.05391    0.37242
 52 Co   -0.30351   -0.09227    0.06400
 53 Cr   -0.08518   -0.84634   -0.06576
 54 Cr   -0.05712    0.18308    0.29266
 55 Cr   -0.03734   -0.30960    0.07643
 56 Cr   -0.83712    0.61512    1.43279
 57 Co    0.32978    0.16124    0.04941
 58 Co   -0.71122    0.23586    0.21942
 59 Co   -0.39960    0.46199    0.62341
[...]
 93 Ni    0.36341   -0.13485   -0.18814
 94 Cr    0.31476    0.44040    0.64074
 95 Al   -1.30200   -0.04691   -0.99327
 96 Cr   -0.07764    0.10196    0.70152
 97 Cr    0.46524    0.32743    0.52825
 98 Fe    0.20060    0.10991   -0.27299
 99 Fe    0.34953    0.12869    0.35577
100 Co   -0.28064    0.55543   -0.11599
101 Cr   -0.50991    0.98799    0.32529
102 Al    1.12054    0.07030   -1.43749
103 Fe   -0.17304   -0.36784    0.50751
104 Fe   -0.10255   -0.27831   -0.49492
105 Ni    0.07464    0.11690    0.09126
106 Cr   -0.73747    0.30166    0.49015
107 Fe   -0.39962   -0.02382   -0.12949

Date: Sat Apr 15 03:19:56 2023