User:   c.zeng@d0080
Date:   Fri Apr 14 19:02:04 2023
Arch:   x86_64
Pid:    226343
CWD:    /home/c.zeng/projects/hea-corrosion/hea-mlp/data-curation/bulk-mcmc/dft-jobs/160
Python: 3.8.1
gpaw:   /home/c.zeng/usr/installs/gpaw/source/gpaw-22.8.0/gpaw
_gpaw:  /home/c.zeng/usr/installs/gpaw/source/gpaw-22.8.0/
        _gpaw.cpython-38-x86_64-linux-gnu.so
ase:    /home/c.zeng/.local/lib/python3.8/site-packages/ase-3.22.1-py3.8.egg/ase (version 3.22.1)
numpy:  /shared/centos7/python/3.8.1/lib/python3.8/site-packages/numpy (version 1.17.4)
scipy:  /shared/centos7/python/3.8.1/lib/python3.8/site-packages/scipy (version 1.4.1)
units:  Angstrom and eV
cores: 30
OpenMP: False
OMP_NUM_THREADS: 1

Input parameters:
  convergence: {energy: 0.0001}
  kpts: [2 2 2]
  maxiter: 666
  mode: {ecut: 350.0,
         name: pw}
  occupations: {fixmagmom: False,
                name: fermi-dirac,
                width: 0.1}
  spinpol: True
  xc: PBE

System changes: positions, numbers, cell, pbc, initial_charges, initial_magmoms

Initialize ...

species:
  Fe:
    name: Iron
    id: 37abbd8d6c3c35915a9b583b742da910
    Z: 26.0
    valence: 8
    core: 18
    charge: 0.0
    file: /home/c.zeng/usr/data/gpaw-setups-0.9.20000/Fe.PBE.gz
    compensation charges: {type: gauss,
                           rc: 0.33,
                           lmax: 2}
    cutoffs: {filter: 2.06,
              core: 2.67}
    valence states:
      #              energy  rcut
      - 4s(2.00)    -5.291   1.164
      - 4p(0.00)    -1.326   1.058
      - 3d(6.00)    -7.505   1.058
      -  s          21.920   1.164
      -  p          25.885   1.058
      -  d          19.706   1.058

    # Using partial waves for Fe as LCAO basis

  Co:
    name: Cobalt
    id: 339d20d5b0b93d2de9531a1bee871d91
    Z: 27.0
    valence: 9
    core: 18
    charge: 0.0
    file: /home/c.zeng/usr/data/gpaw-setups-0.9.20000/Co.PBE.gz
    compensation charges: {type: gauss,
                           rc: 0.32,
                           lmax: 2}
    cutoffs: {filter: 1.87,
              core: 2.55}
    valence states:
      #              energy  rcut
      - 4s(2.00)    -5.469   1.005
      - 4p(0.00)    -1.277   1.058
      - 3d(7.00)    -8.205   1.005
      -  s          21.742   1.005
      -  p          25.934   1.058
      -  d          19.007   1.005

[...]

  Al:
    name: Aluminium
    id: 0292cae29f5d6237e50f6abdd43a7bdd
    Z: 13.0
    valence: 3
    core: 10
    charge: 0.0
    file: /home/c.zeng/usr/data/gpaw-setups-0.9.20000/Al.PBE.gz
    compensation charges: {type: gauss,
                           rc: 0.34,
                           lmax: 2}
    cutoffs: {filter: 1.91,
              core: 2.36}
    valence states:
      #              energy  rcut
      - 3s(2.00)    -7.753   1.085
      - 3p(1.00)    -2.712   1.085
      -  s          19.459   1.085
      -  p          24.499   1.085
      -  d           0.000   1.085

[...]

  Cr:
    name: Chromium
    id: 33f258bda2ca9f93018e70263a35547b
    Z: 24.0
    valence: 6
    core: 18
    charge: 0.0
    file: /home/c.zeng/usr/data/gpaw-setups-0.9.20000/Cr.PBE.gz
    compensation charges: {type: gauss,
                           rc: 0.35,
                           lmax: 2}
    cutoffs: {filter: 2.14,
              core: 3.04}
    valence states:
      #              energy  rcut
      - 4s(1.00)    -4.007   1.164
      - 4p(0.00)    -0.989   1.217
      - 3d(5.00)    -2.913   1.111
      -  s          23.205   1.164
      -  p          26.223   1.217
      -  d          24.299   1.111

[...]

  Ni:
    name: Nickel
    id: 0d9f38a9d6e76a2886f07bb4381f212b
    Z: 28.0
    valence: 16
    core: 12
    charge: 0.0
    file: /home/c.zeng/usr/data/gpaw-setups-0.9.20000/Ni.PBE.gz
    compensation charges: {type: gauss,
                           rc: 0.36,
                           lmax: 2}
    cutoffs: {filter: 2.14,
              core: 1.98}
    valence states:
      #              energy  rcut
      - 4s(2.00)    -5.642   1.164
      - 3p(6.00)   -71.394   1.207
      - 4p(0.00)    -1.226   1.207
      - 3d(8.00)    -8.875   1.138
      -  s          21.570   1.164
      -  d          18.337   1.138

    # Using partial waves for Ni as LCAO basis

Reference energy: -3382523.201499  # eV

Spin-polarized calculation.
Magnetic moment: 128.800000

Convergence criteria:
 Maximum [total energy] change in last 3 cyles: 0.0001 eV / electron
 Maximum integral of absolute [dens]ity change: 0.0001 electrons / valence electron
 Maximum integral of absolute [eigenst]ate change: 4e-08 eV^2 / valence electron
 Maximum number of scf [iter]ations: 666
 (Square brackets indicate name in SCF output, whereas a 'c' in
 the SCF output indicates the quantity has converged.)

Symmetries present (total): 1

  ( 1  0  0)
  ( 0  1  0)
  ( 0  0  1)

8 k-points: 2 x 2 x 2 Monkhorst-Pack grid
4 k-points in the irreducible part of the Brillouin zone
       k-points in crystal coordinates                weights
   0:     0.25000000   -0.25000000   -0.25000000          2/8
   1:     0.25000000   -0.25000000    0.25000000          2/8
   2:     0.25000000    0.25000000   -0.25000000          2/8
   3:     0.25000000    0.25000000    0.25000000          2/8

Wave functions: Plane wave expansion
  Cutoff energy: 350.000 eV
  Number of coefficients (min, max): 18865, 18865
  Pulay-stress correction: 0.000000 eV/Ang^3 (de/decut=0.000000)
  Using FFTW library
  ScaLapack parameters: grid=1x1, blocksize=None
  Wavefunction extrapolation:
    Improved wavefunction reuse through dual PAW basis

Occupation numbers: Fermi-Dirac:
  width: 0.1000  # eV

Eigensolver
   Davidson(niter=2)

Densities:
  Coarse grid: 48*48*48 grid
  Fine grid: 96*96*96 grid
  Total Charge: 0.000000

Density mixing:
  Method: difference
  Backend: pulay
  Linear mixing parameter: 0.05
  old densities: 5
  Damping of long wavelength oscillations: 50

Hamiltonian:
  XC and Coulomb potentials evaluated on a 96*96*96 grid
  Using the PBE Exchange-Correlation functional
  External potential:
    NoExternalPotential

XC parameters: PBE with 2 nearest neighbor stencil

Total number of cores used: 30
Parallelization over k-points: 2
Domain decomposition: 5 x 3 x 1

Number of atoms: 108
Number of atomic orbitals: 961
Number of bands in calculation: 649
Number of valence electrons: 945
Bands to converge: occupied

... initialized

Initializing position-dependent things.

Density initialized from atomic densities
Creating initial wave functions:
  649 bands from LCAO basis set

       /|                     Co   |
      / |            Co Co     CrCo|
     /  |       Cr       Ni       Cr
    /   |Fe       Fel     FFer     |
   /i   | Coo        Co      Co    |
  /  CrAl   NCr       Ni           |
 *      Ni     FeCo   AlFeCrFe   Cr|
 |      |CoNi   CrNiAl   NiAlNi   Fe
 | CrFe | AlNi   AlAlFe     Ni     |
 |     Co  FeCr Cr  Fe CoNi  CrNi  |
 |      CoNi   AlCr   FeCoFeNi  Co |
 |Al    |FeCr   AlCrCo   CrFe     Co
 |      .-CrCo-----NiCr-CoFeCrNi---.
 |     /   Ni Fe    Cr CoNi    Al /
 |    Fe       AFei       Al     /
 |   /  Fe         Al       Cr  /
 |  /      Fe       Al       Co/
 | / Co     Fe       Ni Ni    /
 |/             Cr       Ni  /
 *--------Co----------------*

Positions:
   0 Fe    10.764147   10.861293   10.805330    ( 0.0000,  0.0000,  2.0000)
   1 Co    10.786221    1.792513    1.813624    ( 0.0000,  0.0000,  0.0000)
   2 Co     1.744156    0.036560    1.851269    ( 0.0000,  0.0000,  1.5000)
   3 Al     1.736571    1.831142   10.798805    ( 0.0000,  0.0000,  0.0000)
   4 Co     3.575126    0.057318    0.061759    ( 0.0000,  0.0000,  0.0000)
   5 Fe     3.594289    1.817617    1.845577    ( 0.0000,  0.0000,  2.0000)
   6 Fe     5.429813   10.817005    1.865054    ( 0.0000,  0.0000,  1.5000)
   7 Cr     5.429608    1.929425    0.057134    ( 0.0000,  0.0000,  0.0000)
   8 Fe     7.316909   10.723332    0.087382    ( 0.0000,  0.0000,  0.0000)
   9 Al     7.263142    1.825786    1.869404    ( 0.0000,  0.0000,  2.1000)
  10 Ni     9.063554    0.025226    1.863474    ( 0.0000,  0.0000,  1.5000)
  11 Ni     9.049217    1.829703    0.033106    ( 0.0000,  0.0000,  2.1000)
  12 Ni     0.004792    3.558981   10.794801    ( 0.0000,  0.0000,  1.5000)
  13 Al    10.759710    5.390697    1.778165    ( 0.0000,  0.0000,  0.0000)
  14 Fe     1.733585    3.561849    1.761112    ( 0.0000,  0.0000,  2.0000)
  15 Fe     1.776899    5.391834   10.795505    ( 0.0000,  0.0000,  0.0000)
  16 Fe     3.565452    3.619360   10.832619    ( 0.0000,  0.0000,  2.1000)
  17 Fe     3.633221    5.394614    1.719551    ( 0.0000,  0.0000,  0.0000)
  18 Ni     5.471624    3.659114    1.836033    ( 0.0000,  0.0000,  2.1000)
  19 Fe     5.440212    5.373060   -0.002773    ( 0.0000,  0.0000,  2.0000)
  20 Ni     7.258997    3.609080    0.031294    ( 0.0000,  0.0000,  0.0000)
  21 Co     7.268941    5.378362    1.785274    ( 0.0000,  0.0000,  2.0000)
  22 Al     9.030724    3.577636    1.833728    ( 0.0000,  0.0000,  2.1000)
  23 Fe     9.040420    5.372281   10.801110    ( 0.0000,  0.0000,  0.0000)
  24 Co    10.791663    7.196206   10.792486    ( 0.0000,  0.0000,  1.5000)
  25 Co    10.758434    9.040387    1.848239    ( 0.0000,  0.0000,  0.0000)
  26 Cr     1.690487    7.202493    1.786032    ( 0.0000,  0.0000,  0.0000)
  27 Ni     1.652691    8.981047    0.027217    ( 0.0000,  0.0000,  0.0000)
  28 Al     3.631241    7.164437    0.034633    ( 0.0000,  0.0000,  0.0000)
  29 Al     3.625452    9.063759    1.801678    ( 0.0000,  0.0000,  0.0000)
  30 Ni     5.490852    7.187095    1.746342    ( 0.0000,  0.0000,  2.0000)
  31 Cr     5.426935    8.989152    0.009861    ( 0.0000,  0.0000,  2.0000)
  32 Co     7.229122    7.237075   -0.008698    ( 0.0000,  0.0000,  1.5000)
  33 Cr     7.249194    8.995850    1.810713    ( 0.0000,  0.0000,  0.0000)
  34 Cr     9.052073    7.204300    1.764218    ( 0.0000,  0.0000,  2.1000)
  35 Co     9.092553    8.989639   10.808760    ( 0.0000,  0.0000,  1.5000)
  36 Cr    -0.000975   10.826235    3.639789    ( 0.0000,  0.0000,  1.5000)
  37 Al    10.822772    1.771770    5.422044    ( 0.0000,  0.0000,  2.1000)
  38 Ni     1.754263   10.802084    5.428872    ( 0.0000,  0.0000,  2.1000)
  39 Fe     1.741873    1.774270    3.610801    ( 0.0000,  0.0000,  0.0000)
  40 Al     3.591183   10.794152    3.612143    ( 0.0000,  0.0000,  2.0000)
  41 Cr     3.593088    1.736744    5.455177    ( 0.0000,  0.0000,  0.0000)
  42 Al     5.437150   10.794563    5.400804    ( 0.0000,  0.0000,  2.0000)
  43 Fe     5.451931    1.783251    3.601387    ( 0.0000,  0.0000,  1.5000)
  44 Al     7.226222    0.007781    3.626209    ( 0.0000,  0.0000,  0.0000)
  45 Co     7.236069    1.766512    5.381392    ( 0.0000,  0.0000,  2.1000)
  46 Co     9.034587   10.848850    5.403844    ( 0.0000,  0.0000,  2.1000)
  47 Ni     9.031558    1.804946    3.616730    ( 0.0000,  0.0000,  1.5000)
  48 Ni    10.773885    3.543973    3.617867    ( 0.0000,  0.0000,  1.5000)
  49 Ni    10.772186    5.358409    5.454917    ( 0.0000,  0.0000,  0.0000)
  50 Co     1.757531    3.575678    5.428937    ( 0.0000,  0.0000,  2.1000)
  51 Fe     1.621766    5.386986    3.572550    ( 0.0000,  0.0000,  0.0000)
[...]
  59 Fe     9.074071    5.365323    3.589008    ( 0.0000,  0.0000,  2.1000)
[...]
  93 Ni     7.211073    5.388295    9.040181    ( 0.0000,  0.0000,  0.0000)
  94 Cr     9.095052    3.598119    8.980636    ( 0.0000,  0.0000,  2.0000)
  95 Al     9.078205    5.402416    7.227759    ( 0.0000,  0.0000,  0.0000)
  96 Cr    10.763411    7.244682    7.260285    ( 0.0000,  0.0000,  1.5000)
  97 Cr    10.795093    9.034566    8.977574    ( 0.0000,  0.0000,  2.0000)
  98 Co     1.740045    7.178947    8.984662    ( 0.0000,  0.0000,  2.1000)
  99 Co     1.734429    9.080207    7.236696    ( 0.0000,  0.0000,  1.5000)
 100 Fe     3.580482    7.154277    7.248285    ( 0.0000,  0.0000,  0.0000)
 101 Cr     3.612835    8.970898    8.958086    ( 0.0000,  0.0000,  0.0000)
 102 Al     5.410943    7.155878    9.067049    ( 0.0000,  0.0000,  0.0000)
 103 Co     5.466441    9.064062    7.220963    ( 0.0000,  0.0000,  2.1000)
 104 Fe     7.307203    7.271549    7.289738    ( 0.0000,  0.0000,  0.0000)
 105 Ni     7.271073    9.044683    9.027879    ( 0.0000,  0.0000,  1.5000)
 106 Cr     9.081743    7.219805    9.041166    ( 0.0000,  0.0000,  2.1000)
 107 Co     9.063684    9.083009    7.213865    ( 0.0000,  0.0000,  2.0000)

Unit cell:
           periodic     x           y           z      points  spacing
  1. axis:    yes   10.820500    0.000000    0.000000    48     0.2254
  2. axis:    yes    0.000000   10.820500    0.000000    48     0.2254
  3. axis:    yes    0.000000    0.000000   10.820500    48     0.2254

  Lengths:  10.820500  10.820500  10.820500
  Angles:   90.000000  90.000000  90.000000

Effective grid spacing dv^(1/3) = 0.2254

     iter     time        total  log10-change:  magmom
                         energy  eigst   dens
iter:   1 19:05:33  -895.019317                  +128.4417
iter:   2 19:06:55  -858.671911  -0.41  -1.31    +95.5923
iter:   3 19:08:18  -842.923783  -0.95  -1.30    +65.8616
iter:   4 19:09:41  -833.149719  -1.26  -1.38    +57.0564
iter:   5 19:11:03  -825.953653  -1.85  -1.40    +52.3956
iter:   6 19:12:26  -826.883876  -1.97  -1.47    +50.2142
iter:   7 19:13:49  -827.057522  -1.66  -1.50    +48.8793
iter:   8 19:15:11  -824.350748  -1.80  -1.54    +48.6267
iter:   9 19:16:34  -828.346945  -1.82  -1.66    +49.2548
iter:  10 19:17:57  -823.939729  -1.96  -1.65    +48.7527
iter:  11 19:19:19  -824.356137  -2.20  -1.78    +49.1920
iter:  12 19:20:42  -822.672094  -2.38  -1.80    +49.9230
iter:  13 19:22:05  -823.065195  -2.55  -1.88    +50.7222
iter:  14 19:23:28  -823.574499  -2.53  -1.92    +51.7651
iter:  15 19:24:51  -824.507992  -2.51  -1.93    +52.4583
iter:  16 19:26:13  -824.409702  -2.41  -1.93    +54.0687
iter:  17 19:27:36  -824.584017  -2.59  -1.96    +54.4269
iter:  18 19:28:59  -823.887737  -2.67  -1.99    +54.9562
iter:  19 19:30:22  -824.065173  -2.85  -2.10    +55.7807
iter:  20 19:31:44  -823.926933  -3.02  -2.11    +56.4876
iter:  21 19:33:07  -824.170905  -3.13  -2.16    +57.1781
iter:  22 19:34:30  -824.393415  -3.05  -2.19    +57.4433
iter:  23 19:35:53  -824.294374  -3.25  -2.15    +58.0589
iter:  24 19:37:15  -824.425299  -3.23  -2.22    +58.6451
iter:  25 19:38:38  -824.586968  -3.22  -2.25    +58.9401
iter:  26 19:40:01  -824.769131  -3.11  -2.25    +59.1478
iter:  27 19:41:24  -824.812425  -3.16  -2.27    +59.2955
iter:  28 19:42:46  -825.234159  -2.96  -2.28    +59.6932
iter:  29 19:44:09  -824.924441  -3.13  -2.24    +59.5991
iter:  30 19:45:32  -824.747254  -3.43  -2.32    +59.7246
iter:  31 19:46:54  -824.787975  -3.57  -2.43    +59.8447
iter:  32 19:48:17  -824.755290c -3.99  -2.42    +59.9641
iter:  33 19:49:39  -824.855665  -3.88  -2.49    +60.0953
iter:  34 19:51:02  -824.908444  -3.94  -2.48    +60.1004
iter:  35 19:52:25  -825.135157  -3.44  -2.49    +60.1195
iter:  36 19:53:47  -824.997910  -3.56  -2.42    +60.0604
iter:  37 19:55:10  -825.236674  -3.39  -2.55    +59.9992
iter:  38 19:56:33  -825.082234  -3.47  -2.51    +59.9694
iter:  39 19:57:56  -825.110145  -3.60  -2.62    +59.8341
iter:  40 19:59:18  -825.067435c -3.89  -2.62    +59.7336
iter:  41 20:00:41  -825.067084c -4.02  -2.73    +59.5916
iter:  42 20:02:04  -825.061310c -4.41  -2.77    +59.4986
iter:  43 20:03:26  -825.078933c -4.61  -2.83    +59.3657
iter:  44 20:04:49  -825.139929c -4.03  -2.89    +58.9025
iter:  45 20:06:12  -825.133258c -4.45  -2.86    +59.0191
iter:  46 20:07:34  -825.140144c -4.29  -2.98    +58.8245
iter:  47 20:08:57  -825.144580c -4.72  -3.22    +58.6831
iter:  48 20:10:20  -825.151552c -4.93  -3.34    +58.5714
iter:  49 20:11:43  -825.162509c -4.96  -3.38    +58.4345
iter:  50 20:13:05  -825.183721c -4.66  -3.40    +58.2087
iter:  51 20:14:28  -825.185038c -5.52  -3.31    +58.2372
iter:  52 20:15:51  -825.202710c -4.69  -3.27    +58.0210
iter:  53 20:17:13  -825.219915c -4.77  -3.25    +57.8508
iter:  54 20:18:36  -825.227270c -5.16  -3.20    +57.7523
iter:  55 20:19:59  -825.255881c -4.59  -3.18    +57.5281
iter:  56 20:21:22  -825.238366c -5.19  -3.07    +57.6751
iter:  57 20:22:44  -825.257119c -5.01  -3.12    +57.4556
iter:  58 20:24:07  -825.265866c -4.79  -3.07    +57.2859
iter:  59 20:25:30  -825.276636c -4.93  -3.06    +57.1596
iter:  60 20:26:52  -825.285753c -5.03  -3.03    +56.9933
iter:  61 20:28:15  -825.312105c -4.57  -3.02    +56.7611
iter:  62 20:29:37  -825.296761c -4.33  -2.94    +56.7461
iter:  63 20:31:00  -825.302715c -4.54  -2.95    +56.5779
iter:  64 20:32:23  -825.312838c -4.39  -2.94    +56.4886
iter:  65 20:33:45  -825.297188c -4.35  -2.90    +56.4572
iter:  66 20:35:08  -825.293045c -4.75  -2.99    +56.4253
iter:  67 20:36:30  -825.294605c -5.05  -3.06    +56.2960
iter:  68 20:37:53  -825.296429c -5.00  -3.11    +56.2033
iter:  69 20:39:16  -825.302747c -4.94  -3.16    +56.1056
iter:  70 20:40:38  -825.311694c -4.48  -3.15    +56.0672
iter:  71 20:42:01  -825.303895c -4.76  -3.13    +55.9610
iter:  72 20:43:24  -825.304654c -5.05  -3.30    +55.9057
iter:  73 20:44:47  -825.307338c -5.31  -3.32    +55.8832
iter:  74 20:46:09  -825.309463c -5.50  -3.37    +55.8186
iter:  75 20:47:31  -825.311999c -5.61  -3.40    +55.7640
iter:  76 20:48:54  -825.314785c -5.68  -3.41    +55.7036
iter:  77 20:50:17  -825.318039c -5.69  -3.42    +55.6429
iter:  78 20:51:39  -825.311776c -5.31  -3.40    +55.7634
iter:  79 20:53:02  -825.322127c -5.04  -3.44    +55.6099
iter:  80 20:54:25  -825.317592c -5.42  -3.41    +55.6736
iter:  81 20:55:47  -825.322740c -5.19  -3.50    +55.5888
iter:  82 20:57:10  -825.321619c -5.47  -3.47    +55.5821
iter:  83 20:58:32  -825.325115c -5.52  -3.64    +55.4876
iter:  84 20:59:55  -825.326158c -5.88  -3.61    +55.4668
iter:  85 21:01:17  -825.329633c -5.53  -3.72    +55.3797
iter:  86 21:02:40  -825.329713c -6.27  -3.66    +55.3842
iter:  87 21:04:03  -825.333267c -5.66  -3.69    +55.3142
iter:  88 21:05:25  -825.332920c -6.35  -3.67    +55.3204
iter:  89 21:06:48  -825.335512c -5.69  -3.73    +55.2371
iter:  90 21:08:11  -825.337370c -5.81  -3.71    +55.2356
iter:  91 21:09:33  -825.340520c -5.64  -3.81    +55.1662
iter:  92 21:10:55  -825.344062c -5.69  -3.82    +55.1170
iter:  93 21:12:16  -825.341794c -5.87  -3.70    +55.1577
iter:  94 21:13:36  -825.346170c -5.56  -3.65    +55.0776
iter:  95 21:14:57  -825.346213c -6.51  -3.66    +55.0750
iter:  96 21:16:17  -825.350311c -5.76  -3.69    +55.0172
iter:  97 21:17:38  -825.343356c -5.05  -3.64    +55.1527
iter:  98 21:18:58  -825.351640c -5.12  -3.58    +54.9970
iter:  99 21:20:19  -825.350417c -6.49  -3.66    +55.0050
[...]
iter: 125 21:55:12  -825.378393c -5.71  -3.62    +54.3086
iter: 126 21:56:33  -825.378832c -5.56  -3.62    +54.3184
iter: 127 21:57:54  -825.378676c -5.48  -3.57    +54.3096
iter: 128 21:59:15  -825.377825c -5.63  -3.57    +54.3321
iter: 129 22:00:36  -825.378523c -5.59  -3.65    +54.3597
iter: 130 22:01:57  -825.377519c -5.90  -3.69    +54.3582
iter: 131 22:03:17  -825.377086c -6.01  -3.74    +54.3476
iter: 132 22:04:38  -825.377002c -6.20  -3.82    +54.3524
iter: 133 22:05:59  -825.377179c -6.23  -3.87    +54.3724
iter: 134 22:07:19  -825.376925c -6.36  -3.85    +54.3737
iter: 135 22:08:40  -825.376748c -6.08  -3.95    +54.3730
iter: 136 22:10:00  -825.376849c -6.30  -3.81    +54.3817
iter: 137 22:11:21  -825.376864c -6.23  -3.93    +54.3967
iter: 138 22:12:42  -825.376630c -6.38  -3.93    +54.3990
iter: 139 22:14:02  -825.376477c -6.55  -3.97    +54.3931
iter: 140 22:15:23  -825.376357c -6.67  -4.02c   +54.3992
iter: 141 22:16:43  -825.376662c -6.68  -4.08c   +54.4047
iter: 142 22:18:03  -825.376327c -6.76  -4.06c   +54.4043
iter: 143 22:19:24  -825.376304c -6.70  -4.10c   +54.4022
iter: 144 22:20:44  -825.376355c -6.66  -4.08c   +54.4039
iter: 145 22:22:05  -825.376371c -6.74  -4.08c   +54.4147
iter: 146 22:23:26  -825.376291c -6.63  -4.11c   +54.4147
iter: 147 22:24:46  -825.376098c -6.92  -4.17c   +54.4128
iter: 148 22:26:07  -825.376286c -6.78  -4.16c   +54.4166
iter: 149 22:27:27  -825.376280c -6.87  -4.22c   +54.4200
iter: 150 22:28:48  -825.376204c -6.90  -4.22c   +54.4211
iter: 151 22:30:09  -825.376110c -7.04  -4.25c   +54.4161
iter: 152 22:31:29  -825.376119c -6.89  -4.32c   +54.4199
iter: 153 22:32:49  -825.376220c -7.31  -4.28c   +54.4229
iter: 154 22:34:10  -825.376036c -7.06  -4.39c   +54.4239
iter: 155 22:35:31  -825.376024c -7.21  -4.37c   +54.4230
iter: 156 22:36:51  -825.376040c -7.37  -4.38c   +54.4238
iter: 157 22:38:11  -825.376062c -7.45c -4.47c   +54.4288

Converged after 157 iterations.

Dipole moment: (29.188949, -4.091043, -10.233391) |e|*Ang

Total magnetic moment: (0.000000, 0.000000, 54.428847)
Local magnetic moments:
   0 Fe ( 0.000000,  0.000000,  2.269564)
   1 Co ( 0.000000,  0.000000,  1.315371)
   2 Co ( 0.000000,  0.000000,  1.322777)
   3 Al ( 0.000000,  0.000000, -0.049679)
   4 Co ( 0.000000,  0.000000,  1.388841)
   5 Fe ( 0.000000,  0.000000,  2.373784)
   6 Fe ( 0.000000,  0.000000,  1.901891)
   7 Cr ( 0.000000,  0.000000, -2.406598)
   8 Fe ( 0.000000,  0.000000,  2.235336)
   9 Al ( 0.000000,  0.000000, -0.014876)
  10 Ni ( 0.000000,  0.000000,  0.173188)
  11 Ni ( 0.000000,  0.000000,  0.136893)
  12 Ni ( 0.000000,  0.000000,  0.159365)
  13 Al ( 0.000000,  0.000000, -0.022947)
  14 Fe ( 0.000000,  0.000000,  2.181488)
  15 Fe ( 0.000000,  0.000000, -1.594673)
  16 Fe ( 0.000000,  0.000000,  2.077636)
  17 Fe ( 0.000000,  0.000000,  2.113902)
  18 Ni ( 0.000000,  0.000000,  0.217494)
  19 Fe ( 0.000000,  0.000000,  2.299117)
  20 Ni ( 0.000000,  0.000000,  0.123234)
  21 Co ( 0.000000,  0.000000,  1.192347)
  22 Al ( 0.000000,  0.000000, -0.023257)
  23 Fe ( 0.000000,  0.000000,  2.120133)
  24 Co ( 0.000000,  0.000000,  0.198858)
  25 Co ( 0.000000,  0.000000,  1.036477)
  26 Cr ( 0.000000,  0.000000, -1.471622)
  27 Ni ( 0.000000,  0.000000,  0.123443)
  28 Al ( 0.000000,  0.000000, -0.006011)
  29 Al ( 0.000000,  0.000000, -0.018915)
  30 Ni ( 0.000000,  0.000000,  0.338901)
  31 Cr ( 0.000000,  0.000000,  1.753473)
  32 Co ( 0.000000,  0.000000,  0.937038)
  33 Cr ( 0.000000,  0.000000, -1.336395)
  34 Cr ( 0.000000,  0.000000, -1.645262)
  35 Co ( 0.000000,  0.000000,  1.037585)
  36 Cr ( 0.000000,  0.000000, -1.602997)
  37 Al ( 0.000000,  0.000000, -0.025402)
  38 Ni ( 0.000000,  0.000000,  0.130246)
  39 Fe ( 0.000000,  0.000000,  2.279661)
  40 Al ( 0.000000,  0.000000, -0.040422)
  41 Cr ( 0.000000,  0.000000, -2.013778)
  42 Al ( 0.000000,  0.000000, -0.027729)
  43 Fe ( 0.000000,  0.000000,  1.887635)
  44 Al ( 0.000000,  0.000000, -0.026638)
  45 Co ( 0.000000,  0.000000,  0.782716)
  46 Co ( 0.000000,  0.000000,  0.871405)
  47 Ni ( 0.000000,  0.000000,  0.158813)
  48 Ni ( 0.000000,  0.000000,  0.390515)
  49 Ni ( 0.000000,  0.000000,  0.268117)
  50 Co ( 0.000000,  0.000000,  1.196294)
  51 Fe ( 0.000000,  0.000000,  2.347597)
  52 Co ( 0.000000,  0.000000,  1.072564)
  53 Cr ( 0.000000,  0.000000, -1.714158)
  54 Cr ( 0.000000,  0.000000, -1.438659)
  55 Cr ( 0.000000,  0.000000,  1.467038)
  56 Cr ( 0.000000,  0.000000, -1.629088)
  57 Co ( 0.000000,  0.000000,  1.104906)
  58 Fe ( 0.000000,  0.000000,  2.207783)
  59 Fe ( 0.000000,  0.000000,  2.215878)
[...]
  93 Ni ( 0.000000,  0.000000,  0.327146)
  94 Cr ( 0.000000,  0.000000,  0.907370)
  95 Al ( 0.000000,  0.000000, -0.019294)
  96 Cr ( 0.000000,  0.000000,  0.675733)
  97 Cr ( 0.000000,  0.000000,  0.540552)
  98 Co ( 0.000000,  0.000000, -0.142507)
  99 Co ( 0.000000,  0.000000,  0.768007)
 100 Fe ( 0.000000,  0.000000, -1.829357)
 101 Cr ( 0.000000,  0.000000, -2.098867)
 102 Al ( 0.000000,  0.000000, -0.012677)
 103 Co ( 0.000000,  0.000000,  1.044720)
 104 Fe ( 0.000000,  0.000000,  2.525785)
 105 Ni ( 0.000000,  0.000000,  0.285612)
 106 Cr ( 0.000000,  0.000000, -1.264849)
 107 Co ( 0.000000,  0.000000,  0.992184)

Energy contributions relative to reference atoms: (reference = -3382523.201499)

Kinetic:       +217.464656
Potential:     -226.305937
External:        +0.000000
XC:            -847.670744
Entropy (-ST):   -4.223633
Local:          +33.247780
Free energy:   -827.487879
Extrapolated:  -825.376062

Spin contamination: 30.755183 electrons
Showing only first 2 kpts
                      Up                     Down
 Kpt  Band  Eigenvalues  Occupancy  Eigenvalues  Occupancy
  0   470      9.18999    0.99279     10.01516    0.03467
  0   471      9.20848    0.99134     10.03084    0.02979
  0   472      9.21270    0.99097     10.03518    0.02856
  0   473      9.22714    0.98958     10.05385    0.02381

  1   470      9.18946    0.99283     10.01570    0.03449
  1   471      9.20190    0.99189     10.02548    0.03138
  1   472      9.21803    0.99048     10.03800    0.02779
  1   473      9.22801    0.98949     10.05170    0.02432

Fermi level: 9.68250

No gap

Forces in eV/Ang:
  0 Fe   -0.00330   -0.52374    0.49360
  1 Co    0.52136   -0.28807    0.11152
  2 Co    0.05074   -0.20184   -0.50143
  3 Al    0.26962   -0.28230   -0.07422
  4 Co    0.28384   -0.13089   -0.49020
  5 Fe    0.11697    0.43976   -0.30364
  6 Fe    0.29522    0.41432   -0.79137
  7 Cr   -1.14146   -1.00128   -0.89208
  8 Fe   -0.41811    0.46408   -0.49205
  9 Al   -0.24274   -0.50434   -1.24774
 10 Ni   -0.20750   -0.21691   -0.36248
 11 Ni   -0.24891   -0.25409   -0.43733
 12 Ni   -0.33206    0.57562    0.03189
 13 Al    0.96197   -0.05780   -0.36987
 14 Fe    0.48874    0.30256    0.56572
 15 Fe   -0.18770   -0.00166   -0.46697
 16 Fe    0.36240   -0.04733    0.16409
 17 Fe   -0.48501   -0.74661    0.67982
 18 Ni   -0.37652   -0.18587    0.00826
 19 Fe    0.60992   -0.40624    0.36316
 20 Ni   -0.15175   -0.09027   -0.44409
 21 Co    0.02890    0.54468    0.00844
 22 Al    0.47905   -0.24178   -0.70462
 23 Fe   -0.58725    0.70950   -0.50581
 24 Co    0.46972    0.00141   -0.12128
 25 Co    0.32387   -0.24186   -0.21574
 26 Cr   -0.68822    0.08627    0.03278
 27 Ni    0.73880    0.36150   -0.24222
 28 Al   -1.10722    0.12440    0.02682
 29 Al   -0.68643    0.48555   -1.11890
 30 Ni   -0.06459    0.07300    0.44763
 31 Cr    0.49216    1.13391   -0.54716
 32 Co    0.52973   -0.15937    0.20818
 33 Cr    0.09047   -0.02163   -0.48977
 34 Cr   -0.53573    0.45519   -0.15714
 35 Co   -0.28743   -0.05152    0.27518
 36 Cr   -0.03330   -0.61981   -0.94756
 37 Al    0.03282   -0.07683    0.10374
 38 Ni    0.39907    0.01865    0.21035
 39 Fe    0.39782    0.52144   -0.16026
 40 Al   -0.58702    0.76184   -0.29969
 41 Cr   -0.69892    1.28596    0.14554
 42 Al    0.25387   -0.20142    0.95747
 43 Fe   -0.56235    0.68931    0.21018
 44 Al    1.03141   -0.11152    0.22987
 45 Co    0.02414    0.48980    0.48217
 46 Co   -0.12405   -0.31624   -0.03188
 47 Ni   -0.06820   -0.21723    0.04249
 48 Ni    0.54787    0.39623   -0.05970
 49 Ni    0.36401    0.26990   -0.34129
 50 Co    0.71012    0.21743   -0.31090
 51 Fe    1.16662   -0.15304    0.41814
 52 Co   -0.28381   -0.00852    0.36713
 53 Cr   -0.46544   -0.72653   -0.12361
 54 Cr    0.25985    0.21855    0.21516
 55 Cr    0.13385   -0.67644    0.23408
 56 Cr   -0.67859    0.57629    1.17994
 57 Co    0.18624    0.21167    0.24368
 58 Fe   -0.69691    0.06203    0.23453
 59 Fe   -0.71078    0.89616    0.80285
[...]
 93 Ni    0.31070   -0.20286   -0.20744
 94 Cr    0.32161    0.23355    0.46310
 95 Al   -1.29042    0.01867   -0.86902
 96 Cr    0.14947    0.33578    0.89282
 97 Cr    0.33284   -0.49441    0.34703
 98 Co   -0.09809    0.25667   -0.10529
 99 Co    0.15343   -0.37129    0.30728
100 Fe   -0.57162    0.43756   -0.05599
101 Cr   -0.34009    1.01012    0.20987
102 Al    1.21627    0.17101   -1.28594
103 Co   -0.19101   -0.31750    0.42027
104 Fe   -0.02700    0.01694   -0.60113
105 Ni    0.00593    0.11726    0.05784
106 Cr   -0.59666    0.56258    0.35076
107 Co   -0.32364   -0.18286   -0.16011

Date: Fri Apr 14 22:38:28 2023