User:   c.zeng@d0113
Date:   Fri Apr 14 22:42:52 2023
Arch:   x86_64
Pid:    207893
CWD:    /home/c.zeng/projects/hea-corrosion/hea-mlp/data-curation/bulk-mcmc/dft-jobs/177
Python: 3.8.1
gpaw:   /home/c.zeng/usr/installs/gpaw/source/gpaw-22.8.0/gpaw
_gpaw:  /home/c.zeng/usr/installs/gpaw/source/gpaw-22.8.0/
        _gpaw.cpython-38-x86_64-linux-gnu.so
ase:    /home/c.zeng/.local/lib/python3.8/site-packages/ase-3.22.1-py3.8.egg/ase (version 3.22.1)
numpy:  /shared/centos7/python/3.8.1/lib/python3.8/site-packages/numpy (version 1.17.4)
scipy:  /shared/centos7/python/3.8.1/lib/python3.8/site-packages/scipy (version 1.4.1)
units:  Angstrom and eV
cores: 30
OpenMP: False
OMP_NUM_THREADS: 1

Input parameters:
  convergence: {energy: 0.0001}
  kpts: [2 2 2]
  maxiter: 666
  mode: {ecut: 350.0,
         name: pw}
  occupations: {fixmagmom: False,
                name: fermi-dirac,
                width: 0.1}
  spinpol: True
  xc: PBE

System changes: positions, numbers, cell, pbc, initial_charges, initial_magmoms

Initialize ...

species:
  Co:
    name: Cobalt
    id: 339d20d5b0b93d2de9531a1bee871d91
    Z: 27.0
    valence: 9
    core: 18
    charge: 0.0
    file: /home/c.zeng/usr/data/gpaw-setups-0.9.20000/Co.PBE.gz
    compensation charges: {type: gauss,
                           rc: 0.32,
                           lmax: 2}
    cutoffs: {filter: 1.87,
              core: 2.55}
    valence states:
      #              energy  rcut
      - 4s(2.00)    -5.469   1.005
      - 4p(0.00)    -1.277   1.058
      - 3d(7.00)    -8.205   1.005
      -  s          21.742   1.005
      -  p          25.934   1.058
      -  d          19.007   1.005

    # Using partial waves for Co as LCAO basis

  Fe:
    name: Iron
    id: 37abbd8d6c3c35915a9b583b742da910
    Z: 26.0
    valence: 8
    core: 18
    charge: 0.0
    file: /home/c.zeng/usr/data/gpaw-setups-0.9.20000/Fe.PBE.gz
    compensation charges: {type: gauss,
                           rc: 0.33,
                           lmax: 2}
    cutoffs: {filter: 2.06,
              core: 2.67}
    valence states:
      #              energy  rcut
      - 4s(2.00)    -5.291   1.164
      - 4p(0.00)    -1.326   1.058
      - 3d(6.00)    -7.505   1.058
      -  s          21.920   1.164
      -  p          25.885   1.058
      -  d          19.706   1.058

[...]

  Al:
    name: Aluminium
    id: 0292cae29f5d6237e50f6abdd43a7bdd
    Z: 13.0
    valence: 3
    core: 10
    charge: 0.0
    file: /home/c.zeng/usr/data/gpaw-setups-0.9.20000/Al.PBE.gz
    compensation charges: {type: gauss,
                           rc: 0.34,
                           lmax: 2}
    cutoffs: {filter: 1.91,
              core: 2.36}
    valence states:
      #              energy  rcut
      - 3s(2.00)    -7.753   1.085
      - 3p(1.00)    -2.712   1.085
      -  s          19.459   1.085
      -  p          24.499   1.085
      -  d           0.000   1.085

[...]

  Cr:
    name: Chromium
    id: 33f258bda2ca9f93018e70263a35547b
    Z: 24.0
    valence: 6
    core: 18
    charge: 0.0
    file: /home/c.zeng/usr/data/gpaw-setups-0.9.20000/Cr.PBE.gz
    compensation charges: {type: gauss,
                           rc: 0.35,
                           lmax: 2}
    cutoffs: {filter: 2.14,
              core: 3.04}
    valence states:
      #              energy  rcut
      - 4s(1.00)    -4.007   1.164
      - 4p(0.00)    -0.989   1.217
      - 3d(5.00)    -2.913   1.111
      -  s          23.205   1.164
      -  p          26.223   1.217
      -  d          24.299   1.111

[...]

  Ni:
    name: Nickel
    id: 0d9f38a9d6e76a2886f07bb4381f212b
    Z: 28.0
    valence: 16
    core: 12
    charge: 0.0
    file: /home/c.zeng/usr/data/gpaw-setups-0.9.20000/Ni.PBE.gz
    compensation charges: {type: gauss,
                           rc: 0.36,
                           lmax: 2}
    cutoffs: {filter: 2.14,
              core: 1.98}
    valence states:
      #              energy  rcut
      - 4s(2.00)    -5.642   1.164
      - 3p(6.00)   -71.394   1.207
      - 4p(0.00)    -1.226   1.207
      - 3d(8.00)    -8.875   1.138
      -  s          21.570   1.164
      -  d          18.337   1.138

    # Using partial waves for Ni as LCAO basis

Reference energy: -3382523.201499  # eV

Spin-polarized calculation.
Magnetic moment: 128.800000

Convergence criteria:
 Maximum [total energy] change in last 3 cyles: 0.0001 eV / electron
 Maximum integral of absolute [dens]ity change: 0.0001 electrons / valence electron
 Maximum integral of absolute [eigenst]ate change: 4e-08 eV^2 / valence electron
 Maximum number of scf [iter]ations: 666
 (Square brackets indicate name in SCF output, whereas a 'c' in
 the SCF output indicates the quantity has converged.)

Symmetries present (total): 1

  ( 1  0  0)
  ( 0  1  0)
  ( 0  0  1)

8 k-points: 2 x 2 x 2 Monkhorst-Pack grid
4 k-points in the irreducible part of the Brillouin zone
       k-points in crystal coordinates                weights
   0:     0.25000000   -0.25000000   -0.25000000          2/8
   1:     0.25000000   -0.25000000    0.25000000          2/8
   2:     0.25000000    0.25000000   -0.25000000          2/8
   3:     0.25000000    0.25000000    0.25000000          2/8

Wave functions: Plane wave expansion
  Cutoff energy: 350.000 eV
  Number of coefficients (min, max): 18865, 18865
  Pulay-stress correction: 0.000000 eV/Ang^3 (de/decut=0.000000)
  Using FFTW library
  ScaLapack parameters: grid=1x1, blocksize=None
  Wavefunction extrapolation:
    Improved wavefunction reuse through dual PAW basis

Occupation numbers: Fermi-Dirac:
  width: 0.1000  # eV

Eigensolver
   Davidson(niter=2)

Densities:
  Coarse grid: 48*48*48 grid
  Fine grid: 96*96*96 grid
  Total Charge: 0.000000

Density mixing:
  Method: difference
  Backend: pulay
  Linear mixing parameter: 0.05
  old densities: 5
  Damping of long wavelength oscillations: 50

Hamiltonian:
  XC and Coulomb potentials evaluated on a 96*96*96 grid
  Using the PBE Exchange-Correlation functional
  External potential:
    NoExternalPotential

XC parameters: PBE with 2 nearest neighbor stencil

Total number of cores used: 30
Parallelization over k-points: 2
Domain decomposition: 5 x 3 x 1

Number of atoms: 108
Number of atomic orbitals: 961
Number of bands in calculation: 649
Number of valence electrons: 945
Bands to converge: occupied

... initialized

Initializing position-dependent things.

Density initialized from atomic densities
Creating initial wave functions:
  649 bands from LCAO basis set

       /|                     Co   |
      / |            Fe Co     CrCo|
     /  |       Cr       Ni       Cr
    /   |Co       Fel     FFer     |
   /i   | Coo        Fe      Co    |
  /  CrAl   NCr       Ni           |
 *      Ni     FeCo   AlFeCrCo   Cr|
 |      |FeNi   CrNiAl   NiAlNi   Fe
 | CrCo | AlNi   AlAlFe     Ni     |
 |     Fe  FeCr Cr  Fe FeNi  CrNi  |
 |      CoNi   AlCr   FeFeCoNi  Fe |
 |Al    |FeCr   AlCrCo   CrCo     Co
 |      .-CrCo-----NiCr-FeCoCrNi---.
 |     /   Ni Co    Cr FeNi    Al /
 |    Fe       AFei       Al     /
 |   /  Co         Al       Cr  /
 |  /      Co       Al       Fe/
 | / Co     Co       Ni Ni    /
 |/             Cr       Ni  /
 *--------Co----------------*

Positions:
   0 Co    10.764147   10.861293   10.805330    ( 0.0000,  0.0000,  2.0000)
   1 Fe    10.786221    1.792513    1.813624    ( 0.0000,  0.0000,  0.0000)
   2 Co     1.744156    0.036560    1.851269    ( 0.0000,  0.0000,  1.5000)
   3 Al     1.736571    1.831142   10.798805    ( 0.0000,  0.0000,  0.0000)
   4 Co     3.575126    0.057318    0.061759    ( 0.0000,  0.0000,  0.0000)
   5 Co     3.594289    1.817617    1.845577    ( 0.0000,  0.0000,  2.0000)
   6 Fe     5.429813   10.817005    1.865054    ( 0.0000,  0.0000,  1.5000)
   7 Cr     5.429608    1.929425    0.057134    ( 0.0000,  0.0000,  0.0000)
   8 Co     7.316909   10.723332    0.087382    ( 0.0000,  0.0000,  0.0000)
   9 Al     7.263142    1.825786    1.869404    ( 0.0000,  0.0000,  2.1000)
  10 Ni     9.063554    0.025226    1.863474    ( 0.0000,  0.0000,  1.5000)
  11 Ni     9.049217    1.829703    0.033106    ( 0.0000,  0.0000,  2.1000)
  12 Ni     0.004792    3.558981   10.794801    ( 0.0000,  0.0000,  1.5000)
  13 Al    10.759710    5.390697    1.778165    ( 0.0000,  0.0000,  0.0000)
  14 Co     1.733585    3.561849    1.761112    ( 0.0000,  0.0000,  2.0000)
  15 Co     1.776899    5.391834   10.795505    ( 0.0000,  0.0000,  0.0000)
  16 Co     3.565452    3.619360   10.832619    ( 0.0000,  0.0000,  2.1000)
  17 Co     3.633221    5.394614    1.719551    ( 0.0000,  0.0000,  0.0000)
  18 Ni     5.471624    3.659114    1.836033    ( 0.0000,  0.0000,  2.1000)
  19 Fe     5.440212    5.373060   -0.002773    ( 0.0000,  0.0000,  2.0000)
  20 Ni     7.258997    3.609080    0.031294    ( 0.0000,  0.0000,  0.0000)
  21 Fe     7.268941    5.378362    1.785274    ( 0.0000,  0.0000,  2.0000)
  22 Al     9.030724    3.577636    1.833728    ( 0.0000,  0.0000,  2.1000)
  23 Fe     9.040420    5.372281   10.801110    ( 0.0000,  0.0000,  0.0000)
  24 Co    10.791663    7.196206   10.792486    ( 0.0000,  0.0000,  1.5000)
  25 Co    10.758434    9.040387    1.848239    ( 0.0000,  0.0000,  0.0000)
  26 Cr     1.690487    7.202493    1.786032    ( 0.0000,  0.0000,  0.0000)
  27 Ni     1.652691    8.981047    0.027217    ( 0.0000,  0.0000,  0.0000)
  28 Al     3.631241    7.164437    0.034633    ( 0.0000,  0.0000,  0.0000)
  29 Al     3.625452    9.063759    1.801678    ( 0.0000,  0.0000,  0.0000)
  30 Ni     5.490852    7.187095    1.746342    ( 0.0000,  0.0000,  2.0000)
  31 Cr     5.426935    8.989152    0.009861    ( 0.0000,  0.0000,  2.0000)
  32 Co     7.229122    7.237075   -0.008698    ( 0.0000,  0.0000,  1.5000)
  33 Cr     7.249194    8.995850    1.810713    ( 0.0000,  0.0000,  0.0000)
  34 Cr     9.052073    7.204300    1.764218    ( 0.0000,  0.0000,  2.1000)
  35 Co     9.092553    8.989639   10.808760    ( 0.0000,  0.0000,  1.5000)
  36 Cr    -0.000975   10.826235    3.639789    ( 0.0000,  0.0000,  1.5000)
  37 Al    10.822772    1.771770    5.422044    ( 0.0000,  0.0000,  2.1000)
  38 Ni     1.754263   10.802084    5.428872    ( 0.0000,  0.0000,  2.1000)
  39 Fe     1.741873    1.774270    3.610801    ( 0.0000,  0.0000,  0.0000)
  40 Al     3.591183   10.794152    3.612143    ( 0.0000,  0.0000,  2.0000)
  41 Cr     3.593088    1.736744    5.455177    ( 0.0000,  0.0000,  0.0000)
  42 Al     5.437150   10.794563    5.400804    ( 0.0000,  0.0000,  2.0000)
  43 Fe     5.451931    1.783251    3.601387    ( 0.0000,  0.0000,  1.5000)
  44 Al     7.226222    0.007781    3.626209    ( 0.0000,  0.0000,  0.0000)
  45 Co     7.236069    1.766512    5.381392    ( 0.0000,  0.0000,  2.1000)
  46 Fe     9.034587   10.848850    5.403844    ( 0.0000,  0.0000,  2.1000)
  47 Ni     9.031558    1.804946    3.616730    ( 0.0000,  0.0000,  1.5000)
  48 Ni    10.773885    3.543973    3.617867    ( 0.0000,  0.0000,  1.5000)
  49 Ni    10.772186    5.358409    5.454917    ( 0.0000,  0.0000,  0.0000)
  50 Co     1.757531    3.575678    5.428937    ( 0.0000,  0.0000,  2.1000)
  51 Fe     1.621766    5.386986    3.572550    ( 0.0000,  0.0000,  0.0000)
  52 Co     3.634303    3.633188    3.540792    ( 0.0000,  0.0000,  0.0000)
  53 Cr     3.550606    5.397969    5.404753    ( 0.0000,  0.0000,  2.0000)
  54 Cr     5.402221    3.610887    5.370193    ( 0.0000,  0.0000,  2.0000)
  55 Cr     5.460241    5.433590    3.575613    ( 0.0000,  0.0000,  2.0000)
  56 Cr     7.250157    3.615183    3.623169    ( 0.0000,  0.0000,  1.5000)
  57 Fe     7.248707    5.410715    5.362099    ( 0.0000,  0.0000,  1.5000)
  58 Co     9.058230    3.565236    5.380082    ( 0.0000,  0.0000,  2.1000)
  59 Co     9.074071    5.365323    3.589008    ( 0.0000,  0.0000,  2.1000)
[...]
  93 Ni     7.211073    5.388295    9.040181    ( 0.0000,  0.0000,  0.0000)
  94 Cr     9.095052    3.598119    8.980636    ( 0.0000,  0.0000,  2.0000)
  95 Al     9.078205    5.402416    7.227759    ( 0.0000,  0.0000,  0.0000)
  96 Cr    10.763411    7.244682    7.260285    ( 0.0000,  0.0000,  1.5000)
  97 Cr    10.795093    9.034566    8.977574    ( 0.0000,  0.0000,  2.0000)
  98 Co     1.740045    7.178947    8.984662    ( 0.0000,  0.0000,  2.1000)
  99 Co     1.734429    9.080207    7.236696    ( 0.0000,  0.0000,  1.5000)
 100 Fe     3.580482    7.154277    7.248285    ( 0.0000,  0.0000,  0.0000)
 101 Cr     3.612835    8.970898    8.958086    ( 0.0000,  0.0000,  0.0000)
 102 Al     5.410943    7.155878    9.067049    ( 0.0000,  0.0000,  0.0000)
 103 Fe     5.466441    9.064062    7.220963    ( 0.0000,  0.0000,  2.1000)
 104 Fe     7.307203    7.271549    7.289738    ( 0.0000,  0.0000,  0.0000)
 105 Ni     7.271073    9.044683    9.027879    ( 0.0000,  0.0000,  1.5000)
 106 Cr     9.081743    7.219805    9.041166    ( 0.0000,  0.0000,  2.1000)
 107 Co     9.063684    9.083009    7.213865    ( 0.0000,  0.0000,  2.0000)

Unit cell:
           periodic     x           y           z      points  spacing
  1. axis:    yes   10.820500    0.000000    0.000000    48     0.2254
  2. axis:    yes    0.000000   10.820500    0.000000    48     0.2254
  3. axis:    yes    0.000000    0.000000   10.820500    48     0.2254

  Lengths:  10.820500  10.820500  10.820500
  Angles:   90.000000  90.000000  90.000000

Effective grid spacing dv^(1/3) = 0.2254

     iter     time        total  log10-change:  magmom
                         energy  eigst   dens
iter:   1 22:46:15  -895.091945                  +128.4417
iter:   2 22:47:33  -861.064056  -0.41  -1.31    +96.1217
iter:   3 22:48:52  -843.853251  -0.95  -1.30    +68.5417
iter:   4 22:50:11  -832.877211  -1.26  -1.37    +58.4876
iter:   5 22:51:30  -826.054559  -1.85  -1.40    +52.8651
iter:   6 22:52:49  -826.813858  -1.98  -1.47    +50.5868
iter:   7 22:54:08  -827.274347  -1.66  -1.50    +49.0072
iter:   8 22:55:27  -824.926090  -1.71  -1.53    +48.3714
iter:   9 22:56:46  -829.668994  -1.79  -1.65    +48.6321
iter:  10 22:58:05  -823.989424  -1.95  -1.64    +48.1349
iter:  11 22:59:24  -824.304903  -2.20  -1.78    +48.9404
iter:  12 23:00:43  -822.779035  -2.37  -1.80    +49.2540
iter:  13 23:02:02  -823.217843  -2.50  -1.85    +50.0878
iter:  14 23:03:21  -822.808161  -2.55  -1.89    +51.2092
iter:  15 23:04:40  -824.341112  -2.52  -1.92    +51.7604
iter:  16 23:05:59  -823.726577  -2.50  -1.90    +53.2553
iter:  17 23:07:18  -824.327479  -2.58  -1.96    +53.7012
iter:  18 23:08:37  -823.747501  -2.64  -1.95    +54.6897
iter:  19 23:09:56  -824.274125  -2.74  -2.05    +55.7541
iter:  20 23:11:16  -823.875169  -2.78  -2.05    +56.5013
iter:  21 23:12:34  -824.343579  -2.94  -2.10    +57.1308
iter:  22 23:13:54  -824.440056  -2.88  -2.12    +57.3866
iter:  23 23:15:13  -824.466852  -2.97  -2.10    +58.1266
iter:  24 23:16:32  -824.288459  -3.16  -2.14    +58.4155
iter:  25 23:17:51  -824.550163  -3.20  -2.23    +58.8147
iter:  26 23:19:10  -824.667232  -3.08  -2.23    +59.0383
iter:  27 23:20:29  -824.808278  -3.17  -2.25    +59.2573
iter:  28 23:21:48  -825.153445  -3.00  -2.26    +59.7107
iter:  29 23:23:07  -825.022019  -3.06  -2.23    +59.6770
iter:  30 23:24:26  -824.938783  -3.29  -2.29    +59.9944
iter:  31 23:25:45  -824.916614  -3.42  -2.38    +60.0623
iter:  32 23:27:04  -824.952205c -3.72  -2.40    +60.3145
iter:  33 23:28:24  -825.020675  -3.76  -2.44    +60.5521
iter:  34 23:29:43  -825.079975  -3.85  -2.46    +60.6844
iter:  35 23:31:02  -825.170696  -3.79  -2.47    +60.9390
iter:  36 23:32:21  -825.233913  -3.81  -2.49    +61.0037
iter:  37 23:33:40  -825.446288  -3.41  -2.53    +61.1380
iter:  38 23:34:59  -825.347257  -3.62  -2.48    +60.9794
iter:  39 23:36:18  -825.503752  -3.41  -2.63    +60.9208
iter:  40 23:37:37  -825.473934  -3.55  -2.54    +61.0051
iter:  41 23:38:56  -825.400413  -3.70  -2.62    +60.9448
iter:  42 23:40:16  -825.375150  -4.03  -2.74    +60.9334
iter:  43 23:41:34  -825.381699c -4.53  -2.83    +60.8220
iter:  44 23:42:53  -825.410612c -4.55  -2.89    +60.7855
iter:  45 23:44:12  -825.453058c -4.32  -2.91    +60.5946
iter:  46 23:45:32  -825.457819c -4.57  -2.91    +60.5560
iter:  47 23:46:51  -825.479714c -4.46  -2.98    +60.3420
iter:  48 23:48:10  -825.484996c -4.61  -3.07    +60.2850
iter:  49 23:49:29  -825.506224c -4.49  -3.15    +60.1659
iter:  50 23:50:48  -825.511480c -4.81  -3.20    +60.1061
iter:  51 23:52:07  -825.534193c -4.71  -3.39    +59.9391
iter:  52 23:53:26  -825.544126c -5.01  -3.33    +59.8659
iter:  53 23:54:45  -825.571388c -4.65  -3.41    +59.7020
iter:  54 23:56:04  -825.633317c -3.94  -3.30    +59.4107
iter:  55 23:57:24  -825.704538  -3.42  -3.14    +59.0324
iter:  56 23:58:44  -825.706089c -4.46  -2.94    +59.1928
iter:  57 00:00:04  -825.716146c -4.81  -2.95    +59.2553
iter:  58 00:01:23  -825.727471c -4.84  -2.93    +59.3760
iter:  59 00:02:43  -825.740787c -4.49  -2.90    +59.5965
iter:  60 00:04:03  -825.781445c -3.93  -2.86    +59.8621
iter:  61 00:05:23  -825.721346c -4.42  -2.72    +59.6584
iter:  62 00:06:43  -825.734910c -4.71  -2.86    +59.6558
iter:  63 00:08:03  -825.726531c -5.09  -2.81    +59.6450
iter:  64 00:09:23  -825.695342c -3.74  -2.84    +59.6812
iter:  65 00:10:43  -825.679979c -4.47  -2.89    +59.6145
iter:  66 00:12:03  -825.679985c -4.67  -2.97    +59.5922
iter:  67 00:13:22  -825.678182c -4.80  -2.99    +59.4591
iter:  68 00:14:42  -825.685824c -4.42  -3.03    +59.2907
iter:  69 00:16:02  -825.680675c -4.56  -3.02    +59.2697
iter:  70 00:17:22  -825.677546c -4.74  -3.09    +59.2305
iter:  71 00:18:42  -825.674107c -5.13  -3.16    +59.2148
iter:  72 00:20:02  -825.676399c -5.21  -3.23    +59.1893
iter:  73 00:21:22  -825.675898c -5.37  -3.23    +59.1892
iter:  74 00:22:42  -825.677419c -5.23  -3.27    +59.1806
iter:  75 00:24:02  -825.676424c -5.32  -3.26    +59.1498
iter:  76 00:25:22  -825.676481c -5.41  -3.32    +59.1510
iter:  77 00:26:42  -825.676202c -5.57  -3.40    +59.1552
iter:  78 00:28:02  -825.676151c -5.70  -3.45    +59.1612
iter:  79 00:29:21  -825.676011c -5.90  -3.48    +59.1550
iter:  80 00:30:41  -825.677573c -5.68  -3.53    +59.1651
iter:  81 00:32:01  -825.676312c -5.87  -3.52    +59.1680
iter:  82 00:33:21  -825.676626c -5.94  -3.59    +59.1640
iter:  83 00:34:41  -825.676769c -6.06  -3.63    +59.1712
iter:  84 00:36:01  -825.676658c -6.15  -3.67    +59.1779
iter:  85 00:37:21  -825.676830c -6.34  -3.74    +59.1816
iter:  86 00:38:41  -825.677189c -6.27  -3.79    +59.1813
iter:  87 00:40:01  -825.677015c -6.39  -3.80    +59.1859
iter:  88 00:41:21  -825.677354c -6.44  -3.84    +59.1886
iter:  89 00:42:41  -825.677402c -6.52  -3.89    +59.1903
iter:  90 00:44:01  -825.677473c -6.65  -3.90    +59.1943
iter:  91 00:45:21  -825.677775c -6.63  -3.95    +59.2002
iter:  92 00:46:41  -825.677833c -6.73  -3.97    +59.2006
iter:  93 00:48:00  -825.677950c -6.63  -3.98    +59.2057
iter:  94 00:49:20  -825.678259c -6.72  -3.99    +59.2072
iter:  95 00:50:41  -825.678267c -6.77  -4.02c   +59.2094
iter:  96 00:52:01  -825.678400c -6.75  -4.04c   +59.2111
iter:  97 00:53:21  -825.678690c -6.77  -4.07c   +59.2146
iter:  98 00:54:41  -825.678680c -6.90  -4.09c   +59.2163
iter:  99 00:56:01  -825.678861c -6.79  -4.12c   +59.2230
iter: 100 00:57:22  -825.679040c -6.92  -4.13c   +59.2238
iter: 101 00:58:42  -825.679125c -6.92  -4.17c   +59.2277
iter: 102 01:00:02  -825.679307c -6.84  -4.18c   +59.2315
iter: 103 01:01:22  -825.679462c -6.90  -4.22c   +59.2360
iter: 104 01:02:43  -825.679565c -7.13  -4.24c   +59.2383
iter: 105 01:04:03  -825.679720c -6.81  -4.27c   +59.2473
iter: 106 01:05:23  -825.679875c -7.06  -4.29c   +59.2488
iter: 107 01:06:43  -825.679953c -6.96  -4.33c   +59.2533
iter: 108 01:08:04  -825.680137c -6.93  -4.34c   +59.2593
iter: 109 01:09:24  -825.680338c -6.77  -4.38c   +59.2655
iter: 110 01:10:44  -825.680336c -7.46c -4.39c   +59.2657

Converged after 110 iterations.

Dipole moment: (28.703449, -3.779609, -10.568491) |e|*Ang

Total magnetic moment: (0.000000, 0.000000, 59.265689)
Local magnetic moments:
   0 Co ( 0.000000,  0.000000,  1.232088)
   1 Fe ( 0.000000,  0.000000,  2.442568)
   2 Co ( 0.000000,  0.000000,  1.300875)
   3 Al ( 0.000000,  0.000000, -0.037349)
   4 Co ( 0.000000,  0.000000,  1.360518)
   5 Co ( 0.000000,  0.000000,  1.468101)
   6 Fe ( 0.000000,  0.000000,  1.937251)
   7 Cr ( 0.000000,  0.000000, -2.380369)
   8 Co ( 0.000000,  0.000000,  0.846634)
   9 Al ( 0.000000,  0.000000, -0.008472)
  10 Ni ( 0.000000,  0.000000,  0.132447)
  11 Ni ( 0.000000,  0.000000,  0.127664)
  12 Ni ( 0.000000,  0.000000,  0.240596)
  13 Al ( 0.000000,  0.000000, -0.025587)
  14 Co ( 0.000000,  0.000000,  1.288143)
  15 Co ( 0.000000,  0.000000,  1.004822)
  16 Co ( 0.000000,  0.000000,  1.343643)
  17 Co ( 0.000000,  0.000000,  1.094102)
  18 Ni ( 0.000000,  0.000000,  0.240164)
  19 Fe ( 0.000000,  0.000000,  2.296967)
  20 Ni ( 0.000000,  0.000000,  0.109796)
  21 Fe ( 0.000000,  0.000000,  2.173685)
  22 Al ( 0.000000,  0.000000, -0.025513)
  23 Fe ( 0.000000,  0.000000,  2.027952)
  24 Co ( 0.000000,  0.000000,  0.226371)
  25 Co ( 0.000000,  0.000000,  1.026242)
  26 Cr ( 0.000000,  0.000000, -1.876440)
  27 Ni ( 0.000000,  0.000000,  0.052354)
  28 Al ( 0.000000,  0.000000, -0.005998)
  29 Al ( 0.000000,  0.000000, -0.019732)
  30 Ni ( 0.000000,  0.000000,  0.281044)
  31 Cr ( 0.000000,  0.000000,  1.648389)
  32 Co ( 0.000000,  0.000000,  0.917572)
  33 Cr ( 0.000000,  0.000000,  0.354160)
  34 Cr ( 0.000000,  0.000000, -1.748410)
  35 Co ( 0.000000,  0.000000,  1.057700)
  36 Cr ( 0.000000,  0.000000, -1.424490)
  37 Al ( 0.000000,  0.000000, -0.028724)
  38 Ni ( 0.000000,  0.000000,  0.132311)
  39 Fe ( 0.000000,  0.000000,  2.274319)
  40 Al ( 0.000000,  0.000000, -0.035624)
  41 Cr ( 0.000000,  0.000000, -2.013879)
  42 Al ( 0.000000,  0.000000, -0.029684)
  43 Fe ( 0.000000,  0.000000,  1.896037)
  44 Al ( 0.000000,  0.000000, -0.029373)
  45 Co ( 0.000000,  0.000000,  0.830461)
  46 Fe ( 0.000000,  0.000000,  1.978168)
  47 Ni ( 0.000000,  0.000000,  0.149162)
  48 Ni ( 0.000000,  0.000000,  0.345778)
  49 Ni ( 0.000000,  0.000000,  0.303301)
  50 Co ( 0.000000,  0.000000,  1.192355)
  51 Fe ( 0.000000,  0.000000,  2.366055)
  52 Co ( 0.000000,  0.000000,  1.208925)
  53 Cr ( 0.000000,  0.000000, -1.872079)
  54 Cr ( 0.000000,  0.000000, -0.125129)
  55 Cr ( 0.000000,  0.000000,  1.065923)
  56 Cr ( 0.000000,  0.000000, -1.504951)
  57 Fe ( 0.000000,  0.000000,  2.153138)
  58 Co ( 0.000000,  0.000000,  1.135754)
  59 Co ( 0.000000,  0.000000,  0.977913)
[...]
  93 Ni ( 0.000000,  0.000000,  0.315141)
  94 Cr ( 0.000000,  0.000000,  1.185422)
  95 Al ( 0.000000,  0.000000, -0.013783)
  96 Cr ( 0.000000,  0.000000,  0.962827)
  97 Cr ( 0.000000,  0.000000,  0.732911)
  98 Co ( 0.000000,  0.000000, -0.166252)
  99 Co ( 0.000000,  0.000000,  0.992715)
 100 Fe ( 0.000000,  0.000000,  1.947744)
 101 Cr ( 0.000000,  0.000000, -2.256359)
 102 Al ( 0.000000,  0.000000, -0.026716)
 103 Fe ( 0.000000,  0.000000,  2.085915)
 104 Fe ( 0.000000,  0.000000,  2.423896)
 105 Ni ( 0.000000,  0.000000,  0.301443)
 106 Cr ( 0.000000,  0.000000, -1.470779)
 107 Co ( 0.000000,  0.000000,  0.972382)

Energy contributions relative to reference atoms: (reference = -3382523.201499)

Kinetic:       +214.356285
Potential:     -224.101009
External:        +0.000000
XC:            -847.173390
Entropy (-ST):   -4.175235
Local:          +33.325396
Free energy:   -827.767953
Extrapolated:  -825.680336

Spin contamination: 28.607925 electrons
Showing only first 2 kpts
                      Up                     Down
 Kpt  Band  Eigenvalues  Occupancy  Eigenvalues  Occupancy
  0   470      9.13336    0.99597     10.04749    0.02582
  0   471      9.14812    0.99534     10.05312    0.02444
  0   472      9.15704    0.99490     10.06231    0.02234
  0   473      9.17801    0.99372     10.09355    0.01645

  1   470      9.12820    0.99618     10.05488    0.02402
  1   471      9.14600    0.99543     10.06814    0.02110
  1   472      9.16801    0.99432     10.08443    0.01799
  1   473      9.18309    0.99340     10.08943    0.01713

Fermi level: 9.68444

No gap

Forces in eV/Ang:
  0 Co    0.27920   -0.52530    0.28087
  1 Fe    0.45970   -0.37909    0.10755
  2 Co    0.08651   -0.10433   -0.50929
  3 Al    0.53582   -0.33891   -0.14212
  4 Co    0.25040   -0.23522   -0.50447
  5 Co    0.05974    0.29842   -0.23146
  6 Fe    0.31611    0.32320   -0.94295
  7 Cr   -1.16076   -1.01108   -0.79351
  8 Co   -0.59262    0.27167   -0.36414
  9 Al   -0.24592   -0.66684   -1.42200
 10 Ni   -0.21094   -0.32760   -0.31560
 11 Ni   -0.17326   -0.28435   -0.39781
 12 Ni   -0.28967    0.58897    0.09204
 13 Al    0.82832   -0.36254   -0.31143
 14 Co    0.66710    0.33638    0.61784
 15 Co   -0.13188    0.01235    0.02062
 16 Co    0.35263    0.06102    0.37031
 17 Co   -0.39084   -0.56948    0.65331
 18 Ni   -0.55683   -0.21402   -0.01964
 19 Fe    0.17558   -0.51101    0.36054
 20 Ni   -0.14603   -0.10356   -0.45908
 21 Fe    0.11782    0.45208    0.09593
 22 Al    0.37953    0.05888   -0.50909
 23 Fe   -0.46304    0.77974   -0.61841
 24 Co    0.42551   -0.11301   -0.11554
 25 Co    0.16338    0.04254   -0.17304
 26 Cr   -0.68164    0.16215    0.01985
 27 Ni    0.78154    0.49549   -0.27836
 28 Al   -1.18632   -0.04390    0.29239
 29 Al   -0.64459    0.53260   -1.12672
 30 Ni   -0.27200    0.15069    0.37442
 31 Cr    0.69809    1.20972   -0.43967
 32 Co    0.40158   -0.19255    0.07640
 33 Cr    0.48838   -0.04222   -0.65256
 34 Cr   -0.60610    0.50196   -0.31685
 35 Co   -0.27035    0.12250    0.20204
 36 Cr    0.08827   -0.69526   -0.85958
 37 Al   -0.13355    0.30815   -0.10408
 38 Ni    0.30335   -0.04471    0.13585
 39 Fe    0.67788    0.67727   -0.27208
 40 Al   -0.60163    0.82648   -0.38285
 41 Cr   -0.46617    1.52974    0.09713
 42 Al    0.27251   -0.03135    0.81315
 43 Fe   -0.72655    0.73835    0.05712
 44 Al    0.84277   -0.16931   -0.00079
 45 Co    0.10598    0.52433    0.42948
 46 Fe   -0.19666   -0.43370    0.07594
 47 Ni   -0.17385   -0.11044    0.07363
 48 Ni    0.55913    0.37770   -0.02200
 49 Ni    0.28844    0.15907   -0.40852
 50 Co    0.61872    0.24913   -0.25422
 51 Fe    1.33838   -0.41447    0.28899
 52 Co   -0.28968   -0.00528    0.20179
 53 Cr   -0.12466   -0.85297   -0.11372
 54 Cr    0.06613    0.23328    0.22711
 55 Cr   -0.47665   -0.68729   -0.08010
 56 Cr   -0.78591    0.62224    1.39469
 57 Fe    0.33616   -0.00322   -0.00553
 58 Co   -0.60600    0.17098    0.21305
 59 Co   -0.35187    0.44704    0.51338
[...]
 93 Ni    0.30587   -0.16454   -0.19570
 94 Cr    0.37572    0.21027    0.50847
 95 Al   -1.23383   -0.09434   -0.89517
 96 Cr    0.11711    0.32265    0.79911
 97 Cr    0.40027   -0.01145    0.54719
 98 Co    0.07706    0.23498    0.04471
 99 Co    0.23259   -0.21020    0.30666
100 Fe   -0.42538    0.48555    0.18028
101 Cr   -0.66272    1.01351    0.14805
102 Al    1.38713    0.11523   -1.18333
103 Fe   -0.24846   -0.51999    0.43006
104 Fe   -0.07809   -0.10500   -0.53789
105 Ni    0.11756    0.16157    0.13286
106 Cr   -0.73937    0.62508    0.43358
107 Co   -0.43520   -0.24236   -0.16344

Date: Sat Apr 15 01:11:01 2023