User:   c.zeng@d0090
Date:   Sat Apr 15 21:08:54 2023
Arch:   x86_64
Pid:    178414
CWD:    /home/c.zeng/projects/hea-corrosion/hea-mlp/data-curation/bulk-mcmc/dft-jobs/83
Python: 3.8.1
gpaw:   /home/c.zeng/usr/installs/gpaw/source/gpaw-22.8.0/gpaw
_gpaw:  /home/c.zeng/usr/installs/gpaw/source/gpaw-22.8.0/
        _gpaw.cpython-38-x86_64-linux-gnu.so
ase:    /home/c.zeng/.local/lib/python3.8/site-packages/ase-3.22.1-py3.8.egg/ase (version 3.22.1)
numpy:  /shared/centos7/python/3.8.1/lib/python3.8/site-packages/numpy (version 1.17.4)
scipy:  /shared/centos7/python/3.8.1/lib/python3.8/site-packages/scipy (version 1.4.1)
units:  Angstrom and eV
cores: 30
OpenMP: False
OMP_NUM_THREADS: 1

Input parameters:
  convergence: {energy: 0.0001}
  kpts: [2 2 2]
  maxiter: 666
  mode: {ecut: 350.0,
         name: pw}
  occupations: {fixmagmom: False,
                name: fermi-dirac,
                width: 0.1}
  spinpol: True
  xc: PBE

System changes: positions, numbers, cell, pbc, initial_charges, initial_magmoms

Initialize ...

species:
  Cr:
    name: Chromium
    id: 33f258bda2ca9f93018e70263a35547b
    Z: 24.0
    valence: 6
    core: 18
    charge: 0.0
    file: /home/c.zeng/usr/data/gpaw-setups-0.9.20000/Cr.PBE.gz
    compensation charges: {type: gauss,
                           rc: 0.35,
                           lmax: 2}
    cutoffs: {filter: 2.14,
              core: 3.04}
    valence states:
      #              energy  rcut
      - 4s(1.00)    -4.007   1.164
      - 4p(0.00)    -0.989   1.217
      - 3d(5.00)    -2.913   1.111
      -  s          23.205   1.164
      -  p          26.223   1.217
      -  d          24.299   1.111

    # Using partial waves for Cr as LCAO basis

  Fe:
    name: Iron
    id: 37abbd8d6c3c35915a9b583b742da910
    Z: 26.0
    valence: 8
    core: 18
    charge: 0.0
    file: /home/c.zeng/usr/data/gpaw-setups-0.9.20000/Fe.PBE.gz
    compensation charges: {type: gauss,
                           rc: 0.33,
                           lmax: 2}
    cutoffs: {filter: 2.06,
              core: 2.67}
    valence states:
      #              energy  rcut
      - 4s(2.00)    -5.291   1.164
      - 4p(0.00)    -1.326   1.058
      - 3d(6.00)    -7.505   1.058
      -  s          21.920   1.164
      -  p          25.885   1.058
      -  d          19.706   1.058

[...]

  Ni:
    name: Nickel
    id: 0d9f38a9d6e76a2886f07bb4381f212b
    Z: 28.0
    valence: 16
    core: 12
    charge: 0.0
    file: /home/c.zeng/usr/data/gpaw-setups-0.9.20000/Ni.PBE.gz
    compensation charges: {type: gauss,
                           rc: 0.36,
                           lmax: 2}
    cutoffs: {filter: 2.14,
              core: 1.98}
    valence states:
      #              energy  rcut
      - 4s(2.00)    -5.642   1.164
      - 3p(6.00)   -71.394   1.207
      - 4p(0.00)    -1.226   1.207
      - 3d(8.00)    -8.875   1.138
      -  s          21.570   1.164
      -  d          18.337   1.138

[...]

  Co:
    name: Cobalt
    id: 339d20d5b0b93d2de9531a1bee871d91
    Z: 27.0
    valence: 9
    core: 18
    charge: 0.0
    file: /home/c.zeng/usr/data/gpaw-setups-0.9.20000/Co.PBE.gz
    compensation charges: {type: gauss,
                           rc: 0.32,
                           lmax: 2}
    cutoffs: {filter: 1.87,
              core: 2.55}
    valence states:
      #              energy  rcut
      - 4s(2.00)    -5.469   1.005
      - 4p(0.00)    -1.277   1.058
      - 3d(7.00)    -8.205   1.005
      -  s          21.742   1.005
      -  p          25.934   1.058
      -  d          19.007   1.005

[...]

  Al:
    name: Aluminium
    id: 0292cae29f5d6237e50f6abdd43a7bdd
    Z: 13.0
    valence: 3
    core: 10
    charge: 0.0
    file: /home/c.zeng/usr/data/gpaw-setups-0.9.20000/Al.PBE.gz
    compensation charges: {type: gauss,
                           rc: 0.34,
                           lmax: 2}
    cutoffs: {filter: 1.91,
              core: 2.36}
    valence states:
      #              energy  rcut
      - 3s(2.00)    -7.753   1.085
      - 3p(1.00)    -2.712   1.085
      -  s          19.459   1.085
      -  p          24.499   1.085
      -  d           0.000   1.085

    # Using partial waves for Al as LCAO basis

Reference energy: -3699400.456887  # eV

Spin-polarized calculation.
Magnetic moment: 143.500000

Convergence criteria:
 Maximum [total energy] change in last 3 cyles: 0.0001 eV / electron
 Maximum integral of absolute [dens]ity change: 0.0001 electrons / valence electron
 Maximum integral of absolute [eigenst]ate change: 4e-08 eV^2 / valence electron
 Maximum number of scf [iter]ations: 666
 (Square brackets indicate name in SCF output, whereas a 'c' in
 the SCF output indicates the quantity has converged.)

Symmetries present (total): 1

  ( 1  0  0)
  ( 0  1  0)
  ( 0  0  1)

8 k-points: 2 x 2 x 2 Monkhorst-Pack grid
4 k-points in the irreducible part of the Brillouin zone
       k-points in crystal coordinates                weights
   0:     0.25000000   -0.25000000   -0.25000000          2/8
   1:     0.25000000   -0.25000000    0.25000000          2/8
   2:     0.25000000    0.25000000   -0.25000000          2/8
   3:     0.25000000    0.25000000    0.25000000          2/8

Wave functions: Plane wave expansion
  Cutoff energy: 350.000 eV
  Number of coefficients (min, max): 18052, 18052
  Pulay-stress correction: 0.000000 eV/Ang^3 (de/decut=0.000000)
  Using FFTW library
  ScaLapack parameters: grid=1x1, blocksize=None
  Wavefunction extrapolation:
    Improved wavefunction reuse through dual PAW basis

Occupation numbers: Fermi-Dirac:
  width: 0.1000  # eV

Eigensolver
   Davidson(niter=2)

Densities:
  Coarse grid: 48*48*48 grid
  Fine grid: 96*96*96 grid
  Total Charge: 0.000000

Density mixing:
  Method: difference
  Backend: pulay
  Linear mixing parameter: 0.05
  old densities: 5
  Damping of long wavelength oscillations: 50

Hamiltonian:
  XC and Coulomb potentials evaluated on a 96*96*96 grid
  Using the PBE Exchange-Correlation functional
  External potential:
    NoExternalPotential

XC parameters: PBE with 2 nearest neighbor stencil

Total number of cores used: 30
Parallelization over k-points: 2
Domain decomposition: 5 x 3 x 1

Number of atoms: 108
Number of atomic orbitals: 1025
Number of bands in calculation: 703
Number of valence electrons: 1020
Bands to converge: occupied

... initialized

Initializing position-dependent things.

Density initialized from atomic densities
Creating initial wave functions:
  703 bands from LCAO basis set

        Cr------------------------.
       /|  Co                Co   |
      Ni|   Ni         Ni         |
     / Fe      Fe       Al        |
    /   CCo      Ni       Fe      |
   /e   | CoCr     CoAl    CrNi   |
  /  FeNi  CrCo     CrCrCo        |
 *    FeFe  FeCoNi     CoAl       |
 |     CoFeCr  CoFe Cr  CrFeCr    |
 | Fe   CrCrCrCo NiNiNiFe  Cr     |
 |   CoCr  CrAlNi   NiCrNi   Fe   |
 |    FeNi  FeFeCoNi CoFeNi   Cr  |
 |     NiFeFe  Ni CrCr  CoFeFe    |
 |      .-CoCrCo-FeCrNiCo--CoNi---.
 |   CrCo    CoAl   NiNiFe       /
 |    / Ni    NiFe       Ni     /
 |   /            Ni           /
 |Cr/      Co       Co        /
 |/            Cr           /
 *----------------Cr-------*

Positions:
   0 Cr     0.005316   -0.016350   10.639749    ( 0.0000,  0.0000,  0.0000)
   1 Cr    10.672340    1.801276    1.786848    ( 0.0000,  0.0000,  0.0000)
   2 Fe     1.795727   10.625972    1.782259    ( 0.0000,  0.0000,  0.0000)
   3 Ni     1.780787    1.796175   10.644605    ( 0.0000,  0.0000,  2.1000)
   4 Fe     3.523539   -0.014558    0.017268    ( 0.0000,  0.0000,  2.0000)
   5 Co     3.522568    1.781672    1.746648    ( 0.0000,  0.0000,  0.0000)
   6 Co     5.320952   10.642342    1.763136    ( 0.0000,  0.0000,  1.5000)
   7 Cr     5.342082    1.828767    0.007462    ( 0.0000,  0.0000,  2.0000)
   8 Cr     7.144895    0.019195    0.012033    ( 0.0000,  0.0000,  0.0000)
   9 Co     7.143497    1.798064    1.764939    ( 0.0000,  0.0000,  2.1000)
  10 Cr     8.891362   10.651627    1.788353    ( 0.0000,  0.0000,  1.5000)
  11 Co     8.888779    1.804777   10.642609    ( 0.0000,  0.0000,  2.0000)
  12 Fe     0.008694    3.581540   10.650250    ( 0.0000,  0.0000,  2.1000)
  13 Cr     0.018979    5.332745    1.789751    ( 0.0000,  0.0000,  2.1000)
  14 Ni     1.778129    3.600941    1.760019    ( 0.0000,  0.0000,  2.0000)
  15 Co     1.790423    5.343267   -0.017766    ( 0.0000,  0.0000,  2.0000)
  16 Cr     3.542802    3.589864   -0.015614    ( 0.0000,  0.0000,  2.0000)
  17 Co     3.526837    5.358538    1.765793    ( 0.0000,  0.0000,  2.0000)
  18 Fe     5.336650    3.606501    1.755815    ( 0.0000,  0.0000,  0.0000)
  19 Ni     5.300399    5.323642   -0.012797    ( 0.0000,  0.0000,  2.1000)
  20 Al     7.122858    3.584816   10.659524    ( 0.0000,  0.0000,  2.0000)
  21 Ni     7.120500    5.315168    1.805502    ( 0.0000,  0.0000,  1.5000)
  22 Ni     8.892034    3.590952    1.773146    ( 0.0000,  0.0000,  2.1000)
  23 Fe     8.925340    5.301487   -0.003100    ( 0.0000,  0.0000,  0.0000)
  24 Ni     0.023055    7.096680   -0.007939    ( 0.0000,  0.0000,  0.0000)
  25 Ni     0.019141    8.871245    1.787510    ( 0.0000,  0.0000,  1.5000)
  26 Co     1.784372    7.104567    1.776443    ( 0.0000,  0.0000,  2.0000)
  27 Co     1.779944    8.867628   10.659406    ( 0.0000,  0.0000,  1.5000)
  28 Ni     3.547785    7.097897    0.009215    ( 0.0000,  0.0000,  2.1000)
  29 Ni     3.541137    8.858109    1.788225    ( 0.0000,  0.0000,  2.1000)
  30 Cr     5.295105    7.099391    1.787894    ( 0.0000,  0.0000,  2.1000)
  31 Ni     5.303685    8.873828    0.029898    ( 0.0000,  0.0000,  0.0000)
  32 Ni     7.106883    7.088719   10.645159    ( 0.0000,  0.0000,  0.0000)
  33 Co     7.111055    8.901137    1.809472    ( 0.0000,  0.0000,  0.0000)
  34 Co     8.939384    7.093404    1.799238    ( 0.0000,  0.0000,  0.0000)
  35 Co     8.919972    8.915853   10.664881    ( 0.0000,  0.0000,  0.0000)
  36 Cr    10.679704   10.658873    3.584517    ( 0.0000,  0.0000,  2.0000)
  37 Fe    10.670921    1.796367    5.340289    ( 0.0000,  0.0000,  2.1000)
  38 Fe     1.770350   10.649001    5.343491    ( 0.0000,  0.0000,  0.0000)
  39 Co     1.791800    1.784671    3.584891    ( 0.0000,  0.0000,  2.0000)
  40 Ni     3.529718   10.626388    3.565234    ( 0.0000,  0.0000,  2.1000)
  41 Fe     3.535716    1.793465    5.367289    ( 0.0000,  0.0000,  1.5000)
  42 Co     5.311497    0.001574    5.366254    ( 0.0000,  0.0000,  1.5000)
  43 Al     5.332627    1.768055    3.580793    ( 0.0000,  0.0000,  0.0000)
  44 Ni     7.136966   10.673941    3.563804    ( 0.0000,  0.0000,  2.0000)
  45 Cr     7.136774    1.794126    5.358944    ( 0.0000,  0.0000,  2.1000)
  46 Co     8.925938   10.673621    5.347589    ( 0.0000,  0.0000,  2.0000)
  47 Fe     8.883827    1.779111    3.582404    ( 0.0000,  0.0000,  1.5000)
  48 Ni    -0.010038    3.572341    3.580996    ( 0.0000,  0.0000,  2.0000)
  49 Co    10.685573    5.328935    5.338550    ( 0.0000,  0.0000,  2.0000)
  50 Ni     1.784180    3.582949    5.348357    ( 0.0000,  0.0000,  1.5000)
  51 Fe     1.766326    5.339510    3.565255    ( 0.0000,  0.0000,  1.5000)
  52 Cr     3.522387    3.605007    3.574059    ( 0.0000,  0.0000,  0.0000)
  53 Al     3.543581    5.347343    5.347962    ( 0.0000,  0.0000,  2.1000)
  54 Co     5.333950    3.591678    5.360630    ( 0.0000,  0.0000,  2.0000)
  55 Cr     5.336458    5.346308    3.560132    ( 0.0000,  0.0000,  0.0000)
  56 Ni     7.143102    3.570089    3.572138    ( 0.0000,  0.0000,  2.1000)
  57 Cr     7.120265    5.347471    5.345689    ( 0.0000,  0.0000,  2.0000)
  58 Ni     8.888299    3.570665    5.342018    ( 0.0000,  0.0000,  1.5000)
  59 Fe     8.904573    5.339084    3.577453    ( 0.0000,  0.0000,  2.0000)
[...]
  93 Cr     7.108740    5.307762    8.854395    ( 0.0000,  0.0000,  1.5000)
  94 Al     8.907593    3.561296    8.890348    ( 0.0000,  0.0000,  2.1000)
  95 Fe     8.917806    5.336309    7.100224    ( 0.0000,  0.0000,  0.0000)
  96 Fe     0.016270    7.102027    7.111664    ( 0.0000,  0.0000,  2.0000)
  97 Fe     0.000822    8.895150    8.883817    ( 0.0000,  0.0000,  1.5000)
  98 Co     1.771182    7.105090    8.888608    ( 0.0000,  0.0000,  1.5000)
  99 Cr     1.775184    8.850318    7.108494    ( 0.0000,  0.0000,  2.0000)
 100 Co     3.530401    7.086478    7.104972    ( 0.0000,  0.0000,  1.5000)
 101 Fe     3.524841    8.851001    8.894798    ( 0.0000,  0.0000,  0.0000)
 102 Co     5.310654    7.102827    8.871128    ( 0.0000,  0.0000,  0.0000)
 103 Cr     5.290613    8.850286    7.104876    ( 0.0000,  0.0000,  0.0000)
 104 Co     7.129016    7.083330    7.142750    ( 0.0000,  0.0000,  2.1000)
 105 Al     7.143241    8.903186    8.854384    ( 0.0000,  0.0000,  2.0000)
 106 Cr     8.926504    7.115858    8.862313    ( 0.0000,  0.0000,  0.0000)
 107 Ni     8.932896    8.877648    7.127479    ( 0.0000,  0.0000,  1.5000)

Unit cell:
           periodic     x           y           z      points  spacing
  1. axis:    yes   10.671700    0.000000    0.000000    48     0.2223
  2. axis:    yes    0.000000   10.671700    0.000000    48     0.2223
  3. axis:    yes    0.000000    0.000000   10.671700    48     0.2223

  Lengths:  10.671700  10.671700  10.671700
  Angles:   90.000000  90.000000  90.000000

Effective grid spacing dv^(1/3) = 0.2223

     iter     time        total  log10-change:  magmom
                         energy  eigst   dens
iter:   1 21:14:19  -967.002969                  +143.1813
iter:   2 21:16:39  -908.450953  -0.49  -1.33    +106.0895
iter:   3 21:18:58  -912.682291  -0.86  -1.35    +71.4413
iter:   4 21:21:17  -880.081575  -1.32  -1.32    +63.1096
iter:   5 21:23:35  -874.409896  -1.90  -1.44    +56.7661
iter:   6 21:25:50  -881.739333  -1.66  -1.49    +53.2092
iter:   7 21:28:11  -875.060955  -1.56  -1.48    +51.9309
iter:   8 21:30:32  -870.910273  -1.72  -1.58    +50.9845
iter:   9 21:32:53  -877.032646  -1.82  -1.70    +50.8862
iter:  10 21:35:14  -867.242798  -2.03  -1.67    +49.7050
iter:  11 21:37:35  -867.234226  -2.58  -1.88    +49.4937
iter:  12 21:39:57  -867.590426  -2.61  -1.91    +49.9412
iter:  13 21:42:18  -868.302182  -2.69  -1.96    +50.2488
iter:  14 21:44:40  -868.727991  -2.64  -1.97    +50.6438
iter:  15 21:47:02  -869.578510  -2.57  -1.99    +50.9478
iter:  16 21:49:23  -869.494489  -2.61  -2.00    +51.2658
iter:  17 21:51:45  -869.293016  -2.67  -2.03    +51.4865
iter:  18 21:54:06  -868.618378  -2.86  -2.09    +51.8405
iter:  19 21:56:27  -869.261416  -2.90  -2.18    +52.2386
iter:  20 21:58:48  -868.661023  -3.00  -2.13    +52.3239
iter:  21 22:01:10  -868.860857  -3.16  -2.24    +52.8362
iter:  22 22:03:31  -868.682438  -3.23  -2.25    +53.2008
iter:  23 22:05:52  -868.811163  -3.35  -2.30    +53.6747
iter:  24 22:08:13  -868.753533  -3.49  -2.33    +54.0280
iter:  25 22:10:32  -869.022957  -3.42  -2.38    +54.4347
iter:  26 22:12:52  -869.035623  -3.39  -2.36    +54.8899
iter:  27 22:15:13  -869.219405  -3.38  -2.39    +55.2878
iter:  28 22:17:35  -869.225401  -3.44  -2.38    +55.6530
iter:  29 22:19:56  -869.356954  -3.48  -2.44    +56.0712
iter:  30 22:22:17  -869.313601  -3.58  -2.44    +56.4659
iter:  31 22:24:39  -869.394436c -3.75  -2.49    +56.9270
iter:  32 22:27:00  -869.451679  -3.86  -2.51    +57.2266
iter:  33 22:29:21  -869.490517c -4.04  -2.53    +57.5526
iter:  34 22:31:43  -869.569032  -3.98  -2.55    +57.9566
iter:  35 22:34:04  -869.695416  -3.82  -2.57    +58.3904
iter:  36 22:36:24  -869.797581  -3.68  -2.55    +58.5366
iter:  37 22:38:41  -869.920091  -3.53  -2.60    +58.7082
iter:  38 22:41:03  -869.951266  -3.50  -2.55    +58.8784
iter:  39 22:43:24  -869.944152c -3.58  -2.59    +58.7505
iter:  40 22:45:45  -869.929918c -3.72  -2.62    +58.8492
iter:  41 22:48:06  -869.896413c -3.84  -2.67    +58.9976
iter:  42 22:50:28  -869.871965c -4.38  -2.72    +59.0614
iter:  43 22:52:49  -869.894775c -4.53  -2.84    +59.0559
iter:  44 22:55:11  -869.920148c -4.63  -2.86    +59.0852
iter:  45 22:57:29  -869.993391c -3.84  -2.88    +59.1261
iter:  46 22:59:49  -870.013197c -4.15  -2.89    +58.9461
iter:  47 23:02:11  -870.037109c -4.41  -2.96    +58.7698
iter:  48 23:04:32  -870.052856c -4.32  -2.97    +58.7613
iter:  49 23:06:52  -870.040104c -4.35  -2.94    +58.6351
iter:  50 23:09:13  -870.029103c -4.77  -3.13    +58.4900
iter:  51 23:11:33  -870.033971c -5.13  -3.36    +58.4309
iter:  52 23:13:49  -870.041112c -5.16  -3.40    +58.3441
iter:  53 23:16:10  -870.043219c -5.41  -3.39    +58.2764
iter:  54 23:18:31  -870.050254c -5.31  -3.45    +58.1661
iter:  55 23:20:53  -870.049517c -5.91  -3.44    +58.2005
iter:  56 23:23:14  -870.064006c -4.97  -3.38    +57.9503
iter:  57 23:25:35  -870.051439c -5.17  -3.32    +58.2507
iter:  58 23:27:56  -870.068083c -4.93  -3.33    +57.9999
iter:  59 23:30:17  -870.065739c -5.51  -3.31    +58.0356
iter:  60 23:32:39  -870.071938c -5.23  -3.37    +57.9521
iter:  61 23:35:00  -870.079575c -5.14  -3.43    +57.8836
iter:  62 23:37:21  -870.083246c -5.00  -3.35    +57.8277
iter:  63 23:39:42  -870.085144c -5.09  -3.30    +57.7444
iter:  64 23:42:03  -870.086197c -5.23  -3.39    +57.6833
iter:  65 23:44:23  -870.091028c -5.41  -3.42    +57.5796
iter:  66 23:46:43  -870.093334c -5.80  -3.49    +57.5172
iter:  67 23:49:00  -870.097256c -5.66  -3.51    +57.4682
iter:  68 23:51:22  -870.101420c -5.58  -3.47    +57.4159
iter:  69 23:53:43  -870.108104c -5.21  -3.43    +57.3610
iter:  70 23:56:04  -870.107798c -5.35  -3.36    +57.3151
iter:  71 23:58:26  -870.113332c -5.31  -3.42    +57.2195
iter:  72 00:00:47  -870.116817c -5.73  -3.49    +57.1725
iter:  73 00:03:08  -870.123515c -5.31  -3.46    +57.1422
iter:  74 00:05:29  -870.127242c -5.17  -3.37    +57.0560
iter:  75 00:07:49  -870.132557c -5.11  -3.38    +57.0035
iter:  76 00:10:09  -870.136029c -5.05  -3.37    +56.9561
iter:  77 00:12:27  -870.137860c -5.21  -3.35    +56.8831
iter:  78 00:14:48  -870.141453c -5.62  -3.52    +56.8003
iter:  79 00:17:09  -870.154910c -4.91  -3.56    +56.6181
iter:  80 00:19:31  -870.190467c -3.60  -3.48    +55.8312
iter:  81 00:21:52  -870.189300c -4.81  -3.20    +56.1382
iter:  82 00:24:13  -870.192690c -5.01  -3.26    +56.0544
iter:  83 00:26:35  -870.194585c -5.33  -3.25    +56.0346
iter:  84 00:28:57  -870.195981c -5.52  -3.24    +56.0347
iter:  85 00:31:17  -870.207356c -4.93  -3.21    +56.0453
iter:  86 00:33:38  -870.200861c -5.04  -3.07    +56.0435
iter:  87 00:35:56  -870.213614c -4.58  -3.16    +56.0231
iter:  88 00:38:17  -870.203877c -4.66  -3.01    +56.0529
iter:  89 00:40:38  -870.197784c -4.44  -3.06    +56.0956
iter:  90 00:43:00  -870.189234c -4.65  -3.07    +56.0488
iter:  91 00:45:21  -870.188253c -4.97  -3.20    +56.0498
iter:  92 00:47:42  -870.185871c -4.93  -3.22    +56.0761
iter:  93 00:50:03  -870.184512c -4.93  -3.27    +56.0323
iter:  94 00:52:25  -870.187934c -4.85  -3.27    +56.0056
iter:  95 00:54:46  -870.185767c -4.91  -3.25    +56.0311
iter:  96 00:57:07  -870.180386c -5.15  -3.33    +56.0376
iter:  97 00:59:28  -870.182451c -5.30  -3.46    +56.0224
iter:  98 01:01:49  -870.180900c -5.24  -3.44    +56.0099
[...]
iter: 102 01:11:07  -870.178493c -5.97  -3.60    +56.0446
iter: 103 01:13:28  -870.177961c -5.99  -3.72    +56.0558
iter: 104 01:15:49  -870.179083c -5.85  -3.69    +56.0588
iter: 105 01:18:11  -870.178390c -5.88  -3.67    +56.0473
iter: 106 01:20:32  -870.178044c -5.99  -3.73    +56.0486
iter: 107 01:22:53  -870.178001c -6.02  -3.73    +56.0668
iter: 108 01:25:14  -870.177399c -6.11  -3.77    +56.0714
iter: 109 01:27:36  -870.177793c -6.44  -3.82    +56.0712
iter: 110 01:29:57  -870.177532c -6.42  -3.88    +56.0747
iter: 111 01:32:19  -870.177432c -6.21  -3.89    +56.0843
iter: 112 01:34:40  -870.177624c -6.29  -3.87    +56.0866
iter: 113 01:37:00  -870.177322c -6.40  -3.87    +56.0743
iter: 114 01:39:22  -870.177817c -6.16  -3.97    +56.0773
iter: 115 01:41:42  -870.176865c -6.25  -3.88    +56.0809
iter: 116 01:44:04  -870.176950c -6.64  -3.94    +56.0821
iter: 117 01:46:24  -870.177045c -6.51  -4.13c   +56.0763
iter: 118 01:48:46  -870.176852c -6.67  -4.06c   +56.0794
iter: 119 01:51:06  -870.176779c -7.06  -4.11c   +56.0908
iter: 120 01:53:26  -870.176678c -7.01  -4.28c   +56.0930
iter: 121 01:55:45  -870.176982c -7.00  -4.20c   +56.0932
iter: 122 01:58:06  -870.176717c -7.35  -4.24c   +56.0947
iter: 123 02:00:28  -870.176706c -7.12  -4.36c   +56.0987
iter: 124 02:02:49  -870.176787c -7.08  -4.27c   +56.0987
iter: 125 02:05:10  -870.176648c -7.25  -4.28c   +56.0942
iter: 126 02:07:31  -870.176727c -7.49c -4.40c   +56.0964

Converged after 126 iterations.

Dipole moment: (-10.494257, 8.014632, 8.560193) |e|*Ang

Total magnetic moment: (0.000000, 0.000000, 56.096449)
Local magnetic moments:
   0 Cr ( 0.000000,  0.000000, -1.054102)
   1 Cr ( 0.000000,  0.000000, -1.207005)
   2 Fe ( 0.000000,  0.000000,  2.029977)
   3 Ni ( 0.000000,  0.000000,  0.112632)
   4 Fe ( 0.000000,  0.000000,  2.317187)
   5 Co ( 0.000000,  0.000000,  1.104492)
   6 Co ( 0.000000,  0.000000,  1.283797)
   7 Cr ( 0.000000,  0.000000, -1.295508)
   8 Cr ( 0.000000,  0.000000, -1.198699)
   9 Co ( 0.000000,  0.000000,  1.081321)
  10 Cr ( 0.000000,  0.000000,  0.585750)
  11 Co ( 0.000000,  0.000000, -0.001902)
  12 Fe ( 0.000000,  0.000000,  1.943321)
  13 Cr ( 0.000000,  0.000000, -1.927684)
  14 Ni ( 0.000000,  0.000000,  0.260684)
  15 Co ( 0.000000,  0.000000,  1.314619)
  16 Cr ( 0.000000,  0.000000, -0.772994)
  17 Co ( 0.000000,  0.000000,  1.042600)
  18 Fe ( 0.000000,  0.000000,  1.886514)
  19 Ni ( 0.000000,  0.000000,  0.268369)
  20 Al ( 0.000000,  0.000000, -0.019187)
  21 Ni ( 0.000000,  0.000000,  0.206741)
  22 Ni ( 0.000000,  0.000000,  0.288305)
  23 Fe ( 0.000000,  0.000000,  1.899486)
  24 Ni ( 0.000000,  0.000000,  0.433456)
  25 Ni ( 0.000000,  0.000000,  0.212800)
  26 Co ( 0.000000,  0.000000,  1.318130)
  27 Co ( 0.000000,  0.000000,  1.451577)
  28 Ni ( 0.000000,  0.000000,  0.508909)
  29 Ni ( 0.000000,  0.000000,  0.420433)
  30 Cr ( 0.000000,  0.000000, -1.723477)
  31 Ni ( 0.000000,  0.000000,  0.343860)
  32 Ni ( 0.000000,  0.000000,  0.131146)
  33 Co ( 0.000000,  0.000000,  1.274866)
  34 Co ( 0.000000,  0.000000,  1.216832)
  35 Co ( 0.000000,  0.000000,  0.830208)
  36 Cr ( 0.000000,  0.000000, -1.084609)
  37 Fe ( 0.000000,  0.000000,  2.430717)
  38 Fe ( 0.000000,  0.000000,  1.938990)
  39 Co ( 0.000000,  0.000000,  1.228154)
  40 Ni ( 0.000000,  0.000000,  0.364860)
  41 Fe ( 0.000000,  0.000000,  2.061674)
  42 Co ( 0.000000,  0.000000,  0.785027)
  43 Al ( 0.000000,  0.000000, -0.026598)
  44 Ni ( 0.000000,  0.000000,  0.196912)
  45 Cr ( 0.000000,  0.000000,  1.060667)
  46 Co ( 0.000000,  0.000000,  1.109124)
  47 Fe ( 0.000000,  0.000000,  2.057791)
  48 Ni ( 0.000000,  0.000000,  0.352734)
  49 Co ( 0.000000,  0.000000,  1.019042)
  50 Ni ( 0.000000,  0.000000,  0.222279)
  51 Fe ( 0.000000,  0.000000,  2.042711)
  52 Cr ( 0.000000,  0.000000, -1.596306)
  53 Al ( 0.000000,  0.000000, -0.025855)
  54 Co ( 0.000000,  0.000000,  0.115892)
  55 Cr ( 0.000000,  0.000000,  1.263590)
  56 Ni ( 0.000000,  0.000000,  0.263808)
  57 Cr ( 0.000000,  0.000000, -1.348750)
  58 Ni ( 0.000000,  0.000000,  0.342050)
  59 Fe ( 0.000000,  0.000000,  2.212320)
[...]
  93 Cr ( 0.000000,  0.000000, -1.484320)
  94 Al ( 0.000000,  0.000000, -0.029132)
  95 Fe ( 0.000000,  0.000000,  1.789414)
  96 Fe ( 0.000000,  0.000000,  1.874209)
  97 Fe ( 0.000000,  0.000000,  2.211577)
  98 Co ( 0.000000,  0.000000,  1.350203)
  99 Cr ( 0.000000,  0.000000, -1.529253)
 100 Co ( 0.000000,  0.000000,  0.936140)
 101 Fe ( 0.000000,  0.000000,  2.355698)
 102 Co ( 0.000000,  0.000000,  1.116772)
 103 Cr ( 0.000000,  0.000000, -1.545741)
 104 Co ( 0.000000,  0.000000,  0.222092)
 105 Al ( 0.000000,  0.000000, -0.010156)
 106 Cr ( 0.000000,  0.000000, -1.763096)
 107 Ni ( 0.000000,  0.000000,  0.170954)

Energy contributions relative to reference atoms: (reference = -3699400.456887)

Kinetic:       +138.567833
Potential:     -189.912402
External:        +0.000000
XC:            -854.374478
Entropy (-ST):   -4.621507
Local:          +37.853072
Free energy:   -872.487481
Extrapolated:  -870.176727

Spin contamination: 32.767652 electrons
Showing only first 2 kpts
                      Up                     Down
 Kpt  Band  Eigenvalues  Occupancy  Eigenvalues  Occupancy
  0   508      9.68196    0.99158     10.48464    0.03702
  0   509      9.70406    0.98952     10.49797    0.03256
  0   510      9.71549    0.98826     10.49981    0.03198
  0   511      9.73225    0.98615     10.51835    0.02671

  1   508      9.69325    0.99058     10.47121    0.04212
  1   509      9.70948    0.98894     10.49392    0.03385
  1   510      9.71961    0.98777     10.49975    0.03200
  1   511      9.74000    0.98505     10.51560    0.02744

Fermi level: 10.15879

No gap

Forces in eV/Ang:
  0 Cr   -0.24344   -0.16959    0.30096
  1 Cr   -0.08509    0.18155   -0.02943
  2 Fe   -0.37847    0.51527    0.14898
  3 Ni   -0.21201   -0.08575    0.13674
  4 Fe    0.61203    0.09554   -0.04762
  5 Co    0.15503    0.15946    0.21949
  6 Co    0.18765    0.15710   -0.34838
  7 Cr   -0.82436   -0.96524    0.44403
  8 Cr   -0.06213    0.24803    0.73474
  9 Co   -0.22034   -0.30110   -0.01305
 10 Cr    0.20404    0.31983   -0.17778
 11 Co    0.39319   -0.56684    0.15858
 12 Fe    0.30739   -0.24899    0.51586
 13 Cr    0.02992    0.26588   -0.13840
 14 Ni    0.02329   -0.55502    0.12796
 15 Co   -0.10051    0.01031   -0.00208
 16 Cr   -0.08803   -0.09406    0.02237
 17 Co    0.15606   -0.16641    0.05346
 18 Fe   -0.47671   -0.32687    0.25648
 19 Ni    0.13669    0.19157    0.09675
 20 Al   -0.22486    0.14677    1.37341
 21 Ni   -0.08765    0.42692   -0.25442
 22 Ni    0.27482   -0.52649    0.29570
 23 Fe   -0.11317    1.18504    0.04245
 24 Ni   -0.16649   -0.02042    0.07647
 25 Ni   -0.14742    0.13917   -0.15742
 26 Co    0.08115   -0.00544    0.05602
 27 Co    0.06779   -0.05648    0.22883
 28 Ni   -0.05959    0.04398   -0.26727
 29 Ni   -0.03074    0.20157   -0.22475
 30 Cr    0.24026   -0.26570    0.02709
 31 Ni    0.31932    0.22055   -0.30274
 32 Ni    0.28186   -0.01130    0.18893
 33 Co    0.23679   -0.09872   -0.44717
 34 Co   -0.38782    0.19581   -0.31085
 35 Co   -0.27345   -0.21726    0.35933
 36 Cr   -0.29861   -0.19253   -0.02492
 37 Fe    0.27597   -0.20738    0.00876
 38 Fe    0.14822   -0.25417   -0.29907
 39 Co   -0.10926   -0.05467   -0.32718
 40 Ni    0.12807    0.25736    0.10132
 41 Fe   -0.21954   -0.12669    0.06651
 42 Co    0.20996   -0.13206    0.22112
 43 Al    0.12921   -0.22027   -0.63072
 44 Ni   -0.07577   -0.13832    0.14405
 45 Cr    0.02145   -0.21721    0.34575
 46 Co   -0.19322   -0.17638    0.00790
 47 Fe    0.09794    0.03082   -0.39662
 48 Ni    0.02473   -0.21703   -0.18449
 49 Co   -0.02423    0.21125    0.11152
 50 Ni   -0.20172   -0.23762   -0.02738
 51 Fe    0.02335   -0.05470   -0.29976
 52 Cr    0.00435   -0.40394   -0.97869
 53 Al    0.29328    0.10418    0.23669
 54 Co    0.19751   -0.19337   -0.08938
 55 Cr    0.34859   -0.57547   -0.40367
 56 Ni   -0.16049   -0.09146   -0.06359
 57 Cr   -0.41989   -0.19195    0.21892
 58 Ni   -0.00373   -0.08735   -0.02355
 59 Fe   -0.11566   -0.07360   -0.03018
[...]
 93 Cr   -0.69591    1.49993   -0.33005
 94 Al    0.51927    0.17331   -0.71453
 95 Fe   -0.35908    0.25733   -0.36236
 96 Fe   -0.16744    0.07407   -0.41036
 97 Fe    0.09023   -0.04272    0.24475
 98 Co    0.18053   -0.15772    0.19118
 99 Cr    0.08313    0.55462   -0.02705
100 Co   -0.00442    0.60014    0.25844
101 Fe    0.33034    0.09159   -0.25044
102 Co    0.11048   -0.26327    0.12739
103 Cr   -0.72536    0.21537   -0.14860
104 Co   -0.09407    0.14031   -0.40776
105 Al   -0.54688   -0.20322    0.36591
106 Cr    0.75746   -0.71682    0.19945
107 Ni   -0.30304    0.23516   -0.50868

Date: Sun Apr 16 02:07:55 2023