User:   c.zeng@d0133
Date:   Sat Apr  8 17:38:52 2023
Arch:   x86_64
Pid:    4452
CWD:    /home/c.zeng/projects/hea-corrosion/hea-mlp/data-curation/volume/dft-jobs/99
Python: 3.8.1
gpaw:   /home/c.zeng/usr/installs/gpaw/source/gpaw-22.8.0/gpaw
_gpaw:  /home/c.zeng/usr/installs/gpaw/source/gpaw-22.8.0/
        _gpaw.cpython-38-x86_64-linux-gnu.so
ase:    /home/c.zeng/.local/lib/python3.8/site-packages/ase-3.22.1-py3.8.egg/ase (version 3.22.1)
numpy:  /shared/centos7/python/3.8.1/lib/python3.8/site-packages/numpy (version 1.17.4)
scipy:  /shared/centos7/python/3.8.1/lib/python3.8/site-packages/scipy (version 1.4.1)
units:  Angstrom and eV
cores: 64
OpenMP: False
OMP_NUM_THREADS: 1

Input parameters:
  convergence: {energy: 0.0001}
  kpts: [2 2 2]
  maxiter: 666
  mode: {ecut: 350.0,
         name: pw}
  occupations: {fixmagmom: False,
                name: fermi-dirac,
                width: 0.1}
  spinpol: True
  xc: PBE

System changes: positions, numbers, cell, pbc, initial_charges, initial_magmoms

Initialize ...

species:
  Fe:
    name: Iron
    id: 37abbd8d6c3c35915a9b583b742da910
    Z: 26.0
    valence: 8
    core: 18
    charge: 0.0
    file: /home/c.zeng/usr/data/gpaw-setups-0.9.20000/Fe.PBE.gz
    compensation charges: {type: gauss,
                           rc: 0.33,
                           lmax: 2}
    cutoffs: {filter: 2.06,
              core: 2.67}
    valence states:
      #              energy  rcut
      - 4s(2.00)    -5.291   1.164
      - 4p(0.00)    -1.326   1.058
      - 3d(6.00)    -7.505   1.058
      -  s          21.920   1.164
      -  p          25.885   1.058
      -  d          19.706   1.058

    # Using partial waves for Fe as LCAO basis

  Cr:
    name: Chromium
    id: 33f258bda2ca9f93018e70263a35547b
    Z: 24.0
    valence: 6
    core: 18
    charge: 0.0
    file: /home/c.zeng/usr/data/gpaw-setups-0.9.20000/Cr.PBE.gz
    compensation charges: {type: gauss,
                           rc: 0.35,
                           lmax: 2}
    cutoffs: {filter: 2.14,
              core: 3.04}
    valence states:
      #              energy  rcut
      - 4s(1.00)    -4.007   1.164
      - 4p(0.00)    -0.989   1.217
      - 3d(5.00)    -2.913   1.111
      -  s          23.205   1.164
      -  p          26.223   1.217
      -  d          24.299   1.111

[...]

  Ni:
    name: Nickel
    id: 0d9f38a9d6e76a2886f07bb4381f212b
    Z: 28.0
    valence: 16
    core: 12
    charge: 0.0
    file: /home/c.zeng/usr/data/gpaw-setups-0.9.20000/Ni.PBE.gz
    compensation charges: {type: gauss,
                           rc: 0.36,
                           lmax: 2}
    cutoffs: {filter: 2.14,
              core: 1.98}
    valence states:
      #              energy  rcut
      - 4s(2.00)    -5.642   1.164
      - 3p(6.00)   -71.394   1.207
      - 4p(0.00)    -1.226   1.207
      - 3d(8.00)    -8.875   1.138
      -  s          21.570   1.164
      -  d          18.337   1.138

[...]

  Al:
    name: Aluminium
    id: 0292cae29f5d6237e50f6abdd43a7bdd
    Z: 13.0
    valence: 3
    core: 10
    charge: 0.0
    file: /home/c.zeng/usr/data/gpaw-setups-0.9.20000/Al.PBE.gz
    compensation charges: {type: gauss,
                           rc: 0.34,
                           lmax: 2}
    cutoffs: {filter: 1.91,
              core: 2.36}
    valence states:
      #              energy  rcut
      - 3s(2.00)    -7.753   1.085
      - 3p(1.00)    -2.712   1.085
      -  s          19.459   1.085
      -  p          24.499   1.085
      -  d           0.000   1.085

[...]

  Co:
    name: Cobalt
    id: 339d20d5b0b93d2de9531a1bee871d91
    Z: 27.0
    valence: 9
    core: 18
    charge: 0.0
    file: /home/c.zeng/usr/data/gpaw-setups-0.9.20000/Co.PBE.gz
    compensation charges: {type: gauss,
                           rc: 0.32,
                           lmax: 2}
    cutoffs: {filter: 1.87,
              core: 2.55}
    valence states:
      #              energy  rcut
      - 4s(2.00)    -5.469   1.005
      - 4p(0.00)    -1.277   1.058
      - 3d(7.00)    -8.205   1.005
      -  s          21.742   1.005
      -  p          25.934   1.058
      -  d          19.007   1.005

    # Using partial waves for Co as LCAO basis

Reference energy: -3382523.201499  # eV

Spin-polarized calculation.
Magnetic moment: 128.800000

Convergence criteria:
 Maximum [total energy] change in last 3 cyles: 0.0001 eV / electron
 Maximum integral of absolute [dens]ity change: 0.0001 electrons / valence electron
 Maximum integral of absolute [eigenst]ate change: 4e-08 eV^2 / valence electron
 Maximum number of scf [iter]ations: 666
 (Square brackets indicate name in SCF output, whereas a 'c' in
 the SCF output indicates the quantity has converged.)

Symmetries present (total): 1

  ( 1  0  0)
  ( 0  1  0)
  ( 0  0  1)

8 k-points: 2 x 2 x 2 Monkhorst-Pack grid
4 k-points in the irreducible part of the Brillouin zone
       k-points in crystal coordinates                weights
   0:     0.25000000   -0.25000000   -0.25000000          2/8
   1:     0.25000000   -0.25000000    0.25000000          2/8
   2:     0.25000000    0.25000000   -0.25000000          2/8
   3:     0.25000000    0.25000000    0.25000000          2/8

Wave functions: Plane wave expansion
  Cutoff energy: 350.000 eV
  Number of coefficients (min, max): 18805, 18805
  Pulay-stress correction: 0.000000 eV/Ang^3 (de/decut=0.000000)
  Using FFTW library
  ScaLapack parameters: grid=1x1, blocksize=None
  Wavefunction extrapolation:
    Improved wavefunction reuse through dual PAW basis

Occupation numbers: Fermi-Dirac:
  width: 0.1000  # eV

Eigensolver
   Davidson(niter=2)

Densities:
  Coarse grid: 48*48*48 grid
  Fine grid: 96*96*96 grid
  Total Charge: 0.000000

Density mixing:
  Method: difference
  Backend: pulay
  Linear mixing parameter: 0.05
  old densities: 5
  Damping of long wavelength oscillations: 50

Hamiltonian:
  XC and Coulomb potentials evaluated on a 96*96*96 grid
  Using the PBE Exchange-Correlation functional
  External potential:
    NoExternalPotential

XC parameters: PBE with 2 nearest neighbor stencil

Total number of cores used: 64
Parallelization over k-points: 4
Domain decomposition: 4 x 2 x 2

Number of atoms: 108
Number of atomic orbitals: 961
Number of bands in calculation: 649
Number of valence electrons: 945
Bands to converge: occupied

... initialized

Initializing position-dependent things.

Density initialized from atomic densities
Creating initial wave functions:
  649 bands from LCAO basis set

       /|                    Ni    |
      / |            Cr        NiNi|
     /  |       Al       Ni       Fe
    /   |Cr        Cr     CoCo     Fe
   /i   | CoCo      Co       Fe    |
  /  FeCr    Fe       Cr           |
 *      Co  Co CrNi   FeAlFeFe   Ni|
 |      |CrFe   CrCoAl   FeCrCo   Co
 |   Co NiAlNi   FeAlAl     CrNi   |
 |     Co  Ni FeFe  NiNi Ni  CrCr  |
 |      CoFe   AlFe  Ni AlCo     Fe|
 |      |AlAl   CrFeCo   CrCoCo   Cr
 |      .-CrAl-----FeNi-CoAlCoNi---.
 |     /   Al Cr    FeFe Ni    Cr /
 |    /Cr      CNio     NiCo     /
 |   /  Fe        FCr      Al   /
 |  /      Fe       Co       Cr/
 | / Ni              Cr Ni    /
 |/             Al       Co  /
 *--------Al----------------*

Positions:
   0 Fe    10.810667   10.815338   10.811608    ( 0.0000,  0.0000,  2.0000)
   1 Cr    10.811900    1.802081    1.802264    ( 0.0000,  0.0000,  0.0000)
   2 Ni     1.800307    0.001888    1.807163    ( 0.0000,  0.0000,  1.5000)
   3 Cr     1.798912    1.805465   10.812213    ( 0.0000,  0.0000,  0.0000)
   4 Al     3.603653    0.007718    0.010104    ( 0.0000,  0.0000,  0.0000)
   5 Fe     3.604021    1.802232    1.803530    ( 0.0000,  0.0000,  2.0000)
   6 Ni     5.406415   10.811229    1.808634    ( 0.0000,  0.0000,  1.5000)
   7 Al     5.399559    1.818842    0.009532    ( 0.0000,  0.0000,  0.0000)
   8 Al     7.219060   10.796815    0.008618    ( 0.0000,  0.0000,  0.0000)
   9 Co     7.211469    1.804806    1.806114    ( 0.0000,  0.0000,  2.1000)
  10 Ni     9.013615    0.001355    1.804027    ( 0.0000,  0.0000,  1.5000)
  11 Co     9.015388    1.803897    0.002532    ( 0.0000,  0.0000,  2.1000)
  12 Ni     0.001640    3.601360   10.812137    ( 0.0000,  0.0000,  1.5000)
  13 Cr    10.811391    5.407096    1.802589    ( 0.0000,  0.0000,  0.0000)
  14 Fe     1.800437    3.602507    1.798674    ( 0.0000,  0.0000,  2.0000)
  15 Cr     1.803313    5.405896   10.810905    ( 0.0000,  0.0000,  0.0000)
  16 Co     3.603026    3.606551   10.813219    ( 0.0000,  0.0000,  2.1000)
  17 Cr     3.608573    5.405939    1.795452    ( 0.0000,  0.0000,  0.0000)
  18 Co     5.409032    3.607784    1.802621    ( 0.0000,  0.0000,  2.1000)
  19 Fe     5.406642    5.407399    0.000264    ( 0.0000,  0.0000,  2.0000)
  20 Cr     7.208841    3.606713    0.003858    ( 0.0000,  0.0000,  0.0000)
  21 Fe     7.207836    5.404274    1.801918    ( 0.0000,  0.0000,  2.0000)
  22 Co     9.011019    3.602961    1.804773    ( 0.0000,  0.0000,  2.1000)
  23 Al     9.011820    5.406188   10.814473    ( 0.0000,  0.0000,  0.0000)
  24 Ni    10.812613    7.210755   10.812429    ( 0.0000,  0.0000,  1.5000)
  25 Cr    10.811564    9.011052    1.804481    ( 0.0000,  0.0000,  0.0000)
  26 Cr     1.799129    7.209144    1.801140    ( 0.0000,  0.0000,  0.0000)
  27 Al     1.784952    9.003255    0.006633    ( 0.0000,  0.0000,  0.0000)
  28 Cr     3.608454    7.204473    0.001722    ( 0.0000,  0.0000,  0.0000)
  29 Cr     3.607340    9.012576    1.804827    ( 0.0000,  0.0000,  0.0000)
  30 Fe     5.408577    7.208247    1.798220    ( 0.0000,  0.0000,  2.0000)
  31 Fe     5.408718    9.006943    0.002005    ( 0.0000,  0.0000,  2.0000)
  32 Ni     7.206041    7.211415    0.000910    ( 0.0000,  0.0000,  1.5000)
  33 Cr     7.208084    9.010911    1.800967    ( 0.0000,  0.0000,  0.0000)
  34 Co     9.012458    7.209133    1.802318    ( 0.0000,  0.0000,  2.1000)
  35 Ni     9.013377    9.009830   10.811813    ( 0.0000,  0.0000,  1.5000)
  36 Ni     0.000754   10.812105    3.606043    ( 0.0000,  0.0000,  1.5000)
  37 Co    10.812527    1.800805    5.407929    ( 0.0000,  0.0000,  2.1000)
  38 Co     1.799042   10.811554    5.407593    ( 0.0000,  0.0000,  2.1000)
  39 Cr     1.797420    1.799399    3.603199    ( 0.0000,  0.0000,  0.0000)
  40 Fe     3.604972   10.811121    3.603783    ( 0.0000,  0.0000,  2.0000)
  41 Al     3.604550    1.792413    5.416796    ( 0.0000,  0.0000,  0.0000)
  42 Fe     5.408556   10.811381    5.406934    ( 0.0000,  0.0000,  2.0000)
  43 Ni     5.410902    1.800318    3.602766    ( 0.0000,  0.0000,  1.5000)
  44 Cr     7.208041    0.000934    3.606356    ( 0.0000,  0.0000,  0.0000)
  45 Co     7.210399    1.799269    5.405063    ( 0.0000,  0.0000,  2.1000)
  46 Co     9.012133   10.813716    5.407442    ( 0.0000,  0.0000,  2.1000)
  47 Ni     9.011657    1.803767    3.603945    ( 0.0000,  0.0000,  1.5000)
  48 Ni    10.809986    3.603253    3.605437    ( 0.0000,  0.0000,  1.5000)
  49 Cr    10.810040    5.403528    5.408221    ( 0.0000,  0.0000,  0.0000)
  50 Co     1.797679    3.604529    5.410351    ( 0.0000,  0.0000,  2.1000)
  51 Al     1.784238    5.400392    3.596992    ( 0.0000,  0.0000,  0.0000)
[...]
iter:  46 18:17:37  -825.473238c -4.06  -2.99    +67.1470
iter:  47 18:18:23  -825.465478c -4.88  -2.92    +67.2580
iter:  48 18:19:11  -825.468937c -4.97  -3.01    +67.2689
iter:  49 18:19:58  -825.470935c -5.19  -3.02    +67.2551
iter:  50 18:20:46  -825.479465c -4.33  -3.03    +67.2499
iter:  51 18:21:34  -825.461235c -4.34  -2.95    +67.2374
iter:  52 18:22:21  -825.455105c -4.96  -3.10    +67.0096
iter:  53 18:23:08  -825.454643c -4.94  -3.20    +66.8644
iter:  54 18:23:56  -825.455380c -5.10  -3.25    +66.8272
iter:  55 18:24:44  -825.457700c -5.06  -3.26    +66.7543
iter:  56 18:25:32  -825.461552c -4.83  -3.29    +66.6954
iter:  57 18:26:20  -825.455478c -4.94  -3.23    +66.6205
iter:  58 18:27:07  -825.462722c -4.90  -3.40    +66.5897
iter:  59 18:27:55  -825.455927c -5.30  -3.28    +66.5736
iter:  60 18:28:44  -825.457465c -5.36  -3.56    +66.5038
iter:  61 18:29:31  -825.456737c -5.66  -3.48    +66.4909
iter:  62 18:30:19  -825.458485c -5.68  -3.56    +66.4547
iter:  63 18:31:06  -825.459419c -5.71  -3.60    +66.4246
iter:  64 18:31:53  -825.459855c -5.74  -3.61    +66.3863
iter:  65 18:32:41  -825.460671c -5.89  -3.61    +66.3454
iter:  66 18:33:29  -825.462558c -5.85  -3.66    +66.3103
iter:  67 18:34:18  -825.463603c -5.89  -3.68    +66.2885
iter:  68 18:35:05  -825.464061c -5.95  -3.68    +66.2540
iter:  69 18:35:54  -825.465733c -5.77  -3.72    +66.2131
iter:  70 18:36:42  -825.466989c -5.90  -3.68    +66.1997
iter:  71 18:37:29  -825.469439c -5.51  -3.82    +66.1660
iter:  72 18:38:19  -825.469000c -5.81  -3.65    +66.1497
iter:  73 18:39:15  -825.471281c -5.67  -3.83    +66.0977
iter:  74 18:40:21  -825.473139c -5.94  -3.91    +66.0835
iter:  75 18:41:21  -825.474740c -5.95  -3.91    +66.0589
iter:  76 18:42:16  -825.475797c -6.20  -3.92    +66.0290
iter:  77 18:43:05  -825.477699c -6.09  -4.01c   +65.9965
iter:  78 18:43:57  -825.473807c -5.62  -3.88    +66.0792
iter:  79 18:44:44  -825.471301c -5.52  -3.99    +66.1358
iter:  80 18:45:31  -825.475232c -5.66  -3.96    +66.0545
iter:  81 18:46:18  -825.472726c -5.86  -4.09c   +66.1184
iter:  82 18:47:07  -825.477169c -5.52  -4.03c   +66.0183
iter:  83 18:47:58  -825.476607c -6.29  -4.13c   +66.0322
iter:  84 18:48:49  -825.479482c -5.80  -4.00    +65.9914
iter:  85 18:49:36  -825.478670c -6.42  -4.18c   +66.0040
iter:  86 18:50:24  -825.481744c -5.83  -4.07c   +65.9690
iter:  87 18:51:11  -825.479253c -6.20  -4.18c   +66.0067
iter:  88 18:51:59  -825.472042c -5.05  -4.27c   +66.1171
iter:  89 18:52:50  -825.463382c -4.57  -4.21c   +66.2953
iter:  90 18:53:38  -825.457914c -4.28  -3.82    +66.5380
iter:  91 18:54:25  -825.459081c -5.21  -3.55    +66.5641
iter:  92 18:55:12  -825.459340c -5.45  -3.52    +66.5976
iter:  93 18:56:01  -825.459854c -5.93  -3.53    +66.5914
iter:  94 18:56:48  -825.459658c -5.39  -3.53    +66.5689
iter:  95 18:57:37  -825.460121c -5.42  -3.59    +66.5828
iter:  96 18:58:25  -825.464878c -4.81  -3.42    +66.5406
iter:  97 18:59:12  -825.464182c -4.68  -3.24    +66.5603
iter:  98 19:00:04  -825.457797c -5.13  -3.31    +66.4556
iter:  99 19:01:06  -825.457399c -5.49  -3.63    +66.3879
iter: 100 19:02:06  -825.458501c -5.69  -3.75    +66.3855
iter: 101 19:03:02  -825.460586c -5.27  -3.79    +66.3793
iter: 102 19:03:56  -825.460666c -5.77  -3.74    +66.4109
iter: 103 19:04:47  -825.460968c -5.94  -3.83    +66.3963
iter: 104 19:05:38  -825.462241c -5.90  -3.87    +66.3832
iter: 105 19:06:27  -825.461769c -6.52  -3.80    +66.3803
iter: 106 19:07:17  -825.462201c -6.00  -3.88    +66.3730
iter: 107 19:08:09  -825.462378c -5.89  -3.90    +66.3613
iter: 108 19:09:14  -825.462490c -6.06  -4.02c   +66.3513
iter: 109 19:10:12  -825.462828c -6.46  -4.09c   +66.3496
iter: 110 19:11:07  -825.463148c -6.41  -4.22c   +66.3394
iter: 111 19:11:58  -825.463611c -6.32  -4.25c   +66.3323
iter: 112 19:12:47  -825.462720c -6.07  -4.22c   +66.3504
iter: 113 19:13:38  -825.463278c -6.57  -4.28c   +66.3416
iter: 114 19:14:27  -825.462808c -6.74  -4.23c   +66.3511
iter: 115 19:15:15  -825.463104c -6.77  -4.30c   +66.3471
iter: 116 19:16:02  -825.463099c -6.60  -4.16c   +66.3356
iter: 117 19:16:52  -825.463630c -6.64  -4.15c   +66.3440
iter: 118 19:17:40  -825.464164c -6.27  -4.09c   +66.3301
iter: 119 19:18:29  -825.464020c -7.05  -4.05c   +66.3326
iter: 120 19:19:17  -825.465238c -6.06  -4.05c   +66.3173
iter: 121 19:20:07  -825.460910c -4.79  -3.91    +66.3805
iter: 122 19:20:57  -825.459769c -5.25  -4.32c   +66.3967
iter: 123 19:21:46  -825.459592c -6.16  -4.13c   +66.3827
iter: 124 19:22:36  -825.460073c -6.61  -4.24c   +66.3790
iter: 125 19:23:24  -825.459793c -6.67  -4.40c   +66.3827
iter: 126 19:24:13  -825.460281c -6.36  -4.30c   +66.3757
iter: 127 19:25:04  -825.459738c -6.58  -4.36c   +66.3769
iter: 128 19:25:52  -825.459968c -7.13  -4.47c   +66.3658
iter: 129 19:26:44  -825.460132c -6.94  -4.40c   +66.3727
iter: 130 19:27:31  -825.460780c -6.20  -4.57c   +66.3676
iter: 131 19:28:19  -825.460349c -6.76  -4.50c   +66.3690
iter: 132 19:29:08  -825.459218c -5.40  -4.65c   +66.3668
iter: 133 19:29:57  -825.459552c -6.33  -4.10c   +66.3656
iter: 134 19:30:46  -825.462340c -5.18  -4.07c   +66.3537
iter: 135 19:31:36  -825.463397c -5.60  -3.82    +66.3486
iter: 136 19:32:26  -825.461935c -5.97  -3.78    +66.3547
iter: 137 19:33:15  -825.462759c -6.09  -3.86    +66.3523
iter: 138 19:34:05  -825.461577c -6.36  -3.83    +66.3552
iter: 139 19:34:55  -825.461907c -6.01  -3.91    +66.3579
iter: 140 19:35:43  -825.461803c -6.38  -3.83    +66.3636
iter: 141 19:36:32  -825.462546c -5.80  -3.90    +66.3626
iter: 142 19:37:21  -825.462108c -6.30  -3.83    +66.3785
iter: 143 19:38:08  -825.462827c -5.80  -4.01c   +66.3928
iter: 144 19:38:56  -825.462507c -6.23  -3.84    +66.3712
iter: 145 19:39:46  -825.463636c -5.93  -4.18c   +66.3518
iter: 146 19:40:35  -825.464687c -5.69  -4.04c   +66.3144
iter: 147 19:41:26  -825.467733c -5.11  -3.92    +66.2620
iter: 148 19:42:14  -825.462987c -4.97  -3.70    +66.3290
iter: 149 19:43:02  -825.465643c -5.74  -4.12c   +66.3037
iter: 150 19:43:51  -825.463376c -5.53  -3.84    +66.3243
iter: 151 19:44:40  -825.473819c -4.60  -4.03c   +66.2788
iter: 152 19:45:29  -825.455367c -3.99  -3.54    +66.3482
iter: 153 19:46:20  -825.457174c -5.33  -3.77    +66.3551
iter: 154 19:47:10  -825.457890c -5.97  -3.83    +66.3348
iter: 155 19:47:59  -825.457201c -6.28  -4.07c   +66.3437
iter: 156 19:48:48  -825.458067c -6.28  -3.96    +66.3438
iter: 157 19:49:38  -825.460981c -5.33  -4.09c   +66.3555
iter: 158 19:50:32  -825.461867c -5.91  -4.42c   +66.3587
iter: 159 19:51:19  -825.465032c -5.29  -4.26c   +66.3722
iter: 160 19:52:10  -825.456352c -4.51  -3.90    +66.3229
iter: 161 19:52:59  -825.451775c -4.43  -3.93    +66.2711
iter: 162 19:53:48  -825.459878c -4.43  -3.53    +66.3482
iter: 163 19:54:39  -825.455967c -5.49  -4.59c   +66.3070
iter: 164 19:55:31  -825.453456c -5.17  -3.89    +66.2598
iter: 165 19:56:20  -825.455849c -5.55  -3.66    +66.2896
iter: 166 19:57:12  -825.476276c -3.83  -3.87    +66.4707
iter: 167 19:58:09  -825.457631c -4.23  -3.47    +66.3062
iter: 168 19:59:00  -825.459268c -6.10  -4.10c   +66.3148
iter: 169 19:59:53  -825.457448c -5.65  -4.31c   +66.2993
iter: 170 20:00:45  -825.462113c -5.04  -4.05c   +66.3335
iter: 171 20:01:37  -825.464548c -5.34  -4.10c   +66.3460
iter: 172 20:02:28  -825.458622c -4.87  -3.88    +66.2930
iter: 173 20:03:20  -825.465860c -4.77  -4.10c   +66.3584
iter: 174 20:04:13  -825.463556c -5.98  -3.79    +66.3446
iter: 175 20:05:04  -825.465262c -5.98  -3.97    +66.3671
iter: 176 20:05:54  -825.464419c -6.71  -3.81    +66.3645
iter: 177 20:06:45  -825.465570c -6.22  -3.84    +66.3605
iter: 178 20:07:39  -825.465241c -5.97  -3.85    +66.3697
iter: 179 20:08:28  -825.466446c -5.60  -3.70    +66.3614
iter: 180 20:09:20  -825.469823c -5.19  -3.58    +66.3717
iter: 181 20:10:10  -825.466005c -5.46  -3.44    +66.4108
iter: 182 20:10:59  -825.468042c -5.06  -3.78    +66.4280
iter: 183 20:11:51  -825.465231c -5.46  -3.48    +66.4089
iter: 184 20:12:43  -825.465150c -6.04  -3.73    +66.4033
iter: 185 20:13:36  -825.465665c -6.24  -4.04c   +66.3941
iter: 186 20:14:32  -825.466283c -5.97  -4.03c   +66.3810
iter: 187 20:15:25  -825.466141c -6.60  -4.01c   +66.3813
iter: 188 20:16:16  -825.466262c -6.30  -4.07c   +66.3643
iter: 189 20:17:10  -825.466554c -6.63  -4.03c   +66.3559
iter: 190 20:18:04  -825.466916c -6.49  -4.10c   +66.3463
iter: 191 20:18:54  -825.466788c -6.58  -4.04c   +66.3632
iter: 192 20:19:47  -825.467144c -6.28  -4.04c   +66.3452
iter: 193 20:20:39  -825.466963c -6.54  -4.05c   +66.3460
iter: 194 20:21:32  -825.467133c -6.07  -3.99    +66.3290
iter: 195 20:22:23  -825.467519c -6.39  -4.20c   +66.3210
iter: 196 20:23:15  -825.467668c -6.36  -4.26c   +66.3173
iter: 197 20:24:06  -825.468301c -6.37  -4.14c   +66.3159
iter: 198 20:24:58  -825.468074c -6.70  -4.17c   +66.3162
iter: 199 20:25:51  -825.468360c -6.57  -4.27c   +66.3044
iter: 200 20:26:45  -825.468277c -7.05  -4.27c   +66.3083
iter: 201 20:27:35  -825.469075c -5.99  -4.23c   +66.2791
iter: 202 20:28:29  -825.467144c -5.16  -4.10c   +66.3671
iter: 203 20:29:18  -825.467227c -6.19  -4.33c   +66.3722
iter: 204 20:30:07  -825.467383c -6.70  -4.31c   +66.3598
iter: 205 20:30:59  -825.467614c -6.53  -4.42c   +66.3418
iter: 206 20:31:49  -825.467973c -6.63  -4.47c   +66.3381
iter: 207 20:32:40  -825.467859c -7.54c -4.42c   +66.3380

Converged after 207 iterations.

Dipole moment: (0.837347, 0.852013, -1.320481) |e|*Ang

Total magnetic moment: (0.000000, 0.000000, 66.338027)
Local magnetic moments:
   0 Fe ( 0.000000,  0.000000,  2.191230)
   1 Cr ( 0.000000,  0.000000,  1.748060)
   2 Ni ( 0.000000,  0.000000, -0.004490)
   3 Cr ( 0.000000,  0.000000, -1.971513)
   4 Al ( 0.000000,  0.000000, -0.013077)
   5 Fe ( 0.000000,  0.000000,  2.184486)
   6 Ni ( 0.000000,  0.000000,  0.190212)
   7 Al ( 0.000000,  0.000000, -0.016768)
   8 Al ( 0.000000,  0.000000, -0.015593)
   9 Co ( 0.000000,  0.000000,  1.406640)
  10 Ni ( 0.000000,  0.000000,  0.206816)
  11 Co ( 0.000000,  0.000000,  1.139212)
  12 Ni ( 0.000000,  0.000000,  0.276236)
  13 Cr ( 0.000000,  0.000000,  1.359888)
  14 Fe ( 0.000000,  0.000000,  1.538932)
  15 Cr ( 0.000000,  0.000000, -1.634217)
  16 Co ( 0.000000,  0.000000,  0.834692)
  17 Cr ( 0.000000,  0.000000,  0.103555)
  18 Co ( 0.000000,  0.000000,  1.119139)
  19 Fe ( 0.000000,  0.000000,  1.952628)
  20 Cr ( 0.000000,  0.000000, -1.982276)
  21 Fe ( 0.000000,  0.000000,  2.401647)
  22 Co ( 0.000000,  0.000000,  1.101130)
  23 Al ( 0.000000,  0.000000, -0.029323)
  24 Ni ( 0.000000,  0.000000,  0.214376)
  25 Cr ( 0.000000,  0.000000, -1.267478)
  26 Cr ( 0.000000,  0.000000,  0.652389)
  27 Al ( 0.000000,  0.000000, -0.012857)
  28 Cr ( 0.000000,  0.000000, -0.845342)
  29 Cr ( 0.000000,  0.000000, -1.728270)
  30 Fe ( 0.000000,  0.000000,  1.794606)
  31 Fe ( 0.000000,  0.000000,  1.394695)
  32 Ni ( 0.000000,  0.000000,  0.271291)
  33 Cr ( 0.000000,  0.000000,  1.584240)
  34 Co ( 0.000000,  0.000000,  0.955242)
  35 Ni ( 0.000000,  0.000000,  0.332435)
  36 Ni ( 0.000000,  0.000000,  0.155249)
  37 Co ( 0.000000,  0.000000,  1.633205)
  38 Co ( 0.000000,  0.000000,  1.309189)
  39 Cr ( 0.000000,  0.000000, -1.919913)
  40 Fe ( 0.000000,  0.000000,  2.203656)
  41 Al ( 0.000000,  0.000000, -0.038138)
  42 Fe ( 0.000000,  0.000000,  2.275435)
  43 Ni ( 0.000000,  0.000000,  0.376257)
  44 Cr ( 0.000000,  0.000000, -1.826480)
  45 Co ( 0.000000,  0.000000,  1.530567)
  46 Co ( 0.000000,  0.000000,  1.418186)
  47 Ni ( 0.000000,  0.000000,  0.435772)
  48 Ni ( 0.000000,  0.000000,  0.308560)
  49 Cr ( 0.000000,  0.000000,  1.606787)
  50 Co ( 0.000000,  0.000000,  0.899298)
  51 Al ( 0.000000,  0.000000, -0.028007)
  52 Al ( 0.000000,  0.000000, -0.035642)
  53 Fe ( 0.000000,  0.000000,  1.906990)
  54 Fe ( 0.000000,  0.000000,  2.333917)
  55 Fe ( 0.000000,  0.000000,  2.115095)
  56 Ni ( 0.000000,  0.000000,  0.561975)
  57 Ni ( 0.000000,  0.000000,  0.167762)
  58 Co ( 0.000000,  0.000000,  1.308474)
  59 Co ( 0.000000,  0.000000,  0.970977)
[...]
  93 Cr ( 0.000000,  0.000000,  1.513834)
  94 Fe ( 0.000000,  0.000000,  2.110275)
  95 Cr ( 0.000000,  0.000000, -1.507590)
  96 Ni ( 0.000000,  0.000000,  0.212618)
  97 Fe ( 0.000000,  0.000000,  2.533660)
  98 Co ( 0.000000,  0.000000,  0.335068)
  99 Ni ( 0.000000,  0.000000,  0.380391)
 100 Cr ( 0.000000,  0.000000,  1.297269)
 101 Al ( 0.000000,  0.000000, -0.013497)
 102 Cr ( 0.000000,  0.000000, -0.446486)
 103 Co ( 0.000000,  0.000000,  0.737276)
 104 Al ( 0.000000,  0.000000, -0.025322)
 105 Ni ( 0.000000,  0.000000,  0.281441)
 106 Co ( 0.000000,  0.000000,  1.193947)
 107 Fe ( 0.000000,  0.000000,  2.345629)

Energy contributions relative to reference atoms: (reference = -3382523.201499)

Kinetic:       +224.265529
Potential:     -232.279229
External:        +0.000000
XC:            -848.745019
Entropy (-ST):   -4.252534
Local:          +33.417127
Free energy:   -827.594126
Extrapolated:  -825.467859

Spin contamination: 26.644852 electrons
Showing only first 2 kpts
                      Up                     Down
 Kpt  Band  Eigenvalues  Occupancy  Eigenvalues  Occupancy
  0   470      9.11535    0.99705     10.09233    0.01897
  0   471      9.11987    0.99692     10.10175    0.01730
  0   472      9.13193    0.99652     10.11546    0.01512
  0   473      9.14609    0.99600     10.12734    0.01344

  1   470      9.12176    0.99686     10.08589    0.02021
  1   471      9.13635    0.99637     10.09967    0.01766
  1   472      9.14542    0.99602     10.11039    0.01589
  1   473      9.15099    0.99580     10.13317    0.01269

Fermi level: 9.69778

No gap

Forces in eV/Ang:
  0 Fe   -0.38255    0.16514   -0.33370
  1 Cr   -0.12280    0.08386    0.06901
  2 Ni   -0.05837   -0.13104    0.04192
  3 Cr   -0.49744    0.78455    0.06088
  4 Al   -0.05479    0.08127    0.46098
  5 Fe   -0.31302    0.45268    0.15120
  6 Ni   -0.03043    0.29078    0.14649
  7 Al   -0.47213    0.91400    0.65898
  8 Al    0.97712   -0.49470    0.35558
  9 Co    0.35058    0.45231    0.20451
 10 Ni    0.14895    0.04985    0.04075
 11 Co    0.10904    0.28077    0.25224
 12 Ni    0.10655   -0.24585   -0.11939
 13 Cr   -0.22273   -0.04157    0.29624
 14 Fe    0.24663   -0.05429   -0.40056
 15 Cr   -0.21388   -0.44568   -0.42728
 16 Co   -0.34884    0.41951    0.07158
 17 Cr    0.19066    0.00742   -1.24208
 18 Co    0.20582   -0.06285    0.15445
 19 Fe   -0.33678   -0.09232    0.31022
 20 Cr    0.36064    0.66424    0.56167
 21 Fe    0.00259   -0.32020   -0.04748
 22 Co   -0.14718   -0.22735    0.11853
 23 Al    0.34722    0.55478    0.11890
 24 Ni   -0.17978    0.05928   -0.02749
 25 Cr   -0.59628   -0.27317    0.48444
 26 Cr   -0.22407    0.13470   -0.06085
 27 Al   -1.01107   -0.08078   -0.31622
 28 Cr    0.54206   -0.60490    0.02724
 29 Cr    0.50021    0.04459    0.52088
 30 Fe   -0.09873    0.00044   -0.37458
 31 Fe   -0.16008   -0.34077   -0.06138
 32 Ni   -0.08854    0.26679   -0.12025
 33 Cr    0.19065   -0.22769    0.14433
 34 Co    0.38502    0.28405    0.14346
 35 Ni    0.12629   -0.22427    0.14756
 36 Ni   -0.12139   -0.09744    0.09115
 37 Co    0.08256    0.17675    0.01938
 38 Co   -0.15437   -0.29655    0.03755
 39 Cr   -1.06416   -0.21602   -0.57812
 40 Fe   -0.06298   -0.37556   -0.27545
 41 Al   -0.06945   -0.10937    0.62428
 42 Fe    0.37728   -0.27910   -0.07428
 43 Ni    0.11628    0.10936   -0.12048
 44 Cr   -0.13904    0.15369    0.19352
 45 Co   -0.09668   -0.14656   -0.00715
 46 Co   -0.00795   -0.04494   -0.21490
 47 Ni   -0.08279   -0.03034    0.01536
 48 Ni   -0.04786   -0.07329    0.08637
 49 Cr   -0.78721   -0.56441    0.27663
 50 Co   -0.10214   -0.19543    0.07631
 51 Al   -0.76219   -0.83899    0.07794
 52 Al    0.60734   -0.02590   -0.12496
 53 Fe   -0.08432   -0.17051   -0.10215
 54 Fe    0.31846    0.17034   -0.04130
 55 Fe    0.08870   -0.39246   -0.40645
 56 Ni    0.13630   -0.15215   -0.09007
 57 Ni    0.02956    0.06782   -0.19293
 58 Co    0.23774   -0.02945   -0.23586
 59 Co    0.11259   -0.19367    0.06250
[...]
 93 Cr   -0.44258    0.27968    0.08132
 94 Fe    0.74701   -0.48493   -0.08514
 95 Cr    1.09633    0.09308    0.00918
 96 Ni   -0.13876    0.05668    0.22743
 97 Fe   -0.06582   -0.12419   -0.25327
 98 Co   -0.10017   -0.22304    0.09312
 99 Ni   -0.08329    0.07265    0.07393
100 Cr    0.06503   -0.22916    0.35680
101 Al   -0.34875   -0.18255   -0.81257
102 Cr    0.12113   -0.05100    0.46621
103 Co    0.36745    0.28486    0.22416
104 Al   -0.00878    0.33976    0.36640
105 Ni    0.01561   -0.04751   -0.07741
106 Co    0.13853    0.18200   -0.00505
107 Fe    0.11401    0.13956   -0.09571

Date: Sat Apr  8 20:32:53 2023