User:   c.zeng@d0134
Date:   Sat Apr  8 12:32:45 2023
Arch:   x86_64
Pid:    66176
CWD:    /home/c.zeng/projects/hea-corrosion/hea-mlp/data-curation/volume/dft-jobs/65
Python: 3.8.1
gpaw:   /home/c.zeng/usr/installs/gpaw/source/gpaw-22.8.0/gpaw
_gpaw:  /home/c.zeng/usr/installs/gpaw/source/gpaw-22.8.0/
        _gpaw.cpython-38-x86_64-linux-gnu.so
ase:    /home/c.zeng/.local/lib/python3.8/site-packages/ase-3.22.1-py3.8.egg/ase (version 3.22.1)
numpy:  /shared/centos7/python/3.8.1/lib/python3.8/site-packages/numpy (version 1.17.4)
scipy:  /shared/centos7/python/3.8.1/lib/python3.8/site-packages/scipy (version 1.4.1)
units:  Angstrom and eV
cores: 64
OpenMP: False
OMP_NUM_THREADS: 1

Input parameters:
  convergence: {energy: 0.0001}
  kpts: [2 2 2]
  maxiter: 666
  mode: {ecut: 350.0,
         name: pw}
  occupations: {fixmagmom: False,
                name: fermi-dirac,
                width: 0.1}
  spinpol: True
  xc: PBE

System changes: positions, numbers, cell, pbc, initial_charges, initial_magmoms

Initialize ...

species:
  Co:
    name: Cobalt
    id: 339d20d5b0b93d2de9531a1bee871d91
    Z: 27.0
    valence: 9
    core: 18
    charge: 0.0
    file: /home/c.zeng/usr/data/gpaw-setups-0.9.20000/Co.PBE.gz
    compensation charges: {type: gauss,
                           rc: 0.32,
                           lmax: 2}
    cutoffs: {filter: 1.87,
              core: 2.55}
    valence states:
      #              energy  rcut
      - 4s(2.00)    -5.469   1.005
      - 4p(0.00)    -1.277   1.058
      - 3d(7.00)    -8.205   1.005
      -  s          21.742   1.005
      -  p          25.934   1.058
      -  d          19.007   1.005

    # Using partial waves for Co as LCAO basis

  Ni:
    name: Nickel
    id: 0d9f38a9d6e76a2886f07bb4381f212b
    Z: 28.0
    valence: 16
    core: 12
    charge: 0.0
    file: /home/c.zeng/usr/data/gpaw-setups-0.9.20000/Ni.PBE.gz
    compensation charges: {type: gauss,
                           rc: 0.36,
                           lmax: 2}
    cutoffs: {filter: 2.14,
              core: 1.98}
    valence states:
      #              energy  rcut
      - 4s(2.00)    -5.642   1.164
      - 3p(6.00)   -71.394   1.207
      - 4p(0.00)    -1.226   1.207
      - 3d(8.00)    -8.875   1.138
      -  s          21.570   1.164
      -  d          18.337   1.138

[...]

  Al:
    name: Aluminium
    id: 0292cae29f5d6237e50f6abdd43a7bdd
    Z: 13.0
    valence: 3
    core: 10
    charge: 0.0
    file: /home/c.zeng/usr/data/gpaw-setups-0.9.20000/Al.PBE.gz
    compensation charges: {type: gauss,
                           rc: 0.34,
                           lmax: 2}
    cutoffs: {filter: 1.91,
              core: 2.36}
    valence states:
      #              energy  rcut
      - 3s(2.00)    -7.753   1.085
      - 3p(1.00)    -2.712   1.085
      -  s          19.459   1.085
      -  p          24.499   1.085
      -  d           0.000   1.085

[...]

  Cr:
    name: Chromium
    id: 33f258bda2ca9f93018e70263a35547b
    Z: 24.0
    valence: 6
    core: 18
    charge: 0.0
    file: /home/c.zeng/usr/data/gpaw-setups-0.9.20000/Cr.PBE.gz
    compensation charges: {type: gauss,
                           rc: 0.35,
                           lmax: 2}
    cutoffs: {filter: 2.14,
              core: 3.04}
    valence states:
      #              energy  rcut
      - 4s(1.00)    -4.007   1.164
      - 4p(0.00)    -0.989   1.217
      - 3d(5.00)    -2.913   1.111
      -  s          23.205   1.164
      -  p          26.223   1.217
      -  d          24.299   1.111

[...]

  Fe:
    name: Iron
    id: 37abbd8d6c3c35915a9b583b742da910
    Z: 26.0
    valence: 8
    core: 18
    charge: 0.0
    file: /home/c.zeng/usr/data/gpaw-setups-0.9.20000/Fe.PBE.gz
    compensation charges: {type: gauss,
                           rc: 0.33,
                           lmax: 2}
    cutoffs: {filter: 2.06,
              core: 2.67}
    valence states:
      #              energy  rcut
      - 4s(2.00)    -5.291   1.164
      - 4p(0.00)    -1.326   1.058
      - 3d(6.00)    -7.505   1.058
      -  s          21.920   1.164
      -  p          25.885   1.058
      -  d          19.706   1.058

    # Using partial waves for Fe as LCAO basis

Reference energy: -3548577.034362  # eV

Spin-polarized calculation.
Magnetic moment: 136.400000

Convergence criteria:
 Maximum [total energy] change in last 3 cyles: 0.0001 eV / electron
 Maximum integral of absolute [dens]ity change: 0.0001 electrons / valence electron
 Maximum integral of absolute [eigenst]ate change: 4e-08 eV^2 / valence electron
 Maximum number of scf [iter]ations: 666
 (Square brackets indicate name in SCF output, whereas a 'c' in
 the SCF output indicates the quantity has converged.)

Symmetries present (total): 1

  ( 1  0  0)
  ( 0  1  0)
  ( 0  0  1)

8 k-points: 2 x 2 x 2 Monkhorst-Pack grid
4 k-points in the irreducible part of the Brillouin zone
       k-points in crystal coordinates                weights
   0:     0.25000000   -0.25000000   -0.25000000          2/8
   1:     0.25000000   -0.25000000    0.25000000          2/8
   2:     0.25000000    0.25000000   -0.25000000          2/8
   3:     0.25000000    0.25000000    0.25000000          2/8

Wave functions: Plane wave expansion
  Cutoff energy: 350.000 eV
  Number of coefficients (min, max): 25080, 25080
  Pulay-stress correction: 0.000000 eV/Ang^3 (de/decut=0.000000)
  Using FFTW library
  ScaLapack parameters: grid=1x1, blocksize=None
  Wavefunction extrapolation:
    Improved wavefunction reuse through dual PAW basis

Occupation numbers: Fermi-Dirac:
  width: 0.1000  # eV

Eigensolver
   Davidson(niter=2)

Densities:
  Coarse grid: 54*54*54 grid
  Fine grid: 108*108*108 grid
  Total Charge: 0.000000

Density mixing:
  Method: difference
  Backend: pulay
  Linear mixing parameter: 0.05
  old densities: 5
  Damping of long wavelength oscillations: 50

Hamiltonian:
  XC and Coulomb potentials evaluated on a 108*108*108 grid
  Using the PBE Exchange-Correlation functional
  External potential:
    NoExternalPotential

XC parameters: PBE with 2 nearest neighbor stencil

Total number of cores used: 64
Parallelization over k-points: 4
Domain decomposition: 4 x 2 x 2

Number of atoms: 108
Number of atomic orbitals: 994
Number of bands in calculation: 674
Number of valence electrons: 980
Bands to converge: occupied

... initialized

Initializing position-dependent things.

Density initialized from atomic densities
Creating initial wave functions:
  674 bands from LCAO basis set

       /|   Cr       Fe              |
      / |      Fe        Fe          |
     /  |          Co           Al   |
    /   |Al      Ni       Ni        Ni
   /    Al NiCr     Fe     Ni FeCo   |
  /  CoCr   CoFe     Co Ni     Fe    |
 *      Ni Cr  Co Al     CoCr Co   Co|
 |Co    |Fe Fe     CoCr         Al   |
 |      |       Co        Cr Cr     Ni
 | Cr Co|  CrCo Fe  Co Fe     Fe     |
 |   FeFe   NiNi Cr  Cr CoNi   Ni    |
 |      Fe Fe  Co Co     CrCr      Ni|
 |Ni    |Ni Ni     CrCo      Fe      |
 |    Co|       Coi       Cr        Al
 |      .--NiNi-----Co-Cr-----FeCr---.
 |     Ni     Cr Ni     CrNi   CrFe /
 |    / Al Co     AlCr     Cr Ni   Fe
 |   /      Fe       Fe      CrNi /
 |  / Al                 Fe      /
 | /            Fe     Co       /
 |/              Fe       Al   /
 *------------------Cr--------*

Positions:
   0 Co    -0.000001    0.000001   -0.000001    ( 0.0000,  0.0000,  2.1000)
   1 Ni    -0.000006    1.984492    1.984504    ( 0.0000,  0.0000,  1.5000)
   2 Al     1.984504    0.000013    1.984504    ( 0.0000,  0.0000,  0.0000)
   3 Cr     1.984504    1.984504   -0.000008    ( 0.0000,  0.0000,  0.0000)
   4 Cr     3.969008    0.000005   -0.000003    ( 0.0000,  0.0000,  0.0000)
   5 Fe     3.969008    1.984492    1.984504    ( 0.0000,  0.0000,  2.0000)
   6 Fe     5.953500    0.000007    1.984492    ( 0.0000,  0.0000,  2.0000)
   7 Fe     5.953500    1.984492    0.000004    ( 0.0000,  0.0000,  2.0000)
   8 Cr     7.937992    0.000001    0.000009    ( 0.0000,  0.0000,  0.0000)
   9 Fe     7.937992    1.984492    1.984504    ( 0.0000,  0.0000,  2.0000)
  10 Fe     9.922496    0.000003    1.984504    ( 0.0000,  0.0000,  2.0000)
  11 Al     9.922496    1.984504    0.000021    ( 0.0000,  0.0000,  0.0000)
  12 Co    -0.000002    3.969008   -0.000001    ( 0.0000,  0.0000,  2.1000)
  13 Fe    -0.000003    5.953512    1.984504    ( 0.0000,  0.0000,  2.0000)
  14 Al     1.984492    3.968996    1.984516    ( 0.0000,  0.0000,  0.0000)
  15 Al     1.984492    5.953512   -0.000012    ( 0.0000,  0.0000,  0.0000)
  16 Cr     3.969008    3.968996   -0.000006    ( 0.0000,  0.0000,  0.0000)
  17 Cr     3.969008    5.953512    1.984504    ( 0.0000,  0.0000,  0.0000)
  18 Al     5.953500    3.968984    1.984492    ( 0.0000,  0.0000,  0.0000)
  19 Co     5.953500    5.953512   -0.000005    ( 0.0000,  0.0000,  2.1000)
  20 Co     7.937992    3.968996    0.000001    ( 0.0000,  0.0000,  2.1000)
  21 Cr     7.938004    5.953512    1.984492    ( 0.0000,  0.0000,  0.0000)
  22 Cr     9.922496    3.969008    1.984504    ( 0.0000,  0.0000,  0.0000)
  23 Cr     9.922508    5.953512    0.000003    ( 0.0000,  0.0000,  0.0000)
  24 Fe    -0.000003    7.937992    0.000001    ( 0.0000,  0.0000,  2.0000)
  25 Al    -0.000020    9.922484    1.984504    ( 0.0000,  0.0000,  0.0000)
  26 Ni     1.984504    7.937992    1.984504    ( 0.0000,  0.0000,  1.5000)
  27 Cr     1.984504    9.922496   -0.000008    ( 0.0000,  0.0000,  0.0000)
  28 Fe     3.969008    7.938004   -0.000003    ( 0.0000,  0.0000,  2.0000)
  29 Ni     3.969008    9.922496    1.984504    ( 0.0000,  0.0000,  1.5000)
  30 Co     5.953500    7.938004    1.984492    ( 0.0000,  0.0000,  2.1000)
  31 Fe     5.953500    9.922496   -0.000002    ( 0.0000,  0.0000,  2.0000)
  32 Fe     7.938004    7.938004   -0.000002    ( 0.0000,  0.0000,  2.0000)
  33 Cr     7.938004    9.922496    1.984492    ( 0.0000,  0.0000,  0.0000)
  34 Fe     9.922508    7.937992    1.984504    ( 0.0000,  0.0000,  2.0000)
  35 Cr     9.922496    9.922496    0.000002    ( 0.0000,  0.0000,  0.0000)
  36 Ni    -0.000002    0.000003    3.968996    ( 0.0000,  0.0000,  1.5000)
  37 Ni     0.000007    1.984504    5.953500    ( 0.0000,  0.0000,  1.5000)
  38 Co     1.984504    0.000002    5.953500    ( 0.0000,  0.0000,  2.1000)
  39 Ni     1.984504    1.984504    3.969008    ( 0.0000,  0.0000,  1.5000)
  40 Co     3.969008    0.000002    3.968996    ( 0.0000,  0.0000,  2.1000)
  41 Ni     3.968996    1.984504    5.953500    ( 0.0000,  0.0000,  1.5000)
  42 Co     5.953500    0.000001    5.953500    ( 0.0000,  0.0000,  2.1000)
  43 Ni     5.953500    1.984492    3.968996    ( 0.0000,  0.0000,  1.5000)
  44 Cr     7.938004    0.000008    3.968996    ( 0.0000,  0.0000,  0.0000)
  45 Co     7.937992    1.984504    5.953500    ( 0.0000,  0.0000,  2.1000)
  46 Al     9.922496   -0.000002    5.953488    ( 0.0000,  0.0000,  0.0000)
  47 Ni     9.922496    1.984492    3.968996    ( 0.0000,  0.0000,  1.5000)
  48 Cr    -0.000001    3.969008    3.969008    ( 0.0000,  0.0000,  0.0000)
  49 Fe     0.000001    5.953500    5.953500    ( 0.0000,  0.0000,  2.0000)
  50 Fe     1.984504    3.968996    5.953500    ( 0.0000,  0.0000,  2.0000)
  51 Ni     1.984492    5.953500    3.969008    ( 0.0000,  0.0000,  1.5000)
  52 Ni     3.968996    3.968996    3.969008    ( 0.0000,  0.0000,  1.5000)
  53 Ni     3.968996    5.953500    5.953500    ( 0.0000,  0.0000,  1.5000)
  54 Co     5.953500    3.968996    5.953500    ( 0.0000,  0.0000,  2.1000)
  55 Cr     5.953500    5.953500    3.969008    ( 0.0000,  0.0000,  0.0000)
  56 Cr     7.938004    3.968996    3.969008    ( 0.0000,  0.0000,  0.0000)
  57 Co     7.938004    5.953500    5.953500    ( 0.0000,  0.0000,  2.1000)
  58 Cr     9.922496    3.969008    5.953500    ( 0.0000,  0.0000,  0.0000)
  59 Fe     9.922508    5.953512    3.968996    ( 0.0000,  0.0000,  2.0000)
[...]
  93 Ni     7.938004    5.953500    9.922496    ( 0.0000,  0.0000,  1.5000)
  94 Cr     9.922496    3.969008    9.922496    ( 0.0000,  0.0000,  0.0000)
  95 Cr     9.922496    5.953512    7.937992    ( 0.0000,  0.0000,  0.0000)
  96 Co    -0.000002    7.938004    7.938004    ( 0.0000,  0.0000,  2.1000)
  97 Ni    -0.000000    9.922496    9.922496    ( 0.0000,  0.0000,  1.5000)
  98 Ni     1.984504    7.937992    9.922496    ( 0.0000,  0.0000,  1.5000)
  99 Co     1.984504    9.922496    7.938004    ( 0.0000,  0.0000,  2.1000)
 100 Co     3.968996    7.938004    7.938004    ( 0.0000,  0.0000,  2.1000)
 101 Ni     3.969008    9.922496    9.922496    ( 0.0000,  0.0000,  1.5000)
 102 Fe     5.953500    7.938004    9.922508    ( 0.0000,  0.0000,  2.0000)
 103 Co     5.953500    9.922496    7.938004    ( 0.0000,  0.0000,  2.1000)
 104 Co     7.938004    7.938004    7.938004    ( 0.0000,  0.0000,  2.1000)
 105 Ni     7.937992    9.922496    9.922496    ( 0.0000,  0.0000,  1.5000)
 106 Fe     9.922496    7.938004    9.922496    ( 0.0000,  0.0000,  2.0000)
 107 Fe     9.922496    9.922496    7.938004    ( 0.0000,  0.0000,  2.0000)

Unit cell:
           periodic     x           y           z      points  spacing
  1. axis:    yes   11.907000    0.000000    0.000000    54     0.2205
  2. axis:    yes    0.000000   11.907000    0.000000    54     0.2205
  3. axis:    yes    0.000000    0.000000   11.907000    54     0.2205

  Lengths:  11.907000  11.907000  11.907000
  Angles:   90.000000  90.000000  90.000000

Effective grid spacing dv^(1/3) = 0.2205

     iter     time        total  log10-change:  magmom
                         energy  eigst   dens
iter:   1 12:34:50 -1048.916943                  +136.6829
iter:   2 12:35:44  -890.587199  +0.03  -1.14    +72.6659
iter:   3 12:36:38  -927.934192  -0.35  -1.05    +75.8831
iter:   4 12:37:32  -820.177230  -1.00  -1.12    +69.3717
iter:   5 12:38:25  -807.898205  -1.64  -1.28    +71.6282
iter:   6 12:39:20  -810.804889  -1.76  -1.32    +82.0290
iter:   7 12:40:14  -810.237717  -1.30  -1.33    +88.6833
iter:   8 12:41:08  -807.297595  -1.46  -1.37    +92.9243
iter:   9 12:42:03  -806.097079  -1.35  -1.42    +93.7800
iter:  10 12:42:57  -804.247276  -1.46  -1.52    +94.6187
iter:  11 12:43:51  -804.866959  -1.63  -1.60    +92.9377
iter:  12 12:44:45  -798.770623  -1.80  -1.55    +90.8421
iter:  13 12:45:38  -800.997540  -2.05  -1.69    +90.9580
iter:  14 12:46:32  -799.017765  -2.21  -1.72    +91.3454
iter:  15 12:47:26  -799.472817  -2.60  -1.80    +89.6716
iter:  16 12:48:21  -800.675691  -2.57  -1.85    +87.2824
iter:  17 12:49:15  -802.272165  -2.56  -1.89    +85.4656
iter:  18 12:50:09  -802.369398  -2.69  -1.86    +84.1481
iter:  19 12:51:04  -803.013051  -2.68  -1.95    +82.8749
iter:  20 12:51:57  -803.920457  -2.65  -2.01    +82.0827
iter:  21 12:52:51  -804.934734  -2.58  -2.06    +81.9304
iter:  22 12:53:44  -804.508511  -2.79  -2.04    +81.6922
iter:  23 12:54:38  -805.146803  -2.90  -2.19    +81.5689
iter:  24 12:55:31  -805.287363  -3.17  -2.22    +81.7016
iter:  25 12:56:25  -805.793099  -3.15  -2.25    +81.7454
iter:  26 12:57:19  -806.225617  -3.31  -2.28    +81.4946
iter:  27 12:58:12  -806.964616  -3.19  -2.27    +81.2380
iter:  28 12:59:05  -807.248519  -3.51  -2.20    +80.9637
iter:  29 12:59:59  -808.001710  -3.14  -2.19    +80.0872
iter:  30 13:00:52  -808.270256  -3.34  -2.14    +79.3093
iter:  31 13:01:45  -808.612516  -3.31  -2.12    +78.1802
iter:  32 13:02:39  -808.929860  -2.97  -2.09    +76.8300
iter:  33 13:03:32  -808.818173  -3.50  -2.06    +76.5143
iter:  34 13:04:26  -809.146405  -3.17  -2.06    +75.4910
iter:  35 13:05:19  -809.577778  -2.64  -2.04    +75.1373
iter:  36 13:06:12  -809.310087  -2.44  -2.00    +74.5844
iter:  37 13:07:05  -809.195772  -2.40  -2.02    +73.8717
iter:  38 13:07:58  -808.107238  -2.94  -2.06    +73.8012
iter:  39 13:08:51  -808.031367  -3.39  -2.22    +73.4985
iter:  40 13:09:44  -808.226408  -2.92  -2.27    +73.5980
iter:  41 13:10:38  -807.977844  -3.48  -2.26    +73.6782
iter:  42 13:11:31  -808.161918  -3.15  -2.33    +73.9841
iter:  43 13:12:24  -807.880051  -3.33  -2.29    +73.9730
iter:  44 13:13:17  -807.934247  -3.36  -2.43    +74.1518
iter:  45 13:14:10  -807.818113  -3.79  -2.42    +74.3617
iter:  46 13:15:03  -807.842427  -4.04  -2.51    +74.4771
iter:  47 13:15:57  -807.858083c -3.97  -2.54    +74.6288
iter:  48 13:16:50  -807.952060  -3.70  -2.57    +74.7690
iter:  49 13:17:43  -807.863932c -3.85  -2.55    +74.8849
iter:  50 13:18:36  -807.925151c -3.69  -2.74    +75.0702
iter:  51 13:19:29  -807.838556c -4.14  -2.66    +74.9567
iter:  52 13:20:22  -807.846234c -4.33  -2.90    +75.0061
iter:  53 13:21:16  -807.843819c -4.59  -2.89    +75.0055
iter:  54 13:22:09  -807.837612c -4.68  -2.96    +75.0549
iter:  55 13:23:01  -807.840642c -4.64  -3.03    +75.0681
iter:  56 13:23:55  -807.840737c -4.57  -3.12    +75.0779
iter:  57 13:24:48  -807.835900c -4.84  -3.07    +75.0737
iter:  58 13:25:41  -807.833236c -5.21  -3.21    +75.0660
iter:  59 13:26:34  -807.833381c -5.30  -3.30    +75.0717
iter:  60 13:27:27  -807.835466c -5.36  -3.31    +75.0603
iter:  61 13:28:21  -807.833310c -5.59  -3.34    +75.0711
iter:  62 13:29:13  -807.833679c -5.74  -3.42    +75.0751
iter:  63 13:30:07  -807.835013c -5.58  -3.43    +75.0602
iter:  64 13:31:00  -807.833688c -5.82  -3.45    +75.0640
iter:  65 13:31:53  -807.834042c -5.77  -3.53    +75.0636
iter:  66 13:32:46  -807.834280c -5.95  -3.53    +75.0561
iter:  67 13:33:39  -807.834564c -5.89  -3.58    +75.0548
iter:  68 13:34:32  -807.833923c -5.84  -3.59    +75.0571
iter:  69 13:35:25  -807.834260c -6.13  -3.62    +75.0488
iter:  70 13:36:18  -807.834292c -6.06  -3.67    +75.0429
iter:  71 13:37:11  -807.833698c -6.08  -3.69    +75.0436
iter:  72 13:38:04  -807.834251c -6.12  -3.71    +75.0377
iter:  73 13:38:57  -807.834391c -6.13  -3.76    +75.0338
iter:  74 13:39:50  -807.834039c -6.45  -3.79    +75.0393
iter:  75 13:40:43  -807.833822c -6.58  -3.83    +75.0405
iter:  76 13:41:36  -807.834154c -6.53  -3.87    +75.0381
iter:  77 13:42:29  -807.834027c -6.73  -3.89    +75.0397
iter:  78 13:43:21  -807.833434c -6.54  -3.96    +75.0428
iter:  79 13:44:14  -807.833854c -6.75  -3.94    +75.0409
iter:  80 13:45:07  -807.833714c -6.97  -4.04c   +75.0422
iter:  81 13:46:00  -807.833711c -7.14  -4.09c   +75.0430
iter:  82 13:46:53  -807.833559c -7.05  -4.14c   +75.0436
iter:  83 13:47:46  -807.833659c -6.96  -4.16c   +75.0437
iter:  84 13:48:40  -807.833432c -7.01  -4.21c   +75.0436
iter:  85 13:49:32  -807.833536c -7.18  -4.25c   +75.0438
iter:  86 13:50:25  -807.833524c -7.27  -4.29c   +75.0439
iter:  87 13:51:18  -807.833454c -7.30  -4.31c   +75.0443
iter:  88 13:52:11  -807.833429c -7.22  -4.35c   +75.0443
iter:  89 13:53:04  -807.833434c -7.39  -4.35c   +75.0443
iter:  90 13:53:57  -807.833422c -7.55c -4.42c   +75.0445

Converged after 90 iterations.

Dipole moment: (0.049691, 0.151814, -0.683679) |e|*Ang

Total magnetic moment: (0.000000, 0.000000, 75.044517)
Local magnetic moments:
   0 Co ( 0.000000,  0.000000,  1.278601)
   1 Ni ( 0.000000,  0.000000,  0.313129)
   2 Al ( 0.000000,  0.000000,  0.010434)
   3 Cr ( 0.000000,  0.000000, -3.176030)
   4 Cr ( 0.000000,  0.000000, -3.112392)
   5 Fe ( 0.000000,  0.000000,  2.735946)
   6 Fe ( 0.000000,  0.000000,  2.854425)
   7 Fe ( 0.000000,  0.000000,  2.681789)
   8 Cr ( 0.000000,  0.000000, -3.032080)
   9 Fe ( 0.000000,  0.000000,  2.752692)
  10 Fe ( 0.000000,  0.000000,  2.767267)
  11 Al ( 0.000000,  0.000000, -0.046067)
  12 Co ( 0.000000,  0.000000,  1.489533)
  13 Fe ( 0.000000,  0.000000,  2.867927)
  14 Al ( 0.000000,  0.000000,  0.010255)
  15 Al ( 0.000000,  0.000000, -0.023165)
  16 Cr ( 0.000000,  0.000000, -3.016915)
  17 Cr ( 0.000000,  0.000000, -3.109693)
  18 Al ( 0.000000,  0.000000,  0.013936)
  19 Co ( 0.000000,  0.000000,  1.548177)
  20 Co ( 0.000000,  0.000000,  1.613265)
  21 Cr ( 0.000000,  0.000000, -2.895159)
  22 Cr ( 0.000000,  0.000000,  2.974485)
  23 Cr ( 0.000000,  0.000000, -3.118252)
  24 Fe ( 0.000000,  0.000000,  2.803292)
  25 Al ( 0.000000,  0.000000, -0.014605)
  26 Ni ( 0.000000,  0.000000,  0.360062)
  27 Cr ( 0.000000,  0.000000, -3.170594)
  28 Fe ( 0.000000,  0.000000,  2.960330)
  29 Ni ( 0.000000,  0.000000,  0.279242)
  30 Co ( 0.000000,  0.000000,  1.597075)
  31 Fe ( 0.000000,  0.000000,  2.879050)
  32 Fe ( 0.000000,  0.000000,  2.863225)
  33 Cr ( 0.000000,  0.000000, -3.012038)
  34 Fe ( 0.000000,  0.000000,  2.777155)
  35 Cr ( 0.000000,  0.000000, -3.057519)
  36 Ni ( 0.000000,  0.000000,  0.495461)
  37 Ni ( 0.000000,  0.000000,  0.312904)
  38 Co ( 0.000000,  0.000000,  1.931888)
  39 Ni ( 0.000000,  0.000000,  0.507460)
  40 Co ( 0.000000,  0.000000,  1.890167)
  41 Ni ( 0.000000,  0.000000,  0.666988)
  42 Co ( 0.000000,  0.000000,  1.783737)
  43 Ni ( 0.000000,  0.000000,  0.444761)
  44 Cr ( 0.000000,  0.000000,  2.925573)
  45 Co ( 0.000000,  0.000000,  1.715227)
  46 Al ( 0.000000,  0.000000, -0.016745)
  47 Ni ( 0.000000,  0.000000,  0.473915)
  48 Cr ( 0.000000,  0.000000, -3.087208)
  49 Fe ( 0.000000,  0.000000,  2.911536)
  50 Fe ( 0.000000,  0.000000,  3.055629)
  51 Ni ( 0.000000,  0.000000,  0.437466)
  52 Ni ( 0.000000,  0.000000,  0.242285)
  53 Ni ( 0.000000,  0.000000,  0.607365)
  54 Co ( 0.000000,  0.000000,  1.829371)
  55 Cr ( 0.000000,  0.000000, -2.994565)
  56 Cr ( 0.000000,  0.000000, -2.997711)
  57 Co ( 0.000000,  0.000000,  1.655628)
  58 Cr ( 0.000000,  0.000000,  2.980437)
  59 Fe ( 0.000000,  0.000000,  2.867926)
[...]
  93 Ni ( 0.000000,  0.000000,  0.518395)
  94 Cr ( 0.000000,  0.000000,  2.873943)
  95 Cr ( 0.000000,  0.000000, -3.131470)
  96 Co ( 0.000000,  0.000000,  1.800006)
  97 Ni ( 0.000000,  0.000000,  0.422289)
  98 Ni ( 0.000000,  0.000000,  0.567184)
  99 Co ( 0.000000,  0.000000,  1.913704)
 100 Co ( 0.000000,  0.000000,  1.930406)
 101 Ni ( 0.000000,  0.000000,  0.568638)
 102 Fe ( 0.000000,  0.000000,  3.051516)
 103 Co ( 0.000000,  0.000000,  1.923535)
 104 Co ( 0.000000,  0.000000,  1.841857)
 105 Ni ( 0.000000,  0.000000,  0.402351)
 106 Fe ( 0.000000,  0.000000,  2.935303)
 107 Fe ( 0.000000,  0.000000,  2.851016)

Energy contributions relative to reference atoms: (reference = -3548577.034362)

Kinetic:       -337.025939
Potential:     +202.498340
External:        +0.000000
XC:            -702.360797
Entropy (-ST):   -4.786191
Local:          +31.448070
Free energy:   -810.226518
Extrapolated:  -807.833422

Spin contamination: 70.832399 electrons
Showing only first 2 kpts
                      Up                     Down
 Kpt  Band  Eigenvalues  Occupancy  Eigenvalues  Occupancy
  0   488      5.69751    0.99963      6.81233    0.03792
  0   489      5.70901    0.99959      6.81628    0.03651
  0   490      5.71854    0.99955      6.82824    0.03253
  0   491      5.73346    0.99948      6.83546    0.03033

  1   488      5.68610    0.99967      6.81683    0.03631
  1   489      5.69951    0.99963      6.82270    0.03431
  1   490      5.70739    0.99960      6.83078    0.03174
  1   491      5.72484    0.99952      6.83732    0.02979

Fermi level: 6.48897

No gap

Forces in eV/Ang:
  0 Co    0.00472   -0.05143   -0.06344
  1 Ni   -0.07221   -0.09861    0.02995
  2 Al   -0.01866    0.25378    0.74506
  3 Cr   -0.90516   -0.05274   -0.52890
  4 Cr    1.00790   -0.09479   -0.31515
  5 Fe    0.23765   -0.19645    0.17934
  6 Fe   -0.29239    0.14130   -0.02584
  7 Fe   -0.14857    0.06144    0.15845
  8 Cr   -0.75073    0.25935   -0.24335
  9 Fe   -0.21914   -0.12563   -0.09969
 10 Fe    0.22323    0.23814   -0.02697
 11 Al    0.61088    0.36450    0.34758
 12 Co    0.35944    0.04465   -0.22973
 13 Fe    0.18179    0.44138    0.18019
 14 Al   -0.19448   -0.30536    0.55698
 15 Al   -0.34941    0.31687   -0.48096
 16 Cr    0.29428   -0.15812   -0.57708
 17 Cr   -0.18984    0.86979    0.19411
 18 Al    0.17193   -0.26158    0.10959
 19 Co   -0.05954    0.23063   -0.10443
 20 Co   -0.42746   -0.12999   -0.04784
 21 Cr    0.05375    0.48552   -0.18960
 22 Cr   -0.03255   -0.04545    0.06173
 23 Cr    0.24950   -0.04113   -0.40903
 24 Fe   -0.00181    0.04271   -0.28811
 25 Al   -0.12457   -0.27804    0.78696
 26 Ni   -0.05546   -0.09787    0.04519
 27 Cr   -0.21708   -0.51683   -0.52460
 28 Fe    0.25431    0.11759    0.05508
 29 Ni    0.05651   -0.08633    0.06009
 30 Co   -0.29884   -0.06162   -0.41487
 31 Fe   -0.11079   -0.14094    0.04342
 32 Fe   -0.24755   -0.08552   -0.01412
 33 Cr    0.10134   -0.32703    0.37412
 34 Fe    0.15491   -0.17005    0.09076
 35 Cr    0.51503   -0.59098   -0.36423
 36 Ni    0.02805    0.08086   -0.03107
 37 Ni    0.21546   -0.15393   -0.05403
 38 Co    0.31517   -0.10971   -0.15459
 39 Ni    0.04710   -0.08060    0.09470
 40 Co    0.10781    0.11446    0.37584
 41 Ni   -0.13717   -0.04168   -0.06688
 42 Co   -0.30326    0.08239    0.09827
 43 Ni   -0.06196   -0.06403    0.09706
 44 Cr   -0.23487   -0.22832    0.29846
 45 Co   -0.26162    0.11175    0.20020
 46 Al    0.12570    0.42678   -0.38339
 47 Ni    0.05301   -0.21274   -0.12211
 48 Cr   -0.32130   -0.07212    0.35426
 49 Fe    0.31249    0.46773   -0.04189
 50 Fe    0.34474   -0.07682   -0.21251
 51 Ni    0.02252    0.00749    0.07022
 52 Ni   -0.00534   -0.01839    0.02029
 53 Ni    0.00725   -0.02654    0.08964
 54 Co    0.06972    0.07428    0.14860
 55 Cr   -0.24371    0.54666    0.89729
 56 Cr    0.46912   -0.66757    0.57290
 57 Co   -0.23021    0.10208    0.11944
 58 Cr    0.09870   -0.48876    0.04560
 59 Fe    0.04747    0.40964    0.15872
[...]
 93 Ni   -0.13009    0.07123   -0.00467
 94 Cr    0.31948    0.44694   -0.10215
 95 Cr   -0.34689    0.36450    0.13628
 96 Co    0.02918    0.19364    0.17497
 97 Ni   -0.00887   -0.00405   -0.06528
 98 Ni   -0.03537   -0.05795   -0.11384
 99 Co    0.17791   -0.08934    0.04201
100 Co    0.18200    0.16080    0.03068
101 Ni   -0.04493   -0.02651   -0.10833
102 Fe    0.21979    0.01826   -0.14833
103 Co   -0.03390    0.04127   -0.05197
104 Co   -0.12800   -0.08485    0.07134
105 Ni   -0.05412    0.02689    0.05421
106 Fe   -0.03807   -0.12651   -0.26156
107 Fe   -0.03791   -0.53632    0.02290

Date: Sat Apr  8 13:54:12 2023