User:   c.zeng@d0057
Date:   Thu Apr 13 13:09:27 2023
Arch:   x86_64
Pid:    88810
CWD:    /home/c.zeng/projects/hea-corrosion/hea-mlp/data-curation/bulk-md/dft-jobs/2
Python: 3.8.1
gpaw:   /home/c.zeng/usr/installs/gpaw/source/gpaw-22.8.0/gpaw
_gpaw:  /home/c.zeng/usr/installs/gpaw/source/gpaw-22.8.0/
        _gpaw.cpython-38-x86_64-linux-gnu.so
ase:    /home/c.zeng/.local/lib/python3.8/site-packages/ase-3.22.1-py3.8.egg/ase (version 3.22.1)
numpy:  /shared/centos7/python/3.8.1/lib/python3.8/site-packages/numpy (version 1.17.4)
scipy:  /shared/centos7/python/3.8.1/lib/python3.8/site-packages/scipy (version 1.4.1)
units:  Angstrom and eV
cores: 28
OpenMP: False
OMP_NUM_THREADS: 1

Input parameters:
  convergence: {energy: 0.0001}
  kpts: [2 2 2]
  maxiter: 666
  mode: {ecut: 350.0,
         name: pw}
  occupations: {fixmagmom: False,
                name: fermi-dirac,
                width: 0.1}
  spinpol: True
  xc: PBE

System changes: positions, numbers, cell, pbc, initial_charges, initial_magmoms

Initialize ...

species:
  Co:
    name: Cobalt
    id: 339d20d5b0b93d2de9531a1bee871d91
    Z: 27.0
    valence: 9
    core: 18
    charge: 0.0
    file: /home/c.zeng/usr/data/gpaw-setups-0.9.20000/Co.PBE.gz
    compensation charges: {type: gauss,
                           rc: 0.32,
                           lmax: 2}
    cutoffs: {filter: 1.87,
              core: 2.55}
    valence states:
      #              energy  rcut
      - 4s(2.00)    -5.469   1.005
      - 4p(0.00)    -1.277   1.058
      - 3d(7.00)    -8.205   1.005
      -  s          21.742   1.005
      -  p          25.934   1.058
      -  d          19.007   1.005

    # Using partial waves for Co as LCAO basis

  Fe:
    name: Iron
    id: 37abbd8d6c3c35915a9b583b742da910
    Z: 26.0
    valence: 8
    core: 18
    charge: 0.0
    file: /home/c.zeng/usr/data/gpaw-setups-0.9.20000/Fe.PBE.gz
    compensation charges: {type: gauss,
                           rc: 0.33,
                           lmax: 2}
    cutoffs: {filter: 2.06,
              core: 2.67}
    valence states:
      #              energy  rcut
      - 4s(2.00)    -5.291   1.164
      - 4p(0.00)    -1.326   1.058
      - 3d(6.00)    -7.505   1.058
      -  s          21.920   1.164
      -  p          25.885   1.058
      -  d          19.706   1.058

[...]

  Cr:
    name: Chromium
    id: 33f258bda2ca9f93018e70263a35547b
    Z: 24.0
    valence: 6
    core: 18
    charge: 0.0
    file: /home/c.zeng/usr/data/gpaw-setups-0.9.20000/Cr.PBE.gz
    compensation charges: {type: gauss,
                           rc: 0.35,
                           lmax: 2}
    cutoffs: {filter: 2.14,
              core: 3.04}
    valence states:
      #              energy  rcut
      - 4s(1.00)    -4.007   1.164
      - 4p(0.00)    -0.989   1.217
      - 3d(5.00)    -2.913   1.111
      -  s          23.205   1.164
      -  p          26.223   1.217
      -  d          24.299   1.111

[...]

  Ni:
    name: Nickel
    id: 0d9f38a9d6e76a2886f07bb4381f212b
    Z: 28.0
    valence: 16
    core: 12
    charge: 0.0
    file: /home/c.zeng/usr/data/gpaw-setups-0.9.20000/Ni.PBE.gz
    compensation charges: {type: gauss,
                           rc: 0.36,
                           lmax: 2}
    cutoffs: {filter: 2.14,
              core: 1.98}
    valence states:
      #              energy  rcut
      - 4s(2.00)    -5.642   1.164
      - 3p(6.00)   -71.394   1.207
      - 4p(0.00)    -1.226   1.207
      - 3d(8.00)    -8.875   1.138
      -  s          21.570   1.164
      -  d          18.337   1.138

    # Using partial waves for Ni as LCAO basis

Reference energy: -3846758.590871  # eV

Spin-polarized calculation.
Magnetic moment: 151.200000

Convergence criteria:
 Maximum [total energy] change in last 3 cyles: 0.0001 eV / electron
 Maximum integral of absolute [dens]ity change: 0.0001 electrons / valence electron
 Maximum integral of absolute [eigenst]ate change: 4e-08 eV^2 / valence electron
 Maximum number of scf [iter]ations: 666
 (Square brackets indicate name in SCF output, whereas a 'c' in
 the SCF output indicates the quantity has converged.)

Symmetries present (total): 1

  ( 1  0  0)
  ( 0  1  0)
  ( 0  0  1)

8 k-points: 2 x 2 x 2 Monkhorst-Pack grid
4 k-points in the irreducible part of the Brillouin zone
       k-points in crystal coordinates                weights
   0:     0.25000000   -0.25000000   -0.25000000          2/8
   1:     0.25000000   -0.25000000    0.25000000          2/8
   2:     0.25000000    0.25000000   -0.25000000          2/8
   3:     0.25000000    0.25000000    0.25000000          2/8

Wave functions: Plane wave expansion
  Cutoff energy: 350.000 eV
  Number of coefficients (min, max): 17755, 17755
  Pulay-stress correction: 0.000000 eV/Ang^3 (de/decut=0.000000)
  Using FFTW library
  ScaLapack parameters: grid=1x1, blocksize=None
  Wavefunction extrapolation:
    Improved wavefunction reuse through dual PAW basis

Occupation numbers: Fermi-Dirac:
  width: 0.1000  # eV

Eigensolver
   Davidson(niter=2)

Densities:
  Coarse grid: 48*48*48 grid
  Fine grid: 96*96*96 grid
  Total Charge: 0.000000

Density mixing:
  Method: difference
  Backend: pulay
  Linear mixing parameter: 0.05
  old densities: 5
  Damping of long wavelength oscillations: 50

Hamiltonian:
  XC and Coulomb potentials evaluated on a 96*96*96 grid
  Using the PBE Exchange-Correlation functional
  External potential:
    NoExternalPotential

XC parameters: PBE with 2 nearest neighbor stencil

Total number of cores used: 28
Parallelization over k-points: 4
Domain decomposition: 7 x 1 x 1

Number of atoms: 108
Number of atomic orbitals: 1053
Number of bands in calculation: 727
Number of valence electrons: 1053
Bands to converge: occupied

... initialized

Initializing position-dependent things.

Density initialized from atomic densities
Creating initial wave functions:
  727 bands from LCAO basis set

       /|           Co      Cr    |
      / |    FeFe   Fe Cr       Fe|
     / CoFe     Cr      Co        |
    /   Co       Cr        Cr     |
   /    | FeNi     FCo       Cr   |
  /  Co |  CrFe       NiCo        |
 *    NCr   CrCoNi     NiNi       |
 |Co    |NCo    NCo Fe  CoCr     Fe
 |  Cr  | FeCr   FeCoNiCo  Cr     |
 |  Ni Cr  NiFeCr   NiFeNi  Ni    |
 |      FeCrFeFe FNi CoFeCo   NNi |
 |Ni    |CoCo  Cr NFe   NiNi     Co
 |      CoCrCo----CoNi-Ni---NCr---.
 |     /   CrCCr     Ni Co    Fe /
 |    FeCr     Fe               /
 |   /          NiFei    CFe   /
 |  /      Cr               Co/
 | /r                        /
 |/    Fe      Cr           /
 *-------Cr--------Fe------*

Positions:
   0 Co     0.195510   -0.078160   10.742161    ( 0.0000,  0.0000,  2.1000)
   1 Co    -0.227305    1.930071    1.755362    ( 0.0000,  0.0000,  2.1000)
   2 Fe     1.749067   -0.009827    1.940890    ( 0.0000,  0.0000,  2.0000)
   3 Fe     1.794951    1.713790   10.691418    ( 0.0000,  0.0000,  2.0000)
   4 Cr     3.444156    0.019762   10.659923    ( 0.0000,  0.0000,  0.0000)
   5 Cr     3.580001    1.611143    1.847458    ( 0.0000,  0.0000,  0.0000)
   6 Co     5.401932   10.578834    1.687293    ( 0.0000,  0.0000,  2.1000)
   7 Cr     5.432981    1.786120   10.665926    ( 0.0000,  0.0000,  0.0000)
   8 Fe     7.133432    0.197645   10.789227    ( 0.0000,  0.0000,  2.0000)
   9 Ni     7.001208    2.039438    1.818070    ( 0.0000,  0.0000,  1.5000)
  10 Ni     8.950823   -0.084789    1.619279    ( 0.0000,  0.0000,  1.5000)
  11 Co     8.864476    1.804666   10.567794    ( 0.0000,  0.0000,  2.1000)
  12 Cr    10.634830    3.611089    0.023932    ( 0.0000,  0.0000,  0.0000)
  13 Fe    10.423391    5.242481    1.803159    ( 0.0000,  0.0000,  2.0000)
  14 Cr     1.878707    3.536371    1.814918    ( 0.0000,  0.0000,  0.0000)
  15 Fe     1.761417    5.373774   10.598432    ( 0.0000,  0.0000,  2.0000)
  16 Ni     3.403088    3.636525   10.593448    ( 0.0000,  0.0000,  1.5000)
  17 Co     3.578265    5.228136    1.779573    ( 0.0000,  0.0000,  2.1000)
  18 Ni     5.182531    3.600365    1.709264    ( 0.0000,  0.0000,  1.5000)
  19 Cr     5.300613    5.228751   10.509224    ( 0.0000,  0.0000,  0.0000)
  20 Co     6.835545    3.460534   10.597180    ( 0.0000,  0.0000,  2.1000)
  21 Ni     6.906678    5.217992    1.849449    ( 0.0000,  0.0000,  1.5000)
  22 Co     8.688808    3.674168    1.642182    ( 0.0000,  0.0000,  2.1000)
  23 Cr     8.761785    5.496954    0.032401    ( 0.0000,  0.0000,  0.0000)
  24 Fe    -0.000485    7.162536   10.510689    ( 0.0000,  0.0000,  2.0000)
  25 Co    10.613980    8.765923    1.848210    ( 0.0000,  0.0000,  2.1000)
  26 Cr     1.731777    6.932098    1.939360    ( 0.0000,  0.0000,  0.0000)
  27 Cr     1.767520    8.816638   10.678127    ( 0.0000,  0.0000,  0.0000)
  28 Fe     3.681460    7.076612   10.544717    ( 0.0000,  0.0000,  2.0000)
  29 Cr     3.445725    8.778485    1.707838    ( 0.0000,  0.0000,  0.0000)
  30 Co     5.208119    6.977582    1.750296    ( 0.0000,  0.0000,  2.1000)
  31 Co     5.320970    9.055172   10.544051    ( 0.0000,  0.0000,  2.1000)
  32 Cr     7.006046    7.121887   10.565135    ( 0.0000,  0.0000,  0.0000)
  33 Ni     7.149002    8.772527    1.854539    ( 0.0000,  0.0000,  1.5000)
  34 Ni     8.993684    7.057414    1.850969    ( 0.0000,  0.0000,  1.5000)
  35 Cr     8.611330    8.843958   10.562095    ( 0.0000,  0.0000,  0.0000)
  36 Fe    -0.256677   10.643107    3.506227    ( 0.0000,  0.0000,  2.0000)
  37 Ni    10.753853    1.667707    5.434359    ( 0.0000,  0.0000,  1.5000)
  38 Cr     1.811886   -0.044745    5.222488    ( 0.0000,  0.0000,  0.0000)
  39 Fe     1.678056    1.687004    3.349853    ( 0.0000,  0.0000,  2.0000)
  40 Fe     3.573410   -0.095002    3.476630    ( 0.0000,  0.0000,  2.0000)
  41 Co     3.588376    1.741168    5.268877    ( 0.0000,  0.0000,  2.1000)
  42 Cr     5.267591    0.086442    5.174473    ( 0.0000,  0.0000,  0.0000)
  43 Fe     5.335935    1.841404    3.441431    ( 0.0000,  0.0000,  2.0000)
  44 Fe     7.086363    0.012550    3.561205    ( 0.0000,  0.0000,  2.0000)
  45 Fe     7.029287    1.646633    5.418000    ( 0.0000,  0.0000,  2.0000)
  46 Ni     8.870225    0.162637    5.269280    ( 0.0000,  0.0000,  1.5000)
  47 Co     8.767936    1.977356    3.585422    ( 0.0000,  0.0000,  2.1000)
  48 Cr    -0.055645    3.549054    3.589056    ( 0.0000,  0.0000,  0.0000)
  49 Ni     0.023846    5.180505    5.481330    ( 0.0000,  0.0000,  1.5000)
  50 Fe     1.751084    3.448760    5.185213    ( 0.0000,  0.0000,  2.0000)
  51 Co     1.729768    5.287211    3.498365    ( 0.0000,  0.0000,  2.1000)
  52 Co     3.460707    3.505531    3.735841    ( 0.0000,  0.0000,  2.1000)
  53 Fe     3.555030    5.281280    5.329006    ( 0.0000,  0.0000,  2.0000)
  54 Fe     5.413542    3.670178    5.389114    ( 0.0000,  0.0000,  2.0000)
  55 Ni     5.417255    5.246663    3.665955    ( 0.0000,  0.0000,  1.5000)
  56 Ni     6.989146    3.487494    3.521645    ( 0.0000,  0.0000,  1.5000)
  57 Fe     7.189646    5.194835    5.321627    ( 0.0000,  0.0000,  2.0000)
  58 Co     8.863287    3.570490    5.372252    ( 0.0000,  0.0000,  2.1000)
  59 Ni     8.689707    5.276590    3.438599    ( 0.0000,  0.0000,  1.5000)
[...]
  93 Ni     7.022470    5.345460    8.715091    ( 0.0000,  0.0000,  1.5000)
  94 Ni     9.012308    3.541778    8.945920    ( 0.0000,  0.0000,  1.5000)
  95 Cr     8.989176    5.275130    7.281852    ( 0.0000,  0.0000,  0.0000)
  96 Ni     0.004056    7.141389    6.981860    ( 0.0000,  0.0000,  1.5000)
  97 Co     0.107879    8.900636    8.810424    ( 0.0000,  0.0000,  2.1000)
  98 Fe     1.784341    7.113976    8.752687    ( 0.0000,  0.0000,  2.0000)
  99 Cr     1.773296    8.667703    6.959725    ( 0.0000,  0.0000,  0.0000)
 100 Co     3.591770    7.063300    7.058574    ( 0.0000,  0.0000,  2.1000)
 101 Cr     3.575996    8.847015    8.884845    ( 0.0000,  0.0000,  0.0000)
 102 Fe     5.283154    7.127118    8.743603    ( 0.0000,  0.0000,  2.0000)
 103 Co     5.253755    8.888240    7.163808    ( 0.0000,  0.0000,  2.1000)
 104 Ni     7.170989    6.959345    7.194722    ( 0.0000,  0.0000,  1.5000)
 105 Co     7.042522    9.060771    8.858243    ( 0.0000,  0.0000,  2.1000)
 106 Cr     8.778611    7.047125    8.905169    ( 0.0000,  0.0000,  0.0000)
 107 Cr     9.003259    8.972730    7.118614    ( 0.0000,  0.0000,  0.0000)

Unit cell:
           periodic     x           y           z      points  spacing
  1. axis:    yes   10.614300    0.000000    0.000000    48     0.2211
  2. axis:    yes    0.000000   10.614300    0.000000    48     0.2211
  3. axis:    yes    0.000000    0.000000   10.614300    48     0.2211

  Lengths:  10.614300  10.614300  10.614300
  Angles:   90.000000  90.000000  90.000000

Effective grid spacing dv^(1/3) = 0.2211

     iter     time        total  log10-change:  magmom
                         energy  eigst   dens
iter:   1 13:13:14 -1076.384935                  +151.4733
iter:   2 13:14:30  -943.290607  -0.29  -1.20    +85.1860
iter:   3 13:15:47  -935.140731  -0.92  -1.24    +69.5076
iter:   4 13:17:04  -927.011016  -1.18  -1.30    +65.3007
iter:   5 13:18:20  -900.650944  -1.60  -1.28    +59.2627
iter:   6 13:19:38  -896.197927  -1.36  -1.39    +59.1410
iter:   7 13:20:54  -905.564362  -1.18  -1.48    +57.8105
iter:   8 13:22:11  -879.385756  -1.62  -1.52    +55.6933
iter:   9 13:23:28  -878.764610  -2.23  -1.82    +57.0195
iter:  10 13:24:45  -879.196350  -2.34  -1.84    +58.9173
iter:  11 13:26:02  -878.931504  -2.64  -1.87    +60.3028
iter:  12 13:27:18  -879.411247  -2.65  -1.90    +61.8283
iter:  13 13:28:35  -880.987435  -2.48  -1.95    +63.1003
iter:  14 13:29:52  -881.158318  -2.37  -1.98    +63.8300
iter:  15 13:31:09  -880.402574  -2.61  -2.02    +64.2322
iter:  16 13:32:25  -880.499531  -2.64  -2.13    +64.5231
iter:  17 13:33:42  -880.053257  -2.90  -2.16    +65.4214
iter:  18 13:34:59  -879.932361  -3.10  -2.23    +66.1290
iter:  19 13:36:16  -880.054893  -3.29  -2.30    +66.3725
iter:  20 13:37:33  -880.146118  -3.18  -2.31    +66.7464
iter:  21 13:38:50  -880.124387c -3.20  -2.37    +67.1068
iter:  22 13:40:07  -880.063500c -3.27  -2.38    +67.4745
iter:  23 13:41:23  -880.359213  -3.13  -2.48    +67.4564
iter:  24 13:42:40  -880.072275  -3.33  -2.41    +67.6429
iter:  25 13:43:57  -880.120070  -3.45  -2.55    +67.9331
iter:  26 13:45:14  -880.002713  -3.76  -2.56    +68.0568
iter:  27 13:46:30  -880.047331  -3.86  -2.70    +68.1142
iter:  28 13:47:47  -879.997999c -4.29  -2.67    +68.1528
iter:  29 13:49:04  -880.035132c -4.43  -2.78    +68.2845
iter:  30 13:50:21  -880.057771c -4.37  -2.78    +68.2860
iter:  31 13:51:38  -880.082651c -4.37  -2.79    +68.3192
iter:  32 13:52:55  -880.094648c -4.28  -2.81    +68.2905
iter:  33 13:54:11  -880.143176c -3.98  -2.83    +68.3353
iter:  34 13:55:28  -880.128258c -4.01  -2.83    +68.3280
iter:  35 13:56:45  -880.113741c -4.17  -2.89    +68.2396
iter:  36 13:58:02  -880.132173c -4.20  -2.97    +68.2913
iter:  37 13:59:18  -880.108222c -4.40  -2.95    +68.2889
iter:  38 14:00:35  -880.100195c -4.74  -3.05    +68.3017
iter:  39 14:01:52  -880.100756c -5.24  -3.18    +68.2683
iter:  40 14:03:09  -880.103479c -5.42  -3.22    +68.2717
iter:  41 14:04:25  -880.107559c -5.58  -3.25    +68.2630
iter:  42 14:05:42  -880.118419c -4.94  -3.26    +68.2292
iter:  43 14:06:59  -880.117280c -5.20  -3.24    +68.2410
iter:  44 14:08:16  -880.119382c -5.06  -3.41    +68.2275
iter:  45 14:09:33  -880.120793c -5.20  -3.43    +68.2303
iter:  46 14:10:49  -880.119690c -5.31  -3.54    +68.2231
iter:  47 14:12:06  -880.120843c -5.64  -3.66    +68.2342
iter:  48 14:13:23  -880.121708c -5.86  -3.72    +68.2407
iter:  49 14:14:40  -880.122657c -6.06  -3.80    +68.2376
iter:  50 14:15:56  -880.123872c -6.12  -3.83    +68.2395
iter:  51 14:17:13  -880.125315c -6.04  -3.87    +68.2469
iter:  52 14:18:31  -880.131062c -4.99  -3.87    +68.2912
iter:  53 14:19:47  -880.133834c -5.24  -3.74    +68.3441
iter:  54 14:21:04  -880.136424c -5.32  -3.68    +68.4161
iter:  55 14:22:21  -880.135614c -6.16  -3.63    +68.4005
iter:  56 14:23:38  -880.137913c -5.71  -3.66    +68.4519
iter:  57 14:24:55  -880.137930c -5.79  -3.68    +68.4440
iter:  58 14:26:11  -880.137964c -5.90  -3.60    +68.4785
iter:  59 14:27:28  -880.138681c -5.53  -3.66    +68.5020
iter:  60 14:28:45  -880.138442c -5.91  -3.67    +68.4983
iter:  61 14:30:02  -880.138588c -6.43  -3.69    +68.4915
iter:  62 14:31:19  -880.138125c -5.94  -3.76    +68.4991
iter:  63 14:32:36  -880.139136c -5.99  -3.76    +68.4986
iter:  64 14:33:53  -880.138869c -5.80  -3.73    +68.5036
iter:  65 14:35:09  -880.139879c -5.72  -3.85    +68.5100
iter:  66 14:36:26  -880.138574c -6.01  -3.76    +68.5175
iter:  67 14:37:43  -880.138994c -6.41  -4.10c   +68.5386
iter:  68 14:39:00  -880.139408c -6.57  -4.07c   +68.5432
iter:  69 14:40:17  -880.139199c -6.76  -4.12c   +68.5525
iter:  70 14:41:33  -880.139429c -6.83  -4.18c   +68.5689
iter:  71 14:42:50  -880.139439c -7.55c -4.22c   +68.5696

Converged after 71 iterations.

Dipole moment: (-5.644581, -9.710698, -1.266403) |e|*Ang

Total magnetic moment: (0.000000, 0.000000, 68.569592)
Local magnetic moments:
   0 Co ( 0.000000,  0.000000,  1.348930)
   1 Co ( 0.000000,  0.000000,  1.101468)
   2 Fe ( 0.000000,  0.000000,  1.673116)
   3 Fe ( 0.000000,  0.000000,  1.621124)
   4 Cr ( 0.000000,  0.000000, -0.052448)
   5 Cr ( 0.000000,  0.000000, -0.861146)
   6 Co ( 0.000000,  0.000000,  0.860328)
   7 Cr ( 0.000000,  0.000000, -1.183983)
   8 Fe ( 0.000000,  0.000000,  2.216756)
   9 Ni ( 0.000000,  0.000000,  0.376567)
  10 Ni ( 0.000000,  0.000000,  0.527726)
  11 Co ( 0.000000,  0.000000,  1.551658)
  12 Cr ( 0.000000,  0.000000, -0.166729)
  13 Fe ( 0.000000,  0.000000,  1.796946)
  14 Cr ( 0.000000,  0.000000, -1.185456)
  15 Fe ( 0.000000,  0.000000,  1.752713)
  16 Ni ( 0.000000,  0.000000,  0.171228)
  17 Co ( 0.000000,  0.000000,  1.163532)
  18 Ni ( 0.000000,  0.000000,  0.298063)
  19 Cr ( 0.000000,  0.000000, -1.491943)
  20 Co ( 0.000000,  0.000000,  0.857256)
  21 Ni ( 0.000000,  0.000000,  0.356888)
  22 Co ( 0.000000,  0.000000,  1.264997)
  23 Cr ( 0.000000,  0.000000, -1.212047)
  24 Fe ( 0.000000,  0.000000,  1.861138)
  25 Co ( 0.000000,  0.000000,  1.231937)
  26 Cr ( 0.000000,  0.000000, -1.530126)
  27 Cr ( 0.000000,  0.000000, -0.192693)
  28 Fe ( 0.000000,  0.000000,  1.960094)
  29 Cr ( 0.000000,  0.000000, -0.859769)
  30 Co ( 0.000000,  0.000000,  1.327492)
  31 Co ( 0.000000,  0.000000,  0.914941)
  32 Cr ( 0.000000,  0.000000,  0.936950)
  33 Ni ( 0.000000,  0.000000,  0.390240)
  34 Ni ( 0.000000,  0.000000,  0.310257)
  35 Cr ( 0.000000,  0.000000, -1.578685)
  36 Fe ( 0.000000,  0.000000,  2.443465)
  37 Ni ( 0.000000,  0.000000,  0.266758)
  38 Cr ( 0.000000,  0.000000,  0.436143)
  39 Fe ( 0.000000,  0.000000,  1.535186)
  40 Fe ( 0.000000,  0.000000,  1.787634)
  41 Co ( 0.000000,  0.000000,  0.646301)
  42 Cr ( 0.000000,  0.000000, -1.174183)
  43 Fe ( 0.000000,  0.000000,  2.093613)
  44 Fe ( 0.000000,  0.000000,  2.502546)
  45 Fe ( 0.000000,  0.000000,  2.292783)
  46 Ni ( 0.000000,  0.000000,  0.541476)
  47 Co ( 0.000000,  0.000000,  1.502749)
  48 Cr ( 0.000000,  0.000000, -1.800404)
  49 Ni ( 0.000000,  0.000000,  0.146664)
  50 Fe ( 0.000000,  0.000000,  2.117449)
  51 Co ( 0.000000,  0.000000,  0.908452)
  52 Co ( 0.000000,  0.000000,  1.173202)
  53 Fe ( 0.000000,  0.000000,  2.225113)
  54 Fe ( 0.000000,  0.000000,  2.189830)
  55 Ni ( 0.000000,  0.000000,  0.526413)
  56 Ni ( 0.000000,  0.000000,  0.452809)
  57 Fe ( 0.000000,  0.000000,  2.212172)
  58 Co ( 0.000000,  0.000000,  1.287574)
  59 Ni ( 0.000000,  0.000000,  0.341619)
[...]
  93 Ni ( 0.000000,  0.000000,  0.176028)
  94 Ni ( 0.000000,  0.000000,  0.104192)
  95 Cr ( 0.000000,  0.000000, -1.121572)
  96 Ni ( 0.000000,  0.000000,  0.131425)
  97 Co ( 0.000000,  0.000000,  0.800584)
  98 Fe ( 0.000000,  0.000000,  1.866161)
  99 Cr ( 0.000000,  0.000000, -1.484600)
 100 Co ( 0.000000,  0.000000,  1.203540)
 101 Cr ( 0.000000,  0.000000, -1.001782)
 102 Fe ( 0.000000,  0.000000,  2.046232)
 103 Co ( 0.000000,  0.000000,  1.205347)
 104 Ni ( 0.000000,  0.000000,  0.201782)
 105 Co ( 0.000000,  0.000000,  1.122731)
 106 Cr ( 0.000000,  0.000000,  0.810723)
 107 Cr ( 0.000000,  0.000000, -1.891610)

Energy contributions relative to reference atoms: (reference = -3846758.590871)

Kinetic:       +288.588500
Potential:     -322.315706
External:        +0.000000
XC:            -883.733172
Entropy (-ST):   -4.657407
Local:          +39.649642
Free energy:   -882.468143
Extrapolated:  -880.139439

Spin contamination: 27.815010 electrons
Showing only first 2 kpts
                      Up                     Down
 Kpt  Band  Eigenvalues  Occupancy  Eigenvalues  Occupancy
  0   524      9.82668    0.99625     10.75453    0.02419
  0   525      9.83748    0.99582     10.76504    0.02183
  0   526      9.85317    0.99511     10.77726    0.01937
  0   527      9.86054    0.99474     10.78899    0.01726

  1   524      9.82510    0.99630     10.76408    0.02203
  1   525      9.84781    0.99537     10.77678    0.01946
  1   526      9.85703    0.99492     10.78687    0.01762
  1   527      9.86069    0.99473     10.79881    0.01567

Fermi level: 10.38478

No gap

Forces in eV/Ang:
  0 Co   -0.76435    0.28528   -0.84300
  1 Co    0.94129   -0.58563    0.12343
  2 Fe   -0.68776    0.13070   -1.68295
  3 Fe   -0.88513    0.50361    0.47295
  4 Cr    0.51126   -0.15541    0.49688
  5 Cr    0.13383    0.94837   -0.01788
  6 Co   -0.57491    0.20251    0.85367
  7 Cr   -1.53974   -0.73436   -0.63979
  8 Fe   -0.42584   -0.70269   -1.38630
  9 Ni    0.91724   -2.33566   -0.67466
 10 Ni   -0.65823    0.83415    0.91278
 11 Co   -0.15386    0.16819    0.92637
 12 Cr   -0.17497   -0.02895    0.12182
 13 Fe    1.91462   -0.14205   -0.34164
 14 Cr   -0.48186    0.10597   -0.10942
 15 Fe    0.19688    0.68044    0.88786
 16 Ni    1.11295   -1.00944    0.59124
 17 Co   -0.62532    0.81802    0.36561
 18 Ni   -0.12105   -0.80129    0.64663
 19 Cr   -0.08269    0.86840    0.56430
 20 Co    2.79954    1.24230    0.12651
 21 Ni    0.61211    0.83260   -1.40218
 22 Co    0.57202   -0.84083   -0.06969
 23 Cr   -0.08539   -0.62290   -0.73877
 24 Fe    0.10571   -0.33436    0.88532
 25 Co    0.09232    0.19121   -0.49224
 26 Cr    0.05865    0.21792   -1.16053
 27 Cr   -0.23120   -0.23565    0.13842
 28 Fe   -0.65133   -0.03455    0.47079
 29 Cr    0.40176    0.12569   -0.34744
 30 Co    0.45340    0.33892   -0.35698
 31 Co    0.18843   -1.60622    1.15203
 32 Cr   -0.36517   -0.18464    0.80591
 33 Ni   -1.03776    0.92844   -1.66098
 34 Ni   -1.43351    0.62336   -1.13702
 35 Cr    1.45148   -0.45182   -0.28359
 36 Fe    1.01997    0.32805   -0.20662
 37 Ni   -0.32105    0.35856   -0.89197
 38 Cr    0.11238    0.50224    0.63681
 39 Fe   -0.05261    1.02459    1.29543
 40 Fe    0.25255    0.59686    0.01581
 41 Co   -0.43767    0.46859   -0.17364
 42 Cr    0.20098   -0.56205    0.19440
 43 Fe   -0.84610   -0.43478    0.95076
 44 Fe    0.08537    0.32064   -1.13871
 45 Fe    0.03884    1.66954   -0.19334
 46 Ni   -0.25085   -1.04825    0.87932
 47 Co    0.35763   -0.91593   -0.34794
 48 Cr   -0.08752   -0.13304   -0.03908
 49 Ni   -0.36005    0.69103   -1.33040
 50 Fe   -0.18853   -0.03729    0.96667
 51 Co    0.29852   -0.51937    0.48519
 52 Co    0.85112    0.35777   -1.78439
 53 Fe    0.03672   -0.15560    0.12095
 54 Fe   -1.14203   -1.99729   -0.15136
 55 Ni   -1.18628    0.50291   -0.74143
 56 Ni    0.50649    0.82015    1.27044
 57 Fe   -0.01026    1.09040    0.59423
 58 Co   -0.16555   -0.43887    0.06007
 59 Ni    0.68468   -0.37382    0.91185
[...]
 93 Ni   -0.01117   -1.38170    1.77514
 94 Ni   -1.31215    0.48109   -0.31429
 95 Cr   -0.68597   -0.16931   -0.62395
 96 Ni   -0.63680   -0.66266    0.72012
 97 Co   -0.40718   -0.31523    0.48988
 98 Fe    0.12066   -0.27542    0.24237
 99 Cr    0.49945    1.59103   -0.00990
100 Co    0.12818    0.27512   -0.18414
101 Cr   -0.12677   -0.48465   -0.39095
102 Fe    0.66358   -0.13123    0.18917
103 Co    0.49036   -0.03603   -1.28361
104 Ni   -0.37131    1.92873   -2.00927
105 Co    0.19919   -0.62390   -0.27676
106 Cr    0.90361    0.68720   -0.69823
107 Cr   -1.35809   -0.46418    0.09519

Date: Thu Apr 13 14:43:10 2023