User:   c.zeng@d0135
Date:   Sat Apr  8 17:20:04 2023
Arch:   x86_64
Pid:    104169
CWD:    /home/c.zeng/projects/hea-corrosion/hea-mlp/data-curation/volume/dft-jobs/96
Python: 3.8.1
gpaw:   /home/c.zeng/usr/installs/gpaw/source/gpaw-22.8.0/gpaw
_gpaw:  /home/c.zeng/usr/installs/gpaw/source/gpaw-22.8.0/
        _gpaw.cpython-38-x86_64-linux-gnu.so
ase:    /home/c.zeng/.local/lib/python3.8/site-packages/ase-3.22.1-py3.8.egg/ase (version 3.22.1)
numpy:  /shared/centos7/python/3.8.1/lib/python3.8/site-packages/numpy (version 1.17.4)
scipy:  /shared/centos7/python/3.8.1/lib/python3.8/site-packages/scipy (version 1.4.1)
units:  Angstrom and eV
cores: 64
OpenMP: False
OMP_NUM_THREADS: 1

Input parameters:
  convergence: {energy: 0.0001}
  kpts: [2 2 2]
  maxiter: 666
  mode: {ecut: 350.0,
         name: pw}
  occupations: {fixmagmom: False,
                name: fermi-dirac,
                width: 0.1}
  spinpol: True
  xc: PBE

System changes: positions, numbers, cell, pbc, initial_charges, initial_magmoms

Initialize ...

species:
  Fe:
    name: Iron
    id: 37abbd8d6c3c35915a9b583b742da910
    Z: 26.0
    valence: 8
    core: 18
    charge: 0.0
    file: /home/c.zeng/usr/data/gpaw-setups-0.9.20000/Fe.PBE.gz
    compensation charges: {type: gauss,
                           rc: 0.33,
                           lmax: 2}
    cutoffs: {filter: 2.06,
              core: 2.67}
    valence states:
      #              energy  rcut
      - 4s(2.00)    -5.291   1.164
      - 4p(0.00)    -1.326   1.058
      - 3d(6.00)    -7.505   1.058
      -  s          21.920   1.164
      -  p          25.885   1.058
      -  d          19.706   1.058

    # Using partial waves for Fe as LCAO basis

  Cr:
    name: Chromium
    id: 33f258bda2ca9f93018e70263a35547b
    Z: 24.0
    valence: 6
    core: 18
    charge: 0.0
    file: /home/c.zeng/usr/data/gpaw-setups-0.9.20000/Cr.PBE.gz
    compensation charges: {type: gauss,
                           rc: 0.35,
                           lmax: 2}
    cutoffs: {filter: 2.14,
              core: 3.04}
    valence states:
      #              energy  rcut
      - 4s(1.00)    -4.007   1.164
      - 4p(0.00)    -0.989   1.217
      - 3d(5.00)    -2.913   1.111
      -  s          23.205   1.164
      -  p          26.223   1.217
      -  d          24.299   1.111

[...]

  Ni:
    name: Nickel
    id: 0d9f38a9d6e76a2886f07bb4381f212b
    Z: 28.0
    valence: 16
    core: 12
    charge: 0.0
    file: /home/c.zeng/usr/data/gpaw-setups-0.9.20000/Ni.PBE.gz
    compensation charges: {type: gauss,
                           rc: 0.36,
                           lmax: 2}
    cutoffs: {filter: 2.14,
              core: 1.98}
    valence states:
      #              energy  rcut
      - 4s(2.00)    -5.642   1.164
      - 3p(6.00)   -71.394   1.207
      - 4p(0.00)    -1.226   1.207
      - 3d(8.00)    -8.875   1.138
      -  s          21.570   1.164
      -  d          18.337   1.138

[...]

  Al:
    name: Aluminium
    id: 0292cae29f5d6237e50f6abdd43a7bdd
    Z: 13.0
    valence: 3
    core: 10
    charge: 0.0
    file: /home/c.zeng/usr/data/gpaw-setups-0.9.20000/Al.PBE.gz
    compensation charges: {type: gauss,
                           rc: 0.34,
                           lmax: 2}
    cutoffs: {filter: 1.91,
              core: 2.36}
    valence states:
      #              energy  rcut
      - 3s(2.00)    -7.753   1.085
      - 3p(1.00)    -2.712   1.085
      -  s          19.459   1.085
      -  p          24.499   1.085
      -  d           0.000   1.085

[...]

  Co:
    name: Cobalt
    id: 339d20d5b0b93d2de9531a1bee871d91
    Z: 27.0
    valence: 9
    core: 18
    charge: 0.0
    file: /home/c.zeng/usr/data/gpaw-setups-0.9.20000/Co.PBE.gz
    compensation charges: {type: gauss,
                           rc: 0.32,
                           lmax: 2}
    cutoffs: {filter: 1.87,
              core: 2.55}
    valence states:
      #              energy  rcut
      - 4s(2.00)    -5.469   1.005
      - 4p(0.00)    -1.277   1.058
      - 3d(7.00)    -8.205   1.005
      -  s          21.742   1.005
      -  p          25.934   1.058
      -  d          19.007   1.005

    # Using partial waves for Co as LCAO basis

Reference energy: -3382523.201499  # eV

Spin-polarized calculation.
Magnetic moment: 128.800000

Convergence criteria:
 Maximum [total energy] change in last 3 cyles: 0.0001 eV / electron
 Maximum integral of absolute [dens]ity change: 0.0001 electrons / valence electron
 Maximum integral of absolute [eigenst]ate change: 4e-08 eV^2 / valence electron
 Maximum number of scf [iter]ations: 666
 (Square brackets indicate name in SCF output, whereas a 'c' in
 the SCF output indicates the quantity has converged.)

Symmetries present (total): 1

  ( 1  0  0)
  ( 0  1  0)
  ( 0  0  1)

8 k-points: 2 x 2 x 2 Monkhorst-Pack grid
4 k-points in the irreducible part of the Brillouin zone
       k-points in crystal coordinates                weights
   0:     0.25000000   -0.25000000   -0.25000000          2/8
   1:     0.25000000   -0.25000000    0.25000000          2/8
   2:     0.25000000    0.25000000   -0.25000000          2/8
   3:     0.25000000    0.25000000    0.25000000          2/8

Wave functions: Plane wave expansion
  Cutoff energy: 350.000 eV
  Number of coefficients (min, max): 20098, 20098
  Pulay-stress correction: 0.000000 eV/Ang^3 (de/decut=0.000000)
  Using FFTW library
  ScaLapack parameters: grid=1x1, blocksize=None
  Wavefunction extrapolation:
    Improved wavefunction reuse through dual PAW basis

Occupation numbers: Fermi-Dirac:
  width: 0.1000  # eV

Eigensolver
   Davidson(niter=2)

Densities:
  Coarse grid: 48*48*48 grid
  Fine grid: 96*96*96 grid
  Total Charge: 0.000000

Density mixing:
  Method: difference
  Backend: pulay
  Linear mixing parameter: 0.05
  old densities: 5
  Damping of long wavelength oscillations: 50

Hamiltonian:
  XC and Coulomb potentials evaluated on a 96*96*96 grid
  Using the PBE Exchange-Correlation functional
  External potential:
    NoExternalPotential

XC parameters: PBE with 2 nearest neighbor stencil

Total number of cores used: 64
Parallelization over k-points: 4
Domain decomposition: 4 x 2 x 2

Number of atoms: 108
Number of atomic orbitals: 961
Number of bands in calculation: 649
Number of valence electrons: 945
Bands to converge: occupied

... initialized

Initializing position-dependent things.

Density initialized from atomic densities
Creating initial wave functions:
  649 bands from LCAO basis set

        .--------------------------Fe
       /|                    Ni    |
      / |            Cr        NiNi|
    /   |Cr     Al       Ni       Fe
   /i   FeCo       Cr     CoCo     |
  /  FeCr  NiFe     CoCr     Fe    |
 *      Co  Co CrNi   FeAlFe   CoNi|
 |      |CrFe   CrCoAl   FeCrCo   Co
 |   Co NiAlNi   FeAlAl     CrNi   |
 |     Co  Ni Fe    Ni       Cr    |
 |      |       Fe    Ni Ni    Cr  |
 |      CoFe   AlFe  Ni AlCo     Fe|
 |      |AlAl   CrFeCo   CrCoCo   Cr
 |      .-CrAl-----FeNi---AlCoNi---.
 |     Cr  Al CrNi  FeFe Ni    Cr /
 |    / Fe     CrCoCr   NiCo     /
 |   /     Fe     FeCo          /
 |  /                      AlCr/
 | /  Ni    Co       Cr Ni    /
 |/             Al       Co  /
 *--------Al----------------*

Positions:
   0 Fe    11.056467   11.056489   11.056478    ( 0.0000,  0.0000,  2.0000)
   1 Cr    11.056489    1.842743    1.842743    ( 0.0000,  0.0000,  0.0000)
   2 Ni     1.842743    0.000038    1.842798    ( 0.0000,  0.0000,  1.5000)
   3 Cr     1.842721    1.842787   11.056489    ( 0.0000,  0.0000,  0.0000)
   4 Al     3.685485    0.000108    0.000105    ( 0.0000,  0.0000,  0.0000)
   5 Fe     3.685496    1.842754    1.842765    ( 0.0000,  0.0000,  2.0000)
   6 Ni     5.528217   11.056489    1.842831    ( 0.0000,  0.0000,  1.5000)
   7 Al     5.528128    1.842931    0.000102    ( 0.0000,  0.0000,  0.0000)
   8 Al     7.371114   11.056312    0.000098    ( 0.0000,  0.0000,  0.0000)
   9 Co     7.371026    1.842787    1.842787    ( 0.0000,  0.0000,  2.1000)
  10 Ni     9.213791    0.000027    1.842743    ( 0.0000,  0.0000,  1.5000)
  11 Co     9.213802    1.842765    0.000019    ( 0.0000,  0.0000,  2.1000)
  12 Ni     0.000008    3.685474   11.056467    ( 0.0000,  0.0000,  1.5000)
  13 Cr    11.056467    5.528239    1.842776    ( 0.0000,  0.0000,  0.0000)
  14 Fe     1.842743    3.685474    1.842732    ( 0.0000,  0.0000,  2.0000)
  15 Cr     1.842765    5.528217   11.056434    ( 0.0000,  0.0000,  0.0000)
  16 Co     3.685485    3.685518   11.056500    ( 0.0000,  0.0000,  2.1000)
  17 Cr     3.685607    5.528217    1.842676    ( 0.0000,  0.0000,  0.0000)
  18 Co     5.528272    3.685552    1.842765    ( 0.0000,  0.0000,  2.1000)
  19 Fe     5.528261    5.528261    0.000024    ( 0.0000,  0.0000,  2.0000)
  20 Cr     7.370993    3.685552    0.000071    ( 0.0000,  0.0000,  0.0000)
  21 Fe     7.370959    5.528250    1.842754    ( 0.0000,  0.0000,  2.0000)
  22 Co     9.213746    3.685485    1.842776    ( 0.0000,  0.0000,  2.1000)
  23 Al     9.213724    5.528239   11.056500    ( 0.0000,  0.0000,  0.0000)
  24 Ni    11.056478    7.371026   11.056456    ( 0.0000,  0.0000,  1.5000)
  25 Cr    11.056467    9.213757    1.842765    ( 0.0000,  0.0000,  0.0000)
  26 Cr     1.842698    7.371004    1.842743    ( 0.0000,  0.0000,  0.0000)
  27 Al     1.842544    9.213702    0.000030    ( 0.0000,  0.0000,  0.0000)
  28 Cr     3.685585    7.370915    0.000007    ( 0.0000,  0.0000,  0.0000)
  29 Cr     3.685574    9.213791    1.842798    ( 0.0000,  0.0000,  0.0000)
  30 Fe     5.528294    7.370959    1.842721    ( 0.0000,  0.0000,  2.0000)
  31 Fe     5.528272    9.213702    0.000031    ( 0.0000,  0.0000,  2.0000)
  32 Ni     7.370948    7.371015    0.000045    ( 0.0000,  0.0000,  1.5000)
  33 Cr     7.370959    9.213724    1.842732    ( 0.0000,  0.0000,  0.0000)
  34 Co     9.213757    7.370982    1.842754    ( 0.0000,  0.0000,  2.1000)
  35 Ni     9.213791    9.213735   11.056467    ( 0.0000,  0.0000,  1.5000)
  36 Ni     0.000011   11.056478    3.685529    ( 0.0000,  0.0000,  1.5000)
  37 Co    11.056478    1.842732    5.528272    ( 0.0000,  0.0000,  2.1000)
  38 Co     1.842721   11.056478    5.528272    ( 0.0000,  0.0000,  2.1000)
  39 Cr     1.842709    1.842709    3.685463    ( 0.0000,  0.0000,  0.0000)
  40 Fe     3.685507   -0.000001    3.685485    ( 0.0000,  0.0000,  2.0000)
  41 Al     3.685552    1.842632    5.528372    ( 0.0000,  0.0000,  0.0000)
  42 Fe     5.528261   11.056489    5.528250    ( 0.0000,  0.0000,  2.0000)
  43 Ni     5.528272    1.842732    3.685496    ( 0.0000,  0.0000,  1.5000)
  44 Cr     7.370971    0.000008    3.685552    ( 0.0000,  0.0000,  0.0000)
  45 Co     7.370993    1.842721    5.528250    ( 0.0000,  0.0000,  2.1000)
  46 Co     9.213768   11.056489    5.528272    ( 0.0000,  0.0000,  2.1000)
  47 Ni     9.213757    1.842776    3.685507    ( 0.0000,  0.0000,  1.5000)
  48 Ni    11.056467    3.685496    3.685496    ( 0.0000,  0.0000,  1.5000)
  49 Cr    11.056456    5.528217    5.528250    ( 0.0000,  0.0000,  0.0000)
  50 Co     1.842709    3.685496    5.528283    ( 0.0000,  0.0000,  2.1000)
  51 Al     1.842588    5.528173    3.685452    ( 0.0000,  0.0000,  0.0000)
  52 Al     3.685607    3.685507    3.685386    ( 0.0000,  0.0000,  0.0000)
  53 Fe     3.685541    5.528195    5.528283    ( 0.0000,  0.0000,  2.0000)
  54 Fe     5.528272    3.685518    5.528250    ( 0.0000,  0.0000,  2.0000)
  55 Fe     5.528272    5.528228    3.685474    ( 0.0000,  0.0000,  2.0000)
  56 Ni     7.371004    3.685529    3.685496    ( 0.0000,  0.0000,  1.5000)
  57 Ni     7.370971    5.528173    5.528195    ( 0.0000,  0.0000,  1.5000)
  58 Co     9.213768    3.685474    5.528217    ( 0.0000,  0.0000,  2.1000)
  59 Co     9.213757    5.528228    3.685463    ( 0.0000,  0.0000,  2.1000)
[...]
  93 Cr     7.370971    5.528250    9.213791    ( 0.0000,  0.0000,  0.0000)
  94 Fe     9.213835    3.685507    9.213757    ( 0.0000,  0.0000,  2.0000)
  95 Cr     9.213813    5.528239    7.371037    ( 0.0000,  0.0000,  0.0000)
  96 Ni    11.056456    7.371059    7.371070    ( 0.0000,  0.0000,  1.5000)
  97 Fe    11.056478    9.213757    9.213724    ( 0.0000,  0.0000,  2.0000)
  98 Co     1.842687    7.370948    9.213724    ( 0.0000,  0.0000,  2.1000)
  99 Ni     1.842687    9.213824    7.371015    ( 0.0000,  0.0000,  1.5000)
 100 Cr     3.685507    7.370948    7.371048    ( 0.0000,  0.0000,  0.0000)
 101 Al     3.685563    9.213702    9.213580    ( 0.0000,  0.0000,  0.0000)
 102 Cr     5.528228    7.370948    9.213824    ( 0.0000,  0.0000,  0.0000)
 103 Co     5.528283    9.213835    7.370982    ( 0.0000,  0.0000,  2.1000)
 104 Al     7.371081    7.371114    7.371092    ( 0.0000,  0.0000,  0.0000)
 105 Ni     7.371037    9.213746    9.213724    ( 0.0000,  0.0000,  1.5000)
 106 Co     9.213824    7.371026    9.213746    ( 0.0000,  0.0000,  2.1000)
 107 Fe     9.213779    9.213779    7.371004    ( 0.0000,  0.0000,  2.0000)

Unit cell:
           periodic     x           y           z      points  spacing
  1. axis:    yes   11.056500    0.000000    0.000000    48     0.2303
  2. axis:    yes    0.000000   11.056500    0.000000    48     0.2303
  3. axis:    yes    0.000000    0.000000   11.056500    48     0.2303

  Lengths:  11.056500  11.056500  11.056500
  Angles:   90.000000  90.000000  90.000000

Effective grid spacing dv^(1/3) = 0.2303

     iter     time        total  log10-change:  magmom
                         energy  eigst   dens
iter:   1 17:21:38 -1004.910333                  +129.0859
iter:   2 17:22:28  -888.183161  -0.15  -1.17    +71.4141
iter:   3 17:23:21  -878.393745  -0.73  -1.17    +66.1167
iter:   4 17:24:12  -842.826206  -1.20  -1.24    +61.5668
iter:   5 17:25:04  -835.034240  -1.58  -1.31    +61.2848
iter:   6 17:25:54  -838.502965  -1.36  -1.35    +64.0496
iter:   7 17:26:46  -827.166892  -1.32  -1.37    +64.5983
iter:   8 17:27:37  -823.629680  -1.63  -1.51    +66.2798
iter:   9 17:28:29  -822.706134  -1.71  -1.61    +68.1425
iter:  10 17:29:20  -819.891327  -2.29  -1.69    +68.9962
iter:  11 17:30:12  -819.772451  -2.44  -1.76    +71.9385
iter:  12 17:31:03  -821.590727  -2.39  -1.84    +73.6978
iter:  13 17:31:55  -821.062116  -2.42  -1.83    +73.8875
iter:  14 17:32:46  -821.178684  -2.42  -1.90    +74.9261
iter:  15 17:33:37  -821.899563  -2.50  -1.96    +75.5375
iter:  16 17:34:28  -820.806827  -2.82  -1.95    +75.4357
iter:  17 17:35:20  -821.529255  -2.89  -2.09    +76.4552
iter:  18 17:36:11  -821.047537  -3.07  -2.04    +76.2699
iter:  19 17:37:03  -821.406143  -2.97  -2.17    +76.2935
iter:  20 17:37:55  -821.499195  -2.91  -2.17    +76.2015
iter:  21 17:38:48  -821.336570  -3.08  -2.23    +76.2178
iter:  22 17:39:39  -821.482768  -3.24  -2.35    +76.2860
iter:  23 17:40:31  -821.511716  -3.41  -2.38    +76.2630
iter:  24 17:41:22  -821.682384  -3.45  -2.46    +76.5107
iter:  25 17:42:13  -821.723172  -3.64  -2.46    +76.4568
iter:  26 17:43:04  -821.874288  -3.58  -2.53    +76.6053
iter:  27 17:43:56  -821.950287  -3.72  -2.53    +76.5072
iter:  28 17:44:47  -822.074786  -3.60  -2.56    +76.4974
iter:  29 17:45:39  -822.167089  -3.71  -2.58    +76.3641
iter:  30 17:46:30  -822.230693  -3.81  -2.58    +76.3780
iter:  31 17:47:21  -822.336013  -3.52  -2.60    +76.1031
iter:  32 17:48:13  -822.487449  -3.59  -2.57    +76.0294
iter:  33 17:49:04  -822.451618  -4.65  -2.48    +76.1287
iter:  34 17:49:55  -822.507745c -3.88  -2.49    +76.3871
iter:  35 17:50:46  -822.489818c -4.01  -2.47    +76.3986
iter:  36 17:51:37  -822.357041  -3.68  -2.49    +76.3796
iter:  37 17:52:28  -822.349559  -4.24  -2.64    +76.2006
iter:  38 17:53:20  -822.365393c -4.06  -2.71    +75.9919
iter:  39 17:54:11  -822.347904c -4.32  -2.73    +75.8590
iter:  40 17:55:02  -822.356040c -4.42  -2.81    +75.6966
iter:  41 17:55:54  -822.368485c -4.33  -2.86    +75.5015
iter:  42 17:56:46  -822.359207c -4.56  -2.85    +75.4351
iter:  43 17:57:39  -822.358676c -4.58  -2.93    +75.4132
iter:  44 17:58:30  -822.359197c -4.80  -2.98    +75.3427
iter:  45 17:59:21  -822.358300c -4.92  -3.04    +75.2546
iter:  46 18:00:13  -822.362109c -4.91  -3.08    +75.2091
iter:  47 18:01:04  -822.367289c -4.77  -3.12    +75.1685
iter:  48 18:01:56  -822.362697c -4.88  -3.09    +75.1502
iter:  49 18:02:50  -822.362484c -5.20  -3.19    +75.1497
iter:  50 18:03:41  -822.365193c -5.30  -3.24    +75.1304
iter:  51 18:04:33  -822.364573c -5.39  -3.27    +75.1376
iter:  52 18:05:25  -822.366648c -5.42  -3.32    +75.1295
iter:  53 18:06:16  -822.367293c -5.49  -3.35    +75.1342
iter:  54 18:07:08  -822.368376c -5.57  -3.39    +75.1368
iter:  55 18:08:01  -822.368992c -5.60  -3.41    +75.1487
iter:  56 18:08:53  -822.371128c -5.74  -3.46    +75.1573
iter:  57 18:09:44  -822.371263c -5.67  -3.49    +75.1723
iter:  58 18:10:36  -822.372563c -5.76  -3.53    +75.1794
iter:  59 18:11:28  -822.373447c -5.86  -3.56    +75.1752
iter:  60 18:12:20  -822.374805c -5.60  -3.58    +75.1865
iter:  61 18:13:11  -822.375469c -5.80  -3.59    +75.1988
iter:  62 18:14:04  -822.377766c -5.72  -3.64    +75.2363
iter:  63 18:14:56  -822.378267c -5.85  -3.67    +75.2633
iter:  64 18:15:48  -822.379762c -5.96  -3.72    +75.2886
iter:  65 18:16:39  -822.380492c -6.13  -3.73    +75.2930
iter:  66 18:17:32  -822.381856c -6.05  -3.75    +75.3133
iter:  67 18:18:23  -822.383011c -5.99  -3.79    +75.3358
iter:  68 18:19:15  -822.384409c -5.97  -3.82    +75.3402
iter:  69 18:20:08  -822.385674c -5.89  -3.88    +75.3752
iter:  70 18:20:59  -822.387897c -5.67  -3.97    +75.4085
iter:  71 18:21:51  -822.385372c -6.00  -4.02c   +75.3636
iter:  72 18:22:44  -822.376014c -4.51  -4.09c   +75.1182
iter:  73 18:23:37  -822.373746c -4.57  -3.80    +74.8952
iter:  74 18:24:29  -822.374433c -5.40  -3.63    +74.8473
iter:  75 18:25:20  -822.375859c -5.37  -3.61    +74.7394
iter:  76 18:26:12  -822.377065c -5.95  -3.58    +74.7242
iter:  77 18:27:04  -822.376283c -6.21  -3.57    +74.7234
iter:  78 18:27:56  -822.372140c -5.34  -3.56    +74.6959
iter:  79 18:28:48  -822.371753c -5.51  -3.54    +74.6938
iter:  80 18:29:39  -822.371526c -5.37  -3.55    +74.6954
iter:  81 18:30:30  -822.372475c -5.40  -3.54    +74.6903
iter:  82 18:31:22  -822.371603c -5.71  -3.57    +74.7220
iter:  83 18:32:14  -822.371666c -6.11  -3.69    +74.7354
iter:  84 18:33:08  -822.372396c -6.14  -3.75    +74.7426
iter:  85 18:34:00  -822.372924c -5.97  -3.76    +74.7488
iter:  86 18:34:53  -822.372462c -6.12  -3.82    +74.7533
iter:  87 18:35:45  -822.373185c -6.13  -3.85    +74.7653
iter:  88 18:36:36  -822.373756c -5.92  -3.88    +74.7698
iter:  89 18:37:30  -822.373649c -6.07  -3.87    +74.7752
iter:  90 18:38:22  -822.373741c -6.13  -3.96    +74.7998
iter:  91 18:39:14  -822.373753c -6.43  -3.99    +74.8061
iter:  92 18:40:08  -822.374441c -6.39  -4.22c   +74.8257
iter:  93 18:41:01  -822.374452c -6.97  -4.22c   +74.8309
iter:  94 18:41:53  -822.374875c -6.64  -4.27c   +74.8506
iter:  95 18:42:45  -822.374139c -6.31  -4.26c   +74.8147
iter:  96 18:43:37  -822.372858c -5.39  -4.29c   +74.7218
iter:  97 18:44:31  -822.372900c -5.93  -4.17c   +74.6973
iter:  98 18:45:24  -822.373395c -5.88  -4.12c   +74.6618
iter:  99 18:46:16  -822.373875c -6.39  -4.04c   +74.6530
iter: 100 18:47:09  -822.373598c -6.66  -4.00    +74.6731
iter: 101 18:48:01  -822.374215c -6.45  -4.04c   +74.6541
iter: 102 18:48:53  -822.374648c -6.64  -4.03c   +74.6615
iter: 103 18:49:45  -822.373668c -5.84  -4.02c   +74.6544
iter: 104 18:50:37  -822.374430c -5.96  -3.74    +74.6626
iter: 105 18:51:28  -822.374475c -6.40  -3.91    +74.6533
iter: 106 18:52:21  -822.374586c -5.95  -3.93    +74.6428
iter: 107 18:53:13  -822.374798c -6.51  -3.92    +74.6462
iter: 108 18:54:05  -822.375181c -6.58  -4.10c   +74.6558
iter: 109 18:54:57  -822.375323c -6.71  -4.14c   +74.6613
iter: 110 18:55:50  -822.375789c -6.67  -4.11c   +74.6655
iter: 111 18:56:43  -822.375927c -6.85  -4.14c   +74.6699
iter: 112 18:57:35  -822.376333c -6.64  -4.14c   +74.6727
iter: 113 18:58:27  -822.376064c -7.51c -4.11c   +74.6680

Converged after 113 iterations.

Dipole moment: (-0.470679, -0.143927, 0.292082) |e|*Ang

Total magnetic moment: (0.000000, 0.000000, 74.667969)
Local magnetic moments:
   0 Fe ( 0.000000,  0.000000,  2.445330)
   1 Cr ( 0.000000,  0.000000,  2.201260)
   2 Ni ( 0.000000,  0.000000,  0.023836)
   3 Cr ( 0.000000,  0.000000, -2.371933)
   4 Al ( 0.000000,  0.000000, -0.011571)
   5 Fe ( 0.000000,  0.000000,  2.388658)
   6 Ni ( 0.000000,  0.000000,  0.228385)
   7 Al ( 0.000000,  0.000000, -0.015158)
   8 Al ( 0.000000,  0.000000, -0.018157)
   9 Co ( 0.000000,  0.000000,  1.519634)
  10 Ni ( 0.000000,  0.000000,  0.222757)
  11 Co ( 0.000000,  0.000000,  1.298687)
  12 Ni ( 0.000000,  0.000000,  0.328572)
  13 Cr ( 0.000000,  0.000000,  1.685212)
  14 Fe ( 0.000000,  0.000000,  2.004301)
  15 Cr ( 0.000000,  0.000000, -2.118122)
  16 Co ( 0.000000,  0.000000,  1.159539)
  17 Cr ( 0.000000,  0.000000, -0.275977)
  18 Co ( 0.000000,  0.000000,  1.291899)
  19 Fe ( 0.000000,  0.000000,  2.293996)
  20 Cr ( 0.000000,  0.000000, -2.356861)
  21 Fe ( 0.000000,  0.000000,  2.583917)
  22 Co ( 0.000000,  0.000000,  1.323401)
  23 Al ( 0.000000,  0.000000, -0.033701)
  24 Ni ( 0.000000,  0.000000,  0.257116)
  25 Cr ( 0.000000,  0.000000, -2.117980)
  26 Cr ( 0.000000,  0.000000,  1.242834)
  27 Al ( 0.000000,  0.000000, -0.011462)
  28 Cr ( 0.000000,  0.000000, -1.584124)
  29 Cr ( 0.000000,  0.000000, -2.230898)
  30 Fe ( 0.000000,  0.000000,  2.102880)
  31 Fe ( 0.000000,  0.000000,  1.800928)
  32 Ni ( 0.000000,  0.000000,  0.357984)
  33 Cr ( 0.000000,  0.000000,  1.896892)
  34 Co ( 0.000000,  0.000000,  1.216535)
  35 Ni ( 0.000000,  0.000000,  0.421094)
  36 Ni ( 0.000000,  0.000000,  0.158836)
  37 Co ( 0.000000,  0.000000,  1.742213)
  38 Co ( 0.000000,  0.000000,  1.432132)
  39 Cr ( 0.000000,  0.000000, -2.316247)
  40 Fe ( 0.000000,  0.000000,  2.458195)
  41 Al ( 0.000000,  0.000000, -0.038399)
  42 Fe ( 0.000000,  0.000000,  2.492652)
  43 Ni ( 0.000000,  0.000000,  0.419055)
  44 Cr ( 0.000000,  0.000000, -2.261783)
  45 Co ( 0.000000,  0.000000,  1.653889)
  46 Co ( 0.000000,  0.000000,  1.544514)
  47 Ni ( 0.000000,  0.000000,  0.513521)
  48 Ni ( 0.000000,  0.000000,  0.366171)
  49 Cr ( 0.000000,  0.000000,  2.088926)
  50 Co ( 0.000000,  0.000000,  1.061334)
  51 Al ( 0.000000,  0.000000, -0.038905)
  52 Al ( 0.000000,  0.000000, -0.035604)
  53 Fe ( 0.000000,  0.000000,  2.107896)
  54 Fe ( 0.000000,  0.000000,  2.529271)
  55 Fe ( 0.000000,  0.000000,  2.294858)
  56 Ni ( 0.000000,  0.000000,  0.621866)
  57 Ni ( 0.000000,  0.000000,  0.166806)
  58 Co ( 0.000000,  0.000000,  1.489454)
  59 Co ( 0.000000,  0.000000,  1.347893)
[...]
  93 Cr ( 0.000000,  0.000000,  1.899294)
  94 Fe ( 0.000000,  0.000000,  2.313010)
  95 Cr ( 0.000000,  0.000000, -1.873808)
  96 Ni ( 0.000000,  0.000000,  0.302811)
  97 Fe ( 0.000000,  0.000000,  2.689876)
  98 Co ( 0.000000,  0.000000,  0.709665)
  99 Ni ( 0.000000,  0.000000,  0.420008)
 100 Cr ( 0.000000,  0.000000,  1.756680)
 101 Al ( 0.000000,  0.000000, -0.018837)
 102 Cr ( 0.000000,  0.000000,  0.579207)
 103 Co ( 0.000000,  0.000000,  0.995349)
 104 Al ( 0.000000,  0.000000, -0.026968)
 105 Ni ( 0.000000,  0.000000,  0.335038)
 106 Co ( 0.000000,  0.000000,  1.345124)
 107 Fe ( 0.000000,  0.000000,  2.577507)

Energy contributions relative to reference atoms: (reference = -3382523.201499)

Kinetic:        +20.633886
Potential:      -70.153036
External:        +0.000000
XC:            -803.382872
Entropy (-ST):   -4.288635
Local:          +32.670276
Free energy:   -824.520381
Extrapolated:  -822.376064

Spin contamination: 34.206399 electrons
Showing only first 2 kpts
                      Up                     Down
 Kpt  Band  Eigenvalues  Occupancy  Eigenvalues  Occupancy
  0   470      8.20858    0.99880      9.28880    0.01663
  0   471      8.21730    0.99869      9.30755    0.01382
  0   472      8.22553    0.99858      9.31370    0.01301
  0   473      8.23043    0.99850      9.32686    0.01142

  1   470      8.20691    0.99882      9.28796    0.01676
  1   471      8.22336    0.99861      9.30374    0.01435
  1   472      8.23882    0.99837      9.31352    0.01303
  1   473      8.25140    0.99816      9.33123    0.01094

Fermi level: 8.88080

No gap

Forces in eV/Ang:
  0 Fe   -0.39671    0.13653   -0.42927
  1 Cr   -0.19778    0.00506    0.15320
  2 Ni   -0.00922   -0.10920    0.03592
  3 Cr   -0.47543    0.67611    0.04071
  4 Al   -0.08666    0.23428    0.57379
  5 Fe   -0.18775    0.43060    0.05909
  6 Ni   -0.04737    0.22917    0.08462
  7 Al   -0.56792    1.02141    0.75022
  8 Al    1.06001   -0.71902    0.47905
  9 Co    0.36078    0.46250    0.23169
 10 Ni    0.07691    0.07183    0.04912
 11 Co    0.12316    0.25406    0.19908
 12 Ni    0.08200   -0.21239   -0.14383
 13 Cr   -0.14726   -0.08752    0.10433
 14 Fe    0.32315    0.00573   -0.33548
 15 Cr   -0.33561   -0.46320   -0.34063
 16 Co   -0.21925    0.32258    0.04059
 17 Cr    0.21794    0.01702   -0.96904
 18 Co    0.13807   -0.02189    0.15679
 19 Fe   -0.36852   -0.16487    0.41532
 20 Cr    0.26753    0.56182    0.46976
 21 Fe    0.06630   -0.24885    0.05360
 22 Co   -0.22948   -0.20801    0.16147
 23 Al    0.33314    0.52821    0.09359
 24 Ni   -0.16236    0.11804   -0.04850
 25 Cr   -0.53564   -0.16914    0.41593
 26 Cr    0.06412    0.03801   -0.26713
 27 Al   -1.09604   -0.21213   -0.15127
 28 Cr    0.61490   -0.64716   -0.19501
 29 Cr    0.48736    0.21923    0.69433
 30 Fe   -0.18284   -0.07397   -0.31491
 31 Fe   -0.06917   -0.36027    0.03215
 32 Ni   -0.07673    0.23477   -0.18012
 33 Cr    0.34310   -0.08121    0.17100
 34 Co    0.24040    0.26290    0.07383
 35 Ni    0.08402   -0.21225    0.04104
 36 Ni   -0.15313   -0.14887    0.13236
 37 Co    0.02898    0.13279    0.03972
 38 Co   -0.17771   -0.21066    0.08893
 39 Cr   -1.00147   -0.21669   -0.51506
 40 Fe   -0.00614   -0.34902   -0.25022
 41 Al   -0.04427   -0.20105    0.71903
 42 Fe    0.31800   -0.16997   -0.01254
 43 Ni    0.08676    0.10843   -0.12002
 44 Cr   -0.04155    0.10169    0.12978
 45 Co   -0.04569   -0.07209   -0.01200
 46 Co    0.02572   -0.00507   -0.15003
 47 Ni   -0.09439    0.01838    0.04804
 48 Ni   -0.05481   -0.06386    0.08762
 49 Cr   -0.61474   -0.62924    0.42572
 50 Co   -0.08752   -0.24207    0.10773
 51 Al   -0.92315   -0.84324   -0.07631
 52 Al    0.69458    0.04876   -0.21407
 53 Fe    0.03343   -0.29238   -0.01586
 54 Fe    0.38843    0.14763   -0.01610
 55 Fe    0.09233   -0.42152   -0.40297
 56 Ni    0.12819   -0.15472   -0.06690
 57 Ni    0.08096    0.04728   -0.20740
 58 Co    0.13687   -0.14881   -0.25022
 59 Co   -0.10748   -0.32234    0.03001
[...]
 93 Cr   -0.33111    0.19204    0.08201
 94 Fe    0.83366   -0.54476   -0.05027
 95 Cr    0.95306   -0.07311    0.19890
 96 Ni   -0.16460    0.12846    0.23838
 97 Fe   -0.08808   -0.18711   -0.23737
 98 Co   -0.14874   -0.20328    0.11910
 99 Ni   -0.12326    0.08229    0.03937
100 Cr    0.05707    0.02506    0.27885
101 Al   -0.20466   -0.30673   -1.04023
102 Cr    0.09379   -0.04540    0.29834
103 Co    0.35753    0.27367    0.23328
104 Al    0.00481    0.29869    0.51326
105 Ni   -0.00501   -0.10695   -0.02928
106 Co    0.16594    0.28205    0.01519
107 Fe    0.11462    0.10753   -0.07633

Date: Sat Apr  8 18:58:41 2023