User:   c.zeng@d0025
Date:   Sat Apr 15 12:52:57 2023
Arch:   x86_64
Pid:    234307
CWD:    /home/c.zeng/projects/hea-corrosion/hea-mlp/data-curation/bulk-mcmc/dft-jobs/38
Python: 3.8.1
gpaw:   /home/c.zeng/usr/installs/gpaw/source/gpaw-22.8.0/gpaw
_gpaw:  /home/c.zeng/usr/installs/gpaw/source/gpaw-22.8.0/
        _gpaw.cpython-38-x86_64-linux-gnu.so
ase:    /home/c.zeng/.local/lib/python3.8/site-packages/ase-3.22.1-py3.8.egg/ase (version 3.22.1)
numpy:  /shared/centos7/python/3.8.1/lib/python3.8/site-packages/numpy (version 1.17.4)
scipy:  /shared/centos7/python/3.8.1/lib/python3.8/site-packages/scipy (version 1.4.1)
units:  Angstrom and eV
cores: 30
OpenMP: False
OMP_NUM_THREADS: 1

Input parameters:
  convergence: {energy: 0.0001}
  kpts: [2 2 2]
  maxiter: 666
  mode: {ecut: 350.0,
         name: pw}
  occupations: {fixmagmom: False,
                name: fermi-dirac,
                width: 0.1}
  spinpol: True
  xc: PBE

System changes: positions, numbers, cell, pbc, initial_charges, initial_magmoms

Initialize ...

species:
  Co:
    name: Cobalt
    id: 339d20d5b0b93d2de9531a1bee871d91
    Z: 27.0
    valence: 9
    core: 18
    charge: 0.0
    file: /home/c.zeng/usr/data/gpaw-setups-0.9.20000/Co.PBE.gz
    compensation charges: {type: gauss,
                           rc: 0.32,
                           lmax: 2}
    cutoffs: {filter: 1.87,
              core: 2.55}
    valence states:
      #              energy  rcut
      - 4s(2.00)    -5.469   1.005
      - 4p(0.00)    -1.277   1.058
      - 3d(7.00)    -8.205   1.005
      -  s          21.742   1.005
      -  p          25.934   1.058
      -  d          19.007   1.005

    # Using partial waves for Co as LCAO basis

  Fe:
    name: Iron
    id: 37abbd8d6c3c35915a9b583b742da910
    Z: 26.0
    valence: 8
    core: 18
    charge: 0.0
    file: /home/c.zeng/usr/data/gpaw-setups-0.9.20000/Fe.PBE.gz
    compensation charges: {type: gauss,
                           rc: 0.33,
                           lmax: 2}
    cutoffs: {filter: 2.06,
              core: 2.67}
    valence states:
      #              energy  rcut
      - 4s(2.00)    -5.291   1.164
      - 4p(0.00)    -1.326   1.058
      - 3d(6.00)    -7.505   1.058
      -  s          21.920   1.164
      -  p          25.885   1.058
      -  d          19.706   1.058

[...]

  Cr:
    name: Chromium
    id: 33f258bda2ca9f93018e70263a35547b
    Z: 24.0
    valence: 6
    core: 18
    charge: 0.0
    file: /home/c.zeng/usr/data/gpaw-setups-0.9.20000/Cr.PBE.gz
    compensation charges: {type: gauss,
                           rc: 0.35,
                           lmax: 2}
    cutoffs: {filter: 2.14,
              core: 3.04}
    valence states:
      #              energy  rcut
      - 4s(1.00)    -4.007   1.164
      - 4p(0.00)    -0.989   1.217
      - 3d(5.00)    -2.913   1.111
      -  s          23.205   1.164
      -  p          26.223   1.217
      -  d          24.299   1.111

[...]

  Ni:
    name: Nickel
    id: 0d9f38a9d6e76a2886f07bb4381f212b
    Z: 28.0
    valence: 16
    core: 12
    charge: 0.0
    file: /home/c.zeng/usr/data/gpaw-setups-0.9.20000/Ni.PBE.gz
    compensation charges: {type: gauss,
                           rc: 0.36,
                           lmax: 2}
    cutoffs: {filter: 2.14,
              core: 1.98}
    valence states:
      #              energy  rcut
      - 4s(2.00)    -5.642   1.164
      - 3p(6.00)   -71.394   1.207
      - 4p(0.00)    -1.226   1.207
      - 3d(8.00)    -8.875   1.138
      -  s          21.570   1.164
      -  d          18.337   1.138

    # Using partial waves for Ni as LCAO basis

Reference energy: -3846758.590871  # eV

Spin-polarized calculation.
Magnetic moment: 151.200000

Convergence criteria:
 Maximum [total energy] change in last 3 cyles: 0.0001 eV / electron
 Maximum integral of absolute [dens]ity change: 0.0001 electrons / valence electron
 Maximum integral of absolute [eigenst]ate change: 4e-08 eV^2 / valence electron
 Maximum number of scf [iter]ations: 666
 (Square brackets indicate name in SCF output, whereas a 'c' in
 the SCF output indicates the quantity has converged.)

Symmetries present (total): 1

  ( 1  0  0)
  ( 0  1  0)
  ( 0  0  1)

8 k-points: 2 x 2 x 2 Monkhorst-Pack grid
4 k-points in the irreducible part of the Brillouin zone
       k-points in crystal coordinates                weights
   0:     0.25000000   -0.25000000   -0.25000000          2/8
   1:     0.25000000   -0.25000000    0.25000000          2/8
   2:     0.25000000    0.25000000   -0.25000000          2/8
   3:     0.25000000    0.25000000    0.25000000          2/8

Wave functions: Plane wave expansion
  Cutoff energy: 350.000 eV
  Number of coefficients (min, max): 17755, 17755
  Pulay-stress correction: 0.000000 eV/Ang^3 (de/decut=0.000000)
  Using FFTW library
  ScaLapack parameters: grid=1x1, blocksize=None
  Wavefunction extrapolation:
    Improved wavefunction reuse through dual PAW basis

Occupation numbers: Fermi-Dirac:
  width: 0.1000  # eV

Eigensolver
   Davidson(niter=2)

Densities:
  Coarse grid: 48*48*48 grid
  Fine grid: 96*96*96 grid
  Total Charge: 0.000000

Density mixing:
  Method: difference
  Backend: pulay
  Linear mixing parameter: 0.05
  old densities: 5
  Damping of long wavelength oscillations: 50

Hamiltonian:
  XC and Coulomb potentials evaluated on a 96*96*96 grid
  Using the PBE Exchange-Correlation functional
  External potential:
    NoExternalPotential

XC parameters: PBE with 2 nearest neighbor stencil

Total number of cores used: 30
Parallelization over k-points: 2
Domain decomposition: 5 x 3 x 1

Number of atoms: 108
Number of atomic orbitals: 1053
Number of bands in calculation: 727
Number of valence electrons: 1053
Bands to converge: occupied

... initialized

Initializing position-dependent things.

Density initialized from atomic densities
Creating initial wave functions:
  727 bands from LCAO basis set

       /|  Cr       Ni      Cr    |
      / |   CrFe     Cr           |
     /  |       Co      Fe       Fe
    /   |Ni      CFe       Co     Ni
   /    | Co       Ni       CFe   |
  /  CCo|  FeNi     CoNi          |
 *    NiCr    FeCr   FeCrCo       |
 |      |CoNi   FeFeNi  CoCrFe   Ni
 |      | NiCo     CoNiFeCrNiCr   |
 |    Co|  CoFeCr   CoCrFe   CrCo |
 |      Ni    CrNiNi CrNiNi     Ni|
 |      |FeFe  CoFeCr   FeNiFe   Ni
 |      .-FeCo-----NiCrFe--NiCr---Co
 |   Cro     Fe       Cr         /
 |    CrCo     Cor     CCre     /
 |   /    Co               Ni  /
 |  /      Fe       Fe    CrFe/
 | / Fe     Ni       NiNi    /
 |/            Co       Cr  /
 *--------Co------Co-------*

Positions:
   0 Co    -0.012479   -0.003723   10.616104    ( 0.0000,  0.0000,  2.1000)
   1 Fe    -0.011321    1.761305    1.763386    ( 0.0000,  0.0000,  2.1000)
   2 Fe     1.758365    0.001326    1.769011    ( 0.0000,  0.0000,  2.0000)
   3 Co     1.752686    1.779222   10.610436    ( 0.0000,  0.0000,  2.0000)
   4 Co     3.541196    0.004726   10.616104    ( 0.0000,  0.0000,  0.0000)
   5 Fe     3.534711    1.782438    1.778999    ( 0.0000,  0.0000,  0.0000)
   6 Cr     5.305717   10.600629    1.767950    ( 0.0000,  0.0000,  2.1000)
   7 Co     5.324780    1.765604   10.614618    ( 0.0000,  0.0000,  0.0000)
   8 Co     7.089121    0.014598   10.619926    ( 0.0000,  0.0000,  2.0000)
   9 Fe     7.085279    1.771219    1.773543    ( 0.0000,  0.0000,  1.5000)
  10 Ni     8.850554    0.011470    1.768756    ( 0.0000,  0.0000,  1.5000)
  11 Cr     8.842381    1.777333   10.615680    ( 0.0000,  0.0000,  2.1000)
  12 Fe    10.590535    3.538203   -0.001956    ( 0.0000,  0.0000,  0.0000)
  13 Cr    10.624277    5.310674    1.769786    ( 0.0000,  0.0000,  2.0000)
  14 Co     1.761379    3.535623    1.784572    ( 0.0000,  0.0000,  0.0000)
  15 Ni     1.770200    5.301408   10.611753    ( 0.0000,  0.0000,  2.0000)
  16 Ni     3.556003    3.551407   10.618333    ( 0.0000,  0.0000,  1.5000)
  17 Fe     3.539370    5.311290    1.775199    ( 0.0000,  0.0000,  2.1000)
  18 Cr     5.320142    3.545059    1.779678    ( 0.0000,  0.0000,  1.5000)
  19 Fe     5.306980    5.314654   10.602720    ( 0.0000,  0.0000,  0.0000)
  20 Ni     7.081585    3.529127   10.614725    ( 0.0000,  0.0000,  2.1000)
  21 Cr     7.069241    5.303361    1.781271    ( 0.0000,  0.0000,  1.5000)
  22 Fe     8.841447    3.542671    1.781600    ( 0.0000,  0.0000,  2.1000)
  23 Cr     8.850893    5.290379    0.000220    ( 0.0000,  0.0000,  0.0000)
  24 Cr     0.005868    7.083411   10.614937    ( 0.0000,  0.0000,  2.0000)
  25 Ni    10.601043    8.849694    1.772960    ( 0.0000,  0.0000,  2.1000)
  26 Fe     1.773713    7.072329    1.777184    ( 0.0000,  0.0000,  0.0000)
  27 Cr     1.755520    8.842943   10.608324    ( 0.0000,  0.0000,  0.0000)
  28 Fe     3.544009    7.063116   10.610489    ( 0.0000,  0.0000,  2.0000)
  29 Co     3.542225    8.826820    1.785580    ( 0.0000,  0.0000,  0.0000)
  30 Ni     5.309835    7.081776    1.776600    ( 0.0000,  0.0000,  2.1000)
  31 Ni     5.331945    8.840321   10.604673    ( 0.0000,  0.0000,  2.1000)
  32 Co     7.068434    7.069028   10.623110    ( 0.0000,  0.0000,  0.0000)
  33 Fe     7.083750    8.846796    1.774509    ( 0.0000,  0.0000,  1.5000)
  34 Ni     8.841404    7.058180    1.777173    ( 0.0000,  0.0000,  1.5000)
  35 Cr     8.835524    8.853600   10.611753    ( 0.0000,  0.0000,  0.0000)
  36 Ni    -0.009351   10.618864    3.531070    ( 0.0000,  0.0000,  2.0000)
  37 Fe    10.602508    1.764818    5.300452    ( 0.0000,  0.0000,  1.5000)
  38 Cr     1.756720    0.001379    5.295867    ( 0.0000,  0.0000,  0.0000)
  39 Co     1.766506    1.767154    3.539222    ( 0.0000,  0.0000,  2.0000)
  40 Co     3.539742    0.013881    3.542873    ( 0.0000,  0.0000,  2.0000)
  41 Fe     3.548944    1.788658    5.306237    ( 0.0000,  0.0000,  2.1000)
  42 Fe     5.320174   -0.004685    5.301386    ( 0.0000,  0.0000,  0.0000)
  43 Co     5.316862    1.765551    3.538935    ( 0.0000,  0.0000,  2.0000)
  44 Cr     7.081086   -0.000289    3.531325    ( 0.0000,  0.0000,  2.0000)
  45 Cr     7.072902    1.777407    5.300537    ( 0.0000,  0.0000,  2.0000)
  46 Fe     8.840544    0.012372    5.307851    ( 0.0000,  0.0000,  1.5000)
  47 Cr     8.833592    1.767928    3.534318    ( 0.0000,  0.0000,  2.1000)
  48 Cr    -0.004066    3.525285    3.545951    ( 0.0000,  0.0000,  0.0000)
  49 Co    -0.001689    5.317934    5.307787    ( 0.0000,  0.0000,  1.5000)
  50 Ni     1.769043    3.555101    5.297279    ( 0.0000,  0.0000,  2.0000)
  51 Fe     1.773692    5.305929    3.538266    ( 0.0000,  0.0000,  2.1000)
  52 Co     3.542746    3.537364    3.547575    ( 0.0000,  0.0000,  2.1000)
  53 Fe     3.548477    5.306927    5.301153    ( 0.0000,  0.0000,  2.0000)
  54 Ni     5.316246    3.553031    5.303637    ( 0.0000,  0.0000,  2.0000)
  55 Fe     5.303286    5.303531    3.542385    ( 0.0000,  0.0000,  1.5000)
  56 Cr     7.074962    3.533023    3.537215    ( 0.0000,  0.0000,  1.5000)
  57 Cr     7.066046    5.306046    5.300081    ( 0.0000,  0.0000,  2.0000)
  58 Ni     8.834526    3.538160    5.294530    ( 0.0000,  0.0000,  2.1000)
  59 Ni     8.846255    5.300452    3.537672    ( 0.0000,  0.0000,  1.5000)
[...]
  93 Ni     7.071130    5.304220    8.839313    ( 0.0000,  0.0000,  1.5000)
  94 Co     8.837997    3.524669    8.843389    ( 0.0000,  0.0000,  1.5000)
  95 Cr     8.833772    5.299051    7.076862    ( 0.0000,  0.0000,  0.0000)
  96 Ni     0.012168    7.080333    7.083835    ( 0.0000,  0.0000,  1.5000)
  97 Fe    -0.017034    8.848707    8.843941    ( 0.0000,  0.0000,  2.1000)
  98 Co     1.777938    7.075503    8.840194    ( 0.0000,  0.0000,  2.0000)
  99 Fe     1.758800    8.840035    7.069803    ( 0.0000,  0.0000,  0.0000)
 100 Fe     3.549921    7.066194    7.070090    ( 0.0000,  0.0000,  2.1000)
 101 Co     3.553137    8.839111    8.836776    ( 0.0000,  0.0000,  0.0000)
 102 Ni     5.304189    7.079929    8.840215    ( 0.0000,  0.0000,  2.0000)
 103 Co     5.321946    8.832180    7.082997    ( 0.0000,  0.0000,  2.1000)
 104 Cr     7.057077    7.072149    7.064167    ( 0.0000,  0.0000,  1.5000)
 105 Fe     7.082402    8.855500    8.837487    ( 0.0000,  0.0000,  2.1000)
 106 Co     8.846786    7.077881    8.846732    ( 0.0000,  0.0000,  0.0000)
 107 Cr     8.839313    8.848272    7.075153    ( 0.0000,  0.0000,  0.0000)

Unit cell:
           periodic     x           y           z      points  spacing
  1. axis:    yes   10.614300    0.000000    0.000000    48     0.2211
  2. axis:    yes    0.000000   10.614300    0.000000    48     0.2211
  3. axis:    yes    0.000000    0.000000   10.614300    48     0.2211

  Lengths:  10.614300  10.614300  10.614300
  Angles:   90.000000  90.000000  90.000000

Effective grid spacing dv^(1/3) = 0.2211

     iter     time        total  log10-change:  magmom
                         energy  eigst   dens
iter:   1 12:59:33  -993.014695                  +151.1581
iter:   2 13:02:32  -982.531802  -0.45  -1.33    +114.7936
iter:   3 13:05:31  -925.858260  -0.89  -1.26    +86.3523
iter:   4 13:08:30  -899.426164  -1.33  -1.37    +70.9320
iter:   5 13:11:30  -895.160935  -1.85  -1.46    +62.7707
iter:   6 13:14:29  -899.142885  -1.90  -1.49    +58.6856
iter:   7 13:17:28  -898.527640  -1.64  -1.51    +56.3272
iter:   8 13:20:27  -887.649366  -1.77  -1.54    +54.5657
iter:   9 13:23:26  -891.967158  -1.84  -1.75    +53.8395
iter:  10 13:26:26  -889.845417  -2.12  -1.78    +53.4724
iter:  11 13:29:25  -888.385496  -2.43  -1.84    +53.3464
iter:  12 13:32:24  -887.487685  -2.76  -1.91    +53.6941
iter:  13 13:35:24  -888.127157  -2.84  -1.97    +54.2910
iter:  14 13:38:20  -889.393552  -2.75  -2.01    +54.6922
iter:  15 13:41:19  -890.183709  -2.57  -2.01    +55.1199
iter:  16 13:44:18  -891.251083  -2.52  -2.00    +55.7372
iter:  17 13:47:17  -889.938035  -2.61  -2.00    +55.8497
iter:  18 13:50:17  -890.121251  -2.71  -2.13    +56.0798
iter:  19 13:53:16  -889.619518  -2.87  -2.15    +56.3509
iter:  20 13:56:15  -889.447140  -3.13  -2.22    +57.0700
iter:  21 13:59:14  -889.726478  -3.15  -2.30    +57.6281
iter:  22 14:02:13  -889.624265  -3.27  -2.29    +58.0229
iter:  23 14:05:13  -889.607455  -3.48  -2.33    +58.6310
iter:  24 14:08:12  -889.822668  -3.38  -2.39    +59.3915
iter:  25 14:11:11  -889.968355  -3.36  -2.43    +59.7131
iter:  26 14:14:11  -889.911902  -3.49  -2.40    +60.1478
iter:  27 14:17:10  -890.240125  -3.32  -2.49    +60.7187
iter:  28 14:20:06  -890.297554  -3.29  -2.43    +60.9652
iter:  29 14:23:06  -890.188901  -3.49  -2.43    +61.2675
iter:  30 14:26:06  -890.170659  -3.72  -2.53    +61.5411
iter:  31 14:29:05  -890.204977c -3.80  -2.58    +61.8512
iter:  32 14:32:04  -890.197152c -4.24  -2.59    +62.0964
iter:  33 14:35:03  -890.263396c -4.23  -2.65    +62.4437
iter:  34 14:38:03  -890.414829  -3.73  -2.66    +62.9198
iter:  35 14:41:03  -890.512744  -3.70  -2.65    +62.9126
iter:  36 14:44:02  -890.485995c -3.64  -2.60    +63.0893
iter:  37 14:47:00  -890.510979c -3.77  -2.73    +63.1776
iter:  38 14:50:00  -890.552878c -3.86  -2.78    +63.3424
iter:  39 14:52:59  -890.521395c -4.12  -2.75    +63.4336
iter:  40 14:55:58  -890.538090c -4.39  -2.89    +63.5874
iter:  41 14:58:57  -890.575606c -4.43  -2.93    +63.7479
iter:  42 15:01:56  -890.629160c -4.46  -2.96    +63.9382
iter:  43 15:04:54  -890.729047  -3.89  -2.92    +64.3981
iter:  44 15:07:53  -890.743899  -4.52  -2.86    +64.4796
iter:  45 15:10:52  -890.793079c -4.42  -2.86    +64.6151
iter:  46 15:13:49  -890.840897c -4.20  -2.82    +64.7664
iter:  47 15:16:48  -890.904642  -4.05  -2.81    +64.8226
iter:  48 15:19:48  -890.830268c -4.38  -2.70    +64.7463
iter:  49 15:22:47  -890.833782c -4.51  -2.86    +64.7327
iter:  50 15:25:47  -890.888714c -3.90  -2.88    +64.7523
iter:  51 15:28:46  -890.890515c -3.84  -2.78    +64.7438
iter:  52 15:31:46  -890.872952c -3.94  -2.81    +64.6193
iter:  53 15:34:45  -890.807611c -4.41  -2.87    +64.5142
iter:  54 15:37:45  -890.826051c -4.60  -3.20    +64.5161
iter:  55 15:40:43  -890.819748c -4.79  -3.10    +64.5021
iter:  56 15:43:42  -890.819124c -4.96  -3.19    +64.4679
iter:  57 15:46:41  -890.820325c -5.13  -3.25    +64.4506
iter:  58 15:49:39  -890.825301c -5.10  -3.31    +64.4444
iter:  59 15:52:35  -890.826474c -5.10  -3.28    +64.4349
iter:  60 15:55:32  -890.826777c -5.28  -3.30    +64.4060
iter:  61 15:58:31  -890.830141c -5.04  -3.35    +64.3756
iter:  62 16:01:31  -890.831677c -5.12  -3.32    +64.3698
iter:  63 16:04:30  -890.831539c -5.28  -3.33    +64.3524
iter:  64 16:07:30  -890.831120c -5.32  -3.41    +64.3179
iter:  65 16:10:30  -890.831076c -5.36  -3.44    +64.2970
iter:  66 16:13:30  -890.831097c -5.87  -3.46    +64.2924
iter:  67 16:16:29  -890.832970c -5.64  -3.55    +64.2624
iter:  68 16:19:28  -890.833043c -5.81  -3.53    +64.2538
iter:  69 16:22:27  -890.833265c -6.00  -3.56    +64.2392
iter:  70 16:25:26  -890.835481c -5.76  -3.61    +64.2251
iter:  71 16:28:25  -890.839527c -5.25  -3.59    +64.2094
iter:  72 16:31:24  -890.835930c -5.41  -3.47    +64.1880
iter:  73 16:34:23  -890.837232c -5.48  -3.60    +64.1760
iter:  74 16:37:21  -890.836934c -5.61  -3.59    +64.1780
iter:  75 16:40:20  -890.836769c -5.73  -3.68    +64.1648
iter:  76 16:43:18  -890.835930c -6.20  -3.75    +64.1496
iter:  77 16:46:16  -890.836320c -6.52  -3.89    +64.1367
iter:  78 16:49:15  -890.837138c -6.18  -3.94    +64.1241
iter:  79 16:52:11  -890.837276c -6.45  -3.87    +64.1160
iter:  80 16:55:08  -890.837333c -6.28  -3.94    +64.0970
iter:  81 16:58:07  -890.837661c -6.05  -3.99    +64.0904
iter:  82 17:01:06  -890.837867c -6.20  -3.87    +64.0864
iter:  83 17:04:06  -890.837626c -6.60  -4.06c   +64.0776
iter:  84 17:07:05  -890.837714c -6.57  -4.22c   +64.0681
iter:  85 17:10:04  -890.837762c -6.86  -4.11c   +64.0666
iter:  86 17:13:03  -890.837938c -7.04  -4.31c   +64.0602
iter:  87 17:16:02  -890.838179c -6.79  -4.36c   +64.0476
iter:  88 17:19:01  -890.839491c -5.36  -4.32c   +63.9756
iter:  89 17:22:00  -890.839887c -5.79  -4.08c   +63.9575
iter:  90 17:24:59  -890.839990c -6.37  -4.03c   +63.9570
iter:  91 17:27:58  -890.840032c -6.87  -4.00    +63.9605
iter:  92 17:30:58  -890.840078c -7.05  -4.01c   +63.9614
iter:  93 17:33:57  -890.841157c -6.09  -4.00c   +63.9610
iter:  94 17:36:54  -890.840140c -6.24  -3.77    +63.9609
iter:  95 17:39:52  -890.840484c -6.07  -3.90    +63.9616
iter:  96 17:42:51  -890.840017c -6.81  -3.98    +63.9541
iter:  97 17:45:50  -890.840303c -6.81  -4.10c   +63.9505
iter:  98 17:48:49  -890.840168c -6.92  -4.06c   +63.9467
iter:  99 17:51:47  -890.840140c -6.64  -4.12c   +63.9397
iter: 100 17:54:47  -890.840248c -6.55  -4.06c   +63.9388
iter: 101 17:57:46  -890.840134c -6.37  -4.19c   +63.9365
iter: 102 18:00:45  -890.840247c -6.62  -4.04c   +63.9377
iter: 103 18:03:45  -890.840029c -6.91  -4.25c   +63.9345
iter: 104 18:06:43  -890.840050c -7.09  -4.32c   +63.9340
iter: 105 18:09:42  -890.840066c -7.39  -4.39c   +63.9336
iter: 106 18:12:41  -890.839987c -7.86c -4.46c   +63.9315

Converged after 106 iterations.

Dipole moment: (6.476557, -1.850950, 0.745495) |e|*Ang

Total magnetic moment: (0.000000, 0.000000, 63.931518)
Local magnetic moments:
   0 Co ( 0.000000,  0.000000,  0.812485)
   1 Fe ( 0.000000,  0.000000,  1.960028)
   2 Fe ( 0.000000,  0.000000,  2.353352)
   3 Co ( 0.000000,  0.000000,  1.239245)
   4 Co ( 0.000000,  0.000000,  0.997195)
   5 Fe ( 0.000000,  0.000000,  2.259097)
   6 Cr ( 0.000000,  0.000000, -1.539864)
   7 Co ( 0.000000,  0.000000,  0.968576)
   8 Co ( 0.000000,  0.000000,  0.965754)
   9 Fe ( 0.000000,  0.000000,  1.776445)
  10 Ni ( 0.000000,  0.000000,  0.145294)
  11 Cr ( 0.000000,  0.000000, -1.557115)
  12 Fe ( 0.000000,  0.000000,  1.777007)
  13 Cr ( 0.000000,  0.000000, -0.410624)
  14 Co ( 0.000000,  0.000000,  1.139972)
  15 Ni ( 0.000000,  0.000000,  0.282367)
  16 Ni ( 0.000000,  0.000000,  0.228805)
  17 Fe ( 0.000000,  0.000000,  2.197794)
  18 Cr ( 0.000000,  0.000000, -1.479050)
  19 Fe ( 0.000000,  0.000000,  2.241725)
  20 Ni ( 0.000000,  0.000000,  0.200156)
  21 Cr ( 0.000000,  0.000000,  0.334723)
  22 Fe ( 0.000000,  0.000000,  1.369802)
  23 Cr ( 0.000000,  0.000000, -0.998412)
  24 Cr ( 0.000000,  0.000000,  0.673068)
  25 Ni ( 0.000000,  0.000000,  0.133452)
  26 Fe ( 0.000000,  0.000000,  2.059944)
  27 Cr ( 0.000000,  0.000000, -1.510051)
  28 Fe ( 0.000000,  0.000000,  2.342473)
  29 Co ( 0.000000,  0.000000,  1.346953)
  30 Ni ( 0.000000,  0.000000,  0.365914)
  31 Ni ( 0.000000,  0.000000,  0.406520)
  32 Co ( 0.000000,  0.000000,  1.185944)
  33 Fe ( 0.000000,  0.000000,  2.139008)
  34 Ni ( 0.000000,  0.000000,  0.089448)
  35 Cr ( 0.000000,  0.000000, -1.364963)
  36 Ni ( 0.000000,  0.000000,  0.280695)
  37 Fe ( 0.000000,  0.000000,  1.975593)
  38 Cr ( 0.000000,  0.000000, -1.906365)
  39 Co ( 0.000000,  0.000000,  1.315900)
  40 Co ( 0.000000,  0.000000,  1.157864)
  41 Fe ( 0.000000,  0.000000,  2.175544)
  42 Fe ( 0.000000,  0.000000,  1.801888)
  43 Co ( 0.000000,  0.000000,  0.723842)
  44 Cr ( 0.000000,  0.000000, -0.522068)
  45 Cr ( 0.000000,  0.000000, -0.656615)
  46 Fe ( 0.000000,  0.000000,  1.771002)
  47 Cr ( 0.000000,  0.000000,  0.014749)
  48 Cr ( 0.000000,  0.000000, -1.490887)
  49 Co ( 0.000000,  0.000000,  1.201379)
  50 Ni ( 0.000000,  0.000000,  0.353424)
  51 Fe ( 0.000000,  0.000000,  2.101395)
  52 Co ( 0.000000,  0.000000,  1.210627)
  53 Fe ( 0.000000,  0.000000,  2.210877)
  54 Ni ( 0.000000,  0.000000,  0.245331)
  55 Fe ( 0.000000,  0.000000,  1.811343)
  56 Cr ( 0.000000,  0.000000, -0.263274)
  57 Cr ( 0.000000,  0.000000, -0.395876)
  58 Ni ( 0.000000,  0.000000,  0.094402)
  59 Ni ( 0.000000,  0.000000,  0.154517)
[...]
  93 Ni ( 0.000000,  0.000000,  0.253516)
  94 Co ( 0.000000,  0.000000,  1.015046)
  95 Cr ( 0.000000,  0.000000,  1.093526)
  96 Ni ( 0.000000,  0.000000,  0.372549)
  97 Fe ( 0.000000,  0.000000,  1.719986)
  98 Co ( 0.000000,  0.000000,  1.219067)
  99 Fe ( 0.000000,  0.000000,  2.317427)
 100 Fe ( 0.000000,  0.000000,  2.302843)
 101 Co ( 0.000000,  0.000000,  1.088998)
 102 Ni ( 0.000000,  0.000000,  0.486333)
 103 Co ( 0.000000,  0.000000,  1.285792)
 104 Cr ( 0.000000,  0.000000, -1.121983)
 105 Fe ( 0.000000,  0.000000,  2.082854)
 106 Co ( 0.000000,  0.000000,  0.694876)
 107 Cr ( 0.000000,  0.000000, -1.440584)

Energy contributions relative to reference atoms: (reference = -3846758.590871)

Kinetic:       +130.049281
Potential:     -194.927195
External:        +0.000000
XC:            -863.640986
Entropy (-ST):   -4.574352
Local:          +39.966089
Free energy:   -893.127163
Extrapolated:  -890.839987

Spin contamination: 32.441140 electrons
Showing only first 2 kpts
                      Up                     Down
 Kpt  Band  Eigenvalues  Occupancy  Eigenvalues  Occupancy
  0   524      9.83409    0.99477     10.71500    0.02764
  0   525      9.83828    0.99455     10.72753    0.02446
  0   526      9.85717    0.99342     10.74043    0.02157
  0   527      9.86512    0.99288     10.75152    0.01935

  1   524      9.83659    0.99464     10.70795    0.02960
  1   525      9.84766    0.99402     10.72716    0.02455
  1   526      9.86718    0.99274     10.73583    0.02256
  1   527      9.87768    0.99194     10.75460    0.01877

Fermi level: 10.35895

No gap

Forces in eV/Ang:
  0 Co    0.08575   -0.18997   -0.01278
  1 Fe    0.09475    0.13273   -0.14071
  2 Fe    0.03589   -0.39266    0.05959
  3 Co    0.18445   -0.03204   -0.01387
  4 Co   -0.02897    0.01390   -0.14978
  5 Fe    0.17620    0.11720   -0.15704
  6 Cr   -0.10334    0.16308   -0.15613
  7 Co   -0.31269   -0.05162    0.05583
  8 Co   -0.16628    0.00732    0.00102
  9 Fe   -0.29681   -0.02557   -0.14252
 10 Ni   -0.01948   -0.08674   -0.01973
 11 Cr    0.16593    0.08231    0.15219
 12 Fe    0.23732    0.41707   -0.11676
 13 Cr    0.17245   -0.04448   -0.18090
 14 Co   -0.18728    0.06464   -0.11217
 15 Ni   -0.09127   -0.01679    0.08691
 16 Ni   -0.12750   -0.32256   -0.09876
 17 Fe   -0.20664   -0.43215   -0.12024
 18 Cr   -0.26293   -0.30409   -0.20950
 19 Fe    0.12885   -0.19798   -0.04074
 20 Ni   -0.01716    0.04205    0.00117
 21 Cr    0.16585    0.16283    0.30640
 22 Fe    0.07265    0.03566   -0.05691
 23 Cr    0.03094   -0.02108   -0.57987
 24 Cr   -0.11502   -0.45236   -0.27217
 25 Ni    0.13798    0.03225   -0.06030
 26 Fe   -0.21852    0.50084    0.24349
 27 Cr    0.31219   -0.32152    0.18202
 28 Fe   -0.15307    0.46828   -0.12285
 29 Co   -0.08623    0.42432    0.05890
 30 Ni    0.04989    0.05997    0.05216
 31 Ni   -0.36505    0.04937    0.13988
 32 Co    0.34291   -0.08829   -0.10228
 33 Fe   -0.02424    0.07582   -0.20603
 34 Ni   -0.06784   -0.02914   -0.01513
 35 Cr    0.11637   -0.07393   -0.15713
 36 Ni    0.00314   -0.08947    0.06655
 37 Fe    0.38615    0.01135    0.08414
 38 Cr    0.07566    0.05010   -0.06506
 39 Co    0.14545    0.31788    0.06830
 40 Co    0.12281   -0.43085   -0.02082
 41 Fe   -0.40571   -0.11937   -0.22503
 42 Fe    0.19345   -0.39219   -0.11172
 43 Co   -0.01096    0.07349    0.03885
 44 Cr   -0.16953    0.26497    0.18397
 45 Cr    0.16165    0.08336   -0.14433
 46 Fe    0.13641   -0.36132   -0.04699
 47 Cr   -0.26616   -0.21263   -0.01108
 48 Cr   -0.08874    0.09531    0.17520
 49 Co    0.21763   -0.09947    0.11898
 50 Ni   -0.08984   -0.11745    0.12785
 51 Fe   -0.08247   -0.28670    0.12741
 52 Co    0.04660   -0.10300   -0.05958
 53 Fe   -0.15767   -0.18197   -0.05749
 54 Ni    0.01799   -0.05677   -0.03085
 55 Fe    0.11751    0.00931    0.13742
 56 Cr    0.25022    0.00551    0.05250
 57 Cr   -0.19766    0.11620   -0.08894
 58 Ni    0.07381    0.14955    0.09060
 59 Ni   -0.03626    0.03894   -0.04116
[...]
 93 Ni    0.26817    0.10516    0.11269
 94 Co    0.01953    0.25042    0.15771
 95 Cr    0.24805    0.33092    0.35014
 96 Ni   -0.27271   -0.09305   -0.01755
 97 Fe    0.08922   -0.08496    0.13214
 98 Co   -0.23447   -0.00285   -0.05652
 99 Fe    0.23451    0.16021    0.23913
100 Fe   -0.00976    0.16806    0.43269
101 Co   -0.14904    0.21898   -0.02002
102 Ni    0.17625    0.02389    0.07422
103 Co   -0.20662    0.16859   -0.24276
104 Cr   -0.02659   -0.18446    0.10158
105 Fe    0.06548   -0.21359    0.09154
106 Co   -0.02972   -0.02928    0.05858
107 Cr    0.22775   -0.01998    0.14141

Date: Sat Apr 15 18:13:03 2023