User:   c.zeng@d0083
Date:   Fri Apr 14 03:44:49 2023
Arch:   x86_64
Pid:    275656
CWD:    /home/c.zeng/projects/hea-corrosion/hea-mlp/data-curation/bulk-md/dft-jobs/9
Python: 3.8.1
gpaw:   /home/c.zeng/usr/installs/gpaw/source/gpaw-22.8.0/gpaw
_gpaw:  /home/c.zeng/usr/installs/gpaw/source/gpaw-22.8.0/
        _gpaw.cpython-38-x86_64-linux-gnu.so
ase:    /home/c.zeng/.local/lib/python3.8/site-packages/ase-3.22.1-py3.8.egg/ase (version 3.22.1)
numpy:  /shared/centos7/python/3.8.1/lib/python3.8/site-packages/numpy (version 1.17.4)
scipy:  /shared/centos7/python/3.8.1/lib/python3.8/site-packages/scipy (version 1.4.1)
units:  Angstrom and eV
cores: 30
OpenMP: False
OMP_NUM_THREADS: 1

Input parameters:
  convergence: {energy: 0.0001}
  kpts: [2 2 2]
  maxiter: 666
  mode: {ecut: 350.0,
         name: pw}
  occupations: {fixmagmom: False,
                name: fermi-dirac,
                width: 0.1}
  spinpol: True
  xc: PBE

System changes: positions, numbers, cell, pbc, initial_charges, initial_magmoms

Initialize ...

species:
  Co:
    name: Cobalt
    id: 339d20d5b0b93d2de9531a1bee871d91
    Z: 27.0
    valence: 9
    core: 18
    charge: 0.0
    file: /home/c.zeng/usr/data/gpaw-setups-0.9.20000/Co.PBE.gz
    compensation charges: {type: gauss,
                           rc: 0.32,
                           lmax: 2}
    cutoffs: {filter: 1.87,
              core: 2.55}
    valence states:
      #              energy  rcut
      - 4s(2.00)    -5.469   1.005
      - 4p(0.00)    -1.277   1.058
      - 3d(7.00)    -8.205   1.005
      -  s          21.742   1.005
      -  p          25.934   1.058
      -  d          19.007   1.005

    # Using partial waves for Co as LCAO basis

  Fe:
    name: Iron
    id: 37abbd8d6c3c35915a9b583b742da910
    Z: 26.0
    valence: 8
    core: 18
    charge: 0.0
    file: /home/c.zeng/usr/data/gpaw-setups-0.9.20000/Fe.PBE.gz
    compensation charges: {type: gauss,
                           rc: 0.33,
                           lmax: 2}
    cutoffs: {filter: 2.06,
              core: 2.67}
    valence states:
      #              energy  rcut
      - 4s(2.00)    -5.291   1.164
      - 4p(0.00)    -1.326   1.058
      - 3d(6.00)    -7.505   1.058
      -  s          21.920   1.164
      -  p          25.885   1.058
      -  d          19.706   1.058

[...]

  Cr:
    name: Chromium
    id: 33f258bda2ca9f93018e70263a35547b
    Z: 24.0
    valence: 6
    core: 18
    charge: 0.0
    file: /home/c.zeng/usr/data/gpaw-setups-0.9.20000/Cr.PBE.gz
    compensation charges: {type: gauss,
                           rc: 0.35,
                           lmax: 2}
    cutoffs: {filter: 2.14,
              core: 3.04}
    valence states:
      #              energy  rcut
      - 4s(1.00)    -4.007   1.164
      - 4p(0.00)    -0.989   1.217
      - 3d(5.00)    -2.913   1.111
      -  s          23.205   1.164
      -  p          26.223   1.217
      -  d          24.299   1.111

[...]

  Ni:
    name: Nickel
    id: 0d9f38a9d6e76a2886f07bb4381f212b
    Z: 28.0
    valence: 16
    core: 12
    charge: 0.0
    file: /home/c.zeng/usr/data/gpaw-setups-0.9.20000/Ni.PBE.gz
    compensation charges: {type: gauss,
                           rc: 0.36,
                           lmax: 2}
    cutoffs: {filter: 2.14,
              core: 1.98}
    valence states:
      #              energy  rcut
      - 4s(2.00)    -5.642   1.164
      - 3p(6.00)   -71.394   1.207
      - 4p(0.00)    -1.226   1.207
      - 3d(8.00)    -8.875   1.138
      -  s          21.570   1.164
      -  d          18.337   1.138

    # Using partial waves for Ni as LCAO basis

Reference energy: -3846758.590871  # eV

Spin-polarized calculation.
Magnetic moment: 151.200000

Convergence criteria:
 Maximum [total energy] change in last 3 cyles: 0.0001 eV / electron
 Maximum integral of absolute [dens]ity change: 0.0001 electrons / valence electron
 Maximum integral of absolute [eigenst]ate change: 4e-08 eV^2 / valence electron
 Maximum number of scf [iter]ations: 666
 (Square brackets indicate name in SCF output, whereas a 'c' in
 the SCF output indicates the quantity has converged.)

Symmetries present (total): 1

  ( 1  0  0)
  ( 0  1  0)
  ( 0  0  1)

8 k-points: 2 x 2 x 2 Monkhorst-Pack grid
4 k-points in the irreducible part of the Brillouin zone
       k-points in crystal coordinates                weights
   0:     0.25000000   -0.25000000   -0.25000000          2/8
   1:     0.25000000   -0.25000000    0.25000000          2/8
   2:     0.25000000    0.25000000   -0.25000000          2/8
   3:     0.25000000    0.25000000    0.25000000          2/8

Wave functions: Plane wave expansion
  Cutoff energy: 350.000 eV
  Number of coefficients (min, max): 17755, 17755
  Pulay-stress correction: 0.000000 eV/Ang^3 (de/decut=0.000000)
  Using FFTW library
  ScaLapack parameters: grid=1x1, blocksize=None
  Wavefunction extrapolation:
    Improved wavefunction reuse through dual PAW basis

Occupation numbers: Fermi-Dirac:
  width: 0.1000  # eV

Eigensolver
   Davidson(niter=2)

Densities:
  Coarse grid: 48*48*48 grid
  Fine grid: 96*96*96 grid
  Total Charge: 0.000000

Density mixing:
  Method: difference
  Backend: pulay
  Linear mixing parameter: 0.05
  old densities: 5
  Damping of long wavelength oscillations: 50

Hamiltonian:
  XC and Coulomb potentials evaluated on a 96*96*96 grid
  Using the PBE Exchange-Correlation functional
  External potential:
    NoExternalPotential

XC parameters: PBE with 2 nearest neighbor stencil

Total number of cores used: 30
Parallelization over k-points: 2
Domain decomposition: 5 x 3 x 1

Number of atoms: 108
Number of atomic orbitals: 1053
Number of bands in calculation: 727
Number of valence electrons: 1053
Bands to converge: occupied

... initialized

Initializing position-dependent things.

Density initialized from atomic densities
Creating initial wave functions:
  727 bands from LCAO basis set

       /|  Cr                Cr   |
      / |   Fe       Fe       Co  |
     /Fe|               Co        |
    /   |  Fe   CrCre    NCr     Co
   /    |   Ni      CCo    CrCr   Co
  /  Co |  CrFe       Ni    Cr    |
 *    NiCCr    CNi     NiNi       |
 |     FeNiCo   NCo Fe  CoCrCo    |
 |      |  FCr     CoNi    CrCr   |
 |   NiCr  NiFe Cr  NiFeNi   Ni   |
 |     Fe     FeFe   CoFeCo     Ni|
 |Ni   CoCoCo   CrNiFe  Ni Ni     |
 |  Cr  .-CCo--Cr-Co-NNi-Fe-Ni----.
 |    Fe     Co Fe  CoNi         /
 |    /Cr Fe  Fe Ni    Co     Fe/
 |   /   FeCr     Fe     CoFeo /
 |  /               Ni        /
 | /  Fe       Cr     Ni     /
 |/   Fe                Co  /
 Co------------------------*

Positions:
   0 Co     0.020215    0.046966   10.724438    ( 0.0000,  0.0000,  2.1000)
   1 Co    -0.136376    1.931775    1.850797    ( 0.0000,  0.0000,  2.1000)
   2 Fe     1.859359    0.167870    1.746053    ( 0.0000,  0.0000,  2.0000)
   3 Fe     1.487934    1.900012   10.746090    ( 0.0000,  0.0000,  2.0000)
   4 Cr     3.376612    0.069755   10.529567    ( 0.0000,  0.0000,  0.0000)
   5 Cr     3.310722    2.134854    1.791345    ( 0.0000,  0.0000,  0.0000)
   6 Co     5.232490   10.536900    1.834571    ( 0.0000,  0.0000,  2.1000)
   7 Cr     5.146373    1.872001   10.918440    ( 0.0000,  0.0000,  0.0000)
   8 Fe     7.110722   -0.038082   10.682684    ( 0.0000,  0.0000,  2.0000)
   9 Ni     7.160129    1.956216    1.729953    ( 0.0000,  0.0000,  1.5000)
  10 Ni     8.557544    0.131114    1.819049    ( 0.0000,  0.0000,  1.5000)
  11 Co     8.955089    1.720744   10.689087    ( 0.0000,  0.0000,  2.1000)
  12 Cr    10.528616    3.661733   -0.133117    ( 0.0000,  0.0000,  0.0000)
  13 Fe    10.507454    5.332697    1.585428    ( 0.0000,  0.0000,  2.0000)
  14 Cr     1.444897    3.492050    1.843152    ( 0.0000,  0.0000,  0.0000)
  15 Fe     1.665913    5.208462   10.721077    ( 0.0000,  0.0000,  2.0000)
  16 Ni     3.612153    3.678095   10.602786    ( 0.0000,  0.0000,  1.5000)
  17 Co     3.387925    5.248368    1.668305    ( 0.0000,  0.0000,  2.1000)
  18 Ni     5.488107    3.755261    1.716942    ( 0.0000,  0.0000,  1.5000)
  19 Cr     5.306799    5.317021   10.595999    ( 0.0000,  0.0000,  0.0000)
  20 Co     7.212294    3.507309   10.533627    ( 0.0000,  0.0000,  2.1000)
  21 Ni     7.219078    5.142881    1.827541    ( 0.0000,  0.0000,  1.5000)
  22 Co     8.935305    3.368690    1.779715    ( 0.0000,  0.0000,  2.1000)
  23 Cr     8.861427    5.364977   -0.129604    ( 0.0000,  0.0000,  0.0000)
  24 Fe     0.089640    7.091354   10.459685    ( 0.0000,  0.0000,  2.0000)
  25 Co    10.687684    9.003658    1.642579    ( 0.0000,  0.0000,  2.1000)
  26 Cr     1.685872    7.067203    1.899288    ( 0.0000,  0.0000,  0.0000)
  27 Cr     1.751409    9.081104   10.560237    ( 0.0000,  0.0000,  0.0000)
  28 Fe     3.532825    6.886394   10.651355    ( 0.0000,  0.0000,  2.0000)
  29 Cr     3.634739    8.953873    1.822795    ( 0.0000,  0.0000,  0.0000)
  30 Co     5.313874    6.766596    1.836562    ( 0.0000,  0.0000,  2.1000)
  31 Co     5.241792    8.737139   10.716039    ( 0.0000,  0.0000,  2.1000)
  32 Cr     6.977072    6.816190   10.796148    ( 0.0000,  0.0000,  0.0000)
  33 Ni     6.920841    8.697244    1.548968    ( 0.0000,  0.0000,  1.5000)
  34 Ni     8.920179    7.054846    1.643462    ( 0.0000,  0.0000,  1.5000)
  35 Cr     8.912950    8.824177   10.530037    ( 0.0000,  0.0000,  0.0000)
  36 Fe    -0.120643   10.634064    3.524982    ( 0.0000,  0.0000,  2.0000)
  37 Ni    10.736155    1.696434    5.596508    ( 0.0000,  0.0000,  1.5000)
  38 Cr     1.776003   -0.133802    5.420373    ( 0.0000,  0.0000,  0.0000)
  39 Fe     1.660191    1.628078    3.774073    ( 0.0000,  0.0000,  2.0000)
  40 Fe     3.490948    0.002519    3.752041    ( 0.0000,  0.0000,  2.0000)
  41 Co     3.593291    1.772135    5.491732    ( 0.0000,  0.0000,  2.1000)
  42 Cr     5.508381    0.250631    5.291394    ( 0.0000,  0.0000,  0.0000)
  43 Fe     5.434125    1.919761    3.468495    ( 0.0000,  0.0000,  2.0000)
  44 Fe     6.887431    0.057390    3.534062    ( 0.0000,  0.0000,  2.0000)
  45 Fe     7.051641    1.984412    5.310486    ( 0.0000,  0.0000,  2.0000)
  46 Ni     8.582148    0.019872    5.468747    ( 0.0000,  0.0000,  1.5000)
  47 Co     8.581047    1.612500    3.579236    ( 0.0000,  0.0000,  2.1000)
  48 Cr     0.316080    3.591903    3.722467    ( 0.0000,  0.0000,  0.0000)
  49 Ni     0.155143    5.410774    5.390445    ( 0.0000,  0.0000,  1.5000)
  50 Fe     1.671640    3.562727    5.601548    ( 0.0000,  0.0000,  2.0000)
  51 Co     1.695769    5.424308    3.582837    ( 0.0000,  0.0000,  2.1000)
  52 Co     3.306108    3.614012    3.607497    ( 0.0000,  0.0000,  2.1000)
  53 Fe     3.657731    5.347142    5.345428    ( 0.0000,  0.0000,  2.0000)
  54 Fe     5.237598    3.368236    5.274144    ( 0.0000,  0.0000,  2.0000)
  55 Ni     5.399820    5.182035    3.552759    ( 0.0000,  0.0000,  1.5000)
  56 Ni     7.139730    3.560255    3.460791    ( 0.0000,  0.0000,  1.5000)
  57 Fe     6.981256    5.402858    5.159411    ( 0.0000,  0.0000,  2.0000)
  58 Co     8.936927    3.410287    5.182797    ( 0.0000,  0.0000,  2.1000)
  59 Ni     9.058209    5.408730    3.558055    ( 0.0000,  0.0000,  1.5000)
[...]
  93 Ni     7.254459    5.268756    8.813733    ( 0.0000,  0.0000,  1.5000)
  94 Ni     8.816090    3.494379    8.906854    ( 0.0000,  0.0000,  1.5000)
  95 Cr     8.853084    5.165872    7.003258    ( 0.0000,  0.0000,  0.0000)
  96 Ni     0.134319    7.046113    6.985345    ( 0.0000,  0.0000,  1.5000)
  97 Co    -0.128501    8.862084    8.615347    ( 0.0000,  0.0000,  2.1000)
  98 Fe     2.137352    7.238834    8.769580    ( 0.0000,  0.0000,  2.0000)
  99 Cr     1.885896    8.815077    7.031451    ( 0.0000,  0.0000,  0.0000)
 100 Co     3.780436    7.027957    7.081808    ( 0.0000,  0.0000,  2.1000)
 101 Cr     3.739795    8.798989    8.730868    ( 0.0000,  0.0000,  0.0000)
 102 Fe     5.452925    6.980733    8.917639    ( 0.0000,  0.0000,  2.0000)
 103 Co     5.376932    8.818623    7.092487    ( 0.0000,  0.0000,  2.1000)
 104 Ni     7.020861    7.040578    6.956802    ( 0.0000,  0.0000,  1.5000)
 105 Co     7.026629    8.821737    8.760894    ( 0.0000,  0.0000,  2.1000)
 106 Cr     8.896235    7.053276    8.547053    ( 0.0000,  0.0000,  0.0000)
 107 Cr     8.731142    8.821805    6.852987    ( 0.0000,  0.0000,  0.0000)

Unit cell:
           periodic     x           y           z      points  spacing
  1. axis:    yes   10.614300    0.000000    0.000000    48     0.2211
  2. axis:    yes    0.000000   10.614300    0.000000    48     0.2211
  3. axis:    yes    0.000000    0.000000   10.614300    48     0.2211

  Lengths:  10.614300  10.614300  10.614300
  Angles:   90.000000  90.000000  90.000000

Effective grid spacing dv^(1/3) = 0.2211

     iter     time        total  log10-change:  magmom
                         energy  eigst   dens
iter:   1 03:51:23 -1065.101917                  +151.4734
iter:   2 03:54:24  -936.528404  -0.28  -1.20    +84.3444
iter:   3 03:57:24  -930.951981  -0.92  -1.24    +68.8760
iter:   4 04:00:24  -915.892320  -1.24  -1.30    +64.5794
iter:   5 04:03:25  -896.628431  -1.63  -1.30    +59.1392
iter:   6 04:06:24  -899.396036  -1.26  -1.37    +58.6249
iter:   7 04:09:25  -890.897986  -1.22  -1.45    +56.9433
iter:   8 04:12:23  -874.843211  -1.59  -1.56    +55.6601
iter:   9 04:15:24  -874.297399  -2.20  -1.81    +56.4820
iter:  10 04:18:25  -873.842068  -2.31  -1.82    +57.8502
iter:  11 04:21:26  -873.452590  -2.61  -1.86    +59.3819
iter:  12 04:24:27  -873.998711  -2.68  -1.92    +60.7804
iter:  13 04:27:28  -876.068025  -2.45  -1.95    +62.0088
iter:  14 04:30:29  -875.554120  -2.42  -1.96    +62.7060
iter:  15 04:33:30  -874.129111  -2.76  -2.03    +63.2977
iter:  16 04:36:30  -874.639100  -2.91  -2.22    +64.3567
iter:  17 04:39:30  -874.356788  -3.12  -2.22    +64.9395
iter:  18 04:42:31  -874.429445  -3.35  -2.28    +65.7570
iter:  19 04:45:31  -874.363044c -3.24  -2.31    +66.2791
iter:  20 04:48:32  -874.418958c -3.43  -2.41    +66.8526
iter:  21 04:51:32  -874.337791c -3.44  -2.42    +67.2037
iter:  22 04:54:32  -874.402855c -3.46  -2.52    +67.6308
iter:  23 04:57:32  -874.348150c -3.73  -2.52    +67.9006
iter:  24 05:00:30  -874.344523c -3.76  -2.59    +68.2866
iter:  25 05:03:31  -874.352556c -3.88  -2.64    +68.5320
iter:  26 05:06:32  -874.400649c -3.86  -2.67    +68.8117
iter:  27 05:09:33  -874.351325c -3.93  -2.66    +68.8819
iter:  28 05:12:34  -874.352036c -4.23  -2.75    +69.1167
iter:  29 05:15:35  -874.367723c -4.30  -2.80    +69.3168
iter:  30 05:18:35  -874.364924c -4.42  -2.81    +69.3843
iter:  31 05:21:35  -874.382638c -4.51  -2.84    +69.5471
iter:  32 05:24:35  -874.372556c -4.50  -2.86    +69.6344
iter:  33 05:27:36  -874.381725c -4.62  -2.92    +69.7152
iter:  34 05:30:37  -874.385089c -4.76  -2.96    +69.7545
iter:  35 05:33:38  -874.387591c -4.74  -2.98    +69.8411
iter:  36 05:36:40  -874.393825c -4.78  -3.05    +69.8718
iter:  37 05:39:42  -874.403966c -4.65  -3.08    +69.9116
iter:  38 05:42:44  -874.398751c -4.84  -3.07    +69.9399
iter:  39 05:45:47  -874.406379c -4.83  -3.17    +69.9633
iter:  40 05:48:48  -874.406245c -4.95  -3.18    +69.9711
iter:  41 05:51:51  -874.409920c -5.02  -3.22    +70.0064
iter:  42 05:54:54  -874.411189c -5.01  -3.26    +70.0135
iter:  43 05:57:57  -874.413363c -5.16  -3.30    +70.0270
iter:  44 06:00:59  -874.414704c -5.25  -3.33    +70.0524
iter:  45 06:04:03  -874.416364c -5.35  -3.37    +70.0556
iter:  46 06:07:06  -874.418028c -5.34  -3.39    +70.0645
iter:  47 06:10:09  -874.418412c -5.45  -3.41    +70.0754
iter:  48 06:13:13  -874.418810c -5.61  -3.46    +70.0716
iter:  49 06:16:16  -874.420039c -5.62  -3.50    +70.0763
iter:  50 06:19:19  -874.420657c -5.73  -3.50    +70.0853
iter:  51 06:22:21  -874.421266c -5.72  -3.54    +70.0831
iter:  52 06:25:22  -874.421698c -5.81  -3.56    +70.0884
iter:  53 06:28:25  -874.422493c -5.89  -3.60    +70.0942
iter:  54 06:31:28  -874.422997c -5.92  -3.62    +70.0908
iter:  55 06:34:31  -874.423486c -5.95  -3.65    +70.0953
iter:  56 06:37:34  -874.424406c -5.96  -3.68    +70.1009
iter:  57 06:40:38  -874.424595c -6.04  -3.71    +70.0965
iter:  58 06:43:41  -874.425236c -6.06  -3.74    +70.1010
iter:  59 06:46:44  -874.425809c -6.15  -3.78    +70.1026
iter:  60 06:49:47  -874.426198c -6.20  -3.81    +70.0969
iter:  61 06:52:50  -874.426694c -6.18  -3.85    +70.0982
iter:  62 06:55:53  -874.427122c -6.33  -3.87    +70.0986
iter:  63 06:58:56  -874.427350c -6.35  -3.92    +70.0939
iter:  64 07:01:59  -874.427778c -6.41  -3.93    +70.0962
iter:  65 07:05:02  -874.428142c -6.54  -3.98    +70.0950
iter:  66 07:08:04  -874.428352c -6.47  -4.00c   +70.0873
iter:  67 07:11:03  -874.428641c -6.62  -4.04c   +70.0889
iter:  68 07:14:07  -874.429000c -6.62  -4.06c   +70.0875
iter:  69 07:17:10  -874.428989c -6.66  -4.07c   +70.0828
iter:  70 07:20:13  -874.429257c -6.74  -4.08c   +70.0841
iter:  71 07:23:16  -874.429552c -6.76  -4.12c   +70.0825
iter:  72 07:26:19  -874.429568c -6.78  -4.12c   +70.0769
iter:  73 07:29:22  -874.429775c -6.73  -4.16c   +70.0763
iter:  74 07:32:26  -874.429928c -6.88  -4.17c   +70.0748
iter:  75 07:35:29  -874.429962c -6.82  -4.20c   +70.0725
iter:  76 07:38:32  -874.430137c -6.90  -4.20c   +70.0727
iter:  77 07:41:35  -874.430228c -7.03  -4.24c   +70.0710
iter:  78 07:44:37  -874.430285c -6.93  -4.28c   +70.0685
iter:  79 07:47:40  -874.430471c -6.92  -4.30c   +70.0683
iter:  80 07:50:42  -874.430546c -7.04  -4.32c   +70.0659
iter:  81 07:53:44  -874.430572c -6.95  -4.36c   +70.0638
iter:  82 07:56:44  -874.430732c -7.06  -4.36c   +70.0654
iter:  83 07:59:44  -874.430801c -7.25  -4.40c   +70.0642
iter:  84 08:02:48  -874.430786c -7.14  -4.43c   +70.0613
iter:  85 08:05:51  -874.430935c -7.15  -4.48c   +70.0620
iter:  86 08:08:54  -874.430928c -7.42c -4.49c   +70.0610

Converged after 86 iterations.

Dipole moment: (-7.329280, 7.458793, -17.074080) |e|*Ang

Total magnetic moment: (0.000000, 0.000000, 70.060997)
Local magnetic moments:
   0 Co ( 0.000000,  0.000000,  1.164097)
   1 Co ( 0.000000,  0.000000,  0.969539)
   2 Fe ( 0.000000,  0.000000,  1.479931)
   3 Fe ( 0.000000,  0.000000,  1.596431)
   4 Cr ( 0.000000,  0.000000,  0.217370)
   5 Cr ( 0.000000,  0.000000, -0.328981)
   6 Co ( 0.000000,  0.000000,  0.943660)
   7 Cr ( 0.000000,  0.000000, -1.211530)
   8 Fe ( 0.000000,  0.000000,  2.434998)
   9 Ni ( 0.000000,  0.000000,  0.468881)
  10 Ni ( 0.000000,  0.000000,  0.592857)
  11 Co ( 0.000000,  0.000000,  1.496935)
  12 Cr ( 0.000000,  0.000000, -0.303588)
  13 Fe ( 0.000000,  0.000000,  1.445599)
  14 Cr ( 0.000000,  0.000000, -0.103687)
  15 Fe ( 0.000000,  0.000000,  1.174630)
  16 Ni ( 0.000000,  0.000000,  0.154683)
  17 Co ( 0.000000,  0.000000,  1.047336)
  18 Ni ( 0.000000,  0.000000,  0.255362)
  19 Cr ( 0.000000,  0.000000, -1.080506)
  20 Co ( 0.000000,  0.000000,  1.229076)
  21 Ni ( 0.000000,  0.000000,  0.199486)
  22 Co ( 0.000000,  0.000000,  1.422579)
  23 Cr ( 0.000000,  0.000000, -0.981401)
  24 Fe ( 0.000000,  0.000000,  1.964005)
  25 Co ( 0.000000,  0.000000,  1.078600)
  26 Cr ( 0.000000,  0.000000, -1.459024)
  27 Cr ( 0.000000,  0.000000, -0.933194)
  28 Fe ( 0.000000,  0.000000,  2.012451)
  29 Cr ( 0.000000,  0.000000, -1.448403)
  30 Co ( 0.000000,  0.000000,  1.107992)
  31 Co ( 0.000000,  0.000000,  0.910325)
  32 Cr ( 0.000000,  0.000000,  0.588270)
  33 Ni ( 0.000000,  0.000000,  0.396020)
  34 Ni ( 0.000000,  0.000000,  0.223322)
  35 Cr ( 0.000000,  0.000000, -1.888596)
  36 Fe ( 0.000000,  0.000000,  2.517300)
  37 Ni ( 0.000000,  0.000000,  0.268840)
  38 Cr ( 0.000000,  0.000000, -0.263487)
  39 Fe ( 0.000000,  0.000000,  1.909062)
  40 Fe ( 0.000000,  0.000000,  2.261390)
  41 Co ( 0.000000,  0.000000,  0.328827)
  42 Cr ( 0.000000,  0.000000, -0.979891)
  43 Fe ( 0.000000,  0.000000,  2.167451)
  44 Fe ( 0.000000,  0.000000,  2.111740)
  45 Fe ( 0.000000,  0.000000,  1.687387)
  46 Ni ( 0.000000,  0.000000,  0.389602)
  47 Co ( 0.000000,  0.000000,  1.529870)
  48 Cr ( 0.000000,  0.000000, -0.867429)
  49 Ni ( 0.000000,  0.000000,  0.196375)
  50 Fe ( 0.000000,  0.000000,  1.794169)
  51 Co ( 0.000000,  0.000000,  0.907658)
  52 Co ( 0.000000,  0.000000,  1.384814)
  53 Fe ( 0.000000,  0.000000,  2.433688)
  54 Fe ( 0.000000,  0.000000,  1.360185)
  55 Ni ( 0.000000,  0.000000,  0.511442)
  56 Ni ( 0.000000,  0.000000,  0.444495)
  57 Fe ( 0.000000,  0.000000,  1.975590)
  58 Co ( 0.000000,  0.000000,  1.300987)
  59 Ni ( 0.000000,  0.000000,  0.278279)
[...]
  93 Ni ( 0.000000,  0.000000,  0.193873)
  94 Ni ( 0.000000,  0.000000,  0.120443)
  95 Cr ( 0.000000,  0.000000,  0.187470)
  96 Ni ( 0.000000,  0.000000,  0.237664)
  97 Co ( 0.000000,  0.000000,  0.859771)
  98 Fe ( 0.000000,  0.000000,  1.558958)
  99 Cr ( 0.000000,  0.000000, -0.975315)
 100 Co ( 0.000000,  0.000000,  1.212288)
 101 Cr ( 0.000000,  0.000000, -0.726924)
 102 Fe ( 0.000000,  0.000000,  1.892141)
 103 Co ( 0.000000,  0.000000,  0.979312)
 104 Ni ( 0.000000,  0.000000,  0.233511)
 105 Co ( 0.000000,  0.000000,  1.203858)
 106 Cr ( 0.000000,  0.000000,  1.151412)
 107 Cr ( 0.000000,  0.000000, -1.319648)

Energy contributions relative to reference atoms: (reference = -3846758.590871)

Kinetic:       +347.573144
Potential:     -370.268237
External:        +0.000000
XC:            -888.904419
Entropy (-ST):   -4.731704
Local:          +39.534436
Free energy:   -876.796780
Extrapolated:  -874.430928

Spin contamination: 22.797538 electrons
Showing only first 2 kpts
                      Up                     Down
 Kpt  Band  Eigenvalues  Occupancy  Eigenvalues  Occupancy
  0   524      9.85240    0.99485     10.75503    0.02269
  0   525      9.86239    0.99431     10.77141    0.01933
  0   526      9.86919    0.99391     10.78318    0.01722
  0   527      9.88985    0.99253     10.80097    0.01445

  1   524      9.84038    0.99543     10.76220    0.02115
  1   525      9.85080    0.99493     10.77370    0.01890
  1   526      9.87097    0.99380     10.79417    0.01545
  1   527      9.87819    0.99334     10.79891    0.01475

Fermi level: 10.37873

No gap

Forces in eV/Ang:
  0 Co   -0.48449    0.25840   -0.55128
  1 Co    1.04528   -2.69187    0.72162
  2 Fe   -0.17650    0.49530    0.00724
  3 Fe    1.38033   -0.21099   -1.52339
  4 Cr    0.54030    0.10997    0.34426
  5 Cr    0.98683   -1.40607    0.47854
  6 Co    0.21359    1.29791   -0.81449
  7 Cr    0.28083   -0.93016   -0.86364
  8 Fe   -1.20323   -0.12473   -0.82283
  9 Ni   -1.56724   -1.06231   -0.62466
 10 Ni    2.09929   -2.04837   -0.18962
 11 Co   -0.24260    0.23400   -1.03188
 12 Cr   -0.13711   -0.67957   -0.04912
 13 Fe    0.27213   -0.13780    1.08652
 14 Cr    1.51560    1.03708    0.11193
 15 Fe    0.71533    0.70820   -0.45772
 16 Ni   -1.16164   -1.67132    0.12512
 17 Co    0.35584   -0.21899    1.81762
 18 Ni   -1.98671   -1.57948   -0.00726
 19 Cr    0.69260   -0.34524   -0.26017
 20 Co   -0.99688    0.83931    1.12617
 21 Ni    1.34612    1.79474   -0.48881
 22 Co   -0.52419    2.47688    0.44352
 23 Cr    0.42544    0.23570    0.50586
 24 Fe    0.27795    0.72298    0.28691
 25 Co   -0.89037   -1.11132    0.89185
 26 Cr    0.49798    0.26451   -1.45125
 27 Cr    0.50299   -1.20960   -0.14715
 28 Fe   -0.18561    1.69876    0.20359
 29 Cr   -0.82639   -0.61022   -0.51773
 30 Co   -0.08103    1.21764   -0.09668
 31 Co   -0.80486    0.13580   -1.08076
 32 Cr    0.82435    1.11656   -1.44641
 33 Ni    1.85147    0.58103    1.77350
 34 Ni   -0.33483    0.89136    0.39250
 35 Cr   -0.25052   -0.57464    0.41650
 36 Fe   -0.25508    0.70005    0.19377
 37 Ni   -1.36966    0.46926   -1.14774
 38 Cr    0.22823    0.25191    0.34828
 39 Fe    0.66494    0.72020   -0.48461
 40 Fe    1.62420    0.77165   -1.13207
 41 Co   -0.68430   -0.50491   -1.25726
 42 Cr   -1.02661   -1.23067    0.18506
 43 Fe   -1.93644   -0.11143   -0.58952
 44 Fe    0.66843   -0.78438   -0.53754
 45 Fe    0.62198   -1.17996    0.27079
 46 Ni    0.95593    0.92479   -1.37186
 47 Co    1.82417    1.00789    0.45085
 48 Cr   -1.49591   -0.57926   -0.05363
 49 Ni   -0.47966   -0.11181   -0.56155
 50 Fe    1.00052   -0.58062   -0.62200
 51 Co    0.69551   -0.49096   -0.26788
 52 Co    0.47902   -0.45164    0.31218
 53 Fe   -0.15025   -0.14313   -0.62702
 54 Fe   -0.08321    1.53596   -0.36444
 55 Ni   -1.56659    0.56561   -0.04480
 56 Ni    0.62601    0.08071    1.46279
 57 Fe    1.20974   -1.52973   -0.06155
 58 Co    0.58682    1.04184   -0.36465
 59 Ni   -0.54930   -2.07691   -0.44009
[...]
 93 Ni   -1.61624   -0.13737   -0.51838
 94 Ni    0.09999    0.10711   -0.68107
 95 Cr    1.08190    1.27736    0.28754
 96 Ni   -0.10900    0.31115    0.84644
 97 Co    1.21043   -1.15001    0.92528
 98 Fe   -2.20097   -0.81510    0.44525
 99 Cr   -0.33800    0.17955    0.15994
100 Co   -0.38906    0.28930   -0.24804
101 Cr   -0.31740   -0.34895    1.46966
102 Fe   -0.26561    0.73960   -0.44250
103 Co    0.35965   -0.04111   -0.53350
104 Ni    0.48567   -0.06020    1.22041
105 Co    0.57614   -0.26167    0.92894
106 Cr   -0.39795    0.15638    0.89075
107 Cr    0.34896   -0.58240    0.99770

Date: Fri Apr 14 08:09:18 2023