User:   c.zeng@d0085
Date:   Fri Apr 14 17:59:02 2023
Arch:   x86_64
Pid:    57877
CWD:    /home/c.zeng/projects/hea-corrosion/hea-mlp/data-curation/bulk-mcmc/dft-jobs/157
Python: 3.8.1
gpaw:   /home/c.zeng/usr/installs/gpaw/source/gpaw-22.8.0/gpaw
_gpaw:  /home/c.zeng/usr/installs/gpaw/source/gpaw-22.8.0/
        _gpaw.cpython-38-x86_64-linux-gnu.so
ase:    /home/c.zeng/.local/lib/python3.8/site-packages/ase-3.22.1-py3.8.egg/ase (version 3.22.1)
numpy:  /shared/centos7/python/3.8.1/lib/python3.8/site-packages/numpy (version 1.17.4)
scipy:  /shared/centos7/python/3.8.1/lib/python3.8/site-packages/scipy (version 1.4.1)
units:  Angstrom and eV
cores: 30
OpenMP: False
OMP_NUM_THREADS: 1

Input parameters:
  convergence: {energy: 0.0001}
  kpts: [2 2 2]
  maxiter: 666
  mode: {ecut: 350.0,
         name: pw}
  occupations: {fixmagmom: False,
                name: fermi-dirac,
                width: 0.1}
  spinpol: True
  xc: PBE

System changes: positions, numbers, cell, pbc, initial_charges, initial_magmoms

Initialize ...

species:
  Co:
    name: Cobalt
    id: 339d20d5b0b93d2de9531a1bee871d91
    Z: 27.0
    valence: 9
    core: 18
    charge: 0.0
    file: /home/c.zeng/usr/data/gpaw-setups-0.9.20000/Co.PBE.gz
    compensation charges: {type: gauss,
                           rc: 0.32,
                           lmax: 2}
    cutoffs: {filter: 1.87,
              core: 2.55}
    valence states:
      #              energy  rcut
      - 4s(2.00)    -5.469   1.005
      - 4p(0.00)    -1.277   1.058
      - 3d(7.00)    -8.205   1.005
      -  s          21.742   1.005
      -  p          25.934   1.058
      -  d          19.007   1.005

    # Using partial waves for Co as LCAO basis

  Fe:
    name: Iron
    id: 37abbd8d6c3c35915a9b583b742da910
    Z: 26.0
    valence: 8
    core: 18
    charge: 0.0
    file: /home/c.zeng/usr/data/gpaw-setups-0.9.20000/Fe.PBE.gz
    compensation charges: {type: gauss,
                           rc: 0.33,
                           lmax: 2}
    cutoffs: {filter: 2.06,
              core: 2.67}
    valence states:
      #              energy  rcut
      - 4s(2.00)    -5.291   1.164
      - 4p(0.00)    -1.326   1.058
      - 3d(6.00)    -7.505   1.058
      -  s          21.920   1.164
      -  p          25.885   1.058
      -  d          19.706   1.058

[...]

  Al:
    name: Aluminium
    id: 0292cae29f5d6237e50f6abdd43a7bdd
    Z: 13.0
    valence: 3
    core: 10
    charge: 0.0
    file: /home/c.zeng/usr/data/gpaw-setups-0.9.20000/Al.PBE.gz
    compensation charges: {type: gauss,
                           rc: 0.34,
                           lmax: 2}
    cutoffs: {filter: 1.91,
              core: 2.36}
    valence states:
      #              energy  rcut
      - 3s(2.00)    -7.753   1.085
      - 3p(1.00)    -2.712   1.085
      -  s          19.459   1.085
      -  p          24.499   1.085
      -  d           0.000   1.085

[...]

  Cr:
    name: Chromium
    id: 33f258bda2ca9f93018e70263a35547b
    Z: 24.0
    valence: 6
    core: 18
    charge: 0.0
    file: /home/c.zeng/usr/data/gpaw-setups-0.9.20000/Cr.PBE.gz
    compensation charges: {type: gauss,
                           rc: 0.35,
                           lmax: 2}
    cutoffs: {filter: 2.14,
              core: 3.04}
    valence states:
      #              energy  rcut
      - 4s(1.00)    -4.007   1.164
      - 4p(0.00)    -0.989   1.217
      - 3d(5.00)    -2.913   1.111
      -  s          23.205   1.164
      -  p          26.223   1.217
      -  d          24.299   1.111

[...]

  Ni:
    name: Nickel
    id: 0d9f38a9d6e76a2886f07bb4381f212b
    Z: 28.0
    valence: 16
    core: 12
    charge: 0.0
    file: /home/c.zeng/usr/data/gpaw-setups-0.9.20000/Ni.PBE.gz
    compensation charges: {type: gauss,
                           rc: 0.36,
                           lmax: 2}
    cutoffs: {filter: 2.14,
              core: 1.98}
    valence states:
      #              energy  rcut
      - 4s(2.00)    -5.642   1.164
      - 3p(6.00)   -71.394   1.207
      - 4p(0.00)    -1.226   1.207
      - 3d(8.00)    -8.875   1.138
      -  s          21.570   1.164
      -  d          18.337   1.138

    # Using partial waves for Ni as LCAO basis

Reference energy: -3382523.201499  # eV

Spin-polarized calculation.
Magnetic moment: 128.800000

Convergence criteria:
 Maximum [total energy] change in last 3 cyles: 0.0001 eV / electron
 Maximum integral of absolute [dens]ity change: 0.0001 electrons / valence electron
 Maximum integral of absolute [eigenst]ate change: 4e-08 eV^2 / valence electron
 Maximum number of scf [iter]ations: 666
 (Square brackets indicate name in SCF output, whereas a 'c' in
 the SCF output indicates the quantity has converged.)

Symmetries present (total): 1

  ( 1  0  0)
  ( 0  1  0)
  ( 0  0  1)

8 k-points: 2 x 2 x 2 Monkhorst-Pack grid
4 k-points in the irreducible part of the Brillouin zone
       k-points in crystal coordinates                weights
   0:     0.25000000   -0.25000000   -0.25000000          2/8
   1:     0.25000000   -0.25000000    0.25000000          2/8
   2:     0.25000000    0.25000000   -0.25000000          2/8
   3:     0.25000000    0.25000000    0.25000000          2/8

Wave functions: Plane wave expansion
  Cutoff energy: 350.000 eV
  Number of coefficients (min, max): 18865, 18865
  Pulay-stress correction: 0.000000 eV/Ang^3 (de/decut=0.000000)
  Using FFTW library
  ScaLapack parameters: grid=1x1, blocksize=None
  Wavefunction extrapolation:
    Improved wavefunction reuse through dual PAW basis

Occupation numbers: Fermi-Dirac:
  width: 0.1000  # eV

Eigensolver
   Davidson(niter=2)

Densities:
  Coarse grid: 48*48*48 grid
  Fine grid: 96*96*96 grid
  Total Charge: 0.000000

Density mixing:
  Method: difference
  Backend: pulay
  Linear mixing parameter: 0.05
  old densities: 5
  Damping of long wavelength oscillations: 50

Hamiltonian:
  XC and Coulomb potentials evaluated on a 96*96*96 grid
  Using the PBE Exchange-Correlation functional
  External potential:
    NoExternalPotential

XC parameters: PBE with 2 nearest neighbor stencil

Total number of cores used: 30
Parallelization over k-points: 2
Domain decomposition: 5 x 3 x 1

Number of atoms: 108
Number of atomic orbitals: 961
Number of bands in calculation: 649
Number of valence electrons: 945
Bands to converge: occupied

... initialized

Initializing position-dependent things.

Density initialized from atomic densities
Creating initial wave functions:
  649 bands from LCAO basis set

       /|                     Co   |
      / |            Co Co     CrCo|
     /  |       Cr       Ni       Cr
    /   |Co       Fel     FFer     |
   /i   | Coe        Fe      Co    |
  /  CrAl   NCr       Ni           |
 *      Ni     CoFe   AlFeCrCo   Cr|
 |      |FeNi   CrNiAl   NiAlNi   Co
 | CrCo | AlNi   AlAlCo     Ni     |
 |     Fe  FeCr Cr  Fe CoNi  CrNi  |
 |      CoNi   AlCr   CoFeFeNi  Co |
 |Al    |FeCr   AlCrCo   CrCo     Fe
 |      .-CrCo-----NiCr-CoFeCrNi---.
 |     /   Ni Fe    Cr CoNi    Al /
 |    Fe       AFei       Al     /
 |   /  Co         Al       Cr  /
 |  /      Fe       Al       Co/
 | / Fe     Fe       Ni Ni    /
 |/             Cr       Ni  /
 *--------Fe----------------*

Positions:
   0 Co    10.764147   10.861293   10.805330    ( 0.0000,  0.0000,  2.0000)
   1 Co    10.786221    1.792513    1.813624    ( 0.0000,  0.0000,  0.0000)
   2 Fe     1.744156    0.036560    1.851269    ( 0.0000,  0.0000,  1.5000)
   3 Al     1.736571    1.831142   10.798805    ( 0.0000,  0.0000,  0.0000)
   4 Fe     3.575126    0.057318    0.061759    ( 0.0000,  0.0000,  0.0000)
   5 Fe     3.594289    1.817617    1.845577    ( 0.0000,  0.0000,  2.0000)
   6 Co     5.429813   10.817005    1.865054    ( 0.0000,  0.0000,  1.5000)
   7 Cr     5.429608    1.929425    0.057134    ( 0.0000,  0.0000,  0.0000)
   8 Fe     7.316909   10.723332    0.087382    ( 0.0000,  0.0000,  0.0000)
   9 Al     7.263142    1.825786    1.869404    ( 0.0000,  0.0000,  2.1000)
  10 Ni     9.063554    0.025226    1.863474    ( 0.0000,  0.0000,  1.5000)
  11 Ni     9.049217    1.829703    0.033106    ( 0.0000,  0.0000,  2.1000)
  12 Ni     0.004792    3.558981   10.794801    ( 0.0000,  0.0000,  1.5000)
  13 Al    10.759710    5.390697    1.778165    ( 0.0000,  0.0000,  0.0000)
  14 Co     1.733585    3.561849    1.761112    ( 0.0000,  0.0000,  2.0000)
  15 Co     1.776899    5.391834   10.795505    ( 0.0000,  0.0000,  0.0000)
  16 Fe     3.565452    3.619360   10.832619    ( 0.0000,  0.0000,  2.1000)
  17 Fe     3.633221    5.394614    1.719551    ( 0.0000,  0.0000,  0.0000)
  18 Ni     5.471624    3.659114    1.836033    ( 0.0000,  0.0000,  2.1000)
  19 Fe     5.440212    5.373060   -0.002773    ( 0.0000,  0.0000,  2.0000)
  20 Ni     7.258997    3.609080    0.031294    ( 0.0000,  0.0000,  0.0000)
  21 Co     7.268941    5.378362    1.785274    ( 0.0000,  0.0000,  2.0000)
  22 Al     9.030724    3.577636    1.833728    ( 0.0000,  0.0000,  2.1000)
  23 Fe     9.040420    5.372281   10.801110    ( 0.0000,  0.0000,  0.0000)
  24 Co    10.791663    7.196206   10.792486    ( 0.0000,  0.0000,  1.5000)
  25 Fe    10.758434    9.040387    1.848239    ( 0.0000,  0.0000,  0.0000)
  26 Cr     1.690487    7.202493    1.786032    ( 0.0000,  0.0000,  0.0000)
  27 Ni     1.652691    8.981047    0.027217    ( 0.0000,  0.0000,  0.0000)
  28 Al     3.631241    7.164437    0.034633    ( 0.0000,  0.0000,  0.0000)
  29 Al     3.625452    9.063759    1.801678    ( 0.0000,  0.0000,  0.0000)
  30 Ni     5.490852    7.187095    1.746342    ( 0.0000,  0.0000,  2.0000)
  31 Cr     5.426935    8.989152    0.009861    ( 0.0000,  0.0000,  2.0000)
  32 Co     7.229122    7.237075   -0.008698    ( 0.0000,  0.0000,  1.5000)
  33 Cr     7.249194    8.995850    1.810713    ( 0.0000,  0.0000,  0.0000)
  34 Cr     9.052073    7.204300    1.764218    ( 0.0000,  0.0000,  2.1000)
  35 Co     9.092553    8.989639   10.808760    ( 0.0000,  0.0000,  1.5000)
  36 Cr    -0.000975   10.826235    3.639789    ( 0.0000,  0.0000,  1.5000)
  37 Al    10.822772    1.771770    5.422044    ( 0.0000,  0.0000,  2.1000)
  38 Ni     1.754263   10.802084    5.428872    ( 0.0000,  0.0000,  2.1000)
  39 Fe     1.741873    1.774270    3.610801    ( 0.0000,  0.0000,  0.0000)
  40 Al     3.591183   10.794152    3.612143    ( 0.0000,  0.0000,  2.0000)
  41 Cr     3.593088    1.736744    5.455177    ( 0.0000,  0.0000,  0.0000)
  42 Al     5.437150   10.794563    5.400804    ( 0.0000,  0.0000,  2.0000)
  43 Fe     5.451931    1.783251    3.601387    ( 0.0000,  0.0000,  1.5000)
  44 Al     7.226222    0.007781    3.626209    ( 0.0000,  0.0000,  0.0000)
  45 Co     7.236069    1.766512    5.381392    ( 0.0000,  0.0000,  2.1000)
  46 Co     9.034587   10.848850    5.403844    ( 0.0000,  0.0000,  2.1000)
  47 Ni     9.031558    1.804946    3.616730    ( 0.0000,  0.0000,  1.5000)
  48 Ni    10.773885    3.543973    3.617867    ( 0.0000,  0.0000,  1.5000)
  49 Ni    10.772186    5.358409    5.454917    ( 0.0000,  0.0000,  0.0000)
  50 Co     1.757531    3.575678    5.428937    ( 0.0000,  0.0000,  2.1000)
  51 Fe     1.621766    5.386986    3.572550    ( 0.0000,  0.0000,  0.0000)
[...]
iter:   4 18:06:18  -832.685207  -1.27  -1.37    +57.5627
iter:   5 18:07:37  -825.887335  -1.85  -1.40    +52.5746
iter:   6 18:08:57  -826.760066  -1.99  -1.47    +50.4730
iter:   7 18:10:16  -825.269972  -1.68  -1.49    +49.2887
iter:   8 18:11:35  -824.976807  -1.73  -1.56    +49.1046
iter:   9 18:12:54  -827.671500  -1.86  -1.66    +49.6090
iter:  10 18:14:15  -822.573933  -2.05  -1.67    +49.1600
iter:  11 18:15:36  -823.746630  -2.36  -1.82    +50.0394
iter:  12 18:16:57  -822.731158  -2.45  -1.83    +51.0647
iter:  13 18:18:18  -823.159012  -2.64  -1.90    +52.3718
iter:  14 18:19:39  -823.860319  -2.55  -1.95    +53.4024
iter:  15 18:21:00  -824.298194  -2.58  -1.99    +54.5075
iter:  16 18:22:21  -825.334015  -2.48  -2.01    +56.0361
iter:  17 18:23:42  -823.938949  -2.80  -1.99    +56.4892
iter:  18 18:25:03  -824.480850  -2.95  -2.19    +57.7230
iter:  19 18:26:24  -824.565932  -3.05  -2.19    +58.5709
iter:  20 18:27:45  -824.556960c -3.27  -2.22    +59.4590
iter:  21 18:29:06  -824.814917  -3.04  -2.31    +60.3808
iter:  22 18:30:28  -824.936332  -3.20  -2.38    +61.1039
iter:  23 18:31:49  -825.043516  -3.30  -2.44    +61.4394
iter:  24 18:33:10  -825.064877  -3.56  -2.48    +61.6057
iter:  25 18:34:31  -825.139715  -3.68  -2.53    +61.8209
iter:  26 18:35:52  -825.147250c -3.97  -2.54    +61.8980
iter:  27 18:37:14  -825.253150  -3.73  -2.61    +61.9229
iter:  28 18:38:35  -825.240741  -4.04  -2.64    +61.9322
iter:  29 18:39:56  -825.311373c -3.95  -2.69    +61.7927
iter:  30 18:41:17  -825.301447c -4.38  -2.71    +61.7808
iter:  31 18:42:38  -825.387339c -4.16  -2.77    +61.6746
iter:  32 18:44:00  -825.357886c -4.73  -2.76    +61.7095
iter:  33 18:45:21  -825.416637c -4.31  -2.82    +61.5967
iter:  34 18:46:42  -825.431757c -4.50  -2.85    +61.5475
iter:  35 18:48:03  -825.496223c -4.24  -2.89    +61.2804
iter:  36 18:49:24  -825.546067  -4.32  -2.91    +61.1168
iter:  37 18:50:45  -825.673320  -3.77  -2.92    +60.6091
iter:  38 18:52:07  -825.917783  -3.15  -2.85    +59.4969
iter:  39 18:53:28  -826.031492  -3.27  -2.70    +58.6328
iter:  40 18:54:49  -826.070081  -3.87  -2.61    +58.3195
iter:  41 18:56:10  -826.077561c -4.51  -2.59    +58.2697
iter:  42 18:57:31  -826.074647c -4.68  -2.59    +58.1999
iter:  43 18:58:52  -826.075524c -4.46  -2.58    +58.0365
iter:  44 19:00:13  -826.147974c -3.50  -2.60    +57.9254
iter:  45 19:01:34  -826.217082  -3.17  -2.52    +57.8941
iter:  46 19:02:55  -825.970423  -3.74  -2.48    +57.6270
iter:  47 19:04:16  -825.967522  -4.16  -2.73    +57.2780
iter:  48 19:05:38  -826.004158c -4.03  -2.78    +57.1771
iter:  49 19:06:59  -825.977392c -4.05  -2.75    +57.1326
iter:  50 19:08:20  -825.982446c -4.15  -2.88    +57.0060
iter:  51 19:09:42  -825.975456c -4.38  -2.90    +56.9458
iter:  52 19:11:03  -825.983702c -4.36  -3.04    +56.8798
iter:  53 19:12:24  -825.987073c -4.47  -3.00    +56.8404
iter:  54 19:13:46  -825.979857c -4.75  -3.02    +56.7485
iter:  55 19:15:07  -825.985556c -4.94  -3.15    +56.6593
iter:  56 19:16:28  -825.988061c -5.11  -3.18    +56.6291
iter:  57 19:17:50  -825.990879c -5.33  -3.20    +56.5528
iter:  58 19:19:11  -825.998153c -5.20  -3.24    +56.4551
iter:  59 19:20:33  -826.002286c -5.32  -3.25    +56.3837
iter:  60 19:21:55  -826.007159c -5.36  -3.27    +56.3285
iter:  61 19:23:16  -826.012084c -4.99  -3.29    +56.2764
iter:  62 19:24:38  -826.016476c -4.89  -3.32    +56.2109
iter:  63 19:26:01  -826.016524c -5.12  -3.41    +56.1637
iter:  64 19:27:22  -826.022083c -5.37  -3.55    +56.0912
iter:  65 19:28:45  -826.024188c -5.75  -3.62    +56.0565
iter:  66 19:30:07  -826.023181c -5.97  -3.66    +56.0926
iter:  67 19:31:29  -826.026804c -5.24  -3.68    +56.0740
iter:  68 19:32:51  -826.029214c -5.33  -3.66    +56.0082
iter:  69 19:34:13  -826.033509c -5.31  -3.69    +55.9587
iter:  70 19:35:35  -826.035609c -5.35  -3.76    +55.9370
iter:  71 19:36:57  -826.042993c -5.35  -3.74    +55.8460
iter:  72 19:38:19  -826.040822c -5.71  -3.75    +55.8722
iter:  73 19:39:41  -826.051262c -5.34  -3.67    +55.7759
iter:  74 19:41:03  -826.033102c -4.86  -3.64    +55.9648
iter:  75 19:42:26  -826.018874c -4.76  -3.68    +56.1442
iter:  76 19:43:48  -826.004378c -4.57  -3.74    +56.3895
iter:  77 19:45:10  -825.983805c -3.95  -3.61    +56.9473
iter:  78 19:46:32  -825.990885c -5.17  -3.37    +56.7954
iter:  79 19:47:54  -825.996728c -5.07  -3.46    +56.6793
iter:  80 19:49:16  -825.998387c -5.70  -3.54    +56.6668
iter:  81 19:50:39  -826.003911c -5.26  -3.53    +56.6164
iter:  82 19:52:01  -826.000923c -5.37  -3.47    +56.6531
iter:  83 19:53:23  -826.005530c -5.29  -3.44    +56.6174
iter:  84 19:54:45  -826.005028c -5.07  -3.38    +56.6235
iter:  85 19:56:07  -826.004406c -5.25  -3.44    +56.5721
iter:  86 19:57:29  -826.008572c -5.38  -3.67    +56.5036
iter:  87 19:58:51  -826.008357c -6.14  -3.81    +56.5058
iter:  88 20:00:13  -826.012853c -5.60  -3.90    +56.4468
iter:  89 20:01:35  -826.006233c -5.44  -3.97    +56.5506
iter:  90 20:02:57  -826.001496c -5.35  -3.84    +56.6279
iter:  91 20:04:19  -826.001653c -5.84  -3.83    +56.6437
iter:  92 20:05:41  -826.005276c -5.62  -3.79    +56.5639
iter:  93 20:07:03  -825.999560c -5.12  -3.93    +56.7132
iter:  94 20:08:26  -825.993396c -4.36  -3.75    +56.9825
iter:  95 20:09:48  -825.994781c -5.35  -3.51    +56.9678
iter:  96 20:11:10  -825.998413c -5.23  -3.54    +56.9071
iter:  97 20:12:32  -826.002633c -5.09  -3.56    +56.8393
iter:  98 20:13:55  -826.004387c -5.47  -3.52    +56.8037
iter:  99 20:15:17  -826.006801c -4.94  -3.50    +56.7857
iter: 100 20:16:39  -826.006732c -5.44  -3.39    +56.7816
iter: 101 20:18:02  -826.007509c -5.64  -3.51    +56.7571
iter: 102 20:19:24  -826.005238c -5.57  -3.55    +56.7387
iter: 103 20:20:46  -826.006911c -5.34  -3.61    +56.7089
iter: 104 20:22:08  -826.005959c -5.65  -3.57    +56.6827
iter: 105 20:23:31  -826.007054c -5.87  -3.68    +56.6444
iter: 106 20:24:53  -826.007613c -6.10  -3.78    +56.6420
iter: 107 20:26:15  -826.009296c -5.71  -3.77    +56.6028
iter: 108 20:27:37  -826.007762c -5.98  -3.80    +56.6165
iter: 109 20:28:59  -826.010219c -5.78  -3.92    +56.5792
iter: 110 20:30:22  -826.009694c -6.29  -3.89    +56.5815
iter: 111 20:31:44  -826.011469c -5.91  -4.01c   +56.5456
iter: 112 20:33:07  -826.007573c -5.50  -4.13c   +56.5967
iter: 113 20:34:29  -826.000161c -4.49  -4.06c   +56.7446
iter: 114 20:35:51  -825.998585c -4.81  -3.74    +56.8408
iter: 115 20:37:13  -825.998257c -4.97  -3.63    +56.9416
iter: 116 20:38:36  -825.998627c -5.44  -3.58    +56.9910
iter: 117 20:39:58  -825.999289c -5.31  -3.57    +57.0813
iter: 118 20:41:21  -825.999413c -5.90  -3.57    +57.0981
iter: 119 20:42:43  -826.000020c -5.69  -3.58    +57.0922
iter: 120 20:44:05  -826.003847c -4.97  -3.50    +57.1199
iter: 121 20:45:28  -826.000495c -5.03  -3.32    +57.1231
iter: 122 20:46:50  -826.003642c -4.90  -3.39    +57.1327
iter: 123 20:48:12  -825.997839c -5.55  -3.45    +57.1252
iter: 124 20:49:34  -825.998329c -6.00  -3.73    +57.1398
iter: 125 20:50:57  -825.998833c -5.80  -3.75    +57.1478
iter: 126 20:52:19  -825.998672c -6.12  -3.78    +57.1542
iter: 127 20:53:41  -825.999887c -5.75  -3.83    +57.1557
iter: 128 20:55:03  -825.998289c -5.88  -3.71    +57.1600
iter: 129 20:56:26  -825.999995c -5.97  -3.91    +57.1683
iter: 130 20:57:48  -825.999339c -6.16  -3.90    +57.1672
iter: 131 20:59:10  -825.999360c -6.30  -3.95    +57.1717
iter: 132 21:00:33  -825.999669c -6.47  -4.09c   +57.1748
iter: 133 21:01:55  -825.999761c -6.64  -4.11c   +57.1806
iter: 134 21:03:17  -826.000215c -6.67  -4.21c   +57.1812
iter: 135 21:04:40  -826.000005c -7.05  -4.22c   +57.1807
iter: 136 21:06:02  -826.000494c -6.56  -4.22c   +57.1833
iter: 137 21:07:25  -826.000334c -6.91  -4.25c   +57.1830
iter: 138 21:08:47  -826.000429c -6.71  -4.23c   +57.1832
iter: 139 21:10:09  -826.000709c -6.77  -4.26c   +57.1831
iter: 140 21:11:29  -826.000676c -6.69  -4.27c   +57.1838
iter: 141 21:12:49  -826.001352c -6.61  -4.29c   +57.1853
iter: 142 21:14:09  -826.001058c -6.98  -4.26c   +57.1815
iter: 143 21:15:29  -826.001371c -6.58  -4.44c   +57.1801
iter: 144 21:16:49  -826.000878c -6.56  -4.42c   +57.1824
iter: 145 21:18:09  -825.999485c -5.37  -4.49c   +57.1926
iter: 146 21:19:28  -825.999309c -6.17  -4.31c   +57.1985
iter: 147 21:20:49  -825.999343c -6.31  -4.28c   +57.2087
iter: 148 21:22:09  -825.999540c -6.33  -4.19c   +57.2253
iter: 149 21:23:29  -826.000382c -5.56  -4.15c   +57.2759
iter: 150 21:24:49  -826.000694c -5.98  -3.98    +57.2952
iter: 151 21:26:09  -826.000762c -6.27  -3.92    +57.2746
iter: 152 21:27:29  -826.000623c -6.26  -3.93    +57.2904
iter: 153 21:28:49  -826.000594c -6.27  -3.93    +57.2878
iter: 154 21:30:09  -826.001238c -5.69  -3.90    +57.2926
iter: 155 21:31:29  -826.000758c -6.28  -3.78    +57.2890
iter: 156 21:32:48  -826.000766c -6.32  -4.12c   +57.2864
iter: 157 21:34:08  -826.000909c -6.78  -4.08c   +57.2897
iter: 158 21:35:28  -826.001053c -6.60  -4.23c   +57.2937
iter: 159 21:36:48  -826.001430c -6.66  -4.22c   +57.2932
iter: 160 21:38:08  -826.001488c -6.68  -4.23c   +57.2964
iter: 161 21:39:28  -826.001492c -6.81  -4.26c   +57.3005
iter: 162 21:40:48  -826.001808c -6.76  -4.30c   +57.3040
iter: 163 21:42:09  -826.001830c -6.82  -4.37c   +57.3044
iter: 164 21:43:29  -826.002060c -6.84  -4.31c   +57.3065
iter: 165 21:44:49  -826.002029c -7.40c -4.43c   +57.3076

Converged after 165 iterations.

Dipole moment: (29.420336, -3.722439, -9.400985) |e|*Ang

Total magnetic moment: (0.000000, 0.000000, 57.307649)
Local magnetic moments:
   0 Co ( 0.000000,  0.000000,  1.216494)
   1 Co ( 0.000000,  0.000000,  1.400403)
   2 Fe ( 0.000000,  0.000000,  2.239794)
   3 Al ( 0.000000,  0.000000, -0.044852)
   4 Fe ( 0.000000,  0.000000,  2.402733)
   5 Fe ( 0.000000,  0.000000,  2.373053)
   6 Co ( 0.000000,  0.000000,  0.910125)
   7 Cr ( 0.000000,  0.000000, -2.397351)
   8 Fe ( 0.000000,  0.000000,  2.273782)
   9 Al ( 0.000000,  0.000000, -0.014192)
  10 Ni ( 0.000000,  0.000000,  0.212328)
  11 Ni ( 0.000000,  0.000000,  0.130123)
  12 Ni ( 0.000000,  0.000000,  0.218553)
  13 Al ( 0.000000,  0.000000, -0.025141)
  14 Co ( 0.000000,  0.000000,  1.264890)
  15 Co ( 0.000000,  0.000000,  0.926610)
  16 Fe ( 0.000000,  0.000000,  2.270250)
  17 Fe ( 0.000000,  0.000000,  2.182303)
  18 Ni ( 0.000000,  0.000000,  0.258766)
  19 Fe ( 0.000000,  0.000000,  2.173506)
  20 Ni ( 0.000000,  0.000000,  0.110766)
  21 Co ( 0.000000,  0.000000,  1.256066)
  22 Al ( 0.000000,  0.000000, -0.023107)
  23 Fe ( 0.000000,  0.000000,  2.102273)
  24 Co ( 0.000000,  0.000000,  0.336261)
  25 Fe ( 0.000000,  0.000000,  2.071264)
  26 Cr ( 0.000000,  0.000000, -1.925717)
  27 Ni ( 0.000000,  0.000000,  0.074461)
  28 Al ( 0.000000,  0.000000, -0.011149)
  29 Al ( 0.000000,  0.000000, -0.027510)
  30 Ni ( 0.000000,  0.000000,  0.295120)
  31 Cr ( 0.000000,  0.000000,  1.743446)
  32 Co ( 0.000000,  0.000000,  0.961541)
  33 Cr ( 0.000000,  0.000000, -1.462552)
  34 Cr ( 0.000000,  0.000000, -1.667788)
  35 Co ( 0.000000,  0.000000,  1.014392)
  36 Cr ( 0.000000,  0.000000, -1.513077)
  37 Al ( 0.000000,  0.000000, -0.027318)
  38 Ni ( 0.000000,  0.000000,  0.103985)
  39 Fe ( 0.000000,  0.000000,  2.228648)
  40 Al ( 0.000000,  0.000000, -0.030914)
  41 Cr ( 0.000000,  0.000000, -2.020694)
  42 Al ( 0.000000,  0.000000, -0.028176)
  43 Fe ( 0.000000,  0.000000,  1.903163)
  44 Al ( 0.000000,  0.000000, -0.021712)
  45 Co ( 0.000000,  0.000000,  0.793633)
  46 Co ( 0.000000,  0.000000,  0.865831)
  47 Ni ( 0.000000,  0.000000,  0.189084)
  48 Ni ( 0.000000,  0.000000,  0.367347)
  49 Ni ( 0.000000,  0.000000,  0.337407)
  50 Co ( 0.000000,  0.000000,  1.120030)
  51 Fe ( 0.000000,  0.000000,  2.379194)
  52 Co ( 0.000000,  0.000000,  1.196542)
  53 Cr ( 0.000000,  0.000000,  0.421414)
  54 Cr ( 0.000000,  0.000000, -1.374677)
  55 Cr ( 0.000000,  0.000000,  0.499208)
  56 Cr ( 0.000000,  0.000000, -0.127314)
  57 Co ( 0.000000,  0.000000,  1.234409)
  58 Fe ( 0.000000,  0.000000,  2.268821)
  59 Co ( 0.000000,  0.000000,  1.115345)
[...]
  93 Ni ( 0.000000,  0.000000,  0.286508)
  94 Cr ( 0.000000,  0.000000,  1.482836)
  95 Al ( 0.000000,  0.000000, -0.011047)
  96 Cr ( 0.000000,  0.000000,  0.842098)
  97 Cr ( 0.000000,  0.000000,  0.221623)
  98 Co ( 0.000000,  0.000000,  0.058931)
  99 Fe ( 0.000000,  0.000000,  2.076071)
 100 Co ( 0.000000,  0.000000, -0.029427)
 101 Cr ( 0.000000,  0.000000, -2.279233)
 102 Al ( 0.000000,  0.000000, -0.021641)
 103 Fe ( 0.000000,  0.000000,  2.162413)
 104 Fe ( 0.000000,  0.000000,  2.462951)
 105 Ni ( 0.000000,  0.000000,  0.302377)
 106 Cr ( 0.000000,  0.000000, -1.401188)
 107 Co ( 0.000000,  0.000000,  1.074942)

Energy contributions relative to reference atoms: (reference = -3382523.201499)

Kinetic:       +222.855116
Potential:     -230.684139
External:        +0.000000
XC:            -849.353796
Entropy (-ST):   -4.155108
Local:          +33.258344
Free energy:   -828.079584
Extrapolated:  -826.002029

Spin contamination: 29.772944 electrons
Showing only first 2 kpts
                      Up                     Down
 Kpt  Band  Eigenvalues  Occupancy  Eigenvalues  Occupancy
  0   470      9.15282    0.99546     10.04224    0.02917
  0   471      9.15895    0.99517     10.05321    0.02622
  0   472      9.18212    0.99392     10.07386    0.02143
  0   473      9.19943    0.99278     10.08148    0.01989

  1   470      9.15084    0.99554     10.04348    0.02882
  1   471      9.16306    0.99497     10.05196    0.02654
  1   472      9.18591    0.99368     10.07434    0.02133
  1   473      9.19820    0.99286     10.07845    0.02049

Fermi level: 9.69175

No gap

Forces in eV/Ang:
  0 Co    0.16153   -0.41167    0.22061
  1 Co    0.44640   -0.29560    0.11579
  2 Fe   -0.21337   -0.25878   -0.61910
  3 Al    0.01032   -0.28613   -0.20338
  4 Fe    0.31568   -0.07453   -0.81792
  5 Fe    0.19560    0.60090   -0.12405
  6 Co    0.24277    0.15353   -0.51997
  7 Cr   -1.08564   -0.93469   -0.79240
  8 Fe   -0.51963    0.44607   -0.47845
  9 Al   -0.34200   -0.53162   -1.19334
 10 Ni   -0.18543   -0.18047   -0.43586
 11 Ni   -0.18066   -0.36489   -0.39047
 12 Ni   -0.26160    0.62688    0.09422
 13 Al    0.91826   -0.27075   -0.26335
 14 Co    0.45777    0.19167    0.55396
 15 Co   -0.19003    0.07903   -0.03428
 16 Fe    0.19492    0.07573    0.16614
 17 Fe   -0.51925   -0.71878    0.81684
 18 Ni   -0.30319   -0.15777    0.08380
 19 Fe    0.52345   -0.38869    0.40238
 20 Ni   -0.07910   -0.04054   -0.36445
 21 Co   -0.06117    0.48387    0.12731
 22 Al    0.37615   -0.02925   -0.42471
 23 Fe   -0.49405    0.81117   -0.52097
 24 Co    0.45793   -0.15461   -0.26781
 25 Fe    0.26513   -0.18904   -0.66100
 26 Cr   -0.52483    0.04631    0.02858
 27 Ni    0.72282    0.45948   -0.26234
 28 Al   -1.13662    0.19319    0.06591
 29 Al   -0.41153    0.43198   -0.95478
 30 Ni   -0.17633    0.05752    0.39442
 31 Cr    0.65065    1.07847   -0.55835
 32 Co    0.46864   -0.25668    0.20949
 33 Cr    0.02774    0.05634   -0.53668
 34 Cr   -0.49864    0.33289   -0.18554
 35 Co   -0.15500    0.01900    0.18486
 36 Cr    0.00227   -0.68597   -0.73558
 37 Al   -0.16279   -0.05290   -0.09219
 38 Ni    0.30717    0.04934    0.13121
 39 Fe    0.35495    0.76295   -0.16695
 40 Al   -0.38951    0.92640   -0.41315
 41 Cr   -0.61959    1.39492    0.07208
 42 Al    0.37693    0.17430    0.79845
 43 Fe   -0.57785    0.73890    0.31970
 44 Al    0.90148   -0.14528    0.11539
 45 Co    0.08883    0.53221    0.41256
 46 Co   -0.08613   -0.37277    0.03930
 47 Ni   -0.10498   -0.20471    0.05491
 48 Ni    0.60332    0.30395   -0.03257
 49 Ni    0.30929    0.29938   -0.48302
 50 Co    0.66702    0.31782   -0.32706
 51 Fe    1.17855   -0.24406    0.43052
 52 Co   -0.29348    0.05964    0.33765
 53 Cr    0.04984   -1.02270   -0.32582
 54 Cr    0.32956    0.43973    0.01623
 55 Cr    0.09939   -0.73567    0.16222
 56 Cr   -1.02603    0.82734    1.17515
 57 Co    0.05982    0.06939    0.09658
 58 Fe   -0.87226    0.27403    0.16770
 59 Co   -0.45887    0.58926    0.51514
[...]
 93 Ni    0.36239   -0.12647   -0.23884
 94 Cr    0.19607    0.19392    0.40134
 95 Al   -1.43764   -0.04392   -0.87588
 96 Cr   -0.16245    0.39047    0.79556
 97 Cr    0.41912   -0.05326    0.68368
 98 Co    0.12931    0.21967   -0.12076
 99 Fe    0.41598   -0.00588    0.42011
100 Co   -0.32878    0.34407   -0.13726
101 Cr   -0.43217    1.01069    0.26104
102 Al    1.16693    0.04430   -1.40946
103 Fe   -0.32366   -0.28370    0.60468
104 Fe    0.01776   -0.09220   -0.63395
105 Ni    0.01244    0.12381    0.06691
106 Cr   -0.72347    0.57894    0.40428
107 Co   -0.36566   -0.23306   -0.23879

Date: Fri Apr 14 21:45:06 2023