User:   c.zeng@d0011
Date:   Thu Apr 13 20:11:10 2023
Arch:   x86_64
Pid:    166731
CWD:    /home/c.zeng/projects/hea-corrosion/hea-mlp/data-curation/bulk-md/dft-jobs/36
Python: 3.8.1
gpaw:   /home/c.zeng/usr/installs/gpaw/source/gpaw-22.8.0/gpaw
_gpaw:  /home/c.zeng/usr/installs/gpaw/source/gpaw-22.8.0/
        _gpaw.cpython-38-x86_64-linux-gnu.so
ase:    /home/c.zeng/.local/lib/python3.8/site-packages/ase-3.22.1-py3.8.egg/ase (version 3.22.1)
numpy:  /shared/centos7/python/3.8.1/lib/python3.8/site-packages/numpy (version 1.17.4)
scipy:  /shared/centos7/python/3.8.1/lib/python3.8/site-packages/scipy (version 1.4.1)
units:  Angstrom and eV
cores: 30
OpenMP: False
OMP_NUM_THREADS: 1

Input parameters:
  convergence: {energy: 0.0001}
  kpts: [2 2 2]
  maxiter: 666
  mode: {ecut: 350.0,
         name: pw}
  occupations: {fixmagmom: False,
                name: fermi-dirac,
                width: 0.1}
  spinpol: True
  xc: PBE

System changes: positions, numbers, cell, pbc, initial_charges, initial_magmoms

Initialize ...

species:
  Cr:
    name: Chromium
    id: 33f258bda2ca9f93018e70263a35547b
    Z: 24.0
    valence: 6
    core: 18
    charge: 0.0
    file: /home/c.zeng/usr/data/gpaw-setups-0.9.20000/Cr.PBE.gz
    compensation charges: {type: gauss,
                           rc: 0.35,
                           lmax: 2}
    cutoffs: {filter: 2.14,
              core: 3.04}
    valence states:
      #              energy  rcut
      - 4s(1.00)    -4.007   1.164
      - 4p(0.00)    -0.989   1.217
      - 3d(5.00)    -2.913   1.111
      -  s          23.205   1.164
      -  p          26.223   1.217
      -  d          24.299   1.111

    # Using partial waves for Cr as LCAO basis

  Al:
    name: Aluminium
    id: 0292cae29f5d6237e50f6abdd43a7bdd
    Z: 13.0
    valence: 3
    core: 10
    charge: 0.0
    file: /home/c.zeng/usr/data/gpaw-setups-0.9.20000/Al.PBE.gz
    compensation charges: {type: gauss,
                           rc: 0.34,
                           lmax: 2}
    cutoffs: {filter: 1.91,
              core: 2.36}
    valence states:
      #              energy  rcut
      - 3s(2.00)    -7.753   1.085
      - 3p(1.00)    -2.712   1.085
      -  s          19.459   1.085
      -  p          24.499   1.085
      -  d           0.000   1.085

[...]

  Co:
    name: Cobalt
    id: 339d20d5b0b93d2de9531a1bee871d91
    Z: 27.0
    valence: 9
    core: 18
    charge: 0.0
    file: /home/c.zeng/usr/data/gpaw-setups-0.9.20000/Co.PBE.gz
    compensation charges: {type: gauss,
                           rc: 0.32,
                           lmax: 2}
    cutoffs: {filter: 1.87,
              core: 2.55}
    valence states:
      #              energy  rcut
      - 4s(2.00)    -5.469   1.005
      - 4p(0.00)    -1.277   1.058
      - 3d(7.00)    -8.205   1.005
      -  s          21.742   1.005
      -  p          25.934   1.058
      -  d          19.007   1.005

[...]

  Fe:
    name: Iron
    id: 37abbd8d6c3c35915a9b583b742da910
    Z: 26.0
    valence: 8
    core: 18
    charge: 0.0
    file: /home/c.zeng/usr/data/gpaw-setups-0.9.20000/Fe.PBE.gz
    compensation charges: {type: gauss,
                           rc: 0.33,
                           lmax: 2}
    cutoffs: {filter: 2.06,
              core: 2.67}
    valence states:
      #              energy  rcut
      - 4s(2.00)    -5.291   1.164
      - 4p(0.00)    -1.326   1.058
      - 3d(6.00)    -7.505   1.058
      -  s          21.920   1.164
      -  p          25.885   1.058
      -  d          19.706   1.058

[...]

  Ni:
    name: Nickel
    id: 0d9f38a9d6e76a2886f07bb4381f212b
    Z: 28.0
    valence: 16
    core: 12
    charge: 0.0
    file: /home/c.zeng/usr/data/gpaw-setups-0.9.20000/Ni.PBE.gz
    compensation charges: {type: gauss,
                           rc: 0.36,
                           lmax: 2}
    cutoffs: {filter: 2.14,
              core: 1.98}
    valence states:
      #              energy  rcut
      - 4s(2.00)    -5.642   1.164
      - 3p(6.00)   -71.394   1.207
      - 4p(0.00)    -1.226   1.207
      - 3d(8.00)    -8.875   1.138
      -  s          21.570   1.164
      -  d          18.337   1.138

    # Using partial waves for Ni as LCAO basis

Reference energy: -3699400.456887  # eV

Spin-polarized calculation.
Magnetic moment: 143.500000

Convergence criteria:
 Maximum [total energy] change in last 3 cyles: 0.0001 eV / electron
 Maximum integral of absolute [dens]ity change: 0.0001 electrons / valence electron
 Maximum integral of absolute [eigenst]ate change: 4e-08 eV^2 / valence electron
 Maximum number of scf [iter]ations: 666
 (Square brackets indicate name in SCF output, whereas a 'c' in
 the SCF output indicates the quantity has converged.)

Symmetries present (total): 1

  ( 1  0  0)
  ( 0  1  0)
  ( 0  0  1)

8 k-points: 2 x 2 x 2 Monkhorst-Pack grid
4 k-points in the irreducible part of the Brillouin zone
       k-points in crystal coordinates                weights
   0:     0.25000000   -0.25000000   -0.25000000          2/8
   1:     0.25000000   -0.25000000    0.25000000          2/8
   2:     0.25000000    0.25000000   -0.25000000          2/8
   3:     0.25000000    0.25000000    0.25000000          2/8

Wave functions: Plane wave expansion
  Cutoff energy: 350.000 eV
  Number of coefficients (min, max): 18052, 18052
  Pulay-stress correction: 0.000000 eV/Ang^3 (de/decut=0.000000)
  Using FFTW library
  ScaLapack parameters: grid=1x1, blocksize=None
  Wavefunction extrapolation:
    Improved wavefunction reuse through dual PAW basis

Occupation numbers: Fermi-Dirac:
  width: 0.1000  # eV

Eigensolver
   Davidson(niter=2)

Densities:
  Coarse grid: 48*48*48 grid
  Fine grid: 96*96*96 grid
  Total Charge: 0.000000

Density mixing:
  Method: difference
  Backend: pulay
  Linear mixing parameter: 0.05
  old densities: 5
  Damping of long wavelength oscillations: 50

Hamiltonian:
  XC and Coulomb potentials evaluated on a 96*96*96 grid
  Using the PBE Exchange-Correlation functional
  External potential:
    NoExternalPotential

XC parameters: PBE with 2 nearest neighbor stencil

Total number of cores used: 30
Parallelization over k-points: 2
Domain decomposition: 5 x 3 x 1

Number of atoms: 108
Number of atomic orbitals: 1025
Number of bands in calculation: 703
Number of valence electrons: 1020
Bands to converge: occupied

... initialized

Initializing position-dependent things.

Density initialized from atomic densities
Creating initial wave functions:
  703 bands from LCAO basis set

        .------------------------Cr
       /|                   Cr    |
      / |              Al      Cr |
     / Ni      Cr       Fe    Co  |
    /   |       CrCo     Cr       |
   /    | Ni Co            CrCo   |
  /  Ni | Fe   Fe  CrNNi    NiFe  |
 *      Co    Ni Ni    CoCor   Fe |
 |      Co Cr  CoNi Co  Al  Fe   Ni
 | NiFe | FeCoAl CNiNi   Fe Ni    |
 |     Cr   NCo Co  FeFCr   FeFe  |
 Cr     Ni    CoFe   NiNiNi    Cr |
 |      |NiNi   CCr     CrFeCo   Ni
 |      .-Fe------CoCoo----CrFe---.
 |   CrFe  NiCr     CrNi       Co/
 |    / Fe    CAl      NiCo     /
 |   /   Fe      Cr       Fe   /
 |Al/      Cr      Co     Cr  /
 | / Cr     Fe       FNi     /
 |/    Co               Fe  /
 *-------Fe--------Cr------*

Positions:
   0 Cr    -0.190539   -0.277731   10.547327    ( 0.0000,  0.0000,  0.0000)
   1 Al    10.793547    1.619022    1.818950    ( 0.0000,  0.0000,  0.0000)
   2 Cr     1.684037   10.768448    1.759519    ( 0.0000,  0.0000,  0.0000)
   3 Co     1.837736    1.820876   10.725935    ( 0.0000,  0.0000,  2.1000)
   4 Fe     3.452195    0.132042    0.237546    ( 0.0000,  0.0000,  2.0000)
   5 Cr     3.691756    1.856918    1.819985    ( 0.0000,  0.0000,  0.0000)
   6 Ni     5.177039   10.550656    1.764240    ( 0.0000,  0.0000,  1.5000)
   7 Fe     5.229402    2.053005   -0.065397    ( 0.0000,  0.0000,  2.0000)
   8 Cr     7.212809    0.001399    0.033878    ( 0.0000,  0.0000,  0.0000)
   9 Co     6.959391    1.578875    1.708328    ( 0.0000,  0.0000,  2.1000)
  10 Ni     8.694177   10.753780    1.795557    ( 0.0000,  0.0000,  1.5000)
  11 Fe     8.897699    1.824807   10.910403    ( 0.0000,  0.0000,  2.0000)
  12 Co    -0.088507    3.630919   10.663053    ( 0.0000,  0.0000,  2.1000)
  13 Co    -0.027063    5.441875    1.683657    ( 0.0000,  0.0000,  2.1000)
  14 Fe     1.794870    3.474474    1.920971    ( 0.0000,  0.0000,  2.0000)
  15 Fe     1.799691    5.213080    0.105790    ( 0.0000,  0.0000,  2.0000)
  16 Fe     3.551483    3.634647    0.068320    ( 0.0000,  0.0000,  2.0000)
  17 Fe     3.673071    5.236361    1.966023    ( 0.0000,  0.0000,  2.0000)
  18 Cr     5.478088    3.757546    1.492476    ( 0.0000,  0.0000,  0.0000)
  19 Co     5.357286    5.416663   -0.222302    ( 0.0000,  0.0000,  2.1000)
  20 Fe     7.230311    3.505325   10.731039    ( 0.0000,  0.0000,  2.0000)
  21 Ni     7.296840    5.502276    1.577483    ( 0.0000,  0.0000,  1.5000)
  22 Co     8.803929    3.548470    1.906767    ( 0.0000,  0.0000,  2.1000)
  23 Cr     8.885822    5.245562    0.011106    ( 0.0000,  0.0000,  0.0000)
  24 Cr    -0.050633    7.025942   -0.053048    ( 0.0000,  0.0000,  0.0000)
  25 Ni    -0.012645    9.042738    1.851707    ( 0.0000,  0.0000,  1.5000)
  26 Fe     1.963096    7.187901    1.805100    ( 0.0000,  0.0000,  2.0000)
  27 Ni     1.785090    8.957217   10.721787    ( 0.0000,  0.0000,  1.5000)
  28 Co     3.529566    6.988016    0.215491    ( 0.0000,  0.0000,  2.1000)
  29 Co     3.731352    8.906706    1.833272    ( 0.0000,  0.0000,  2.1000)
  30 Co     5.279292    7.056051    1.800067    ( 0.0000,  0.0000,  2.1000)
  31 Cr     5.241711    8.831974    0.205146    ( 0.0000,  0.0000,  0.0000)
  32 Al     7.090077    7.319718   10.551511    ( 0.0000,  0.0000,  0.0000)
  33 Cr     7.006278    8.821449    1.643558    ( 0.0000,  0.0000,  0.0000)
  34 Cr     8.970345    7.029277    1.643587    ( 0.0000,  0.0000,  0.0000)
  35 Cr     8.801228    8.824652   10.657501    ( 0.0000,  0.0000,  0.0000)
  36 Fe    10.419735   10.695787    3.585551    ( 0.0000,  0.0000,  2.0000)
  37 Co    10.509191    1.938934    5.223784    ( 0.0000,  0.0000,  2.1000)
  38 Cr     1.630464   10.751167    5.167991    ( 0.0000,  0.0000,  0.0000)
  39 Fe     1.862500    1.827296    3.533320    ( 0.0000,  0.0000,  2.0000)
  40 Co     3.512032   10.649206    3.651480    ( 0.0000,  0.0000,  2.1000)
  41 Ni     3.542121    1.962158    5.407557    ( 0.0000,  0.0000,  1.5000)
  42 Ni     5.252766   -0.030230    5.404454    ( 0.0000,  0.0000,  1.5000)
  43 Al     5.365636    1.682964    3.585332    ( 0.0000,  0.0000,  0.0000)
  44 Fe     6.972143   10.380727    3.602269    ( 0.0000,  0.0000,  2.0000)
  45 Co     7.242097    1.676545    5.246185    ( 0.0000,  0.0000,  2.1000)
  46 Fe     8.993971   10.660075    5.359059    ( 0.0000,  0.0000,  2.0000)
  47 Ni     8.500641    1.598468    3.535153    ( 0.0000,  0.0000,  1.5000)
  48 Fe    -0.111571    3.468922    3.547846    ( 0.0000,  0.0000,  2.0000)
  49 Fe    10.631565    5.355912    5.083604    ( 0.0000,  0.0000,  2.0000)
  50 Ni     1.739192    3.654001    5.155188    ( 0.0000,  0.0000,  1.5000)
  51 Ni     1.767425    5.217930    3.524392    ( 0.0000,  0.0000,  1.5000)
  52 Cr     3.814293    3.404109    3.498034    ( 0.0000,  0.0000,  0.0000)
  53 Co     3.484962    5.103655    5.269184    ( 0.0000,  0.0000,  2.1000)
  54 Fe     5.421026    3.377093    5.430950    ( 0.0000,  0.0000,  2.0000)
  55 Cr     5.290409    5.238551    3.649094    ( 0.0000,  0.0000,  0.0000)
  56 Co     7.132332    3.688265    3.553972    ( 0.0000,  0.0000,  2.1000)
  57 Fe     7.324950    5.369696    5.217874    ( 0.0000,  0.0000,  2.0000)
  58 Ni     8.933475    3.772565    5.256475    ( 0.0000,  0.0000,  1.5000)
  59 Fe     8.716313    5.497769    3.618115    ( 0.0000,  0.0000,  2.0000)
[...]
  93 Ni     7.102979    5.566941    8.817567    ( 0.0000,  0.0000,  1.5000)
  94 Co     8.950495    3.419586    8.653426    ( 0.0000,  0.0000,  2.1000)
  95 Cr     8.747226    5.430999    7.339224    ( 0.0000,  0.0000,  0.0000)
  96 Fe    -0.101566    6.973637    7.028682    ( 0.0000,  0.0000,  2.0000)
  97 Ni     0.025322    8.764614    8.885268    ( 0.0000,  0.0000,  1.5000)
  98 Ni     1.789732    6.970434    8.884252    ( 0.0000,  0.0000,  1.5000)
  99 Fe     1.462888    8.734837    7.093892    ( 0.0000,  0.0000,  2.0000)
 100 Ni     3.339608    7.118292    7.096517    ( 0.0000,  0.0000,  1.5000)
 101 Cr     3.535841    8.813226    9.140409    ( 0.0000,  0.0000,  0.0000)
 102 Cr     5.202817    7.347743    8.971825    ( 0.0000,  0.0000,  0.0000)
 103 Cr     5.212284    8.768531    7.065311    ( 0.0000,  0.0000,  0.0000)
 104 Co     7.172112    6.999614    7.011047    ( 0.0000,  0.0000,  2.1000)
 105 Fe     7.010012    9.055396    8.701694    ( 0.0000,  0.0000,  2.0000)
 106 Cr     8.657022    7.147819    8.711704    ( 0.0000,  0.0000,  0.0000)
 107 Ni     8.929019    8.681522    7.083483    ( 0.0000,  0.0000,  1.5000)

Unit cell:
           periodic     x           y           z      points  spacing
  1. axis:    yes   10.671700    0.000000    0.000000    48     0.2223
  2. axis:    yes    0.000000   10.671700    0.000000    48     0.2223
  3. axis:    yes    0.000000    0.000000   10.671700    48     0.2223

  Lengths:  10.671700  10.671700  10.671700
  Angles:   90.000000  90.000000  90.000000

Effective grid spacing dv^(1/3) = 0.2223

     iter     time        total  log10-change:  magmom
                         energy  eigst   dens
iter:   1 20:17:06 -1030.203847                  +143.7779
iter:   2 20:19:40  -919.257785  -0.24  -1.21    +82.9345
iter:   3 20:22:14  -902.688468  -0.93  -1.23    +70.3617
iter:   4 20:24:47  -884.684385  -1.34  -1.30    +66.4924
iter:   5 20:27:21  -872.346878  -1.63  -1.32    +62.9743
iter:   6 20:29:55  -878.494707  -1.25  -1.38    +63.5479
iter:   7 20:32:28  -870.892308  -1.22  -1.44    +62.3639
iter:   8 20:35:02  -854.946437  -1.69  -1.54    +61.4548
iter:   9 20:37:36  -854.462604  -2.09  -1.76    +63.2149
iter:  10 20:40:09  -854.064224  -2.42  -1.81    +64.0511
iter:  11 20:42:43  -854.050539  -2.56  -1.84    +65.6303
iter:  12 20:45:17  -856.355740  -2.41  -1.89    +67.2544
iter:  13 20:47:51  -854.830895  -2.41  -1.88    +67.6672
iter:  14 20:51:05  -855.219597  -2.51  -2.00    +68.4507
iter:  15 20:53:57  -855.715387  -2.53  -2.04    +69.3611
iter:  16 20:56:31  -854.298273  -2.93  -2.03    +69.8025
iter:  17 20:59:04  -854.379405  -3.23  -2.20    +70.6303
iter:  18 21:01:39  -854.537131  -3.28  -2.25    +71.1304
iter:  19 21:04:13  -854.660342  -3.13  -2.28    +71.5517
iter:  20 21:06:46  -854.394041  -3.26  -2.29    +71.7635
iter:  21 21:09:21  -854.524112  -3.36  -2.44    +72.1055
iter:  22 21:11:55  -854.410520  -3.41  -2.42    +72.1622
iter:  23 21:14:28  -854.411898  -3.48  -2.51    +72.3708
iter:  24 21:17:02  -854.396558c -3.48  -2.55    +72.4922
iter:  25 21:19:37  -854.365772c -3.69  -2.61    +72.5683
iter:  26 21:22:10  -854.372361c -3.91  -2.67    +72.7307
iter:  27 21:24:44  -854.397307c -3.88  -2.71    +72.8049
iter:  28 21:27:17  -854.395524c -4.02  -2.71    +72.8425
iter:  29 21:29:50  -854.386693c -4.14  -2.76    +72.9386
iter:  30 21:32:24  -854.389457c -4.40  -2.82    +72.9580
iter:  31 21:34:59  -854.398375c -4.56  -2.86    +72.9947
iter:  32 21:37:33  -854.403942c -4.61  -2.90    +73.0214
iter:  33 21:40:07  -854.418874c -4.44  -2.95    +73.0186
iter:  34 21:42:42  -854.414465c -4.61  -2.96    +73.0224
iter:  35 21:45:16  -854.417570c -4.79  -3.03    +73.0472
iter:  36 21:47:50  -854.426406c -4.80  -3.08    +73.0318
iter:  37 21:50:25  -854.427986c -4.85  -3.10    +73.0341
iter:  38 21:52:59  -854.436288c -4.72  -3.16    +73.0270
iter:  39 21:55:33  -854.439170c -4.83  -3.20    +73.0063
iter:  40 21:58:07  -854.443382c -4.91  -3.22    +72.9911
iter:  41 22:00:52  -854.445554c -5.03  -3.25    +72.9798
iter:  42 22:04:14  -854.449172c -5.07  -3.29    +72.9350
iter:  43 22:06:51  -854.453574c -5.10  -3.34    +72.9106
iter:  44 22:09:25  -854.455431c -5.10  -3.35    +72.8935
iter:  45 22:12:00  -854.458751c -5.29  -3.42    +72.8590
iter:  46 22:14:34  -854.460561c -5.37  -3.44    +72.8298
iter:  47 22:17:10  -854.463627c -5.45  -3.48    +72.8021
iter:  48 22:19:44  -854.465744c -5.46  -3.50    +72.7643
iter:  49 22:22:19  -854.468037c -5.60  -3.55    +72.7322
iter:  50 22:24:53  -854.470758c -5.53  -3.56    +72.7050
iter:  51 22:27:29  -854.473228c -5.64  -3.61    +72.6680
iter:  52 22:30:04  -854.476691c -5.45  -3.62    +72.6203
iter:  53 22:32:38  -854.479321c -5.58  -3.64    +72.5813
iter:  54 22:35:13  -854.483376c -5.40  -3.67    +72.5139
iter:  55 22:37:47  -854.492580c -4.83  -3.68    +72.3650
iter:  56 22:40:21  -854.517885c -3.71  -3.61    +71.8233
iter:  57 22:42:56  -854.515010c -4.99  -3.36    +71.9823
iter:  58 22:45:32  -854.517435c -5.23  -3.41    +71.9519
iter:  59 22:48:08  -854.518881c -5.50  -3.37    +71.9671
iter:  60 22:50:43  -854.521847c -5.50  -3.36    +71.9899
iter:  61 22:53:19  -854.522448c -5.15  -3.32    +71.9713
iter:  62 22:55:54  -854.523361c -4.97  -3.24    +72.0124
iter:  63 22:58:30  -854.520404c -5.03  -3.28    +72.0036
iter:  64 23:01:40  -854.521184c -4.94  -3.28    +71.9768
iter:  65 23:04:45  -854.514376c -5.51  -3.27    +71.9539
iter:  66 23:07:21  -854.515951c -5.57  -3.51    +71.9178
iter:  67 23:09:56  -854.515132c -5.45  -3.47    +71.9195
iter:  68 23:12:33  -854.515434c -5.22  -3.51    +71.8965
iter:  69 23:15:10  -854.516975c -5.20  -3.54    +71.8898
iter:  70 23:17:45  -854.514697c -5.44  -3.48    +71.9043
iter:  71 23:20:21  -854.514289c -5.82  -3.67    +71.8921
iter:  72 23:22:58  -854.513941c -6.08  -3.79    +71.8859
iter:  73 23:25:33  -854.514118c -6.18  -3.83    +71.8782
iter:  74 23:28:09  -854.514389c -6.35  -3.87    +71.8836
iter:  75 23:30:45  -854.514679c -6.10  -3.90    +71.8759
iter:  76 23:33:22  -854.514669c -6.14  -3.87    +71.8711
iter:  77 23:35:57  -854.514661c -6.12  -3.89    +71.8720
iter:  78 23:38:32  -854.515265c -6.14  -3.91    +71.8718
iter:  79 23:41:08  -854.515135c -6.21  -3.94    +71.8699
iter:  80 23:43:44  -854.515093c -6.38  -3.98    +71.8572
iter:  81 23:46:18  -854.515200c -6.66  -4.05c   +71.8564
iter:  82 23:48:54  -854.515490c -6.61  -4.16c   +71.8551
iter:  83 23:51:30  -854.515689c -6.91  -4.16c   +71.8514
iter:  84 23:54:05  -854.515986c -6.47  -4.21c   +71.8447
iter:  85 23:56:41  -854.516269c -6.60  -4.15c   +71.8415
iter:  86 23:59:16  -854.516544c -6.45  -4.16c   +71.8415
iter:  87 00:01:52  -854.516619c -6.61  -4.17c   +71.8346
iter:  88 00:04:54  -854.516875c -6.46  -4.25c   +71.8279
iter:  89 00:08:10  -854.516833c -6.72  -4.17c   +71.8288
iter:  90 00:10:46  -854.517117c -6.81  -4.33c   +71.8244
iter:  91 00:13:23  -854.517330c -6.99  -4.43c   +71.8206
iter:  92 00:15:58  -854.519763c -5.09  -4.39c   +71.7799
iter:  93 00:18:34  -854.519811c -6.33  -4.10c   +71.7742
iter:  94 00:21:10  -854.519972c -6.74  -4.14c   +71.7739
iter:  95 00:23:45  -854.520223c -6.51  -4.15c   +71.7644
iter:  96 00:26:22  -854.520587c -6.54  -4.13c   +71.7542
iter:  97 00:28:58  -854.521335c -6.05  -4.08c   +71.7410
iter:  98 00:31:33  -854.521173c -6.46  -3.76    +71.7468
iter:  99 00:34:09  -854.520995c -6.38  -3.81    +71.7464
iter: 100 00:36:44  -854.522178c -5.94  -3.94    +71.7388
iter: 101 00:39:20  -854.521818c -5.53  -3.71    +71.7296
iter: 102 00:41:55  -854.521655c -5.72  -3.68    +71.7276
iter: 103 00:44:30  -854.520709c -6.28  -3.82    +71.7357
iter: 104 00:47:05  -854.520930c -6.40  -4.19c   +71.7279
iter: 105 00:50:05  -854.520844c -6.54  -3.99    +71.7323
iter: 106 00:53:24  -854.520772c -6.83  -4.18c   +71.7336
iter: 107 00:55:59  -854.520799c -6.66  -4.20c   +71.7290
iter: 108 00:58:36  -854.520817c -6.87  -4.09c   +71.7304
iter: 109 01:01:11  -854.520834c -6.89  -4.27c   +71.7288
iter: 110 01:03:46  -854.520931c -7.07  -4.23c   +71.7296
iter: 111 01:06:22  -854.520832c -6.97  -4.26c   +71.7303
iter: 112 01:08:59  -854.521236c -6.53  -4.28c   +71.7299
iter: 113 01:11:34  -854.520952c -6.81  -4.07c   +71.7325
iter: 114 01:14:09  -854.520984c -6.81  -4.44c   +71.7316
iter: 115 01:16:44  -854.521008c -6.88  -4.28c   +71.7347
iter: 116 01:19:20  -854.520950c -7.24  -4.34c   +71.7367
iter: 117 01:21:56  -854.521012c -7.55c -4.58c   +71.7373

Converged after 117 iterations.

Dipole moment: (51.928787, 15.408213, -32.466758) |e|*Ang

Total magnetic moment: (0.000000, 0.000000, 71.737307)
Local magnetic moments:
   0 Cr ( 0.000000,  0.000000, -1.103198)
   1 Al ( 0.000000,  0.000000, -0.039374)
   2 Cr ( 0.000000,  0.000000, -1.173798)
   3 Co ( 0.000000,  0.000000,  0.912911)
   4 Fe ( 0.000000,  0.000000,  1.530950)
   5 Cr ( 0.000000,  0.000000, -0.759060)
   6 Ni ( 0.000000,  0.000000,  0.214410)
   7 Fe ( 0.000000,  0.000000,  1.756390)
   8 Cr ( 0.000000,  0.000000, -0.436980)
   9 Co ( 0.000000,  0.000000,  0.946430)
  10 Ni ( 0.000000,  0.000000,  0.251692)
  11 Fe ( 0.000000,  0.000000,  2.265273)
  12 Co ( 0.000000,  0.000000,  1.371914)
  13 Co ( 0.000000,  0.000000,  0.901828)
  14 Fe ( 0.000000,  0.000000,  2.058220)
  15 Fe ( 0.000000,  0.000000,  2.352116)
  16 Fe ( 0.000000,  0.000000,  1.831967)
  17 Fe ( 0.000000,  0.000000,  1.586279)
  18 Cr ( 0.000000,  0.000000, -1.315077)
  19 Co ( 0.000000,  0.000000,  1.239972)
  20 Fe ( 0.000000,  0.000000,  2.016347)
  21 Ni ( 0.000000,  0.000000,  0.139979)
  22 Co ( 0.000000,  0.000000,  1.402063)
  23 Cr ( 0.000000,  0.000000, -1.187798)
  24 Cr ( 0.000000,  0.000000,  0.929994)
  25 Ni ( 0.000000,  0.000000,  0.152098)
  26 Fe ( 0.000000,  0.000000,  2.472926)
  27 Ni ( 0.000000,  0.000000,  0.197461)
  28 Co ( 0.000000,  0.000000,  1.317143)
  29 Co ( 0.000000,  0.000000,  1.026035)
  30 Co ( 0.000000,  0.000000,  1.076533)
  31 Cr ( 0.000000,  0.000000,  0.105924)
  32 Al ( 0.000000,  0.000000, -0.000737)
  33 Cr ( 0.000000,  0.000000, -0.756689)
  34 Cr ( 0.000000,  0.000000,  0.329448)
  35 Cr ( 0.000000,  0.000000,  0.429581)
  36 Fe ( 0.000000,  0.000000,  2.106069)
  37 Co ( 0.000000,  0.000000,  1.221572)
  38 Cr ( 0.000000,  0.000000, -1.757671)
  39 Fe ( 0.000000,  0.000000,  1.869023)
  40 Co ( 0.000000,  0.000000,  1.095057)
  41 Ni ( 0.000000,  0.000000,  0.243976)
  42 Ni ( 0.000000,  0.000000,  0.344469)
  43 Al ( 0.000000,  0.000000, -0.024233)
  44 Fe ( 0.000000,  0.000000,  2.227652)
  45 Co ( 0.000000,  0.000000,  1.340460)
  46 Fe ( 0.000000,  0.000000,  1.950916)
  47 Ni ( 0.000000,  0.000000,  0.622794)
  48 Fe ( 0.000000,  0.000000,  2.380367)
  49 Fe ( 0.000000,  0.000000,  2.312286)
  50 Ni ( 0.000000,  0.000000,  0.451738)
  51 Ni ( 0.000000,  0.000000,  0.495729)
  52 Cr ( 0.000000,  0.000000,  0.328090)
  53 Co ( 0.000000,  0.000000,  1.431160)
  54 Fe ( 0.000000,  0.000000,  2.328957)
  55 Cr ( 0.000000,  0.000000, -1.539056)
  56 Co ( 0.000000,  0.000000,  1.218581)
  57 Fe ( 0.000000,  0.000000,  1.928989)
  58 Ni ( 0.000000,  0.000000,  0.472866)
  59 Fe ( 0.000000,  0.000000,  1.391375)
[...]
  93 Ni ( 0.000000,  0.000000,  0.072441)
  94 Co ( 0.000000,  0.000000,  1.041525)
  95 Cr ( 0.000000,  0.000000, -0.866099)
  96 Fe ( 0.000000,  0.000000,  2.134266)
  97 Ni ( 0.000000,  0.000000,  0.254738)
  98 Ni ( 0.000000,  0.000000,  0.386137)
  99 Fe ( 0.000000,  0.000000,  2.151217)
 100 Ni ( 0.000000,  0.000000,  0.449365)
 101 Cr ( 0.000000,  0.000000,  0.362258)
 102 Cr ( 0.000000,  0.000000, -0.446600)
 103 Cr ( 0.000000,  0.000000,  0.995730)
 104 Co ( 0.000000,  0.000000,  0.571797)
 105 Fe ( 0.000000,  0.000000, -0.899245)
 106 Cr ( 0.000000,  0.000000, -0.025000)
 107 Ni ( 0.000000,  0.000000,  0.183475)

Energy contributions relative to reference atoms: (reference = -3699400.456887)

Kinetic:       +392.773936
Potential:     -394.620496
External:        +0.000000
XC:            -887.935964
Entropy (-ST):   -4.505369
Local:          +37.514197
Free energy:   -856.773696
Extrapolated:  -854.521012

Spin contamination: 22.745599 electrons
Showing only first 2 kpts
                      Up                     Down
 Kpt  Band  Eigenvalues  Occupancy  Eigenvalues  Occupancy
  0   508      9.62194    0.99640     10.61883    0.01278
  0   509      9.63385    0.99594     10.62342    0.01222
  0   510      9.64310    0.99555     10.64317    0.01005
  0   511      9.66220    0.99462     10.65611    0.00884

  1   508      9.63330    0.99596     10.59681    0.01588
  1   509      9.64011    0.99568     10.61798    0.01289
  1   510      9.64653    0.99540     10.63097    0.01134
  1   511      9.65131    0.99517     10.64592    0.00978

Fermi level: 10.18416

No gap

Forces in eV/Ang:
  0 Cr    0.08682    1.64541    0.34519
  1 Al   -3.13982    2.65971   -0.57393
  2 Cr    3.03312   -2.83195    0.61234
  3 Co   -0.68187    0.85205   -0.50319
  4 Fe    0.19639   -0.39599   -0.89252
  5 Cr   -0.59439    0.30662   -0.66908
  6 Ni    2.09573    1.98494    0.77148
  7 Fe    0.86785   -1.26235    0.92154
  8 Cr   -0.14503   -0.32066   -0.70086
  9 Co   -0.35891    1.46356    0.02101
 10 Ni    1.39299   -2.02519    0.27180
 11 Fe    0.23723    0.03270   -1.94278
 12 Co    0.16793   -0.86992    0.32843
 13 Co    0.72885   -1.27227    0.92801
 14 Fe   -0.13583    0.84819   -1.08822
 15 Fe   -0.17631    0.66326   -0.14891
 16 Fe   -0.22327    0.38633   -0.56576
 17 Fe   -0.31604    0.60272   -0.70830
 18 Cr    0.05687   -0.43972    1.42815
 19 Co   -0.02656   -0.27073    1.42255
 20 Fe   -0.20443    0.52924   -1.03608
 21 Ni   -2.15320   -0.84864    1.35137
 22 Co    0.36694    0.02039   -0.20551
 23 Cr    0.98350   -0.22461   -1.80320
 24 Cr    0.18840    0.53442   -0.02015
 25 Ni   -0.17001   -0.41449   -0.27846
 26 Fe   -1.56980   -0.72198    0.47413
 27 Ni   -0.32271   -1.07812    0.65578
 28 Co    0.09966    0.01912   -1.08119
 29 Co   -2.20296   -0.99059    0.44220
 30 Co    0.45515   -0.57431    0.54582
 31 Cr   -0.23754    0.72138   -1.55467
 32 Al   -0.99847   -2.89021   -0.09894
 33 Cr    0.35793    1.07536    2.15381
 34 Cr   -0.04791    1.44282    0.97516
 35 Cr    1.62028    1.83880   -0.40558
 36 Fe    1.48243   -0.33262    0.32371
 37 Co    0.12393   -1.67903   -0.31443
 38 Cr    0.37264   -0.37912   -0.14254
 39 Fe   -0.35166   -0.92265    0.99186
 40 Co    0.23489    0.30109   -0.35695
 41 Ni    0.35575   -1.29784    0.04904
 42 Ni    0.18847   -0.25459   -0.15436
 43 Al    1.71207   -1.00275    0.33589
 44 Fe    0.30358    1.18823   -0.79886
 45 Co   -1.24727    0.82230    1.65288
 46 Fe   -0.64753   -0.66001    0.52014
 47 Ni    2.21309    1.24249   -0.98084
 48 Fe   -0.00676    0.67912   -1.01825
 49 Fe    0.36896   -0.20660    0.90561
 50 Ni   -0.06742   -1.45710    1.07019
 51 Ni    0.10108    1.50760   -1.07646
 52 Cr   -1.78997    1.19917   -0.11226
 53 Co    0.82172    1.31177    0.39858
 54 Fe    0.22168    1.12351    0.07209
 55 Cr    0.52224    0.83324    0.01759
 56 Co   -0.66655   -0.60136   -0.31811
 57 Fe   -2.76690    0.41950    1.98089
 58 Ni   -0.86221   -1.75038    0.91637
 59 Fe    2.07468   -1.48423   -2.51853
[...]
 93 Ni   -1.76819   -2.33026    1.58270
 94 Co   -0.10012    1.20956    1.15173
 95 Cr    2.06796   -1.51685   -1.82443
 96 Fe    0.66944   -0.47592    0.71594
 97 Ni   -0.13693   -0.18920    0.06308
 98 Ni   -0.51396    0.57352    0.59652
 99 Fe    2.13964    0.85271    0.27023
100 Ni    0.17662   -0.26383   -0.01014
101 Cr   -0.45471   -0.08304   -1.06555
102 Cr   -0.43705   -0.09204   -1.75853
103 Cr   -0.31642    0.92926    1.25804
104 Co   -1.65492    0.78184   -0.34548
105 Fe    0.46668   -0.45785    0.46210
106 Cr    3.06254    0.79560    1.12944
107 Ni   -0.24445    1.65409   -0.75113

Date: Fri Apr 14 01:22:20 2023