User:   c.zeng@d0054
Date:   Sat Apr 15 16:56:46 2023
Arch:   x86_64
Pid:    79241
CWD:    /home/c.zeng/projects/hea-corrosion/hea-mlp/data-curation/bulk-mcmc/dft-jobs/59
Python: 3.8.1
gpaw:   /home/c.zeng/usr/installs/gpaw/source/gpaw-22.8.0/gpaw
_gpaw:  /home/c.zeng/usr/installs/gpaw/source/gpaw-22.8.0/
        _gpaw.cpython-38-x86_64-linux-gnu.so
ase:    /home/c.zeng/.local/lib/python3.8/site-packages/ase-3.22.1-py3.8.egg/ase (version 3.22.1)
numpy:  /shared/centos7/python/3.8.1/lib/python3.8/site-packages/numpy (version 1.17.4)
scipy:  /shared/centos7/python/3.8.1/lib/python3.8/site-packages/scipy (version 1.4.1)
units:  Angstrom and eV
cores: 30
OpenMP: False
OMP_NUM_THREADS: 1

Input parameters:
  convergence: {energy: 0.0001}
  kpts: [2 2 2]
  maxiter: 666
  mode: {ecut: 350.0,
         name: pw}
  occupations: {fixmagmom: False,
                name: fermi-dirac,
                width: 0.1}
  spinpol: True
  xc: PBE

System changes: positions, numbers, cell, pbc, initial_charges, initial_magmoms

Initialize ...

species:
  Cr:
    name: Chromium
    id: 33f258bda2ca9f93018e70263a35547b
    Z: 24.0
    valence: 6
    core: 18
    charge: 0.0
    file: /home/c.zeng/usr/data/gpaw-setups-0.9.20000/Cr.PBE.gz
    compensation charges: {type: gauss,
                           rc: 0.35,
                           lmax: 2}
    cutoffs: {filter: 2.14,
              core: 3.04}
    valence states:
      #              energy  rcut
      - 4s(1.00)    -4.007   1.164
      - 4p(0.00)    -0.989   1.217
      - 3d(5.00)    -2.913   1.111
      -  s          23.205   1.164
      -  p          26.223   1.217
      -  d          24.299   1.111

    # Using partial waves for Cr as LCAO basis

  Fe:
    name: Iron
    id: 37abbd8d6c3c35915a9b583b742da910
    Z: 26.0
    valence: 8
    core: 18
    charge: 0.0
    file: /home/c.zeng/usr/data/gpaw-setups-0.9.20000/Fe.PBE.gz
    compensation charges: {type: gauss,
                           rc: 0.33,
                           lmax: 2}
    cutoffs: {filter: 2.06,
              core: 2.67}
    valence states:
      #              energy  rcut
      - 4s(2.00)    -5.291   1.164
      - 4p(0.00)    -1.326   1.058
      - 3d(6.00)    -7.505   1.058
      -  s          21.920   1.164
      -  p          25.885   1.058
      -  d          19.706   1.058

[...]

  Co:
    name: Cobalt
    id: 339d20d5b0b93d2de9531a1bee871d91
    Z: 27.0
    valence: 9
    core: 18
    charge: 0.0
    file: /home/c.zeng/usr/data/gpaw-setups-0.9.20000/Co.PBE.gz
    compensation charges: {type: gauss,
                           rc: 0.32,
                           lmax: 2}
    cutoffs: {filter: 1.87,
              core: 2.55}
    valence states:
      #              energy  rcut
      - 4s(2.00)    -5.469   1.005
      - 4p(0.00)    -1.277   1.058
      - 3d(7.00)    -8.205   1.005
      -  s          21.742   1.005
      -  p          25.934   1.058
      -  d          19.007   1.005

[...]

  Ni:
    name: Nickel
    id: 0d9f38a9d6e76a2886f07bb4381f212b
    Z: 28.0
    valence: 16
    core: 12
    charge: 0.0
    file: /home/c.zeng/usr/data/gpaw-setups-0.9.20000/Ni.PBE.gz
    compensation charges: {type: gauss,
                           rc: 0.36,
                           lmax: 2}
    cutoffs: {filter: 2.14,
              core: 1.98}
    valence states:
      #              energy  rcut
      - 4s(2.00)    -5.642   1.164
      - 3p(6.00)   -71.394   1.207
      - 4p(0.00)    -1.226   1.207
      - 3d(8.00)    -8.875   1.138
      -  s          21.570   1.164
      -  d          18.337   1.138

[...]

  Al:
    name: Aluminium
    id: 0292cae29f5d6237e50f6abdd43a7bdd
    Z: 13.0
    valence: 3
    core: 10
    charge: 0.0
    file: /home/c.zeng/usr/data/gpaw-setups-0.9.20000/Al.PBE.gz
    compensation charges: {type: gauss,
                           rc: 0.34,
                           lmax: 2}
    cutoffs: {filter: 1.91,
              core: 2.36}
    valence states:
      #              energy  rcut
      - 3s(2.00)    -7.753   1.085
      - 3p(1.00)    -2.712   1.085
      -  s          19.459   1.085
      -  p          24.499   1.085
      -  d           0.000   1.085

    # Using partial waves for Al as LCAO basis

Reference energy: -3699400.456887  # eV

Spin-polarized calculation.
Magnetic moment: 143.500000

Convergence criteria:
 Maximum [total energy] change in last 3 cyles: 0.0001 eV / electron
 Maximum integral of absolute [dens]ity change: 0.0001 electrons / valence electron
 Maximum integral of absolute [eigenst]ate change: 4e-08 eV^2 / valence electron
 Maximum number of scf [iter]ations: 666
 (Square brackets indicate name in SCF output, whereas a 'c' in
 the SCF output indicates the quantity has converged.)

Symmetries present (total): 1

  ( 1  0  0)
  ( 0  1  0)
  ( 0  0  1)

8 k-points: 2 x 2 x 2 Monkhorst-Pack grid
4 k-points in the irreducible part of the Brillouin zone
       k-points in crystal coordinates                weights
   0:     0.25000000   -0.25000000   -0.25000000          2/8
   1:     0.25000000   -0.25000000    0.25000000          2/8
   2:     0.25000000    0.25000000   -0.25000000          2/8
   3:     0.25000000    0.25000000    0.25000000          2/8

Wave functions: Plane wave expansion
  Cutoff energy: 350.000 eV
  Number of coefficients (min, max): 18052, 18052
  Pulay-stress correction: 0.000000 eV/Ang^3 (de/decut=0.000000)
  Using FFTW library
  ScaLapack parameters: grid=1x1, blocksize=None
  Wavefunction extrapolation:
    Improved wavefunction reuse through dual PAW basis

Occupation numbers: Fermi-Dirac:
  width: 0.1000  # eV

Eigensolver
   Davidson(niter=2)

Densities:
  Coarse grid: 48*48*48 grid
  Fine grid: 96*96*96 grid
  Total Charge: 0.000000

Density mixing:
  Method: difference
  Backend: pulay
  Linear mixing parameter: 0.05
  old densities: 5
  Damping of long wavelength oscillations: 50

Hamiltonian:
  XC and Coulomb potentials evaluated on a 96*96*96 grid
  Using the PBE Exchange-Correlation functional
  External potential:
    NoExternalPotential

XC parameters: PBE with 2 nearest neighbor stencil

Total number of cores used: 30
Parallelization over k-points: 2
Domain decomposition: 5 x 3 x 1

Number of atoms: 108
Number of atomic orbitals: 1025
Number of bands in calculation: 703
Number of valence electrons: 1020
Bands to converge: occupied

... initialized

Initializing position-dependent things.

Density initialized from atomic densities
Creating initial wave functions:
  703 bands from LCAO basis set

        Cr------------------------.
       /|  Co                Co   |
      Cr|   Ni         Ni         |
     / Fe      Fe       Al        |
    /   CCo      Ni       Fe      |
   /e   | CoCr     CoAl    CrNi   |
  /  FeCr  CrCo     NiNiCo        |
 *    FeFe  FeCoCr     CoAl       |
 |     CoFeCr  CoFe Cr  CrFeNi    |
 | Fe   CrNiCrCo NiCrNiFe  Cr     |
 |   CoNi  CrAlCr   NiCrNi   Fe   |
 |    FeNi  FeFeCoCr CoFeCr   Ni  |
 |     CrFeFe  Ni NiNi  CoFeFe    |
 |      .-CoNiCo-FeNiCrCo--CoNi---.
 |   CrCo    CoAl   NiNiFe       /
 |    / Cr    CrFe       Ni     /
 |   /            Ni           /
 |Cr/      Co       Co        /
 |/            Ni           /
 *----------------Cr-------*

Positions:
   0 Cr     0.005316   -0.016350   10.639749    ( 0.0000,  0.0000,  0.0000)
   1 Cr    10.672340    1.801276    1.786848    ( 0.0000,  0.0000,  0.0000)
   2 Fe     1.795727   10.625972    1.782259    ( 0.0000,  0.0000,  0.0000)
   3 Cr     1.780787    1.796175   10.644605    ( 0.0000,  0.0000,  2.1000)
   4 Fe     3.523539   -0.014558    0.017268    ( 0.0000,  0.0000,  2.0000)
   5 Co     3.522568    1.781672    1.746648    ( 0.0000,  0.0000,  0.0000)
   6 Co     5.320952   10.642342    1.763136    ( 0.0000,  0.0000,  1.5000)
   7 Ni     5.342082    1.828767    0.007462    ( 0.0000,  0.0000,  2.0000)
   8 Cr     7.144895    0.019195    0.012033    ( 0.0000,  0.0000,  0.0000)
   9 Co     7.143497    1.798064    1.764939    ( 0.0000,  0.0000,  2.1000)
  10 Ni     8.891362   10.651627    1.788353    ( 0.0000,  0.0000,  1.5000)
  11 Co     8.888779    1.804777   10.642609    ( 0.0000,  0.0000,  2.0000)
  12 Fe     0.008694    3.581540   10.650250    ( 0.0000,  0.0000,  2.1000)
  13 Cr     0.018979    5.332745    1.789751    ( 0.0000,  0.0000,  2.1000)
  14 Cr     1.778129    3.600941    1.760019    ( 0.0000,  0.0000,  2.0000)
  15 Co     1.790423    5.343267   -0.017766    ( 0.0000,  0.0000,  2.0000)
  16 Cr     3.542802    3.589864   -0.015614    ( 0.0000,  0.0000,  2.0000)
  17 Co     3.526837    5.358538    1.765793    ( 0.0000,  0.0000,  2.0000)
  18 Fe     5.336650    3.606501    1.755815    ( 0.0000,  0.0000,  0.0000)
  19 Ni     5.300399    5.323642   -0.012797    ( 0.0000,  0.0000,  2.1000)
  20 Al     7.122858    3.584816   10.659524    ( 0.0000,  0.0000,  2.0000)
  21 Ni     7.120500    5.315168    1.805502    ( 0.0000,  0.0000,  1.5000)
  22 Ni     8.892034    3.590952    1.773146    ( 0.0000,  0.0000,  2.1000)
  23 Fe     8.925340    5.301487   -0.003100    ( 0.0000,  0.0000,  0.0000)
  24 Cr     0.023055    7.096680   -0.007939    ( 0.0000,  0.0000,  0.0000)
  25 Cr     0.019141    8.871245    1.787510    ( 0.0000,  0.0000,  1.5000)
  26 Co     1.784372    7.104567    1.776443    ( 0.0000,  0.0000,  2.0000)
  27 Co     1.779944    8.867628   10.659406    ( 0.0000,  0.0000,  1.5000)
  28 Cr     3.547785    7.097897    0.009215    ( 0.0000,  0.0000,  2.1000)
  29 Ni     3.541137    8.858109    1.788225    ( 0.0000,  0.0000,  2.1000)
  30 Ni     5.295105    7.099391    1.787894    ( 0.0000,  0.0000,  2.1000)
  31 Ni     5.303685    8.873828    0.029898    ( 0.0000,  0.0000,  0.0000)
  32 Ni     7.106883    7.088719   10.645159    ( 0.0000,  0.0000,  0.0000)
  33 Co     7.111055    8.901137    1.809472    ( 0.0000,  0.0000,  0.0000)
  34 Co     8.939384    7.093404    1.799238    ( 0.0000,  0.0000,  0.0000)
  35 Co     8.919972    8.915853   10.664881    ( 0.0000,  0.0000,  0.0000)
  36 Cr    10.679704   10.658873    3.584517    ( 0.0000,  0.0000,  2.0000)
  37 Fe    10.670921    1.796367    5.340289    ( 0.0000,  0.0000,  2.1000)
  38 Fe     1.770350   10.649001    5.343491    ( 0.0000,  0.0000,  0.0000)
  39 Co     1.791800    1.784671    3.584891    ( 0.0000,  0.0000,  2.0000)
  40 Ni     3.529718   10.626388    3.565234    ( 0.0000,  0.0000,  2.1000)
  41 Fe     3.535716    1.793465    5.367289    ( 0.0000,  0.0000,  1.5000)
  42 Co     5.311497    0.001574    5.366254    ( 0.0000,  0.0000,  1.5000)
  43 Al     5.332627    1.768055    3.580793    ( 0.0000,  0.0000,  0.0000)
  44 Ni     7.136966   10.673941    3.563804    ( 0.0000,  0.0000,  2.0000)
  45 Ni     7.136774    1.794126    5.358944    ( 0.0000,  0.0000,  2.1000)
  46 Co     8.925938   10.673621    5.347589    ( 0.0000,  0.0000,  2.0000)
  47 Fe     8.883827    1.779111    3.582404    ( 0.0000,  0.0000,  1.5000)
  48 Ni    -0.010038    3.572341    3.580996    ( 0.0000,  0.0000,  2.0000)
  49 Co    10.685573    5.328935    5.338550    ( 0.0000,  0.0000,  2.0000)
  50 Ni     1.784180    3.582949    5.348357    ( 0.0000,  0.0000,  1.5000)
  51 Fe     1.766326    5.339510    3.565255    ( 0.0000,  0.0000,  1.5000)
[...]
  97 Fe     0.000822    8.895150    8.883817    ( 0.0000,  0.0000,  1.5000)
  98 Co     1.771182    7.105090    8.888608    ( 0.0000,  0.0000,  1.5000)
  99 Cr     1.775184    8.850318    7.108494    ( 0.0000,  0.0000,  2.0000)
 100 Co     3.530401    7.086478    7.104972    ( 0.0000,  0.0000,  1.5000)
 101 Fe     3.524841    8.851001    8.894798    ( 0.0000,  0.0000,  0.0000)
 102 Co     5.310654    7.102827    8.871128    ( 0.0000,  0.0000,  0.0000)
 103 Ni     5.290613    8.850286    7.104876    ( 0.0000,  0.0000,  0.0000)
 104 Co     7.129016    7.083330    7.142750    ( 0.0000,  0.0000,  2.1000)
 105 Al     7.143241    8.903186    8.854384    ( 0.0000,  0.0000,  2.0000)
 106 Cr     8.926504    7.115858    8.862313    ( 0.0000,  0.0000,  0.0000)
 107 Ni     8.932896    8.877648    7.127479    ( 0.0000,  0.0000,  1.5000)

Unit cell:
           periodic     x           y           z      points  spacing
  1. axis:    yes   10.671700    0.000000    0.000000    48     0.2223
  2. axis:    yes    0.000000   10.671700    0.000000    48     0.2223
  3. axis:    yes    0.000000    0.000000   10.671700    48     0.2223

  Lengths:  10.671700  10.671700  10.671700
  Angles:   90.000000  90.000000  90.000000

Effective grid spacing dv^(1/3) = 0.2223

     iter     time        total  log10-change:  magmom
                         energy  eigst   dens
iter:   1 17:02:51  -951.562610                  +143.1674
iter:   2 17:05:40  -934.327068  -0.45  -1.33    +106.1924
iter:   3 17:08:28  -911.675639  -0.88  -1.29    +75.3936
iter:   4 17:11:19  -877.821048  -1.36  -1.34    +64.1228
iter:   5 17:14:10  -874.873211  -1.83  -1.45    +56.7885
iter:   6 17:17:01  -878.881718  -1.85  -1.49    +52.6761
iter:   7 17:19:51  -873.365343  -1.70  -1.50    +50.5106
iter:   8 17:22:42  -872.456886  -1.76  -1.57    +49.3860
iter:   9 17:25:33  -878.585983  -1.73  -1.66    +48.8872
iter:  10 17:28:24  -870.244066  -1.83  -1.64    +47.5638
iter:  11 17:31:16  -869.585452  -2.24  -1.82    +46.9661
iter:  12 17:34:06  -869.195271  -2.40  -1.83    +47.2792
iter:  13 17:36:57  -868.178144  -2.56  -1.88    +47.8580
iter:  14 17:39:47  -868.018786  -2.74  -1.95    +48.0769
iter:  15 17:42:37  -869.158854  -2.69  -1.97    +48.8091
iter:  16 17:45:28  -869.141512  -2.66  -1.94    +49.3359
iter:  17 17:48:19  -869.382701  -2.68  -1.97    +49.8627
iter:  18 17:51:09  -869.615755  -2.66  -2.00    +50.3321
iter:  19 17:53:59  -868.928627  -2.73  -2.01    +50.6177
iter:  20 17:56:50  -868.958533  -2.89  -2.07    +51.6222
iter:  21 17:59:40  -869.177275  -3.00  -2.08    +52.1211
iter:  22 18:02:30  -869.132261  -2.94  -2.11    +52.7619
iter:  23 18:05:18  -869.110404c -3.19  -2.11    +53.4007
iter:  24 18:08:08  -869.312135  -3.13  -2.16    +54.1417
iter:  25 18:10:59  -869.355210  -3.23  -2.16    +54.8072
iter:  26 18:13:50  -869.775168  -3.08  -2.21    +55.3903
iter:  27 18:16:41  -870.065180  -3.07  -2.20    +55.8858
iter:  28 18:19:32  -870.435521  -2.86  -2.19    +56.5918
iter:  29 18:22:22  -870.191190  -3.04  -2.18    +56.9251
iter:  30 18:25:14  -870.276257  -3.07  -2.26    +57.4054
iter:  31 18:28:05  -870.019466  -3.31  -2.27    +57.7068
iter:  32 18:30:56  -870.059095  -3.53  -2.34    +58.2447
iter:  33 18:33:46  -870.074942c -3.73  -2.37    +58.6270
iter:  34 18:36:37  -870.186329  -3.69  -2.40    +58.9087
iter:  35 18:39:27  -870.189725  -3.88  -2.39    +59.0680
iter:  36 18:42:18  -870.568339  -3.41  -2.44    +59.2874
iter:  37 18:45:09  -870.635071  -3.22  -2.39    +59.3133
iter:  38 18:48:00  -870.672929  -3.29  -2.41    +59.2204
iter:  39 18:50:51  -870.657079c -3.24  -2.45    +59.1365
iter:  40 18:53:42  -870.774222  -3.27  -2.44    +59.2128
iter:  41 18:56:33  -870.401431  -3.57  -2.44    +59.2598
iter:  42 18:59:23  -870.389435  -4.05  -2.67    +59.2065
iter:  43 19:02:14  -870.371632c -4.50  -2.71    +59.1465
iter:  44 19:05:05  -870.391322c -4.73  -2.76    +59.1264
iter:  45 19:07:56  -870.463272c -4.14  -2.78    +59.0869
iter:  46 19:10:46  -870.490612c -4.16  -2.72    +59.0422
iter:  47 19:13:36  -870.516149c -3.88  -2.76    +58.8676
iter:  48 19:16:26  -870.561359c -3.79  -2.74    +58.8637
iter:  49 19:19:17  -870.531158c -3.86  -2.71    +58.8988
iter:  50 19:22:07  -870.483738c -4.10  -2.81    +58.8144
iter:  51 19:24:58  -870.471479c -4.46  -2.95    +58.7157
iter:  52 19:27:48  -870.469722c -5.03  -3.00    +58.6784
iter:  53 19:30:38  -870.485227c -4.94  -3.10    +58.6274
iter:  54 19:33:29  -870.492399c -5.11  -3.10    +58.5815
iter:  55 19:36:20  -870.502872c -4.94  -3.11    +58.5131
iter:  56 19:39:08  -870.524310c -4.57  -3.21    +58.4795
iter:  57 19:42:00  -870.516154c -4.70  -3.14    +58.4570
iter:  58 19:44:51  -870.521950c -4.95  -3.39    +58.4150
iter:  59 19:47:42  -870.523222c -5.15  -3.41    +58.3884
iter:  60 19:50:32  -870.531690c -5.13  -3.54    +58.3843
iter:  61 19:53:23  -870.530143c -5.72  -3.50    +58.3823
iter:  62 19:56:15  -870.538992c -5.31  -3.68    +58.3525
iter:  63 19:59:06  -870.540711c -5.96  -3.60    +58.3514
iter:  64 20:01:57  -870.548629c -5.42  -3.60    +58.3362
iter:  65 20:04:48  -870.524294c -4.61  -3.53    +58.3475
iter:  66 20:07:40  -870.532103c -5.76  -3.62    +58.3425
iter:  67 20:10:32  -870.528663c -6.19  -3.65    +58.3473
iter:  68 20:13:24  -870.533977c -5.91  -3.71    +58.3350
iter:  69 20:16:15  -870.533346c -6.11  -3.64    +58.3416
iter:  70 20:19:06  -870.541231c -5.30  -3.65    +58.3301
iter:  71 20:21:57  -870.544884c -5.44  -3.60    +58.3195
iter:  72 20:24:48  -870.552207c -5.30  -3.63    +58.3236
iter:  73 20:27:42  -870.556370c -5.54  -3.62    +58.3194
iter:  74 20:30:33  -870.564199c -5.31  -3.52    +58.3125
iter:  75 20:33:25  -870.560549c -5.88  -3.47    +58.3127
iter:  76 20:36:17  -870.567038c -5.60  -3.52    +58.3022
iter:  77 20:39:08  -870.570177c -5.90  -3.50    +58.3038
iter:  78 20:42:00  -870.569584c -5.31  -3.48    +58.2732
iter:  79 20:44:51  -870.579312c -4.93  -3.38    +58.3115
iter:  80 20:47:42  -870.581117c -5.25  -3.31    +58.3391
iter:  81 20:50:33  -870.584767c -5.40  -3.47    +58.3516
iter:  82 20:53:25  -870.593413c -4.85  -3.43    +58.3739
iter:  83 20:56:17  -870.592375c -5.23  -3.30    +58.3770
iter:  84 20:59:08  -870.595216c -5.36  -3.47    +58.3898
iter:  85 21:02:00  -870.597858c -5.54  -3.46    +58.4138
iter:  86 21:04:51  -870.602795c -5.50  -3.53    +58.4417
iter:  87 21:07:42  -870.638737c -4.06  -3.52    +58.6574
iter:  88 21:10:34  -870.648855c -4.58  -3.28    +58.7766
iter:  89 21:13:25  -870.651819c -4.76  -3.26    +58.9042
iter:  90 21:16:17  -870.646942c -5.21  -3.27    +58.9635
iter:  91 21:19:09  -870.647628c -5.37  -3.34    +59.0153
iter:  92 21:22:00  -870.655624c -4.54  -3.35    +59.0638
iter:  93 21:24:51  -870.637838c -4.79  -3.15    +59.0465
iter:  94 21:27:42  -870.637335c -5.64  -3.53    +58.9865
iter:  95 21:30:34  -870.638267c -5.74  -3.61    +58.9348
iter:  96 21:33:25  -870.637878c -5.56  -3.62    +58.9130
iter:  97 21:36:16  -870.638581c -6.04  -3.62    +58.9204
iter:  98 21:39:07  -870.638446c -5.74  -3.65    +58.9044
iter:  99 21:41:59  -870.638086c -5.89  -3.67    +58.8992
iter: 100 21:44:51  -870.639749c -5.79  -3.73    +58.9000
iter: 101 21:47:42  -870.638327c -5.97  -3.69    +58.8942
iter: 102 21:50:34  -870.639594c -6.03  -3.86    +58.8834
iter: 103 21:53:26  -870.638428c -6.32  -3.81    +58.8799
iter: 104 21:56:17  -870.639146c -6.41  -3.92    +58.8806
iter: 105 21:59:08  -870.639282c -6.45  -3.94    +58.8746
iter: 106 22:02:00  -870.639271c -6.48  -4.01c   +58.8688
iter: 107 22:04:51  -870.639854c -6.37  -4.01c   +58.8671
iter: 108 22:07:42  -870.639358c -6.36  -3.99    +58.8656
iter: 109 22:10:33  -870.639690c -6.63  -4.00c   +58.8645
iter: 110 22:13:24  -870.639553c -6.68  -4.27c   +58.8623
iter: 111 22:16:15  -870.639786c -6.98  -4.21c   +58.8624
iter: 112 22:19:06  -870.639911c -6.95  -4.31c   +58.8604
iter: 113 22:21:58  -870.640155c -6.51  -4.37c   +58.8562
iter: 114 22:24:50  -870.640155c -6.79  -4.39c   +58.8588
iter: 115 22:27:41  -870.640391c -6.90  -4.39c   +58.8603
iter: 116 22:30:34  -870.640384c -6.93  -4.46c   +58.8611
iter: 117 22:33:26  -870.640546c -7.25  -4.44c   +58.8628
iter: 118 22:36:15  -870.640696c -7.17  -4.48c   +58.8633
iter: 119 22:39:07  -870.641046c -6.37  -4.51c   +58.8614
iter: 120 22:41:59  -870.641605c -6.08  -4.44c   +58.8647
iter: 121 22:44:50  -870.643596c -5.02  -4.32c   +58.8856
iter: 122 22:47:41  -870.643745c -5.84  -4.02c   +58.8925
iter: 123 22:50:33  -870.643722c -6.46  -4.00    +58.8951
iter: 124 22:53:25  -870.643643c -6.74  -4.04c   +58.8968
iter: 125 22:56:17  -870.644011c -6.84  -4.08c   +58.8977
iter: 126 22:59:09  -870.643678c -5.80  -4.00c   +58.8977
iter: 127 23:02:01  -870.643323c -6.32  -3.98    +58.8936
iter: 128 23:04:54  -870.643559c -6.71  -4.06c   +58.8886
iter: 129 23:07:46  -870.643374c -7.23  -4.18c   +58.8832
iter: 130 23:10:38  -870.643342c -6.70  -4.25c   +58.8773
iter: 131 23:13:30  -870.643421c -6.87  -4.13c   +58.8759
iter: 132 23:16:22  -870.643559c -7.09  -4.26c   +58.8708
iter: 133 23:19:13  -870.643407c -6.88  -4.28c   +58.8697
iter: 134 23:22:05  -870.643158c -6.68  -4.21c   +58.8678
iter: 135 23:24:57  -870.643414c -6.83  -4.16c   +58.8668
iter: 136 23:27:49  -870.643405c -7.24  -4.31c   +58.8655
iter: 137 23:30:42  -870.643294c -6.88  -4.49c   +58.8632
iter: 138 23:33:34  -870.643184c -7.29  -4.27c   +58.8636
iter: 139 23:36:23  -870.643281c -7.53c -4.53c   +58.8628

Converged after 139 iterations.

Dipole moment: (-10.819307, 7.570385, 8.977735) |e|*Ang

Total magnetic moment: (0.000000, 0.000000, 58.862848)
Local magnetic moments:
   0 Cr ( 0.000000,  0.000000, -0.871874)
   1 Cr ( 0.000000,  0.000000,  0.772655)
   2 Fe ( 0.000000,  0.000000, -1.525436)
   3 Cr ( 0.000000,  0.000000, -0.639510)
   4 Fe ( 0.000000,  0.000000,  2.272853)
   5 Co ( 0.000000,  0.000000,  0.923637)
   6 Co ( 0.000000,  0.000000,  1.375828)
   7 Ni ( 0.000000,  0.000000,  0.159662)
   8 Cr ( 0.000000,  0.000000, -1.708392)
   9 Co ( 0.000000,  0.000000,  1.184923)
  10 Ni ( 0.000000,  0.000000,  0.211830)
  11 Co ( 0.000000,  0.000000,  0.802978)
  12 Fe ( 0.000000,  0.000000,  1.950545)
  13 Cr ( 0.000000,  0.000000, -1.135036)
  14 Cr ( 0.000000,  0.000000, -0.828164)
  15 Co ( 0.000000,  0.000000,  0.629818)
  16 Cr ( 0.000000,  0.000000, -0.471928)
  17 Co ( 0.000000,  0.000000,  1.059647)
  18 Fe ( 0.000000,  0.000000,  2.298724)
  19 Ni ( 0.000000,  0.000000,  0.186614)
  20 Al ( 0.000000,  0.000000, -0.026950)
  21 Ni ( 0.000000,  0.000000,  0.312351)
  22 Ni ( 0.000000,  0.000000,  0.240353)
  23 Fe ( 0.000000,  0.000000,  1.997930)
  24 Cr ( 0.000000,  0.000000, -1.098400)
  25 Cr ( 0.000000,  0.000000,  0.376516)
  26 Co ( 0.000000,  0.000000,  0.761955)
  27 Co ( 0.000000,  0.000000,  0.746391)
  28 Cr ( 0.000000,  0.000000, -1.540686)
  29 Ni ( 0.000000,  0.000000,  0.280671)
  30 Ni ( 0.000000,  0.000000,  0.401392)
  31 Ni ( 0.000000,  0.000000,  0.352976)
  32 Ni ( 0.000000,  0.000000,  0.316514)
  33 Co ( 0.000000,  0.000000,  1.530742)
  34 Co ( 0.000000,  0.000000,  0.628459)
  35 Co ( 0.000000,  0.000000,  0.549128)
  36 Cr ( 0.000000,  0.000000, -1.182214)
  37 Fe ( 0.000000,  0.000000,  2.356368)
  38 Fe ( 0.000000,  0.000000,  2.081967)
  39 Co ( 0.000000,  0.000000,  1.268581)
  40 Ni ( 0.000000,  0.000000,  0.341668)
  41 Fe ( 0.000000,  0.000000,  2.201909)
  42 Co ( 0.000000,  0.000000,  0.958363)
  43 Al ( 0.000000,  0.000000, -0.032694)
  44 Ni ( 0.000000,  0.000000,  0.351692)
  45 Ni ( 0.000000,  0.000000,  0.152747)
  46 Co ( 0.000000,  0.000000,  1.046970)
  47 Fe ( 0.000000,  0.000000,  1.974348)
  48 Ni ( 0.000000,  0.000000,  0.208556)
  49 Co ( 0.000000,  0.000000,  1.029581)
  50 Ni ( 0.000000,  0.000000,  0.402443)
  51 Fe ( 0.000000,  0.000000,  2.086876)
  52 Ni ( 0.000000,  0.000000,  0.399983)
  53 Al ( 0.000000,  0.000000, -0.035008)
  54 Co ( 0.000000,  0.000000,  0.663707)
  55 Ni ( 0.000000,  0.000000,  0.204037)
  56 Cr ( 0.000000,  0.000000, -1.490830)
  57 Cr ( 0.000000,  0.000000,  0.779734)
  58 Cr ( 0.000000,  0.000000, -1.441256)
  59 Fe ( 0.000000,  0.000000,  1.904040)
[...]
  93 Ni ( 0.000000,  0.000000,  0.246187)
  94 Al ( 0.000000,  0.000000, -0.037553)
  95 Fe ( 0.000000,  0.000000,  1.790670)
  96 Fe ( 0.000000,  0.000000,  2.070771)
  97 Fe ( 0.000000,  0.000000,  1.986036)
  98 Co ( 0.000000,  0.000000,  1.084867)
  99 Cr ( 0.000000,  0.000000, -1.828655)
 100 Co ( 0.000000,  0.000000,  1.170654)
 101 Fe ( 0.000000,  0.000000,  2.328940)
 102 Co ( 0.000000,  0.000000,  1.287023)
 103 Ni ( 0.000000,  0.000000,  0.273869)
 104 Co ( 0.000000,  0.000000,  0.335768)
 105 Al ( 0.000000,  0.000000, -0.009886)
 106 Cr ( 0.000000,  0.000000, -1.757636)
 107 Ni ( 0.000000,  0.000000,  0.164791)

Energy contributions relative to reference atoms: (reference = -3699400.456887)

Kinetic:       +134.062787
Potential:     -186.735364
External:        +0.000000
XC:            -853.580488
Entropy (-ST):   -4.546228
Local:          +37.882899
Free energy:   -872.916395
Extrapolated:  -870.643281

Spin contamination: 29.767342 electrons
Showing only first 2 kpts
                      Up                     Down
 Kpt  Band  Eigenvalues  Occupancy  Eigenvalues  Occupancy
  0   508      9.65951    0.99226     10.47333    0.03608
  0   509      9.66482    0.99184     10.47894    0.03418
  0   510      9.68165    0.99035     10.49007    0.03069
  0   511      9.69205    0.98931     10.50335    0.02698

  1   508      9.66036    0.99219     10.47691    0.03486
  1   509      9.66875    0.99151     10.49146    0.03028
  1   510      9.68735    0.98979     10.50057    0.02772
  1   511      9.70406    0.98796     10.51349    0.02444

Fermi level: 10.14481

No gap

Forces in eV/Ang:
  0 Cr   -0.33128   -0.03891    0.36238
  1 Cr    0.18120   -0.14254   -0.14883
  2 Fe   -0.20822    0.26951    0.07967
  3 Cr   -0.12610   -0.04833    0.18966
  4 Fe    0.35026    0.29499   -0.01456
  5 Co   -0.14007    0.06401    0.06811
  6 Co    0.13246    0.15347   -0.19495
  7 Ni   -0.29960   -0.60465    0.13293
  8 Cr   -0.24854    0.53002    0.33453
  9 Co   -0.11071   -0.28958    0.05405
 10 Ni    0.20648    0.31128   -0.19089
 11 Co    0.20705   -0.46071    0.53476
 12 Fe    0.44747   -0.12615    0.50251
 13 Cr   -0.08180    0.26262   -0.00295
 14 Cr    0.48151   -0.37254    0.33798
 15 Co   -0.04566    0.02659   -0.05179
 16 Cr   -0.19425    0.00158   -0.10032
 17 Co    0.09778   -0.21931   -0.05333
 18 Fe   -0.54043   -0.34117    0.54546
 19 Ni    0.19571    0.30743    0.06377
 20 Al   -0.31090    0.13851    1.29446
 21 Ni   -0.08679    0.40617   -0.20710
 22 Ni    0.19444   -0.45189    0.23968
 23 Fe    0.09485    1.40573    0.42397
 24 Cr    0.36807    0.15829    0.26723
 25 Cr   -0.21447    0.08799   -0.23489
 26 Co   -0.27641   -0.08610   -0.35563
 27 Co   -0.11915    0.07706    0.12273
 28 Cr   -0.37849   -0.20504   -0.23051
 29 Ni    0.00941    0.14245   -0.16553
 30 Ni    0.31970    0.08055   -0.04203
 31 Ni    0.29540    0.14970   -0.16703
 32 Ni    0.24282    0.19253    0.16096
 33 Co    0.17016   -0.34588   -0.21569
 34 Co   -0.07937    0.18898   -0.40178
 35 Co   -0.12880   -0.32271    0.31682
 36 Cr   -0.02610    0.12294   -0.22458
 37 Fe    0.12798   -0.24733   -0.13125
 38 Fe   -0.01147    0.02915   -0.16178
 39 Co    0.16114   -0.04878   -0.32486
 40 Ni    0.06538    0.40887    0.04469
 41 Fe   -0.21932   -0.00113    0.07883
 42 Co   -0.13831   -0.36874    0.20306
 43 Al   -0.26094   -0.34078   -0.15647
 44 Ni   -0.09775   -0.19864    0.05045
 45 Ni   -0.14936   -0.10195    0.08046
 46 Co    0.00439   -0.05606    0.06622
 47 Fe   -0.17620   -0.13635   -0.29198
 48 Ni    0.13265   -0.13518   -0.24673
 49 Co   -0.05484    0.08143    0.13072
 50 Ni   -0.17967   -0.25984   -0.11138
 51 Fe   -0.41143   -0.13163   -0.47363
 52 Ni    0.31420   -0.49049   -0.34548
 53 Al   -0.22787   -0.43464   -0.66415
 54 Co    0.47609   -0.16445    0.08332
 55 Ni   -0.05294   -0.11950   -0.38221
 56 Cr    0.21023    0.75857   -0.47150
 57 Cr   -0.38648   -0.10503    0.18123
 58 Cr    0.34482    0.29978    0.40028
 59 Fe    0.00069   -0.12820   -0.26296
[...]
 93 Ni    0.05857    0.37248    0.20259
 94 Al    0.57338    0.05087   -0.85508
 95 Fe   -0.09047    0.42835   -0.11692
 96 Fe   -0.06529   -0.04544   -0.17940
 97 Fe    0.17419   -0.11396    0.43755
 98 Co    0.03927   -0.16952    0.29195
 99 Cr   -0.09212    0.02243   -0.18707
100 Co    0.16757    0.34972    0.36022
101 Fe    0.36320    0.12381   -0.12880
102 Co   -0.26071   -0.27900    0.07608
103 Ni    0.21797    0.35422    0.14831
104 Co    0.15984   -0.04517   -0.53953
105 Al   -1.00115   -0.68097    0.40455
106 Cr    0.23189   -0.80741    0.02329
107 Ni   -0.17555    0.19711   -0.29569

Date: Sat Apr 15 23:36:46 2023