User:   c.zeng@d0006
Date:   Sat Apr 15 20:28:35 2023
Arch:   x86_64
Pid:    78899
CWD:    /home/c.zeng/projects/hea-corrosion/hea-mlp/data-curation/bulk-mcmc/dft-jobs/79
Python: 3.8.1
gpaw:   /home/c.zeng/usr/installs/gpaw/source/gpaw-22.8.0/gpaw
_gpaw:  /home/c.zeng/usr/installs/gpaw/source/gpaw-22.8.0/
        _gpaw.cpython-38-x86_64-linux-gnu.so
ase:    /home/c.zeng/.local/lib/python3.8/site-packages/ase-3.22.1-py3.8.egg/ase (version 3.22.1)
numpy:  /shared/centos7/python/3.8.1/lib/python3.8/site-packages/numpy (version 1.17.4)
scipy:  /shared/centos7/python/3.8.1/lib/python3.8/site-packages/scipy (version 1.4.1)
units:  Angstrom and eV
cores: 30
OpenMP: False
OMP_NUM_THREADS: 1

Input parameters:
  convergence: {energy: 0.0001}
  kpts: [2 2 2]
  maxiter: 666
  mode: {ecut: 350.0,
         name: pw}
  occupations: {fixmagmom: False,
                name: fermi-dirac,
                width: 0.1}
  spinpol: True
  xc: PBE

System changes: positions, numbers, cell, pbc, initial_charges, initial_magmoms

Initialize ...

species:
  Cr:
    name: Chromium
    id: 33f258bda2ca9f93018e70263a35547b
    Z: 24.0
    valence: 6
    core: 18
    charge: 0.0
    file: /home/c.zeng/usr/data/gpaw-setups-0.9.20000/Cr.PBE.gz
    compensation charges: {type: gauss,
                           rc: 0.35,
                           lmax: 2}
    cutoffs: {filter: 2.14,
              core: 3.04}
    valence states:
      #              energy  rcut
      - 4s(1.00)    -4.007   1.164
      - 4p(0.00)    -0.989   1.217
      - 3d(5.00)    -2.913   1.111
      -  s          23.205   1.164
      -  p          26.223   1.217
      -  d          24.299   1.111

    # Using partial waves for Cr as LCAO basis

  Fe:
    name: Iron
    id: 37abbd8d6c3c35915a9b583b742da910
    Z: 26.0
    valence: 8
    core: 18
    charge: 0.0
    file: /home/c.zeng/usr/data/gpaw-setups-0.9.20000/Fe.PBE.gz
    compensation charges: {type: gauss,
                           rc: 0.33,
                           lmax: 2}
    cutoffs: {filter: 2.06,
              core: 2.67}
    valence states:
      #              energy  rcut
      - 4s(2.00)    -5.291   1.164
      - 4p(0.00)    -1.326   1.058
      - 3d(6.00)    -7.505   1.058
      -  s          21.920   1.164
      -  p          25.885   1.058
      -  d          19.706   1.058

[...]

  Ni:
    name: Nickel
    id: 0d9f38a9d6e76a2886f07bb4381f212b
    Z: 28.0
    valence: 16
    core: 12
    charge: 0.0
    file: /home/c.zeng/usr/data/gpaw-setups-0.9.20000/Ni.PBE.gz
    compensation charges: {type: gauss,
                           rc: 0.36,
                           lmax: 2}
    cutoffs: {filter: 2.14,
              core: 1.98}
    valence states:
      #              energy  rcut
      - 4s(2.00)    -5.642   1.164
      - 3p(6.00)   -71.394   1.207
      - 4p(0.00)    -1.226   1.207
      - 3d(8.00)    -8.875   1.138
      -  s          21.570   1.164
      -  d          18.337   1.138

[...]

  Co:
    name: Cobalt
    id: 339d20d5b0b93d2de9531a1bee871d91
    Z: 27.0
    valence: 9
    core: 18
    charge: 0.0
    file: /home/c.zeng/usr/data/gpaw-setups-0.9.20000/Co.PBE.gz
    compensation charges: {type: gauss,
                           rc: 0.32,
                           lmax: 2}
    cutoffs: {filter: 1.87,
              core: 2.55}
    valence states:
      #              energy  rcut
      - 4s(2.00)    -5.469   1.005
      - 4p(0.00)    -1.277   1.058
      - 3d(7.00)    -8.205   1.005
      -  s          21.742   1.005
      -  p          25.934   1.058
      -  d          19.007   1.005

[...]

  Al:
    name: Aluminium
    id: 0292cae29f5d6237e50f6abdd43a7bdd
    Z: 13.0
    valence: 3
    core: 10
    charge: 0.0
    file: /home/c.zeng/usr/data/gpaw-setups-0.9.20000/Al.PBE.gz
    compensation charges: {type: gauss,
                           rc: 0.34,
                           lmax: 2}
    cutoffs: {filter: 1.91,
              core: 2.36}
    valence states:
      #              energy  rcut
      - 3s(2.00)    -7.753   1.085
      - 3p(1.00)    -2.712   1.085
      -  s          19.459   1.085
      -  p          24.499   1.085
      -  d           0.000   1.085

    # Using partial waves for Al as LCAO basis

Reference energy: -3699400.456887  # eV

Spin-polarized calculation.
Magnetic moment: 143.500000

Convergence criteria:
 Maximum [total energy] change in last 3 cyles: 0.0001 eV / electron
 Maximum integral of absolute [dens]ity change: 0.0001 electrons / valence electron
 Maximum integral of absolute [eigenst]ate change: 4e-08 eV^2 / valence electron
 Maximum number of scf [iter]ations: 666
 (Square brackets indicate name in SCF output, whereas a 'c' in
 the SCF output indicates the quantity has converged.)

Symmetries present (total): 1

  ( 1  0  0)
  ( 0  1  0)
  ( 0  0  1)

8 k-points: 2 x 2 x 2 Monkhorst-Pack grid
4 k-points in the irreducible part of the Brillouin zone
       k-points in crystal coordinates                weights
   0:     0.25000000   -0.25000000   -0.25000000          2/8
   1:     0.25000000   -0.25000000    0.25000000          2/8
   2:     0.25000000    0.25000000   -0.25000000          2/8
   3:     0.25000000    0.25000000    0.25000000          2/8

Wave functions: Plane wave expansion
  Cutoff energy: 350.000 eV
  Number of coefficients (min, max): 18052, 18052
  Pulay-stress correction: 0.000000 eV/Ang^3 (de/decut=0.000000)
  Using FFTW library
  ScaLapack parameters: grid=1x1, blocksize=None
  Wavefunction extrapolation:
    Improved wavefunction reuse through dual PAW basis

Occupation numbers: Fermi-Dirac:
  width: 0.1000  # eV

Eigensolver
   Davidson(niter=2)

Densities:
  Coarse grid: 48*48*48 grid
  Fine grid: 96*96*96 grid
  Total Charge: 0.000000

Density mixing:
  Method: difference
  Backend: pulay
  Linear mixing parameter: 0.05
  old densities: 5
  Damping of long wavelength oscillations: 50

Hamiltonian:
  XC and Coulomb potentials evaluated on a 96*96*96 grid
  Using the PBE Exchange-Correlation functional
  External potential:
    NoExternalPotential

XC parameters: PBE with 2 nearest neighbor stencil

Total number of cores used: 30
Parallelization over k-points: 2
Domain decomposition: 5 x 3 x 1

Number of atoms: 108
Number of atomic orbitals: 1025
Number of bands in calculation: 703
Number of valence electrons: 1020
Bands to converge: occupied

... initialized

Initializing position-dependent things.

Density initialized from atomic densities
Creating initial wave functions:
  703 bands from LCAO basis set

        Cr------------------------.
       /|  Co                Co   |
      Cr|   Cr         Ni         |
     / Fe      Fe       Al        |
    /   CCo      Cr       Fe      |
   /e   | CoCr     CoAl    CrNi   |
  /  FeNi  NiCo     CrNiCo        |
 *    FeFe  FeCoNi     CoAl       |
 |     CoFeNi  CoFe Ni  NiFeCr    |
 | Fe   NiNiCrCo NiNiCrFe  Ni     |
 |   CoCr  NiAlCr   NiCrCr   Fe   |
 |    FeNi  FeFeCoNi CoFeCr   Ni  |
 |     CrFeFe  Cr CrCr  CoFeFe    |
 |      .-CoNiCo-FeCrCrCo--CoCr---.
 |   NiCo    CoAl   NiCrFe       /
 |    / Cr    NiFe       Ni     /
 |   /            Cr           /
 |Cr/      Co       Co        /
 |/            Ni           /
 *----------------Ni-------*

Positions:
   0 Cr     0.005316   -0.016350   10.639749    ( 0.0000,  0.0000,  0.0000)
   1 Cr    10.672340    1.801276    1.786848    ( 0.0000,  0.0000,  0.0000)
   2 Fe     1.795727   10.625972    1.782259    ( 0.0000,  0.0000,  0.0000)
   3 Ni     1.780787    1.796175   10.644605    ( 0.0000,  0.0000,  2.1000)
   4 Fe     3.523539   -0.014558    0.017268    ( 0.0000,  0.0000,  2.0000)
   5 Co     3.522568    1.781672    1.746648    ( 0.0000,  0.0000,  0.0000)
   6 Co     5.320952   10.642342    1.763136    ( 0.0000,  0.0000,  1.5000)
   7 Ni     5.342082    1.828767    0.007462    ( 0.0000,  0.0000,  2.0000)
   8 Ni     7.144895    0.019195    0.012033    ( 0.0000,  0.0000,  0.0000)
   9 Co     7.143497    1.798064    1.764939    ( 0.0000,  0.0000,  2.1000)
  10 Ni     8.891362   10.651627    1.788353    ( 0.0000,  0.0000,  1.5000)
  11 Co     8.888779    1.804777   10.642609    ( 0.0000,  0.0000,  2.0000)
  12 Fe     0.008694    3.581540   10.650250    ( 0.0000,  0.0000,  2.1000)
  13 Ni     0.018979    5.332745    1.789751    ( 0.0000,  0.0000,  2.1000)
  14 Cr     1.778129    3.600941    1.760019    ( 0.0000,  0.0000,  2.0000)
  15 Co     1.790423    5.343267   -0.017766    ( 0.0000,  0.0000,  2.0000)
  16 Cr     3.542802    3.589864   -0.015614    ( 0.0000,  0.0000,  2.0000)
  17 Co     3.526837    5.358538    1.765793    ( 0.0000,  0.0000,  2.0000)
  18 Fe     5.336650    3.606501    1.755815    ( 0.0000,  0.0000,  0.0000)
  19 Cr     5.300399    5.323642   -0.012797    ( 0.0000,  0.0000,  2.1000)
  20 Al     7.122858    3.584816   10.659524    ( 0.0000,  0.0000,  2.0000)
  21 Cr     7.120500    5.315168    1.805502    ( 0.0000,  0.0000,  1.5000)
  22 Ni     8.892034    3.590952    1.773146    ( 0.0000,  0.0000,  2.1000)
  23 Fe     8.925340    5.301487   -0.003100    ( 0.0000,  0.0000,  0.0000)
  24 Cr     0.023055    7.096680   -0.007939    ( 0.0000,  0.0000,  0.0000)
  25 Cr     0.019141    8.871245    1.787510    ( 0.0000,  0.0000,  1.5000)
  26 Co     1.784372    7.104567    1.776443    ( 0.0000,  0.0000,  2.0000)
  27 Co     1.779944    8.867628   10.659406    ( 0.0000,  0.0000,  1.5000)
  28 Ni     3.547785    7.097897    0.009215    ( 0.0000,  0.0000,  2.1000)
  29 Cr     3.541137    8.858109    1.788225    ( 0.0000,  0.0000,  2.1000)
  30 Cr     5.295105    7.099391    1.787894    ( 0.0000,  0.0000,  2.1000)
  31 Ni     5.303685    8.873828    0.029898    ( 0.0000,  0.0000,  0.0000)
  32 Ni     7.106883    7.088719   10.645159    ( 0.0000,  0.0000,  0.0000)
  33 Co     7.111055    8.901137    1.809472    ( 0.0000,  0.0000,  0.0000)
  34 Co     8.939384    7.093404    1.799238    ( 0.0000,  0.0000,  0.0000)
  35 Co     8.919972    8.915853   10.664881    ( 0.0000,  0.0000,  0.0000)
  36 Ni    10.679704   10.658873    3.584517    ( 0.0000,  0.0000,  2.0000)
  37 Fe    10.670921    1.796367    5.340289    ( 0.0000,  0.0000,  2.1000)
  38 Fe     1.770350   10.649001    5.343491    ( 0.0000,  0.0000,  0.0000)
  39 Co     1.791800    1.784671    3.584891    ( 0.0000,  0.0000,  2.0000)
  40 Ni     3.529718   10.626388    3.565234    ( 0.0000,  0.0000,  2.1000)
  41 Fe     3.535716    1.793465    5.367289    ( 0.0000,  0.0000,  1.5000)
  42 Co     5.311497    0.001574    5.366254    ( 0.0000,  0.0000,  1.5000)
  43 Al     5.332627    1.768055    3.580793    ( 0.0000,  0.0000,  0.0000)
  44 Cr     7.136966   10.673941    3.563804    ( 0.0000,  0.0000,  2.0000)
  45 Cr     7.136774    1.794126    5.358944    ( 0.0000,  0.0000,  2.1000)
  46 Co     8.925938   10.673621    5.347589    ( 0.0000,  0.0000,  2.0000)
  47 Fe     8.883827    1.779111    3.582404    ( 0.0000,  0.0000,  1.5000)
  48 Cr    -0.010038    3.572341    3.580996    ( 0.0000,  0.0000,  2.0000)
  49 Co    10.685573    5.328935    5.338550    ( 0.0000,  0.0000,  2.0000)
  50 Ni     1.784180    3.582949    5.348357    ( 0.0000,  0.0000,  1.5000)
  51 Fe     1.766326    5.339510    3.565255    ( 0.0000,  0.0000,  1.5000)
[...]
iter:   2 20:36:07  -998.139986  -0.39  -1.30    +107.6680
iter:   3 20:38:23  -896.330106  -0.84  -1.21    +79.1718
iter:   4 20:40:38  -876.217722  -1.40  -1.38    +65.8818
iter:   5 20:42:54  -876.054934  -1.84  -1.46    +57.6526
iter:   6 20:45:11  -875.528650  -1.94  -1.48    +54.4338
iter:   7 20:47:28  -871.716438  -1.75  -1.50    +51.9357
iter:   8 20:49:44  -873.699537  -1.64  -1.58    +51.6424
iter:   9 20:52:01  -870.833757  -1.81  -1.66    +51.2075
iter:  10 20:54:19  -874.280359  -1.95  -1.75    +50.3101
iter:  11 20:56:36  -867.862614  -2.24  -1.72    +50.6750
iter:  12 20:58:53  -870.899715  -2.27  -1.88    +51.1470
iter:  13 21:01:11  -867.477901  -2.48  -1.84    +51.1312
iter:  14 21:03:27  -867.497394  -2.75  -1.93    +51.3773
iter:  15 21:05:58  -867.762116  -2.86  -1.96    +52.2090
iter:  16 21:08:31  -869.717603  -2.61  -1.97    +53.2722
iter:  17 21:11:04  -868.342570  -2.57  -1.93    +53.5354
iter:  18 21:13:39  -869.978062  -2.63  -2.00    +54.2117
iter:  19 21:16:13  -869.008800  -2.60  -1.98    +54.9180
iter:  20 21:18:47  -869.269802  -2.64  -2.05    +55.9038
iter:  21 21:21:21  -868.772502  -2.90  -2.03    +56.4642
iter:  22 21:24:20  -869.323685  -2.95  -2.12    +57.1327
iter:  23 21:27:01  -869.379070  -2.77  -2.11    +57.9291
iter:  24 21:29:35  -869.038766  -3.14  -2.10    +58.5171
iter:  25 21:32:10  -869.300211  -3.18  -2.19    +59.0975
iter:  26 21:34:44  -870.006802  -2.86  -2.21    +59.6014
iter:  27 21:37:18  -869.607963  -3.05  -2.14    +60.1190
iter:  28 21:39:52  -869.743211  -3.10  -2.25    +60.7072
iter:  29 21:42:51  -870.347873  -2.90  -2.26    +61.0372
iter:  30 21:45:30  -869.608526  -3.12  -2.19    +61.5285
iter:  31 21:48:04  -869.573368  -3.55  -2.33    +62.1723
iter:  32 21:50:38  -869.606748c -3.58  -2.39    +62.4233
iter:  33 21:53:12  -869.576996c -3.97  -2.38    +62.7890
iter:  34 21:55:46  -869.686939  -3.93  -2.43    +63.4026
iter:  35 21:58:20  -869.915190  -3.61  -2.44    +63.6848
iter:  36 22:00:53  -870.167276  -3.29  -2.42    +63.6743
iter:  37 22:03:55  -870.155566  -3.29  -2.38    +63.7357
iter:  38 22:06:31  -870.459798  -3.13  -2.41    +64.2563
iter:  39 22:09:05  -870.216862  -3.22  -2.35    +64.3812
iter:  40 22:11:40  -869.962283  -3.51  -2.43    +64.3059
iter:  41 22:14:08  -869.910794  -4.17  -2.57    +64.3343
iter:  42 22:16:43  -869.930523c -4.31  -2.65    +64.6901
iter:  43 22:19:00  -869.958318c -4.42  -2.68    +64.8074
iter:  44 22:21:19  -870.010496c -4.23  -2.69    +64.8327
iter:  45 22:23:43  -870.149790  -3.71  -2.72    +64.8994
iter:  46 22:26:01  -870.158476  -3.62  -2.62    +64.9764
iter:  47 22:28:18  -870.079673c -3.78  -2.66    +65.1150
iter:  48 22:30:36  -870.087458c -3.92  -2.78    +64.9364
iter:  49 22:32:55  -870.034358c -4.09  -2.81    +64.9635
iter:  50 22:35:14  -870.012681c -4.74  -2.93    +65.1413
iter:  51 22:37:31  -870.016783c -5.28  -3.10    +65.2005
iter:  52 22:39:49  -870.027165c -5.00  -3.13    +65.2783
iter:  53 22:42:08  -870.048080c -4.39  -3.15    +65.3628
iter:  54 22:44:26  -870.043483c -4.87  -3.13    +65.3603
iter:  55 22:46:43  -870.046422c -4.98  -3.33    +65.3550
iter:  56 22:49:00  -870.044907c -5.06  -3.38    +65.3214
iter:  57 22:51:16  -870.044103c -5.27  -3.50    +65.3241
iter:  58 22:53:33  -870.044814c -5.61  -3.72    +65.3311
iter:  59 22:55:51  -870.045081c -6.02  -3.73    +65.3346
iter:  60 22:58:08  -870.045641c -6.11  -3.90    +65.3231
iter:  61 23:00:25  -870.047028c -6.11  -3.93    +65.3277
iter:  62 23:02:41  -870.048110c -6.05  -3.95    +65.3173
iter:  63 23:04:58  -870.048699c -6.22  -3.94    +65.3053
iter:  64 23:07:14  -870.049611c -6.17  -4.01c   +65.2890
iter:  65 23:09:32  -870.050285c -6.11  -4.02c   +65.2835
iter:  66 23:11:49  -870.050720c -6.33  -4.03c   +65.2775
iter:  67 23:14:07  -870.051589c -6.29  -4.09c   +65.2676
iter:  68 23:16:25  -870.051863c -6.46  -4.06c   +65.2571
iter:  69 23:18:42  -870.052914c -5.97  -4.11c   +65.2376
iter:  70 23:20:59  -870.053558c -6.11  -4.06c   +65.2253
iter:  71 23:23:17  -870.055092c -5.67  -4.08c   +65.1951
iter:  72 23:25:34  -870.054645c -6.62  -3.93    +65.2057
iter:  73 23:27:51  -870.055860c -5.75  -3.96    +65.1747
iter:  74 23:30:08  -870.056232c -6.07  -3.95    +65.1639
iter:  75 23:32:25  -870.056434c -6.30  -4.02c   +65.1531
iter:  76 23:34:42  -870.056699c -6.00  -4.02c   +65.1432
iter:  77 23:36:58  -870.056520c -6.50  -3.84    +65.1436
iter:  78 23:39:15  -870.056838c -6.32  -4.00    +65.1329
iter:  79 23:41:33  -870.056727c -6.59  -3.98    +65.1294
iter:  80 23:43:51  -870.057176c -6.53  -4.05c   +65.1253
iter:  81 23:46:08  -870.057048c -6.88  -4.02c   +65.1151
iter:  82 23:48:25  -870.057225c -6.75  -4.08c   +65.1049
iter:  83 23:50:43  -870.057480c -6.75  -4.11c   +65.0992
iter:  84 23:53:00  -870.057425c -6.76  -4.09c   +65.0937
iter:  85 23:55:17  -870.057592c -6.73  -4.17c   +65.0832
iter:  86 23:57:34  -870.057747c -6.80  -4.22c   +65.0795
iter:  87 23:59:51  -870.057787c -7.15  -4.23c   +65.0754
iter:  88 00:02:08  -870.057923c -6.70  -4.28c   +65.0628
iter:  89 00:04:24  -870.058157c -6.95  -4.30c   +65.0601
iter:  90 00:06:41  -870.058179c -6.82  -4.31c   +65.0510
iter:  91 00:08:58  -870.058311c -6.91  -4.38c   +65.0455
iter:  92 00:11:16  -870.058363c -7.16  -4.37c   +65.0432
iter:  93 00:13:33  -870.058517c -6.83  -4.42c   +65.0385
iter:  94 00:15:50  -870.058507c -7.09  -4.44c   +65.0336
iter:  95 00:18:07  -870.058609c -6.98  -4.46c   +65.0259
iter:  96 00:20:23  -870.058908c -6.87  -4.66c   +65.0173
iter:  97 00:22:40  -870.058800c -7.28  -4.55c   +65.0141
iter:  98 00:24:56  -870.058923c -7.08  -4.75c   +65.0052
iter:  99 00:27:13  -870.059080c -6.87  -4.80c   +64.9961
iter: 100 00:29:30  -870.059148c -7.23  -4.79c   +64.9920
iter: 101 00:31:44  -870.059271c -7.03  -4.80c   +64.9843
iter: 102 00:34:02  -870.058517c -5.76  -4.74c   +65.0319
iter: 103 00:36:19  -870.057669c -5.36  -4.75c   +65.0906
iter: 104 00:38:36  -870.059728c -4.93  -4.36c   +64.9585
iter: 105 00:40:53  -870.059200c -6.47  -4.54c   +64.9891
iter: 106 00:43:10  -870.059895c -5.79  -4.80c   +64.9481
iter: 107 00:45:28  -870.060468c -5.71  -4.48c   +64.9149
iter: 108 00:47:45  -870.059948c -6.21  -4.29c   +64.9470
iter: 109 00:50:03  -870.060320c -6.36  -4.48c   +64.9238
iter: 110 00:52:19  -870.059955c -6.60  -4.29c   +64.9418
iter: 111 00:54:36  -870.060458c -6.10  -4.44c   +64.9138
iter: 112 00:56:53  -870.060066c -6.60  -4.21c   +64.9337
iter: 113 00:59:10  -870.060539c -6.37  -4.33c   +64.9180
iter: 114 01:01:27  -870.060518c -7.13  -4.11c   +64.9230
iter: 115 01:03:42  -870.060688c -6.81  -4.30c   +64.9168
iter: 116 01:05:59  -870.060803c -6.76  -4.15c   +64.9149
iter: 117 01:08:16  -870.061102c -6.53  -4.14c   +64.9125
iter: 118 01:10:33  -870.060742c -6.56  -4.13c   +64.9019
iter: 119 01:12:50  -870.060883c -6.88  -4.17c   +64.8945
iter: 120 01:15:07  -870.061083c -6.91  -4.25c   +64.8904
iter: 121 01:17:24  -870.061164c -7.11  -4.31c   +64.8826
iter: 122 01:19:41  -870.061241c -7.11  -4.29c   +64.8747
iter: 123 01:21:57  -870.061390c -7.11  -4.28c   +64.8680
iter: 124 01:24:14  -870.061315c -7.04  -4.22c   +64.8601
iter: 125 01:26:30  -870.061359c -7.03  -4.25c   +64.8525
iter: 126 01:28:48  -870.061453c -7.02  -4.22c   +64.8493
iter: 127 01:31:05  -870.061510c -6.84  -4.22c   +64.8459
iter: 128 01:33:22  -870.061722c -7.01  -4.11c   +64.8427
iter: 129 01:35:40  -870.061917c -6.89  -4.14c   +64.8365
iter: 130 01:37:57  -870.062001c -6.86  -4.15c   +64.8309
iter: 131 01:40:14  -870.062073c -6.80  -4.14c   +64.8245
iter: 132 01:42:31  -870.061968c -6.69  -4.11c   +64.8161
iter: 133 01:44:48  -870.062034c -7.09  -4.13c   +64.8144
iter: 134 01:47:05  -870.062104c -6.72  -4.24c   +64.8050
iter: 135 01:49:22  -870.062169c -7.35  -4.05c   +64.8066
iter: 136 01:51:38  -870.062226c -6.71  -4.10c   +64.8041
iter: 137 01:53:55  -870.062535c -6.40  -4.08c   +64.7981
iter: 138 01:56:12  -870.062384c -6.49  -4.02c   +64.7941
iter: 139 01:58:30  -870.062433c -6.76  -4.19c   +64.7922
iter: 140 02:01:09  -870.062735c -6.66  -4.39c   +64.7868
iter: 141 02:03:28  -870.062553c -7.12  -4.33c   +64.7826
iter: 142 02:05:45  -870.062665c -7.17  -4.52c   +64.7779
iter: 143 02:08:03  -870.062736c -7.02  -4.54c   +64.7745
iter: 144 02:10:20  -870.062797c -7.20  -4.56c   +64.7695
iter: 145 02:12:37  -870.063136c -6.12  -4.57c   +64.7474
iter: 146 02:14:55  -870.064048c -5.31  -4.45c   +64.6984
iter: 147 02:17:12  -870.063985c -6.36  -4.18c   +64.7047
iter: 148 02:19:28  -870.064070c -6.61  -4.19c   +64.7033
iter: 149 02:21:46  -870.064171c -6.81  -4.15c   +64.7003
iter: 150 02:24:03  -870.064225c -7.10  -4.14c   +64.6998
iter: 151 02:26:21  -870.064508c -6.47  -4.11c   +64.6990
iter: 152 02:28:39  -870.064642c -6.38  -3.95    +64.6985
iter: 153 02:30:56  -870.064614c -6.13  -3.96    +64.6935
iter: 154 02:33:13  -870.064191c -6.25  -3.93    +64.6954
iter: 155 02:35:31  -870.064296c -6.70  -4.00c   +64.6912
iter: 156 02:37:49  -870.064232c -6.74  -4.31c   +64.6899
iter: 157 02:40:06  -870.064243c -7.08  -4.28c   +64.6878
iter: 158 02:42:23  -870.064268c -7.18  -4.36c   +64.6845
iter: 159 02:44:40  -870.064376c -6.94  -4.42c   +64.6837
iter: 160 02:46:57  -870.064491c -6.98  -4.30c   +64.6825
iter: 161 02:49:12  -870.064330c -7.17  -4.34c   +64.6825
iter: 162 02:51:29  -870.064415c -7.19  -4.52c   +64.6806
iter: 163 02:53:46  -870.064433c -7.49c -4.45c   +64.6791

Converged after 163 iterations.

Dipole moment: (-10.432667, 7.937352, 8.959644) |e|*Ang

Total magnetic moment: (0.000000, 0.000000, 64.679077)
Local magnetic moments:
   0 Cr ( 0.000000,  0.000000,  0.681663)
   1 Cr ( 0.000000,  0.000000, -0.989083)
   2 Fe ( 0.000000,  0.000000,  2.101918)
   3 Ni ( 0.000000,  0.000000,  0.171964)
   4 Fe ( 0.000000,  0.000000,  2.332909)
   5 Co ( 0.000000,  0.000000,  1.248000)
   6 Co ( 0.000000,  0.000000,  1.361156)
   7 Ni ( 0.000000,  0.000000,  0.340661)
   8 Ni ( 0.000000,  0.000000,  0.480455)
   9 Co ( 0.000000,  0.000000,  1.145914)
  10 Ni ( 0.000000,  0.000000,  0.242833)
  11 Co ( 0.000000,  0.000000,  0.856550)
  12 Fe ( 0.000000,  0.000000,  1.788566)
  13 Ni ( 0.000000,  0.000000,  0.319359)
  14 Cr ( 0.000000,  0.000000, -0.146242)
  15 Co ( 0.000000,  0.000000,  1.136798)
  16 Cr ( 0.000000,  0.000000, -1.097930)
  17 Co ( 0.000000,  0.000000,  0.621846)
  18 Fe ( 0.000000,  0.000000,  1.748751)
  19 Cr ( 0.000000,  0.000000,  0.855568)
  20 Al ( 0.000000,  0.000000, -0.022336)
  21 Cr ( 0.000000,  0.000000, -1.131045)
  22 Ni ( 0.000000,  0.000000,  0.121043)
  23 Fe ( 0.000000,  0.000000,  1.900340)
  24 Cr ( 0.000000,  0.000000, -1.278616)
  25 Cr ( 0.000000,  0.000000, -1.606580)
  26 Co ( 0.000000,  0.000000,  1.047889)
  27 Co ( 0.000000,  0.000000,  0.875541)
  28 Ni ( 0.000000,  0.000000,  0.325589)
  29 Cr ( 0.000000,  0.000000, -1.583894)
  30 Cr ( 0.000000,  0.000000,  0.426088)
  31 Ni ( 0.000000,  0.000000,  0.291585)
  32 Ni ( 0.000000,  0.000000,  0.219966)
  33 Co ( 0.000000,  0.000000,  1.358614)
  34 Co ( 0.000000,  0.000000,  1.020623)
  35 Co ( 0.000000,  0.000000,  0.727101)
  36 Ni ( 0.000000,  0.000000,  0.337120)
  37 Fe ( 0.000000,  0.000000,  1.935951)
  38 Fe ( 0.000000,  0.000000,  2.353309)
  39 Co ( 0.000000,  0.000000,  1.199113)
  40 Ni ( 0.000000,  0.000000,  0.413779)
  41 Fe ( 0.000000,  0.000000,  1.935594)
  42 Co ( 0.000000,  0.000000,  0.961900)
  43 Al ( 0.000000,  0.000000, -0.022758)
  44 Cr ( 0.000000,  0.000000, -1.761174)
  45 Cr ( 0.000000,  0.000000,  0.775935)
  46 Co ( 0.000000,  0.000000,  1.084287)
  47 Fe ( 0.000000,  0.000000,  1.760542)
  48 Cr ( 0.000000,  0.000000, -0.986617)
  49 Co ( 0.000000,  0.000000,  1.124902)
  50 Ni ( 0.000000,  0.000000,  0.213654)
  51 Fe ( 0.000000,  0.000000,  2.222355)
  52 Ni ( 0.000000,  0.000000,  0.235373)
  53 Al ( 0.000000,  0.000000, -0.034906)
  54 Co ( 0.000000,  0.000000,  0.181727)
  55 Cr ( 0.000000,  0.000000, -0.050760)
  56 Cr ( 0.000000,  0.000000, -0.501344)
  57 Cr ( 0.000000,  0.000000, -0.752537)
  58 Cr ( 0.000000,  0.000000, -0.689218)
  59 Fe ( 0.000000,  0.000000,  1.793306)
[...]
  93 Ni ( 0.000000,  0.000000,  0.214092)
  94 Al ( 0.000000,  0.000000, -0.030414)
  95 Fe ( 0.000000,  0.000000,  1.914316)
  96 Fe ( 0.000000,  0.000000,  2.332676)
  97 Fe ( 0.000000,  0.000000,  1.792727)
  98 Co ( 0.000000,  0.000000,  1.306433)
  99 Ni ( 0.000000,  0.000000,  0.505302)
 100 Co ( 0.000000,  0.000000,  1.404926)
 101 Fe ( 0.000000,  0.000000,  2.350188)
 102 Co ( 0.000000,  0.000000,  1.072523)
 103 Cr ( 0.000000,  0.000000, -2.063873)
 104 Co ( 0.000000,  0.000000,  1.106807)
 105 Al ( 0.000000,  0.000000, -0.019415)
 106 Cr ( 0.000000,  0.000000, -1.767159)
 107 Ni ( 0.000000,  0.000000,  0.332576)

Energy contributions relative to reference atoms: (reference = -3699400.456887)

Kinetic:       +141.000225
Potential:     -192.704108
External:        +0.000000
XC:            -853.954411
Entropy (-ST):   -4.594976
Local:          +37.891349
Free energy:   -872.361921
Extrapolated:  -870.064433

Spin contamination: 26.334026 electrons
Showing only first 2 kpts
                      Up                     Down
 Kpt  Band  Eigenvalues  Occupancy  Eigenvalues  Occupancy
  0   508      9.65062    0.99303     10.52320    0.02262
  0   509      9.65835    0.99248     10.53136    0.02088
  0   510      9.66691    0.99181     10.54113    0.01897
  0   511      9.67365    0.99124     10.55816    0.01605

  1   508      9.62494    0.99460     10.52908    0.02135
  1   509      9.63732    0.99390     10.53504    0.02014
  1   510      9.64969    0.99310     10.54843    0.01766
  1   511      9.65911    0.99242     10.55678    0.01627

Fermi level: 10.14658

No gap

Forces in eV/Ang:
  0 Cr   -0.16005    0.11529   -0.01069
  1 Cr   -0.09469   -0.21701   -0.14755
  2 Fe   -0.23448    0.43892    0.28968
  3 Ni   -0.08580   -0.02546    0.20975
  4 Fe    0.43543    0.40627   -0.34193
  5 Co   -0.04142    0.07678    0.12097
  6 Co    0.21353    0.19184   -0.12353
  7 Ni   -0.25764   -0.51872    0.17481
  8 Ni   -0.31784   -0.14688    0.02237
  9 Co   -0.22429   -0.17836    0.38579
 10 Ni    0.21137    0.37320   -0.18768
 11 Co    0.47889   -0.55989    0.65304
 12 Fe    0.22212   -0.29456    0.57253
 13 Ni   -0.13290    0.05314   -0.21222
 14 Cr    0.08973   -0.42131    0.13851
 15 Co    0.01527   -0.02758    0.08992
 16 Cr   -0.05014   -0.30363    0.16361
 17 Co    0.29847   -0.23450    0.12190
 18 Fe   -0.64677   -0.15938    0.43453
 19 Cr   -0.27958    0.92589    0.10397
 20 Al   -0.49420   -0.93453    0.07901
 21 Cr   -0.12021    1.18459    0.18604
 22 Ni    0.34942   -0.38672    0.28127
 23 Fe    0.04011    1.11984    0.30327
 24 Cr    0.04157    0.08736    0.15966
 25 Cr    0.01598    0.26894   -0.22512
 26 Co   -0.14259   -0.00999   -0.10306
 27 Co   -0.23984   -0.10766    0.20764
 28 Ni    0.04815   -0.05659   -0.14160
 29 Cr   -0.13369   -0.04120   -0.14049
 30 Cr    0.59570   -0.08247   -0.13398
 31 Ni    0.20852    0.05565   -0.08031
 32 Ni    0.20791   -0.03908    0.34418
 33 Co    0.04455   -0.39766   -0.43536
 34 Co   -0.39370    0.19826   -0.37336
 35 Co    0.05468   -0.35409    0.41231
 36 Ni    0.01756    0.17183   -0.28620
 37 Fe   -0.10379   -0.11646    0.01648
 38 Fe   -0.04446   -0.11159   -0.18742
 39 Co    0.03206   -0.15281   -0.39460
 40 Ni    0.18641    0.27986    0.01553
 41 Fe   -0.14052   -0.06397    0.26801
 42 Co    0.04605   -0.33391   -0.00084
 43 Al   -1.12250    0.25130   -0.49913
 44 Cr    0.32821   -0.56616    0.01103
 45 Cr    0.05759    0.06159    0.36115
 46 Co   -0.02688    0.04743    0.14052
 47 Fe    0.14447   -0.10384   -0.49821
 48 Cr    0.08636   -0.07926   -0.26629
 49 Co   -0.06181    0.00371    0.07214
 50 Ni   -0.22641   -0.23287   -0.08094
 51 Fe   -0.28902    0.04449   -0.31834
 52 Ni    0.18725   -0.42046   -0.45426
 53 Al   -0.14245    0.12447   -0.32744
 54 Co    0.16307    0.01041    0.00278
 55 Cr    0.14090   -0.45209   -0.76423
 56 Cr    0.51048    0.02606   -0.07732
 57 Cr   -0.15861    0.29273   -0.04314
 58 Cr    0.58728    0.20759    0.20654
 59 Fe   -0.03334   -0.03989   -0.18273
[...]
 93 Ni    0.04480    0.37268    0.36121
 94 Al    0.24160    0.46707   -0.08480
 95 Fe   -0.02065    0.13325   -0.32402
 96 Fe   -0.09746    0.24407   -0.07081
 97 Fe    0.12135   -0.12245    0.11858
 98 Co    0.02559   -0.05557    0.07350
 99 Ni    0.00676    0.12490    0.00108
100 Co    0.11418    0.59503    0.42490
101 Fe    0.32759   -0.01716   -0.14654
102 Co   -0.00044   -0.26810    0.01658
103 Cr   -0.47394    0.46245   -0.59502
104 Co   -0.18621   -0.05074   -0.29694
105 Al   -0.50672    0.28539    0.79939
106 Cr    0.22861   -0.93901    0.04632
107 Ni   -0.12370    0.17190   -0.44028

Date: Sun Apr 16 02:54:13 2023