User:   c.zeng@d0006
Date:   Thu Apr 13 23:51:04 2023
Arch:   x86_64
Pid:    169039
CWD:    /home/c.zeng/projects/hea-corrosion/hea-mlp/data-curation/bulk-md/dft-jobs/59
Python: 3.8.1
gpaw:   /home/c.zeng/usr/installs/gpaw/source/gpaw-22.8.0/gpaw
_gpaw:  /home/c.zeng/usr/installs/gpaw/source/gpaw-22.8.0/
        _gpaw.cpython-38-x86_64-linux-gnu.so
ase:    /home/c.zeng/.local/lib/python3.8/site-packages/ase-3.22.1-py3.8.egg/ase (version 3.22.1)
numpy:  /shared/centos7/python/3.8.1/lib/python3.8/site-packages/numpy (version 1.17.4)
scipy:  /shared/centos7/python/3.8.1/lib/python3.8/site-packages/scipy (version 1.4.1)
units:  Angstrom and eV
cores: 30
OpenMP: False
OMP_NUM_THREADS: 1

Input parameters:
  convergence: {energy: 0.0001}
  kpts: [2 2 2]
  maxiter: 666
  mode: {ecut: 350.0,
         name: pw}
  occupations: {fixmagmom: False,
                name: fermi-dirac,
                width: 0.1}
  spinpol: True
  xc: PBE

System changes: positions, numbers, cell, pbc, initial_charges, initial_magmoms

Initialize ...

species:
  Co:
    name: Cobalt
    id: 339d20d5b0b93d2de9531a1bee871d91
    Z: 27.0
    valence: 9
    core: 18
    charge: 0.0
    file: /home/c.zeng/usr/data/gpaw-setups-0.9.20000/Co.PBE.gz
    compensation charges: {type: gauss,
                           rc: 0.32,
                           lmax: 2}
    cutoffs: {filter: 1.87,
              core: 2.55}
    valence states:
      #              energy  rcut
      - 4s(2.00)    -5.469   1.005
      - 4p(0.00)    -1.277   1.058
      - 3d(7.00)    -8.205   1.005
      -  s          21.742   1.005
      -  p          25.934   1.058
      -  d          19.007   1.005

    # Using partial waves for Co as LCAO basis

  Ni:
    name: Nickel
    id: 0d9f38a9d6e76a2886f07bb4381f212b
    Z: 28.0
    valence: 16
    core: 12
    charge: 0.0
    file: /home/c.zeng/usr/data/gpaw-setups-0.9.20000/Ni.PBE.gz
    compensation charges: {type: gauss,
                           rc: 0.36,
                           lmax: 2}
    cutoffs: {filter: 2.14,
              core: 1.98}
    valence states:
      #              energy  rcut
      - 4s(2.00)    -5.642   1.164
      - 3p(6.00)   -71.394   1.207
      - 4p(0.00)    -1.226   1.207
      - 3d(8.00)    -8.875   1.138
      -  s          21.570   1.164
      -  d          18.337   1.138

[...]

  Al:
    name: Aluminium
    id: 0292cae29f5d6237e50f6abdd43a7bdd
    Z: 13.0
    valence: 3
    core: 10
    charge: 0.0
    file: /home/c.zeng/usr/data/gpaw-setups-0.9.20000/Al.PBE.gz
    compensation charges: {type: gauss,
                           rc: 0.34,
                           lmax: 2}
    cutoffs: {filter: 1.91,
              core: 2.36}
    valence states:
      #              energy  rcut
      - 3s(2.00)    -7.753   1.085
      - 3p(1.00)    -2.712   1.085
      -  s          19.459   1.085
      -  p          24.499   1.085
      -  d           0.000   1.085

[...]

  Cr:
    name: Chromium
    id: 33f258bda2ca9f93018e70263a35547b
    Z: 24.0
    valence: 6
    core: 18
    charge: 0.0
    file: /home/c.zeng/usr/data/gpaw-setups-0.9.20000/Cr.PBE.gz
    compensation charges: {type: gauss,
                           rc: 0.35,
                           lmax: 2}
    cutoffs: {filter: 2.14,
              core: 3.04}
    valence states:
      #              energy  rcut
      - 4s(1.00)    -4.007   1.164
      - 4p(0.00)    -0.989   1.217
      - 3d(5.00)    -2.913   1.111
      -  s          23.205   1.164
      -  p          26.223   1.217
      -  d          24.299   1.111

[...]

  Fe:
    name: Iron
    id: 37abbd8d6c3c35915a9b583b742da910
    Z: 26.0
    valence: 8
    core: 18
    charge: 0.0
    file: /home/c.zeng/usr/data/gpaw-setups-0.9.20000/Fe.PBE.gz
    compensation charges: {type: gauss,
                           rc: 0.33,
                           lmax: 2}
    cutoffs: {filter: 2.06,
              core: 2.67}
    valence states:
      #              energy  rcut
      - 4s(2.00)    -5.291   1.164
      - 4p(0.00)    -1.326   1.058
      - 3d(6.00)    -7.505   1.058
      -  s          21.920   1.164
      -  p          25.885   1.058
      -  d          19.706   1.058

    # Using partial waves for Fe as LCAO basis

Reference energy: -3548577.034362  # eV

Spin-polarized calculation.
Magnetic moment: 136.400000

Convergence criteria:
 Maximum [total energy] change in last 3 cyles: 0.0001 eV / electron
 Maximum integral of absolute [dens]ity change: 0.0001 electrons / valence electron
 Maximum integral of absolute [eigenst]ate change: 4e-08 eV^2 / valence electron
 Maximum number of scf [iter]ations: 666
 (Square brackets indicate name in SCF output, whereas a 'c' in
 the SCF output indicates the quantity has converged.)

Symmetries present (total): 1

  ( 1  0  0)
  ( 0  1  0)
  ( 0  0  1)

8 k-points: 2 x 2 x 2 Monkhorst-Pack grid
4 k-points in the irreducible part of the Brillouin zone
       k-points in crystal coordinates                weights
   0:     0.25000000   -0.25000000   -0.25000000          2/8
   1:     0.25000000   -0.25000000    0.25000000          2/8
   2:     0.25000000    0.25000000   -0.25000000          2/8
   3:     0.25000000    0.25000000    0.25000000          2/8

Wave functions: Plane wave expansion
  Cutoff energy: 350.000 eV
  Number of coefficients (min, max): 18331, 18331
  Pulay-stress correction: 0.000000 eV/Ang^3 (de/decut=0.000000)
  Using FFTW library
  ScaLapack parameters: grid=1x1, blocksize=None
  Wavefunction extrapolation:
    Improved wavefunction reuse through dual PAW basis

Occupation numbers: Fermi-Dirac:
  width: 0.1000  # eV

Eigensolver
   Davidson(niter=2)

Densities:
  Coarse grid: 48*48*48 grid
  Fine grid: 96*96*96 grid
  Total Charge: 0.000000

Density mixing:
  Method: difference
  Backend: pulay
  Linear mixing parameter: 0.05
  old densities: 5
  Damping of long wavelength oscillations: 50

Hamiltonian:
  XC and Coulomb potentials evaluated on a 96*96*96 grid
  Using the PBE Exchange-Correlation functional
  External potential:
    NoExternalPotential

XC parameters: PBE with 2 nearest neighbor stencil

Total number of cores used: 30
Parallelization over k-points: 2
Domain decomposition: 5 x 3 x 1

Number of atoms: 108
Number of atomic orbitals: 994
Number of bands in calculation: 674
Number of valence electrons: 980
Bands to converge: occupied

... initialized

Initializing position-dependent things.

Density initialized from atomic densities
Creating initial wave functions:
  674 bands from LCAO basis set

        .----------------Cr-------.
       /|          Fe             |
      Fe|              Fe    Crl  |
     /  |      Ni       Ni        |
    /  Ni Ni       Fe             |
   /    |   Cr      Co     Fe     |
  /  CoCr  CoFeCFe CoNiAl   Fel   |
 *     Ni CrCo  Al     CoCr       |
 |Co    |FeFe   CoCCr   CrCr    Ni|
 |  CCo | CrCFe  CoCFe    CFe     Ni
 |   FeFe  NiNCr    CCo Ni  Ni    |
 Al   NiFFe  ACoCoNi FeCr    Fe   |
 |      |Ni    Ni Cr    CCrFe   Al|
 |  Cr  .-NNii-----CCor----FNi----.
 |   FeNi  CrCrNi     Cr         /
 |    /       Fe Al     Ni      /
 |   /  All       Co      Cr   /
 |Ni/      Fe       Fe    Cr  /
 | /o                        /
 *-------------------------Co

Positions:
   0 Co    10.708575    0.265024   10.776800    ( 0.0000,  0.0000,  2.1000)
   1 Ni    10.853005    1.633047    1.579706    ( 0.0000,  0.0000,  1.5000)
   2 Al     2.031612   -0.110799    1.694697    ( 0.0000,  0.0000,  0.0000)
   3 Cr     1.731792    2.027509   10.566271    ( 0.0000,  0.0000,  0.0000)
   4 Cr     3.446343    0.522462   10.506495    ( 0.0000,  0.0000,  0.0000)
   5 Fe     3.792777    1.626079    1.755023    ( 0.0000,  0.0000,  2.0000)
   6 Fe     5.257367   -0.132091    1.631386    ( 0.0000,  0.0000,  2.0000)
   7 Fe     5.459413    1.961154   -0.025073    ( 0.0000,  0.0000,  2.0000)
   8 Cr     7.110221   -0.066879   -0.344405    ( 0.0000,  0.0000,  0.0000)
   9 Fe     7.132735    1.910044    1.761155    ( 0.0000,  0.0000,  2.0000)
  10 Fe     8.767528   -0.093250    1.456244    ( 0.0000,  0.0000,  2.0000)
  11 Al     8.631828    1.852972   -0.116848    ( 0.0000,  0.0000,  0.0000)
  12 Co    10.812775    3.461543   10.853850    ( 0.0000,  0.0000,  2.1000)
  13 Fe    10.930387    5.261940    1.895838    ( 0.0000,  0.0000,  2.0000)
  14 Al     2.030977    3.375238    1.729483    ( 0.0000,  0.0000,  0.0000)
  15 Al     1.855628    5.327379   10.852917    ( 0.0000,  0.0000,  0.0000)
  16 Cr     3.650636    3.602797   10.620637    ( 0.0000,  0.0000,  0.0000)
  17 Cr     3.490884    5.684709    1.734318    ( 0.0000,  0.0000,  0.0000)
  18 Al     5.481550    3.682236    1.920900    ( 0.0000,  0.0000,  0.0000)
  19 Co     5.327886    5.528617   10.921478    ( 0.0000,  0.0000,  2.1000)
  20 Co     6.945442    3.698441   -0.050573    ( 0.0000,  0.0000,  2.1000)
  21 Cr     7.131990    5.408234    1.984290    ( 0.0000,  0.0000,  0.0000)
  22 Cr     9.249216    3.577223    1.764030    ( 0.0000,  0.0000,  0.0000)
  23 Cr     9.050995    5.090584    0.085705    ( 0.0000,  0.0000,  0.0000)
  24 Fe    10.876501    6.939084   10.721262    ( 0.0000,  0.0000,  2.0000)
  25 Al    10.434124    8.892172    1.641894    ( 0.0000,  0.0000,  0.0000)
  26 Ni     1.798030    7.302976    1.858033    ( 0.0000,  0.0000,  1.5000)
  27 Cr     1.673469    8.854442   10.860167    ( 0.0000,  0.0000,  0.0000)
  28 Fe     3.616214    7.220947   10.744393    ( 0.0000,  0.0000,  2.0000)
  29 Ni     3.506148    8.938519    1.883540    ( 0.0000,  0.0000,  1.5000)
  30 Co     5.409311    7.455128    1.827596    ( 0.0000,  0.0000,  2.1000)
  31 Fe     5.034297    9.241408   10.545167    ( 0.0000,  0.0000,  2.0000)
  32 Fe     7.136265    7.208674   10.711443    ( 0.0000,  0.0000,  2.0000)
  33 Cr     7.230045    9.045011    1.720887    ( 0.0000,  0.0000,  0.0000)
  34 Fe     9.074370    6.776069    1.737631    ( 0.0000,  0.0000,  2.0000)
  35 Cr     9.080711    8.732107   -0.246334    ( 0.0000,  0.0000,  0.0000)
  36 Ni    10.611671   -0.206917    3.350786    ( 0.0000,  0.0000,  1.5000)
  37 Ni    -0.034723    1.845992    5.154026    ( 0.0000,  0.0000,  1.5000)
  38 Co     1.552011   -0.155176    5.337335    ( 0.0000,  0.0000,  2.1000)
  39 Ni     1.901582    1.934798    3.598587    ( 0.0000,  0.0000,  1.5000)
  40 Co     3.672310   -0.237616    3.705699    ( 0.0000,  0.0000,  2.1000)
  41 Ni     3.609731    1.563595    5.164355    ( 0.0000,  0.0000,  1.5000)
  42 Co     5.487307   -0.032745    5.419960    ( 0.0000,  0.0000,  2.1000)
  43 Ni     5.298453    1.712212    3.728825    ( 0.0000,  0.0000,  1.5000)
  44 Cr     7.229762   -0.000515    3.341908    ( 0.0000,  0.0000,  0.0000)
  45 Co     7.322460    1.698654    5.260868    ( 0.0000,  0.0000,  2.1000)
  46 Al     8.826270   10.640590    5.694689    ( 0.0000,  0.0000,  0.0000)
  47 Ni     8.936059    1.608109    3.521739    ( 0.0000,  0.0000,  1.5000)
  48 Cr    10.892108    3.621843    3.522509    ( 0.0000,  0.0000,  0.0000)
  49 Fe     0.210940    5.150607    5.319185    ( 0.0000,  0.0000,  2.0000)
  50 Fe     1.993511    3.617011    5.513052    ( 0.0000,  0.0000,  2.0000)
  51 Ni     2.119802    5.145532    3.465905    ( 0.0000,  0.0000,  1.5000)
  52 Ni     3.628223    3.422528    3.629995    ( 0.0000,  0.0000,  1.5000)
  53 Ni     3.487370    5.454899    5.292810    ( 0.0000,  0.0000,  1.5000)
  54 Co     5.310071    3.647807    5.291185    ( 0.0000,  0.0000,  2.1000)
  55 Cr     5.384838    5.565584    3.646964    ( 0.0000,  0.0000,  0.0000)
  56 Cr     7.209797    3.666739    3.661909    ( 0.0000,  0.0000,  0.0000)
  57 Co     6.855048    5.527174    5.450973    ( 0.0000,  0.0000,  2.1000)
  58 Cr     8.998335    3.308790    5.194023    ( 0.0000,  0.0000,  0.0000)
  59 Fe     9.171184    5.317224    3.580437    ( 0.0000,  0.0000,  2.0000)
[...]
  93 Ni     6.980529    5.325460    9.061193    ( 0.0000,  0.0000,  1.5000)
  94 Cr     8.727585    3.610951    8.859488    ( 0.0000,  0.0000,  0.0000)
  95 Cr     8.872224    5.095068    7.324278    ( 0.0000,  0.0000,  0.0000)
  96 Co    10.869030    7.032711    7.359521    ( 0.0000,  0.0000,  2.1000)
  97 Ni    10.785776    8.968854    8.765148    ( 0.0000,  0.0000,  1.5000)
  98 Ni     1.763482    6.958704    9.117457    ( 0.0000,  0.0000,  1.5000)
  99 Co     1.709560    8.837787    7.151087    ( 0.0000,  0.0000,  2.1000)
 100 Co     3.682340    7.237484    7.238226    ( 0.0000,  0.0000,  2.1000)
 101 Ni     3.250027    9.038289    9.053446    ( 0.0000,  0.0000,  1.5000)
 102 Fe     5.334535    7.206846    9.059944    ( 0.0000,  0.0000,  2.0000)
 103 Co     5.160653    9.032559    7.075589    ( 0.0000,  0.0000,  2.1000)
 104 Co     7.008252    7.282209    7.056767    ( 0.0000,  0.0000,  2.1000)
 105 Ni     6.993546    8.927654    8.973186    ( 0.0000,  0.0000,  1.5000)
 106 Fe     8.910780    6.924528    8.726771    ( 0.0000,  0.0000,  2.0000)
 107 Fe     8.906040    8.823594    7.146217    ( 0.0000,  0.0000,  2.0000)

Unit cell:
           periodic     x           y           z      points  spacing
  1. axis:    yes   10.722400    0.000000    0.000000    48     0.2234
  2. axis:    yes    0.000000   10.722400    0.000000    48     0.2234
  3. axis:    yes    0.000000    0.000000   10.722400    48     0.2234

  Lengths:  10.722400  10.722400  10.722400
  Angles:   90.000000  90.000000  90.000000

Effective grid spacing dv^(1/3) = 0.2234

     iter     time        total  log10-change:  magmom
                         energy  eigst   dens
iter:   1 23:56:22 -1010.012402                  +136.6833
iter:   2 23:58:41  -899.120236  -0.23  -1.19    +76.5041
iter:   3 00:01:00  -892.698732  -0.80  -1.21    +63.7162
iter:   4 00:03:20  -866.210758  -1.20  -1.26    +59.5784
iter:   5 00:05:39  -852.950102  -1.61  -1.29    +55.9611
iter:   6 00:07:58  -854.292100  -1.30  -1.36    +56.1143
iter:   7 00:10:17  -848.882396  -1.23  -1.43    +54.6064
iter:   8 00:12:37  -835.299321  -1.62  -1.53    +53.7378
iter:   9 00:14:56  -834.306614  -2.15  -1.75    +54.1458
iter:  10 00:17:15  -835.823451  -2.30  -1.81    +55.3915
iter:  11 00:19:34  -835.231714  -2.49  -1.82    +56.1270
iter:  12 00:21:53  -835.788947  -2.49  -1.86    +57.3125
iter:  13 00:24:38  -835.755555  -2.41  -1.89    +57.7977
iter:  14 00:27:43  -835.825422c -2.41  -1.99    +58.6228
iter:  15 00:30:03  -835.655200  -2.68  -2.02    +59.3159
iter:  16 00:32:23  -835.103034  -3.12  -2.07    +59.1432
iter:  17 00:34:42  -835.380431  -3.09  -2.17    +59.8108
iter:  18 00:37:01  -835.487223  -2.99  -2.18    +59.9806
iter:  19 00:39:21  -835.278757  -3.10  -2.22    +60.3674
iter:  20 00:41:40  -835.321531  -2.93  -2.31    +60.4187
iter:  21 00:44:00  -835.395350  -3.20  -2.37    +60.5730
iter:  22 00:46:19  -835.193978  -3.46  -2.37    +60.9500
iter:  23 00:48:40  -835.147672  -3.49  -2.48    +60.9038
iter:  24 00:50:59  -835.174949c -3.68  -2.58    +61.0731
iter:  25 00:53:19  -835.193867c -3.64  -2.62    +61.2401
iter:  26 00:55:38  -835.230285c -3.90  -2.65    +61.3697
iter:  27 00:57:57  -835.217657c -3.90  -2.67    +61.3466
iter:  28 01:00:16  -835.227819c -3.99  -2.72    +61.4094
iter:  29 01:02:36  -835.231570c -4.16  -2.76    +61.4009
iter:  30 01:04:55  -835.242239c -4.24  -2.83    +61.4579
iter:  31 01:07:14  -835.248055c -4.38  -2.87    +61.4159
iter:  32 01:09:33  -835.268203c -4.33  -2.94    +61.4205
iter:  33 01:11:52  -835.258594c -4.58  -2.91    +61.3633
iter:  34 01:14:11  -835.262138c -4.65  -3.01    +61.3413
iter:  35 01:16:30  -835.273018c -4.80  -3.07    +61.2903
iter:  36 01:19:41  -835.272778c -4.86  -3.07    +61.2592
iter:  37 01:22:20  -835.280234c -4.79  -3.14    +61.2117
iter:  38 01:24:40  -835.285485c -4.88  -3.18    +61.1740
iter:  39 01:26:59  -835.289357c -4.87  -3.20    +61.1214
iter:  40 01:29:20  -835.292327c -5.01  -3.23    +61.0861
iter:  41 01:31:38  -835.299412c -4.97  -3.28    +61.0340
iter:  42 01:33:57  -835.297486c -5.10  -3.28    +61.0087
iter:  43 01:36:18  -835.302249c -5.23  -3.35    +60.9589
iter:  44 01:38:37  -835.305159c -5.29  -3.41    +60.9206
iter:  45 01:40:56  -835.309324c -5.25  -3.43    +60.8718
iter:  46 01:43:16  -835.312065c -5.42  -3.42    +60.8369
iter:  47 01:45:35  -835.316313c -5.35  -3.48    +60.7816
iter:  48 01:47:54  -835.318168c -5.71  -3.56    +60.7698
iter:  49 01:50:13  -835.323285c -5.45  -3.55    +60.6999
iter:  50 01:52:32  -835.323175c -5.90  -3.64    +60.7120
iter:  51 01:54:51  -835.330817c -5.38  -3.68    +60.6248
iter:  52 01:57:11  -835.322151c -5.35  -3.66    +60.7678
iter:  53 01:59:30  -835.310829c -4.81  -3.68    +61.0548
iter:  54 02:01:49  -835.319450c -5.48  -3.62    +60.8881
iter:  55 02:04:09  -835.316190c -6.16  -3.69    +60.9534
iter:  56 02:06:28  -835.321568c -5.70  -3.69    +60.8661
iter:  57 02:09:39  -835.321294c -6.49  -3.74    +60.8667
iter:  58 02:12:23  -835.328082c -5.50  -3.79    +60.7496
iter:  59 02:14:42  -835.318967c -5.42  -3.81    +60.8839
iter:  60 02:17:02  -835.305621c -4.76  -3.89    +61.0580
iter:  61 02:19:21  -835.301608c -5.17  -3.75    +61.0643
iter:  62 02:21:41  -835.290068c -4.05  -3.68    +61.0207
iter:  63 02:24:01  -835.289781c -4.70  -3.35    +61.0074
iter:  64 02:26:20  -835.293996c -4.70  -3.29    +61.0057
iter:  65 02:28:39  -835.291032c -5.13  -3.20    +60.9957
iter:  66 02:30:58  -835.292877c -5.80  -3.20    +60.9917
iter:  67 02:33:17  -835.298887c -4.83  -3.20    +61.0053
iter:  68 02:35:37  -835.302517c -4.47  -3.02    +61.0126
iter:  69 02:37:56  -835.378937c -3.66  -3.00    +61.0041
iter:  70 02:40:15  -835.275299  -4.07  -2.81    +60.9832
iter:  71 02:42:34  -835.271633  -4.73  -3.20    +60.8551
iter:  72 02:44:52  -835.267309c -5.17  -3.21    +60.9560
iter:  73 02:47:11  -835.279108c -4.88  -3.57    +61.0473
iter:  74 02:49:30  -835.290171c -4.70  -3.56    +61.2169
iter:  75 02:51:49  -835.289073c -5.27  -3.50    +61.2498
iter:  76 02:54:28  -835.292356c -5.21  -3.77    +61.3178
iter:  77 02:57:39  -835.294987c -4.97  -3.70    +61.3823
iter:  78 03:00:02  -835.297062c -5.50  -3.70    +61.3793
iter:  79 03:02:21  -835.296621c -5.89  -3.57    +61.3581
iter:  80 03:04:40  -835.299800c -5.49  -3.57    +61.3251
iter:  81 03:06:17  -835.297891c -5.51  -3.56    +61.3099
iter:  82 03:07:53  -835.297889c -5.35  -3.53    +61.3066
iter:  83 03:09:30  -835.300002c -5.32  -3.56    +61.2787
iter:  84 03:11:06  -835.297096c -5.69  -3.55    +61.2679
iter:  85 03:12:42  -835.297909c -6.01  -3.85    +61.2150
iter:  86 03:14:19  -835.299212c -5.95  -3.89    +61.1680
iter:  87 03:15:56  -835.299423c -6.26  -3.90    +61.1586
iter:  88 03:17:32  -835.300516c -6.04  -3.93    +61.1097
iter:  89 03:19:09  -835.300370c -6.38  -3.93    +61.1080
iter:  90 03:20:46  -835.301951c -6.04  -3.93    +61.0685
iter:  91 03:22:23  -835.301926c -6.51  -3.99    +61.0680
iter:  92 03:24:00  -835.303241c -6.15  -4.01c   +61.0228
iter:  93 03:25:37  -835.303703c -6.41  -4.14c   +61.0040
iter:  94 03:27:14  -835.304716c -6.38  -4.12c   +60.9928
iter:  95 03:28:52  -835.305938c -6.24  -4.15c   +60.9520
iter:  96 03:30:29  -835.304093c -6.17  -4.25c   +60.9988
iter:  97 03:32:06  -835.303871c -6.41  -4.25c   +61.0210
iter:  98 03:33:43  -835.305599c -6.21  -4.27c   +60.9737
iter:  99 03:35:20  -835.301617c -5.50  -4.30c   +61.1065
iter: 100 03:36:58  -835.297639c -5.15  -4.32c   +61.2702
iter: 101 03:38:35  -835.295493c -5.28  -4.09c   +61.3868
iter: 102 03:40:12  -835.294049c -5.16  -3.98    +61.5050
iter: 103 03:41:50  -835.293788c -5.47  -3.92    +61.5561
iter: 104 03:43:27  -835.294159c -5.98  -3.88    +61.5532
iter: 105 03:45:04  -835.293977c -6.62  -3.87    +61.5352
iter: 106 03:46:42  -835.295679c -5.89  -3.89    +61.5105
iter: 107 03:48:19  -835.295090c -5.74  -3.63    +61.5210
iter: 108 03:49:56  -835.295210c -5.49  -3.64    +61.4801
iter: 109 03:51:33  -835.294070c -5.66  -3.62    +61.4556
iter: 110 03:53:10  -835.293696c -6.06  -3.82    +61.4616
iter: 111 03:54:48  -835.294283c -6.26  -3.88    +61.4459
iter: 112 03:56:25  -835.294221c -6.42  -3.95    +61.4329
iter: 113 03:58:03  -835.294289c -6.06  -3.97    +61.4245
iter: 114 03:59:41  -835.294363c -6.18  -3.88    +61.4120
iter: 115 04:01:18  -835.294667c -6.36  -4.04c   +61.4049
iter: 116 04:02:56  -835.295074c -6.31  -4.08c   +61.3869
iter: 117 04:04:34  -835.294660c -6.63  -4.07c   +61.3800
iter: 118 04:06:12  -835.295138c -6.62  -4.17c   +61.3672
iter: 119 04:07:50  -835.295321c -6.89  -4.20c   +61.3588
iter: 120 04:09:28  -835.295552c -6.89  -4.28c   +61.3478
iter: 121 04:11:06  -835.295960c -6.64  -4.29c   +61.3305
iter: 122 04:12:44  -835.295930c -7.64c -4.29c   +61.3328

Converged after 122 iterations.

Dipole moment: (-55.859892, 12.716306, 22.774707) |e|*Ang

Total magnetic moment: (0.000000, 0.000000, 61.332803)
Local magnetic moments:
   0 Co ( 0.000000,  0.000000,  0.695429)
   1 Ni ( 0.000000,  0.000000,  0.134368)
   2 Al ( 0.000000,  0.000000, -0.008673)
   3 Cr ( 0.000000,  0.000000,  0.060582)
   4 Cr ( 0.000000,  0.000000, -0.615058)
   5 Fe ( 0.000000,  0.000000,  1.754671)
   6 Fe ( 0.000000,  0.000000,  1.860078)
   7 Fe ( 0.000000,  0.000000,  1.598960)
   8 Cr ( 0.000000,  0.000000, -0.006864)
   9 Fe ( 0.000000,  0.000000,  1.993269)
  10 Fe ( 0.000000,  0.000000,  1.250132)
  11 Al ( 0.000000,  0.000000, -0.022234)
  12 Co ( 0.000000,  0.000000, -0.051143)
  13 Fe ( 0.000000,  0.000000,  1.313739)
  14 Al ( 0.000000,  0.000000, -0.004625)
  15 Al ( 0.000000,  0.000000, -0.023188)
  16 Cr ( 0.000000,  0.000000, -0.740840)
  17 Cr ( 0.000000,  0.000000, -0.740235)
  18 Al ( 0.000000,  0.000000, -0.014457)
  19 Co ( 0.000000,  0.000000,  0.998165)
  20 Co ( 0.000000,  0.000000,  0.926380)
  21 Cr ( 0.000000,  0.000000, -0.087539)
  22 Cr ( 0.000000,  0.000000,  0.799638)
  23 Cr ( 0.000000,  0.000000, -1.260841)
  24 Fe ( 0.000000,  0.000000,  1.927855)
  25 Al ( 0.000000,  0.000000, -0.018452)
  26 Ni ( 0.000000,  0.000000,  0.091782)
  27 Cr ( 0.000000,  0.000000, -1.892752)
  28 Fe ( 0.000000,  0.000000,  1.790437)
  29 Ni ( 0.000000,  0.000000,  0.217368)
  30 Co ( 0.000000,  0.000000,  0.998075)
  31 Fe ( 0.000000,  0.000000,  2.018114)
  32 Fe ( 0.000000,  0.000000,  2.291888)
  33 Cr ( 0.000000,  0.000000, -0.576929)
  34 Fe ( 0.000000,  0.000000,  1.624273)
  35 Cr ( 0.000000,  0.000000, -2.078933)
  36 Ni ( 0.000000,  0.000000,  0.262088)
  37 Ni ( 0.000000,  0.000000,  0.080976)
  38 Co ( 0.000000,  0.000000,  1.412502)
  39 Ni ( 0.000000,  0.000000,  0.251874)
  40 Co ( 0.000000,  0.000000,  1.279085)
  41 Ni ( 0.000000,  0.000000,  0.396458)
  42 Co ( 0.000000,  0.000000,  1.323907)
  43 Ni ( 0.000000,  0.000000,  0.350680)
  44 Cr ( 0.000000,  0.000000, -0.472434)
  45 Co ( 0.000000,  0.000000,  0.889775)
  46 Al ( 0.000000,  0.000000, -0.017985)
  47 Ni ( 0.000000,  0.000000,  0.050580)
  48 Cr ( 0.000000,  0.000000, -1.132530)
  49 Fe ( 0.000000,  0.000000,  1.822731)
  50 Fe ( 0.000000,  0.000000,  2.106646)
  51 Ni ( 0.000000,  0.000000,  0.151645)
  52 Ni ( 0.000000,  0.000000,  0.300677)
  53 Ni ( 0.000000,  0.000000,  0.311371)
  54 Co ( 0.000000,  0.000000,  1.326140)
  55 Cr ( 0.000000,  0.000000, -0.002374)
  56 Cr ( 0.000000,  0.000000, -0.748690)
  57 Co ( 0.000000,  0.000000,  0.907288)
  58 Cr ( 0.000000,  0.000000,  0.551390)
  59 Fe ( 0.000000,  0.000000,  0.786038)
[...]
  93 Ni ( 0.000000,  0.000000,  0.385708)
  94 Cr ( 0.000000,  0.000000,  0.702870)
  95 Cr ( 0.000000,  0.000000, -1.086204)
  96 Co ( 0.000000,  0.000000,  1.349947)
  97 Ni ( 0.000000,  0.000000,  0.173650)
  98 Ni ( 0.000000,  0.000000,  0.423543)
  99 Co ( 0.000000,  0.000000,  1.561197)
 100 Co ( 0.000000,  0.000000,  1.700670)
 101 Ni ( 0.000000,  0.000000,  0.369359)
 102 Fe ( 0.000000,  0.000000,  2.374483)
 103 Co ( 0.000000,  0.000000,  1.561980)
 104 Co ( 0.000000,  0.000000,  1.262248)
 105 Ni ( 0.000000,  0.000000,  0.244309)
 106 Fe ( 0.000000,  0.000000,  2.298581)
 107 Fe ( 0.000000,  0.000000,  2.033614)

Energy contributions relative to reference atoms: (reference = -3548577.034362)

Kinetic:       +389.694887
Potential:     -380.946492
External:        +0.000000
XC:            -877.736861
Entropy (-ST):   -4.537500
Local:          +35.961286
Free energy:   -837.564680
Extrapolated:  -835.295930

Spin contamination: 21.128604 electrons
Showing only first 2 kpts
                      Up                     Down
 Kpt  Band  Eigenvalues  Occupancy  Eigenvalues  Occupancy
  0   488      9.52147    0.99407     10.39831    0.02544
  0   489      9.53112    0.99348     10.41035    0.02262
  0   490      9.54723    0.99235     10.41795    0.02099
  0   491      9.55760    0.99152     10.42482    0.01963

  1   488      9.53115    0.99348     10.40216    0.02450
  1   489      9.54594    0.99244     10.41007    0.02268
  1   490      9.55315    0.99188     10.41515    0.02158
  1   491      9.55662    0.99160     10.42781    0.01906

Fermi level: 10.03373

No gap

Forces in eV/Ang:
  0 Co    0.02411   -2.93757   -2.53236
  1 Ni   -0.50215    1.59501    3.90526
  2 Al   -1.74019    2.00942    2.02280
  3 Cr    0.44634   -1.97574   -0.68468
  4 Cr    0.57930   -1.59878   -0.37446
  5 Fe   -0.28359    0.92577    0.54081
  6 Fe    1.03583    0.74451    0.76582
  7 Fe   -0.67460   -0.95887    0.03801
  8 Cr   -2.04873    0.33948    1.88586
  9 Fe   -0.17360   -0.90933    0.88408
 10 Fe   -0.05363    1.16180    0.54744
 11 Al    2.41590    0.39039    0.84402
 12 Co   -1.02605    0.86061   -0.96223
 13 Fe   -0.13379    0.62128    0.09854
 14 Al   -0.18100    0.77625    1.59706
 15 Al   -1.13838   -0.27593   -1.14639
 16 Cr    0.22335   -0.53371    0.70337
 17 Cr    2.66013   -0.80883    0.91080
 18 Al   -2.28436   -0.95947   -0.26274
 19 Co    0.06089   -0.32827   -0.19397
 20 Co    0.89643    0.65691    1.25228
 21 Cr    0.72587    0.57838   -0.79335
 22 Cr   -1.58007   -0.15727    0.94816
 23 Cr   -0.64470    1.15489   -0.32519
 24 Fe   -2.08986    1.16183    0.08784
 25 Al    0.97975   -0.36638    2.27868
 26 Ni   -0.78726   -0.87360    0.35087
 27 Cr    0.14559    0.13207   -2.73568
 28 Fe   -0.29388    0.45195    0.23979
 29 Ni    0.84745   -0.55544   -0.74924
 30 Co    0.07470   -0.65773   -0.45440
 31 Fe    0.95841   -1.24398    0.90830
 32 Fe    0.32661   -0.10030    0.53858
 33 Cr    0.21400   -0.78965   -0.08202
 34 Fe   -0.92241    0.90276   -0.34256
 35 Cr   -1.20310   -1.12902   -0.16561
 36 Ni    0.05682    0.89680    0.59806
 37 Ni    1.27624   -1.36846    0.90184
 38 Co    2.17204    0.74237   -0.86650
 39 Ni   -1.20782   -2.01485   -0.22880
 40 Co   -0.55283    1.77171   -0.79304
 41 Ni   -1.13656    0.54554    2.11557
 42 Co   -0.10093    0.40927   -0.30128
 43 Ni    1.96135   -0.14302   -1.48416
 44 Cr   -0.55958   -0.19485    0.77046
 45 Co   -1.56460    0.33744    0.59460
 46 Al   -0.00111    1.35575   -2.21075
 47 Ni    0.59726    0.60101   -1.03474
 48 Cr   -0.48577   -0.61016    0.36563
 49 Fe   -0.60446    1.14145    0.17437
 50 Fe   -0.31396   -0.95455   -1.74068
 51 Ni   -1.76354    1.35411    0.49258
 52 Ni    1.10399    1.04268   -0.57321
 53 Ni    1.31510    0.34488    1.04204
 54 Co   -0.02425   -0.34848   -0.14228
 55 Cr   -1.19978    0.00218   -0.39638
 56 Cr    0.56568   -0.49635    0.66257
 57 Co    2.11112   -1.10858   -0.51864
 58 Cr   -0.97808    2.22088    0.13635
 59 Fe   -1.42237   -0.42091    0.67996
[...]
 93 Ni    1.05800    1.47224   -0.83986
 94 Cr    1.14305    1.60294    1.40537
 95 Cr   -0.34404    0.46224   -1.42931
 96 Co   -0.60073    0.41252   -1.79144
 97 Ni    0.00407   -0.17656    1.01835
 98 Ni    0.72023    1.84221   -1.21185
 99 Co    0.86316   -0.02862   -0.92898
100 Co   -1.01648   -0.28884   -0.32604
101 Ni    0.14347    0.07096   -0.87641
102 Fe   -0.36980   -0.04811   -0.68122
103 Co    1.29569   -0.19434    1.55748
104 Co    0.13291   -0.29561    0.92009
105 Ni    0.27912   -0.66025   -0.99239
106 Fe   -0.49872    0.80272    0.76165
107 Fe    0.13563   -0.67212    0.56767

Date: Fri Apr 14 04:13:05 2023