User:   c.zeng@d0148
Date:   Sat Apr  8 12:34:45 2023
Arch:   x86_64
Pid:    89771
CWD:    /home/c.zeng/projects/hea-corrosion/hea-mlp/data-curation/volume/dft-jobs/67
Python: 3.8.1
gpaw:   /home/c.zeng/usr/installs/gpaw/source/gpaw-22.8.0/gpaw
_gpaw:  /home/c.zeng/usr/installs/gpaw/source/gpaw-22.8.0/
        _gpaw.cpython-38-x86_64-linux-gnu.so
ase:    /home/c.zeng/.local/lib/python3.8/site-packages/ase-3.22.1-py3.8.egg/ase (version 3.22.1)
numpy:  /shared/centos7/python/3.8.1/lib/python3.8/site-packages/numpy (version 1.17.4)
scipy:  /shared/centos7/python/3.8.1/lib/python3.8/site-packages/scipy (version 1.4.1)
units:  Angstrom and eV
cores: 64
OpenMP: False
OMP_NUM_THREADS: 1

Input parameters:
  convergence: {energy: 0.0001}
  kpts: [2 2 2]
  maxiter: 666
  mode: {ecut: 350.0,
         name: pw}
  occupations: {fixmagmom: False,
                name: fermi-dirac,
                width: 0.1}
  spinpol: True
  xc: PBE

System changes: positions, numbers, cell, pbc, initial_charges, initial_magmoms

Initialize ...

species:
  Co:
    name: Cobalt
    id: 339d20d5b0b93d2de9531a1bee871d91
    Z: 27.0
    valence: 9
    core: 18
    charge: 0.0
    file: /home/c.zeng/usr/data/gpaw-setups-0.9.20000/Co.PBE.gz
    compensation charges: {type: gauss,
                           rc: 0.32,
                           lmax: 2}
    cutoffs: {filter: 1.87,
              core: 2.55}
    valence states:
      #              energy  rcut
      - 4s(2.00)    -5.469   1.005
      - 4p(0.00)    -1.277   1.058
      - 3d(7.00)    -8.205   1.005
      -  s          21.742   1.005
      -  p          25.934   1.058
      -  d          19.007   1.005

    # Using partial waves for Co as LCAO basis

  Ni:
    name: Nickel
    id: 0d9f38a9d6e76a2886f07bb4381f212b
    Z: 28.0
    valence: 16
    core: 12
    charge: 0.0
    file: /home/c.zeng/usr/data/gpaw-setups-0.9.20000/Ni.PBE.gz
    compensation charges: {type: gauss,
                           rc: 0.36,
                           lmax: 2}
    cutoffs: {filter: 2.14,
              core: 1.98}
    valence states:
      #              energy  rcut
      - 4s(2.00)    -5.642   1.164
      - 3p(6.00)   -71.394   1.207
      - 4p(0.00)    -1.226   1.207
      - 3d(8.00)    -8.875   1.138
      -  s          21.570   1.164
      -  d          18.337   1.138

[...]

  Al:
    name: Aluminium
    id: 0292cae29f5d6237e50f6abdd43a7bdd
    Z: 13.0
    valence: 3
    core: 10
    charge: 0.0
    file: /home/c.zeng/usr/data/gpaw-setups-0.9.20000/Al.PBE.gz
    compensation charges: {type: gauss,
                           rc: 0.34,
                           lmax: 2}
    cutoffs: {filter: 1.91,
              core: 2.36}
    valence states:
      #              energy  rcut
      - 3s(2.00)    -7.753   1.085
      - 3p(1.00)    -2.712   1.085
      -  s          19.459   1.085
      -  p          24.499   1.085
      -  d           0.000   1.085

[...]

  Cr:
    name: Chromium
    id: 33f258bda2ca9f93018e70263a35547b
    Z: 24.0
    valence: 6
    core: 18
    charge: 0.0
    file: /home/c.zeng/usr/data/gpaw-setups-0.9.20000/Cr.PBE.gz
    compensation charges: {type: gauss,
                           rc: 0.35,
                           lmax: 2}
    cutoffs: {filter: 2.14,
              core: 3.04}
    valence states:
      #              energy  rcut
      - 4s(1.00)    -4.007   1.164
      - 4p(0.00)    -0.989   1.217
      - 3d(5.00)    -2.913   1.111
      -  s          23.205   1.164
      -  p          26.223   1.217
      -  d          24.299   1.111

[...]

  Fe:
    name: Iron
    id: 37abbd8d6c3c35915a9b583b742da910
    Z: 26.0
    valence: 8
    core: 18
    charge: 0.0
    file: /home/c.zeng/usr/data/gpaw-setups-0.9.20000/Fe.PBE.gz
    compensation charges: {type: gauss,
                           rc: 0.33,
                           lmax: 2}
    cutoffs: {filter: 2.06,
              core: 2.67}
    valence states:
      #              energy  rcut
      - 4s(2.00)    -5.291   1.164
      - 4p(0.00)    -1.326   1.058
      - 3d(6.00)    -7.505   1.058
      -  s          21.920   1.164
      -  p          25.885   1.058
      -  d          19.706   1.058

    # Using partial waves for Fe as LCAO basis

Reference energy: -3548577.034362  # eV

Spin-polarized calculation.
Magnetic moment: 136.400000

Convergence criteria:
 Maximum [total energy] change in last 3 cyles: 0.0001 eV / electron
 Maximum integral of absolute [dens]ity change: 0.0001 electrons / valence electron
 Maximum integral of absolute [eigenst]ate change: 4e-08 eV^2 / valence electron
 Maximum number of scf [iter]ations: 666
 (Square brackets indicate name in SCF output, whereas a 'c' in
 the SCF output indicates the quantity has converged.)

Symmetries present (total): 1

  ( 1  0  0)
  ( 0  1  0)
  ( 0  0  1)

8 k-points: 2 x 2 x 2 Monkhorst-Pack grid
4 k-points in the irreducible part of the Brillouin zone
       k-points in crystal coordinates                weights
   0:     0.25000000   -0.25000000   -0.25000000          2/8
   1:     0.25000000   -0.25000000    0.25000000          2/8
   2:     0.25000000    0.25000000   -0.25000000          2/8
   3:     0.25000000    0.25000000    0.25000000          2/8

Wave functions: Plane wave expansion
  Cutoff energy: 350.000 eV
  Number of coefficients (min, max): 23559, 23559
  Pulay-stress correction: 0.000000 eV/Ang^3 (de/decut=0.000000)
  Using FFTW library
  ScaLapack parameters: grid=1x1, blocksize=None
  Wavefunction extrapolation:
    Improved wavefunction reuse through dual PAW basis

Occupation numbers: Fermi-Dirac:
  width: 0.1000  # eV

Eigensolver
   Davidson(niter=2)

Densities:
  Coarse grid: 54*54*54 grid
  Fine grid: 108*108*108 grid
  Total Charge: 0.000000

Density mixing:
  Method: difference
  Backend: pulay
  Linear mixing parameter: 0.05
  old densities: 5
  Damping of long wavelength oscillations: 50

Hamiltonian:
  XC and Coulomb potentials evaluated on a 108*108*108 grid
  Using the PBE Exchange-Correlation functional
  External potential:
    NoExternalPotential

XC parameters: PBE with 2 nearest neighbor stencil

Total number of cores used: 64
Parallelization over k-points: 4
Domain decomposition: 4 x 2 x 2

Number of atoms: 108
Number of atomic orbitals: 994
Number of bands in calculation: 674
Number of valence electrons: 980
Bands to converge: occupied

... initialized

Initializing position-dependent things.

Density initialized from atomic densities
Creating initial wave functions:
  674 bands from LCAO basis set

       /|   Cr       Fe              |
      / |      Fe        Fe     Al   |
     /  |          Co                |
    /   |Al      Ni       Ni        Ni
   /    Al NiCr     Fe     Ni FeCo   |
  /  CoCr   CoFe     Co Ni     Fe    |
 *      Ni Cr  Co Al     CoCr CoAl Co|
 |Co    |Fe Fe   CoCoCr   Cr Cr     Ni
 | Cr Co| Cr Co Fe  Co Fe     Fe     |
 |     Fe   NiNi        Co           |
 |   Fe |        Cr  Cr   Ni   Ni    |
 |      Fe Fe  Co Co     CrCr      Ni|
 |Ni    |Ni Ni   NiCrCo   Cr Fe     Al
 |    Co.-Ni-NiCo---Co-Cr-----FeCr---.
 |     Ni     Cr Ni     CrNi   CrFe /
 |    / Al Co     AlCr      CrNi   Fe
 |   /      Fe       Fe      CrNi /
 | /  Al        Fe     CoFe     /
 |/              Fe       Al   /
 *------------------Cr--------*

Positions:
   0 Co    -0.000002    0.000002   -0.000002    ( 0.0000,  0.0000,  2.1000)
   1 Ni    -0.000013    1.943992    1.944004    ( 0.0000,  0.0000,  1.5000)
   2 Al     1.944016    0.000028    1.944016    ( 0.0000,  0.0000,  0.0000)
   3 Cr     1.944004    1.943992   -0.000019    ( 0.0000,  0.0000,  0.0000)
   4 Cr     3.888031    0.000010   -0.000008    ( 0.0000,  0.0000,  0.0000)
   5 Fe     3.888019    1.943992    1.944004    ( 0.0000,  0.0000,  2.0000)
   6 Fe     5.832000    0.000016    1.943992    ( 0.0000,  0.0000,  2.0000)
   7 Fe     5.832000    1.943992    0.000008    ( 0.0000,  0.0000,  2.0000)
   8 Cr     7.775969    0.000003    0.000019    ( 0.0000,  0.0000,  0.0000)
   9 Fe     7.775992    1.943992    1.944004    ( 0.0000,  0.0000,  2.0000)
  10 Fe     9.719996    0.000006    1.944004    ( 0.0000,  0.0000,  2.0000)
  11 Al     9.719996    1.944004    0.000045    ( 0.0000,  0.0000,  0.0000)
  12 Co    -0.000004    3.888008   -0.000003    ( 0.0000,  0.0000,  2.1000)
  13 Fe    -0.000009    5.832012    1.944004    ( 0.0000,  0.0000,  2.0000)
  14 Al     1.943981    3.887984    1.944039    ( 0.0000,  0.0000,  0.0000)
  15 Al     1.943992    5.832035   -0.000027    ( 0.0000,  0.0000,  0.0000)
  16 Cr     3.888008    3.887984   -0.000014    ( 0.0000,  0.0000,  0.0000)
  17 Cr     3.888008    5.832023    1.944004    ( 0.0000,  0.0000,  0.0000)
  18 Al     5.832012    3.887961    1.943992    ( 0.0000,  0.0000,  0.0000)
  19 Co     5.832000    5.832023   -0.000011    ( 0.0000,  0.0000,  2.1000)
  20 Co     7.775992    3.887996    0.000003    ( 0.0000,  0.0000,  2.1000)
  21 Cr     7.776016    5.832012    1.943992    ( 0.0000,  0.0000,  0.0000)
  22 Cr     9.720008    3.888008    1.944016    ( 0.0000,  0.0000,  0.0000)
  23 Cr     9.720008    5.832023    0.000008    ( 0.0000,  0.0000,  0.0000)
  24 Fe    -0.000008    7.775992    0.000001    ( 0.0000,  0.0000,  2.0000)
  25 Al    -0.000042    9.719973    1.943992    ( 0.0000,  0.0000,  0.0000)
  26 Ni     1.943992    7.775992    1.944004    ( 0.0000,  0.0000,  1.5000)
  27 Cr     1.944004    9.719984   -0.000018    ( 0.0000,  0.0000,  0.0000)
  28 Fe     3.888008    7.776004   -0.000007    ( 0.0000,  0.0000,  2.0000)
  29 Ni     3.888019    9.719996    1.943992    ( 0.0000,  0.0000,  1.5000)
  30 Co     5.832000    7.776004    1.943981    ( 0.0000,  0.0000,  2.1000)
  31 Fe     5.832000    9.719996   -0.000004    ( 0.0000,  0.0000,  2.0000)
  32 Fe     7.775992    7.776004   -0.000006    ( 0.0000,  0.0000,  2.0000)
  33 Cr     7.776004    9.719996    1.943992    ( 0.0000,  0.0000,  0.0000)
  34 Fe     9.720008    7.775992    1.944004    ( 0.0000,  0.0000,  2.0000)
  35 Cr     9.719996    9.719973    0.000004    ( 0.0000,  0.0000,  0.0000)
  36 Ni    -0.000004    0.000006    3.887996    ( 0.0000,  0.0000,  1.5000)
  37 Ni     0.000016    1.944016    5.832000    ( 0.0000,  0.0000,  1.5000)
  38 Co     1.944016    0.000006    5.832000    ( 0.0000,  0.0000,  2.1000)
  39 Ni     1.944004    1.944004    3.888019    ( 0.0000,  0.0000,  1.5000)
  40 Co     3.888008    0.000005    3.888008    ( 0.0000,  0.0000,  2.1000)
  41 Ni     3.887996    1.944004    5.832000    ( 0.0000,  0.0000,  1.5000)
  42 Co     5.831988    0.000001    5.832000    ( 0.0000,  0.0000,  2.1000)
  43 Ni     5.832000    1.943992    3.887984    ( 0.0000,  0.0000,  1.5000)
  44 Cr     7.775992    0.000019    3.887984    ( 0.0000,  0.0000,  0.0000)
  45 Co     7.775992    1.944004    5.832000    ( 0.0000,  0.0000,  2.1000)
  46 Al     9.719984   -0.000006    5.831965    ( 0.0000,  0.0000,  0.0000)
  47 Ni     9.719996    1.943992    3.887984    ( 0.0000,  0.0000,  1.5000)
  48 Cr    -0.000001    3.888019    3.888008    ( 0.0000,  0.0000,  0.0000)
  49 Fe     0.000002    5.832000    5.832000    ( 0.0000,  0.0000,  2.0000)
  50 Fe     1.944004    3.888008    5.832000    ( 0.0000,  0.0000,  2.0000)
  51 Ni     1.943992    5.832000    3.888008    ( 0.0000,  0.0000,  1.5000)
  52 Ni     3.887996    3.887984    3.888019    ( 0.0000,  0.0000,  1.5000)
  53 Ni     3.887996    5.831988    5.832012    ( 0.0000,  0.0000,  1.5000)
  54 Co     5.832000    3.887996    5.832012    ( 0.0000,  0.0000,  2.1000)
  55 Cr     5.832000    5.832012    3.888019    ( 0.0000,  0.0000,  0.0000)
  56 Cr     7.776004    3.887996    3.888008    ( 0.0000,  0.0000,  0.0000)
  57 Co     7.776004    5.832000    5.832012    ( 0.0000,  0.0000,  2.1000)
  58 Cr     9.719996    3.888008    5.832000    ( 0.0000,  0.0000,  0.0000)
  59 Fe     9.720008    5.832012    3.888008    ( 0.0000,  0.0000,  2.0000)
[...]
  93 Ni     7.775992    5.832012    9.719996    ( 0.0000,  0.0000,  1.5000)
  94 Cr     9.719996    3.888008    9.719996    ( 0.0000,  0.0000,  0.0000)
  95 Cr     9.719996    5.832012    7.775992    ( 0.0000,  0.0000,  0.0000)
  96 Co    -0.000006    7.776004    7.776004    ( 0.0000,  0.0000,  2.1000)
  97 Ni    -0.000002    9.719973    9.719996    ( 0.0000,  0.0000,  1.5000)
  98 Ni     1.944004    7.775992    9.719996    ( 0.0000,  0.0000,  1.5000)
  99 Co     1.944016    9.719996    7.776004    ( 0.0000,  0.0000,  2.1000)
 100 Co     3.888008    7.775992    7.776004    ( 0.0000,  0.0000,  2.1000)
 101 Ni     3.888019    9.719996    9.719996    ( 0.0000,  0.0000,  1.5000)
 102 Fe     5.832000    7.776004    9.720008    ( 0.0000,  0.0000,  2.0000)
 103 Co     5.831988    9.720008    7.776004    ( 0.0000,  0.0000,  2.1000)
 104 Co     7.776004    7.776004    7.776004    ( 0.0000,  0.0000,  2.1000)
 105 Ni     7.775992    9.719984    9.719996    ( 0.0000,  0.0000,  1.5000)
 106 Fe     9.719996    7.776016    9.719996    ( 0.0000,  0.0000,  2.0000)
 107 Fe     9.719996    9.719984    7.776004    ( 0.0000,  0.0000,  2.0000)

Unit cell:
           periodic     x           y           z      points  spacing
  1. axis:    yes   11.664000    0.000000    0.000000    54     0.2160
  2. axis:    yes    0.000000   11.664000    0.000000    54     0.2160
  3. axis:    yes    0.000000    0.000000   11.664000    54     0.2160

  Lengths:  11.664000  11.664000  11.664000
  Angles:   90.000000  90.000000  90.000000

Effective grid spacing dv^(1/3) = 0.2160

     iter     time        total  log10-change:  magmom
                         energy  eigst   dens
iter:   1 12:37:31 -1052.396474                  +136.6832
iter:   2 12:38:47  -899.145850  -0.02  -1.15    +73.6805
iter:   3 12:40:03  -926.716903  -0.44  -1.09    +74.8672
iter:   4 12:41:20  -838.028032  -1.03  -1.15    +68.4598
iter:   5 12:42:40  -827.654962  -1.67  -1.29    +70.6445
iter:   6 12:43:58  -830.942128  -1.61  -1.33    +79.0527
iter:   7 12:45:17  -824.390077  -1.29  -1.34    +83.9769
iter:   8 12:46:30  -824.718712  -1.47  -1.42    +89.0467
iter:   9 12:47:49  -819.099170  -1.38  -1.46    +89.0949
iter:  10 12:49:04  -815.082377  -1.66  -1.58    +90.6233
iter:  11 12:50:21  -815.879502  -1.98  -1.71    +90.4977
iter:  12 12:51:36  -814.245118  -2.25  -1.70    +89.1704
iter:  13 12:52:54  -814.334400  -2.59  -1.80    +89.9142
iter:  14 12:54:12  -816.109665  -2.48  -1.87    +89.0731
iter:  15 12:55:29  -816.814006  -2.61  -1.86    +88.2251
iter:  16 12:56:46  -817.496423  -2.48  -1.88    +86.6380
iter:  17 12:58:06  -817.765683  -2.53  -1.90    +86.6495
iter:  18 12:59:21  -818.456837  -2.56  -1.97    +84.3515
iter:  19 13:00:39  -818.765337  -2.57  -2.03    +82.2942
iter:  20 13:01:57  -819.158026  -2.68  -2.01    +82.6937
iter:  21 13:03:15  -819.241456  -2.78  -2.08    +83.0565
iter:  22 13:04:32  -819.455622  -2.91  -2.11    +82.3910
iter:  23 13:05:52  -819.590592  -3.05  -2.11    +81.7255
iter:  24 13:07:08  -819.704835  -3.22  -2.18    +81.8845
iter:  25 13:08:26  -820.078390  -3.28  -2.20    +81.8379
iter:  26 13:09:45  -820.174999  -3.58  -2.19    +81.4090
iter:  27 13:11:00  -820.618067  -3.26  -2.23    +81.1373
iter:  28 13:12:17  -820.917160  -3.17  -2.21    +80.5032
iter:  29 13:13:37  -821.381343  -2.92  -2.24    +80.2308
iter:  30 13:14:55  -821.028870  -3.05  -2.22    +80.1675
iter:  31 13:16:07  -821.496642  -2.93  -2.33    +79.6664
iter:  32 13:17:20  -821.157770  -3.21  -2.31    +79.5993
iter:  33 13:18:21  -821.380163  -3.42  -2.49    +79.5054
iter:  34 13:19:39  -821.350286  -3.79  -2.50    +79.5524
iter:  35 13:20:54  -821.465870  -3.90  -2.56    +79.2966
iter:  36 13:22:12  -821.627435  -3.62  -2.59    +78.7079
iter:  37 13:23:30  -821.794550  -3.55  -2.57    +78.0709
iter:  38 13:24:49  -821.784327  -4.33  -2.50    +78.2603
iter:  39 13:26:09  -821.958707  -3.79  -2.49    +78.0325
iter:  40 13:27:27  -821.852623  -3.77  -2.44    +78.0996
iter:  41 13:28:43  -821.774887  -3.39  -2.52    +77.7702
iter:  42 13:29:59  -822.008236  -3.18  -2.64    +77.4968
iter:  43 13:31:17  -821.733237  -3.58  -2.41    +77.2603
iter:  44 13:32:35  -821.767560  -3.95  -2.81    +76.5943
iter:  45 13:33:51  -821.785062c -4.19  -2.78    +76.4177
iter:  46 13:35:07  -821.797500c -4.61  -2.82    +76.1734
iter:  47 13:36:24  -821.835930c -4.44  -2.85    +75.8201
iter:  48 13:37:41  -821.900275  -4.07  -2.83    +75.3208
iter:  49 13:39:01  -821.870298c -4.75  -2.76    +75.5908
iter:  50 13:40:16  -821.905322c -4.52  -2.80    +75.3567
iter:  51 13:41:35  -821.917813c -4.92  -2.75    +75.3624
iter:  52 13:42:54  -821.923273c -4.05  -2.73    +75.0342
iter:  53 13:44:14  -821.953429c -4.46  -2.70    +74.8027
iter:  54 13:45:33  -821.961907c -4.46  -2.66    +74.6250
iter:  55 13:46:52  -822.103667  -3.47  -2.68    +74.2706
iter:  56 13:48:10  -822.015317  -3.78  -2.59    +74.1745
iter:  57 13:49:27  -822.057302c -3.81  -2.68    +73.9838
iter:  58 13:50:47  -822.058479c -4.50  -2.71    +73.8019
iter:  59 13:52:07  -822.169323  -3.89  -2.78    +73.4446
iter:  60 13:53:25  -822.150939  -4.25  -2.70    +73.4975
iter:  61 13:54:44  -822.271793  -3.78  -2.65    +73.0773
iter:  62 13:56:02  -822.195708  -3.80  -2.58    +73.0754
iter:  63 13:57:22  -822.175002c -3.94  -2.66    +72.9727
iter:  64 13:58:41  -822.171475c -3.57  -2.73    +72.8335
iter:  65 14:00:01  -822.114936c -4.13  -2.74    +72.8207
iter:  66 14:01:20  -822.128743c -3.90  -2.86    +72.7315
iter:  67 14:02:38  -822.149334c -3.85  -2.82    +72.7453
iter:  68 14:03:56  -822.096441c -4.16  -2.79    +72.9103
iter:  69 14:05:15  -822.112944c -4.25  -3.09    +72.9200
iter:  70 14:06:35  -822.095129c -4.68  -2.97    +72.8710
iter:  71 14:07:55  -822.091355c -5.06  -3.23    +72.9520
iter:  72 14:09:12  -822.099660c -4.97  -3.26    +72.9476
iter:  73 14:10:29  -822.091412c -4.80  -3.24    +72.9688
iter:  74 14:11:45  -822.091023c -4.98  -3.31    +72.9476
iter:  75 14:13:02  -822.091945c -5.28  -3.45    +72.9341
iter:  76 14:14:21  -822.090884c -5.39  -3.48    +72.9295
iter:  77 14:15:40  -822.089866c -5.66  -3.55    +72.9223
iter:  78 14:16:58  -822.091143c -5.60  -3.58    +72.9150
iter:  79 14:18:18  -822.089650c -5.78  -3.68    +72.9136
iter:  80 14:19:38  -822.090895c -5.99  -3.77    +72.9055
iter:  81 14:20:56  -822.090845c -5.96  -3.79    +72.9011
iter:  82 14:22:15  -822.090273c -6.15  -3.80    +72.8998
iter:  83 14:23:34  -822.090146c -6.10  -3.87    +72.8920
iter:  84 14:24:51  -822.090801c -6.43  -3.86    +72.8892
iter:  85 14:26:11  -822.090223c -6.62  -4.02c   +72.8850
iter:  86 14:27:30  -822.090769c -6.71  -4.06c   +72.8828
iter:  87 14:28:49  -822.090766c -6.63  -4.07c   +72.8798
iter:  88 14:30:08  -822.090355c -6.59  -4.07c   +72.8786
iter:  89 14:31:26  -822.090403c -6.77  -4.10c   +72.8776
iter:  90 14:32:44  -822.090869c -6.73  -4.18c   +72.8764
iter:  91 14:34:03  -822.090492c -6.91  -4.23c   +72.8770
iter:  92 14:35:22  -822.090613c -7.03  -4.26c   +72.8768
iter:  93 14:36:42  -822.090874c -7.00  -4.33c   +72.8759
iter:  94 14:38:01  -822.090510c -6.99  -4.29c   +72.8769
iter:  95 14:39:21  -822.090697c -7.07  -4.37c   +72.8766
iter:  96 14:40:41  -822.090584c -7.20  -4.33c   +72.8751
iter:  97 14:41:59  -822.090423c -7.40c -4.48c   +72.8755

Converged after 97 iterations.

Dipole moment: (0.050814, 0.156937, -0.636121) |e|*Ang

Total magnetic moment: (0.000000, 0.000000, 72.875535)
Local magnetic moments:
   0 Co ( 0.000000,  0.000000,  1.082649)
   1 Ni ( 0.000000,  0.000000,  0.267621)
   2 Al ( 0.000000,  0.000000,  0.009464)
   3 Cr ( 0.000000,  0.000000, -2.989202)
   4 Cr ( 0.000000,  0.000000, -2.907168)
   5 Fe ( 0.000000,  0.000000,  2.611731)
   6 Fe ( 0.000000,  0.000000,  2.745714)
   7 Fe ( 0.000000,  0.000000,  2.556984)
   8 Cr ( 0.000000,  0.000000, -2.798270)
   9 Fe ( 0.000000,  0.000000,  2.621190)
  10 Fe ( 0.000000,  0.000000,  2.652752)
  11 Al ( 0.000000,  0.000000, -0.044584)
  12 Co ( 0.000000,  0.000000,  1.323311)
  13 Fe ( 0.000000,  0.000000,  2.763525)
  14 Al ( 0.000000,  0.000000,  0.008790)
  15 Al ( 0.000000,  0.000000, -0.024889)
  16 Cr ( 0.000000,  0.000000, -2.773077)
  17 Cr ( 0.000000,  0.000000, -2.891999)
  18 Al ( 0.000000,  0.000000,  0.010419)
  19 Co ( 0.000000,  0.000000,  1.438681)
  20 Co ( 0.000000,  0.000000,  1.524812)
  21 Cr ( 0.000000,  0.000000, -2.660643)
  22 Cr ( 0.000000,  0.000000,  2.759429)
  23 Cr ( 0.000000,  0.000000, -2.941565)
  24 Fe ( 0.000000,  0.000000,  2.693713)
  25 Al ( 0.000000,  0.000000, -0.016165)
  26 Ni ( 0.000000,  0.000000,  0.320535)
  27 Cr ( 0.000000,  0.000000, -2.998965)
  28 Fe ( 0.000000,  0.000000,  2.870855)
  29 Ni ( 0.000000,  0.000000,  0.238865)
  30 Co ( 0.000000,  0.000000,  1.492243)
  31 Fe ( 0.000000,  0.000000,  2.777133)
  32 Fe ( 0.000000,  0.000000,  2.761997)
  33 Cr ( 0.000000,  0.000000, -2.793252)
  34 Fe ( 0.000000,  0.000000,  2.656872)
  35 Cr ( 0.000000,  0.000000, -2.849420)
  36 Ni ( 0.000000,  0.000000,  0.456928)
  37 Ni ( 0.000000,  0.000000,  0.279000)
  38 Co ( 0.000000,  0.000000,  1.879001)
  39 Ni ( 0.000000,  0.000000,  0.469650)
  40 Co ( 0.000000,  0.000000,  1.836514)
  41 Ni ( 0.000000,  0.000000,  0.631606)
  42 Co ( 0.000000,  0.000000,  1.715062)
  43 Ni ( 0.000000,  0.000000,  0.400198)
  44 Cr ( 0.000000,  0.000000,  2.711161)
  45 Co ( 0.000000,  0.000000,  1.621367)
  46 Al ( 0.000000,  0.000000, -0.016904)
  47 Ni ( 0.000000,  0.000000,  0.412159)
  48 Cr ( 0.000000,  0.000000, -2.907878)
  49 Fe ( 0.000000,  0.000000,  2.819284)
  50 Fe ( 0.000000,  0.000000,  2.985887)
  51 Ni ( 0.000000,  0.000000,  0.402448)
  52 Ni ( 0.000000,  0.000000,  0.193000)
  53 Ni ( 0.000000,  0.000000,  0.565362)
  54 Co ( 0.000000,  0.000000,  1.761264)
  55 Cr ( 0.000000,  0.000000, -2.755525)
  56 Cr ( 0.000000,  0.000000, -2.787794)
  57 Co ( 0.000000,  0.000000,  1.550418)
  58 Cr ( 0.000000,  0.000000,  2.765674)
  59 Fe ( 0.000000,  0.000000,  2.742561)
[...]
  93 Ni ( 0.000000,  0.000000,  0.490396)
  94 Cr ( 0.000000,  0.000000,  2.631937)
  95 Cr ( 0.000000,  0.000000, -2.949909)
  96 Co ( 0.000000,  0.000000,  1.730109)
  97 Ni ( 0.000000,  0.000000,  0.375494)
  98 Ni ( 0.000000,  0.000000,  0.538796)
  99 Co ( 0.000000,  0.000000,  1.867936)
 100 Co ( 0.000000,  0.000000,  1.885288)
 101 Ni ( 0.000000,  0.000000,  0.544616)
 102 Fe ( 0.000000,  0.000000,  2.974319)
 103 Co ( 0.000000,  0.000000,  1.872730)
 104 Co ( 0.000000,  0.000000,  1.781747)
 105 Ni ( 0.000000,  0.000000,  0.370617)
 106 Fe ( 0.000000,  0.000000,  2.837346)
 107 Fe ( 0.000000,  0.000000,  2.749446)

Energy contributions relative to reference atoms: (reference = -3548577.034362)

Kinetic:       -296.094441
Potential:     +169.519255
External:        +0.000000
XC:            -725.482605
Entropy (-ST):   -4.634892
Local:          +32.284815
Free energy:   -824.407869
Extrapolated:  -822.090423

Spin contamination: 65.667833 electrons
Showing only first 2 kpts
                      Up                     Down
 Kpt  Band  Eigenvalues  Occupancy  Eigenvalues  Occupancy
  0   488      6.34285    0.99948      7.43365    0.03415
  0   489      6.35220    0.99943      7.44060    0.03193
  0   490      6.36199    0.99937      7.44811    0.02969
  0   491      6.37743    0.99927      7.45492    0.02779

  1   488      6.32872    0.99955      7.43761    0.03287
  1   489      6.34627    0.99946      7.44495    0.03061
  1   490      6.35071    0.99944      7.45127    0.02879
  1   491      6.36664    0.99934      7.45846    0.02685

Fermi level: 7.09942

No gap

Forces in eV/Ang:
  0 Co    0.01219   -0.11239   -0.05470
  1 Ni   -0.07739   -0.10101    0.05479
  2 Al   -0.00588    0.29275    0.80088
  3 Cr   -0.97687   -0.04870   -0.64428
  4 Cr    1.10285   -0.10682   -0.36711
  5 Fe    0.24869   -0.21447    0.13766
  6 Fe   -0.29382    0.11468   -0.05185
  7 Fe   -0.18385    0.06622    0.15825
  8 Cr   -0.82478    0.20032   -0.22677
  9 Fe   -0.21336   -0.14084   -0.08685
 10 Fe    0.19858    0.24188   -0.03801
 11 Al    0.67309    0.38124    0.37841
 12 Co    0.35650    0.03572   -0.23283
 13 Fe    0.19209    0.44528    0.20690
 14 Al   -0.20903   -0.35299    0.59650
 15 Al   -0.41328    0.34460   -0.54070
 16 Cr    0.30024   -0.18824   -0.61229
 17 Cr   -0.14873    0.96877    0.20207
 18 Al    0.17852   -0.33378    0.08878
 19 Co   -0.05664    0.21421   -0.06734
 20 Co   -0.40880   -0.08589   -0.05856
 21 Cr    0.06834    0.53753   -0.16649
 22 Cr   -0.07176   -0.00644    0.09647
 23 Cr    0.28840   -0.04009   -0.45131
 24 Fe   -0.02557    0.06516   -0.31786
 25 Al   -0.16273   -0.31625    0.84935
 26 Ni   -0.03060   -0.11882    0.06847
 27 Cr   -0.21102   -0.55066   -0.62232
 28 Fe    0.25005    0.14112    0.07353
 29 Ni    0.05910   -0.09522    0.05893
 30 Co   -0.29906   -0.07512   -0.40125
 31 Fe   -0.10620   -0.10717    0.07294
 32 Fe   -0.23749   -0.08756    0.02277
 33 Cr    0.09516   -0.33532    0.35445
 34 Fe    0.09650   -0.17669    0.08868
 35 Cr    0.49993   -0.62566   -0.36768
 36 Ni    0.03621    0.09658   -0.02584
 37 Ni    0.21818   -0.14797   -0.08630
 38 Co    0.34919   -0.11500   -0.18070
 39 Ni    0.04632   -0.06780    0.12464
 40 Co    0.14101    0.11319    0.43517
 41 Ni   -0.13501   -0.04993   -0.08851
 42 Co   -0.30081    0.07308    0.08784
 43 Ni   -0.05230   -0.05815    0.12168
 44 Cr   -0.29020   -0.26678    0.29932
 45 Co   -0.28003    0.13855    0.20321
 46 Al    0.11523    0.47319   -0.42584
 47 Ni    0.08375   -0.19058   -0.13675
 48 Cr   -0.38452   -0.07167    0.40754
 49 Fe    0.34251    0.49320   -0.05058
 50 Fe    0.34593   -0.08716   -0.24472
 51 Ni    0.03424    0.01966    0.07570
 52 Ni    0.01213    0.00777    0.02731
 53 Ni    0.00484   -0.01145    0.08945
 54 Co    0.10157    0.08782    0.14119
 55 Cr   -0.22028    0.61058    0.95821
 56 Cr    0.50379   -0.67391    0.64611
 57 Co   -0.25968    0.10860    0.10345
 58 Cr    0.08587   -0.53208    0.04461
 59 Fe    0.03278    0.42578    0.16097
[...]
 93 Ni   -0.12675    0.08478   -0.00523
 94 Cr    0.32803    0.47993   -0.14312
 95 Cr   -0.36037    0.39661    0.15476
 96 Co    0.03603    0.21031    0.18156
 97 Ni    0.01520   -0.01486   -0.05404
 98 Ni   -0.04115   -0.03632   -0.11585
 99 Co    0.20269   -0.11634    0.03219
100 Co    0.17532    0.18396    0.01715
101 Ni   -0.08074   -0.01800   -0.10610
102 Fe    0.24761    0.02154   -0.16467
103 Co   -0.01953    0.05410   -0.06830
104 Co   -0.13726   -0.10363    0.07305
105 Ni   -0.05599    0.03145    0.05340
106 Fe   -0.04534   -0.14145   -0.25258
107 Fe   -0.05695   -0.58745   -0.00307

Date: Sat Apr  8 14:42:27 2023