User:   c.zeng@d0109
Date:   Sat Apr 15 10:02:24 2023
Arch:   x86_64
Pid:    272965
CWD:    /home/c.zeng/projects/hea-corrosion/hea-mlp/data-curation/bulk-mcmc/dft-jobs/246
Python: 3.8.1
gpaw:   /home/c.zeng/usr/installs/gpaw/source/gpaw-22.8.0/gpaw
_gpaw:  /home/c.zeng/usr/installs/gpaw/source/gpaw-22.8.0/
        _gpaw.cpython-38-x86_64-linux-gnu.so
ase:    /home/c.zeng/.local/lib/python3.8/site-packages/ase-3.22.1-py3.8.egg/ase (version 3.22.1)
numpy:  /shared/centos7/python/3.8.1/lib/python3.8/site-packages/numpy (version 1.17.4)
scipy:  /shared/centos7/python/3.8.1/lib/python3.8/site-packages/scipy (version 1.4.1)
units:  Angstrom and eV
cores: 30
OpenMP: False
OMP_NUM_THREADS: 1

Input parameters:
  convergence: {energy: 0.0001}
  kpts: [2 2 2]
  maxiter: 666
  mode: {ecut: 350.0,
         name: pw}
  occupations: {fixmagmom: False,
                name: fermi-dirac,
                width: 0.1}
  spinpol: True
  xc: PBE

System changes: positions, numbers, cell, pbc, initial_charges, initial_magmoms

Initialize ...

species:
  Cr:
    name: Chromium
    id: 33f258bda2ca9f93018e70263a35547b
    Z: 24.0
    valence: 6
    core: 18
    charge: 0.0
    file: /home/c.zeng/usr/data/gpaw-setups-0.9.20000/Cr.PBE.gz
    compensation charges: {type: gauss,
                           rc: 0.35,
                           lmax: 2}
    cutoffs: {filter: 2.14,
              core: 3.04}
    valence states:
      #              energy  rcut
      - 4s(1.00)    -4.007   1.164
      - 4p(0.00)    -0.989   1.217
      - 3d(5.00)    -2.913   1.111
      -  s          23.205   1.164
      -  p          26.223   1.217
      -  d          24.299   1.111

    # Using partial waves for Cr as LCAO basis

  Al:
    name: Aluminium
    id: 0292cae29f5d6237e50f6abdd43a7bdd
    Z: 13.0
    valence: 3
    core: 10
    charge: 0.0
    file: /home/c.zeng/usr/data/gpaw-setups-0.9.20000/Al.PBE.gz
    compensation charges: {type: gauss,
                           rc: 0.34,
                           lmax: 2}
    cutoffs: {filter: 1.91,
              core: 2.36}
    valence states:
      #              energy  rcut
      - 3s(2.00)    -7.753   1.085
      - 3p(1.00)    -2.712   1.085
      -  s          19.459   1.085
      -  p          24.499   1.085
      -  d           0.000   1.085

[...]

  Co:
    name: Cobalt
    id: 339d20d5b0b93d2de9531a1bee871d91
    Z: 27.0
    valence: 9
    core: 18
    charge: 0.0
    file: /home/c.zeng/usr/data/gpaw-setups-0.9.20000/Co.PBE.gz
    compensation charges: {type: gauss,
                           rc: 0.32,
                           lmax: 2}
    cutoffs: {filter: 1.87,
              core: 2.55}
    valence states:
      #              energy  rcut
      - 4s(2.00)    -5.469   1.005
      - 4p(0.00)    -1.277   1.058
      - 3d(7.00)    -8.205   1.005
      -  s          21.742   1.005
      -  p          25.934   1.058
      -  d          19.007   1.005

[...]

  Ni:
    name: Nickel
    id: 0d9f38a9d6e76a2886f07bb4381f212b
    Z: 28.0
    valence: 16
    core: 12
    charge: 0.0
    file: /home/c.zeng/usr/data/gpaw-setups-0.9.20000/Ni.PBE.gz
    compensation charges: {type: gauss,
                           rc: 0.36,
                           lmax: 2}
    cutoffs: {filter: 2.14,
              core: 1.98}
    valence states:
      #              energy  rcut
      - 4s(2.00)    -5.642   1.164
      - 3p(6.00)   -71.394   1.207
      - 4p(0.00)    -1.226   1.207
      - 3d(8.00)    -8.875   1.138
      -  s          21.570   1.164
      -  d          18.337   1.138

[...]

  Fe:
    name: Iron
    id: 37abbd8d6c3c35915a9b583b742da910
    Z: 26.0
    valence: 8
    core: 18
    charge: 0.0
    file: /home/c.zeng/usr/data/gpaw-setups-0.9.20000/Fe.PBE.gz
    compensation charges: {type: gauss,
                           rc: 0.33,
                           lmax: 2}
    cutoffs: {filter: 2.06,
              core: 2.67}
    valence states:
      #              energy  rcut
      - 4s(2.00)    -5.291   1.164
      - 4p(0.00)    -1.326   1.058
      - 3d(6.00)    -7.505   1.058
      -  s          21.920   1.164
      -  p          25.885   1.058
      -  d          19.706   1.058

    # Using partial waves for Fe as LCAO basis

Reference energy: -3235165.067515  # eV

Spin-polarized calculation.
Magnetic moment: 121.100000

Convergence criteria:
 Maximum [total energy] change in last 3 cyles: 0.0001 eV / electron
 Maximum integral of absolute [dens]ity change: 0.0001 electrons / valence electron
 Maximum integral of absolute [eigenst]ate change: 4e-08 eV^2 / valence electron
 Maximum number of scf [iter]ations: 666
 (Square brackets indicate name in SCF output, whereas a 'c' in
 the SCF output indicates the quantity has converged.)

Symmetries present (total): 1

  ( 1  0  0)
  ( 0  1  0)
  ( 0  0  1)

8 k-points: 2 x 2 x 2 Monkhorst-Pack grid
4 k-points in the irreducible part of the Brillouin zone
       k-points in crystal coordinates                weights
   0:     0.25000000   -0.25000000   -0.25000000          2/8
   1:     0.25000000   -0.25000000    0.25000000          2/8
   2:     0.25000000    0.25000000   -0.25000000          2/8
   3:     0.25000000    0.25000000    0.25000000          2/8

Wave functions: Plane wave expansion
  Cutoff energy: 350.000 eV
  Number of coefficients (min, max): 19084, 19084
  Pulay-stress correction: 0.000000 eV/Ang^3 (de/decut=0.000000)
  Using FFTW library
  ScaLapack parameters: grid=1x1, blocksize=None
  Wavefunction extrapolation:
    Improved wavefunction reuse through dual PAW basis

Occupation numbers: Fermi-Dirac:
  width: 0.1000  # eV

Eigensolver
   Davidson(niter=2)

Densities:
  Coarse grid: 48*48*48 grid
  Fine grid: 96*96*96 grid
  Total Charge: 0.000000

Density mixing:
  Method: difference
  Backend: pulay
  Linear mixing parameter: 0.05
  old densities: 5
  Damping of long wavelength oscillations: 50

Hamiltonian:
  XC and Coulomb potentials evaluated on a 96*96*96 grid
  Using the PBE Exchange-Correlation functional
  External potential:
    NoExternalPotential

XC parameters: PBE with 2 nearest neighbor stencil

Total number of cores used: 30
Parallelization over k-points: 2
Domain decomposition: 5 x 3 x 1

Number of atoms: 108
Number of atomic orbitals: 933
Number of bands in calculation: 624
Number of valence electrons: 912
Bands to converge: occupied

... initialized

Initializing position-dependent things.

Density initialized from atomic densities
Creating initial wave functions:
  624 bands from LCAO basis set

        .--------Al----------------.
       /|           Fe             |
      / |    FeFe     Ni           |
     / Ni       Cr       Al        |
    /   |Fe      CrCo       Fe     |
   /    | NiNi      ACo            |
  /    Co  FerAlAl    Co Fe  CoAl  |
 *      Fe     AlCoAl   CrFe     Cr|
 |      |FeNi   NiFeFe   AlCrNi   Co
 |      | CoCr   AlCoCoAl CrCrFe   |
 |     Fe  Al CoCo  NiCr Ni  CrNi  |
 |      Ni  Cr NiNiCo CoNiCoAl   Fe|
 |      |NiCo   CoAlAl   CoCrFe   Fe
 |      .-FeNi-----CrCr-Al--NiFe---.
 |     Al  Cr CoNi    Al Co  Ni Cr/
 |    / Co              Cr       Cr
 |   /           Alr      CrFe  /
 |  /      Ni       Fe     NiAl/
 | /                   Fe     /i
 *--------------------------Cr

Positions:
   0 Cr    10.797848    0.093654    0.085777    ( 0.0000,  0.0000,  0.0000)
   1 Al    10.831824    1.844742    1.870716    ( 0.0000,  0.0000,  2.0000)
   2 Cr     1.786803   10.847372    1.827335    ( 0.0000,  0.0000,  0.0000)
   3 Co     1.769614    1.870531   -0.031264    ( 0.0000,  0.0000,  0.0000)
   4 Al     3.620857   10.822050   10.833629    ( 0.0000,  0.0000,  1.5000)
   5 Ni     3.571246    1.883176    1.708402    ( 0.0000,  0.0000,  0.0000)
   6 Co     5.521103   10.788063    1.666217    ( 0.0000,  0.0000,  0.0000)
   7 Al     5.520831    1.813973   10.830911    ( 0.0000,  0.0000,  1.5000)
   8 Al     7.330846    0.011025   10.815657    ( 0.0000,  0.0000,  2.0000)
   9 Fe     7.282018    1.809483    1.793250    ( 0.0000,  0.0000,  2.1000)
  10 Fe     9.029996    0.022005    1.811918    ( 0.0000,  0.0000,  1.5000)
  11 Fe     9.007196    1.868639   10.825714    ( 0.0000,  0.0000,  2.0000)
  12 Ni    10.861310    3.649723    0.014171    ( 0.0000,  0.0000,  2.0000)
  13 Cr    10.867442    5.463468    1.819235    ( 0.0000,  0.0000,  2.1000)
  14 Co     1.756088    3.650267    1.845949    ( 0.0000,  0.0000,  0.0000)
  15 Fe     1.790358    5.439092   10.869084    ( 0.0000,  0.0000,  2.1000)
  16 Ni     3.687842    3.622792   -0.049287    ( 0.0000,  0.0000,  2.0000)
  17 Co     3.667347    5.391145    1.745368    ( 0.0000,  0.0000,  0.0000)
  18 Al     5.497977    3.634415    1.792370    ( 0.0000,  0.0000,  2.0000)
  19 Cr     5.524908    5.448029    0.002551    ( 0.0000,  0.0000,  2.0000)
  20 Co     7.223340    3.611877   10.834270    ( 0.0000,  0.0000,  0.0000)
  21 Al     7.217762    5.474830    1.807776    ( 0.0000,  0.0000,  2.1000)
  22 Cr     9.073442    3.654344    1.775148    ( 0.0000,  0.0000,  0.0000)
  23 Ni     9.008740    5.418608    0.007692    ( 0.0000,  0.0000,  2.0000)
  24 Cr    10.859190    7.178720    0.014480    ( 0.0000,  0.0000,  1.5000)
  25 Fe    -0.018106    8.970948    1.875391    ( 0.0000,  0.0000,  0.0000)
  26 Fe     1.817615    7.224025    1.802546    ( 0.0000,  0.0000,  1.5000)
  27 Cr     1.880729    8.993464   10.874031    ( 0.0000,  0.0000,  0.0000)
  28 Fe     3.684428    7.260447   -0.001356    ( 0.0000,  0.0000,  2.0000)
  29 Co     3.612616    9.025636    1.761807    ( 0.0000,  0.0000,  1.5000)
  30 Cr     5.481440    7.275114    1.811211    ( 0.0000,  0.0000,  1.5000)
  31 Fe     5.461261    9.048153   10.833988    ( 0.0000,  0.0000,  1.5000)
  32 Cr     7.245704    7.257881    0.056891    ( 0.0000,  0.0000,  2.1000)
  33 Co     7.301969    9.004609    1.790315    ( 0.0000,  0.0000,  0.0000)
  34 Ni     9.029343    7.181775    1.815549    ( 0.0000,  0.0000,  2.0000)
  35 Ni     9.030561    9.042010    0.020232    ( 0.0000,  0.0000,  1.5000)
  36 Fe    -0.031046    0.001947    3.645701    ( 0.0000,  0.0000,  2.0000)
  37 Fe    10.825910    1.804351    5.434602    ( 0.0000,  0.0000,  2.1000)
  38 Cr     1.743552   10.849296    5.484376    ( 0.0000,  0.0000,  0.0000)
  39 Al     1.769755    1.791891    3.636068    ( 0.0000,  0.0000,  1.5000)
  40 Al     3.516667   10.719828    3.663227    ( 0.0000,  0.0000,  0.0000)
  41 Co     3.644244    1.785205    5.586728    ( 0.0000,  0.0000,  0.0000)
  42 Al     5.484778   10.815439    5.504022    ( 0.0000,  0.0000,  0.0000)
  43 Ni     5.457934    1.842230    3.658769    ( 0.0000,  0.0000,  0.0000)
  44 Cr     7.360615   10.815439    3.672229    ( 0.0000,  0.0000,  0.0000)
  45 Al     7.266884    1.811614    5.485528    ( 0.0000,  0.0000,  2.1000)
  46 Al     9.077986    0.023590    5.491921    ( 0.0000,  0.0000,  0.0000)
  47 Co     9.066788    1.824226    3.671175    ( 0.0000,  0.0000,  1.5000)
  48 Fe    -0.047135    3.649615    3.617291    ( 0.0000,  0.0000,  2.0000)
  49 Ni    10.809264    5.435993    5.379805    ( 0.0000,  0.0000,  2.0000)
  50 Ni     1.752316    3.624989    5.344676    ( 0.0000,  0.0000,  0.0000)
  51 Ni     1.805786    5.472046    3.619389    ( 0.0000,  0.0000,  2.1000)
[...]
  94 Fe     8.994291    3.655975    9.039237    ( 0.0000,  0.0000,  1.5000)
  95 Cr     9.006577    5.423262    7.223296    ( 0.0000,  0.0000,  2.0000)
  96 Cr    -0.070637    7.291956    7.110419    ( 0.0000,  0.0000,  0.0000)
  97 Ni     0.073012    9.104570    9.068375    ( 0.0000,  0.0000,  0.0000)
  98 Ni     1.863247    7.257381    9.054785    ( 0.0000,  0.0000,  2.0000)
  99 Fe     1.858343    9.053708    7.225808    ( 0.0000,  0.0000,  2.1000)
 100 Al     3.683906    7.292456    7.235550    ( 0.0000,  0.0000,  2.0000)
 101 Cr     3.628218    9.069550    9.051262    ( 0.0000,  0.0000,  2.1000)
 102 Co     5.530605    7.331890    9.040129    ( 0.0000,  0.0000,  0.0000)
 103 Al     5.476232    9.097209    7.250467    ( 0.0000,  0.0000,  2.0000)
 104 Cr     7.256827    7.264242    7.208456    ( 0.0000,  0.0000,  2.1000)
 105 Al     7.272548    9.136437    9.056861    ( 0.0000,  0.0000,  1.5000)
 106 Fe     8.936493    7.190875    9.109767    ( 0.0000,  0.0000,  0.0000)
 107 Co     8.994682    9.112169    7.218480    ( 0.0000,  0.0000,  0.0000)

Unit cell:
           periodic     x           y           z      points  spacing
  1. axis:    yes   10.872400    0.000000    0.000000    48     0.2265
  2. axis:    yes    0.000000   10.872400    0.000000    48     0.2265
  3. axis:    yes    0.000000    0.000000   10.872400    48     0.2265

  Lengths:  10.872400  10.872400  10.872400
  Angles:   90.000000  90.000000  90.000000

Effective grid spacing dv^(1/3) = 0.2265

     iter     time        total  log10-change:  magmom
                         energy  eigst   dens
iter:   1 10:06:57  -920.124833                  +120.1379
iter:   2 10:09:03  -879.301842  -0.23  -1.23    +80.4667
iter:   3 10:11:10  -843.436222  -0.72  -1.19    +47.1919
iter:   4 10:13:16  -815.436807  -1.26  -1.26    +41.1986
iter:   5 10:15:22  -809.176430  -1.71  -1.37    +37.4339
iter:   6 10:17:29  -812.373607  -1.72  -1.40    +36.1946
iter:   7 10:19:35  -811.331869  -1.49  -1.42    +35.4927
iter:   8 10:21:41  -804.094457  -1.72  -1.46    +35.6024
iter:   9 10:23:48  -810.191030  -1.63  -1.59    +35.7556
iter:  10 10:25:55  -801.384440  -1.84  -1.57    +36.2352
iter:  11 10:28:01  -801.553343  -2.31  -1.78    +37.6401
iter:  12 10:30:07  -801.815569  -2.51  -1.82    +39.1156
iter:  13 10:32:14  -802.179466  -2.57  -1.85    +40.4330
iter:  14 10:34:21  -802.556920  -2.50  -1.89    +41.9547
iter:  15 10:36:28  -802.610267  -2.62  -1.95    +43.2592
iter:  16 10:38:33  -803.248415  -2.63  -2.02    +44.6863
iter:  17 10:40:38  -802.995199  -2.84  -2.04    +45.8099
iter:  18 10:42:45  -803.060499  -3.00  -2.09    +47.3126
iter:  19 10:44:52  -803.231929  -3.03  -2.16    +48.6427
iter:  20 10:46:58  -803.441022  -3.14  -2.24    +49.5024
iter:  21 10:49:04  -803.446192  -3.09  -2.23    +50.6330
iter:  22 10:51:11  -803.552388  -3.23  -2.34    +51.4622
iter:  23 10:53:18  -803.735859  -3.21  -2.38    +52.6815
iter:  24 10:55:25  -803.737518  -3.60  -2.41    +53.1340
iter:  25 10:57:31  -803.909941  -3.45  -2.47    +54.2427
iter:  26 10:59:37  -804.068264  -3.44  -2.49    +55.1968
iter:  27 11:01:44  -804.143262  -3.62  -2.49    +55.8462
iter:  28 11:03:51  -804.307280  -3.43  -2.53    +56.9074
iter:  29 11:05:57  -804.415930  -3.51  -2.53    +57.6193
iter:  30 11:08:04  -804.506657  -3.53  -2.53    +58.1962
iter:  31 11:10:11  -804.648373  -3.72  -2.51    +58.3401
iter:  32 11:12:18  -804.660291  -3.70  -2.46    +58.1498
iter:  33 11:14:26  -804.810568  -3.73  -2.42    +58.3112
iter:  34 11:16:34  -804.633453  -3.41  -2.39    +58.4936
iter:  35 11:18:43  -804.551044  -3.63  -2.49    +58.2863
iter:  36 11:20:51  -804.534264  -3.87  -2.60    +58.1515
iter:  37 11:22:59  -804.531375c -4.31  -2.68    +57.9556
iter:  38 11:25:07  -804.539154c -4.30  -2.72    +57.6993
iter:  39 11:27:15  -804.543387c -4.53  -2.75    +57.5971
iter:  40 11:29:23  -804.554155c -4.52  -2.81    +57.4126
iter:  41 11:31:31  -804.560146c -4.60  -2.82    +57.2577
iter:  42 11:33:39  -804.574946c -4.63  -2.87    +57.1437
iter:  43 11:35:47  -804.575561c -4.58  -2.88    +57.0423
iter:  44 11:37:55  -804.585062c -4.66  -2.92    +56.9050
iter:  45 11:40:02  -804.589149c -4.73  -2.94    +56.8283
iter:  46 11:42:11  -804.599260c -4.74  -3.02    +56.6795
iter:  47 11:44:19  -804.608894c -4.80  -3.04    +56.5872
iter:  48 11:46:27  -804.618516c -4.75  -3.07    +56.5044
iter:  49 11:48:35  -804.620660c -4.86  -3.08    +56.4046
iter:  50 11:50:44  -804.630336c -4.86  -3.13    +56.2979
iter:  51 11:52:52  -804.635077c -5.05  -3.15    +56.2373
iter:  52 11:54:58  -804.644906c -4.87  -3.20    +56.0906
iter:  53 11:57:06  -804.651726c -5.06  -3.22    +56.0213
iter:  54 11:59:14  -804.661751c -4.99  -3.26    +55.9345
iter:  55 12:01:22  -804.664349c -5.07  -3.26    +55.8452
iter:  56 12:03:31  -804.670769c -5.15  -3.30    +55.7792
iter:  57 12:05:39  -804.678190c -5.06  -3.33    +55.7091
iter:  58 12:07:48  -804.685072c -5.02  -3.36    +55.6105
iter:  59 12:09:56  -804.692197c -5.07  -3.38    +55.5343
iter:  60 12:12:04  -804.703955c -4.81  -3.40    +55.4187
iter:  61 12:14:13  -804.722335c -4.46  -3.38    +55.2198
iter:  62 12:16:21  -804.751707c -3.91  -3.29    +54.8577
iter:  63 12:18:30  -804.747714c -5.05  -3.17    +54.9658
iter:  64 12:20:38  -804.750430c -5.28  -3.20    +54.9833
iter:  65 12:22:46  -804.756675c -5.17  -3.19    +55.0013
iter:  66 12:24:54  -804.757146c -5.21  -3.15    +54.9984
iter:  67 12:27:02  -804.755056c -4.67  -3.12    +55.0031
iter:  68 12:29:10  -804.753201c -4.93  -3.15    +54.9719
iter:  69 12:31:18  -804.754383c -5.11  -3.21    +54.9690
iter:  70 12:33:26  -804.755200c -4.73  -3.16    +54.9891
iter:  71 12:35:34  -804.749971c -5.21  -3.16    +54.9982
iter:  72 12:37:42  -804.751022c -5.49  -3.27    +55.0064
iter:  73 12:39:49  -804.750434c -5.66  -3.31    +55.0043
iter:  74 12:41:58  -804.753864c -5.33  -3.37    +55.0179
iter:  75 12:44:05  -804.754604c -4.99  -3.33    +55.0237
iter:  76 12:46:13  -804.752586c -5.15  -3.37    +55.0176
iter:  77 12:48:21  -804.751659c -5.51  -3.52    +55.0205
iter:  78 12:50:29  -804.751720c -5.67  -3.63    +55.0382
iter:  79 12:52:36  -804.752436c -5.86  -3.64    +55.0565
iter:  80 12:54:43  -804.752465c -6.11  -3.72    +55.0610
iter:  81 12:56:49  -804.752685c -6.33  -3.76    +55.0740
iter:  82 12:58:57  -804.753165c -6.30  -3.79    +55.0953
iter:  83 13:01:05  -804.754635c -5.87  -3.84    +55.1343
iter:  84 13:03:13  -804.754050c -6.24  -3.85    +55.1242
iter:  85 13:05:22  -804.754008c -6.36  -3.94    +55.1264
iter:  86 13:07:30  -804.754910c -6.33  -4.01c   +55.1345
iter:  87 13:09:38  -804.754871c -6.32  -4.03c   +55.1430
iter:  88 13:11:46  -804.755028c -6.69  -4.14c   +55.1500
iter:  89 13:13:54  -804.755414c -6.63  -4.20c   +55.1651
iter:  90 13:16:03  -804.756047c -6.46  -4.25c   +55.1874
iter:  91 13:18:11  -804.757661c -5.64  -4.27c   +55.2493
iter:  92 13:20:19  -804.760427c -5.22  -4.18c   +55.3455
iter:  93 13:22:27  -804.761884c -5.49  -3.96    +55.4034
iter:  94 13:24:35  -804.764387c -5.08  -3.86    +55.5312
iter:  95 13:26:42  -804.765570c -4.99  -3.74    +55.6613
iter:  96 13:28:49  -804.765684c -5.67  -3.66    +55.6799
iter:  97 13:30:57  -804.764939c -6.16  -3.65    +55.6769
iter:  98 13:33:04  -804.766016c -6.26  -3.64    +55.6818
iter:  99 13:35:13  -804.768336c -5.67  -3.64    +55.6842
iter: 100 13:37:20  -804.766683c -4.90  -3.43    +55.6910
iter: 101 13:39:28  -804.762090c -5.34  -3.41    +55.6818
iter: 102 13:41:33  -804.762924c -5.72  -3.56    +55.6250
iter: 103 13:43:42  -804.761929c -5.87  -3.68    +55.6007
iter: 104 13:45:50  -804.762432c -5.45  -3.76    +55.5700
iter: 105 13:47:57  -804.761625c -5.96  -3.72    +55.5556
iter: 106 13:50:06  -804.761520c -6.16  -4.02c   +55.5303
iter: 107 13:52:14  -804.761589c -6.33  -3.99    +55.5068
iter: 108 13:54:22  -804.761291c -6.80  -4.10c   +55.5076
iter: 109 13:56:29  -804.761496c -6.62  -4.11c   +55.4862
iter: 110 13:58:38  -804.761365c -6.66  -4.17c   +55.4690
iter: 111 14:00:46  -804.761294c -6.53  -4.23c   +55.4488
iter: 112 14:02:54  -804.761264c -6.94  -4.26c   +55.4362
iter: 113 14:05:03  -804.761075c -6.31  -4.32c   +55.3977
iter: 114 14:07:11  -804.760842c -6.15  -4.26c   +55.3557
iter: 115 14:09:19  -804.760654c -5.96  -4.18c   +55.3015
iter: 116 14:11:27  -804.760519c -5.79  -4.07c   +55.2360
iter: 117 14:13:34  -804.760593c -6.37  -3.99    +55.2203
iter: 118 14:15:42  -804.760539c -6.67  -3.96    +55.2462
iter: 119 14:17:50  -804.760506c -6.39  -3.99    +55.2088
iter: 120 14:19:59  -804.760505c -6.62  -3.99    +55.1948
iter: 121 14:22:06  -804.760077c -6.13  -3.96    +55.1953
iter: 122 14:24:14  -804.760093c -5.92  -3.80    +55.1940
iter: 123 14:26:23  -804.760233c -6.16  -3.81    +55.2051
iter: 124 14:28:30  -804.759838c -5.83  -3.95    +55.2048
iter: 125 14:30:38  -804.759754c -6.35  -3.79    +55.2083
iter: 126 14:32:45  -804.759539c -6.70  -4.08c   +55.2234
iter: 127 14:34:53  -804.760520c -6.29  -4.18c   +55.2318
iter: 128 14:37:01  -804.759831c -6.56  -4.02c   +55.2342
iter: 129 14:39:08  -804.759938c -6.78  -4.18c   +55.2412
iter: 130 14:41:11  -804.760010c -6.68  -4.24c   +55.2446
iter: 131 14:43:19  -804.759751c -6.68  -4.31c   +55.2470
iter: 132 14:45:27  -804.759997c -7.13  -4.25c   +55.2489
iter: 133 14:47:36  -804.759885c -7.29  -4.49c   +55.2570
iter: 134 14:49:44  -804.760095c -7.31  -4.55c   +55.2627
iter: 135 14:51:53  -804.760054c -7.53c -4.53c   +55.2663

Converged after 135 iterations.

Dipole moment: (29.442801, 17.559877, 7.206929) |e|*Ang

Total magnetic moment: (0.000000, 0.000000, 55.266290)
Local magnetic moments:
   0 Cr ( 0.000000,  0.000000, -2.259212)
   1 Al ( 0.000000,  0.000000, -0.029130)
   2 Cr ( 0.000000,  0.000000,  1.807382)
   3 Co ( 0.000000,  0.000000,  1.342820)
   4 Al ( 0.000000,  0.000000, -0.024438)
   5 Ni ( 0.000000,  0.000000,  0.257292)
   6 Co ( 0.000000,  0.000000,  1.231677)
   7 Al ( 0.000000,  0.000000, -0.031249)
   8 Al ( 0.000000,  0.000000, -0.042492)
   9 Fe ( 0.000000,  0.000000,  2.125012)
  10 Fe ( 0.000000,  0.000000,  2.111071)
  11 Fe ( 0.000000,  0.000000,  2.033535)
  12 Ni ( 0.000000,  0.000000,  0.278113)
  13 Cr ( 0.000000,  0.000000,  0.852273)
  14 Co ( 0.000000,  0.000000,  1.259420)
  15 Fe ( 0.000000,  0.000000,  2.212367)
  16 Ni ( 0.000000,  0.000000,  0.312956)
  17 Co ( 0.000000,  0.000000,  1.297611)
  18 Al ( 0.000000,  0.000000, -0.021416)
  19 Cr ( 0.000000,  0.000000,  0.739719)
  20 Co ( 0.000000,  0.000000,  0.926371)
  21 Al ( 0.000000,  0.000000, -0.002597)
  22 Cr ( 0.000000,  0.000000, -1.989023)
  23 Ni ( 0.000000,  0.000000,  0.046323)
  24 Cr ( 0.000000,  0.000000, -1.948341)
  25 Fe ( 0.000000,  0.000000,  2.127887)
  26 Fe ( 0.000000,  0.000000,  2.207039)
  27 Cr ( 0.000000,  0.000000, -1.751696)
  28 Fe ( 0.000000,  0.000000,  1.893172)
  29 Co ( 0.000000,  0.000000,  1.019600)
  30 Cr ( 0.000000,  0.000000,  1.328017)
  31 Fe ( 0.000000,  0.000000,  1.835694)
  32 Cr ( 0.000000,  0.000000, -1.722110)
  33 Co ( 0.000000,  0.000000,  0.984915)
  34 Ni ( 0.000000,  0.000000,  0.067191)
  35 Ni ( 0.000000,  0.000000,  0.014904)
  36 Fe ( 0.000000,  0.000000,  1.912180)
  37 Fe ( 0.000000,  0.000000,  1.907617)
  38 Cr ( 0.000000,  0.000000, -1.508152)
  39 Al ( 0.000000,  0.000000, -0.028131)
  40 Al ( 0.000000,  0.000000, -0.009278)
  41 Co ( 0.000000,  0.000000,  0.717676)
  42 Al ( 0.000000,  0.000000, -0.000536)
  43 Ni ( 0.000000,  0.000000,  0.052354)
  44 Cr ( 0.000000,  0.000000, -1.621909)
  45 Al ( 0.000000,  0.000000, -0.015761)
  46 Al ( 0.000000,  0.000000, -0.017547)
  47 Co ( 0.000000,  0.000000,  0.593297)
  48 Fe ( 0.000000,  0.000000,  2.144743)
  49 Ni ( 0.000000,  0.000000,  0.258483)
  50 Ni ( 0.000000,  0.000000,  0.411791)
  51 Ni ( 0.000000,  0.000000,  0.481225)
  52 Ni ( 0.000000,  0.000000,  0.406447)
  53 Co ( 0.000000,  0.000000,  1.413988)
  54 Ni ( 0.000000,  0.000000,  0.215548)
  55 Al ( 0.000000,  0.000000, -0.017712)
  56 Cr ( 0.000000,  0.000000,  1.650681)
  57 Cr ( 0.000000,  0.000000, -0.921894)
  58 Co ( 0.000000,  0.000000,  1.114014)
  59 Cr ( 0.000000,  0.000000, -1.211111)
[...]
  93 Co ( 0.000000,  0.000000,  0.966130)
  94 Fe ( 0.000000,  0.000000,  2.276162)
  95 Cr ( 0.000000,  0.000000, -0.403780)
  96 Cr ( 0.000000,  0.000000, -1.846771)
  97 Ni ( 0.000000,  0.000000,  0.053458)
  98 Ni ( 0.000000,  0.000000,  0.200986)
  99 Fe ( 0.000000,  0.000000,  1.905853)
 100 Al ( 0.000000,  0.000000, -0.035025)
 101 Cr ( 0.000000,  0.000000,  1.110040)
 102 Co ( 0.000000,  0.000000,  0.305805)
 103 Al ( 0.000000,  0.000000,  0.001153)
 104 Cr ( 0.000000,  0.000000, -0.190427)
 105 Al ( 0.000000,  0.000000, -0.015665)
 106 Fe ( 0.000000,  0.000000,  2.129974)
 107 Co ( 0.000000,  0.000000,  0.806963)

Energy contributions relative to reference atoms: (reference = -3235165.067515)

Kinetic:       +250.098375
Potential:     -241.203900
External:        +0.000000
XC:            -842.940005
Entropy (-ST):   -4.056832
Local:          +31.313893
Free energy:   -806.788470
Extrapolated:  -804.760054

Spin contamination: 27.192720 electrons
Showing only first 2 kpts
                      Up                     Down
 Kpt  Band  Eigenvalues  Occupancy  Eigenvalues  Occupancy
  0   454      8.99727    0.99491      9.88184    0.02737
  0   455      9.00900    0.99428      9.88741    0.02592
  0   456      9.01753    0.99377      9.90101    0.02270
  0   457      9.04262    0.99201      9.91871    0.01909

  1   454      8.99722    0.99491      9.86646    0.03177
  1   455      9.00037    0.99475      9.87313    0.02978
  1   456      9.01729    0.99379      9.88897    0.02553
  1   457      9.02465    0.99331      9.90884    0.02103

Fermi level: 9.52477

No gap

Forces in eV/Ang:
  0 Cr    0.56566   -0.66499   -0.46490
  1 Al   -0.24038    0.34872   -0.52431
  2 Cr   -0.56885   -0.07514   -1.02842
  3 Co    0.06931   -0.00384   -0.23953
  4 Al    0.09453    0.91743    0.42949
  5 Ni    0.22851   -0.58049    0.53293
  6 Co   -0.10057    0.09286    1.05160
  7 Al   -0.93288    0.32064   -0.36078
  8 Al   -0.62304   -0.19353    1.95882
  9 Fe    0.32104   -0.25661    0.78264
 10 Fe    0.15130   -0.36041    0.47214
 11 Fe    0.60470    0.15671    0.15795
 12 Ni    0.01752   -0.22701   -0.10845
 13 Cr   -0.08724   -0.30146   -0.14628
 14 Co    0.49286    0.09218   -0.36534
 15 Fe    0.56738   -0.07612    0.47185
 16 Ni   -0.35495   -0.05636    0.13633
 17 Co   -0.42544    0.44735    0.10540
 18 Al   -1.21701   -1.06103    0.40143
 19 Cr   -0.23686    0.48767   -0.71174
 20 Co    0.23114    0.33544   -0.01694
 21 Al    1.56172   -0.09135   -0.01393
 22 Cr   -0.61638   -0.32911    0.04890
 23 Ni   -0.03017   -0.15180   -0.08519
 24 Cr   -0.35089    0.72974    0.33826
 25 Fe   -0.73274    0.04457   -0.72113
 26 Fe    0.57648   -0.17820    0.17058
 27 Cr   -0.31534   -0.15027   -0.05525
 28 Fe   -0.16467    0.09979    0.24530
 29 Co    0.39849   -0.27695    0.40840
 30 Cr   -1.07609    0.95445   -0.44181
 31 Fe   -0.08395   -0.57370    0.50783
 32 Cr   -0.34875    0.18659   -0.69355
 33 Co   -0.33782    0.39101    0.47613
 34 Ni    0.21288    0.55442    0.05294
 35 Ni    0.26690    0.20986   -0.24660
 36 Fe   -0.32835   -0.12921   -0.15145
 37 Fe    0.14978    0.70296   -0.30131
 38 Cr    0.29334    0.14530    0.00591
 39 Al    1.17204    1.25967    0.64144
 40 Al    2.38395    0.88913   -0.51947
 41 Co   -0.03811    0.17964   -0.47661
 42 Al   -1.07728    1.50051   -1.23434
 43 Ni   -0.17449   -0.50454    0.04051
 44 Cr   -0.72862    0.47686   -1.91101
 45 Al   -0.23034    1.12310   -0.06802
 46 Al    0.16725   -0.38671   -0.49935
 47 Co   -0.31043    0.08233   -0.19842
 48 Fe   -0.15855    0.42687    0.46420
 49 Ni    0.28423   -0.13542    0.56751
 50 Ni    0.46038    0.07803    0.68934
 51 Ni    0.32487   -0.19011   -0.04423
 52 Ni   -0.17375    0.03688   -0.02310
 53 Co   -0.64894    0.14325    0.35164
 54 Ni   -0.04023   -0.59120   -0.19728
 55 Al   -1.34855    0.59420    0.97090
 56 Cr    1.32023   -0.44792   -0.05063
 57 Cr    0.18952   -0.31025    0.51020
 58 Co    0.12886    0.39481   -0.23876
 59 Cr    0.47164   -0.32670    0.67375
[...]
 93 Co   -0.01609    0.22598   -0.21032
 94 Fe   -0.32315   -0.17725    0.04306
 95 Cr   -0.25856    0.01197   -0.39926
 96 Cr    0.04455    0.38935    0.44288
 97 Ni   -0.54038   -0.26070    0.01761
 98 Ni   -0.43366   -0.17408   -0.08720
 99 Fe   -0.72307    0.05095   -0.02352
100 Al   -0.54751   -0.78912   -0.51539
101 Cr    0.12900   -0.58804    0.21378
102 Co   -0.20602   -0.54839    0.09218
103 Al   -0.33778   -0.64763    0.99153
104 Cr    0.57326   -1.25430    0.72215
105 Al   -0.17079   -1.52208   -0.40491
106 Fe    0.67270    0.37371   -0.60562
107 Co    0.71440   -0.91132    0.50897

Date: Sat Apr 15 14:52:13 2023