User:   c.zeng@d0139
Date:   Sat Apr  8 09:36:00 2023
Arch:   x86_64
Pid:    18246
CWD:    /home/c.zeng/projects/hea-corrosion/hea-mlp/data-curation/volume/dft-jobs/41
Python: 3.8.1
gpaw:   /home/c.zeng/usr/installs/gpaw/source/gpaw-22.8.0/gpaw
_gpaw:  /home/c.zeng/usr/installs/gpaw/source/gpaw-22.8.0/
        _gpaw.cpython-38-x86_64-linux-gnu.so
ase:    /home/c.zeng/.local/lib/python3.8/site-packages/ase-3.22.1-py3.8.egg/ase (version 3.22.1)
numpy:  /shared/centos7/python/3.8.1/lib/python3.8/site-packages/numpy (version 1.17.4)
scipy:  /shared/centos7/python/3.8.1/lib/python3.8/site-packages/scipy (version 1.4.1)
units:  Angstrom and eV
cores: 64
OpenMP: False
OMP_NUM_THREADS: 1

Input parameters:
  convergence: {energy: 0.0001}
  kpts: [2 2 2]
  maxiter: 666
  mode: {ecut: 350.0,
         name: pw}
  occupations: {fixmagmom: False,
                name: fermi-dirac,
                width: 0.1}
  spinpol: True
  xc: PBE

System changes: positions, numbers, cell, pbc, initial_charges, initial_magmoms

Initialize ...

species:
  Cr:
    name: Chromium
    id: 33f258bda2ca9f93018e70263a35547b
    Z: 24.0
    valence: 6
    core: 18
    charge: 0.0
    file: /home/c.zeng/usr/data/gpaw-setups-0.9.20000/Cr.PBE.gz
    compensation charges: {type: gauss,
                           rc: 0.35,
                           lmax: 2}
    cutoffs: {filter: 2.14,
              core: 3.04}
    valence states:
      #              energy  rcut
      - 4s(1.00)    -4.007   1.164
      - 4p(0.00)    -0.989   1.217
      - 3d(5.00)    -2.913   1.111
      -  s          23.205   1.164
      -  p          26.223   1.217
      -  d          24.299   1.111

    # Using partial waves for Cr as LCAO basis

  Al:
    name: Aluminium
    id: 0292cae29f5d6237e50f6abdd43a7bdd
    Z: 13.0
    valence: 3
    core: 10
    charge: 0.0
    file: /home/c.zeng/usr/data/gpaw-setups-0.9.20000/Al.PBE.gz
    compensation charges: {type: gauss,
                           rc: 0.34,
                           lmax: 2}
    cutoffs: {filter: 1.91,
              core: 2.36}
    valence states:
      #              energy  rcut
      - 3s(2.00)    -7.753   1.085
      - 3p(1.00)    -2.712   1.085
      -  s          19.459   1.085
      -  p          24.499   1.085
      -  d           0.000   1.085

[...]

  Co:
    name: Cobalt
    id: 339d20d5b0b93d2de9531a1bee871d91
    Z: 27.0
    valence: 9
    core: 18
    charge: 0.0
    file: /home/c.zeng/usr/data/gpaw-setups-0.9.20000/Co.PBE.gz
    compensation charges: {type: gauss,
                           rc: 0.32,
                           lmax: 2}
    cutoffs: {filter: 1.87,
              core: 2.55}
    valence states:
      #              energy  rcut
      - 4s(2.00)    -5.469   1.005
      - 4p(0.00)    -1.277   1.058
      - 3d(7.00)    -8.205   1.005
      -  s          21.742   1.005
      -  p          25.934   1.058
      -  d          19.007   1.005

[...]

  Fe:
    name: Iron
    id: 37abbd8d6c3c35915a9b583b742da910
    Z: 26.0
    valence: 8
    core: 18
    charge: 0.0
    file: /home/c.zeng/usr/data/gpaw-setups-0.9.20000/Fe.PBE.gz
    compensation charges: {type: gauss,
                           rc: 0.33,
                           lmax: 2}
    cutoffs: {filter: 2.06,
              core: 2.67}
    valence states:
      #              energy  rcut
      - 4s(2.00)    -5.291   1.164
      - 4p(0.00)    -1.326   1.058
      - 3d(6.00)    -7.505   1.058
      -  s          21.920   1.164
      -  p          25.885   1.058
      -  d          19.706   1.058

[...]

  Ni:
    name: Nickel
    id: 0d9f38a9d6e76a2886f07bb4381f212b
    Z: 28.0
    valence: 16
    core: 12
    charge: 0.0
    file: /home/c.zeng/usr/data/gpaw-setups-0.9.20000/Ni.PBE.gz
    compensation charges: {type: gauss,
                           rc: 0.36,
                           lmax: 2}
    cutoffs: {filter: 2.14,
              core: 1.98}
    valence states:
      #              energy  rcut
      - 4s(2.00)    -5.642   1.164
      - 3p(6.00)   -71.394   1.207
      - 4p(0.00)    -1.226   1.207
      - 3d(8.00)    -8.875   1.138
      -  s          21.570   1.164
      -  d          18.337   1.138

    # Using partial waves for Ni as LCAO basis

Reference energy: -3699400.456887  # eV

Spin-polarized calculation.
Magnetic moment: 143.500000

Convergence criteria:
 Maximum [total energy] change in last 3 cyles: 0.0001 eV / electron
 Maximum integral of absolute [dens]ity change: 0.0001 electrons / valence electron
 Maximum integral of absolute [eigenst]ate change: 4e-08 eV^2 / valence electron
 Maximum number of scf [iter]ations: 666
 (Square brackets indicate name in SCF output, whereas a 'c' in
 the SCF output indicates the quantity has converged.)

Symmetries present (total): 1

  ( 1  0  0)
  ( 0  1  0)
  ( 0  0  1)

8 k-points: 2 x 2 x 2 Monkhorst-Pack grid
4 k-points in the irreducible part of the Brillouin zone
       k-points in crystal coordinates                weights
   0:     0.25000000   -0.25000000   -0.25000000          2/8
   1:     0.25000000   -0.25000000    0.25000000          2/8
   2:     0.25000000    0.25000000   -0.25000000          2/8
   3:     0.25000000    0.25000000    0.25000000          2/8

Wave functions: Plane wave expansion
  Cutoff energy: 350.000 eV
  Number of coefficients (min, max): 18052, 18052
  Pulay-stress correction: 0.000000 eV/Ang^3 (de/decut=0.000000)
  Using FFTW library
  ScaLapack parameters: grid=1x1, blocksize=None
  Wavefunction extrapolation:
    Improved wavefunction reuse through dual PAW basis

Occupation numbers: Fermi-Dirac:
  width: 0.1000  # eV

Eigensolver
   Davidson(niter=2)

Densities:
  Coarse grid: 48*48*48 grid
  Fine grid: 96*96*96 grid
  Total Charge: 0.000000

Density mixing:
  Method: difference
  Backend: pulay
  Linear mixing parameter: 0.05
  old densities: 5
  Damping of long wavelength oscillations: 50

Hamiltonian:
  XC and Coulomb potentials evaluated on a 96*96*96 grid
  Using the PBE Exchange-Correlation functional
  External potential:
    NoExternalPotential

XC parameters: PBE with 2 nearest neighbor stencil

Total number of cores used: 64
Parallelization over k-points: 4
Domain decomposition: 4 x 2 x 2

Number of atoms: 108
Number of atomic orbitals: 1025
Number of bands in calculation: 703
Number of valence electrons: 1020
Bands to converge: occupied

... initialized

Initializing position-dependent things.

Density initialized from atomic densities
Creating initial wave functions:
  703 bands from LCAO basis set

        Cr------------------------.
       /|  Ni                Cr   |
      Cr|   Fe         Al         |
     / Ni      Cr       Fe        |
    /   CFe      Co       Cr      |
   /o   | NiFe     CrFe    CrNi   |
  /  NiCo  FeCo     CrNiFe        |
 *    FeCo  CrNiNi     CoCo       |
 |     NiCoCr  CoNi Co  AlCrFe    |
 | Ni   FeFeCoAl CoNiNiCo  Ni     |
 |   FeCr  NiCoCo   FeFeCr   Fe   |
 |    CrNi  CrCoFeCr NiNiNi   Ni  |
 |     NiNiNi  Co CrCo  CrFeCo    |
 |      .-FeCrNi-FeCoCoFe--CrFe---.
 |   CoFe    FeAl   CrNiNi       /
 |    / Fe    CoCr       Co     /
 |   /            Fe           /
 |Al/      Cr       Co        /
 |/            Fe           /
 *----------------Cr-------*

Positions:
   0 Cr     0.005380   -0.017200   10.640026    ( 0.0000,  0.0000,  0.0000)
   1 Al    10.672554    1.802194    1.785962    ( 0.0000,  0.0000,  0.0000)
   2 Cr     1.795834   10.626580    1.781715    ( 0.0000,  0.0000,  0.0000)
   3 Co     1.781256    1.796591   10.644583    ( 0.0000,  0.0000,  2.1000)
   4 Fe     3.523817   -0.014790    0.017222    ( 0.0000,  0.0000,  2.0000)
   5 Cr     3.522653    1.781886    1.746605    ( 0.0000,  0.0000,  0.0000)
   6 Ni     5.320782   10.642513    1.763200    ( 0.0000,  0.0000,  1.5000)
   7 Fe     5.342349    1.827625    0.006958    ( 0.0000,  0.0000,  2.0000)
   8 Cr     7.144724    0.017571    0.012275    ( 0.0000,  0.0000,  0.0000)
   9 Co     7.143423    1.797861    1.764480    ( 0.0000,  0.0000,  2.1000)
  10 Ni     8.891735   10.651306    1.787520    ( 0.0000,  0.0000,  1.5000)
  11 Fe     8.888075    1.804200   10.642609    ( 0.0000,  0.0000,  2.0000)
  12 Co     0.008747    3.582319   10.650197    ( 0.0000,  0.0000,  2.1000)
  13 Co     0.019811    5.333171    1.789708    ( 0.0000,  0.0000,  2.1000)
  14 Fe     1.778738    3.601624    1.760009    ( 0.0000,  0.0000,  2.0000)
  15 Fe     1.791682    5.343128   -0.017658    ( 0.0000,  0.0000,  2.0000)
  16 Fe     3.543463    3.589490   -0.015809    ( 0.0000,  0.0000,  2.0000)
  17 Fe     3.527306    5.358271    1.766593    ( 0.0000,  0.0000,  2.0000)
  18 Cr     5.336330    3.605733    1.755772    ( 0.0000,  0.0000,  0.0000)
  19 Co     5.299950    5.323087   -0.012863    ( 0.0000,  0.0000,  2.1000)
  20 Fe     7.122186    3.584165   10.659235    ( 0.0000,  0.0000,  2.0000)
  21 Ni     7.119614    5.314592    1.805758    ( 0.0000,  0.0000,  1.5000)
  22 Co     8.891703    3.591465    1.772495    ( 0.0000,  0.0000,  2.1000)
  23 Cr     8.924807    5.301733   -0.003071    ( 0.0000,  0.0000,  0.0000)
  24 Cr     0.024232    7.096051   -0.007653    ( 0.0000,  0.0000,  0.0000)
  25 Ni     0.020080    8.870659    1.787403    ( 0.0000,  0.0000,  1.5000)
  26 Fe     1.785450    7.104503    1.777073    ( 0.0000,  0.0000,  2.0000)
  27 Ni     1.780680    8.867244   10.659299    ( 0.0000,  0.0000,  1.5000)
  28 Co     3.548308    7.097524    0.009367    ( 0.0000,  0.0000,  2.1000)
  29 Co     3.541158    8.858600    1.788652    ( 0.0000,  0.0000,  2.1000)
  30 Co     5.294401    7.099316    1.788844    ( 0.0000,  0.0000,  2.1000)
  31 Cr     5.303184    8.873348    0.030264    ( 0.0000,  0.0000,  0.0000)
  32 Al     7.105783    7.087972   10.645682    ( 0.0000,  0.0000,  0.0000)
  33 Cr     7.110575    8.900689    1.809675    ( 0.0000,  0.0000,  0.0000)
  34 Cr     8.939555    7.092657    1.799249    ( 0.0000,  0.0000,  0.0000)
  35 Cr     8.920133    8.914092   10.665574    ( 0.0000,  0.0000,  0.0000)
  36 Fe    10.679597   10.659641    3.583386    ( 0.0000,  0.0000,  2.0000)
  37 Co    10.670249    1.797125    5.339777    ( 0.0000,  0.0000,  2.1000)
  38 Cr     1.769304   10.650261    5.343566    ( 0.0000,  0.0000,  0.0000)
  39 Fe     1.791245    1.785653    3.584539    ( 0.0000,  0.0000,  2.0000)
  40 Co     3.529195   10.627658    3.565202    ( 0.0000,  0.0000,  2.1000)
  41 Ni     3.535075    1.793369    5.367385    ( 0.0000,  0.0000,  1.5000)
  42 Ni     5.312095    0.002266    5.365891    ( 0.0000,  0.0000,  1.5000)
  43 Al     5.332787    1.768226    3.580942    ( 0.0000,  0.0000,  0.0000)
  44 Fe     7.137574   10.674475    3.562726    ( 0.0000,  0.0000,  2.0000)
  45 Co     7.137799    1.794361    5.358666    ( 0.0000,  0.0000,  2.1000)
  46 Fe     8.926194   10.673941    5.346628    ( 0.0000,  0.0000,  2.0000)
  47 Ni     8.884116    1.779879    3.581358    ( 0.0000,  0.0000,  1.5000)
  48 Fe    -0.009895    3.573365    3.580547    ( 0.0000,  0.0000,  2.0000)
  49 Fe    10.685787    5.329650    5.338838    ( 0.0000,  0.0000,  2.0000)
  50 Ni     1.783487    3.583151    5.348837    ( 0.0000,  0.0000,  1.5000)
  51 Ni     1.766796    5.340119    3.566119    ( 0.0000,  0.0000,  1.5000)
  52 Cr     3.522002    3.604996    3.575137    ( 0.0000,  0.0000,  0.0000)
  53 Co     3.543357    5.347386    5.348859    ( 0.0000,  0.0000,  2.1000)
  54 Fe     5.333961    3.591123    5.361238    ( 0.0000,  0.0000,  2.0000)
  55 Cr     5.335925    5.345807    3.561040    ( 0.0000,  0.0000,  0.0000)
  56 Co     7.143252    3.570175    3.571978    ( 0.0000,  0.0000,  2.1000)
  57 Fe     7.120169    5.347215    5.345572    ( 0.0000,  0.0000,  2.0000)
  58 Ni     8.888587    3.571284    5.341890    ( 0.0000,  0.0000,  1.5000)
  59 Fe     8.904488    5.339222    3.577058    ( 0.0000,  0.0000,  2.0000)
[...]
  93 Ni     7.108078    5.307570    8.854256    ( 0.0000,  0.0000,  1.5000)
  94 Co     8.907081    3.561210    8.890999    ( 0.0000,  0.0000,  2.1000)
  95 Cr     8.917795    5.336778    7.100480    ( 0.0000,  0.0000,  0.0000)
  96 Fe     0.016443    7.102603    7.111866    ( 0.0000,  0.0000,  2.0000)
  97 Ni     0.000764    8.894766    8.884265    ( 0.0000,  0.0000,  1.5000)
  98 Ni     1.771822    7.105111    8.888374    ( 0.0000,  0.0000,  1.5000)
  99 Fe     1.774757    8.851514    7.108804    ( 0.0000,  0.0000,  2.0000)
 100 Ni     3.530422    7.087300    7.104887    ( 0.0000,  0.0000,  1.5000)
 101 Cr     3.524905    8.851119    8.894456    ( 0.0000,  0.0000,  0.0000)
 102 Cr     5.310281    7.102699    8.870562    ( 0.0000,  0.0000,  0.0000)
 103 Cr     5.291072    8.850628    7.103916    ( 0.0000,  0.0000,  0.0000)
 104 Co     7.128834    7.083095    7.142089    ( 0.0000,  0.0000,  2.1000)
 105 Fe     7.143081    8.901767    8.854438    ( 0.0000,  0.0000,  2.0000)
 106 Cr     8.926258    7.115441    8.862612    ( 0.0000,  0.0000,  0.0000)
 107 Ni     8.932629    8.877051    7.127266    ( 0.0000,  0.0000,  1.5000)

Unit cell:
           periodic     x           y           z      points  spacing
  1. axis:    yes   10.671700    0.000000    0.000000    48     0.2223
  2. axis:    yes    0.000000   10.671700    0.000000    48     0.2223
  3. axis:    yes    0.000000    0.000000   10.671700    48     0.2223

  Lengths:  10.671700  10.671700  10.671700
  Angles:   90.000000  90.000000  90.000000

Effective grid spacing dv^(1/3) = 0.2223

     iter     time        total  log10-change:  magmom
                         energy  eigst   dens
iter:   1 09:39:33 -1058.552989                  +143.7773
iter:   2 09:41:29  -939.116031  -0.23  -1.20    +81.6425
iter:   3 09:43:25  -922.094954  -0.90  -1.22    +69.7676
iter:   4 09:45:19  -902.336975  -1.30  -1.29    +65.6110
iter:   5 09:47:15  -887.718811  -1.58  -1.32    +62.5156
iter:   6 09:49:13  -886.792193  -1.27  -1.39    +63.0100
iter:   7 09:51:10  -883.361653  -1.28  -1.48    +62.1075
iter:   8 09:53:10  -870.859506  -1.76  -1.57    +61.7762
iter:   9 09:55:08  -869.165980  -2.18  -1.76    +63.0169
iter:  10 09:57:06  -869.258232  -2.63  -1.85    +64.1199
iter:  11 09:59:01  -869.857983  -2.59  -1.86    +65.4158
iter:  12 10:01:00  -871.058181  -2.46  -1.91    +66.6033
iter:  13 10:02:59  -870.995878  -2.48  -1.94    +67.1002
iter:  14 10:04:56  -870.847349  -2.56  -2.02    +67.9613
iter:  15 10:06:53  -870.923247  -2.81  -2.05    +68.6094
iter:  16 10:08:50  -870.464499  -2.98  -2.09    +68.8647
iter:  17 10:10:46  -870.539998  -3.23  -2.19    +69.4010
iter:  18 10:12:42  -870.393003  -3.28  -2.20    +69.7406
iter:  19 10:14:38  -870.644222  -3.13  -2.31    +70.0892
iter:  20 10:15:55  -870.428063  -3.23  -2.29    +70.1774
iter:  21 10:17:40  -870.484579  -3.43  -2.41    +70.5059
iter:  22 10:19:33  -870.451578c -3.49  -2.41    +70.6027
iter:  23 10:21:28  -870.433857c -3.46  -2.45    +70.5418
iter:  24 10:23:24  -870.373829c -3.68  -2.51    +70.6641
iter:  25 10:25:13  -870.409618c -3.66  -2.57    +70.6743
iter:  26 10:27:09  -870.415282c -3.77  -2.60    +70.6778
iter:  27 10:29:06  -870.380066c -3.86  -2.59    +70.6969
iter:  28 10:30:55  -870.420032c -3.91  -2.67    +70.7560
iter:  29 10:32:50  -870.414792c -4.04  -2.67    +70.8096
iter:  30 10:34:44  -870.414741c -4.11  -2.69    +70.7128
iter:  31 10:36:35  -870.394120c -4.38  -2.72    +70.7171
iter:  32 10:38:31  -870.475862c -3.98  -2.80    +70.6978
iter:  33 10:40:27  -870.418681c -4.17  -2.71    +70.7060
iter:  34 10:42:16  -870.421445c -4.41  -2.83    +70.6584
iter:  35 10:44:13  -870.438052c -4.42  -2.85    +70.6154
iter:  36 10:46:09  -870.428896c -4.41  -2.86    +70.6448
iter:  37 10:48:07  -870.426255c -4.60  -2.93    +70.6068
iter:  38 10:50:03  -870.445645c -4.59  -2.98    +70.5742
iter:  39 10:51:52  -870.446186c -4.51  -2.97    +70.5494
iter:  40 10:53:49  -870.453687c -4.51  -2.99    +70.5322
iter:  41 10:55:38  -870.453308c -4.61  -2.99    +70.5487
iter:  42 10:57:30  -870.449052c -4.71  -3.04    +70.4451
iter:  43 10:59:28  -870.452147c -4.80  -3.16    +70.4417
iter:  44 11:01:21  -870.454165c -5.00  -3.13    +70.4173
iter:  45 11:03:12  -870.460587c -4.97  -3.21    +70.3874
iter:  46 11:05:08  -870.461397c -4.90  -3.19    +70.3490
iter:  47 11:06:57  -870.462740c -5.17  -3.18    +70.2935
iter:  48 11:08:53  -870.462795c -5.24  -3.27    +70.2793
iter:  49 11:10:50  -870.467771c -5.19  -3.31    +70.2260
iter:  50 11:12:39  -870.466868c -5.47  -3.29    +70.1994
iter:  51 11:14:36  -870.470769c -5.32  -3.36    +70.1262
iter:  52 11:16:33  -870.473886c -5.25  -3.34    +70.1203
iter:  53 11:18:28  -870.473749c -5.38  -3.33    +70.0941
iter:  54 11:20:17  -870.476474c -5.32  -3.39    +70.0192
iter:  55 11:22:14  -870.478125c -5.40  -3.42    +70.0122
iter:  56 11:24:12  -870.478029c -5.62  -3.39    +69.9759
iter:  57 11:26:01  -870.479474c -5.79  -3.47    +69.9480
iter:  58 11:27:55  -870.480734c -5.91  -3.48    +69.9080
iter:  59 11:29:50  -870.483750c -5.62  -3.48    +69.8412
iter:  60 11:31:39  -870.488100c -5.30  -3.44    +69.7091
iter:  61 11:33:36  -870.491512c -5.48  -3.42    +69.6459
iter:  62 11:35:32  -870.491920c -5.98  -3.37    +69.6553
iter:  63 11:37:23  -870.493049c -5.57  -3.38    +69.6119
iter:  64 11:39:17  -870.493563c -5.47  -3.42    +69.5765
iter:  65 11:41:14  -870.496078c -5.27  -3.48    +69.5515
iter:  66 11:43:10  -870.494093c -5.19  -3.53    +69.5486
iter:  67 11:45:01  -870.493262c -5.76  -3.63    +69.5314
iter:  68 11:46:55  -870.493735c -6.07  -3.93    +69.4851
iter:  69 11:48:49  -870.494351c -6.21  -3.91    +69.4468
iter:  70 11:50:40  -870.494803c -6.48  -3.94    +69.4223
iter:  71 11:52:36  -870.495825c -6.19  -3.97    +69.3735
iter:  72 11:54:24  -870.496108c -6.45  -3.89    +69.3531
iter:  73 11:56:19  -870.496553c -6.49  -3.86    +69.3209
iter:  74 11:58:16  -870.498447c -5.48  -3.85    +69.1780
iter:  75 12:00:07  -870.501185c -5.11  -3.75    +68.9917
iter:  76 12:02:01  -870.501034c -6.21  -3.62    +69.0208
iter:  77 12:03:55  -870.501742c -6.33  -3.62    +68.9964
iter:  78 12:05:44  -870.502247c -6.46  -3.59    +68.9839
iter:  79 12:07:41  -870.502218c -5.59  -3.59    +68.9756
iter:  80 12:09:38  -870.500981c -5.93  -3.56    +68.9693
iter:  81 12:11:27  -870.501728c -5.91  -3.71    +68.9410
iter:  82 12:13:22  -870.501267c -6.15  -3.71    +68.9353
iter:  83 12:15:19  -870.501272c -6.08  -3.79    +68.9183
iter:  84 12:17:14  -870.501306c -6.52  -3.73    +68.8957
iter:  85 12:19:05  -870.501333c -6.52  -3.85    +68.8798
iter:  86 12:21:04  -870.501956c -6.18  -3.85    +68.8622
iter:  87 12:22:54  -870.501693c -6.19  -3.87    +68.8573
iter:  88 12:24:48  -870.502036c -6.10  -3.85    +68.8441
iter:  89 12:26:44  -870.502310c -6.20  -3.89    +68.8397
iter:  90 12:28:35  -870.501645c -6.47  -3.97    +68.8362
iter:  91 12:30:28  -870.502025c -6.58  -4.08c   +68.8271
iter:  92 12:32:25  -870.501797c -6.88  -4.01c   +68.8261
iter:  93 12:34:17  -870.501987c -6.96  -4.19c   +68.8174
iter:  94 12:36:12  -870.501895c -6.94  -4.15c   +68.8144
iter:  95 12:38:07  -870.501852c -7.03  -4.18c   +68.8078
iter:  96 12:40:05  -870.502191c -6.97  -4.22c   +68.8028
iter:  97 12:42:00  -870.502034c -6.91  -4.20c   +68.8011
iter:  98 12:43:49  -870.502111c -6.95  -4.21c   +68.7924
iter:  99 12:45:20  -870.502011c -7.06  -4.24c   +68.7887
iter: 100 12:46:56  -870.502152c -7.18  -4.26c   +68.7852
iter: 101 12:48:56  -870.502236c -7.21  -4.31c   +68.7830
iter: 102 12:50:54  -870.502123c -7.46c -4.35c   +68.7784

Converged after 102 iterations.

Dipole moment: (-9.695685, 8.048803, 8.138410) |e|*Ang

Total magnetic moment: (0.000000, 0.000000, 68.778387)
Local magnetic moments:
   0 Cr ( 0.000000,  0.000000, -0.948192)
   1 Al ( 0.000000,  0.000000, -0.041406)
   2 Cr ( 0.000000,  0.000000, -1.113543)
   3 Co ( 0.000000,  0.000000,  0.732406)
   4 Fe ( 0.000000,  0.000000,  1.771022)
   5 Cr ( 0.000000,  0.000000, -0.811558)
   6 Ni ( 0.000000,  0.000000,  0.191006)
   7 Fe ( 0.000000,  0.000000,  2.076151)
   8 Cr ( 0.000000,  0.000000, -1.168538)
   9 Co ( 0.000000,  0.000000,  1.222363)
  10 Ni ( 0.000000,  0.000000,  0.176233)
  11 Fe ( 0.000000,  0.000000,  2.245600)
  12 Co ( 0.000000,  0.000000,  1.364989)
  13 Co ( 0.000000,  0.000000,  1.002369)
  14 Fe ( 0.000000,  0.000000,  2.001793)
  15 Fe ( 0.000000,  0.000000,  2.272380)
  16 Fe ( 0.000000,  0.000000,  2.036468)
  17 Fe ( 0.000000,  0.000000,  1.898022)
  18 Cr ( 0.000000,  0.000000, -1.123765)
  19 Co ( 0.000000,  0.000000,  1.268194)
  20 Fe ( 0.000000,  0.000000,  2.282626)
  21 Ni ( 0.000000,  0.000000,  0.255166)
  22 Co ( 0.000000,  0.000000,  1.279704)
  23 Cr ( 0.000000,  0.000000, -0.934104)
  24 Cr ( 0.000000,  0.000000, -0.894844)
  25 Ni ( 0.000000,  0.000000,  0.172365)
  26 Fe ( 0.000000,  0.000000,  2.278872)
  27 Ni ( 0.000000,  0.000000,  0.220216)
  28 Co ( 0.000000,  0.000000,  1.173658)
  29 Co ( 0.000000,  0.000000,  1.150918)
  30 Co ( 0.000000,  0.000000,  1.136008)
  31 Cr ( 0.000000,  0.000000,  1.029381)
  32 Al ( 0.000000,  0.000000, -0.010864)
  33 Cr ( 0.000000,  0.000000, -1.485382)
  34 Cr ( 0.000000,  0.000000,  0.812296)
  35 Cr ( 0.000000,  0.000000,  1.003831)
  36 Fe ( 0.000000,  0.000000,  2.256220)
  37 Co ( 0.000000,  0.000000,  0.966005)
  38 Cr ( 0.000000,  0.000000, -1.216434)
  39 Fe ( 0.000000,  0.000000,  2.022327)
  40 Co ( 0.000000,  0.000000,  1.085726)
  41 Ni ( 0.000000,  0.000000,  0.154564)
  42 Ni ( 0.000000,  0.000000,  0.264068)
  43 Al ( 0.000000,  0.000000, -0.022423)
  44 Fe ( 0.000000,  0.000000,  2.333184)
  45 Co ( 0.000000,  0.000000,  1.177635)
  46 Fe ( 0.000000,  0.000000,  1.959736)
  47 Ni ( 0.000000,  0.000000,  0.494797)
  48 Fe ( 0.000000,  0.000000,  2.373383)
  49 Fe ( 0.000000,  0.000000,  2.235313)
  50 Ni ( 0.000000,  0.000000,  0.386434)
  51 Ni ( 0.000000,  0.000000,  0.403454)
  52 Cr ( 0.000000,  0.000000, -0.933673)
  53 Co ( 0.000000,  0.000000,  1.376638)
  54 Fe ( 0.000000,  0.000000,  2.208415)
  55 Cr ( 0.000000,  0.000000, -1.137608)
  56 Co ( 0.000000,  0.000000,  1.342314)
  57 Fe ( 0.000000,  0.000000,  2.309948)
  58 Ni ( 0.000000,  0.000000,  0.358304)
  59 Fe ( 0.000000,  0.000000,  2.173805)
[...]
  93 Ni ( 0.000000,  0.000000,  0.102776)
  94 Co ( 0.000000,  0.000000,  1.171956)
  95 Cr ( 0.000000,  0.000000, -1.802396)
  96 Fe ( 0.000000,  0.000000,  2.223317)
  97 Ni ( 0.000000,  0.000000,  0.160371)
  98 Ni ( 0.000000,  0.000000,  0.384697)
  99 Fe ( 0.000000,  0.000000,  1.770569)
 100 Ni ( 0.000000,  0.000000,  0.385391)
 101 Cr ( 0.000000,  0.000000, -1.166757)
 102 Cr ( 0.000000,  0.000000, -1.049373)
 103 Cr ( 0.000000,  0.000000,  1.106084)
 104 Co ( 0.000000,  0.000000,  0.893073)
 105 Fe ( 0.000000,  0.000000,  1.575849)
 106 Cr ( 0.000000,  0.000000, -0.620963)
 107 Ni ( 0.000000,  0.000000,  0.146139)

Energy contributions relative to reference atoms: (reference = -3699400.456887)

Kinetic:       +156.752059
Potential:     -205.201614
External:        +0.000000
XC:            -857.666858
Entropy (-ST):   -4.587725
Local:          +37.908153
Free energy:   -872.795985
Extrapolated:  -870.502123

Spin contamination: 27.473487 electrons
Showing only first 2 kpts
                      Up                     Down
 Kpt  Band  Eigenvalues  Occupancy  Eigenvalues  Occupancy
  0   508      9.61598    0.99556     10.56400    0.01681
  0   509      9.62663    0.99506     10.58105    0.01421
  0   510      9.64124    0.99428     10.58858    0.01320
  0   511      9.65724    0.99330     10.59386    0.01253

  1   508      9.61339    0.99567     10.56012    0.01747
  1   509      9.63086    0.99485     10.57054    0.01577
  1   510      9.64197    0.99424     10.58629    0.01350
  1   511      9.65208    0.99364     10.59111    0.01287

Fermi level: 10.15713

No gap

Forces in eV/Ang:
  0 Cr    0.08089   -0.17610   -0.60522
  1 Al   -0.29451    0.23379    0.02077
  2 Cr    0.51804   -0.25992   -0.01418
  3 Co    0.32877   -0.06716    0.03701
  4 Fe   -0.16395    0.32968    0.09531
  5 Cr   -0.39961    0.10126   -0.36473
  6 Ni   -0.04907    0.43943   -0.00404
  7 Fe    0.00726   -0.34939    0.27324
  8 Cr    0.29674    0.00187   -0.00098
  9 Co    0.05684   -0.06810    0.02304
 10 Ni    0.06352    0.17832   -0.01650
 11 Fe   -0.16936   -0.33982    0.14234
 12 Co   -0.07563    0.19413   -0.13760
 13 Co   -0.04773   -0.09211   -0.03326
 14 Fe    0.29436   -0.08118    0.05710
 15 Fe   -0.34213    0.05429   -0.32152
 16 Fe    0.16734   -0.15666   -0.18983
 17 Fe    0.45300   -0.18677    0.53113
 18 Cr   -0.06955   -0.03034   -0.09793
 19 Co   -0.29163    0.01137    0.10287
 20 Fe   -0.08101    0.32737    0.06097
 21 Ni    0.01682    0.19828   -0.09088
 22 Co   -0.10020    0.00060    0.09569
 23 Cr    0.58578   -0.51086   -0.04976
 24 Cr   -0.13482    0.09494    0.14959
 25 Ni   -0.01590    0.27541   -0.11515
 26 Fe   -0.20529    0.09256    0.25153
 27 Ni   -0.13450    0.21799    0.10953
 28 Co    0.23304   -0.11751   -0.13739
 29 Co   -0.15346    0.28658   -0.02649
 30 Co    0.16013   -0.13697    0.08901
 31 Cr   -0.14316    0.13689    0.19424
 32 Al   -0.23900   -0.53648    0.43059
 33 Cr    0.00856    0.00982    0.55692
 34 Cr   -0.15990   -0.32033   -0.00469
 35 Cr    0.25064    0.28059    0.04659
 36 Fe    0.15231   -0.02570    0.10291
 37 Co    0.04431    0.03539    0.14656
 38 Cr    0.15948   -0.07903   -0.15041
 39 Fe    0.37336   -0.06107    0.12120
 40 Co   -0.17282    0.14380   -0.10157
 41 Ni    0.09565    0.12814   -0.14860
 42 Ni    0.14289   -0.01030    0.03194
 43 Al    0.19348   -0.39666    0.13889
 44 Fe    0.19398    0.13871   -0.27874
 45 Co   -0.04210    0.03231    0.01215
 46 Fe   -0.07519    0.14893    0.20910
 47 Ni   -0.05522    0.00921   -0.13696
 48 Fe    0.01600    0.01214    0.14933
 49 Fe   -0.03492   -0.13400    0.23397
 50 Ni    0.10013   -0.05456    0.08402
 51 Ni    0.37204   -0.09085   -0.10078
 52 Cr   -0.38188    0.08631   -0.19999
 53 Co   -0.03846   -0.20879   -0.26769
 54 Fe   -0.14822   -0.16140   -0.02955
 55 Cr   -0.15453   -0.07996   -0.16185
 56 Co   -0.07879    0.06756   -0.03694
 57 Fe   -0.03454    0.20208    0.15152
 58 Ni    0.02192   -0.17902    0.09994
 59 Fe   -0.07464   -0.00177   -0.31255
[...]
 93 Ni    0.20081    0.39627    0.34236
 94 Co    0.08543   -0.05986   -0.16809
 95 Cr   -0.16042   -0.19558    0.12152
 96 Fe   -0.17320   -0.02991    0.11059
 97 Ni    0.18933    0.07590    0.03647
 98 Ni    0.12851   -0.11011   -0.00332
 99 Fe    0.33170    0.43408    0.12714
100 Ni    0.13159    0.10207    0.11182
101 Cr   -0.63614    0.00204   -0.01060
102 Cr   -0.04771    0.04289   -0.58694
103 Cr   -0.44581   -0.02246    0.19197
104 Co   -0.23424   -0.09892    0.26491
105 Fe    0.06552   -0.04596   -0.18749
106 Cr   -0.00724    0.04173   -0.29287
107 Ni   -0.19537    0.22183   -0.05503

Date: Sat Apr  8 12:51:21 2023