User:   c.zeng@d0110
Date:   Sat Apr 15 12:25:42 2023
Arch:   x86_64
Pid:    80416
CWD:    /home/c.zeng/projects/hea-corrosion/hea-mlp/data-curation/bulk-mcmc/dft-jobs/35
Python: 3.8.1
gpaw:   /home/c.zeng/usr/installs/gpaw/source/gpaw-22.8.0/gpaw
_gpaw:  /home/c.zeng/usr/installs/gpaw/source/gpaw-22.8.0/
        _gpaw.cpython-38-x86_64-linux-gnu.so
ase:    /home/c.zeng/.local/lib/python3.8/site-packages/ase-3.22.1-py3.8.egg/ase (version 3.22.1)
numpy:  /shared/centos7/python/3.8.1/lib/python3.8/site-packages/numpy (version 1.17.4)
scipy:  /shared/centos7/python/3.8.1/lib/python3.8/site-packages/scipy (version 1.4.1)
units:  Angstrom and eV
cores: 30
OpenMP: False
OMP_NUM_THREADS: 1

Input parameters:
  convergence: {energy: 0.0001}
  kpts: [2 2 2]
  maxiter: 666
  mode: {ecut: 350.0,
         name: pw}
  occupations: {fixmagmom: False,
                name: fermi-dirac,
                width: 0.1}
  spinpol: True
  xc: PBE

System changes: positions, numbers, cell, pbc, initial_charges, initial_magmoms

Initialize ...

species:
  Co:
    name: Cobalt
    id: 339d20d5b0b93d2de9531a1bee871d91
    Z: 27.0
    valence: 9
    core: 18
    charge: 0.0
    file: /home/c.zeng/usr/data/gpaw-setups-0.9.20000/Co.PBE.gz
    compensation charges: {type: gauss,
                           rc: 0.32,
                           lmax: 2}
    cutoffs: {filter: 1.87,
              core: 2.55}
    valence states:
      #              energy  rcut
      - 4s(2.00)    -5.469   1.005
      - 4p(0.00)    -1.277   1.058
      - 3d(7.00)    -8.205   1.005
      -  s          21.742   1.005
      -  p          25.934   1.058
      -  d          19.007   1.005

    # Using partial waves for Co as LCAO basis

  Fe:
    name: Iron
    id: 37abbd8d6c3c35915a9b583b742da910
    Z: 26.0
    valence: 8
    core: 18
    charge: 0.0
    file: /home/c.zeng/usr/data/gpaw-setups-0.9.20000/Fe.PBE.gz
    compensation charges: {type: gauss,
                           rc: 0.33,
                           lmax: 2}
    cutoffs: {filter: 2.06,
              core: 2.67}
    valence states:
      #              energy  rcut
      - 4s(2.00)    -5.291   1.164
      - 4p(0.00)    -1.326   1.058
      - 3d(6.00)    -7.505   1.058
      -  s          21.920   1.164
      -  p          25.885   1.058
      -  d          19.706   1.058

[...]

  Ni:
    name: Nickel
    id: 0d9f38a9d6e76a2886f07bb4381f212b
    Z: 28.0
    valence: 16
    core: 12
    charge: 0.0
    file: /home/c.zeng/usr/data/gpaw-setups-0.9.20000/Ni.PBE.gz
    compensation charges: {type: gauss,
                           rc: 0.36,
                           lmax: 2}
    cutoffs: {filter: 2.14,
              core: 1.98}
    valence states:
      #              energy  rcut
      - 4s(2.00)    -5.642   1.164
      - 3p(6.00)   -71.394   1.207
      - 4p(0.00)    -1.226   1.207
      - 3d(8.00)    -8.875   1.138
      -  s          21.570   1.164
      -  d          18.337   1.138

[...]

  Cr:
    name: Chromium
    id: 33f258bda2ca9f93018e70263a35547b
    Z: 24.0
    valence: 6
    core: 18
    charge: 0.0
    file: /home/c.zeng/usr/data/gpaw-setups-0.9.20000/Cr.PBE.gz
    compensation charges: {type: gauss,
                           rc: 0.35,
                           lmax: 2}
    cutoffs: {filter: 2.14,
              core: 3.04}
    valence states:
      #              energy  rcut
      - 4s(1.00)    -4.007   1.164
      - 4p(0.00)    -0.989   1.217
      - 3d(5.00)    -2.913   1.111
      -  s          23.205   1.164
      -  p          26.223   1.217
      -  d          24.299   1.111

    # Using partial waves for Cr as LCAO basis

Reference energy: -3846758.590871  # eV

Spin-polarized calculation.
Magnetic moment: 151.200000

Convergence criteria:
 Maximum [total energy] change in last 3 cyles: 0.0001 eV / electron
 Maximum integral of absolute [dens]ity change: 0.0001 electrons / valence electron
 Maximum integral of absolute [eigenst]ate change: 4e-08 eV^2 / valence electron
 Maximum number of scf [iter]ations: 666
 (Square brackets indicate name in SCF output, whereas a 'c' in
 the SCF output indicates the quantity has converged.)

Symmetries present (total): 1

  ( 1  0  0)
  ( 0  1  0)
  ( 0  0  1)

8 k-points: 2 x 2 x 2 Monkhorst-Pack grid
4 k-points in the irreducible part of the Brillouin zone
       k-points in crystal coordinates                weights
   0:     0.25000000   -0.25000000   -0.25000000          2/8
   1:     0.25000000   -0.25000000    0.25000000          2/8
   2:     0.25000000    0.25000000   -0.25000000          2/8
   3:     0.25000000    0.25000000    0.25000000          2/8

Wave functions: Plane wave expansion
  Cutoff energy: 350.000 eV
  Number of coefficients (min, max): 17755, 17755
  Pulay-stress correction: 0.000000 eV/Ang^3 (de/decut=0.000000)
  Using FFTW library
  ScaLapack parameters: grid=1x1, blocksize=None
  Wavefunction extrapolation:
    Improved wavefunction reuse through dual PAW basis

Occupation numbers: Fermi-Dirac:
  width: 0.1000  # eV

Eigensolver
   Davidson(niter=2)

Densities:
  Coarse grid: 48*48*48 grid
  Fine grid: 96*96*96 grid
  Total Charge: 0.000000

Density mixing:
  Method: difference
  Backend: pulay
  Linear mixing parameter: 0.05
  old densities: 5
  Damping of long wavelength oscillations: 50

Hamiltonian:
  XC and Coulomb potentials evaluated on a 96*96*96 grid
  Using the PBE Exchange-Correlation functional
  External potential:
    NoExternalPotential

XC parameters: PBE with 2 nearest neighbor stencil

Total number of cores used: 30
Parallelization over k-points: 2
Domain decomposition: 5 x 3 x 1

Number of atoms: 108
Number of atomic orbitals: 1053
Number of bands in calculation: 727
Number of valence electrons: 1053
Bands to converge: occupied

... initialized

Initializing position-dependent things.

Density initialized from atomic densities
Creating initial wave functions:
  727 bands from LCAO basis set

       /|  Cr       Cr      Cr    |
      / |   CrFe     Ni           |
     /  |       Co      Fe       Fe
    /   |Ni      CFe       Co     Ni
   /    | Co       Cr       CFe   |
  /  CCo|  FeCr     CoNi          |
 *    CrCr    FeCr   FeCrCo       |
 |      |CoNi   FeFeCr  CoNiFe   Cr
 |      | CrCo     CoNiFeNiNiNi   |
 |    Co|  CoFeNi   CoCrFe   CrCo |
 |      Cr    CrNiNi NiNiNi     Cr|
 |      |FeFe  CoFeCr   FeCrFe   Ni
 |      .-FeCo-----NiNiFe--NiNi---Co
 |   Cro     Fe       Cr         /
 |    NiCo     Cor     CNie     /
 |   /    Co               Ni  /
 |  /      Fe       Fe    CrFe/
 | / Fe     Cr       NiNi    /
 |/            Co       Ni  /
 *--------Co------Co-------*

Positions:
   0 Co    -0.012479   -0.003723   10.616104    ( 0.0000,  0.0000,  2.1000)
   1 Fe    -0.011321    1.761305    1.763386    ( 0.0000,  0.0000,  2.1000)
   2 Fe     1.758365    0.001326    1.769011    ( 0.0000,  0.0000,  2.0000)
   3 Co     1.752686    1.779222   10.610436    ( 0.0000,  0.0000,  2.0000)
   4 Co     3.541196    0.004726   10.616104    ( 0.0000,  0.0000,  0.0000)
   5 Fe     3.534711    1.782438    1.778999    ( 0.0000,  0.0000,  0.0000)
   6 Ni     5.305717   10.600629    1.767950    ( 0.0000,  0.0000,  2.1000)
   7 Co     5.324780    1.765604   10.614618    ( 0.0000,  0.0000,  0.0000)
   8 Co     7.089121    0.014598   10.619926    ( 0.0000,  0.0000,  2.0000)
   9 Fe     7.085279    1.771219    1.773543    ( 0.0000,  0.0000,  1.5000)
  10 Ni     8.850554    0.011470    1.768756    ( 0.0000,  0.0000,  1.5000)
  11 Ni     8.842381    1.777333   10.615680    ( 0.0000,  0.0000,  2.1000)
  12 Fe    10.590535    3.538203   -0.001956    ( 0.0000,  0.0000,  0.0000)
  13 Cr    10.624277    5.310674    1.769786    ( 0.0000,  0.0000,  2.0000)
  14 Co     1.761379    3.535623    1.784572    ( 0.0000,  0.0000,  0.0000)
  15 Ni     1.770200    5.301408   10.611753    ( 0.0000,  0.0000,  2.0000)
  16 Cr     3.556003    3.551407   10.618333    ( 0.0000,  0.0000,  1.5000)
  17 Fe     3.539370    5.311290    1.775199    ( 0.0000,  0.0000,  2.1000)
  18 Cr     5.320142    3.545059    1.779678    ( 0.0000,  0.0000,  1.5000)
  19 Fe     5.306980    5.314654   10.602720    ( 0.0000,  0.0000,  0.0000)
  20 Ni     7.081585    3.529127   10.614725    ( 0.0000,  0.0000,  2.1000)
  21 Cr     7.069241    5.303361    1.781271    ( 0.0000,  0.0000,  1.5000)
  22 Fe     8.841447    3.542671    1.781600    ( 0.0000,  0.0000,  2.1000)
  23 Cr     8.850893    5.290379    0.000220    ( 0.0000,  0.0000,  0.0000)
  24 Ni     0.005868    7.083411   10.614937    ( 0.0000,  0.0000,  2.0000)
  25 Ni    10.601043    8.849694    1.772960    ( 0.0000,  0.0000,  2.1000)
  26 Fe     1.773713    7.072329    1.777184    ( 0.0000,  0.0000,  0.0000)
  27 Cr     1.755520    8.842943   10.608324    ( 0.0000,  0.0000,  0.0000)
  28 Fe     3.544009    7.063116   10.610489    ( 0.0000,  0.0000,  2.0000)
  29 Co     3.542225    8.826820    1.785580    ( 0.0000,  0.0000,  0.0000)
  30 Ni     5.309835    7.081776    1.776600    ( 0.0000,  0.0000,  2.1000)
  31 Cr     5.331945    8.840321   10.604673    ( 0.0000,  0.0000,  2.1000)
  32 Co     7.068434    7.069028   10.623110    ( 0.0000,  0.0000,  0.0000)
  33 Fe     7.083750    8.846796    1.774509    ( 0.0000,  0.0000,  1.5000)
  34 Ni     8.841404    7.058180    1.777173    ( 0.0000,  0.0000,  1.5000)
  35 Cr     8.835524    8.853600   10.611753    ( 0.0000,  0.0000,  0.0000)
  36 Ni    -0.009351   10.618864    3.531070    ( 0.0000,  0.0000,  2.0000)
  37 Fe    10.602508    1.764818    5.300452    ( 0.0000,  0.0000,  1.5000)
  38 Cr     1.756720    0.001379    5.295867    ( 0.0000,  0.0000,  0.0000)
  39 Co     1.766506    1.767154    3.539222    ( 0.0000,  0.0000,  2.0000)
  40 Co     3.539742    0.013881    3.542873    ( 0.0000,  0.0000,  2.0000)
  41 Fe     3.548944    1.788658    5.306237    ( 0.0000,  0.0000,  2.1000)
  42 Fe     5.320174   -0.004685    5.301386    ( 0.0000,  0.0000,  0.0000)
  43 Co     5.316862    1.765551    3.538935    ( 0.0000,  0.0000,  2.0000)
  44 Ni     7.081086   -0.000289    3.531325    ( 0.0000,  0.0000,  2.0000)
  45 Cr     7.072902    1.777407    5.300537    ( 0.0000,  0.0000,  2.0000)
  46 Fe     8.840544    0.012372    5.307851    ( 0.0000,  0.0000,  1.5000)
  47 Ni     8.833592    1.767928    3.534318    ( 0.0000,  0.0000,  2.1000)
  48 Ni    -0.004066    3.525285    3.545951    ( 0.0000,  0.0000,  0.0000)
  49 Co    -0.001689    5.317934    5.307787    ( 0.0000,  0.0000,  1.5000)
  50 Cr     1.769043    3.555101    5.297279    ( 0.0000,  0.0000,  2.0000)
  51 Fe     1.773692    5.305929    3.538266    ( 0.0000,  0.0000,  2.1000)
  52 Co     3.542746    3.537364    3.547575    ( 0.0000,  0.0000,  2.1000)
  53 Fe     3.548477    5.306927    5.301153    ( 0.0000,  0.0000,  2.0000)
  54 Ni     5.316246    3.553031    5.303637    ( 0.0000,  0.0000,  2.0000)
  55 Fe     5.303286    5.303531    3.542385    ( 0.0000,  0.0000,  1.5000)
  56 Ni     7.074962    3.533023    3.537215    ( 0.0000,  0.0000,  1.5000)
  57 Cr     7.066046    5.306046    5.300081    ( 0.0000,  0.0000,  2.0000)
  58 Ni     8.834526    3.538160    5.294530    ( 0.0000,  0.0000,  2.1000)
  59 Cr     8.846255    5.300452    3.537672    ( 0.0000,  0.0000,  1.5000)
[...]
  93 Ni     7.071130    5.304220    8.839313    ( 0.0000,  0.0000,  1.5000)
  94 Co     8.837997    3.524669    8.843389    ( 0.0000,  0.0000,  1.5000)
  95 Ni     8.833772    5.299051    7.076862    ( 0.0000,  0.0000,  0.0000)
  96 Cr     0.012168    7.080333    7.083835    ( 0.0000,  0.0000,  1.5000)
  97 Fe    -0.017034    8.848707    8.843941    ( 0.0000,  0.0000,  2.1000)
  98 Co     1.777938    7.075503    8.840194    ( 0.0000,  0.0000,  2.0000)
  99 Fe     1.758800    8.840035    7.069803    ( 0.0000,  0.0000,  0.0000)
 100 Fe     3.549921    7.066194    7.070090    ( 0.0000,  0.0000,  2.1000)
 101 Co     3.553137    8.839111    8.836776    ( 0.0000,  0.0000,  0.0000)
 102 Cr     5.304189    7.079929    8.840215    ( 0.0000,  0.0000,  2.0000)
 103 Co     5.321946    8.832180    7.082997    ( 0.0000,  0.0000,  2.1000)
 104 Cr     7.057077    7.072149    7.064167    ( 0.0000,  0.0000,  1.5000)
 105 Fe     7.082402    8.855500    8.837487    ( 0.0000,  0.0000,  2.1000)
 106 Co     8.846786    7.077881    8.846732    ( 0.0000,  0.0000,  0.0000)
 107 Cr     8.839313    8.848272    7.075153    ( 0.0000,  0.0000,  0.0000)

Unit cell:
           periodic     x           y           z      points  spacing
  1. axis:    yes   10.614300    0.000000    0.000000    48     0.2211
  2. axis:    yes    0.000000   10.614300    0.000000    48     0.2211
  3. axis:    yes    0.000000    0.000000   10.614300    48     0.2211

  Lengths:  10.614300  10.614300  10.614300
  Angles:   90.000000  90.000000  90.000000

Effective grid spacing dv^(1/3) = 0.2211

     iter     time        total  log10-change:  magmom
                         energy  eigst   dens
iter:   1 12:31:50  -955.076797                  +151.0904
iter:   2 12:34:32  -965.820019  -0.53  -1.36    +115.1903
iter:   3 12:37:15  -918.532644  -0.96  -1.30    +87.8539
iter:   4 12:39:56  -894.409008  -1.45  -1.38    +71.8379
iter:   5 12:42:39  -891.534968  -1.93  -1.50    +64.4909
iter:   6 12:45:22  -896.119469  -1.96  -1.53    +60.4478
iter:   7 12:48:05  -896.863174  -1.69  -1.55    +58.6736
iter:   8 12:50:48  -888.361867  -1.80  -1.57    +57.5052
iter:   9 12:54:31  -894.801298  -1.82  -1.77    +57.2310
iter:  10 12:57:28  -888.652898  -2.20  -1.75    +56.8510
iter:  11 13:00:10  -889.146386  -2.41  -1.90    +56.5689
iter:  12 13:02:55  -887.832946  -2.78  -1.91    +57.0330
iter:  13 13:05:38  -888.803672  -2.79  -1.97    +57.6843
iter:  14 13:08:21  -889.482726  -2.70  -1.99    +58.0654
iter:  15 13:11:04  -889.995623  -2.65  -1.99    +58.3103
iter:  16 13:13:47  -892.234421  -2.45  -2.02    +58.7444
iter:  17 13:16:30  -891.020477  -2.49  -1.95    +59.0465
iter:  18 13:19:13  -890.913288  -2.49  -2.06    +59.0625
iter:  19 13:21:57  -889.909236  -2.82  -2.09    +58.9458
iter:  20 13:24:38  -889.842028  -2.95  -2.18    +59.3412
iter:  21 13:27:21  -889.606456  -3.34  -2.20    +60.0550
iter:  22 13:30:04  -889.608301  -3.32  -2.30    +60.4377
iter:  23 13:33:36  -889.637047c -3.70  -2.33    +60.7032
iter:  24 13:36:45  -890.085911  -3.23  -2.37    +61.2274
iter:  25 13:39:29  -890.145070  -3.27  -2.33    +61.4317
iter:  26 13:42:12  -890.619380  -3.03  -2.36    +61.6590
iter:  27 13:44:55  -890.506443  -3.13  -2.33    +61.6646
iter:  28 13:47:38  -890.566959  -3.10  -2.37    +62.0740
iter:  29 13:50:22  -890.233952  -3.50  -2.36    +62.2408
iter:  30 13:53:05  -890.249443  -3.77  -2.52    +62.3785
iter:  31 13:55:49  -890.232690c -4.06  -2.56    +62.3955
iter:  32 13:58:32  -890.276263c -4.39  -2.60    +62.5425
iter:  33 14:01:15  -890.510263  -3.54  -2.63    +62.8604
iter:  34 14:03:57  -890.501290  -3.64  -2.62    +62.6195
iter:  35 14:06:41  -890.479971c -3.87  -2.75    +62.5597
iter:  36 14:09:24  -890.512924c -3.95  -2.91    +62.5085
iter:  37 14:12:07  -890.477347c -4.35  -2.85    +62.5031
iter:  38 14:14:50  -890.496493c -4.57  -3.11    +62.3450
iter:  39 14:17:32  -890.501120c -4.94  -3.13    +62.3216
iter:  40 14:20:33  -890.526545c -4.70  -3.20    +62.2430
iter:  41 14:24:14  -890.533340c -5.00  -3.18    +62.1802
iter:  42 14:26:58  -890.563970c -4.60  -3.26    +62.0399
iter:  43 14:29:41  -890.562620c -4.95  -3.20    +61.9975
iter:  44 14:32:24  -890.584268c -4.76  -3.30    +61.9226
iter:  45 14:35:08  -890.591768c -4.97  -3.26    +61.8330
iter:  46 14:37:51  -890.608614c -4.87  -3.40    +61.7260
iter:  47 14:40:33  -890.619435c -5.08  -3.31    +61.6651
iter:  48 14:43:16  -890.651721c -4.63  -3.35    +61.5269
iter:  49 14:46:00  -890.642797c -5.35  -3.21    +61.5722
iter:  50 14:48:44  -890.664278c -4.81  -3.22    +61.4882
iter:  51 14:51:28  -890.673465c -4.99  -3.21    +61.4044
iter:  52 14:54:11  -890.685098c -5.16  -3.23    +61.3218
iter:  53 14:56:53  -890.765739c -3.62  -3.23    +60.6814
iter:  54 14:59:36  -890.786306c -4.45  -3.03    +60.6710
iter:  55 15:02:18  -890.794260c -4.86  -2.95    +60.6714
iter:  56 15:05:02  -890.798703c -4.81  -2.89    +60.6653
iter:  57 15:07:44  -890.796267c -4.82  -2.90    +60.6724
iter:  58 15:10:27  -890.899513c -3.79  -2.94    +60.6857
iter:  59 15:13:08  -890.889540c -3.67  -2.73    +60.6665
iter:  60 15:16:42  -890.770384  -4.08  -2.75    +60.5613
iter:  61 15:19:48  -890.785789  -4.42  -3.05    +60.6475
iter:  62 15:22:31  -890.758474c -4.75  -3.02    +60.6121
iter:  63 15:25:15  -890.754865c -4.91  -3.22    +60.6030
iter:  64 15:27:57  -890.752816c -5.50  -3.26    +60.6113
iter:  65 15:30:40  -890.763583c -4.90  -3.35    +60.6174
iter:  66 15:33:24  -890.770622c -4.64  -3.21    +60.6189
iter:  67 15:36:07  -890.757868c -4.81  -3.16    +60.5909
iter:  68 15:38:51  -890.756784c -5.05  -3.30    +60.6120
iter:  69 15:41:34  -890.760199c -5.02  -3.39    +60.6199
iter:  70 15:44:18  -890.752987c -5.44  -3.34    +60.6085
iter:  71 15:47:00  -890.752465c -6.06  -3.61    +60.6080
iter:  72 15:49:44  -890.752863c -6.11  -3.67    +60.6079
iter:  73 15:52:26  -890.753614c -6.24  -3.68    +60.6154
iter:  74 15:55:09  -890.754017c -5.76  -3.68    +60.6109
iter:  75 15:57:51  -890.754129c -5.64  -3.59    +60.6130
iter:  76 16:00:34  -890.755701c -5.42  -3.67    +60.6200
iter:  77 16:03:30  -890.755120c -5.65  -3.59    +60.6207
iter:  78 16:07:13  -890.754518c -5.84  -3.69    +60.6301
iter:  79 16:09:56  -890.753665c -6.03  -3.85    +60.6231
iter:  80 16:12:39  -890.754113c -6.42  -3.90    +60.6322
iter:  81 16:15:22  -890.754215c -6.78  -4.02c   +60.6395
iter:  82 16:18:05  -890.754722c -6.39  -4.12c   +60.6479
iter:  83 16:20:48  -890.754601c -6.60  -3.99    +60.6481
iter:  84 16:23:31  -890.754886c -6.69  -4.07c   +60.6511
iter:  85 16:26:14  -890.755670c -6.41  -4.17c   +60.6557
iter:  86 16:28:57  -890.755126c -6.49  -4.06c   +60.6511
iter:  87 16:31:41  -890.755283c -6.71  -4.16c   +60.6521
iter:  88 16:34:23  -890.755558c -6.78  -4.27c   +60.6581
iter:  89 16:37:04  -890.755618c -7.04  -4.26c   +60.6600
iter:  90 16:39:47  -890.755737c -7.04  -4.36c   +60.6649
iter:  91 16:42:30  -890.755991c -7.00  -4.41c   +60.6695
iter:  92 16:45:12  -890.757389c -5.48  -4.40c   +60.6925
iter:  93 16:47:55  -890.757493c -6.50  -4.23c   +60.7015
iter:  94 16:50:38  -890.757611c -6.68  -4.13c   +60.6885
iter:  95 16:54:20  -890.757751c -7.00  -4.09c   +60.7197
iter:  96 16:56:31  -890.757908c -6.91  -4.09c   +60.7233
iter:  97 16:59:05  -890.758458c -6.35  -4.07c   +60.7395
iter:  98 17:02:09  -890.758421c -6.23  -4.07c   +60.7411
iter:  99 17:05:12  -890.758450c -6.43  -3.94    +60.7375
iter: 100 17:08:16  -890.758149c -6.94  -4.02c   +60.7329
iter: 101 17:11:18  -890.758411c -7.18  -4.23c   +60.7345
iter: 102 17:14:22  -890.758443c -7.21  -4.24c   +60.7330
iter: 103 17:17:25  -890.758418c -7.37  -4.25c   +60.7323
iter: 104 17:20:28  -890.758811c -6.57  -4.29c   +60.7337
iter: 105 17:23:30  -890.758623c -6.74  -4.18c   +60.7339
iter: 106 17:26:33  -890.758687c -7.00  -4.29c   +60.7339
iter: 107 17:29:36  -890.758563c -7.05  -4.37c   +60.7340
iter: 108 17:32:40  -890.758740c -7.33  -4.52c   +60.7368
iter: 109 17:35:43  -890.758760c -7.35  -4.53c   +60.7405
iter: 110 17:38:47  -890.758751c -7.71c -4.60c   +60.7419

Converged after 110 iterations.

Dipole moment: (6.231652, -1.937212, 0.884118) |e|*Ang

Total magnetic moment: (0.000000, 0.000000, 60.741850)
Local magnetic moments:
   0 Co ( 0.000000,  0.000000,  0.934473)
   1 Fe ( 0.000000,  0.000000,  2.447597)
   2 Fe ( 0.000000,  0.000000,  2.364528)
   3 Co ( 0.000000,  0.000000,  1.157150)
   4 Co ( 0.000000,  0.000000,  1.174478)
   5 Fe ( 0.000000,  0.000000,  2.306102)
   6 Ni ( 0.000000,  0.000000,  0.452837)
   7 Co ( 0.000000,  0.000000,  1.073719)
   8 Co ( 0.000000,  0.000000,  1.149653)
   9 Fe ( 0.000000,  0.000000,  2.481283)
  10 Ni ( 0.000000,  0.000000,  0.396831)
  11 Ni ( 0.000000,  0.000000,  0.494807)
  12 Fe ( 0.000000,  0.000000,  2.006869)
  13 Cr ( 0.000000,  0.000000,  0.158432)
  14 Co ( 0.000000,  0.000000,  1.278653)
  15 Ni ( 0.000000,  0.000000,  0.224521)
  16 Cr ( 0.000000,  0.000000, -0.570497)
  17 Fe ( 0.000000,  0.000000,  1.899695)
  18 Cr ( 0.000000,  0.000000, -1.320616)
  19 Fe ( 0.000000,  0.000000, -1.572208)
  20 Ni ( 0.000000,  0.000000,  0.203417)
  21 Cr ( 0.000000,  0.000000,  1.094044)
  22 Fe ( 0.000000,  0.000000,  1.876321)
  23 Cr ( 0.000000,  0.000000, -1.425367)
  24 Ni ( 0.000000,  0.000000,  0.178298)
  25 Ni ( 0.000000,  0.000000,  0.097810)
  26 Fe ( 0.000000,  0.000000,  1.948538)
  27 Cr ( 0.000000,  0.000000, -1.741156)
  28 Fe ( 0.000000,  0.000000,  1.866715)
  29 Co ( 0.000000,  0.000000,  1.347097)
  30 Ni ( 0.000000,  0.000000,  0.190592)
  31 Cr ( 0.000000,  0.000000, -1.595399)
  32 Co ( 0.000000,  0.000000,  0.294167)
  33 Fe ( 0.000000,  0.000000,  2.338657)
  34 Ni ( 0.000000,  0.000000, -0.024876)
  35 Cr ( 0.000000,  0.000000, -1.698832)
  36 Ni ( 0.000000,  0.000000,  0.283979)
  37 Fe ( 0.000000,  0.000000,  2.348615)
  38 Cr ( 0.000000,  0.000000, -1.703714)
  39 Co ( 0.000000,  0.000000,  1.293636)
  40 Co ( 0.000000,  0.000000,  1.350192)
  41 Fe ( 0.000000,  0.000000,  2.375749)
  42 Fe ( 0.000000,  0.000000,  2.410624)
  43 Co ( 0.000000,  0.000000,  1.325885)
  44 Ni ( 0.000000,  0.000000,  0.362960)
  45 Cr ( 0.000000,  0.000000, -1.655034)
  46 Fe ( 0.000000,  0.000000,  2.014134)
  47 Ni ( 0.000000,  0.000000,  0.443758)
  48 Ni ( 0.000000,  0.000000,  0.307467)
  49 Co ( 0.000000,  0.000000,  1.048891)
  50 Cr ( 0.000000,  0.000000, -1.818505)
  51 Fe ( 0.000000,  0.000000,  1.612839)
  52 Co ( 0.000000,  0.000000,  1.038122)
  53 Fe ( 0.000000,  0.000000,  1.893545)
  54 Ni ( 0.000000,  0.000000,  0.369468)
  55 Fe ( 0.000000,  0.000000,  1.807963)
  56 Ni ( 0.000000,  0.000000,  0.244497)
  57 Cr ( 0.000000,  0.000000,  0.637272)
  58 Ni ( 0.000000,  0.000000,  0.295466)
  59 Cr ( 0.000000,  0.000000, -0.886445)
[...]
  93 Ni ( 0.000000,  0.000000,  0.028337)
  94 Co ( 0.000000,  0.000000,  1.420538)
  95 Ni ( 0.000000,  0.000000,  0.237549)
  96 Cr ( 0.000000,  0.000000, -0.659266)
  97 Fe ( 0.000000,  0.000000,  1.913714)
  98 Co ( 0.000000,  0.000000,  1.146472)
  99 Fe ( 0.000000,  0.000000,  1.694605)
 100 Fe ( 0.000000,  0.000000,  1.541282)
 101 Co ( 0.000000,  0.000000,  0.913660)
 102 Cr ( 0.000000,  0.000000, -0.637099)
 103 Co ( 0.000000,  0.000000,  1.070785)
 104 Cr ( 0.000000,  0.000000, -1.007103)
 105 Fe ( 0.000000,  0.000000,  1.932227)
 106 Co ( 0.000000,  0.000000,  0.443509)
 107 Cr ( 0.000000,  0.000000, -1.199620)

Energy contributions relative to reference atoms: (reference = -3846758.590871)

Kinetic:       +119.107795
Potential:     -186.356793
External:        +0.000000
XC:            -861.253047
Entropy (-ST):   -4.540775
Local:          +40.013681
Free energy:   -893.029139
Extrapolated:  -890.758751

Spin contamination: 32.740691 electrons
Showing only first 2 kpts
                      Up                     Down
 Kpt  Band  Eigenvalues  Occupancy  Eigenvalues  Occupancy
  0   524      9.84824    0.99365     10.70644    0.02848
  0   525      9.85974    0.99288     10.71130    0.02716
  0   526      9.87115    0.99202     10.71917    0.02516
  0   527      9.88587    0.99077     10.73469    0.02162

  1   524      9.84478    0.99386     10.69475    0.03189
  1   525      9.85966    0.99288     10.70472    0.02896
  1   526      9.87498    0.99171     10.71146    0.02712
  1   527      9.88218    0.99110     10.71963    0.02504

Fermi level: 10.35346

No gap

Forces in eV/Ang:
  0 Co    0.03559    0.07541   -0.09399
  1 Fe    0.24849    0.28007    0.06026
  2 Fe    0.21120   -0.45566   -0.05226
  3 Co    0.21494   -0.01876   -0.14492
  4 Co   -0.06636   -0.02178   -0.08210
  5 Fe    0.09319    0.07071    0.00613
  6 Ni    0.00673    0.07181    0.06276
  7 Co   -0.23864   -0.03301   -0.09455
  8 Co   -0.15984   -0.07189    0.02253
  9 Fe   -0.31116   -0.24562   -0.17203
 10 Ni   -0.14486   -0.09064   -0.10568
 11 Ni   -0.06931    0.08515   -0.12539
 12 Fe    0.39915    0.19100   -0.07046
 13 Cr    0.02598   -0.21497    0.31395
 14 Co    0.03618    0.09537   -0.14168
 15 Ni   -0.05686   -0.05140    0.03784
 16 Cr   -0.28059   -0.23911    0.04059
 17 Fe   -0.01272   -0.37195   -0.16973
 18 Cr   -0.11423   -0.17469   -0.09532
 19 Fe    0.32196   -0.13168    0.02920
 20 Ni   -0.03480    0.00954   -0.10388
 21 Cr   -0.08959    0.55669   -0.24243
 22 Fe    0.13874    0.20190    0.05626
 23 Cr   -0.17579   -0.00215   -0.24230
 24 Ni   -0.16986   -0.20200   -0.07281
 25 Ni    0.16611   -0.01531    0.10476
 26 Fe   -0.05712    0.42242   -0.15385
 27 Cr    0.34485   -0.23371    0.21637
 28 Fe    0.09875    0.20386    0.11670
 29 Co   -0.07106    0.36359    0.01115
 30 Ni    0.08437    0.00535   -0.06642
 31 Cr   -0.29781    0.35392    0.23687
 32 Co    0.04594    0.04904   -0.22493
 33 Fe   -0.10216   -0.09907   -0.30603
 34 Ni   -0.11881    0.07773   -0.13226
 35 Cr    0.02623   -0.12455   -0.29741
 36 Ni   -0.00493    0.04585   -0.04594
 37 Fe    0.51370   -0.12691    0.02286
 38 Cr    0.21137   -0.09192    0.05408
 39 Co    0.09761    0.26096   -0.02892
 40 Co    0.13098   -0.22964   -0.17769
 41 Fe   -0.39560   -0.11654   -0.11396
 42 Fe    0.29539   -0.20891   -0.02090
 43 Co   -0.21360    0.17115    0.02806
 44 Ni   -0.06992    0.10907   -0.01659
 45 Cr    0.05342   -0.19160    0.28854
 46 Fe   -0.55380   -0.21634   -0.04049
 47 Ni    0.03227    0.08583    0.12807
 48 Ni   -0.01630    0.09598   -0.08508
 49 Co    0.12579    0.18805   -0.18728
 50 Cr   -0.08498    0.14025    0.17162
 51 Fe   -0.29660   -0.17667    0.20560
 52 Co    0.04523   -0.02811   -0.09048
 53 Fe   -0.13080   -0.12624    0.22051
 54 Ni    0.06883   -0.06025   -0.03348
 55 Fe   -0.09406   -0.15370    0.18533
 56 Ni    0.06610   -0.12030    0.22944
 57 Cr   -0.08145    0.03615   -0.09530
 58 Ni    0.01090    0.05902    0.07567
 59 Cr    0.19057   -0.20319   -0.05690
[...]
 93 Ni   -0.10201    0.16709    0.12310
 94 Co    0.00962    0.02459    0.00650
 95 Ni    0.14378    0.04983   -0.04366
 96 Cr   -0.10319   -0.58024   -0.03888
 97 Fe    0.14593   -0.08267   -0.02380
 98 Co    0.01844   -0.06628    0.02537
 99 Fe    0.41371    0.19268    0.32228
100 Fe   -0.19084    0.12939    0.23632
101 Co   -0.22900   -0.05073   -0.02846
102 Cr    0.06093   -0.37308   -0.01827
103 Co   -0.24598   -0.09629   -0.09795
104 Cr    0.15785   -0.14340    0.16688
105 Fe    0.10993   -0.12042    0.20716
106 Co   -0.18878    0.22243   -0.13388
107 Cr    0.06701    0.46339    0.03966

Date: Sat Apr 15 17:39:10 2023