User:   c.zeng@d0023
Date:   Thu Apr 13 20:13:10 2023
Arch:   x86_64
Pid:    141584
CWD:    /home/c.zeng/projects/hea-corrosion/hea-mlp/data-curation/bulk-md/dft-jobs/39
Python: 3.8.1
gpaw:   /home/c.zeng/usr/installs/gpaw/source/gpaw-22.8.0/gpaw
_gpaw:  /home/c.zeng/usr/installs/gpaw/source/gpaw-22.8.0/
        _gpaw.cpython-38-x86_64-linux-gnu.so
ase:    /home/c.zeng/.local/lib/python3.8/site-packages/ase-3.22.1-py3.8.egg/ase (version 3.22.1)
numpy:  /shared/centos7/python/3.8.1/lib/python3.8/site-packages/numpy (version 1.17.4)
scipy:  /shared/centos7/python/3.8.1/lib/python3.8/site-packages/scipy (version 1.4.1)
units:  Angstrom and eV
cores: 30
OpenMP: False
OMP_NUM_THREADS: 1

Input parameters:
  convergence: {energy: 0.0001}
  kpts: [2 2 2]
  maxiter: 666
  mode: {ecut: 350.0,
         name: pw}
  occupations: {fixmagmom: False,
                name: fermi-dirac,
                width: 0.1}
  spinpol: True
  xc: PBE

System changes: positions, numbers, cell, pbc, initial_charges, initial_magmoms

Initialize ...

species:
  Cr:
    name: Chromium
    id: 33f258bda2ca9f93018e70263a35547b
    Z: 24.0
    valence: 6
    core: 18
    charge: 0.0
    file: /home/c.zeng/usr/data/gpaw-setups-0.9.20000/Cr.PBE.gz
    compensation charges: {type: gauss,
                           rc: 0.35,
                           lmax: 2}
    cutoffs: {filter: 2.14,
              core: 3.04}
    valence states:
      #              energy  rcut
      - 4s(1.00)    -4.007   1.164
      - 4p(0.00)    -0.989   1.217
      - 3d(5.00)    -2.913   1.111
      -  s          23.205   1.164
      -  p          26.223   1.217
      -  d          24.299   1.111

    # Using partial waves for Cr as LCAO basis

  Al:
    name: Aluminium
    id: 0292cae29f5d6237e50f6abdd43a7bdd
    Z: 13.0
    valence: 3
    core: 10
    charge: 0.0
    file: /home/c.zeng/usr/data/gpaw-setups-0.9.20000/Al.PBE.gz
    compensation charges: {type: gauss,
                           rc: 0.34,
                           lmax: 2}
    cutoffs: {filter: 1.91,
              core: 2.36}
    valence states:
      #              energy  rcut
      - 3s(2.00)    -7.753   1.085
      - 3p(1.00)    -2.712   1.085
      -  s          19.459   1.085
      -  p          24.499   1.085
      -  d           0.000   1.085

[...]

  Co:
    name: Cobalt
    id: 339d20d5b0b93d2de9531a1bee871d91
    Z: 27.0
    valence: 9
    core: 18
    charge: 0.0
    file: /home/c.zeng/usr/data/gpaw-setups-0.9.20000/Co.PBE.gz
    compensation charges: {type: gauss,
                           rc: 0.32,
                           lmax: 2}
    cutoffs: {filter: 1.87,
              core: 2.55}
    valence states:
      #              energy  rcut
      - 4s(2.00)    -5.469   1.005
      - 4p(0.00)    -1.277   1.058
      - 3d(7.00)    -8.205   1.005
      -  s          21.742   1.005
      -  p          25.934   1.058
      -  d          19.007   1.005

[...]

  Fe:
    name: Iron
    id: 37abbd8d6c3c35915a9b583b742da910
    Z: 26.0
    valence: 8
    core: 18
    charge: 0.0
    file: /home/c.zeng/usr/data/gpaw-setups-0.9.20000/Fe.PBE.gz
    compensation charges: {type: gauss,
                           rc: 0.33,
                           lmax: 2}
    cutoffs: {filter: 2.06,
              core: 2.67}
    valence states:
      #              energy  rcut
      - 4s(2.00)    -5.291   1.164
      - 4p(0.00)    -1.326   1.058
      - 3d(6.00)    -7.505   1.058
      -  s          21.920   1.164
      -  p          25.885   1.058
      -  d          19.706   1.058

[...]

  Ni:
    name: Nickel
    id: 0d9f38a9d6e76a2886f07bb4381f212b
    Z: 28.0
    valence: 16
    core: 12
    charge: 0.0
    file: /home/c.zeng/usr/data/gpaw-setups-0.9.20000/Ni.PBE.gz
    compensation charges: {type: gauss,
                           rc: 0.36,
                           lmax: 2}
    cutoffs: {filter: 2.14,
              core: 1.98}
    valence states:
      #              energy  rcut
      - 4s(2.00)    -5.642   1.164
      - 3p(6.00)   -71.394   1.207
      - 4p(0.00)    -1.226   1.207
      - 3d(8.00)    -8.875   1.138
      -  s          21.570   1.164
      -  d          18.337   1.138

    # Using partial waves for Ni as LCAO basis

Reference energy: -3699400.456887  # eV

Spin-polarized calculation.
Magnetic moment: 143.500000

Convergence criteria:
 Maximum [total energy] change in last 3 cyles: 0.0001 eV / electron
 Maximum integral of absolute [dens]ity change: 0.0001 electrons / valence electron
 Maximum integral of absolute [eigenst]ate change: 4e-08 eV^2 / valence electron
 Maximum number of scf [iter]ations: 666
 (Square brackets indicate name in SCF output, whereas a 'c' in
 the SCF output indicates the quantity has converged.)

Symmetries present (total): 1

  ( 1  0  0)
  ( 0  1  0)
  ( 0  0  1)

8 k-points: 2 x 2 x 2 Monkhorst-Pack grid
4 k-points in the irreducible part of the Brillouin zone
       k-points in crystal coordinates                weights
   0:     0.25000000   -0.25000000   -0.25000000          2/8
   1:     0.25000000   -0.25000000    0.25000000          2/8
   2:     0.25000000    0.25000000   -0.25000000          2/8
   3:     0.25000000    0.25000000    0.25000000          2/8

Wave functions: Plane wave expansion
  Cutoff energy: 350.000 eV
  Number of coefficients (min, max): 18052, 18052
  Pulay-stress correction: 0.000000 eV/Ang^3 (de/decut=0.000000)
  Using FFTW library
  ScaLapack parameters: grid=1x1, blocksize=None
  Wavefunction extrapolation:
    Improved wavefunction reuse through dual PAW basis

Occupation numbers: Fermi-Dirac:
  width: 0.1000  # eV

Eigensolver
   Davidson(niter=2)

Densities:
  Coarse grid: 48*48*48 grid
  Fine grid: 96*96*96 grid
  Total Charge: 0.000000

Density mixing:
  Method: difference
  Backend: pulay
  Linear mixing parameter: 0.05
  old densities: 5
  Damping of long wavelength oscillations: 50

Hamiltonian:
  XC and Coulomb potentials evaluated on a 96*96*96 grid
  Using the PBE Exchange-Correlation functional
  External potential:
    NoExternalPotential

XC parameters: PBE with 2 nearest neighbor stencil

Total number of cores used: 30
Parallelization over k-points: 2
Domain decomposition: 5 x 3 x 1

Number of atoms: 108
Number of atomic orbitals: 1025
Number of bands in calculation: 703
Number of valence electrons: 1020
Bands to converge: occupied

... initialized

Initializing position-dependent things.

Density initialized from atomic densities
Creating initial wave functions:
  703 bands from LCAO basis set

       /|  Ni       Cr            |
      / |    Fe      Al       Co  |
     /  |      Cr      Al        Ni
    /   |         Cr      CrCr    |
   /    | Nie   Cr  Fe       Co   |
  /  Ni |    CoFe   CNio    Nie   |
 *    FCoFe CrNiNiCr      CCr     |
 |     NiCoCr   CNi Co  Al CFe    |
 |      FeFeCo    Ni Ni     NNi   |
 |     Cr  NiCoCo   FeFeCr  FeFe  |
 |      Ni  CrCoFeCr   NiNiCr   Cr|
 |Co   NNi Ni   CoCrCo  CrFe      |
 |      .--FCrNi---CoCo----CrFe---.
 |   Co/     Fe       Ni     Cr  /
 |    Fee     CAlrFe   NiCo    Cr
 |   /  FeCo     Co            /
 |  /      Cre      Co      Al/
 | /          Ni       Ni    /
 |/    Co               Fe  /

Positions:
   0 Cr    -0.050533    0.074875   10.548447    ( 0.0000,  0.0000,  0.0000)
   1 Al    10.649382    1.583585    1.751142    ( 0.0000,  0.0000,  0.0000)
   2 Cr     1.725524   10.572101    1.727907    ( 0.0000,  0.0000,  0.0000)
   3 Co     1.791339    1.985407   10.680580    ( 0.0000,  0.0000,  2.1000)
   4 Fe     3.372561    0.035717   -0.029020    ( 0.0000,  0.0000,  2.0000)
   5 Cr     3.480799    1.955193    1.705918    ( 0.0000,  0.0000,  0.0000)
   6 Ni     5.157484   10.717642    1.530683    ( 0.0000,  0.0000,  1.5000)
   7 Fe     5.387527    1.844244   -0.040070    ( 0.0000,  0.0000,  2.0000)
   8 Cr     6.846597    0.042631   -0.070007    ( 0.0000,  0.0000,  0.0000)
   9 Co     7.107892    1.863347    1.619648    ( 0.0000,  0.0000,  2.1000)
  10 Ni     8.912104   10.845956    1.743798    ( 0.0000,  0.0000,  1.5000)
  11 Fe     8.999878    1.713252   10.721350    ( 0.0000,  0.0000,  2.0000)
  12 Co    -0.055383    3.504549   10.667240    ( 0.0000,  0.0000,  2.1000)
  13 Co     0.011658    5.319021    1.803606    ( 0.0000,  0.0000,  2.1000)
  14 Fe     1.621503    3.477327    1.890090    ( 0.0000,  0.0000,  2.0000)
  15 Fe     1.480332    5.319546    0.072646    ( 0.0000,  0.0000,  2.0000)
  16 Fe     3.488169    3.718750    0.097386    ( 0.0000,  0.0000,  2.0000)
  17 Fe     3.576753    5.327426    2.161192    ( 0.0000,  0.0000,  2.0000)
  18 Cr     5.185469    3.691128    1.734341    ( 0.0000,  0.0000,  0.0000)
  19 Co     5.185163    5.509141    0.242045    ( 0.0000,  0.0000,  2.1000)
  20 Fe     6.992370    3.483897   10.594483    ( 0.0000,  0.0000,  2.0000)
  21 Ni     7.093795    5.179725    1.791248    ( 0.0000,  0.0000,  1.5000)
  22 Co     9.011633    3.450951    1.928914    ( 0.0000,  0.0000,  2.1000)
  23 Cr     9.035097    5.097157   -0.070638    ( 0.0000,  0.0000,  0.0000)
  24 Cr    -0.215493    7.063963    0.108648    ( 0.0000,  0.0000,  0.0000)
  25 Ni     0.084929    8.870588    1.717098    ( 0.0000,  0.0000,  1.5000)
  26 Fe     2.042988    6.994114    1.787141    ( 0.0000,  0.0000,  2.0000)
  27 Ni     1.644672    8.803942   10.591664    ( 0.0000,  0.0000,  1.5000)
  28 Co     3.464349    6.758496    0.110446    ( 0.0000,  0.0000,  2.1000)
  29 Co     3.759727    8.736915    1.751679    ( 0.0000,  0.0000,  2.1000)
  30 Co     5.350497    7.115437    1.969930    ( 0.0000,  0.0000,  2.1000)
  31 Cr     5.280547    9.007464   -0.117545    ( 0.0000,  0.0000,  0.0000)
  32 Al     7.304686    6.866361   10.540215    ( 0.0000,  0.0000,  0.0000)
  33 Cr     7.084090    8.898081    1.602576    ( 0.0000,  0.0000,  0.0000)
  34 Cr     8.809331    7.019992    1.681504    ( 0.0000,  0.0000,  0.0000)
  35 Cr     9.111223    8.968011   10.908077    ( 0.0000,  0.0000,  0.0000)
  36 Fe    10.678757   10.368688    3.533045    ( 0.0000,  0.0000,  2.0000)
  37 Co    10.768502    1.608462    5.319994    ( 0.0000,  0.0000,  2.1000)
  38 Cr     1.802478   10.488785    5.164043    ( 0.0000,  0.0000,  0.0000)
  39 Fe     1.762194    1.574361    3.593917    ( 0.0000,  0.0000,  2.0000)
  40 Co     3.655104   10.696242    3.338179    ( 0.0000,  0.0000,  2.1000)
  41 Ni     3.438397    1.738742    5.352102    ( 0.0000,  0.0000,  1.5000)
  42 Ni     5.312960    0.126541    5.276471    ( 0.0000,  0.0000,  1.5000)
  43 Al     5.239922    1.823845    3.367848    ( 0.0000,  0.0000,  0.0000)
  44 Fe     6.946436   10.908477    3.655251    ( 0.0000,  0.0000,  2.0000)
  45 Co     7.140693    1.764908    5.647985    ( 0.0000,  0.0000,  2.1000)
  46 Fe     8.638356   10.643280    5.407665    ( 0.0000,  0.0000,  2.0000)
  47 Ni     8.747548    1.591884    3.549763    ( 0.0000,  0.0000,  1.5000)
  48 Fe    -0.024549    3.493510    3.620296    ( 0.0000,  0.0000,  2.0000)
  49 Fe    10.496772    5.341236    5.470925    ( 0.0000,  0.0000,  2.0000)
  50 Ni     1.785918    3.471509    5.332016    ( 0.0000,  0.0000,  1.5000)
  51 Ni     1.619121    5.286785    3.501525    ( 0.0000,  0.0000,  1.5000)
  52 Cr     3.637061    3.585109    3.439361    ( 0.0000,  0.0000,  0.0000)
  53 Co     3.531360    5.331338    5.132826    ( 0.0000,  0.0000,  2.1000)
  54 Fe     5.405806    3.441382    5.313421    ( 0.0000,  0.0000,  2.0000)
  55 Cr     5.486715    4.964784    3.578687    ( 0.0000,  0.0000,  0.0000)
  56 Co     7.293248    3.364070    3.761487    ( 0.0000,  0.0000,  2.1000)
  57 Fe     7.169285    5.423167    5.601956    ( 0.0000,  0.0000,  2.0000)
  58 Ni     8.818855    3.602012    5.377652    ( 0.0000,  0.0000,  1.5000)
  59 Fe     8.906198    5.367460    3.403563    ( 0.0000,  0.0000,  2.0000)
[...]
  93 Ni     6.906024    5.442188    8.827879    ( 0.0000,  0.0000,  1.5000)
  94 Co     9.110470    3.527827    8.938459    ( 0.0000,  0.0000,  2.1000)
  95 Cr     9.015837    5.481571    7.272400    ( 0.0000,  0.0000,  0.0000)
  96 Fe     0.035848    7.099708    7.158918    ( 0.0000,  0.0000,  2.0000)
  97 Ni    -0.111599    9.031670    8.842089    ( 0.0000,  0.0000,  1.5000)
  98 Ni     1.658138    6.892515    8.806179    ( 0.0000,  0.0000,  1.5000)
  99 Fe     1.687616    8.745008    7.277634    ( 0.0000,  0.0000,  2.0000)
 100 Ni     3.573367    7.145870    6.971425    ( 0.0000,  0.0000,  1.5000)
 101 Cr     3.288983    8.713839    9.176452    ( 0.0000,  0.0000,  0.0000)
 102 Cr     4.932923    7.251828    9.018039    ( 0.0000,  0.0000,  0.0000)
 103 Cr     5.275044    8.807689    6.945489    ( 0.0000,  0.0000,  0.0000)
 104 Co     6.736954    7.213274    7.354885    ( 0.0000,  0.0000,  2.1000)
 105 Fe     6.831649    8.823811    8.911314    ( 0.0000,  0.0000,  2.0000)
 106 Cr     9.039698    7.069490    8.923862    ( 0.0000,  0.0000,  0.0000)
 107 Ni     8.904188    8.559279    7.157370    ( 0.0000,  0.0000,  1.5000)

Unit cell:
           periodic     x           y           z      points  spacing
  1. axis:    yes   10.671700    0.000000    0.000000    48     0.2223
  2. axis:    yes    0.000000   10.671700    0.000000    48     0.2223
  3. axis:    yes    0.000000    0.000000   10.671700    48     0.2223

  Lengths:  10.671700  10.671700  10.671700
  Angles:   90.000000  90.000000  90.000000

Effective grid spacing dv^(1/3) = 0.2223

     iter     time        total  log10-change:  magmom
                         energy  eigst   dens
iter:   1 20:18:51 -1027.836902                  +143.7777
iter:   2 20:21:22  -916.731804  -0.26  -1.21    +82.7165
iter:   3 20:23:53  -899.669123  -0.94  -1.23    +71.1198
iter:   4 20:26:25  -884.883764  -1.33  -1.30    +66.6585
iter:   5 20:28:56  -872.224302  -1.60  -1.32    +63.8070
iter:   6 20:31:27  -871.507270  -1.28  -1.38    +64.3012
iter:   7 20:33:58  -871.292805  -1.22  -1.48    +62.9826
iter:   8 20:36:29  -855.463650  -1.64  -1.55    +61.8484
iter:   9 20:39:00  -853.395512  -2.17  -1.76    +63.0505
iter:  10 20:41:31  -853.551554  -2.52  -1.83    +64.3507
iter:  11 20:44:01  -854.500848  -2.46  -1.86    +65.5913
iter:  12 20:46:31  -855.213007  -2.42  -1.89    +66.6048
iter:  13 20:49:01  -854.508280  -2.44  -1.93    +66.9395
iter:  14 20:51:32  -854.834010  -2.56  -2.04    +67.8380
iter:  15 20:54:02  -854.791252  -2.72  -2.06    +68.4047
iter:  16 20:56:32  -854.053764  -3.07  -2.08    +68.4979
iter:  17 20:59:02  -854.171600  -3.32  -2.21    +69.1767
iter:  18 21:01:32  -854.326483  -3.19  -2.25    +69.5958
iter:  19 21:04:03  -854.302637  -3.11  -2.28    +69.7362
iter:  20 21:06:34  -854.165828  -3.31  -2.34    +70.1573
iter:  21 21:09:05  -854.143299  -3.46  -2.41    +70.2630
iter:  22 21:11:36  -854.117694c -3.52  -2.46    +70.4185
iter:  23 21:14:07  -854.149313c -3.53  -2.52    +70.6433
iter:  24 21:16:38  -854.064873c -3.56  -2.52    +70.6550
iter:  25 21:19:09  -854.058743c -3.77  -2.62    +70.7510
iter:  26 21:21:40  -854.075965c -3.93  -2.65    +70.8960
iter:  27 21:24:12  -854.099940c -3.87  -2.67    +70.9270
iter:  28 21:26:43  -854.073523c -3.95  -2.66    +71.0081
iter:  29 21:29:14  -854.069318c -4.18  -2.74    +71.1693
iter:  30 21:31:46  -854.066756c -4.41  -2.77    +71.1947
iter:  31 21:34:17  -854.076234c -4.52  -2.81    +71.2732
iter:  32 21:36:48  -854.088086c -4.40  -2.84    +71.3309
iter:  33 21:39:19  -854.078392c -4.60  -2.85    +71.3428
iter:  34 21:41:50  -854.087391c -4.61  -2.92    +71.3725
iter:  35 21:44:21  -854.090087c -4.71  -2.96    +71.4046
iter:  36 21:46:51  -854.090787c -4.82  -2.98    +71.4066
iter:  37 21:49:22  -854.098153c -4.65  -3.03    +71.4432
iter:  38 21:51:52  -854.098543c -4.75  -3.04    +71.4461
iter:  39 21:54:23  -854.098949c -4.78  -3.10    +71.4497
iter:  40 21:56:53  -854.102688c -4.94  -3.15    +71.4709
iter:  41 21:59:22  -854.105050c -4.88  -3.17    +71.4700
iter:  42 22:01:54  -854.107707c -4.88  -3.20    +71.4714
iter:  43 22:04:25  -854.106431c -5.05  -3.22    +71.5064
iter:  44 22:06:56  -854.109032c -5.17  -3.31    +71.5140
iter:  45 22:09:27  -854.110148c -5.24  -3.32    +71.5246
iter:  46 22:11:58  -854.111928c -5.23  -3.35    +71.5392
iter:  47 22:14:29  -854.110887c -5.38  -3.36    +71.5382
iter:  48 22:17:00  -854.112175c -5.60  -3.43    +71.5351
iter:  49 22:19:31  -854.112090c -5.58  -3.45    +71.5500
iter:  50 22:22:02  -854.113358c -5.78  -3.49    +71.5522
iter:  51 22:24:32  -854.113525c -5.64  -3.52    +71.5507
iter:  52 22:27:03  -854.114253c -5.79  -3.53    +71.5602
iter:  53 22:29:32  -854.114952c -5.79  -3.59    +71.5584
iter:  54 22:32:03  -854.115787c -5.84  -3.60    +71.5606
iter:  55 22:34:33  -854.116190c -5.82  -3.62    +71.5704
iter:  56 22:37:03  -854.117864c -5.74  -3.69    +71.5724
iter:  57 22:39:33  -854.117948c -5.91  -3.71    +71.5699
iter:  58 22:42:05  -854.118949c -5.96  -3.76    +71.5720
iter:  59 22:44:36  -854.120014c -5.93  -3.79    +71.5711
iter:  60 22:47:07  -854.120184c -6.27  -3.83    +71.5707
iter:  61 22:49:39  -854.121037c -6.05  -3.86    +71.5747
iter:  62 22:52:10  -854.121880c -6.27  -3.92    +71.5717
iter:  63 22:54:42  -854.122183c -6.21  -3.92    +71.5633
iter:  64 22:57:13  -854.122884c -6.40  -3.99    +71.5611
iter:  65 22:59:45  -854.124082c -6.10  -4.03c   +71.5485
iter:  66 23:02:17  -854.123822c -6.50  -4.03c   +71.5544
iter:  67 23:04:48  -854.124714c -6.32  -4.03c   +71.5522
iter:  68 23:07:19  -854.125183c -6.63  -4.09c   +71.5499
iter:  69 23:09:51  -854.125883c -6.38  -4.12c   +71.5411
iter:  70 23:12:22  -854.125692c -6.98  -4.15c   +71.5431
iter:  71 23:14:53  -854.125991c -6.74  -4.17c   +71.5289
iter:  72 23:17:24  -854.126413c -6.85  -4.20c   +71.5341
iter:  73 23:19:56  -854.127233c -6.44  -4.22c   +71.5292
iter:  74 23:22:26  -854.126896c -7.03  -4.22c   +71.5358
iter:  75 23:24:57  -854.126856c -7.16  -4.28c   +71.5422
iter:  76 23:27:27  -854.127809c -6.48  -4.30c   +71.5238
iter:  77 23:29:59  -854.128466c -6.53  -4.30c   +71.5165
iter:  78 23:32:31  -854.128177c -7.13  -4.34c   +71.5157
iter:  79 23:35:02  -854.128571c -6.90  -4.36c   +71.5034
iter:  80 23:37:34  -854.128761c -7.25  -4.41c   +71.5125
iter:  81 23:40:06  -854.129718c -6.42  -4.42c   +71.5110
iter:  82 23:42:38  -854.129038c -6.99  -4.42c   +71.5055
iter:  83 23:45:10  -854.126800c -5.76  -4.53c   +71.4750
iter:  84 23:47:42  -854.129133c -5.97  -4.31c   +71.4905
iter:  85 23:50:14  -854.127938c -6.55  -4.51c   +71.4785
iter:  86 23:52:44  -854.128310c -7.11  -4.39c   +71.4743
iter:  87 23:55:16  -854.127521c -6.17  -4.34c   +71.4924
iter:  88 23:57:47  -854.128242c -6.75  -4.51c   +71.4982
iter:  89 00:00:18  -854.128430c -7.18  -4.57c   +71.4924
iter:  90 00:02:51  -854.128981c -6.72  -4.58c   +71.4974
iter:  91 00:05:20  -854.129274c -6.64  -4.58c   +71.4893
iter:  92 00:07:51  -854.130181c -6.55  -4.58c   +71.4858
iter:  93 00:10:23  -854.124691c -5.05  -4.62c   +71.5110
iter:  94 00:12:54  -854.120951c -5.03  -4.21c   +71.5447
iter:  95 00:15:25  -854.120877c -6.01  -3.99    +71.5650
iter:  96 00:17:57  -854.120939c -5.72  -3.97    +71.6334
iter:  97 00:20:28  -854.121771c -5.33  -3.93    +71.7490
iter:  98 00:23:00  -854.122904c -5.41  -3.89    +71.8371
iter:  99 00:25:32  -854.125044c -5.40  -3.86    +71.8768
iter: 100 00:28:03  -854.123546c -5.82  -3.67    +71.8388
iter: 101 00:30:35  -854.124189c -6.27  -3.80    +71.8586
iter: 102 00:33:06  -854.124058c -5.97  -3.83    +71.8661
iter: 103 00:35:37  -854.124836c -5.71  -3.78    +71.8648
iter: 104 00:38:08  -854.124861c -5.96  -3.87    +71.8745
iter: 105 00:40:39  -854.124877c -6.33  -3.92    +71.8622
iter: 106 00:43:11  -854.125604c -6.32  -4.14c   +71.8657
iter: 107 00:45:41  -854.125977c -6.29  -4.10c   +71.8619
iter: 108 00:48:13  -854.126241c -6.72  -4.15c   +71.8573
iter: 109 00:50:43  -854.126406c -6.46  -4.25c   +71.8510
iter: 110 00:53:15  -854.126964c -6.54  -4.17c   +71.8504
iter: 111 00:55:47  -854.127250c -6.50  -4.17c   +71.8490
iter: 112 00:58:21  -854.127364c -6.53  -4.27c   +71.8409
iter: 113 01:00:55  -854.127616c -6.90  -4.25c   +71.8384
iter: 114 01:03:28  -854.128129c -6.59  -4.46c   +71.8331
iter: 115 01:06:01  -854.128216c -7.39  -4.43c   +71.8331
iter: 116 01:08:34  -854.128673c -6.72  -4.49c   +71.8252
iter: 117 01:11:07  -854.128618c -7.93c -4.54c   +71.8266

Converged after 117 iterations.

Dipole moment: (27.971679, -8.882096, -10.373753) |e|*Ang

Total magnetic moment: (0.000000, 0.000000, 71.826559)
Local magnetic moments:
   0 Cr ( 0.000000,  0.000000, -0.006215)
   1 Al ( 0.000000,  0.000000, -0.039403)
   2 Cr ( 0.000000,  0.000000, -1.546847)
   3 Co ( 0.000000,  0.000000,  0.623588)
   4 Fe ( 0.000000,  0.000000,  1.395652)
   5 Cr ( 0.000000,  0.000000, -0.547096)
   6 Ni ( 0.000000,  0.000000,  0.208011)
   7 Fe ( 0.000000,  0.000000,  1.682199)
   8 Cr ( 0.000000,  0.000000, -0.588507)
   9 Co ( 0.000000,  0.000000,  1.233719)
  10 Ni ( 0.000000,  0.000000,  0.308836)
  11 Fe ( 0.000000,  0.000000,  1.963843)
  12 Co ( 0.000000,  0.000000,  1.162340)
  13 Co ( 0.000000,  0.000000,  1.000420)
  14 Fe ( 0.000000,  0.000000,  1.948515)
  15 Fe ( 0.000000,  0.000000,  2.322267)
  16 Fe ( 0.000000,  0.000000,  2.098010)
  17 Fe ( 0.000000,  0.000000,  1.058634)
  18 Cr ( 0.000000,  0.000000, -0.598671)
  19 Co ( 0.000000,  0.000000,  1.262425)
  20 Fe ( 0.000000,  0.000000,  2.361749)
  21 Ni ( 0.000000,  0.000000,  0.265714)
  22 Co ( 0.000000,  0.000000,  1.329630)
  23 Cr ( 0.000000,  0.000000, -0.454717)
  24 Cr ( 0.000000,  0.000000, -0.386401)
  25 Ni ( 0.000000,  0.000000,  0.177999)
  26 Fe ( 0.000000,  0.000000,  2.308218)
  27 Ni ( 0.000000,  0.000000,  0.062669)
  28 Co ( 0.000000,  0.000000,  1.266793)
  29 Co ( 0.000000,  0.000000,  1.362002)
  30 Co ( 0.000000,  0.000000,  1.454464)
  31 Cr ( 0.000000,  0.000000,  0.211926)
  32 Al ( 0.000000,  0.000000, -0.006654)
  33 Cr ( 0.000000,  0.000000, -0.835540)
  34 Cr ( 0.000000,  0.000000,  0.156513)
  35 Cr ( 0.000000,  0.000000,  0.492508)
  36 Fe ( 0.000000,  0.000000,  1.994229)
  37 Co ( 0.000000,  0.000000,  0.890387)
  38 Cr ( 0.000000,  0.000000, -1.426402)
  39 Fe ( 0.000000,  0.000000,  2.045571)
  40 Co ( 0.000000,  0.000000,  0.982134)
  41 Ni ( 0.000000,  0.000000,  0.222461)
  42 Ni ( 0.000000,  0.000000,  0.302925)
  43 Al ( 0.000000,  0.000000, -0.018656)
  44 Fe ( 0.000000,  0.000000,  2.259742)
  45 Co ( 0.000000,  0.000000,  0.804065)
  46 Fe ( 0.000000,  0.000000,  2.281098)
  47 Ni ( 0.000000,  0.000000,  0.538055)
  48 Fe ( 0.000000,  0.000000,  2.434721)
  49 Fe ( 0.000000,  0.000000,  2.218126)
  50 Ni ( 0.000000,  0.000000,  0.341099)
  51 Ni ( 0.000000,  0.000000,  0.421254)
  52 Cr ( 0.000000,  0.000000, -0.324738)
  53 Co ( 0.000000,  0.000000,  1.413980)
  54 Fe ( 0.000000,  0.000000,  2.104159)
  55 Cr ( 0.000000,  0.000000, -0.514654)
  56 Co ( 0.000000,  0.000000,  1.397790)
  57 Fe ( 0.000000,  0.000000,  2.613243)
  58 Ni ( 0.000000,  0.000000,  0.426206)
  59 Fe ( 0.000000,  0.000000,  2.156043)
[...]
  93 Ni ( 0.000000,  0.000000,  0.184577)
  94 Co ( 0.000000,  0.000000,  0.899379)
  95 Cr ( 0.000000,  0.000000, -1.476775)
  96 Fe ( 0.000000,  0.000000,  1.751935)
  97 Ni ( 0.000000,  0.000000,  0.148955)
  98 Ni ( 0.000000,  0.000000,  0.428402)
  99 Fe ( 0.000000,  0.000000,  2.155702)
 100 Ni ( 0.000000,  0.000000,  0.434198)
 101 Cr ( 0.000000,  0.000000, -0.589368)
 102 Cr ( 0.000000,  0.000000,  0.232628)
 103 Cr ( 0.000000,  0.000000,  0.229888)
 104 Co ( 0.000000,  0.000000,  1.003266)
 105 Fe ( 0.000000,  0.000000,  1.426507)
 106 Cr ( 0.000000,  0.000000,  0.457537)
 107 Ni ( 0.000000,  0.000000,  0.320433)

Energy contributions relative to reference atoms: (reference = -3699400.456887)

Kinetic:       +384.452564
Potential:     -388.483571
External:        +0.000000
XC:            -885.424096
Entropy (-ST):   -4.568035
Local:          +37.610502
Free energy:   -856.412636
Extrapolated:  -854.128618

Spin contamination: 19.024538 electrons
Showing only first 2 kpts
                      Up                     Down
 Kpt  Band  Eigenvalues  Occupancy  Eigenvalues  Occupancy
  0   508      9.60731    0.99686     10.58512    0.01767
  0   509      9.62383    0.99630     10.59454    0.01611
  0   510      9.63540    0.99584     10.61894    0.01266
  0   511      9.65465    0.99497     10.63203    0.01113

  1   508      9.61406    0.99664     10.59736    0.01567
  1   509      9.62128    0.99639     10.61347    0.01337
  1   510      9.63604    0.99582     10.62239    0.01224
  1   511      9.64934    0.99523     10.63627    0.01067

Fermi level: 10.18332

No gap

Forces in eV/Ang:
  0 Cr    1.08374   -0.74561   -0.69855
  1 Al    0.76380    2.05838    1.65976
  2 Cr    1.40302   -0.54382    0.11128
  3 Co   -0.43987   -1.52056   -0.03971
  4 Fe   -0.21465   -0.22273    0.79618
  5 Cr   -0.72498   -0.97746   -0.82433
  6 Ni    0.72980    0.44597    1.16562
  7 Fe   -1.13582   -0.01486   -0.38971
  8 Cr    2.88710    0.05810    0.24517
  9 Co    0.02932   -0.36523    0.92987
 10 Ni   -1.42032   -1.36894   -0.41622
 11 Fe   -1.16940    0.88052   -1.49630
 12 Co    0.49529   -0.23093    0.43361
 13 Co   -0.66771   -0.18796    0.24090
 14 Fe    0.60065    0.49239   -0.36197
 15 Fe    1.65832   -0.13144   -0.26014
 16 Fe   -0.08062    0.46408   -0.89019
 17 Fe   -0.17929    0.32324   -1.18800
 18 Cr    1.65502   -0.60084   -1.30107
 19 Co    1.49202   -1.39405   -1.19974
 20 Fe    0.82188    1.75293   -0.00543
 21 Ni    0.78616    0.21317   -0.17975
 22 Co   -0.63117    0.45352   -0.69107
 23 Cr   -0.71215    0.22133    0.40428
 24 Cr    0.98889    0.06267   -0.90105
 25 Ni    0.38896   -0.48588    1.01692
 26 Fe   -2.39878    1.01395    0.66728
 27 Ni   -0.39518   -0.12585    0.84597
 28 Co   -1.09065    1.44860   -0.50016
 29 Co   -1.60794    0.97806   -0.22705
 30 Co    0.66702   -0.73071   -0.54745
 31 Cr   -0.17951   -2.27188    2.21859
 32 Al   -2.66662    1.02814    0.77789
 33 Cr   -0.22188    0.47566    0.38561
 34 Cr    0.69188   -0.00300    1.46404
 35 Cr   -1.99072    0.32737   -1.93785
 36 Fe   -0.15795    1.83082    0.33579
 37 Co   -0.70548    0.21264   -0.08799
 38 Cr    0.18758    0.61216    0.87612
 39 Fe    0.19137    0.63931   -0.28498
 40 Co   -1.18984   -0.42322    0.69068
 41 Ni    0.62267    0.12641   -0.32121
 42 Ni   -0.15946    0.24748    0.91706
 43 Al    1.19288   -0.56261    1.13311
 44 Fe    1.30559   -1.13205   -1.29727
 45 Co   -0.43759    0.47329   -1.26988
 46 Fe    1.61197   -0.32734    0.16940
 47 Ni    1.76615    0.73049    1.15509
 48 Fe   -0.32884   -0.31157    0.58302
 49 Fe    1.04235   -0.57125   -0.87722
 50 Ni   -0.31678    0.77983   -0.41881
 51 Ni    0.63731    0.03027    1.15274
 52 Cr   -2.88147   -0.59615    1.69405
 53 Co   -0.20888   -0.57852    0.68129
 54 Fe   -0.32358    0.23710    0.99681
 55 Cr    0.71011    1.57021    0.56480
 56 Co   -1.38244    1.18894   -1.55055
 57 Fe    0.07705    0.49557   -1.08998
 58 Ni    1.19841   -0.34889   -0.24757
 59 Fe   -0.44534   -0.46980    1.00459
[...]
 93 Ni    0.20046   -1.52297    0.04155
 94 Co   -1.53718    0.07992   -0.55329
 95 Cr   -1.71556   -0.60747   -0.35324
 96 Fe   -0.06312    0.10895   -0.81953
 97 Ni    0.89273   -1.12190    0.44192
 98 Ni    1.86083    1.72572    1.41463
 99 Fe    0.78611    0.93138   -1.53761
100 Ni   -0.83934   -0.00613    0.48926
101 Cr    1.28754   -0.11214   -2.09707
102 Cr    1.03775   -0.90522   -0.94974
103 Cr   -2.47035    1.34689    2.55320
104 Co    1.29765   -0.88674   -1.28839
105 Fe    2.31714    0.76140   -0.02484
106 Cr   -0.30814    0.20057   -0.28568
107 Ni   -1.15306    1.96898   -0.75732

Date: Fri Apr 14 01:11:29 2023