User:   c.zeng@d0061
Date:   Sat Apr 15 10:33:41 2023
Arch:   x86_64
Pid:    223172
CWD:    /home/c.zeng/projects/hea-corrosion/hea-mlp/data-curation/bulk-mcmc/dft-jobs/25
Python: 3.8.1
gpaw:   /home/c.zeng/usr/installs/gpaw/source/gpaw-22.8.0/gpaw
_gpaw:  /home/c.zeng/usr/installs/gpaw/source/gpaw-22.8.0/
        _gpaw.cpython-38-x86_64-linux-gnu.so
ase:    /home/c.zeng/.local/lib/python3.8/site-packages/ase-3.22.1-py3.8.egg/ase (version 3.22.1)
numpy:  /shared/centos7/python/3.8.1/lib/python3.8/site-packages/numpy (version 1.17.4)
scipy:  /shared/centos7/python/3.8.1/lib/python3.8/site-packages/scipy (version 1.4.1)
units:  Angstrom and eV
cores: 30
OpenMP: False
OMP_NUM_THREADS: 1

Input parameters:
  convergence: {energy: 0.0001}
  kpts: [2 2 2]
  maxiter: 666
  mode: {ecut: 350.0,
         name: pw}
  occupations: {fixmagmom: False,
                name: fermi-dirac,
                width: 0.1}
  spinpol: True
  xc: PBE

System changes: positions, numbers, cell, pbc, initial_charges, initial_magmoms

Initialize ...

species:
  Co:
    name: Cobalt
    id: 339d20d5b0b93d2de9531a1bee871d91
    Z: 27.0
    valence: 9
    core: 18
    charge: 0.0
    file: /home/c.zeng/usr/data/gpaw-setups-0.9.20000/Co.PBE.gz
    compensation charges: {type: gauss,
                           rc: 0.32,
                           lmax: 2}
    cutoffs: {filter: 1.87,
              core: 2.55}
    valence states:
      #              energy  rcut
      - 4s(2.00)    -5.469   1.005
      - 4p(0.00)    -1.277   1.058
      - 3d(7.00)    -8.205   1.005
      -  s          21.742   1.005
      -  p          25.934   1.058
      -  d          19.007   1.005

    # Using partial waves for Co as LCAO basis

  Fe:
    name: Iron
    id: 37abbd8d6c3c35915a9b583b742da910
    Z: 26.0
    valence: 8
    core: 18
    charge: 0.0
    file: /home/c.zeng/usr/data/gpaw-setups-0.9.20000/Fe.PBE.gz
    compensation charges: {type: gauss,
                           rc: 0.33,
                           lmax: 2}
    cutoffs: {filter: 2.06,
              core: 2.67}
    valence states:
      #              energy  rcut
      - 4s(2.00)    -5.291   1.164
      - 4p(0.00)    -1.326   1.058
      - 3d(6.00)    -7.505   1.058
      -  s          21.920   1.164
      -  p          25.885   1.058
      -  d          19.706   1.058

[...]

  Ni:
    name: Nickel
    id: 0d9f38a9d6e76a2886f07bb4381f212b
    Z: 28.0
    valence: 16
    core: 12
    charge: 0.0
    file: /home/c.zeng/usr/data/gpaw-setups-0.9.20000/Ni.PBE.gz
    compensation charges: {type: gauss,
                           rc: 0.36,
                           lmax: 2}
    cutoffs: {filter: 2.14,
              core: 1.98}
    valence states:
      #              energy  rcut
      - 4s(2.00)    -5.642   1.164
      - 3p(6.00)   -71.394   1.207
      - 4p(0.00)    -1.226   1.207
      - 3d(8.00)    -8.875   1.138
      -  s          21.570   1.164
      -  d          18.337   1.138

[...]

  Cr:
    name: Chromium
    id: 33f258bda2ca9f93018e70263a35547b
    Z: 24.0
    valence: 6
    core: 18
    charge: 0.0
    file: /home/c.zeng/usr/data/gpaw-setups-0.9.20000/Cr.PBE.gz
    compensation charges: {type: gauss,
                           rc: 0.35,
                           lmax: 2}
    cutoffs: {filter: 2.14,
              core: 3.04}
    valence states:
      #              energy  rcut
      - 4s(1.00)    -4.007   1.164
      - 4p(0.00)    -0.989   1.217
      - 3d(5.00)    -2.913   1.111
      -  s          23.205   1.164
      -  p          26.223   1.217
      -  d          24.299   1.111

    # Using partial waves for Cr as LCAO basis

Reference energy: -3846758.590871  # eV

Spin-polarized calculation.
Magnetic moment: 151.200000

Convergence criteria:
 Maximum [total energy] change in last 3 cyles: 0.0001 eV / electron
 Maximum integral of absolute [dens]ity change: 0.0001 electrons / valence electron
 Maximum integral of absolute [eigenst]ate change: 4e-08 eV^2 / valence electron
 Maximum number of scf [iter]ations: 666
 (Square brackets indicate name in SCF output, whereas a 'c' in
 the SCF output indicates the quantity has converged.)

Symmetries present (total): 1

  ( 1  0  0)
  ( 0  1  0)
  ( 0  0  1)

8 k-points: 2 x 2 x 2 Monkhorst-Pack grid
4 k-points in the irreducible part of the Brillouin zone
       k-points in crystal coordinates                weights
   0:     0.25000000   -0.25000000   -0.25000000          2/8
   1:     0.25000000   -0.25000000    0.25000000          2/8
   2:     0.25000000    0.25000000   -0.25000000          2/8
   3:     0.25000000    0.25000000    0.25000000          2/8

Wave functions: Plane wave expansion
  Cutoff energy: 350.000 eV
  Number of coefficients (min, max): 17755, 17755
  Pulay-stress correction: 0.000000 eV/Ang^3 (de/decut=0.000000)
  Using FFTW library
  ScaLapack parameters: grid=1x1, blocksize=None
  Wavefunction extrapolation:
    Improved wavefunction reuse through dual PAW basis

Occupation numbers: Fermi-Dirac:
  width: 0.1000  # eV

Eigensolver
   Davidson(niter=2)

Densities:
  Coarse grid: 48*48*48 grid
  Fine grid: 96*96*96 grid
  Total Charge: 0.000000

Density mixing:
  Method: difference
  Backend: pulay
  Linear mixing parameter: 0.05
  old densities: 5
  Damping of long wavelength oscillations: 50

Hamiltonian:
  XC and Coulomb potentials evaluated on a 96*96*96 grid
  Using the PBE Exchange-Correlation functional
  External potential:
    NoExternalPotential

XC parameters: PBE with 2 nearest neighbor stencil

Total number of cores used: 30
Parallelization over k-points: 2
Domain decomposition: 5 x 3 x 1

Number of atoms: 108
Number of atomic orbitals: 1053
Number of bands in calculation: 727
Number of valence electrons: 1053
Bands to converge: occupied

... initialized

Initializing position-dependent things.

Density initialized from atomic densities
Creating initial wave functions:
  727 bands from LCAO basis set

       /|  Ni       Cr      Cr    |
      / |   CrFe     Ni           |
     /  |       Co      Fe       Fe
    /   |Cr      CFe       Co     Ni
   /    | Co       Cr       NFe   |
  /  CCo|  FeCr     CoCr          |
 *    NiNi    FeCr   FeNiCo       |
 |      |CoCr   FeFeNi  CoCrFe   Ni
 |      | CrCo     CoCrFeNiNiCr   |
 |    Co|  CoFeCr   CoNiFe   CrCo |
 |      Cr    CrNiNi NiCrNi     Ni|
 |      |FeFe  CoFeCr   FeNiFe   Cr
 |      .-FeCo-----NiCrFe--NiCr---Co
 |   Nio     Fe       Ni         /
 |    NiCo     Cor     CCre     /
 |   /    Co               Cr  /
 |  /      Fe       Fe    NiFe/
 | / Fe     Ni       NiNi    /
 |/            Co       Cr  /
 *--------Co------Co-------*

Positions:
   0 Co    -0.012479   -0.003723   10.616104    ( 0.0000,  0.0000,  2.1000)
   1 Fe    -0.011321    1.761305    1.763386    ( 0.0000,  0.0000,  2.1000)
   2 Fe     1.758365    0.001326    1.769011    ( 0.0000,  0.0000,  2.0000)
   3 Co     1.752686    1.779222   10.610436    ( 0.0000,  0.0000,  2.0000)
   4 Co     3.541196    0.004726   10.616104    ( 0.0000,  0.0000,  0.0000)
   5 Fe     3.534711    1.782438    1.778999    ( 0.0000,  0.0000,  0.0000)
   6 Ni     5.305717   10.600629    1.767950    ( 0.0000,  0.0000,  2.1000)
   7 Co     5.324780    1.765604   10.614618    ( 0.0000,  0.0000,  0.0000)
   8 Co     7.089121    0.014598   10.619926    ( 0.0000,  0.0000,  2.0000)
   9 Fe     7.085279    1.771219    1.773543    ( 0.0000,  0.0000,  1.5000)
  10 Ni     8.850554    0.011470    1.768756    ( 0.0000,  0.0000,  1.5000)
  11 Cr     8.842381    1.777333   10.615680    ( 0.0000,  0.0000,  2.1000)
  12 Fe    10.590535    3.538203   -0.001956    ( 0.0000,  0.0000,  0.0000)
  13 Cr    10.624277    5.310674    1.769786    ( 0.0000,  0.0000,  2.0000)
  14 Co     1.761379    3.535623    1.784572    ( 0.0000,  0.0000,  0.0000)
  15 Cr     1.770200    5.301408   10.611753    ( 0.0000,  0.0000,  2.0000)
  16 Ni     3.556003    3.551407   10.618333    ( 0.0000,  0.0000,  1.5000)
  17 Fe     3.539370    5.311290    1.775199    ( 0.0000,  0.0000,  2.1000)
  18 Cr     5.320142    3.545059    1.779678    ( 0.0000,  0.0000,  1.5000)
  19 Fe     5.306980    5.314654   10.602720    ( 0.0000,  0.0000,  0.0000)
  20 Ni     7.081585    3.529127   10.614725    ( 0.0000,  0.0000,  2.1000)
  21 Ni     7.069241    5.303361    1.781271    ( 0.0000,  0.0000,  1.5000)
  22 Fe     8.841447    3.542671    1.781600    ( 0.0000,  0.0000,  2.1000)
  23 Ni     8.850893    5.290379    0.000220    ( 0.0000,  0.0000,  0.0000)
  24 Ni     0.005868    7.083411   10.614937    ( 0.0000,  0.0000,  2.0000)
  25 Cr    10.601043    8.849694    1.772960    ( 0.0000,  0.0000,  2.1000)
  26 Fe     1.773713    7.072329    1.777184    ( 0.0000,  0.0000,  0.0000)
  27 Ni     1.755520    8.842943   10.608324    ( 0.0000,  0.0000,  0.0000)
  28 Fe     3.544009    7.063116   10.610489    ( 0.0000,  0.0000,  2.0000)
  29 Co     3.542225    8.826820    1.785580    ( 0.0000,  0.0000,  0.0000)
  30 Ni     5.309835    7.081776    1.776600    ( 0.0000,  0.0000,  2.1000)
  31 Cr     5.331945    8.840321   10.604673    ( 0.0000,  0.0000,  2.1000)
  32 Co     7.068434    7.069028   10.623110    ( 0.0000,  0.0000,  0.0000)
  33 Fe     7.083750    8.846796    1.774509    ( 0.0000,  0.0000,  1.5000)
  34 Ni     8.841404    7.058180    1.777173    ( 0.0000,  0.0000,  1.5000)
  35 Cr     8.835524    8.853600   10.611753    ( 0.0000,  0.0000,  0.0000)
  36 Cr    -0.009351   10.618864    3.531070    ( 0.0000,  0.0000,  2.0000)
  37 Fe    10.602508    1.764818    5.300452    ( 0.0000,  0.0000,  1.5000)
  38 Ni     1.756720    0.001379    5.295867    ( 0.0000,  0.0000,  0.0000)
  39 Co     1.766506    1.767154    3.539222    ( 0.0000,  0.0000,  2.0000)
  40 Co     3.539742    0.013881    3.542873    ( 0.0000,  0.0000,  2.0000)
  41 Fe     3.548944    1.788658    5.306237    ( 0.0000,  0.0000,  2.1000)
  42 Fe     5.320174   -0.004685    5.301386    ( 0.0000,  0.0000,  0.0000)
  43 Co     5.316862    1.765551    3.538935    ( 0.0000,  0.0000,  2.0000)
  44 Ni     7.081086   -0.000289    3.531325    ( 0.0000,  0.0000,  2.0000)
  45 Cr     7.072902    1.777407    5.300537    ( 0.0000,  0.0000,  2.0000)
  46 Fe     8.840544    0.012372    5.307851    ( 0.0000,  0.0000,  1.5000)
  47 Cr     8.833592    1.767928    3.534318    ( 0.0000,  0.0000,  2.1000)
  48 Cr    -0.004066    3.525285    3.545951    ( 0.0000,  0.0000,  0.0000)
  49 Co    -0.001689    5.317934    5.307787    ( 0.0000,  0.0000,  1.5000)
  50 Cr     1.769043    3.555101    5.297279    ( 0.0000,  0.0000,  2.0000)
  51 Fe     1.773692    5.305929    3.538266    ( 0.0000,  0.0000,  2.1000)
  52 Co     3.542746    3.537364    3.547575    ( 0.0000,  0.0000,  2.1000)
  53 Fe     3.548477    5.306927    5.301153    ( 0.0000,  0.0000,  2.0000)
  54 Ni     5.316246    3.553031    5.303637    ( 0.0000,  0.0000,  2.0000)
  55 Fe     5.303286    5.303531    3.542385    ( 0.0000,  0.0000,  1.5000)
  56 Cr     7.074962    3.533023    3.537215    ( 0.0000,  0.0000,  1.5000)
  57 Ni     7.066046    5.306046    5.300081    ( 0.0000,  0.0000,  2.0000)
  58 Ni     8.834526    3.538160    5.294530    ( 0.0000,  0.0000,  2.1000)
  59 Ni     8.846255    5.300452    3.537672    ( 0.0000,  0.0000,  1.5000)
[...]
  93 Cr     7.071130    5.304220    8.839313    ( 0.0000,  0.0000,  1.5000)
  94 Co     8.837997    3.524669    8.843389    ( 0.0000,  0.0000,  1.5000)
  95 Cr     8.833772    5.299051    7.076862    ( 0.0000,  0.0000,  0.0000)
  96 Ni     0.012168    7.080333    7.083835    ( 0.0000,  0.0000,  1.5000)
  97 Fe    -0.017034    8.848707    8.843941    ( 0.0000,  0.0000,  2.1000)
  98 Co     1.777938    7.075503    8.840194    ( 0.0000,  0.0000,  2.0000)
  99 Fe     1.758800    8.840035    7.069803    ( 0.0000,  0.0000,  0.0000)
 100 Fe     3.549921    7.066194    7.070090    ( 0.0000,  0.0000,  2.1000)
 101 Co     3.553137    8.839111    8.836776    ( 0.0000,  0.0000,  0.0000)
 102 Cr     5.304189    7.079929    8.840215    ( 0.0000,  0.0000,  2.0000)
 103 Co     5.321946    8.832180    7.082997    ( 0.0000,  0.0000,  2.1000)
 104 Ni     7.057077    7.072149    7.064167    ( 0.0000,  0.0000,  1.5000)
 105 Fe     7.082402    8.855500    8.837487    ( 0.0000,  0.0000,  2.1000)
 106 Co     8.846786    7.077881    8.846732    ( 0.0000,  0.0000,  0.0000)
 107 Ni     8.839313    8.848272    7.075153    ( 0.0000,  0.0000,  0.0000)

Unit cell:
           periodic     x           y           z      points  spacing
  1. axis:    yes   10.614300    0.000000    0.000000    48     0.2211
  2. axis:    yes    0.000000   10.614300    0.000000    48     0.2211
  3. axis:    yes    0.000000    0.000000   10.614300    48     0.2211

  Lengths:  10.614300  10.614300  10.614300
  Angles:   90.000000  90.000000  90.000000

Effective grid spacing dv^(1/3) = 0.2211

     iter     time        total  log10-change:  magmom
                         energy  eigst   dens
iter:   1 10:38:08  -938.271893                  +151.0999
iter:   2 10:39:46  -930.527237  -0.60  -1.38    +115.8395
iter:   3 10:41:25  -919.628013  -0.99  -1.37    +86.3955
iter:   4 10:43:03  -893.762351  -1.47  -1.39    +72.5761
iter:   5 10:44:41  -889.568863  -2.00  -1.50    +65.6569
iter:   6 10:46:19  -893.763003  -2.01  -1.54    +61.3643
iter:   7 10:47:58  -898.535850  -1.71  -1.55    +59.7289
iter:   8 10:49:36  -886.682482  -1.78  -1.55    +57.8102
iter:   9 10:51:15  -897.600499  -1.78  -1.79    +57.3203
iter:  10 10:52:53  -887.316334  -2.00  -1.71    +56.9200
iter:  11 10:54:32  -886.629045  -2.62  -1.91    +57.0133
iter:  12 10:56:10  -886.854133  -2.78  -1.98    +57.7159
iter:  13 10:57:49  -887.525228  -2.82  -2.00    +58.3155
iter:  14 10:59:27  -888.778387  -2.70  -2.03    +58.8127
iter:  15 11:01:06  -889.369883  -2.61  -2.02    +59.3995
iter:  16 11:02:44  -890.780930  -2.48  -2.07    +59.8014
iter:  17 11:04:22  -888.780988  -2.66  -2.01    +59.8567
iter:  18 11:06:01  -888.955370  -2.87  -2.19    +60.2620
iter:  19 11:07:39  -888.819928  -2.99  -2.27    +60.7480
iter:  20 11:09:18  -888.757624  -3.24  -2.27    +61.2348
iter:  21 11:10:56  -888.948415  -3.27  -2.36    +61.7348
iter:  22 11:12:34  -889.196677  -3.26  -2.38    +62.0986
iter:  23 11:14:13  -889.003585  -3.51  -2.35    +62.4762
iter:  24 11:15:52  -889.301256  -3.40  -2.47    +63.0069
iter:  25 11:17:30  -889.338601  -3.46  -2.47    +63.2560
iter:  26 11:19:08  -889.428971  -3.51  -2.48    +63.3663
iter:  27 11:20:47  -889.458051  -3.53  -2.53    +63.5116
iter:  28 11:22:25  -889.696799  -3.41  -2.59    +63.7355
iter:  29 11:24:04  -889.558466  -3.60  -2.50    +63.8021
iter:  30 11:25:42  -889.565582  -3.87  -2.62    +63.8829
iter:  31 11:27:20  -889.600811c -3.91  -2.65    +63.7919
iter:  32 11:28:59  -889.594065c -4.10  -2.69    +63.9393
iter:  33 11:30:38  -889.605164c -4.51  -2.70    +64.0004
iter:  34 11:32:16  -889.684021c -4.06  -2.75    +63.9713
iter:  35 11:33:55  -889.721683  -3.97  -2.74    +63.9864
iter:  36 11:35:34  -889.748247c -3.94  -2.73    +63.9462
iter:  37 11:37:12  -889.719341c -3.99  -2.76    +63.9753
iter:  38 11:38:51  -889.774516c -3.93  -2.91    +63.8423
iter:  39 11:40:29  -889.709176c -4.17  -2.81    +63.7985
iter:  40 11:42:08  -889.709002c -4.59  -2.97    +63.9202
iter:  41 11:43:47  -889.713522c -4.76  -3.07    +63.9045
iter:  42 11:45:25  -889.712992c -5.22  -3.10    +63.9174
iter:  43 11:47:04  -889.724030c -5.15  -3.16    +63.9099
iter:  44 11:48:49  -889.765781c -4.10  -3.17    +63.9201
iter:  45 11:51:31  -889.770564c -5.09  -3.13    +63.9864
iter:  46 11:54:17  -889.775022c -5.03  -3.10    +63.8245
iter:  47 11:57:03  -889.783461c -5.14  -3.08    +63.9954
iter:  48 11:59:50  -889.784627c -5.64  -3.06    +63.9456
iter:  49 12:02:36  -889.784973c -5.01  -3.06    +64.0152
iter:  50 12:05:22  -889.788853c -4.83  -3.13    +64.0546
iter:  51 12:08:09  -889.788535c -4.90  -3.23    +64.0795
iter:  52 12:10:56  -889.789963c -4.98  -3.29    +64.0945
iter:  53 12:13:43  -889.796240c -4.74  -3.32    +64.1393
iter:  54 12:16:30  -889.791098c -5.02  -3.25    +64.1675
iter:  55 12:19:18  -889.791365c -5.51  -3.39    +64.1768
iter:  56 12:22:06  -889.795334c -5.48  -3.48    +64.2154
iter:  57 12:24:53  -889.796070c -6.07  -3.48    +64.2244
iter:  58 12:27:40  -889.798254c -5.77  -3.49    +64.2638
iter:  59 12:30:27  -889.801468c -5.65  -3.50    +64.3020
iter:  60 12:33:14  -889.805607c -5.60  -3.46    +64.3188
iter:  61 12:36:01  -889.804179c -5.63  -3.38    +64.3215
iter:  62 12:38:48  -889.805150c -5.86  -3.42    +64.3276
iter:  63 12:41:36  -889.808886c -5.62  -3.45    +64.3465
iter:  64 12:44:23  -889.820599c -4.90  -3.41    +64.3756
iter:  65 12:47:11  -889.812598c -5.23  -3.22    +64.3635
iter:  66 12:49:59  -889.812372c -5.77  -3.37    +64.3814
iter:  67 12:52:46  -889.814358c -5.88  -3.38    +64.3958
iter:  68 12:55:34  -889.820713c -4.79  -3.35    +64.4109
iter:  69 12:58:21  -889.812853c -4.98  -3.21    +64.4212
iter:  70 13:01:07  -889.812747c -5.32  -3.32    +64.4161
iter:  71 13:03:55  -889.812291c -5.50  -3.34    +64.4024
iter:  72 13:06:42  -889.809413c -5.75  -3.37    +64.4169
iter:  73 13:09:30  -889.809088c -5.74  -3.48    +64.4138
iter:  74 13:12:18  -889.816555c -5.14  -3.46    +64.4118
iter:  75 13:15:05  -889.811935c -5.37  -3.32    +64.4267
iter:  76 13:17:53  -889.815374c -5.18  -3.45    +64.4163
iter:  77 13:20:41  -889.815462c -5.02  -3.34    +64.4154
iter:  78 13:23:29  -889.811687c -5.06  -3.35    +64.4149
iter:  79 13:26:16  -889.811656c -5.54  -3.44    +64.4243
iter:  80 13:29:04  -889.810543c -5.50  -3.55    +64.4271
iter:  81 13:31:51  -889.809600c -5.45  -3.55    +64.4171
iter:  82 13:34:39  -889.809609c -5.90  -3.59    +64.4368
iter:  83 13:37:26  -889.809544c -5.95  -3.68    +64.4436
iter:  84 13:40:14  -889.811072c -5.57  -3.75    +64.4511
iter:  85 13:43:02  -889.808914c -5.78  -3.57    +64.4498
iter:  86 13:45:50  -889.809320c -6.05  -3.74    +64.4518
iter:  87 13:48:37  -889.809811c -5.92  -3.86    +64.4585
iter:  88 13:51:25  -889.808917c -6.30  -3.77    +64.4499
iter:  89 13:54:14  -889.808768c -6.64  -3.92    +64.4493
iter:  90 13:57:02  -889.808965c -6.55  -4.01c   +64.4469
iter:  91 13:59:49  -889.809156c -6.67  -3.97    +64.4494
iter:  92 14:02:37  -889.808827c -6.90  -4.03c   +64.4488
iter:  93 14:05:25  -889.809153c -6.46  -4.06c   +64.4461
iter:  94 14:08:13  -889.809280c -6.47  -3.95    +64.4501
iter:  95 14:11:01  -889.809204c -6.58  -4.02c   +64.4496
iter:  96 14:13:42  -889.809265c -6.72  -4.09c   +64.4492
iter:  97 14:16:30  -889.808943c -6.61  -4.04c   +64.4476
iter:  98 14:19:17  -889.809239c -6.86  -4.09c   +64.4481
iter:  99 14:22:06  -889.809338c -7.08  -4.18c   +64.4524
iter: 100 14:24:53  -889.809244c -6.90  -4.18c   +64.4495
iter: 101 14:27:40  -889.809330c -6.69  -4.17c   +64.4515
iter: 102 14:30:26  -889.809437c -6.87  -4.13c   +64.4539
iter: 103 14:33:09  -889.809710c -6.68  -4.20c   +64.4570
iter: 104 14:35:58  -889.809288c -6.54  -4.20c   +64.4551
iter: 105 14:38:47  -889.809332c -6.94  -4.14c   +64.4499
iter: 106 14:41:34  -889.809467c -7.16  -4.40c   +64.4533
iter: 107 14:44:22  -889.809509c -7.27  -4.45c   +64.4518
iter: 108 14:47:10  -889.809501c -7.78c -4.47c   +64.4508

Converged after 108 iterations.

Dipole moment: (6.676606, -2.149708, 0.970218) |e|*Ang

Total magnetic moment: (0.000000, 0.000000, 64.450828)
Local magnetic moments:
   0 Co ( 0.000000,  0.000000,  0.912524)
   1 Fe ( 0.000000,  0.000000,  1.739145)
   2 Fe ( 0.000000,  0.000000,  2.113657)
   3 Co ( 0.000000,  0.000000,  0.960910)
   4 Co ( 0.000000,  0.000000,  1.212478)
   5 Fe ( 0.000000,  0.000000,  2.391475)
   6 Ni ( 0.000000,  0.000000,  0.434947)
   7 Co ( 0.000000,  0.000000,  1.175057)
   8 Co ( 0.000000,  0.000000,  1.003741)
   9 Fe ( 0.000000,  0.000000,  2.111020)
  10 Ni ( 0.000000,  0.000000,  0.194456)
  11 Cr ( 0.000000,  0.000000, -1.486736)
  12 Fe ( 0.000000,  0.000000, -1.645766)
  13 Cr ( 0.000000,  0.000000,  0.951535)
  14 Co ( 0.000000,  0.000000,  0.868574)
  15 Cr ( 0.000000,  0.000000, -1.160776)
  16 Ni ( 0.000000,  0.000000,  0.189938)
  17 Fe ( 0.000000,  0.000000,  2.025450)
  18 Cr ( 0.000000,  0.000000, -1.594571)
  19 Fe ( 0.000000,  0.000000,  1.652486)
  20 Ni ( 0.000000,  0.000000,  0.201777)
  21 Ni ( 0.000000,  0.000000,  0.160849)
  22 Fe ( 0.000000,  0.000000,  1.659073)
  23 Ni ( 0.000000,  0.000000,  0.223867)
  24 Ni ( 0.000000,  0.000000,  0.245684)
  25 Cr ( 0.000000,  0.000000,  0.645425)
  26 Fe ( 0.000000,  0.000000,  1.967073)
  27 Ni ( 0.000000,  0.000000,  0.376465)
  28 Fe ( 0.000000,  0.000000,  1.664812)
  29 Co ( 0.000000,  0.000000,  1.446272)
  30 Ni ( 0.000000,  0.000000,  0.242491)
  31 Cr ( 0.000000,  0.000000, -1.688531)
  32 Co ( 0.000000,  0.000000,  0.827529)
  33 Fe ( 0.000000,  0.000000,  2.162513)
  34 Ni ( 0.000000,  0.000000,  0.166732)
  35 Cr ( 0.000000,  0.000000, -1.579433)
  36 Cr ( 0.000000,  0.000000, -1.322377)
  37 Fe ( 0.000000,  0.000000,  1.793195)
  38 Ni ( 0.000000,  0.000000,  0.424509)
  39 Co ( 0.000000,  0.000000,  1.055972)
  40 Co ( 0.000000,  0.000000,  1.493716)
  41 Fe ( 0.000000,  0.000000,  2.283607)
  42 Fe ( 0.000000,  0.000000,  2.263409)
  43 Co ( 0.000000,  0.000000,  1.157571)
  44 Ni ( 0.000000,  0.000000,  0.268973)
  45 Cr ( 0.000000,  0.000000, -0.408542)
  46 Fe ( 0.000000,  0.000000,  2.026722)
  47 Cr ( 0.000000,  0.000000,  0.052498)
  48 Cr ( 0.000000,  0.000000, -1.199013)
  49 Co ( 0.000000,  0.000000,  0.860152)
  50 Cr ( 0.000000,  0.000000, -1.354398)
  51 Fe ( 0.000000,  0.000000,  1.548687)
  52 Co ( 0.000000,  0.000000,  1.093749)
  53 Fe ( 0.000000,  0.000000,  1.864872)
  54 Ni ( 0.000000,  0.000000,  0.188254)
  55 Fe ( 0.000000,  0.000000,  2.037624)
  56 Cr ( 0.000000,  0.000000, -0.908411)
  57 Ni ( 0.000000,  0.000000,  0.133905)
  58 Ni ( 0.000000,  0.000000,  0.025997)
  59 Ni ( 0.000000,  0.000000,  0.126672)
[...]
  93 Cr ( 0.000000,  0.000000, -0.119803)
  94 Co ( 0.000000,  0.000000,  0.596473)
  95 Cr ( 0.000000,  0.000000,  1.301191)
  96 Ni ( 0.000000,  0.000000,  0.377859)
  97 Fe ( 0.000000,  0.000000,  2.357060)
  98 Co ( 0.000000,  0.000000,  1.172641)
  99 Fe ( 0.000000,  0.000000,  2.359754)
 100 Fe ( 0.000000,  0.000000,  1.884180)
 101 Co ( 0.000000,  0.000000,  1.202007)
 102 Cr ( 0.000000,  0.000000, -1.099661)
 103 Co ( 0.000000,  0.000000,  1.368334)
 104 Ni ( 0.000000,  0.000000,  0.319276)
 105 Fe ( 0.000000,  0.000000,  2.199089)
 106 Co ( 0.000000,  0.000000,  1.135703)
 107 Ni ( 0.000000,  0.000000,  0.570405)

Energy contributions relative to reference atoms: (reference = -3846758.590871)

Kinetic:       +119.883396
Potential:     -187.072507
External:        +0.000000
XC:            -860.321791
Entropy (-ST):   -4.682535
Local:          +40.042668
Free energy:   -892.150768
Extrapolated:  -889.809501

Spin contamination: 30.156560 electrons
Showing only first 2 kpts
                      Up                     Down
 Kpt  Band  Eigenvalues  Occupancy  Eigenvalues  Occupancy
  0   524      9.84526    0.99366     10.71373    0.02582
  0   525      9.85218    0.99321     10.73251    0.02149
  0   526      9.86459    0.99232     10.75360    0.01748
  0   527      9.88470    0.99062     10.75990    0.01643

  1   524      9.83861    0.99406     10.71513    0.02547
  1   525      9.84540    0.99365     10.73144    0.02172
  1   526      9.85294    0.99316     10.73835    0.02030
  1   527      9.87881    0.99115     10.75108    0.01792

Fermi level: 10.35068

No gap

Forces in eV/Ang:
  0 Co    0.04496    0.01532    0.17957
  1 Fe    0.28407    0.28593   -0.11689
  2 Fe    0.19825   -0.07547   -0.30892
  3 Co   -0.01223    0.14785    0.14336
  4 Co    0.04287   -0.02844   -0.04051
  5 Fe   -0.03783    0.03577   -0.12870
  6 Ni    0.03845    0.08295    0.10427
  7 Co   -0.25381    0.02612    0.02185
  8 Co   -0.11281   -0.11645    0.03518
  9 Fe   -0.23949   -0.22000   -0.01485
 10 Ni   -0.27902   -0.07731   -0.14798
 11 Cr    0.21371   -0.05833    0.11309
 12 Fe    0.53122    0.27102    0.01381
 13 Cr    0.10637   -0.17712   -0.02025
 14 Co   -0.04320   -0.21430   -0.13128
 15 Cr   -0.04104   -0.10094    0.24110
 16 Ni   -0.22333   -0.21351   -0.05010
 17 Fe   -0.26415   -0.29348   -0.09002
 18 Cr   -0.31247   -0.12788   -0.47890
 19 Fe    0.01207    0.02612   -0.06119
 20 Ni   -0.13676    0.16991   -0.14311
 21 Ni    0.03812   -0.06173   -0.14724
 22 Fe    0.02821   -0.03474    0.07480
 23 Ni   -0.00433    0.11872   -0.22128
 24 Ni   -0.11062   -0.13409   -0.14813
 25 Cr    0.08183   -0.13206   -0.09370
 26 Fe    0.10979    0.36904   -0.02172
 27 Ni    0.24077   -0.08664    0.06357
 28 Fe   -0.04996    0.39924    0.00246
 29 Co   -0.13212    0.19307    0.08937
 30 Ni   -0.07812    0.01510   -0.14279
 31 Cr   -0.10748    0.10613    0.46581
 32 Co    0.10462    0.06080   -0.19231
 33 Fe   -0.08931    0.13021   -0.32868
 34 Ni    0.11461    0.12529   -0.18907
 35 Cr   -0.20107   -0.04931    0.04045
 36 Cr    0.21224   -0.13294    0.24173
 37 Fe    0.27105    0.15366   -0.05175
 38 Ni    0.15877    0.11810    0.09345
 39 Co   -0.14268    0.24049    0.09218
 40 Co   -0.04191   -0.31453   -0.04112
 41 Fe   -0.26815   -0.15283    0.02210
 42 Fe    0.25620   -0.19562   -0.12235
 43 Co   -0.06613    0.15389    0.09948
 44 Ni    0.02468    0.04258   -0.00224
 45 Cr   -0.05405   -0.23872   -0.03658
 46 Fe   -0.31546   -0.19712    0.29946
 47 Cr   -0.38167    0.02715   -0.12435
 48 Cr    0.04016    0.08270   -0.30586
 49 Co    0.17600   -0.30014   -0.18510
 50 Cr    0.52169    0.16137    0.01430
 51 Fe   -0.07072   -0.14273    0.17606
 52 Co   -0.15606   -0.01749   -0.15660
 53 Fe   -0.16639   -0.04879    0.11994
 54 Ni    0.01126   -0.12239    0.03211
 55 Fe    0.08913    0.03431    0.04476
 56 Cr    0.49396    0.17504    0.30264
 57 Ni    0.06768   -0.07721    0.14044
 58 Ni    0.09884    0.19525    0.03507
 59 Ni    0.03450    0.04071    0.12042
[...]
 93 Cr    0.23535    0.03455    0.40565
 94 Co    0.10035    0.19108    0.04565
 95 Cr    0.01294    0.07714   -0.12081
 96 Ni   -0.08048   -0.18977    0.07367
 97 Fe    0.10652   -0.13068    0.19435
 98 Co   -0.03042   -0.04834    0.11857
 99 Fe    0.20209    0.14188   -0.04350
100 Fe   -0.10324    0.20030    0.23010
101 Co    0.05005    0.04520   -0.06789
102 Cr    0.18820   -0.21191   -0.37568
103 Co   -0.32767    0.09379   -0.12716
104 Ni    0.26343    0.20428    0.13687
105 Fe    0.02021   -0.42511    0.18078
106 Co   -0.13629   -0.23707    0.18314
107 Ni    0.04008   -0.18915    0.02507

Date: Sat Apr 15 14:47:36 2023