User:   c.zeng@d0038
Date:   Fri Apr 14 08:16:00 2023
Arch:   x86_64
Pid:    169291
CWD:    /home/c.zeng/projects/hea-corrosion/hea-mlp/data-curation/bulk-mcmc/dft-jobs/119
Python: 3.8.1
gpaw:   /home/c.zeng/usr/installs/gpaw/source/gpaw-22.8.0/gpaw
_gpaw:  /home/c.zeng/usr/installs/gpaw/source/gpaw-22.8.0/
        _gpaw.cpython-38-x86_64-linux-gnu.so
ase:    /home/c.zeng/.local/lib/python3.8/site-packages/ase-3.22.1-py3.8.egg/ase (version 3.22.1)
numpy:  /shared/centos7/python/3.8.1/lib/python3.8/site-packages/numpy (version 1.17.4)
scipy:  /shared/centos7/python/3.8.1/lib/python3.8/site-packages/scipy (version 1.4.1)
units:  Angstrom and eV
cores: 30
OpenMP: False
OMP_NUM_THREADS: 1

Input parameters:
  convergence: {energy: 0.0001}
  kpts: [2 2 2]
  maxiter: 666
  mode: {ecut: 350.0,
         name: pw}
  occupations: {fixmagmom: False,
                name: fermi-dirac,
                width: 0.1}
  spinpol: True
  xc: PBE

System changes: positions, numbers, cell, pbc, initial_charges, initial_magmoms

Initialize ...

species:
  Co:
    name: Cobalt
    id: 339d20d5b0b93d2de9531a1bee871d91
    Z: 27.0
    valence: 9
    core: 18
    charge: 0.0
    file: /home/c.zeng/usr/data/gpaw-setups-0.9.20000/Co.PBE.gz
    compensation charges: {type: gauss,
                           rc: 0.32,
                           lmax: 2}
    cutoffs: {filter: 1.87,
              core: 2.55}
    valence states:
      #              energy  rcut
      - 4s(2.00)    -5.469   1.005
      - 4p(0.00)    -1.277   1.058
      - 3d(7.00)    -8.205   1.005
      -  s          21.742   1.005
      -  p          25.934   1.058
      -  d          19.007   1.005

    # Using partial waves for Co as LCAO basis

  Fe:
    name: Iron
    id: 37abbd8d6c3c35915a9b583b742da910
    Z: 26.0
    valence: 8
    core: 18
    charge: 0.0
    file: /home/c.zeng/usr/data/gpaw-setups-0.9.20000/Fe.PBE.gz
    compensation charges: {type: gauss,
                           rc: 0.33,
                           lmax: 2}
    cutoffs: {filter: 2.06,
              core: 2.67}
    valence states:
      #              energy  rcut
      - 4s(2.00)    -5.291   1.164
      - 4p(0.00)    -1.326   1.058
      - 3d(6.00)    -7.505   1.058
      -  s          21.920   1.164
      -  p          25.885   1.058
      -  d          19.706   1.058

[...]

  Ni:
    name: Nickel
    id: 0d9f38a9d6e76a2886f07bb4381f212b
    Z: 28.0
    valence: 16
    core: 12
    charge: 0.0
    file: /home/c.zeng/usr/data/gpaw-setups-0.9.20000/Ni.PBE.gz
    compensation charges: {type: gauss,
                           rc: 0.36,
                           lmax: 2}
    cutoffs: {filter: 2.14,
              core: 1.98}
    valence states:
      #              energy  rcut
      - 4s(2.00)    -5.642   1.164
      - 3p(6.00)   -71.394   1.207
      - 4p(0.00)    -1.226   1.207
      - 3d(8.00)    -8.875   1.138
      -  s          21.570   1.164
      -  d          18.337   1.138

[...]

  Al:
    name: Aluminium
    id: 0292cae29f5d6237e50f6abdd43a7bdd
    Z: 13.0
    valence: 3
    core: 10
    charge: 0.0
    file: /home/c.zeng/usr/data/gpaw-setups-0.9.20000/Al.PBE.gz
    compensation charges: {type: gauss,
                           rc: 0.34,
                           lmax: 2}
    cutoffs: {filter: 1.91,
              core: 2.36}
    valence states:
      #              energy  rcut
      - 3s(2.00)    -7.753   1.085
      - 3p(1.00)    -2.712   1.085
      -  s          19.459   1.085
      -  p          24.499   1.085
      -  d           0.000   1.085

[...]

  Cr:
    name: Chromium
    id: 33f258bda2ca9f93018e70263a35547b
    Z: 24.0
    valence: 6
    core: 18
    charge: 0.0
    file: /home/c.zeng/usr/data/gpaw-setups-0.9.20000/Cr.PBE.gz
    compensation charges: {type: gauss,
                           rc: 0.35,
                           lmax: 2}
    cutoffs: {filter: 2.14,
              core: 3.04}
    valence states:
      #              energy  rcut
      - 4s(1.00)    -4.007   1.164
      - 4p(0.00)    -0.989   1.217
      - 3d(5.00)    -2.913   1.111
      -  s          23.205   1.164
      -  p          26.223   1.217
      -  d          24.299   1.111

    # Using partial waves for Cr as LCAO basis

Reference energy: -3548577.034362  # eV

Spin-polarized calculation.
Magnetic moment: 136.400000

Convergence criteria:
 Maximum [total energy] change in last 3 cyles: 0.0001 eV / electron
 Maximum integral of absolute [dens]ity change: 0.0001 electrons / valence electron
 Maximum integral of absolute [eigenst]ate change: 4e-08 eV^2 / valence electron
 Maximum number of scf [iter]ations: 666
 (Square brackets indicate name in SCF output, whereas a 'c' in
 the SCF output indicates the quantity has converged.)

Symmetries present (total): 1

  ( 1  0  0)
  ( 0  1  0)
  ( 0  0  1)

8 k-points: 2 x 2 x 2 Monkhorst-Pack grid
4 k-points in the irreducible part of the Brillouin zone
       k-points in crystal coordinates                weights
   0:     0.25000000   -0.25000000   -0.25000000          2/8
   1:     0.25000000   -0.25000000    0.25000000          2/8
   2:     0.25000000    0.25000000   -0.25000000          2/8
   3:     0.25000000    0.25000000    0.25000000          2/8

Wave functions: Plane wave expansion
  Cutoff energy: 350.000 eV
  Number of coefficients (min, max): 18331, 18331
  Pulay-stress correction: 0.000000 eV/Ang^3 (de/decut=0.000000)
  Using FFTW library
  ScaLapack parameters: grid=1x1, blocksize=None
  Wavefunction extrapolation:
    Improved wavefunction reuse through dual PAW basis

Occupation numbers: Fermi-Dirac:
  width: 0.1000  # eV

Eigensolver
   Davidson(niter=2)

Densities:
  Coarse grid: 48*48*48 grid
  Fine grid: 96*96*96 grid
  Total Charge: 0.000000

Density mixing:
  Method: difference
  Backend: pulay
  Linear mixing parameter: 0.05
  old densities: 5
  Damping of long wavelength oscillations: 50

Hamiltonian:
  XC and Coulomb potentials evaluated on a 96*96*96 grid
  Using the PBE Exchange-Correlation functional
  External potential:
    NoExternalPotential

XC parameters: PBE with 2 nearest neighbor stencil

Total number of cores used: 30
Parallelization over k-points: 2
Domain decomposition: 5 x 3 x 1

Number of atoms: 108
Number of atomic orbitals: 994
Number of bands in calculation: 674
Number of valence electrons: 980
Bands to converge: occupied

... initialized

Initializing position-dependent things.

Density initialized from atomic densities
Creating initial wave functions:
  674 bands from LCAO basis set

        Co-------Co---------------.
       /|  Co       Fe            |
      / |   AlCr     CrCo     CrCo|
     / Ni       CAl     Ni        |
    /   CCo      Ni      FAl      |
   /    | CoCo     Co      CoCo   |
  /   Co|  NiFeAl   NiNi    CrCr  |
 *      Cr  CrCoNi   CoNiNi   FeNi|
 |Fe   NiNiCr   CrACr   FeCr      |
 | Fe   | NiNi   NiNiCr    Cr     |
 |     Co  CoFeNi   FeNiAl  NiNi  |
 |      Fe    FeNi   FeAlFe   AlCr|
 |Cr    |CoAl   NFeFe   FeFe     Fe
 |      .-FeCr-----FeCr--FeCoNi---.
 |     Cr    CoCr     FeCo  Cr Fe/
 |    / Al      Co       Cr     /
 Cr  /            Cr           /
 |  /      Ni      Cr       Fe/
 | / Co              Fe      /
 |/                     Co  /

Positions:
   0 Co    10.732479   -0.010418   10.721263    ( 0.0000,  0.0000,  2.1000)
   1 Fe    10.706231    1.787006    1.816653    ( 0.0000,  0.0000,  1.5000)
   2 Co     1.827923    0.046024    1.820803    ( 0.0000,  0.0000,  0.0000)
   3 Co     1.781666    1.794790   10.668295    ( 0.0000,  0.0000,  0.0000)
   4 Co     3.605675   -0.024615   10.696977    ( 0.0000,  0.0000,  0.0000)
   5 Ni     3.626284    1.755611    1.827590    ( 0.0000,  0.0000,  2.0000)
   6 Fe     5.347186   -0.032870    1.798425    ( 0.0000,  0.0000,  2.0000)
   7 Al     5.383406    1.755353   -0.004078    ( 0.0000,  0.0000,  2.0000)
   8 Fe     7.108694   -0.021619    0.052076    ( 0.0000,  0.0000,  0.0000)
   9 Cr     7.129131    1.783639    1.838109    ( 0.0000,  0.0000,  2.0000)
  10 Al     8.928414   -0.004386    1.840918    ( 0.0000,  0.0000,  2.0000)
  11 Co     8.945645    1.852509    0.063651    ( 0.0000,  0.0000,  0.0000)
  12 Co    10.721403    3.615743   10.707625    ( 0.0000,  0.0000,  2.1000)
  13 Fe    10.714905    5.407607    1.816064    ( 0.0000,  0.0000,  2.0000)
  14 Al     1.786931    3.537020    1.885127    ( 0.0000,  0.0000,  0.0000)
  15 Co     1.774396    5.426328   10.657058    ( 0.0000,  0.0000,  0.0000)
  16 Co     3.564340    3.564490   10.690115    ( 0.0000,  0.0000,  0.0000)
  17 Co     3.570334    5.434059    1.813919    ( 0.0000,  0.0000,  0.0000)
  18 Co     5.350145    3.574934    1.808708    ( 0.0000,  0.0000,  0.0000)
  19 Al     5.345084    5.410577   10.703464    ( 0.0000,  0.0000,  2.1000)
  20 Fe     7.157695    3.624514    0.002553    ( 0.0000,  0.0000,  2.1000)
  21 Fe     7.157792    5.380200    1.803904    ( 0.0000,  0.0000,  0.0000)
  22 Cr     8.944980    3.620622    1.842988    ( 0.0000,  0.0000,  0.0000)
  23 Al     8.940316    5.370571   -0.005231    ( 0.0000,  0.0000,  0.0000)
  24 Co    10.674578    7.138041   10.683446    ( 0.0000,  0.0000,  2.0000)
  25 Fe    10.668413    8.869012    1.800001    ( 0.0000,  0.0000,  0.0000)
  26 Fe     1.807904    7.157309    1.806960    ( 0.0000,  0.0000,  1.5000)
  27 Co     1.808086    8.895217   10.689064    ( 0.0000,  0.0000,  0.0000)
  28 Cr     3.612462    7.185391   10.698339    ( 0.0000,  0.0000,  2.0000)
  29 Ni     3.598277    8.905404    1.808097    ( 0.0000,  0.0000,  1.5000)
  30 Fe     5.362229    7.149643    1.778835    ( 0.0000,  0.0000,  2.1000)
  31 Fe     5.368084    8.904170   10.708750    ( 0.0000,  0.0000,  2.0000)
  32 Co     7.127640    7.124156   10.700741    ( 0.0000,  0.0000,  2.0000)
  33 Fe     7.139982    8.914904    1.783157    ( 0.0000,  0.0000,  0.0000)
  34 Co     8.884516    7.107975    1.798232    ( 0.0000,  0.0000,  2.0000)
  35 Cr     8.895410    8.880302    0.005476    ( 0.0000,  0.0000,  0.0000)
  36 Cr    10.737840    0.006469    3.587908    ( 0.0000,  0.0000,  1.5000)
  37 Cr     0.009110    1.816214    5.359506    ( 0.0000,  0.0000,  1.5000)
  38 Cr     1.833434   -0.010553    5.335488    ( 0.0000,  0.0000,  2.1000)
  39 Cr     1.814369    1.777409    3.664755    ( 0.0000,  0.0000,  1.5000)
  40 Ni     3.608002   -0.027958    3.615958    ( 0.0000,  0.0000,  2.1000)
  41 Al     3.597397    1.774364    5.368180    ( 0.0000,  0.0000,  1.5000)
  42 Co     5.355185   -0.018813    5.365682    ( 0.0000,  0.0000,  2.1000)
  43 Cr     5.354005    1.762698    3.609396    ( 0.0000,  0.0000,  1.5000)
  44 Cr     7.096449    0.004839    3.553950    ( 0.0000,  0.0000,  0.0000)
  45 Fe     7.124574    1.817747    5.354692    ( 0.0000,  0.0000,  2.1000)
  46 Fe     8.888698   10.712332    5.289714    ( 0.0000,  0.0000,  0.0000)
  47 Co     8.931727    1.815495    3.558979    ( 0.0000,  0.0000,  1.5000)
  48 Ni    10.700248    3.599864    3.631730    ( 0.0000,  0.0000,  0.0000)
  49 Ni    -0.007893    5.382698    5.388017    ( 0.0000,  0.0000,  2.0000)
  50 Fe     1.794265    3.594073    5.365264    ( 0.0000,  0.0000,  2.0000)
  51 Co     1.782020    5.398675    3.628600    ( 0.0000,  0.0000,  1.5000)
[...]
iter:  88 12:02:35  -851.644572c -4.27  -3.77    +59.7807
iter:  89 12:05:08  -851.639423c -4.69  -3.85    +59.6881
iter:  90 12:07:40  -851.641786c -5.58  -3.80    +59.6944
iter:  91 12:10:13  -851.646612c -5.33  -3.89    +59.7066
iter:  92 12:12:45  -851.645842c -6.39  -3.84    +59.7097
iter:  93 12:15:18  -851.649255c -5.73  -3.91    +59.7246
iter:  94 12:17:51  -851.644757c -5.62  -3.89    +59.7141
iter:  95 12:20:23  -851.643323c -6.05  -3.89    +59.6892
iter:  96 12:22:55  -851.647273c -5.77  -3.93    +59.7137
iter:  97 12:25:28  -851.644444c -5.99  -4.03c   +59.7075
iter:  98 12:28:00  -851.650229c -5.32  -4.26c   +59.7309
iter:  99 12:30:32  -851.646680c -5.92  -4.06c   +59.7192
iter: 100 12:33:03  -851.640157c -5.10  -4.17c   +59.6800
iter: 101 12:35:31  -851.645504c -5.65  -4.09c   +59.7129
iter: 102 12:38:04  -851.637702c -5.09  -4.34c   +59.6707
iter: 103 12:40:36  -851.630673c -4.79  -3.97    +59.6235
iter: 104 12:43:08  -851.616397c -4.00  -3.73    +59.4754
iter: 105 12:45:40  -851.611211c -3.99  -3.39    +59.3509
iter: 106 12:48:12  -851.612046c -4.29  -3.24    +59.2851
iter: 107 12:50:44  -851.617072c -3.88  -3.17    +59.1306
iter: 108 12:53:16  -851.621344c -4.22  -3.06    +59.0776
iter: 109 12:55:48  -851.624609c -4.77  -3.02    +59.0780
iter: 110 12:58:20  -851.628241c -4.96  -3.01    +59.0954
iter: 111 13:00:53  -851.637419c -4.37  -2.98    +59.0972
iter: 112 13:03:25  -851.631501c -4.15  -2.86    +59.0632
iter: 113 13:05:58  -851.650005c -3.77  -2.91    +59.2191
iter: 114 13:08:30  -851.602457c -4.17  -2.85    +59.1052
iter: 115 13:11:03  -851.591891c -4.67  -3.03    +59.1611
iter: 116 13:13:36  -851.599725c -4.90  -3.28    +59.1897
iter: 117 13:16:09  -851.605430c -4.59  -3.31    +59.1887
iter: 118 13:18:41  -851.599612c -5.10  -3.27    +59.1563
iter: 119 13:21:14  -851.604489c -5.03  -3.38    +59.1899
iter: 120 13:23:46  -851.607049c -4.98  -3.37    +59.2156
iter: 121 13:26:18  -851.605093c -5.19  -3.33    +59.2187
iter: 122 13:28:49  -851.604862c -5.17  -3.50    +59.2351
iter: 123 13:31:18  -851.605034c -5.50  -3.46    +59.2597
iter: 124 13:33:51  -851.607393c -5.51  -3.72    +59.2839
iter: 125 13:36:23  -851.606892c -5.61  -3.65    +59.2900
iter: 126 13:38:56  -851.607562c -5.86  -3.67    +59.3056
iter: 127 13:41:29  -851.609667c -5.65  -3.78    +59.3395
iter: 128 13:44:01  -851.610551c -6.07  -3.79    +59.3451
iter: 129 13:46:34  -851.610965c -5.95  -3.79    +59.3645
iter: 130 13:49:07  -851.612760c -5.85  -3.86    +59.3947
iter: 131 13:51:39  -851.613615c -6.16  -3.89    +59.4006
iter: 132 13:54:11  -851.614436c -5.90  -3.86    +59.4194
iter: 133 13:56:43  -851.615024c -6.37  -3.90    +59.4238
iter: 134 13:59:15  -851.616976c -5.77  -3.88    +59.4411
iter: 135 14:01:47  -851.616878c -5.85  -3.91    +59.4523
iter: 136 14:04:20  -851.618522c -5.96  -4.08c   +59.4747
iter: 137 14:06:52  -851.618513c -6.27  -4.07c   +59.4811
iter: 138 14:09:25  -851.620223c -5.98  -4.23c   +59.5082
iter: 139 14:11:58  -851.620858c -6.26  -4.23c   +59.5134
iter: 140 14:14:32  -851.621532c -6.37  -4.21c   +59.5228
iter: 141 14:17:06  -851.621356c -6.97  -4.21c   +59.5208
iter: 142 14:19:41  -851.623032c -6.04  -4.17c   +59.5369
iter: 143 14:22:13  -851.619673c -5.51  -4.12c   +59.5131
iter: 144 14:24:47  -851.619319c -6.15  -4.20c   +59.5092
iter: 145 14:27:22  -851.620966c -6.10  -4.18c   +59.5250
iter: 146 14:29:57  -851.621958c -6.20  -4.27c   +59.5363
iter: 147 14:32:33  -851.618513c -5.35  -4.24c   +59.4836
iter: 148 14:35:08  -851.619634c -6.16  -4.21c   +59.5008
iter: 149 14:37:43  -851.620680c -6.38  -4.24c   +59.5159
iter: 150 14:40:18  -851.620066c -6.91  -4.46c   +59.5120
iter: 151 14:42:54  -851.620658c -6.75  -4.49c   +59.5157
iter: 152 14:45:29  -851.621412c -6.54  -4.48c   +59.5255
iter: 153 14:48:04  -851.623408c -5.87  -4.45c   +59.5482
iter: 154 14:50:40  -851.625416c -5.72  -4.30c   +59.5702
iter: 155 14:53:15  -851.605445c -3.83  -4.13c   +59.3241
iter: 156 14:55:49  -851.598597c -3.95  -3.71    +59.1766
iter: 157 14:58:24  -851.600594c -5.17  -3.46    +59.2187
iter: 158 15:00:58  -851.601974c -5.36  -3.54    +59.2500
iter: 159 15:03:33  -851.603233c -5.48  -3.59    +59.2761
iter: 160 15:06:07  -851.602726c -6.35  -3.63    +59.2750
iter: 161 15:08:41  -851.603699c -5.33  -3.62    +59.2956
iter: 162 15:11:16  -851.602876c -5.88  -3.56    +59.2816
iter: 163 15:13:51  -851.602956c -5.83  -3.60    +59.2826
iter: 164 15:16:26  -851.605742c -5.08  -3.54    +59.2931
iter: 165 15:19:00  -851.602955c -5.69  -3.48    +59.3109
iter: 166 15:21:32  -851.603901c -5.67  -3.80    +59.3368
iter: 167 15:24:08  -851.604611c -5.92  -3.81    +59.3393
iter: 168 15:26:43  -851.605168c -5.84  -3.87    +59.3440
iter: 169 15:29:18  -851.606439c -5.87  -4.00c   +59.3672
iter: 170 15:31:53  -851.605622c -5.98  -4.01c   +59.3662
iter: 171 15:34:28  -851.606927c -6.02  -3.88    +59.3896
iter: 172 15:37:04  -851.607664c -6.41  -4.23c   +59.3987
iter: 173 15:39:39  -851.608302c -6.16  -4.18c   +59.4079
iter: 174 15:42:14  -851.608018c -7.13  -4.37c   +59.3997
iter: 175 15:44:49  -851.608265c -6.65  -4.45c   +59.3940
iter: 176 15:47:24  -851.609021c -6.39  -4.37c   +59.4122
iter: 177 15:49:59  -851.610319c -6.09  -4.42c   +59.4307
iter: 178 15:52:33  -851.602877c -4.72  -4.33c   +59.3231
iter: 179 15:55:04  -851.592640c -3.80  -4.13c   +59.0642
iter: 180 15:57:38  -851.594432c -5.18  -3.49    +59.1405
iter: 181 16:00:12  -851.595533c -5.51  -3.59    +59.1822
iter: 182 16:02:47  -851.596478c -5.54  -3.63    +59.2243
iter: 183 16:05:22  -851.596590c -6.25  -3.69    +59.2294
iter: 184 16:07:56  -851.595176c -5.86  -3.71    +59.2191
iter: 185 16:10:31  -851.596206c -5.48  -3.66    +59.2386
iter: 186 16:13:06  -851.597079c -5.54  -3.65    +59.2420
iter: 187 16:15:41  -851.598570c -5.38  -3.56    +59.2728
iter: 188 16:18:16  -851.595805c -5.70  -3.58    +59.2748
iter: 189 16:20:51  -851.596796c -5.84  -3.75    +59.2654
iter: 190 16:23:25  -851.597427c -5.96  -3.91    +59.2701
iter: 191 16:26:00  -851.597899c -5.88  -3.99    +59.2775
iter: 192 16:28:35  -851.598115c -6.25  -3.99    +59.2720
iter: 193 16:31:10  -851.598409c -6.26  -4.15c   +59.2765
iter: 194 16:33:45  -851.599321c -6.25  -4.08c   +59.2918
iter: 195 16:36:19  -851.599043c -6.59  -4.14c   +59.2941
iter: 196 16:38:53  -851.599865c -6.21  -4.29c   +59.3121
iter: 197 16:41:27  -851.599657c -7.05  -4.22c   +59.3079
iter: 198 16:44:02  -851.600074c -6.65  -4.43c   +59.3101
iter: 199 16:46:36  -851.599584c -6.70  -4.52c   +59.3097
iter: 200 16:49:11  -851.598599c -5.64  -4.48c   +59.3358
iter: 201 16:51:42  -851.599327c -6.68  -4.15c   +59.3411
iter: 202 16:54:13  -851.598350c -6.13  -4.20c   +59.3324
iter: 203 16:56:48  -851.598184c -6.71  -4.13c   +59.3255
iter: 204 16:59:23  -851.597644c -5.84  -4.11c   +59.2947
iter: 205 17:01:58  -851.597664c -5.62  -3.99    +59.2563
iter: 206 17:04:33  -851.597806c -6.18  -3.80    +59.2760
iter: 207 17:07:08  -851.597889c -6.72  -4.00c   +59.2687
iter: 208 17:09:42  -851.598337c -6.19  -3.99    +59.2701
iter: 209 17:12:18  -851.598124c -5.63  -3.90    +59.2795
iter: 210 17:14:53  -851.598253c -5.79  -3.75    +59.2619
iter: 211 17:17:27  -851.598516c -5.88  -4.15c   +59.2594
iter: 212 17:20:02  -851.598279c -6.51  -4.14c   +59.2733
iter: 213 17:22:37  -851.599230c -6.16  -4.15c   +59.2958
iter: 214 17:25:11  -851.599198c -6.72  -4.20c   +59.3021
iter: 215 17:27:45  -851.599905c -6.31  -4.32c   +59.3339
iter: 216 17:30:19  -851.599762c -7.27  -4.39c   +59.3224
iter: 217 17:32:54  -851.599703c -6.84  -4.40c   +59.2995
iter: 218 17:35:28  -851.600256c -6.42  -4.34c   +59.3380
iter: 219 17:38:02  -851.600440c -6.89  -4.40c   +59.3302
iter: 220 17:40:37  -851.601036c -6.47  -4.40c   +59.3555
iter: 221 17:43:11  -851.600582c -6.74  -4.49c   +59.3292
iter: 222 17:45:45  -851.599933c -6.18  -4.38c   +59.2901
iter: 223 17:48:16  -851.600528c -6.70  -4.27c   +59.3027
iter: 224 17:50:48  -851.599514c -6.20  -4.34c   +59.2757
iter: 225 17:53:23  -851.595316c -4.68  -4.26c   +59.1344
iter: 226 17:55:58  -851.593834c -4.79  -3.91    +59.0321
iter: 227 17:58:33  -851.593652c -5.36  -3.76    +59.0051
iter: 228 18:01:08  -851.594172c -5.87  -3.74    +59.0237
iter: 229 18:03:43  -851.593716c -6.14  -3.71    +59.0353
iter: 230 18:06:18  -851.594353c -5.64  -3.71    +59.0378
iter: 231 18:08:53  -851.594799c -5.27  -3.60    +59.0474
iter: 232 18:11:28  -851.594010c -5.68  -3.55    +59.0983
iter: 233 18:14:03  -851.593038c -6.04  -3.76    +59.0820
iter: 234 18:16:38  -851.592975c -6.26  -3.91    +59.1143
iter: 235 18:19:13  -851.593988c -6.23  -3.95    +59.1291
iter: 236 18:21:38  -851.593559c -6.30  -3.90    +59.1450
iter: 237 18:23:59  -851.593627c -6.01  -4.03c   +59.1518
iter: 238 18:26:19  -851.593453c -6.19  -3.90    +59.1639
iter: 239 18:28:39  -851.594275c -6.20  -4.01c   +59.1972
iter: 240 18:30:57  -851.593884c -6.51  -4.02c   +59.1957
iter: 241 18:33:17  -851.593630c -6.53  -4.25c   +59.2092
iter: 242 18:35:36  -851.593847c -6.93  -4.18c   +59.2181
iter: 243 18:37:56  -851.593996c -6.82  -4.37c   +59.2390
iter: 244 18:40:14  -851.594109c -6.92  -4.44c   +59.2499
iter: 245 18:42:34  -851.594167c -7.06  -4.38c   +59.2585
iter: 246 18:45:28  -851.594305c -6.96  -4.46c   +59.2712
iter: 247 18:48:18  -851.594388c -7.34  -4.53c   +59.2739
iter: 248 18:50:37  -851.594478c -6.86  -4.56c   +59.2879
iter: 249 18:52:57  -851.594387c -7.45c -4.56c   +59.2848

Converged after 249 iterations.

Dipole moment: (-1.755234, 12.929792, 14.376315) |e|*Ang

Total magnetic moment: (0.000000, 0.000000, 59.284809)
Local magnetic moments:
   0 Co ( 0.000000,  0.000000,  1.049450)
   1 Fe ( 0.000000,  0.000000,  2.160887)
   2 Co ( 0.000000,  0.000000,  1.425603)
   3 Co ( 0.000000,  0.000000,  1.131228)
   4 Co ( 0.000000,  0.000000,  1.110167)
   5 Ni ( 0.000000,  0.000000,  0.252057)
   6 Fe ( 0.000000,  0.000000,  1.948173)
   7 Al ( 0.000000,  0.000000, -0.018411)
   8 Fe ( 0.000000,  0.000000, -1.489739)
   9 Cr ( 0.000000,  0.000000,  0.921626)
  10 Al ( 0.000000,  0.000000, -0.014671)
  11 Co ( 0.000000,  0.000000,  1.003196)
  12 Co ( 0.000000,  0.000000,  0.995455)
  13 Fe ( 0.000000,  0.000000,  2.271330)
  14 Al ( 0.000000,  0.000000, -0.029650)
  15 Co ( 0.000000,  0.000000,  1.285996)
  16 Co ( 0.000000,  0.000000,  1.241447)
  17 Co ( 0.000000,  0.000000,  1.162662)
  18 Co ( 0.000000,  0.000000,  1.034053)
  19 Al ( 0.000000,  0.000000, -0.040987)
  20 Fe ( 0.000000,  0.000000,  2.179623)
  21 Fe ( 0.000000,  0.000000,  2.059276)
  22 Cr ( 0.000000,  0.000000, -1.344230)
  23 Al ( 0.000000,  0.000000, -0.035265)
  24 Co ( 0.000000,  0.000000,  1.231222)
  25 Fe ( 0.000000,  0.000000,  2.227466)
  26 Fe ( 0.000000,  0.000000,  2.313178)
  27 Co ( 0.000000,  0.000000,  1.480246)
  28 Cr ( 0.000000,  0.000000, -2.083028)
  29 Ni ( 0.000000,  0.000000,  0.475077)
  30 Fe ( 0.000000,  0.000000,  1.974095)
  31 Fe ( 0.000000,  0.000000,  2.138570)
  32 Co ( 0.000000,  0.000000,  1.128892)
  33 Fe ( 0.000000,  0.000000,  1.798651)
  34 Co ( 0.000000,  0.000000,  1.126476)
  35 Cr ( 0.000000,  0.000000, -1.381200)
  36 Cr ( 0.000000,  0.000000, -1.734517)
  37 Cr ( 0.000000,  0.000000,  0.992537)
  38 Cr ( 0.000000,  0.000000,  1.173418)
  39 Cr ( 0.000000,  0.000000, -0.000923)
  40 Ni ( 0.000000,  0.000000,  0.246500)
  41 Al ( 0.000000,  0.000000, -0.009256)
  42 Co ( 0.000000,  0.000000,  0.937654)
  43 Cr ( 0.000000,  0.000000,  0.587383)
  44 Cr ( 0.000000,  0.000000, -1.467976)
  45 Fe ( 0.000000,  0.000000,  1.505647)
  46 Fe ( 0.000000,  0.000000,  1.955028)
  47 Co ( 0.000000,  0.000000,  0.424566)
  48 Ni ( 0.000000,  0.000000,  0.261177)
  49 Ni ( 0.000000,  0.000000,  0.103415)
  50 Fe ( 0.000000,  0.000000,  2.015697)
  51 Co ( 0.000000,  0.000000,  1.193395)
  52 Cr ( 0.000000,  0.000000, -1.480263)
  53 Fe ( 0.000000,  0.000000,  2.241130)
  54 Ni ( 0.000000,  0.000000,  0.100872)
  55 Fe ( 0.000000,  0.000000,  2.157857)
  56 Cr ( 0.000000,  0.000000, -1.367759)
  57 Ni ( 0.000000,  0.000000,  0.190811)
  58 Fe ( 0.000000,  0.000000,  1.419372)
  59 Fe ( 0.000000,  0.000000,  1.730649)
[...]
  93 Ni ( 0.000000,  0.000000,  0.221875)
  94 Ni ( 0.000000,  0.000000,  0.108179)
  95 Cr ( 0.000000,  0.000000, -0.058509)
  96 Ni ( 0.000000,  0.000000,  0.104185)
  97 Ni ( 0.000000,  0.000000,  0.208426)
  98 Co ( 0.000000,  0.000000,  1.368303)
  99 Ni ( 0.000000,  0.000000,  0.183285)
 100 Co ( 0.000000,  0.000000,  1.398063)
 101 Co ( 0.000000,  0.000000,  1.241873)
 102 Co ( 0.000000,  0.000000,  1.268544)
 103 Ni ( 0.000000,  0.000000,  0.330014)
 104 Ni ( 0.000000,  0.000000,  0.151867)
 105 Ni ( 0.000000,  0.000000,  0.221512)
 106 Co ( 0.000000,  0.000000,  0.674096)
 107 Cr ( 0.000000,  0.000000,  0.709667)

Energy contributions relative to reference atoms: (reference = -3548577.034362)

Kinetic:       +178.871303
Potential:     -211.616414
External:        +0.000000
XC:            -852.528239
Entropy (-ST):   -4.529538
Local:          +35.943732
Free energy:   -853.859156
Extrapolated:  -851.594387

Spin contamination: 28.177438 electrons
Showing only first 2 kpts
                      Up                     Down
 Kpt  Band  Eigenvalues  Occupancy  Eigenvalues  Occupancy
  0   488      9.50533    0.99293     10.34392    0.03103
  0   489      9.52023    0.99180     10.35518    0.02782
  0   490      9.53405    0.99060     10.36572    0.02511
  0   491      9.54474    0.98955     10.37422    0.02311

  1   488      9.51696    0.99206     10.35313    0.02838
  1   489      9.52489    0.99141     10.36605    0.02503
  1   490      9.53652    0.99037     10.37850    0.02216
  1   491      9.55439    0.98850     10.39703    0.01848

Fermi level: 9.99980

No gap

Forces in eV/Ang:
  0 Co   -0.22748    0.12727    0.09234
  1 Fe    0.21683    0.04700   -0.22085
  2 Co   -0.15712   -0.48826   -0.17821
  3 Co    0.07004    0.04638    0.46806
  4 Co   -0.33860   -0.10780    0.43497
  5 Ni   -0.46448    0.06821   -0.25944
  6 Fe   -0.22107   -0.49601    0.10366
  7 Al   -0.74566    0.78798    0.43693
  8 Fe    0.47604    0.23127   -0.62991
  9 Cr    0.02712    0.55076   -0.06879
 10 Al    0.30095   -0.03114   -0.85744
 11 Co   -0.00527   -0.11527   -0.76038
 12 Co    0.07941   -0.37185    0.04361
 13 Fe    0.13689   -0.06523   -0.23949
 14 Al   -0.00373    0.70239   -1.39976
 15 Co    0.13674   -0.31845    0.16293
 16 Co   -0.27567    0.25361    0.28294
 17 Co   -0.17529   -0.46326    0.04927
 18 Co   -0.04692    0.28059    0.14145
 19 Al    0.37634   -1.17513    0.01919
 20 Fe    0.07440   -0.62175   -0.12301
 21 Fe   -0.18418   -0.47398    0.05822
 22 Cr    0.31005   -0.80879    0.04315
 23 Al   -0.26681    0.45339   -0.52234
 24 Co    0.49937    0.25541    0.18470
 25 Fe    0.58999    0.14000   -0.29943
 26 Fe   -0.03804    0.08698   -0.43663
 27 Co   -0.07409   -0.09982    0.55991
 28 Cr   -1.10434    0.57160   -0.03298
 29 Ni   -0.41810    0.41594   -0.16329
 30 Fe   -0.29023    0.25676    0.01048
 31 Fe    0.03128    0.03778    0.02613
 32 Co    0.16745    0.63157    0.07387
 33 Fe   -0.00516    0.06172   -0.22213
 34 Co    0.33373    0.35177   -0.02740
 35 Cr   -0.01677   -0.47875   -0.63817
 36 Cr    0.40171   -0.38266    0.79388
 37 Cr   -0.04799    0.01141   -0.24676
 38 Cr   -1.03841   -0.51031    0.02826
 39 Cr   -0.01833   -0.57047   -0.67123
 40 Ni   -0.13195    0.06567   -0.54862
 41 Al    0.59811   -0.06827    1.44914
 42 Co    0.37630   -0.23295   -0.01111
 43 Cr    0.39804    0.23538   -0.68846
 44 Cr   -0.32151    0.07811    0.75142
 45 Fe    0.17279   -0.21328   -0.34878
 46 Fe    0.38745   -0.40393    0.22860
 47 Co    0.05407    0.17671    0.47544
 48 Ni    0.07524   -0.03919   -0.17001
 49 Ni   -0.06320   -0.32690   -0.10064
 50 Fe   -0.27110    0.33207    0.22329
 51 Co    0.18006    0.06617   -0.08258
 52 Cr    0.55886    0.52153   -0.67295
 53 Fe   -0.56280   -0.11320   -0.36802
 54 Ni    0.22226   -0.00461   -0.17069
 55 Fe   -0.35903   -1.00085   -0.47576
 56 Cr   -0.41394    0.01672    0.12754
 57 Ni    0.10038   -0.06299   -0.13610
 58 Fe   -0.03206    0.37553   -0.32339
 59 Fe    0.13852   -0.32661    0.27517
[...]
 93 Ni    0.05017   -0.23932   -0.14722
 94 Ni    0.11195   -0.27163    0.43908
 95 Cr    0.00676   -0.09917    0.17686
 96 Ni   -0.14251   -0.02500    0.00476
 97 Ni   -0.26962    0.15593   -0.06858
 98 Co    0.13788   -0.28112    0.46504
 99 Ni   -0.36313    0.07385    0.20129
100 Co   -0.24240    0.08585    0.27997
101 Co    0.21909   -0.36875    0.24845
102 Co   -0.24131    0.50249   -0.06394
103 Ni   -0.07858    0.10676    0.08258
104 Ni    0.25284    0.21783    0.15947
105 Ni    0.42761    0.28368    0.03463
106 Co    0.09845    0.26495   -0.09187
107 Cr    0.07306    0.23056    0.48326

Date: Fri Apr 14 18:53:19 2023