User:   c.zeng@d0137
Date:   Sat Apr  8 12:30:39 2023
Arch:   x86_64
Pid:    70624
CWD:    /home/c.zeng/projects/hea-corrosion/hea-mlp/data-curation/volume/dft-jobs/64
Python: 3.8.1
gpaw:   /home/c.zeng/usr/installs/gpaw/source/gpaw-22.8.0/gpaw
_gpaw:  /home/c.zeng/usr/installs/gpaw/source/gpaw-22.8.0/
        _gpaw.cpython-38-x86_64-linux-gnu.so
ase:    /home/c.zeng/.local/lib/python3.8/site-packages/ase-3.22.1-py3.8.egg/ase (version 3.22.1)
numpy:  /shared/centos7/python/3.8.1/lib/python3.8/site-packages/numpy (version 1.17.4)
scipy:  /shared/centos7/python/3.8.1/lib/python3.8/site-packages/scipy (version 1.4.1)
units:  Angstrom and eV
cores: 64
OpenMP: False
OMP_NUM_THREADS: 1

Input parameters:
  convergence: {energy: 0.0001}
  kpts: [2 2 2]
  maxiter: 666
  mode: {ecut: 350.0,
         name: pw}
  occupations: {fixmagmom: False,
                name: fermi-dirac,
                width: 0.1}
  spinpol: True
  xc: PBE

System changes: positions, numbers, cell, pbc, initial_charges, initial_magmoms

Initialize ...

species:
  Co:
    name: Cobalt
    id: 339d20d5b0b93d2de9531a1bee871d91
    Z: 27.0
    valence: 9
    core: 18
    charge: 0.0
    file: /home/c.zeng/usr/data/gpaw-setups-0.9.20000/Co.PBE.gz
    compensation charges: {type: gauss,
                           rc: 0.32,
                           lmax: 2}
    cutoffs: {filter: 1.87,
              core: 2.55}
    valence states:
      #              energy  rcut
      - 4s(2.00)    -5.469   1.005
      - 4p(0.00)    -1.277   1.058
      - 3d(7.00)    -8.205   1.005
      -  s          21.742   1.005
      -  p          25.934   1.058
      -  d          19.007   1.005

    # Using partial waves for Co as LCAO basis

  Ni:
    name: Nickel
    id: 0d9f38a9d6e76a2886f07bb4381f212b
    Z: 28.0
    valence: 16
    core: 12
    charge: 0.0
    file: /home/c.zeng/usr/data/gpaw-setups-0.9.20000/Ni.PBE.gz
    compensation charges: {type: gauss,
                           rc: 0.36,
                           lmax: 2}
    cutoffs: {filter: 2.14,
              core: 1.98}
    valence states:
      #              energy  rcut
      - 4s(2.00)    -5.642   1.164
      - 3p(6.00)   -71.394   1.207
      - 4p(0.00)    -1.226   1.207
      - 3d(8.00)    -8.875   1.138
      -  s          21.570   1.164
      -  d          18.337   1.138

[...]

  Al:
    name: Aluminium
    id: 0292cae29f5d6237e50f6abdd43a7bdd
    Z: 13.0
    valence: 3
    core: 10
    charge: 0.0
    file: /home/c.zeng/usr/data/gpaw-setups-0.9.20000/Al.PBE.gz
    compensation charges: {type: gauss,
                           rc: 0.34,
                           lmax: 2}
    cutoffs: {filter: 1.91,
              core: 2.36}
    valence states:
      #              energy  rcut
      - 3s(2.00)    -7.753   1.085
      - 3p(1.00)    -2.712   1.085
      -  s          19.459   1.085
      -  p          24.499   1.085
      -  d           0.000   1.085

[...]

  Cr:
    name: Chromium
    id: 33f258bda2ca9f93018e70263a35547b
    Z: 24.0
    valence: 6
    core: 18
    charge: 0.0
    file: /home/c.zeng/usr/data/gpaw-setups-0.9.20000/Cr.PBE.gz
    compensation charges: {type: gauss,
                           rc: 0.35,
                           lmax: 2}
    cutoffs: {filter: 2.14,
              core: 3.04}
    valence states:
      #              energy  rcut
      - 4s(1.00)    -4.007   1.164
      - 4p(0.00)    -0.989   1.217
      - 3d(5.00)    -2.913   1.111
      -  s          23.205   1.164
      -  p          26.223   1.217
      -  d          24.299   1.111

[...]

  Fe:
    name: Iron
    id: 37abbd8d6c3c35915a9b583b742da910
    Z: 26.0
    valence: 8
    core: 18
    charge: 0.0
    file: /home/c.zeng/usr/data/gpaw-setups-0.9.20000/Fe.PBE.gz
    compensation charges: {type: gauss,
                           rc: 0.33,
                           lmax: 2}
    cutoffs: {filter: 2.06,
              core: 2.67}
    valence states:
      #              energy  rcut
      - 4s(2.00)    -5.291   1.164
      - 4p(0.00)    -1.326   1.058
      - 3d(6.00)    -7.505   1.058
      -  s          21.920   1.164
      -  p          25.885   1.058
      -  d          19.706   1.058

    # Using partial waves for Fe as LCAO basis

Reference energy: -3548577.034362  # eV

Spin-polarized calculation.
Magnetic moment: 136.400000

Convergence criteria:
 Maximum [total energy] change in last 3 cyles: 0.0001 eV / electron
 Maximum integral of absolute [dens]ity change: 0.0001 electrons / valence electron
 Maximum integral of absolute [eigenst]ate change: 4e-08 eV^2 / valence electron
 Maximum number of scf [iter]ations: 666
 (Square brackets indicate name in SCF output, whereas a 'c' in
 the SCF output indicates the quantity has converged.)

Symmetries present (total): 1

  ( 1  0  0)
  ( 0  1  0)
  ( 0  0  1)

8 k-points: 2 x 2 x 2 Monkhorst-Pack grid
4 k-points in the irreducible part of the Brillouin zone
       k-points in crystal coordinates                weights
   0:     0.25000000   -0.25000000   -0.25000000          2/8
   1:     0.25000000   -0.25000000    0.25000000          2/8
   2:     0.25000000    0.25000000   -0.25000000          2/8
   3:     0.25000000    0.25000000    0.25000000          2/8

Wave functions: Plane wave expansion
  Cutoff energy: 350.000 eV
  Number of coefficients (min, max): 25839, 25839
  Pulay-stress correction: 0.000000 eV/Ang^3 (de/decut=0.000000)
  Using FFTW library
  ScaLapack parameters: grid=1x1, blocksize=None
  Wavefunction extrapolation:
    Improved wavefunction reuse through dual PAW basis

Occupation numbers: Fermi-Dirac:
  width: 0.1000  # eV

Eigensolver
   Davidson(niter=2)

Densities:
  Coarse grid: 54*54*54 grid
  Fine grid: 108*108*108 grid
  Total Charge: 0.000000

Density mixing:
  Method: difference
  Backend: pulay
  Linear mixing parameter: 0.05
  old densities: 5
  Damping of long wavelength oscillations: 50

Hamiltonian:
  XC and Coulomb potentials evaluated on a 108*108*108 grid
  Using the PBE Exchange-Correlation functional
  External potential:
    NoExternalPotential

XC parameters: PBE with 2 nearest neighbor stencil

Total number of cores used: 64
Parallelization over k-points: 4
Domain decomposition: 4 x 2 x 2

Number of atoms: 108
Number of atomic orbitals: 994
Number of bands in calculation: 674
Number of valence electrons: 980
Bands to converge: occupied

... initialized

Initializing position-dependent things.

Density initialized from atomic densities
Creating initial wave functions:
  674 bands from LCAO basis set

       /|   Cr        Fe              |
      / |       Fe        Fe          |
     /  | Al                     Al   |
    /   |        Ni Co     Ni        Ni
   /    Al NiCr      Fe     Ni FeCo   |
  /  CoCr   CoFe      Co Ni     Fe    |
 *      Ni Cr   CoAl      CoCr Co   Co|
 |Co    | FeFe      CoCr     Cr  Al   |
 |      |        Co        Cr        Ni
 | Cr Co|  CrCo Fe   CoFe      Fe     |
 |   FeFe   NiNi Cr   Cr CoNi   Ni    |
 |      Fe Fe   CoCo      CrCr      Ni|
 |Ni    |Ni Ni      CrCo              |
 |    Co|       Coi        Cr Fe     Al
 |      .--NiNi------CoCr------FeCr---.
 |     Ni     Cr Ni      CrNi   CrFe /
 |    / Al Co     Al Cr     Cr Ni   Fe
 |   /      Fe        Fe      CrNi /
 |  / Al        Fe        Fe      /
 | /                   Co        /
 |/              Fe        Al   /
 *-------------------Cr--------*

Positions:
   0 Co    -0.000000    0.000000   -0.000001    ( 0.0000,  0.0000,  2.1000)
   1 Ni    -0.000003    2.004754    2.004754    ( 0.0000,  0.0000,  1.5000)
   2 Al     2.004754    0.000006    2.004754    ( 0.0000,  0.0000,  0.0000)
   3 Cr     2.004754    2.004754   -0.000004    ( 0.0000,  0.0000,  0.0000)
   4 Cr     4.009508    0.000002   -0.000002    ( 0.0000,  0.0000,  0.0000)
   5 Fe     4.009508    2.004754    2.004754    ( 0.0000,  0.0000,  2.0000)
   6 Fe     6.014250    0.000004    2.004754    ( 0.0000,  0.0000,  2.0000)
   7 Fe     6.014250    2.004742    0.000002    ( 0.0000,  0.0000,  2.0000)
   8 Cr     8.018992    0.000001    0.000004    ( 0.0000,  0.0000,  0.0000)
   9 Fe     8.019004    2.004742    2.004754    ( 0.0000,  0.0000,  2.0000)
  10 Fe    10.023746    0.000001    2.004754    ( 0.0000,  0.0000,  2.0000)
  11 Al    10.023746    2.004754    0.000010    ( 0.0000,  0.0000,  0.0000)
  12 Co    -0.000001    4.009496   -0.000001    ( 0.0000,  0.0000,  2.1000)
  13 Fe    -0.000002    6.014250    2.004754    ( 0.0000,  0.0000,  2.0000)
  14 Al     2.004742    4.009496    2.004754    ( 0.0000,  0.0000,  0.0000)
  15 Al     2.004754    6.014262   -0.000006    ( 0.0000,  0.0000,  0.0000)
  16 Cr     4.009508    4.009496   -0.000003    ( 0.0000,  0.0000,  0.0000)
  17 Cr     4.009496    6.014250    2.004754    ( 0.0000,  0.0000,  0.0000)
  18 Al     6.014250    4.009496    2.004742    ( 0.0000,  0.0000,  0.0000)
  19 Co     6.014250    6.014250   -0.000002    ( 0.0000,  0.0000,  2.1000)
  20 Co     8.019004    4.009496    0.000001    ( 0.0000,  0.0000,  2.1000)
  21 Cr     8.019004    6.014250    2.004754    ( 0.0000,  0.0000,  0.0000)
  22 Cr    10.023746    4.009496    2.004754    ( 0.0000,  0.0000,  0.0000)
  23 Cr    10.023758    6.014250    0.000002    ( 0.0000,  0.0000,  0.0000)
  24 Fe    -0.000001    8.019004    0.000000    ( 0.0000,  0.0000,  2.0000)
  25 Al    -0.000009   10.023746    2.004754    ( 0.0000,  0.0000,  0.0000)
  26 Ni     2.004754    8.019004    2.004754    ( 0.0000,  0.0000,  1.5000)
  27 Cr     2.004754   10.023746   -0.000004    ( 0.0000,  0.0000,  0.0000)
  28 Fe     4.009508    8.019004   -0.000001    ( 0.0000,  0.0000,  2.0000)
  29 Ni     4.009508   10.023746    2.004754    ( 0.0000,  0.0000,  1.5000)
  30 Co     6.014250    8.019004    2.004742    ( 0.0000,  0.0000,  2.1000)
  31 Fe     6.014250   10.023746   -0.000001    ( 0.0000,  0.0000,  2.0000)
  32 Fe     8.019004    8.019004   -0.000001    ( 0.0000,  0.0000,  2.0000)
  33 Cr     8.019004   10.023746    2.004742    ( 0.0000,  0.0000,  0.0000)
  34 Fe    10.023746    8.019004    2.004754    ( 0.0000,  0.0000,  2.0000)
  35 Cr    10.023746   10.023746    0.000001    ( 0.0000,  0.0000,  0.0000)
  36 Ni    -0.000001    0.000001    4.009496    ( 0.0000,  0.0000,  1.5000)
  37 Ni     0.000003    2.004754    6.014250    ( 0.0000,  0.0000,  1.5000)
  38 Co     2.004754    0.000001    6.014250    ( 0.0000,  0.0000,  2.1000)
  39 Ni     2.004754    2.004754    4.009508    ( 0.0000,  0.0000,  1.5000)
  40 Co     4.009496    0.000001    4.009496    ( 0.0000,  0.0000,  2.1000)
  41 Ni     4.009496    2.004754    6.014250    ( 0.0000,  0.0000,  1.5000)
  42 Co     6.014250    0.000000    6.014250    ( 0.0000,  0.0000,  2.1000)
  43 Ni     6.014250    2.004742    4.009496    ( 0.0000,  0.0000,  1.5000)
  44 Cr     8.019004    0.000004    4.009496    ( 0.0000,  0.0000,  0.0000)
  45 Co     8.019004    2.004754    6.014250    ( 0.0000,  0.0000,  2.1000)
  46 Al    10.023746   -0.000001    6.014238    ( 0.0000,  0.0000,  0.0000)
  47 Ni    10.023746    2.004754    4.009496    ( 0.0000,  0.0000,  1.5000)
  48 Cr    -0.000000    4.009508    4.009496    ( 0.0000,  0.0000,  0.0000)
  49 Fe     0.000001    6.014250    6.014250    ( 0.0000,  0.0000,  2.0000)
  50 Fe     2.004754    4.009496    6.014250    ( 0.0000,  0.0000,  2.0000)
  51 Ni     2.004742    6.014250    4.009508    ( 0.0000,  0.0000,  1.5000)
  52 Ni     4.009496    4.009496    4.009508    ( 0.0000,  0.0000,  1.5000)
  53 Ni     4.009496    6.014250    6.014250    ( 0.0000,  0.0000,  1.5000)
  54 Co     6.014250    4.009496    6.014250    ( 0.0000,  0.0000,  2.1000)
  55 Cr     6.014250    6.014250    4.009508    ( 0.0000,  0.0000,  0.0000)
  56 Cr     8.019004    4.009496    4.009508    ( 0.0000,  0.0000,  0.0000)
  57 Co     8.019004    6.014250    6.014250    ( 0.0000,  0.0000,  2.1000)
  58 Cr    10.023746    4.009496    6.014250    ( 0.0000,  0.0000,  0.0000)
  59 Fe    10.023758    6.014250    4.009496    ( 0.0000,  0.0000,  2.0000)
[...]
  93 Ni     8.019004    6.014250   10.023746    ( 0.0000,  0.0000,  1.5000)
  94 Cr    10.023746    4.009496   10.023746    ( 0.0000,  0.0000,  0.0000)
  95 Cr    10.023746    6.014250    8.019004    ( 0.0000,  0.0000,  0.0000)
  96 Co    -0.000001    8.019004    8.019004    ( 0.0000,  0.0000,  2.1000)
  97 Ni    -0.000000   10.023746   10.023746    ( 0.0000,  0.0000,  1.5000)
  98 Ni     2.004754    8.019004   10.023746    ( 0.0000,  0.0000,  1.5000)
  99 Co     2.004754   10.023746    8.019004    ( 0.0000,  0.0000,  2.1000)
 100 Co     4.009496    8.019004    8.019004    ( 0.0000,  0.0000,  2.1000)
 101 Ni     4.009508   10.023746   10.023746    ( 0.0000,  0.0000,  1.5000)
 102 Fe     6.014250    8.019004   10.023758    ( 0.0000,  0.0000,  2.0000)
 103 Co     6.014250   10.023746    8.019004    ( 0.0000,  0.0000,  2.1000)
 104 Co     8.019004    8.019004    8.019004    ( 0.0000,  0.0000,  2.1000)
 105 Ni     8.018992   10.023746   10.023746    ( 0.0000,  0.0000,  1.5000)
 106 Fe    10.023746    8.019004   10.023746    ( 0.0000,  0.0000,  2.0000)
 107 Fe    10.023746   10.023746    8.019004    ( 0.0000,  0.0000,  2.0000)

Unit cell:
           periodic     x           y           z      points  spacing
  1. axis:    yes   12.028500    0.000000    0.000000    54     0.2228
  2. axis:    yes    0.000000   12.028500    0.000000    54     0.2228
  3. axis:    yes    0.000000    0.000000   12.028500    54     0.2228

  Lengths:  12.028500  12.028500  12.028500
  Angles:   90.000000  90.000000  90.000000

Effective grid spacing dv^(1/3) = 0.2228

     iter     time        total  log10-change:  magmom
                         energy  eigst   dens
iter:   1 12:32:45 -1046.396541                  +136.6827
iter:   2 12:33:42  -886.256694  +0.06  -1.14    +72.1109
iter:   3 12:34:39  -927.876745  -0.31  -1.03    +76.2040
iter:   4 12:35:36  -811.014506  -0.99  -1.11    +69.6979
iter:   5 12:36:33  -797.488722  -1.61  -1.28    +71.8899
iter:   6 12:37:30  -800.162507  -1.80  -1.32    +83.1064
iter:   7 12:38:27  -802.763544  -1.34  -1.33    +91.2946
iter:   8 12:39:25  -796.419071  -1.53  -1.34    +94.1877
iter:   9 12:40:22  -799.046400  -1.35  -1.41    +95.5910
iter:  10 12:41:19  -799.122927  -1.42  -1.49    +96.0236
iter:  11 12:42:16  -799.718937  -1.54  -1.53    +93.4621
iter:  12 12:43:13  -796.894553  -1.56  -1.49    +91.7582
iter:  13 12:44:10  -798.920679  -1.72  -1.54    +90.5989
iter:  14 12:45:07  -789.517266  -2.02  -1.57    +90.4973
iter:  15 12:46:03  -790.253987  -2.45  -1.76    +88.7923
iter:  16 12:47:00  -791.787039  -2.36  -1.80    +86.7196
iter:  17 12:47:57  -792.905918  -2.60  -1.83    +85.3095
iter:  18 12:48:54  -793.914246  -2.59  -1.83    +83.4287
iter:  19 12:49:52  -794.355193  -2.62  -1.87    +82.6733
iter:  20 12:50:49  -795.199318  -2.65  -1.96    +81.9443
iter:  21 12:51:46  -796.126287  -2.54  -1.99    +80.7721
iter:  22 12:52:43  -796.452478  -2.75  -2.08    +80.9318
iter:  23 12:53:40  -796.933382  -2.88  -2.10    +80.3974
iter:  24 12:54:37  -797.417063  -3.00  -2.20    +80.2061
iter:  25 12:55:34  -797.933894  -3.10  -2.19    +80.4853
iter:  26 12:56:31  -798.602584  -3.21  -2.23    +80.4695
iter:  27 12:57:28  -799.872471  -2.91  -2.21    +80.5877
iter:  28 12:58:25  -800.382260  -3.01  -2.14    +81.0526
iter:  29 12:59:22  -801.027245  -3.01  -2.12    +80.8013
iter:  30 13:00:19  -801.130247  -3.28  -2.05    +80.8397
iter:  31 13:01:16  -800.875005  -3.35  -2.02    +80.7646
iter:  32 13:02:13  -801.709689  -2.66  -2.03    +80.7866
iter:  33 13:03:11  -800.616769  -2.89  -1.94    +80.7312
iter:  34 13:04:07  -802.048863  -2.34  -2.05    +81.0487
iter:  35 13:05:04  -800.682918  -2.49  -1.93    +81.1278
iter:  36 13:06:01  -800.272601  -2.83  -2.05    +80.2701
iter:  37 13:06:59  -799.952465  -3.03  -2.13    +79.9850
iter:  38 13:07:56  -800.180521  -3.00  -2.22    +80.2744
iter:  39 13:08:53  -800.165557  -2.95  -2.20    +80.4908
iter:  40 13:09:50  -800.174029c -3.03  -2.23    +80.6229
iter:  41 13:10:47  -800.091173c -3.11  -2.26    +81.1421
iter:  42 13:11:44  -800.215019  -3.08  -2.29    +81.4438
iter:  43 13:12:41  -800.047631  -3.27  -2.29    +81.4082
iter:  44 13:13:38  -799.990716  -3.35  -2.35    +81.6902
iter:  45 13:14:35  -799.974246c -3.20  -2.40    +81.9737
iter:  46 13:15:32  -799.919483c -3.63  -2.49    +82.0122
iter:  47 13:16:29  -800.024108  -3.34  -2.51    +82.0583
iter:  48 13:17:26  -799.876772  -3.55  -2.45    +82.1887
iter:  49 13:18:23  -799.899495  -3.74  -2.67    +82.2683
iter:  50 13:19:21  -799.854344c -3.80  -2.65    +82.3769
iter:  51 13:20:18  -799.849704c -4.09  -2.75    +82.4905
iter:  52 13:21:15  -799.845376c -4.36  -2.79    +82.4010
iter:  53 13:22:12  -799.838357c -4.36  -2.83    +82.4918
iter:  54 13:23:09  -799.844305c -4.35  -2.84    +82.5355
iter:  55 13:24:06  -799.828983c -4.72  -2.87    +82.5171
iter:  56 13:25:03  -799.867854c -4.07  -2.98    +82.5369
iter:  57 13:26:00  -799.833116c -4.10  -2.88    +82.5546
iter:  58 13:26:57  -799.829146c -4.67  -3.06    +82.4650
iter:  59 13:27:54  -799.827646c -4.43  -3.18    +82.4798
iter:  60 13:28:51  -799.828087c -4.88  -3.19    +82.4728
iter:  61 13:29:48  -799.828545c -5.06  -3.25    +82.4932
iter:  62 13:30:46  -799.828986c -4.92  -3.30    +82.4777
iter:  63 13:31:43  -799.826818c -5.14  -3.29    +82.4936
iter:  64 13:32:40  -799.827008c -4.99  -3.37    +82.4779
iter:  65 13:33:37  -799.824627c -5.30  -3.33    +82.4713
iter:  66 13:34:34  -799.827888c -5.41  -3.43    +82.4440
iter:  67 13:35:31  -799.825551c -5.64  -3.46    +82.4577
iter:  68 13:36:28  -799.825062c -5.50  -3.48    +82.4634
iter:  69 13:37:25  -799.826080c -5.37  -3.54    +82.4470
iter:  70 13:38:22  -799.826094c -5.53  -3.49    +82.4416
iter:  71 13:39:20  -799.827126c -5.69  -3.72    +82.4695
iter:  72 13:40:17  -799.824719c -5.94  -3.68    +82.4809
iter:  73 13:41:14  -799.825438c -5.87  -3.85    +82.4745
iter:  74 13:42:11  -799.825288c -6.32  -3.73    +82.4687
iter:  75 13:43:08  -799.825160c -6.18  -3.96    +82.4843
iter:  76 13:44:05  -799.824805c -6.56  -3.91    +82.4823
iter:  77 13:45:02  -799.825094c -6.56  -4.05c   +82.4786
iter:  78 13:45:59  -799.825937c -6.44  -4.12c   +82.4793
iter:  79 13:46:56  -799.825339c -6.40  -4.00c   +82.4844
iter:  80 13:47:54  -799.825120c -6.65  -4.09c   +82.4908
iter:  81 13:48:51  -799.825325c -6.85  -4.22c   +82.4831
iter:  82 13:49:48  -799.825485c -7.10  -4.22c   +82.4848
iter:  83 13:50:45  -799.825347c -7.53c -4.26c   +82.4878

Converged after 83 iterations.

Dipole moment: (0.035790, 0.157820, -0.691480) |e|*Ang

Total magnetic moment: (0.000000, 0.000000, 82.487752)
Local magnetic moments:
   0 Co ( 0.000000,  0.000000,  1.354092)
   1 Ni ( 0.000000,  0.000000,  0.331930)
   2 Al ( 0.000000,  0.000000,  0.011367)
   3 Cr ( 0.000000,  0.000000, -3.251981)
   4 Cr ( 0.000000,  0.000000, -3.195801)
   5 Fe ( 0.000000,  0.000000,  2.791278)
   6 Fe ( 0.000000,  0.000000,  2.910250)
   7 Fe ( 0.000000,  0.000000,  2.731763)
   8 Cr ( 0.000000,  0.000000, -3.107624)
   9 Fe ( 0.000000,  0.000000,  2.819233)
  10 Fe ( 0.000000,  0.000000,  2.817957)
  11 Al ( 0.000000,  0.000000, -0.046562)
  12 Co ( 0.000000,  0.000000,  1.533342)
  13 Fe ( 0.000000,  0.000000,  2.911834)
  14 Al ( 0.000000,  0.000000,  0.009704)
  15 Al ( 0.000000,  0.000000, -0.022328)
  16 Cr ( 0.000000,  0.000000, -3.119006)
  17 Cr ( 0.000000,  0.000000, -3.188752)
  18 Al ( 0.000000,  0.000000, -0.002898)
  19 Co ( 0.000000,  0.000000,  1.586030)
  20 Co ( 0.000000,  0.000000,  1.657889)
  21 Cr ( 0.000000,  0.000000, -3.089867)
  22 Cr ( 0.000000,  0.000000,  3.001513)
  23 Cr ( 0.000000,  0.000000, -3.191178)
  24 Fe ( 0.000000,  0.000000,  2.850917)
  25 Al ( 0.000000,  0.000000, -0.013688)
  26 Ni ( 0.000000,  0.000000,  0.382307)
  27 Cr ( 0.000000,  0.000000, -3.243477)
  28 Fe ( 0.000000,  0.000000,  2.997954)
  29 Ni ( 0.000000,  0.000000,  0.311051)
  30 Co ( 0.000000,  0.000000,  1.632701)
  31 Fe ( 0.000000,  0.000000,  2.924849)
  32 Fe ( 0.000000,  0.000000,  2.908832)
  33 Cr ( 0.000000,  0.000000, -3.098503)
  34 Fe ( 0.000000,  0.000000,  2.818779)
  35 Cr ( 0.000000,  0.000000, -3.146397)
  36 Ni ( 0.000000,  0.000000,  0.495244)
  37 Ni ( 0.000000,  0.000000,  0.330108)
  38 Co ( 0.000000,  0.000000,  1.957839)
  39 Ni ( 0.000000,  0.000000,  0.521075)
  40 Co ( 0.000000,  0.000000,  1.903352)
  41 Ni ( 0.000000,  0.000000,  0.697148)
  42 Co ( 0.000000,  0.000000,  1.818010)
  43 Ni ( 0.000000,  0.000000,  0.549382)
  44 Cr ( 0.000000,  0.000000,  3.007311)
  45 Co ( 0.000000,  0.000000,  1.746231)
  46 Al ( 0.000000,  0.000000, -0.017080)
  47 Ni ( 0.000000,  0.000000,  0.532648)
  48 Cr ( 0.000000,  0.000000, -3.171910)
  49 Fe ( 0.000000,  0.000000,  2.952495)
  50 Fe ( 0.000000,  0.000000,  3.085478)
  51 Ni ( 0.000000,  0.000000,  0.454916)
  52 Ni ( 0.000000,  0.000000,  0.310045)
  53 Ni ( 0.000000,  0.000000,  0.625892)
  54 Co ( 0.000000,  0.000000,  1.881668)
  55 Cr ( 0.000000,  0.000000, -3.158931)
  56 Cr ( 0.000000,  0.000000,  2.924921)
  57 Co ( 0.000000,  0.000000,  1.767750)
  58 Cr ( 0.000000,  0.000000,  3.019028)
  59 Fe ( 0.000000,  0.000000,  2.909972)
[...]
  93 Ni ( 0.000000,  0.000000,  0.535010)
  94 Cr ( 0.000000,  0.000000,  2.974068)
  95 Cr ( 0.000000,  0.000000, -3.199353)
  96 Co ( 0.000000,  0.000000,  1.829124)
  97 Ni ( 0.000000,  0.000000,  0.442004)
  98 Ni ( 0.000000,  0.000000,  0.581421)
  99 Co ( 0.000000,  0.000000,  1.933181)
 100 Co ( 0.000000,  0.000000,  1.949642)
 101 Ni ( 0.000000,  0.000000,  0.578607)
 102 Fe ( 0.000000,  0.000000,  3.086074)
 103 Co ( 0.000000,  0.000000,  1.945940)
 104 Co ( 0.000000,  0.000000,  1.864642)
 105 Ni ( 0.000000,  0.000000,  0.416516)
 106 Fe ( 0.000000,  0.000000,  2.978242)
 107 Fe ( 0.000000,  0.000000,  2.896928)

Energy contributions relative to reference atoms: (reference = -3548577.034362)

Kinetic:       -346.616580
Potential:     +210.374295
External:        +0.000000
XC:            -692.065853
Entropy (-ST):   -4.926011
Local:          +30.945796
Free energy:   -802.288353
Extrapolated:  -799.825347

Spin contamination: 69.800493 electrons
Showing only first 2 kpts
                      Up                     Down
 Kpt  Band  Eigenvalues  Occupancy  Eigenvalues  Occupancy
  0   488      5.37037    0.99975      6.54038    0.03163
  0   489      5.37962    0.99972      6.54965    0.02891
  0   490      5.38754    0.99970      6.55882    0.02644
  0   491      5.40849    0.99963      6.56519    0.02485

  1   488      5.36708    0.99975      6.54309    0.03081
  1   489      5.37848    0.99972      6.55124    0.02846
  1   490      5.38427    0.99971      6.55603    0.02717
  1   491      5.39481    0.99968      6.56961    0.02380

Fermi level: 6.19822

No gap

Forces in eV/Ang:
  0 Co    0.00194   -0.02255   -0.06480
  1 Ni   -0.07033   -0.08076    0.01011
  2 Al   -0.02894    0.23326    0.70995
  3 Cr   -0.87673   -0.04827   -0.48344
  4 Cr    0.96203   -0.09245   -0.28532
  5 Fe    0.21949   -0.20434    0.18245
  6 Fe   -0.29622    0.12854   -0.02563
  7 Fe   -0.16416    0.04259    0.11886
  8 Cr   -0.71283    0.30783   -0.24645
  9 Fe   -0.20169   -0.27671   -0.29486
 10 Fe    0.23581    0.21174   -0.01670
 11 Al    0.57625    0.36424    0.34533
 12 Co    0.31112    0.04617   -0.18226
 13 Fe    0.17007    0.42493    0.14892
 14 Al   -0.18219   -0.28344    0.53219
 15 Al   -0.32009    0.30340   -0.44976
 16 Cr    0.30452   -0.15336   -0.53511
 17 Cr   -0.20039    0.84168    0.18584
 18 Al    0.09335   -0.39182    0.06955
 19 Co   -0.05444    0.25018   -0.10270
 20 Co   -0.42327   -0.15762    0.01670
 21 Cr    0.19252    0.15832    0.05880
 22 Cr    0.27001   -0.10490   -0.18846
 23 Cr    0.25924   -0.05965   -0.37560
 24 Fe    0.00804    0.03118   -0.27018
 25 Al   -0.10606   -0.25833    0.75438
 26 Ni   -0.06441   -0.09574    0.03119
 27 Cr   -0.21690   -0.50860   -0.47573
 28 Fe    0.25628    0.10943    0.04921
 29 Ni    0.06078   -0.08338    0.05822
 30 Co   -0.30892   -0.05573   -0.40704
 31 Fe   -0.11496   -0.14872    0.02956
 32 Fe   -0.25821   -0.07976   -0.03752
 33 Cr    0.08676   -0.31792    0.37995
 34 Fe    0.18664   -0.14771    0.08691
 35 Cr    0.51581   -0.56782   -0.36284
 36 Ni    0.04399    0.05952   -0.02739
 37 Ni    0.19415   -0.13786   -0.02857
 38 Co    0.29095   -0.10497   -0.13623
 39 Ni    0.06052   -0.07222    0.08376
 40 Co    0.10226    0.12196    0.33823
 41 Ni   -0.12965   -0.03952   -0.06970
 42 Co   -0.31764    0.08223    0.09216
 43 Ni   -0.02593   -0.00481    0.09442
 44 Cr   -0.20070   -0.18654    0.30726
 45 Co   -0.22519    0.03018    0.28882
 46 Al    0.12827    0.39085   -0.36719
 47 Ni   -0.01531   -0.07567   -0.13065
 48 Cr   -0.35904   -0.07671    0.32930
 49 Fe    0.31651    0.43790   -0.00688
 50 Fe    0.34351   -0.07586   -0.20732
 51 Ni    0.02127   -0.00691    0.05892
 52 Ni   -0.01854   -0.04709    0.03197
 53 Ni    0.01695   -0.02219    0.08763
 54 Co   -0.03551    0.01153    0.19788
 55 Cr   -0.04412    0.20042    0.95916
 56 Cr   -0.47517    0.08491    0.22685
 57 Co   -0.05568    0.05790    0.15997
 58 Cr    0.30570   -0.44210    0.25262
 59 Fe    0.17930    0.52720    0.21401
[...]
 93 Ni   -0.12999    0.06321   -0.00683
 94 Cr    0.32012    0.42507   -0.09265
 95 Cr   -0.32730    0.33003    0.10289
 96 Co    0.02203    0.18406    0.16331
 97 Ni   -0.02093    0.00065   -0.06769
 98 Ni   -0.03166   -0.06813   -0.11218
 99 Co    0.17010   -0.07270    0.04412
100 Co    0.18018    0.14828    0.03425
101 Ni   -0.02910   -0.02798   -0.10461
102 Fe    0.20954    0.00647   -0.13378
103 Co   -0.04176    0.03681   -0.04714
104 Co   -0.11116   -0.10601    0.03482
105 Ni   -0.05219    0.02282    0.04633
106 Fe   -0.03810   -0.12292   -0.26025
107 Fe   -0.03156   -0.51331    0.03205

Date: Sat Apr  8 13:51:01 2023