User:   c.zeng@d0011
Date:   Sat Apr 15 04:52:11 2023
Arch:   x86_64
Pid:    163705
CWD:    /home/c.zeng/projects/hea-corrosion/hea-mlp/data-curation/bulk-mcmc/dft-jobs/22
Python: 3.8.1
gpaw:   /home/c.zeng/usr/installs/gpaw/source/gpaw-22.8.0/gpaw
_gpaw:  /home/c.zeng/usr/installs/gpaw/source/gpaw-22.8.0/
        _gpaw.cpython-38-x86_64-linux-gnu.so
ase:    /home/c.zeng/.local/lib/python3.8/site-packages/ase-3.22.1-py3.8.egg/ase (version 3.22.1)
numpy:  /shared/centos7/python/3.8.1/lib/python3.8/site-packages/numpy (version 1.17.4)
scipy:  /shared/centos7/python/3.8.1/lib/python3.8/site-packages/scipy (version 1.4.1)
units:  Angstrom and eV
cores: 30
OpenMP: False
OMP_NUM_THREADS: 1

Input parameters:
  convergence: {energy: 0.0001}
  kpts: [2 2 2]
  maxiter: 666
  mode: {ecut: 350.0,
         name: pw}
  occupations: {fixmagmom: False,
                name: fermi-dirac,
                width: 0.1}
  spinpol: True
  xc: PBE

System changes: positions, numbers, cell, pbc, initial_charges, initial_magmoms

Initialize ...

species:
  Co:
    name: Cobalt
    id: 339d20d5b0b93d2de9531a1bee871d91
    Z: 27.0
    valence: 9
    core: 18
    charge: 0.0
    file: /home/c.zeng/usr/data/gpaw-setups-0.9.20000/Co.PBE.gz
    compensation charges: {type: gauss,
                           rc: 0.32,
                           lmax: 2}
    cutoffs: {filter: 1.87,
              core: 2.55}
    valence states:
      #              energy  rcut
      - 4s(2.00)    -5.469   1.005
      - 4p(0.00)    -1.277   1.058
      - 3d(7.00)    -8.205   1.005
      -  s          21.742   1.005
      -  p          25.934   1.058
      -  d          19.007   1.005

    # Using partial waves for Co as LCAO basis

  Fe:
    name: Iron
    id: 37abbd8d6c3c35915a9b583b742da910
    Z: 26.0
    valence: 8
    core: 18
    charge: 0.0
    file: /home/c.zeng/usr/data/gpaw-setups-0.9.20000/Fe.PBE.gz
    compensation charges: {type: gauss,
                           rc: 0.33,
                           lmax: 2}
    cutoffs: {filter: 2.06,
              core: 2.67}
    valence states:
      #              energy  rcut
      - 4s(2.00)    -5.291   1.164
      - 4p(0.00)    -1.326   1.058
      - 3d(6.00)    -7.505   1.058
      -  s          21.920   1.164
      -  p          25.885   1.058
      -  d          19.706   1.058

[...]

  Cr:
    name: Chromium
    id: 33f258bda2ca9f93018e70263a35547b
    Z: 24.0
    valence: 6
    core: 18
    charge: 0.0
    file: /home/c.zeng/usr/data/gpaw-setups-0.9.20000/Cr.PBE.gz
    compensation charges: {type: gauss,
                           rc: 0.35,
                           lmax: 2}
    cutoffs: {filter: 2.14,
              core: 3.04}
    valence states:
      #              energy  rcut
      - 4s(1.00)    -4.007   1.164
      - 4p(0.00)    -0.989   1.217
      - 3d(5.00)    -2.913   1.111
      -  s          23.205   1.164
      -  p          26.223   1.217
      -  d          24.299   1.111

[...]

  Ni:
    name: Nickel
    id: 0d9f38a9d6e76a2886f07bb4381f212b
    Z: 28.0
    valence: 16
    core: 12
    charge: 0.0
    file: /home/c.zeng/usr/data/gpaw-setups-0.9.20000/Ni.PBE.gz
    compensation charges: {type: gauss,
                           rc: 0.36,
                           lmax: 2}
    cutoffs: {filter: 2.14,
              core: 1.98}
    valence states:
      #              energy  rcut
      - 4s(2.00)    -5.642   1.164
      - 3p(6.00)   -71.394   1.207
      - 4p(0.00)    -1.226   1.207
      - 3d(8.00)    -8.875   1.138
      -  s          21.570   1.164
      -  d          18.337   1.138

    # Using partial waves for Ni as LCAO basis

Reference energy: -3846758.590871  # eV

Spin-polarized calculation.
Magnetic moment: 151.200000

Convergence criteria:
 Maximum [total energy] change in last 3 cyles: 0.0001 eV / electron
 Maximum integral of absolute [dens]ity change: 0.0001 electrons / valence electron
 Maximum integral of absolute [eigenst]ate change: 4e-08 eV^2 / valence electron
 Maximum number of scf [iter]ations: 666
 (Square brackets indicate name in SCF output, whereas a 'c' in
 the SCF output indicates the quantity has converged.)

Symmetries present (total): 1

  ( 1  0  0)
  ( 0  1  0)
  ( 0  0  1)

8 k-points: 2 x 2 x 2 Monkhorst-Pack grid
4 k-points in the irreducible part of the Brillouin zone
       k-points in crystal coordinates                weights
   0:     0.25000000   -0.25000000   -0.25000000          2/8
   1:     0.25000000   -0.25000000    0.25000000          2/8
   2:     0.25000000    0.25000000   -0.25000000          2/8
   3:     0.25000000    0.25000000    0.25000000          2/8

Wave functions: Plane wave expansion
  Cutoff energy: 350.000 eV
  Number of coefficients (min, max): 17755, 17755
  Pulay-stress correction: 0.000000 eV/Ang^3 (de/decut=0.000000)
  Using FFTW library
  ScaLapack parameters: grid=1x1, blocksize=None
  Wavefunction extrapolation:
    Improved wavefunction reuse through dual PAW basis

Occupation numbers: Fermi-Dirac:
  width: 0.1000  # eV

Eigensolver
   Davidson(niter=2)

Densities:
  Coarse grid: 48*48*48 grid
  Fine grid: 96*96*96 grid
  Total Charge: 0.000000

Density mixing:
  Method: difference
  Backend: pulay
  Linear mixing parameter: 0.05
  old densities: 5
  Damping of long wavelength oscillations: 50

Hamiltonian:
  XC and Coulomb potentials evaluated on a 96*96*96 grid
  Using the PBE Exchange-Correlation functional
  External potential:
    NoExternalPotential

XC parameters: PBE with 2 nearest neighbor stencil

Total number of cores used: 30
Parallelization over k-points: 2
Domain decomposition: 5 x 3 x 1

Number of atoms: 108
Number of atomic orbitals: 1053
Number of bands in calculation: 727
Number of valence electrons: 1053
Bands to converge: occupied

... initialized

Initializing position-dependent things.

Density initialized from atomic densities
Creating initial wave functions:
  727 bands from LCAO basis set

       /|  Cr       Cr      Ni    |
      / |   CrFe     Cr           |
     /  |       Co      Fe       Fe
    /   |Cr      CFe       Co     Ni
   /    | Co       Ni       NFe   |
  /  CCo|  FeNi     CoNi          |
 *    CrCr    FeCr   FeNiCo       |
 |      |CoNi   FeFeNi  CoCrFe   Cr
 |      | CrCo     CoCrFeCrNiNi   |
 |    Co|  CoFeNi   CoCrFe   NiCo |
 |      Cr    CrNiCr CrNiCr     Ni|
 |      |FeFe  CoFeNi   FeCrFe   Ni
 |      .-FeCo-----CrNiFe--CrNi---Co
 |   Cro     Fe       Ni         /
 |    NiCo     Coi     CNie     /
 |   /    Co               Cr  /
 |  /      Fe       Fe    NiFe/
 | / Fe     Cr       CrNi    /
 |/            Co       Cr  /
 *--------Co------Co-------*

Positions:
   0 Co    -0.012479   -0.003723   10.616104    ( 0.0000,  0.0000,  2.1000)
   1 Fe    -0.011321    1.761305    1.763386    ( 0.0000,  0.0000,  2.1000)
   2 Fe     1.758365    0.001326    1.769011    ( 0.0000,  0.0000,  2.0000)
   3 Co     1.752686    1.779222   10.610436    ( 0.0000,  0.0000,  2.0000)
   4 Co     3.541196    0.004726   10.616104    ( 0.0000,  0.0000,  0.0000)
   5 Fe     3.534711    1.782438    1.778999    ( 0.0000,  0.0000,  0.0000)
   6 Cr     5.305717   10.600629    1.767950    ( 0.0000,  0.0000,  2.1000)
   7 Co     5.324780    1.765604   10.614618    ( 0.0000,  0.0000,  0.0000)
   8 Co     7.089121    0.014598   10.619926    ( 0.0000,  0.0000,  2.0000)
   9 Fe     7.085279    1.771219    1.773543    ( 0.0000,  0.0000,  1.5000)
  10 Ni     8.850554    0.011470    1.768756    ( 0.0000,  0.0000,  1.5000)
  11 Cr     8.842381    1.777333   10.615680    ( 0.0000,  0.0000,  2.1000)
  12 Fe    10.590535    3.538203   -0.001956    ( 0.0000,  0.0000,  0.0000)
  13 Ni    10.624277    5.310674    1.769786    ( 0.0000,  0.0000,  2.0000)
  14 Co     1.761379    3.535623    1.784572    ( 0.0000,  0.0000,  0.0000)
  15 Cr     1.770200    5.301408   10.611753    ( 0.0000,  0.0000,  2.0000)
  16 Cr     3.556003    3.551407   10.618333    ( 0.0000,  0.0000,  1.5000)
  17 Fe     3.539370    5.311290    1.775199    ( 0.0000,  0.0000,  2.1000)
  18 Ni     5.320142    3.545059    1.779678    ( 0.0000,  0.0000,  1.5000)
  19 Fe     5.306980    5.314654   10.602720    ( 0.0000,  0.0000,  0.0000)
  20 Cr     7.081585    3.529127   10.614725    ( 0.0000,  0.0000,  2.1000)
  21 Ni     7.069241    5.303361    1.781271    ( 0.0000,  0.0000,  1.5000)
  22 Fe     8.841447    3.542671    1.781600    ( 0.0000,  0.0000,  2.1000)
  23 Ni     8.850893    5.290379    0.000220    ( 0.0000,  0.0000,  0.0000)
  24 Ni     0.005868    7.083411   10.614937    ( 0.0000,  0.0000,  2.0000)
  25 Ni    10.601043    8.849694    1.772960    ( 0.0000,  0.0000,  2.1000)
  26 Fe     1.773713    7.072329    1.777184    ( 0.0000,  0.0000,  0.0000)
  27 Cr     1.755520    8.842943   10.608324    ( 0.0000,  0.0000,  0.0000)
  28 Fe     3.544009    7.063116   10.610489    ( 0.0000,  0.0000,  2.0000)
  29 Co     3.542225    8.826820    1.785580    ( 0.0000,  0.0000,  0.0000)
  30 Cr     5.309835    7.081776    1.776600    ( 0.0000,  0.0000,  2.1000)
  31 Cr     5.331945    8.840321   10.604673    ( 0.0000,  0.0000,  2.1000)
  32 Co     7.068434    7.069028   10.623110    ( 0.0000,  0.0000,  0.0000)
  33 Fe     7.083750    8.846796    1.774509    ( 0.0000,  0.0000,  1.5000)
  34 Cr     8.841404    7.058180    1.777173    ( 0.0000,  0.0000,  1.5000)
  35 Ni     8.835524    8.853600   10.611753    ( 0.0000,  0.0000,  0.0000)
  36 Cr    -0.009351   10.618864    3.531070    ( 0.0000,  0.0000,  2.0000)
  37 Fe    10.602508    1.764818    5.300452    ( 0.0000,  0.0000,  1.5000)
  38 Cr     1.756720    0.001379    5.295867    ( 0.0000,  0.0000,  0.0000)
  39 Co     1.766506    1.767154    3.539222    ( 0.0000,  0.0000,  2.0000)
  40 Co     3.539742    0.013881    3.542873    ( 0.0000,  0.0000,  2.0000)
  41 Fe     3.548944    1.788658    5.306237    ( 0.0000,  0.0000,  2.1000)
  42 Fe     5.320174   -0.004685    5.301386    ( 0.0000,  0.0000,  0.0000)
  43 Co     5.316862    1.765551    3.538935    ( 0.0000,  0.0000,  2.0000)
  44 Cr     7.081086   -0.000289    3.531325    ( 0.0000,  0.0000,  2.0000)
  45 Ni     7.072902    1.777407    5.300537    ( 0.0000,  0.0000,  2.0000)
  46 Fe     8.840544    0.012372    5.307851    ( 0.0000,  0.0000,  1.5000)
  47 Ni     8.833592    1.767928    3.534318    ( 0.0000,  0.0000,  2.1000)
  48 Ni    -0.004066    3.525285    3.545951    ( 0.0000,  0.0000,  0.0000)
  49 Co    -0.001689    5.317934    5.307787    ( 0.0000,  0.0000,  1.5000)
  50 Cr     1.769043    3.555101    5.297279    ( 0.0000,  0.0000,  2.0000)
  51 Fe     1.773692    5.305929    3.538266    ( 0.0000,  0.0000,  2.1000)
  52 Co     3.542746    3.537364    3.547575    ( 0.0000,  0.0000,  2.1000)
  53 Fe     3.548477    5.306927    5.301153    ( 0.0000,  0.0000,  2.0000)
  54 Ni     5.316246    3.553031    5.303637    ( 0.0000,  0.0000,  2.0000)
  55 Fe     5.303286    5.303531    3.542385    ( 0.0000,  0.0000,  1.5000)
  56 Ni     7.074962    3.533023    3.537215    ( 0.0000,  0.0000,  1.5000)
  57 Cr     7.066046    5.306046    5.300081    ( 0.0000,  0.0000,  2.0000)
  58 Cr     8.834526    3.538160    5.294530    ( 0.0000,  0.0000,  2.1000)
  59 Cr     8.846255    5.300452    3.537672    ( 0.0000,  0.0000,  1.5000)
[...]
  93 Ni     7.071130    5.304220    8.839313    ( 0.0000,  0.0000,  1.5000)
  94 Co     8.837997    3.524669    8.843389    ( 0.0000,  0.0000,  1.5000)
  95 Cr     8.833772    5.299051    7.076862    ( 0.0000,  0.0000,  0.0000)
  96 Cr     0.012168    7.080333    7.083835    ( 0.0000,  0.0000,  1.5000)
  97 Fe    -0.017034    8.848707    8.843941    ( 0.0000,  0.0000,  2.1000)
  98 Co     1.777938    7.075503    8.840194    ( 0.0000,  0.0000,  2.0000)
  99 Fe     1.758800    8.840035    7.069803    ( 0.0000,  0.0000,  0.0000)
 100 Fe     3.549921    7.066194    7.070090    ( 0.0000,  0.0000,  2.1000)
 101 Co     3.553137    8.839111    8.836776    ( 0.0000,  0.0000,  0.0000)
 102 Ni     5.304189    7.079929    8.840215    ( 0.0000,  0.0000,  2.0000)
 103 Co     5.321946    8.832180    7.082997    ( 0.0000,  0.0000,  2.1000)
 104 Ni     7.057077    7.072149    7.064167    ( 0.0000,  0.0000,  1.5000)
 105 Fe     7.082402    8.855500    8.837487    ( 0.0000,  0.0000,  2.1000)
 106 Co     8.846786    7.077881    8.846732    ( 0.0000,  0.0000,  0.0000)
 107 Ni     8.839313    8.848272    7.075153    ( 0.0000,  0.0000,  0.0000)

Unit cell:
           periodic     x           y           z      points  spacing
  1. axis:    yes   10.614300    0.000000    0.000000    48     0.2211
  2. axis:    yes    0.000000   10.614300    0.000000    48     0.2211
  3. axis:    yes    0.000000    0.000000   10.614300    48     0.2211

  Lengths:  10.614300  10.614300  10.614300
  Angles:   90.000000  90.000000  90.000000

Effective grid spacing dv^(1/3) = 0.2211

     iter     time        total  log10-change:  magmom
                         energy  eigst   dens
iter:   1 04:58:43  -925.970471                  +151.0926
iter:   2 05:01:45  -913.632547  -0.65  -1.40    +115.4378
iter:   3 05:04:47  -904.203820  -1.14  -1.41    +84.9706
iter:   4 05:07:49  -896.629227  -1.45  -1.46    +71.5202
iter:   5 05:10:51  -890.059865  -1.98  -1.49    +65.7215
iter:   6 05:13:52  -894.199025  -2.03  -1.55    +60.7552
iter:   7 05:16:54  -900.031117  -1.68  -1.56    +58.5928
iter:   8 05:19:56  -888.830487  -1.67  -1.58    +56.3709
iter:   9 05:22:57  -891.349968  -2.03  -1.82    +55.5047
iter:  10 05:25:59  -888.694971  -2.18  -1.82    +54.4629
iter:  11 05:29:01  -888.382189  -2.57  -1.92    +54.0156
iter:  12 05:32:02  -888.185789  -2.71  -1.95    +54.2507
iter:  13 05:35:04  -890.013774  -2.66  -2.00    +54.2807
iter:  14 05:38:06  -890.351640  -2.53  -1.99    +54.3112
iter:  15 05:41:09  -890.856613  -2.55  -2.02    +54.3613
iter:  16 05:44:10  -890.712575  -2.49  -2.05    +54.3999
iter:  17 05:47:13  -890.020829  -2.73  -2.07    +54.4052
iter:  18 05:50:15  -890.121459  -2.75  -2.20    +54.6519
iter:  19 05:53:16  -889.943226  -2.96  -2.24    +54.8925
iter:  20 05:56:18  -889.641680  -3.21  -2.25    +55.1376
iter:  21 05:59:21  -889.709606  -3.38  -2.37    +55.3705
iter:  22 06:02:23  -889.731183c -3.49  -2.39    +55.7945
iter:  23 06:05:25  -889.763651c -3.80  -2.43    +56.2115
iter:  24 06:08:26  -889.991963  -3.54  -2.49    +56.7231
iter:  25 06:11:27  -890.235653  -3.40  -2.48    +57.0334
iter:  26 06:14:28  -890.113922  -3.33  -2.43    +57.2494
iter:  27 06:17:25  -890.448233  -3.32  -2.61    +57.5621
iter:  28 06:20:27  -890.222458  -3.31  -2.46    +57.6053
iter:  29 06:23:28  -890.309605  -3.59  -2.65    +57.8271
iter:  30 06:26:30  -890.232511c -3.86  -2.61    +57.9931
iter:  31 06:29:31  -890.283332c -3.96  -2.77    +58.1894
iter:  32 06:32:33  -890.269153c -4.36  -2.76    +58.3008
iter:  33 06:35:35  -890.314286c -4.31  -2.85    +58.4768
iter:  34 06:38:37  -890.341745c -4.47  -2.84    +58.6371
iter:  35 06:41:38  -890.440201  -3.91  -2.91    +58.8692
iter:  36 06:44:40  -890.411539c -4.32  -2.90    +58.8534
iter:  37 06:47:42  -890.427185c -4.46  -3.06    +58.9328
iter:  38 06:50:43  -890.439543c -4.78  -3.19    +58.9605
iter:  39 06:53:45  -890.455738c -4.84  -3.24    +58.9930
iter:  40 06:56:46  -890.489269c -4.47  -3.27    +59.0441
iter:  41 06:59:48  -890.547282c -4.09  -3.24    +59.1188
iter:  42 07:02:49  -890.527026c -5.23  -3.10    +59.0832
iter:  43 07:05:49  -890.587467c -4.10  -3.12    +59.1546
iter:  44 07:08:50  -890.584822c -5.08  -3.07    +59.1332
iter:  45 07:11:51  -890.600173c -4.94  -3.09    +59.1303
iter:  46 07:14:53  -890.613752c -5.11  -3.08    +59.1236
iter:  47 07:17:55  -890.649971c -4.47  -3.05    +59.1113
iter:  48 07:20:57  -890.634500c -4.21  -2.89    +59.1022
iter:  49 07:23:58  -890.622938c -4.44  -2.98    +59.0447
iter:  50 07:27:01  -890.632194c -4.73  -3.01    +59.0085
iter:  51 07:30:03  -890.631125c -4.75  -3.00    +58.9991
iter:  52 07:33:04  -890.638788c -5.00  -3.07    +58.9919
iter:  53 07:36:06  -890.635755c -4.94  -3.08    +58.9608
iter:  54 07:39:07  -890.640171c -4.86  -3.17    +58.9235
iter:  55 07:42:12  -890.642021c -5.20  -3.19    +58.9151
iter:  56 07:45:13  -890.649351c -5.06  -3.21    +58.8970
iter:  57 07:48:15  -890.647546c -5.10  -3.21    +58.8802
iter:  58 07:51:17  -890.652608c -5.19  -3.21    +58.8693
iter:  59 07:54:18  -890.653277c -5.26  -3.26    +58.8553
iter:  60 07:57:20  -890.657954c -5.29  -3.29    +58.8362
iter:  61 08:00:22  -890.658389c -5.46  -3.29    +58.8248
iter:  62 08:03:24  -890.662386c -5.33  -3.33    +58.8105
iter:  63 08:06:26  -890.663344c -5.59  -3.36    +58.8010
iter:  64 08:09:27  -890.668761c -5.24  -3.41    +58.7777
iter:  65 08:12:30  -890.666319c -5.56  -3.37    +58.7695
iter:  66 08:15:32  -890.670239c -5.56  -3.48    +58.7666
iter:  67 08:18:34  -890.669897c -5.71  -3.50    +58.7550
iter:  68 08:21:36  -890.672240c -5.70  -3.57    +58.7427
iter:  69 08:24:38  -890.676342c -5.37  -3.60    +58.7315
iter:  70 08:27:39  -890.677263c -5.65  -3.57    +58.7232
iter:  71 08:30:41  -890.678389c -5.72  -3.65    +58.7103
iter:  72 08:33:42  -890.679636c -5.85  -3.66    +58.7079
iter:  73 08:36:43  -890.681217c -5.85  -3.74    +58.7000
iter:  74 08:39:44  -890.681827c -5.88  -3.75    +58.6947
iter:  75 08:42:45  -890.683428c -5.80  -3.74    +58.6909
iter:  76 08:45:47  -890.683570c -6.16  -3.77    +58.6885
iter:  77 08:48:50  -890.684294c -6.09  -3.88    +58.6855
iter:  78 08:51:52  -890.685519c -5.98  -3.89    +58.6789
iter:  79 08:54:53  -890.686507c -5.99  -3.92    +58.6726
iter:  80 08:57:55  -890.687416c -5.97  -3.94    +58.6682
iter:  81 09:00:56  -890.688004c -6.07  -3.95    +58.6662
iter:  82 09:03:58  -890.688867c -6.11  -3.94    +58.6597
iter:  83 09:06:59  -890.689420c -6.13  -4.01c   +58.6530
iter:  84 09:10:00  -890.691282c -5.41  -4.02c   +58.6445
iter:  85 09:13:03  -890.692880c -5.23  -3.99    +58.6285
iter:  86 09:16:04  -890.693495c -5.47  -3.86    +58.6189
iter:  87 09:19:06  -890.694084c -5.70  -3.83    +58.6112
iter:  88 09:22:07  -890.693665c -6.42  -3.77    +58.6138
iter:  89 09:25:08  -890.693195c -6.22  -3.82    +58.6121
iter:  90 09:28:10  -890.693773c -6.12  -4.02c   +58.6126
iter:  91 09:31:11  -890.693130c -6.28  -3.96    +58.6115
iter:  92 09:34:13  -890.693245c -6.98  -4.24c   +58.6092
iter:  93 09:37:14  -890.693111c -6.99  -4.30c   +58.6059
iter:  94 09:40:16  -890.693229c -7.17  -4.33c   +58.6073
iter:  95 09:43:21  -890.693126c -7.27  -4.32c   +58.6070
iter:  96 09:46:23  -890.693113c -7.48c -4.36c   +58.6070

Converged after 96 iterations.

Dipole moment: (6.410370, -1.913612, 0.768413) |e|*Ang

Total magnetic moment: (0.000000, 0.000000, 58.606991)
Local magnetic moments:
   0 Co ( 0.000000,  0.000000,  1.005425)
   1 Fe ( 0.000000,  0.000000,  2.110983)
   2 Fe ( 0.000000,  0.000000,  2.333529)
   3 Co ( 0.000000,  0.000000,  0.980528)
   4 Co ( 0.000000,  0.000000,  0.426487)
   5 Fe ( 0.000000,  0.000000,  2.154340)
   6 Cr ( 0.000000,  0.000000, -0.474604)
   7 Co ( 0.000000,  0.000000,  0.194983)
   8 Co ( 0.000000,  0.000000,  0.644894)
   9 Fe ( 0.000000,  0.000000,  1.962478)
  10 Ni ( 0.000000,  0.000000,  0.293302)
  11 Cr ( 0.000000,  0.000000, -1.528894)
  12 Fe ( 0.000000,  0.000000,  2.035412)
  13 Ni ( 0.000000,  0.000000,  0.223388)
  14 Co ( 0.000000,  0.000000,  1.307091)
  15 Cr ( 0.000000,  0.000000, -1.213018)
  16 Cr ( 0.000000,  0.000000, -0.832293)
  17 Fe ( 0.000000,  0.000000,  1.757587)
  18 Ni ( 0.000000,  0.000000,  0.292790)
  19 Fe ( 0.000000,  0.000000,  1.994789)
  20 Cr ( 0.000000,  0.000000, -0.770952)
  21 Ni ( 0.000000,  0.000000,  0.266252)
  22 Fe ( 0.000000,  0.000000,  2.012884)
  23 Ni ( 0.000000,  0.000000,  0.328944)
  24 Ni ( 0.000000,  0.000000,  0.315920)
  25 Ni ( 0.000000,  0.000000,  0.244145)
  26 Fe ( 0.000000,  0.000000,  2.106249)
  27 Cr ( 0.000000,  0.000000, -1.599107)
  28 Fe ( 0.000000,  0.000000,  1.869633)
  29 Co ( 0.000000,  0.000000,  0.813263)
  30 Cr ( 0.000000,  0.000000, -1.129175)
  31 Cr ( 0.000000,  0.000000, -0.735283)
  32 Co ( 0.000000,  0.000000,  1.152976)
  33 Fe ( 0.000000,  0.000000,  1.990161)
  34 Cr ( 0.000000,  0.000000, -1.623920)
  35 Ni ( 0.000000,  0.000000,  0.409218)
  36 Cr ( 0.000000,  0.000000, -1.567638)
  37 Fe ( 0.000000,  0.000000,  1.991235)
  38 Cr ( 0.000000,  0.000000, -1.503773)
  39 Co ( 0.000000,  0.000000,  1.027485)
  40 Co ( 0.000000,  0.000000,  1.183609)
  41 Fe ( 0.000000,  0.000000,  2.274835)
  42 Fe ( 0.000000,  0.000000,  2.316307)
  43 Co ( 0.000000,  0.000000,  1.112189)
  44 Cr ( 0.000000,  0.000000, -1.793193)
  45 Ni ( 0.000000,  0.000000,  0.215001)
  46 Fe ( 0.000000,  0.000000,  2.004616)
  47 Ni ( 0.000000,  0.000000,  0.220206)
  48 Ni ( 0.000000,  0.000000,  0.297363)
  49 Co ( 0.000000,  0.000000,  0.696353)
  50 Cr ( 0.000000,  0.000000, -1.808393)
  51 Fe ( 0.000000,  0.000000,  2.095012)
  52 Co ( 0.000000,  0.000000,  1.257431)
  53 Fe ( 0.000000,  0.000000,  1.872680)
  54 Ni ( 0.000000,  0.000000,  0.349969)
  55 Fe ( 0.000000,  0.000000,  2.126140)
  56 Ni ( 0.000000,  0.000000,  0.375149)
  57 Cr ( 0.000000,  0.000000, -0.916178)
  58 Cr ( 0.000000,  0.000000, -0.814648)
  59 Cr ( 0.000000,  0.000000,  0.965190)
[...]
  93 Ni ( 0.000000,  0.000000,  0.203208)
  94 Co ( 0.000000,  0.000000,  0.904855)
  95 Cr ( 0.000000,  0.000000,  0.636740)
  96 Cr ( 0.000000,  0.000000, -1.277092)
  97 Fe ( 0.000000,  0.000000,  2.071522)
  98 Co ( 0.000000,  0.000000,  1.132409)
  99 Fe ( 0.000000,  0.000000,  1.737477)
 100 Fe ( 0.000000,  0.000000,  2.068613)
 101 Co ( 0.000000,  0.000000,  0.829816)
 102 Ni ( 0.000000,  0.000000,  0.412733)
 103 Co ( 0.000000,  0.000000,  1.151841)
 104 Ni ( 0.000000,  0.000000,  0.379478)
 105 Fe ( 0.000000,  0.000000,  2.122029)
 106 Co ( 0.000000,  0.000000,  1.292533)
 107 Ni ( 0.000000,  0.000000,  0.349044)

Energy contributions relative to reference atoms: (reference = -3846758.590871)

Kinetic:       +107.484591
Potential:     -176.935765
External:        +0.000000
XC:            -858.991582
Entropy (-ST):   -4.622170
Local:          +40.060728
Free energy:   -893.004198
Extrapolated:  -890.693113

Spin contamination: 32.853260 electrons
Showing only first 2 kpts
                      Up                     Down
 Kpt  Band  Eigenvalues  Occupancy  Eigenvalues  Occupancy
  0   524      9.86312    0.99263     10.67521    0.03848
  0   525      9.86636    0.99239     10.69004    0.03335
  0   526      9.88366    0.99096     10.71198    0.02696
  0   527      9.90676    0.98864     10.71842    0.02532

  1   524      9.86014    0.99284     10.69211    0.03269
  1   525      9.86716    0.99233     10.70605    0.02856
  1   526      9.87750    0.99150     10.70832    0.02794
  1   527      9.89058    0.99032     10.73295    0.02197

Fermi level: 10.35338

No gap

Forces in eV/Ang:
  0 Co    0.14845    0.01109    0.03355
  1 Fe    0.21865    0.21005    0.14581
  2 Fe    0.22044   -0.18633   -0.01466
  3 Co    0.13779   -0.00701   -0.17709
  4 Co    0.07192   -0.19765   -0.15002
  5 Fe    0.18989    0.10304    0.01003
  6 Cr   -0.43226    0.07859   -0.18732
  7 Co    0.07615    0.10324   -0.21736
  8 Co   -0.37654   -0.21663    0.10639
  9 Fe   -0.23467   -0.19872   -0.25488
 10 Ni   -0.14380   -0.06993   -0.04726
 11 Cr    0.06402   -0.26471    0.00264
 12 Fe    0.43666    0.27464    0.10568
 13 Ni    0.02934   -0.25874   -0.04212
 14 Co    0.08617   -0.06871   -0.21351
 15 Cr    0.03386    0.32336    0.04510
 16 Cr    0.05422   -0.29085    0.22956
 17 Fe   -0.04522   -0.44318   -0.06267
 18 Ni   -0.19936   -0.10197   -0.10618
 19 Fe    0.09404   -0.08804    0.12580
 20 Cr   -0.16363    0.35151   -0.14540
 21 Ni    0.14351    0.04254   -0.14769
 22 Fe   -0.07078   -0.06217   -0.16099
 23 Ni   -0.06650    0.09564   -0.07320
 24 Ni   -0.13134   -0.16387   -0.21909
 25 Ni    0.16050   -0.13959    0.03489
 26 Fe   -0.12529    0.30369   -0.08409
 27 Cr    0.50036   -0.39578    0.33681
 28 Fe   -0.06345    0.29907   -0.21073
 29 Co    0.18533    0.24044   -0.00944
 30 Cr    0.12154    0.26350   -0.05775
 31 Cr   -0.37087    0.05173   -0.04825
 32 Co    0.09791    0.00743    0.10406
 33 Fe   -0.10871    0.16823   -0.24161
 34 Cr   -0.34481    0.10223   -0.16965
 35 Ni   -0.01262   -0.02285   -0.00489
 36 Cr   -0.35488   -0.14583   -0.21637
 37 Fe    0.43946   -0.01406    0.15138
 38 Cr    0.44948   -0.21913    0.34654
 39 Co    0.18207    0.09220    0.06868
 40 Co   -0.09655   -0.35912   -0.12540
 41 Fe   -0.30036   -0.09689    0.04460
 42 Fe    0.14416   -0.21624   -0.03784
 43 Co   -0.23345    0.00990   -0.05582
 44 Cr    0.21250   -0.20001    0.21965
 45 Ni   -0.02771    0.07679    0.11472
 46 Fe   -0.39007    0.02088    0.03041
 47 Ni    0.02754    0.06858   -0.02182
 48 Ni    0.11548    0.09251   -0.10069
 49 Co   -0.01931   -0.09362   -0.04556
 50 Cr   -0.13613    0.01527    0.09701
 51 Fe   -0.30014   -0.26793   -0.03871
 52 Co   -0.04155   -0.00919   -0.22925
 53 Fe   -0.11231   -0.26837    0.21382
 54 Ni    0.11985   -0.09684   -0.07484
 55 Fe    0.20451   -0.10473   -0.01516
 56 Ni   -0.04266   -0.00812    0.04407
 57 Cr   -0.11054    0.28436   -0.11795
 58 Cr    0.12858    0.01685   -0.10763
 59 Cr    0.01566    0.06732    0.64962
[...]
 93 Ni    0.20465    0.07577    0.14859
 94 Co   -0.23824    0.17696    0.00021
 95 Cr   -0.19016   -0.04749   -0.13773
 96 Cr    0.00707   -0.12409    0.09311
 97 Fe    0.19888   -0.20338    0.05008
 98 Co   -0.05577    0.01492   -0.04113
 99 Fe    0.49411    0.16846    0.27832
100 Fe   -0.35102    0.17740    0.31126
101 Co   -0.25618    0.04489    0.03737
102 Ni    0.15081    0.08844    0.14896
103 Co   -0.23359    0.19491   -0.20445
104 Ni    0.32935    0.01207    0.10492
105 Fe   -0.02998   -0.25745    0.25187
106 Co   -0.11223    0.05725   -0.01465
107 Ni    0.04679   -0.10725   -0.00311

Date: Sat Apr 15 09:46:47 2023