User:   c.zeng@d0111
Date:   Sat Apr 15 10:19:34 2023
Arch:   x86_64
Pid:    75475
CWD:    /home/c.zeng/projects/hea-corrosion/hea-mlp/data-curation/bulk-mcmc/dft-jobs/248
Python: 3.8.1
gpaw:   /home/c.zeng/usr/installs/gpaw/source/gpaw-22.8.0/gpaw
_gpaw:  /home/c.zeng/usr/installs/gpaw/source/gpaw-22.8.0/
        _gpaw.cpython-38-x86_64-linux-gnu.so
ase:    /home/c.zeng/.local/lib/python3.8/site-packages/ase-3.22.1-py3.8.egg/ase (version 3.22.1)
numpy:  /shared/centos7/python/3.8.1/lib/python3.8/site-packages/numpy (version 1.17.4)
scipy:  /shared/centos7/python/3.8.1/lib/python3.8/site-packages/scipy (version 1.4.1)
units:  Angstrom and eV
cores: 30
OpenMP: False
OMP_NUM_THREADS: 1

Input parameters:
  convergence: {energy: 0.0001}
  kpts: [2 2 2]
  maxiter: 666
  mode: {ecut: 350.0,
         name: pw}
  occupations: {fixmagmom: False,
                name: fermi-dirac,
                width: 0.1}
  spinpol: True
  xc: PBE

System changes: positions, numbers, cell, pbc, initial_charges, initial_magmoms

Initialize ...

species:
  Ni:
    name: Nickel
    id: 0d9f38a9d6e76a2886f07bb4381f212b
    Z: 28.0
    valence: 16
    core: 12
    charge: 0.0
    file: /home/c.zeng/usr/data/gpaw-setups-0.9.20000/Ni.PBE.gz
    compensation charges: {type: gauss,
                           rc: 0.36,
                           lmax: 2}
    cutoffs: {filter: 2.14,
              core: 1.98}
    valence states:
      #              energy  rcut
      - 4s(2.00)    -5.642   1.164
      - 3p(6.00)   -71.394   1.207
      - 4p(0.00)    -1.226   1.207
      - 3d(8.00)    -8.875   1.138
      -  s          21.570   1.164
      -  d          18.337   1.138

    # Using partial waves for Ni as LCAO basis

  Al:
    name: Aluminium
    id: 0292cae29f5d6237e50f6abdd43a7bdd
    Z: 13.0
    valence: 3
    core: 10
    charge: 0.0
    file: /home/c.zeng/usr/data/gpaw-setups-0.9.20000/Al.PBE.gz
    compensation charges: {type: gauss,
                           rc: 0.34,
                           lmax: 2}
    cutoffs: {filter: 1.91,
              core: 2.36}
    valence states:
      #              energy  rcut
      - 3s(2.00)    -7.753   1.085
      - 3p(1.00)    -2.712   1.085
      -  s          19.459   1.085
      -  p          24.499   1.085
      -  d           0.000   1.085

[...]

  Co:
    name: Cobalt
    id: 339d20d5b0b93d2de9531a1bee871d91
    Z: 27.0
    valence: 9
    core: 18
    charge: 0.0
    file: /home/c.zeng/usr/data/gpaw-setups-0.9.20000/Co.PBE.gz
    compensation charges: {type: gauss,
                           rc: 0.32,
                           lmax: 2}
    cutoffs: {filter: 1.87,
              core: 2.55}
    valence states:
      #              energy  rcut
      - 4s(2.00)    -5.469   1.005
      - 4p(0.00)    -1.277   1.058
      - 3d(7.00)    -8.205   1.005
      -  s          21.742   1.005
      -  p          25.934   1.058
      -  d          19.007   1.005

[...]

  Fe:
    name: Iron
    id: 37abbd8d6c3c35915a9b583b742da910
    Z: 26.0
    valence: 8
    core: 18
    charge: 0.0
    file: /home/c.zeng/usr/data/gpaw-setups-0.9.20000/Fe.PBE.gz
    compensation charges: {type: gauss,
                           rc: 0.33,
                           lmax: 2}
    cutoffs: {filter: 2.06,
              core: 2.67}
    valence states:
      #              energy  rcut
      - 4s(2.00)    -5.291   1.164
      - 4p(0.00)    -1.326   1.058
      - 3d(6.00)    -7.505   1.058
      -  s          21.920   1.164
      -  p          25.885   1.058
      -  d          19.706   1.058

[...]

  Cr:
    name: Chromium
    id: 33f258bda2ca9f93018e70263a35547b
    Z: 24.0
    valence: 6
    core: 18
    charge: 0.0
    file: /home/c.zeng/usr/data/gpaw-setups-0.9.20000/Cr.PBE.gz
    compensation charges: {type: gauss,
                           rc: 0.35,
                           lmax: 2}
    cutoffs: {filter: 2.14,
              core: 3.04}
    valence states:
      #              energy  rcut
      - 4s(1.00)    -4.007   1.164
      - 4p(0.00)    -0.989   1.217
      - 3d(5.00)    -2.913   1.111
      -  s          23.205   1.164
      -  p          26.223   1.217
      -  d          24.299   1.111

    # Using partial waves for Cr as LCAO basis

Reference energy: -3235165.067515  # eV

Spin-polarized calculation.
Magnetic moment: 121.100000

Convergence criteria:
 Maximum [total energy] change in last 3 cyles: 0.0001 eV / electron
 Maximum integral of absolute [dens]ity change: 0.0001 electrons / valence electron
 Maximum integral of absolute [eigenst]ate change: 4e-08 eV^2 / valence electron
 Maximum number of scf [iter]ations: 666
 (Square brackets indicate name in SCF output, whereas a 'c' in
 the SCF output indicates the quantity has converged.)

Symmetries present (total): 1

  ( 1  0  0)
  ( 0  1  0)
  ( 0  0  1)

8 k-points: 2 x 2 x 2 Monkhorst-Pack grid
4 k-points in the irreducible part of the Brillouin zone
       k-points in crystal coordinates                weights
   0:     0.25000000   -0.25000000   -0.25000000          2/8
   1:     0.25000000   -0.25000000    0.25000000          2/8
   2:     0.25000000    0.25000000   -0.25000000          2/8
   3:     0.25000000    0.25000000    0.25000000          2/8

Wave functions: Plane wave expansion
  Cutoff energy: 350.000 eV
  Number of coefficients (min, max): 19084, 19084
  Pulay-stress correction: 0.000000 eV/Ang^3 (de/decut=0.000000)
  Using FFTW library
  ScaLapack parameters: grid=1x1, blocksize=None
  Wavefunction extrapolation:
    Improved wavefunction reuse through dual PAW basis

Occupation numbers: Fermi-Dirac:
  width: 0.1000  # eV

Eigensolver
   Davidson(niter=2)

Densities:
  Coarse grid: 48*48*48 grid
  Fine grid: 96*96*96 grid
  Total Charge: 0.000000

Density mixing:
  Method: difference
  Backend: pulay
  Linear mixing parameter: 0.05
  old densities: 5
  Damping of long wavelength oscillations: 50

Hamiltonian:
  XC and Coulomb potentials evaluated on a 96*96*96 grid
  Using the PBE Exchange-Correlation functional
  External potential:
    NoExternalPotential

XC parameters: PBE with 2 nearest neighbor stencil

Total number of cores used: 30
Parallelization over k-points: 2
Domain decomposition: 5 x 3 x 1

Number of atoms: 108
Number of atomic orbitals: 933
Number of bands in calculation: 624
Number of valence electrons: 912
Bands to converge: occupied

... initialized

Initializing position-dependent things.

Density initialized from atomic densities
Creating initial wave functions:
  624 bands from LCAO basis set

        .--------Al----------------.
       /|           Fe             |
      / |    FeFe     Ni           |
     / Ni       Ni       Al        |
    /   |Fe      CrCo       Fe     |
   /    | NiNi      ACo            |
  /    Co  FeiAlAl    Co Fe  CoAl  |
 *      Fe     AlCoAl   CrFe     Cr|
 |      |FeCr   NiFeFe   AlCrCr   Co
 |      | CoCr   AlCoCoAl CrCrFe   |
 |     Fe  Al CoCo  CrNi Ni  NiCr  |
 |      Cr  Ni CrCrCo CoNiCoAl   Fe|
 |      |CrCo   CoAlAl   CoNiFe   Fe
 |      .-FeNi-----NiNi-Al--NiFe---.
 |     Al  Cr CoCr    Al Co  Ni Cr/
 |    / Co              Cr       Cr
 |   /           Alr      NiFe  /
 |  /      Ni       Fe     CrAl/
 | /                   Fe     /i
 *--------------------------Ni

Positions:
   0 Ni    10.797848    0.093654    0.085777    ( 0.0000,  0.0000,  0.0000)
   1 Al    10.831824    1.844742    1.870716    ( 0.0000,  0.0000,  2.0000)
   2 Ni     1.786803   10.847372    1.827335    ( 0.0000,  0.0000,  0.0000)
   3 Co     1.769614    1.870531   -0.031264    ( 0.0000,  0.0000,  0.0000)
   4 Al     3.620857   10.822050   10.833629    ( 0.0000,  0.0000,  1.5000)
   5 Ni     3.571246    1.883176    1.708402    ( 0.0000,  0.0000,  0.0000)
   6 Co     5.521103   10.788063    1.666217    ( 0.0000,  0.0000,  0.0000)
   7 Al     5.520831    1.813973   10.830911    ( 0.0000,  0.0000,  1.5000)
   8 Al     7.330846    0.011025   10.815657    ( 0.0000,  0.0000,  2.0000)
   9 Fe     7.282018    1.809483    1.793250    ( 0.0000,  0.0000,  2.1000)
  10 Fe     9.029996    0.022005    1.811918    ( 0.0000,  0.0000,  1.5000)
  11 Fe     9.007196    1.868639   10.825714    ( 0.0000,  0.0000,  2.0000)
  12 Ni    10.861310    3.649723    0.014171    ( 0.0000,  0.0000,  2.0000)
  13 Cr    10.867442    5.463468    1.819235    ( 0.0000,  0.0000,  2.1000)
  14 Co     1.756088    3.650267    1.845949    ( 0.0000,  0.0000,  0.0000)
  15 Fe     1.790358    5.439092   10.869084    ( 0.0000,  0.0000,  2.1000)
  16 Ni     3.687842    3.622792   -0.049287    ( 0.0000,  0.0000,  2.0000)
  17 Co     3.667347    5.391145    1.745368    ( 0.0000,  0.0000,  0.0000)
  18 Al     5.497977    3.634415    1.792370    ( 0.0000,  0.0000,  2.0000)
  19 Cr     5.524908    5.448029    0.002551    ( 0.0000,  0.0000,  2.0000)
  20 Co     7.223340    3.611877   10.834270    ( 0.0000,  0.0000,  0.0000)
  21 Al     7.217762    5.474830    1.807776    ( 0.0000,  0.0000,  2.1000)
  22 Ni     9.073442    3.654344    1.775148    ( 0.0000,  0.0000,  0.0000)
  23 Cr     9.008740    5.418608    0.007692    ( 0.0000,  0.0000,  2.0000)
  24 Cr    10.859190    7.178720    0.014480    ( 0.0000,  0.0000,  1.5000)
  25 Fe    -0.018106    8.970948    1.875391    ( 0.0000,  0.0000,  0.0000)
  26 Fe     1.817615    7.224025    1.802546    ( 0.0000,  0.0000,  1.5000)
  27 Cr     1.880729    8.993464   10.874031    ( 0.0000,  0.0000,  0.0000)
  28 Fe     3.684428    7.260447   -0.001356    ( 0.0000,  0.0000,  2.0000)
  29 Co     3.612616    9.025636    1.761807    ( 0.0000,  0.0000,  1.5000)
  30 Ni     5.481440    7.275114    1.811211    ( 0.0000,  0.0000,  1.5000)
  31 Fe     5.461261    9.048153   10.833988    ( 0.0000,  0.0000,  1.5000)
  32 Cr     7.245704    7.257881    0.056891    ( 0.0000,  0.0000,  2.1000)
  33 Co     7.301969    9.004609    1.790315    ( 0.0000,  0.0000,  0.0000)
  34 Ni     9.029343    7.181775    1.815549    ( 0.0000,  0.0000,  2.0000)
  35 Ni     9.030561    9.042010    0.020232    ( 0.0000,  0.0000,  1.5000)
  36 Fe    -0.031046    0.001947    3.645701    ( 0.0000,  0.0000,  2.0000)
  37 Fe    10.825910    1.804351    5.434602    ( 0.0000,  0.0000,  2.1000)
  38 Ni     1.743552   10.849296    5.484376    ( 0.0000,  0.0000,  0.0000)
  39 Al     1.769755    1.791891    3.636068    ( 0.0000,  0.0000,  1.5000)
  40 Al     3.516667   10.719828    3.663227    ( 0.0000,  0.0000,  0.0000)
  41 Co     3.644244    1.785205    5.586728    ( 0.0000,  0.0000,  0.0000)
  42 Al     5.484778   10.815439    5.504022    ( 0.0000,  0.0000,  0.0000)
  43 Cr     5.457934    1.842230    3.658769    ( 0.0000,  0.0000,  0.0000)
  44 Cr     7.360615   10.815439    3.672229    ( 0.0000,  0.0000,  0.0000)
  45 Al     7.266884    1.811614    5.485528    ( 0.0000,  0.0000,  2.1000)
  46 Al     9.077986    0.023590    5.491921    ( 0.0000,  0.0000,  0.0000)
  47 Co     9.066788    1.824226    3.671175    ( 0.0000,  0.0000,  1.5000)
  48 Fe    -0.047135    3.649615    3.617291    ( 0.0000,  0.0000,  2.0000)
  49 Cr    10.809264    5.435993    5.379805    ( 0.0000,  0.0000,  2.0000)
  50 Cr     1.752316    3.624989    5.344676    ( 0.0000,  0.0000,  0.0000)
  51 Cr     1.805786    5.472046    3.619389    ( 0.0000,  0.0000,  2.1000)
  52 Ni     3.649408    3.633491    3.631251    ( 0.0000,  0.0000,  2.1000)
  53 Co     3.657628    5.433797    5.434015    ( 0.0000,  0.0000,  1.5000)
  54 Cr     5.413368    3.672642    5.480309    ( 0.0000,  0.0000,  1.5000)
  55 Al     5.413835    5.465588    3.639666    ( 0.0000,  0.0000,  2.1000)
  56 Ni     7.223449    3.731734    3.720829    ( 0.0000,  0.0000,  0.0000)
  57 Ni     7.220557    5.483180    5.485572    ( 0.0000,  0.0000,  0.0000)
  58 Co     9.069039    3.623673    5.469720    ( 0.0000,  0.0000,  1.5000)
  59 Ni     9.064766    5.503837    3.636731    ( 0.0000,  0.0000,  0.0000)
[...]
  93 Co     7.214631    5.385893    9.048577    ( 0.0000,  0.0000,  2.1000)
  94 Fe     8.994291    3.655975    9.039237    ( 0.0000,  0.0000,  1.5000)
  95 Cr     9.006577    5.423262    7.223296    ( 0.0000,  0.0000,  2.0000)
  96 Cr    -0.070637    7.291956    7.110419    ( 0.0000,  0.0000,  0.0000)
  97 Ni     0.073012    9.104570    9.068375    ( 0.0000,  0.0000,  0.0000)
  98 Ni     1.863247    7.257381    9.054785    ( 0.0000,  0.0000,  2.0000)
  99 Fe     1.858343    9.053708    7.225808    ( 0.0000,  0.0000,  2.1000)
 100 Al     3.683906    7.292456    7.235550    ( 0.0000,  0.0000,  2.0000)
 101 Ni     3.628218    9.069550    9.051262    ( 0.0000,  0.0000,  2.1000)
 102 Co     5.530605    7.331890    9.040129    ( 0.0000,  0.0000,  0.0000)
 103 Al     5.476232    9.097209    7.250467    ( 0.0000,  0.0000,  2.0000)
 104 Cr     7.256827    7.264242    7.208456    ( 0.0000,  0.0000,  2.1000)
 105 Al     7.272548    9.136437    9.056861    ( 0.0000,  0.0000,  1.5000)
 106 Fe     8.936493    7.190875    9.109767    ( 0.0000,  0.0000,  0.0000)
 107 Co     8.994682    9.112169    7.218480    ( 0.0000,  0.0000,  0.0000)

Unit cell:
           periodic     x           y           z      points  spacing
  1. axis:    yes   10.872400    0.000000    0.000000    48     0.2265
  2. axis:    yes    0.000000   10.872400    0.000000    48     0.2265
  3. axis:    yes    0.000000    0.000000   10.872400    48     0.2265

  Lengths:  10.872400  10.872400  10.872400
  Angles:   90.000000  90.000000  90.000000

Effective grid spacing dv^(1/3) = 0.2265

     iter     time        total  log10-change:  magmom
                         energy  eigst   dens
iter:   1 10:24:09  -907.119974                  +120.1134
iter:   2 10:26:14  -854.945417  -0.27  -1.27    +83.2473
iter:   3 10:28:19  -835.945332  -0.78  -1.25    +49.8027
iter:   4 10:30:24  -813.508121  -1.21  -1.30    +45.4148
iter:   5 10:32:30  -808.787642  -1.75  -1.39    +42.1073
iter:   6 10:34:35  -810.180874  -1.74  -1.43    +40.7466
iter:   7 10:36:42  -809.344877  -1.58  -1.47    +40.4494
iter:   8 10:38:43  -805.073308  -1.80  -1.52    +40.5838
iter:   9 10:40:41  -811.603721  -1.78  -1.63    +41.1203
iter:  10 10:42:38  -803.152849  -1.90  -1.60    +41.1595
iter:  11 10:44:35  -803.242162  -2.42  -1.80    +41.7120
iter:  12 10:46:33  -803.588035  -2.40  -1.84    +42.7337
iter:  13 10:48:30  -803.289881  -2.67  -1.87    +43.8175
iter:  14 10:50:46  -804.045746  -2.63  -1.96    +44.6359
iter:  15 10:53:16  -804.199772  -2.71  -1.96    +45.1755
iter:  16 10:55:14  -804.710877  -2.58  -2.01    +46.2307
iter:  17 10:57:11  -804.161911  -2.82  -2.03    +46.7408
iter:  18 10:59:09  -804.344466  -2.88  -2.10    +47.2198
iter:  19 11:01:07  -804.391544  -2.95  -2.15    +48.1041
iter:  20 11:03:04  -804.463454  -2.97  -2.18    +48.4586
iter:  21 11:05:02  -804.840060  -2.94  -2.24    +48.7867
iter:  22 11:06:59  -804.503068  -3.04  -2.18    +49.1836
iter:  23 11:08:56  -805.015410  -2.88  -2.37    +49.7401
iter:  24 11:10:53  -804.660406  -3.13  -2.28    +49.5683
iter:  25 11:13:00  -804.846037  -3.31  -2.48    +49.5647
iter:  26 11:15:37  -804.793724  -3.58  -2.44    +49.8253
iter:  27 11:17:37  -804.969272  -3.49  -2.55    +49.9460
iter:  28 11:19:35  -804.952721  -3.85  -2.50    +49.8072
iter:  29 11:21:32  -805.071615  -3.89  -2.58    +49.6788
iter:  30 11:23:30  -805.265618  -3.57  -2.55    +49.3289
iter:  31 11:25:27  -805.272594  -4.05  -2.51    +49.3436
iter:  32 11:27:25  -805.340662c -3.79  -2.50    +48.9586
iter:  33 11:29:23  -805.353783c -3.89  -2.54    +48.7030
iter:  34 11:31:21  -805.442807  -3.69  -2.59    +48.3698
iter:  35 11:33:18  -805.418883c -3.50  -2.53    +48.2014
iter:  36 11:35:15  -805.428054c -3.88  -2.59    +47.9508
iter:  37 11:37:13  -805.434222c -4.13  -2.64    +47.5843
iter:  38 11:39:10  -805.473597c -4.14  -2.69    +47.2337
iter:  39 11:41:07  -805.502261c -4.04  -2.72    +47.0711
iter:  40 11:43:17  -805.530238c -3.94  -2.74    +46.6865
iter:  41 11:45:53  -805.547269c -4.28  -2.80    +46.4871
iter:  42 11:47:52  -805.563815c -4.29  -2.81    +46.2274
iter:  43 11:49:49  -805.600039c -4.31  -2.87    +45.9659
iter:  44 11:51:46  -805.619729c -4.25  -2.87    +45.5800
iter:  45 11:53:44  -805.639512c -4.42  -2.91    +45.4296
iter:  46 11:55:41  -805.656160c -4.29  -2.92    +45.1782
iter:  47 11:57:39  -805.664813c -4.57  -2.95    +45.1110
iter:  48 11:59:37  -805.668071c -4.55  -2.98    +45.0649
iter:  49 12:01:35  -805.678399c -4.45  -3.04    +45.0418
iter:  50 12:03:32  -805.671661c -4.72  -3.04    +44.9975
iter:  51 12:05:29  -805.676906c -4.93  -3.18    +44.9714
iter:  52 12:07:27  -805.676184c -5.21  -3.21    +44.9079
iter:  53 12:09:24  -805.679121c -5.33  -3.29    +44.8721
iter:  54 12:11:22  -805.688491c -4.71  -3.34    +44.7073
iter:  55 12:13:20  -805.693486c -4.90  -3.40    +44.6542
iter:  56 12:15:26  -805.702302c -4.74  -3.45    +44.5123
iter:  57 12:17:21  -805.712595c -4.76  -3.41    +44.4160
iter:  58 12:19:18  -805.713775c -5.46  -3.31    +44.4428
iter:  59 12:21:15  -805.716814c -5.53  -3.24    +44.4108
iter:  60 12:23:13  -805.730589c -4.59  -3.23    +44.3200
iter:  61 12:25:11  -805.719058c -5.19  -3.16    +44.3591
iter:  62 12:27:09  -805.724219c -4.91  -3.32    +44.3381
iter:  63 12:29:10  -805.722071c -5.23  -3.16    +44.3143
iter:  64 12:31:07  -805.723593c -5.02  -3.25    +44.2549
iter:  65 12:33:09  -805.718538c -5.20  -3.25    +44.2081
iter:  66 12:35:13  -805.724093c -4.77  -3.35    +44.1711
iter:  67 12:37:41  -805.717613c -5.26  -3.23    +44.1510
iter:  68 12:39:39  -805.719369c -5.43  -3.50    +44.1110
iter:  69 12:41:43  -805.717626c -5.80  -3.49    +44.1055
iter:  70 12:43:40  -805.719702c -5.62  -3.56    +44.0597
iter:  71 12:45:38  -805.719243c -5.97  -3.58    +44.0300
iter:  72 12:47:35  -805.719553c -5.90  -3.66    +44.0042
iter:  73 12:49:41  -805.720075c -5.94  -3.71    +43.9912
iter:  74 12:51:41  -805.720555c -5.98  -3.73    +43.9645
iter:  75 12:53:38  -805.720512c -6.04  -3.75    +43.9415
iter:  76 12:55:43  -805.720316c -6.05  -3.87    +43.9291
iter:  77 12:57:41  -805.721043c -6.25  -3.87    +43.9176
iter:  78 12:59:38  -805.721452c -6.22  -3.97    +43.8945
iter:  79 13:01:35  -805.721351c -6.40  -3.95    +43.8847
iter:  80 13:03:35  -805.721759c -6.32  -4.01c   +43.8732
iter:  81 13:05:36  -805.722287c -6.32  -4.14c   +43.8491
iter:  82 13:07:33  -805.722281c -6.55  -4.15c   +43.8388
iter:  83 13:09:37  -805.722774c -6.47  -4.18c   +43.8169
iter:  84 13:11:42  -805.723418c -6.13  -4.21c   +43.7830
iter:  85 13:13:48  -805.724295c -5.95  -4.20c   +43.7467
iter:  86 13:15:54  -805.726221c -5.42  -4.17c   +43.6743
iter:  87 13:18:00  -805.724846c -6.03  -3.97    +43.7288
iter:  88 13:20:05  -805.727565c -5.44  -4.05c   +43.6474
iter:  89 13:22:11  -805.726058c -6.10  -3.88    +43.6984
iter:  90 13:24:16  -805.729506c -5.16  -3.94    +43.5805
iter:  91 13:26:22  -805.731929c -5.22  -3.78    +43.5073
iter:  92 13:28:27  -805.730899c -6.24  -3.68    +43.5428
iter:  93 13:30:47  -805.732117c -5.75  -3.75    +43.4898
iter:  94 13:32:42  -805.733502c -5.80  -3.70    +43.4532
iter:  95 13:34:40  -805.734354c -6.15  -3.66    +43.4549
iter:  96 13:36:37  -805.735187c -6.09  -3.56    +43.4327
iter:  97 13:38:35  -805.736235c -6.32  -3.57    +43.4196
iter:  98 13:40:32  -805.732348c -5.40  -3.53    +43.4181
iter:  99 13:42:30  -805.730977c -5.56  -3.80    +43.3967
iter: 100 13:44:27  -805.731396c -5.86  -3.74    +43.3899
iter: 101 13:46:25  -805.731519c -6.08  -3.85    +43.3717
iter: 102 13:48:29  -805.731592c -6.05  -3.89    +43.3567
iter: 103 13:50:35  -805.731010c -6.48  -3.87    +43.3439
iter: 104 13:52:40  -805.731043c -6.73  -4.07c   +43.3336
iter: 105 13:54:44  -805.731383c -6.84  -4.10c   +43.3230
iter: 106 13:56:42  -805.731185c -6.87  -4.11c   +43.3150
iter: 107 13:58:46  -805.731212c -6.73  -4.13c   +43.3097
iter: 108 14:00:43  -805.731470c -6.65  -4.11c   +43.3047
iter: 109 14:02:49  -805.731652c -6.53  -4.25c   +43.2985
iter: 110 14:04:54  -805.731494c -6.75  -4.16c   +43.2913
iter: 111 14:07:07  -805.731338c -6.80  -4.31c   +43.2844
iter: 112 14:09:07  -805.731698c -7.00  -4.35c   +43.2792
iter: 113 14:11:12  -805.731724c -7.29  -4.39c   +43.2728
iter: 114 14:13:18  -805.731746c -7.36  -4.47c   +43.2631
iter: 115 14:15:24  -805.731868c -7.15  -4.51c   +43.2511
iter: 116 14:17:30  -805.731826c -7.99c -4.43c   +43.2562

Converged after 116 iterations.

Dipole moment: (29.614041, 18.021415, 8.147749) |e|*Ang

Total magnetic moment: (0.000000, 0.000000, 43.256226)
Local magnetic moments:
   0 Ni ( 0.000000,  0.000000,  0.432564)
   1 Al ( 0.000000,  0.000000, -0.037077)
   2 Ni ( 0.000000,  0.000000,  0.205223)
   3 Co ( 0.000000,  0.000000,  1.337119)
   4 Al ( 0.000000,  0.000000, -0.020291)
   5 Ni ( 0.000000,  0.000000,  0.125980)
   6 Co ( 0.000000,  0.000000,  1.026196)
   7 Al ( 0.000000,  0.000000, -0.023560)
   8 Al ( 0.000000,  0.000000, -0.046981)
   9 Fe ( 0.000000,  0.000000,  2.223646)
  10 Fe ( 0.000000,  0.000000,  2.331015)
  11 Fe ( 0.000000,  0.000000,  2.320858)
  12 Ni ( 0.000000,  0.000000,  0.262087)
  13 Cr ( 0.000000,  0.000000, -1.560384)
  14 Co ( 0.000000,  0.000000,  0.929380)
  15 Fe ( 0.000000,  0.000000,  2.148827)
  16 Ni ( 0.000000,  0.000000,  0.134045)
  17 Co ( 0.000000,  0.000000,  0.855944)
  18 Al ( 0.000000,  0.000000, -0.023504)
  19 Cr ( 0.000000,  0.000000,  1.455712)
  20 Co ( 0.000000,  0.000000,  0.879757)
  21 Al ( 0.000000,  0.000000, -0.006322)
  22 Ni ( 0.000000,  0.000000,  0.199334)
  23 Cr ( 0.000000,  0.000000,  0.912964)
  24 Cr ( 0.000000,  0.000000,  0.460776)
  25 Fe ( 0.000000,  0.000000,  2.327976)
  26 Fe ( 0.000000,  0.000000,  1.960521)
  27 Cr ( 0.000000,  0.000000, -2.054679)
  28 Fe ( 0.000000,  0.000000,  2.261923)
  29 Co ( 0.000000,  0.000000,  0.879722)
  30 Ni ( 0.000000,  0.000000,  0.076707)
  31 Fe ( 0.000000,  0.000000,  2.322340)
  32 Cr ( 0.000000,  0.000000, -1.589981)
  33 Co ( 0.000000,  0.000000,  1.123996)
  34 Ni ( 0.000000,  0.000000,  0.119273)
  35 Ni ( 0.000000,  0.000000,  0.006535)
  36 Fe ( 0.000000,  0.000000,  2.391720)
  37 Fe ( 0.000000,  0.000000,  2.030777)
  38 Ni ( 0.000000,  0.000000,  0.248381)
  39 Al ( 0.000000,  0.000000, -0.024727)
  40 Al ( 0.000000,  0.000000, -0.009861)
  41 Co ( 0.000000,  0.000000,  0.004252)
  42 Al ( 0.000000,  0.000000,  0.012989)
  43 Cr ( 0.000000,  0.000000, -2.216447)
  44 Cr ( 0.000000,  0.000000, -1.918094)
  45 Al ( 0.000000,  0.000000, -0.001331)
  46 Al ( 0.000000,  0.000000, -0.024715)
  47 Co ( 0.000000,  0.000000,  1.058909)
  48 Fe ( 0.000000,  0.000000,  1.934222)
  49 Cr ( 0.000000,  0.000000, -1.264053)
  50 Cr ( 0.000000,  0.000000, -1.591110)
  51 Cr ( 0.000000,  0.000000,  1.383806)
  52 Ni ( 0.000000,  0.000000,  0.026349)
  53 Co ( 0.000000,  0.000000,  0.007288)
  54 Cr ( 0.000000,  0.000000,  1.419888)
  55 Al ( 0.000000,  0.000000, -0.008105)
  56 Ni ( 0.000000,  0.000000,  0.070046)
  57 Ni ( 0.000000,  0.000000,  0.213590)
  58 Co ( 0.000000,  0.000000,  1.050562)
  59 Ni ( 0.000000,  0.000000,  0.182063)
[...]
  93 Co ( 0.000000,  0.000000,  0.920790)
  94 Fe ( 0.000000,  0.000000,  2.020198)
  95 Cr ( 0.000000,  0.000000,  0.490237)
  96 Cr ( 0.000000,  0.000000, -1.672346)
  97 Ni ( 0.000000,  0.000000,  0.203145)
  98 Ni ( 0.000000,  0.000000,  0.214648)
  99 Fe ( 0.000000,  0.000000,  2.285281)
 100 Al ( 0.000000,  0.000000, -0.029837)
 101 Ni ( 0.000000,  0.000000,  0.085679)
 102 Co ( 0.000000,  0.000000,  0.480999)
 103 Al ( 0.000000,  0.000000,  0.009039)
 104 Cr ( 0.000000,  0.000000, -1.076346)
 105 Al ( 0.000000,  0.000000,  0.002335)
 106 Fe ( 0.000000,  0.000000, -1.748347)
 107 Co ( 0.000000,  0.000000,  0.545440)

Energy contributions relative to reference atoms: (reference = -3235165.067515)

Kinetic:       +227.346224
Potential:     -221.882097
External:        +0.000000
XC:            -840.560459
Entropy (-ST):   -4.054680
Local:          +31.391846
Free energy:   -807.759166
Extrapolated:  -805.731826

Spin contamination: 31.273445 electrons
Showing only first 2 kpts
                      Up                     Down
 Kpt  Band  Eigenvalues  Occupancy  Eigenvalues  Occupancy
  0   454      9.10550    0.98526      9.80638    0.05699
  0   455      9.11739    0.98343      9.82493    0.04780
  0   456      9.12658    0.98187      9.83100    0.04511
  0   457      9.14883    0.97745      9.85306    0.03651

  1   454      9.10446    0.98541      9.81303    0.05352
  1   455      9.11736    0.98344      9.82822    0.04633
  1   456      9.13199    0.98088      9.83912    0.04174
  1   457      9.14898    0.97742      9.85858    0.03462

Fermi level: 9.52576

No gap

Forces in eV/Ang:
  0 Ni    0.36580   -0.42541   -0.45517
  1 Al   -0.42077    0.10843   -1.19179
  2 Ni   -0.01959   -0.01437    0.06056
  3 Co    0.15737   -0.09000   -0.36168
  4 Al   -0.12867    0.38224    0.70103
  5 Ni    0.43244   -0.45585    0.59629
  6 Co   -0.12675    0.18656    1.03725
  7 Al   -0.68957    0.27009    0.06875
  8 Al   -0.65757   -0.21877    1.97797
  9 Fe    0.21041    0.00474    0.88005
 10 Fe   -0.12395   -0.62449    0.45577
 11 Fe    0.39436    0.46276    0.04546
 12 Ni   -0.04871   -0.30887   -0.07203
 13 Cr   -0.12527   -0.19519    0.22771
 14 Co    0.47198    0.11473   -0.47047
 15 Fe    0.35521   -0.09984    0.65724
 16 Ni   -0.47127   -0.16158    0.11386
 17 Co   -0.32180    0.43830    0.14228
 18 Al   -1.05197   -0.81876    0.25298
 19 Cr   -0.10235    0.22751   -0.67692
 20 Co    0.40206    0.27179    0.15565
 21 Al    1.67262   -0.10412    0.81922
 22 Ni   -0.45726   -0.20743    0.30662
 23 Cr   -0.25312    0.04162   -0.51018
 24 Cr   -0.30541    0.86903    0.13006
 25 Fe   -0.19727    0.36482   -0.86815
 26 Fe    0.40384    0.05755   -0.07229
 27 Cr   -1.16442   -0.43273    0.18164
 28 Fe   -0.30483    0.22609    0.37085
 29 Co    0.32574   -0.06419    0.20419
 30 Ni   -0.72049    0.05795    0.05223
 31 Fe    0.01877   -0.63413    0.63821
 32 Cr    0.02152    0.23120   -0.70131
 33 Co   -0.13238    0.18364    0.42814
 34 Ni    0.35095    0.60542   -0.00108
 35 Ni    0.38087    0.08503   -0.24020
 36 Fe   -0.40176   -0.35035   -0.23882
 37 Fe    0.15439    0.76330   -0.19162
 38 Ni    0.82558    0.13523   -0.23844
 39 Al    1.23547    0.22750    0.12198
 40 Al    1.19366    1.10942   -0.60977
 41 Co   -0.19870    0.16797   -0.61603
 42 Al   -0.93876    1.68045   -0.65973
 43 Cr   -0.49601   -0.25342   -0.21419
 44 Cr   -0.84304    0.18635   -1.66530
 45 Al    0.19007    1.09452   -0.02741
 46 Al    0.16473   -0.57824   -0.45341
 47 Co   -0.25659    0.33782   -0.19039
 48 Fe   -0.37288    0.33308    0.28922
 49 Cr   -0.01736   -0.05096   -0.00545
 50 Cr    0.68114    0.50627    0.93783
 51 Cr    0.64383   -0.37560    0.44123
 52 Ni   -0.24892   -0.13252   -0.06998
 53 Co   -0.43723   -0.05307    0.20017
 54 Cr   -0.32526   -0.93687    0.47566
 55 Al   -0.39034    0.64117    0.73478
 56 Ni    0.21539   -0.38298   -0.71191
 57 Ni    0.20195   -0.33673   -0.05301
 58 Co    0.14852    0.39126   -0.40585
 59 Ni   -0.02358   -0.72058    0.04202
[...]
 93 Co   -0.01172    0.40198   -0.14390
 94 Fe   -0.21257   -0.27009   -0.01945
 95 Cr   -0.43895    0.04546    0.17440
 96 Cr   -0.22747    0.67402    0.72824
 97 Ni   -0.55955   -0.44509   -0.12741
 98 Ni   -0.36550    0.00407   -0.15710
 99 Fe   -0.71940   -0.07567    0.01389
100 Al   -0.61000   -0.60620   -0.30310
101 Ni    0.34819   -0.42786    0.11208
102 Co   -0.17795   -0.63199    0.14733
103 Al   -0.51677   -0.64097    1.11962
104 Cr    0.76342   -1.29900    0.67099
105 Al    0.10381   -1.62980   -0.43410
106 Fe    1.08831    0.27086   -0.40160
107 Co    0.72767   -1.07644    0.31874

Date: Sat Apr 15 14:17:51 2023