User:   c.zeng@d0088
Date:   Thu Apr 13 20:14:10 2023
Arch:   x86_64
Pid:    4677
CWD:    /home/c.zeng/projects/hea-corrosion/hea-mlp/data-curation/bulk-md/dft-jobs/4
Python: 3.8.1
gpaw:   /home/c.zeng/usr/installs/gpaw/source/gpaw-22.8.0/gpaw
_gpaw:  /home/c.zeng/usr/installs/gpaw/source/gpaw-22.8.0/
        _gpaw.cpython-38-x86_64-linux-gnu.so
ase:    /home/c.zeng/.local/lib/python3.8/site-packages/ase-3.22.1-py3.8.egg/ase (version 3.22.1)
numpy:  /shared/centos7/python/3.8.1/lib/python3.8/site-packages/numpy (version 1.17.4)
scipy:  /shared/centos7/python/3.8.1/lib/python3.8/site-packages/scipy (version 1.4.1)
units:  Angstrom and eV
cores: 30
OpenMP: False
OMP_NUM_THREADS: 1

Input parameters:
  convergence: {energy: 0.0001}
  kpts: [2 2 2]
  maxiter: 666
  mode: {ecut: 350.0,
         name: pw}
  occupations: {fixmagmom: False,
                name: fermi-dirac,
                width: 0.1}
  spinpol: True
  xc: PBE

System changes: positions, numbers, cell, pbc, initial_charges, initial_magmoms

Initialize ...

species:
  Co:
    name: Cobalt
    id: 339d20d5b0b93d2de9531a1bee871d91
    Z: 27.0
    valence: 9
    core: 18
    charge: 0.0
    file: /home/c.zeng/usr/data/gpaw-setups-0.9.20000/Co.PBE.gz
    compensation charges: {type: gauss,
                           rc: 0.32,
                           lmax: 2}
    cutoffs: {filter: 1.87,
              core: 2.55}
    valence states:
      #              energy  rcut
      - 4s(2.00)    -5.469   1.005
      - 4p(0.00)    -1.277   1.058
      - 3d(7.00)    -8.205   1.005
      -  s          21.742   1.005
      -  p          25.934   1.058
      -  d          19.007   1.005

    # Using partial waves for Co as LCAO basis

  Fe:
    name: Iron
    id: 37abbd8d6c3c35915a9b583b742da910
    Z: 26.0
    valence: 8
    core: 18
    charge: 0.0
    file: /home/c.zeng/usr/data/gpaw-setups-0.9.20000/Fe.PBE.gz
    compensation charges: {type: gauss,
                           rc: 0.33,
                           lmax: 2}
    cutoffs: {filter: 2.06,
              core: 2.67}
    valence states:
      #              energy  rcut
      - 4s(2.00)    -5.291   1.164
      - 4p(0.00)    -1.326   1.058
      - 3d(6.00)    -7.505   1.058
      -  s          21.920   1.164
      -  p          25.885   1.058
      -  d          19.706   1.058

[...]

  Cr:
    name: Chromium
    id: 33f258bda2ca9f93018e70263a35547b
    Z: 24.0
    valence: 6
    core: 18
    charge: 0.0
    file: /home/c.zeng/usr/data/gpaw-setups-0.9.20000/Cr.PBE.gz
    compensation charges: {type: gauss,
                           rc: 0.35,
                           lmax: 2}
    cutoffs: {filter: 2.14,
              core: 3.04}
    valence states:
      #              energy  rcut
      - 4s(1.00)    -4.007   1.164
      - 4p(0.00)    -0.989   1.217
      - 3d(5.00)    -2.913   1.111
      -  s          23.205   1.164
      -  p          26.223   1.217
      -  d          24.299   1.111

[...]

  Ni:
    name: Nickel
    id: 0d9f38a9d6e76a2886f07bb4381f212b
    Z: 28.0
    valence: 16
    core: 12
    charge: 0.0
    file: /home/c.zeng/usr/data/gpaw-setups-0.9.20000/Ni.PBE.gz
    compensation charges: {type: gauss,
                           rc: 0.36,
                           lmax: 2}
    cutoffs: {filter: 2.14,
              core: 1.98}
    valence states:
      #              energy  rcut
      - 4s(2.00)    -5.642   1.164
      - 3p(6.00)   -71.394   1.207
      - 4p(0.00)    -1.226   1.207
      - 3d(8.00)    -8.875   1.138
      -  s          21.570   1.164
      -  d          18.337   1.138

    # Using partial waves for Ni as LCAO basis

Reference energy: -3846758.590871  # eV

Spin-polarized calculation.
Magnetic moment: 151.200000

Convergence criteria:
 Maximum [total energy] change in last 3 cyles: 0.0001 eV / electron
 Maximum integral of absolute [dens]ity change: 0.0001 electrons / valence electron
 Maximum integral of absolute [eigenst]ate change: 4e-08 eV^2 / valence electron
 Maximum number of scf [iter]ations: 666
 (Square brackets indicate name in SCF output, whereas a 'c' in
 the SCF output indicates the quantity has converged.)

Symmetries present (total): 1

  ( 1  0  0)
  ( 0  1  0)
  ( 0  0  1)

8 k-points: 2 x 2 x 2 Monkhorst-Pack grid
4 k-points in the irreducible part of the Brillouin zone
       k-points in crystal coordinates                weights
   0:     0.25000000   -0.25000000   -0.25000000          2/8
   1:     0.25000000   -0.25000000    0.25000000          2/8
   2:     0.25000000    0.25000000   -0.25000000          2/8
   3:     0.25000000    0.25000000    0.25000000          2/8

Wave functions: Plane wave expansion
  Cutoff energy: 350.000 eV
  Number of coefficients (min, max): 17755, 17755
  Pulay-stress correction: 0.000000 eV/Ang^3 (de/decut=0.000000)
  Using FFTW library
  ScaLapack parameters: grid=1x1, blocksize=None
  Wavefunction extrapolation:
    Improved wavefunction reuse through dual PAW basis

Occupation numbers: Fermi-Dirac:
  width: 0.1000  # eV

Eigensolver
   Davidson(niter=2)

Densities:
  Coarse grid: 48*48*48 grid
  Fine grid: 96*96*96 grid
  Total Charge: 0.000000

Density mixing:
  Method: difference
  Backend: pulay
  Linear mixing parameter: 0.05
  old densities: 5
  Damping of long wavelength oscillations: 50

Hamiltonian:
  XC and Coulomb potentials evaluated on a 96*96*96 grid
  Using the PBE Exchange-Correlation functional
  External potential:
    NoExternalPotential

XC parameters: PBE with 2 nearest neighbor stencil

Total number of cores used: 30
Parallelization over k-points: 2
Domain decomposition: 5 x 3 x 1

Number of atoms: 108
Number of atomic orbitals: 1053
Number of bands in calculation: 727
Number of valence electrons: 1053
Bands to converge: occupied

... initialized

Initializing position-dependent things.

Density initialized from atomic densities
Creating initial wave functions:
  727 bands from LCAO basis set

        Co------------------------.
       /|          Co             |
      Fe|   Fe         Cr         |
     /  |      Cr       Co       Co
    /   |          Fe     Cr      |
   /    | Fe        CCo    CrCr   |
  /   Fe|  CrFe       Ni    CrCo  |
 *    NiCr   CrCNi FeCrNiNi       |
 |      |NCo     Co Fe  CoCrCo  Fe|
 |  Cr  | FeCFe    CNiCo   Cr     Fe
 |   NiCr  NiFeCr   NiFeNi  Ni    |
 Co     FeCrFeFe FNi    FCo   NNi |
 |      |CoCo   CrNiFe  Ni NNi   Co
 |      .--CCo--Cr-CoNi------Cr---.
 |   FeFe  Cr Co            Nir  /
 |    /   Fe   FFe    NiCo      /
 |   /  Cre     NiFeNi   Co    /
 |Co/      Cr    Cr           /
 | /        NiCo        Co   /
 |/             Cr          /

Positions:
   0 Co     0.009127   -0.067327   10.537056    ( 0.0000,  0.0000,  2.1000)
   1 Co     0.071071    1.582719    1.802083    ( 0.0000,  0.0000,  2.1000)
   2 Fe     1.850626   -0.190939    2.022848    ( 0.0000,  0.0000,  2.0000)
   3 Fe     1.679794    1.728021   10.541626    ( 0.0000,  0.0000,  2.0000)
   4 Cr     3.461835   -0.054566   10.842548    ( 0.0000,  0.0000,  0.0000)
   5 Cr     3.468393    1.777101    1.599865    ( 0.0000,  0.0000,  0.0000)
   6 Co     5.368774   10.643891    1.715367    ( 0.0000,  0.0000,  2.1000)
   7 Cr     5.491021    1.816872   10.730215    ( 0.0000,  0.0000,  0.0000)
   8 Fe     7.245643    0.200097   10.496576    ( 0.0000,  0.0000,  2.0000)
   9 Ni     7.219590    1.820080    1.883467    ( 0.0000,  0.0000,  1.5000)
  10 Ni     8.845530   -0.028988    1.782382    ( 0.0000,  0.0000,  1.5000)
  11 Co     8.846114    2.060528   10.743839    ( 0.0000,  0.0000,  2.1000)
  12 Cr    10.596030    3.792010   -0.132438    ( 0.0000,  0.0000,  0.0000)
  13 Fe    10.877188    5.292422    1.809189    ( 0.0000,  0.0000,  2.0000)
  14 Cr     1.831763    3.400217    1.826298    ( 0.0000,  0.0000,  0.0000)
  15 Fe     2.035364    5.259467   10.682547    ( 0.0000,  0.0000,  2.0000)
  16 Ni     3.636240    3.388764   10.646393    ( 0.0000,  0.0000,  1.5000)
  17 Co     3.742296    5.174828    1.817187    ( 0.0000,  0.0000,  2.1000)
  18 Ni     5.321160    3.446053    1.783270    ( 0.0000,  0.0000,  1.5000)
  19 Cr     5.219669    5.182482   10.669786    ( 0.0000,  0.0000,  0.0000)
  20 Co     7.049628    3.589511   10.571911    ( 0.0000,  0.0000,  2.1000)
  21 Ni     7.037788    5.201015    1.649877    ( 0.0000,  0.0000,  1.5000)
  22 Co     8.874504    3.657681    1.648531    ( 0.0000,  0.0000,  2.1000)
  23 Cr     8.650356    5.355251   -0.026503    ( 0.0000,  0.0000,  0.0000)
  24 Fe     0.252325    7.026648   10.521514    ( 0.0000,  0.0000,  2.0000)
  25 Co    10.614269    8.730724    1.715563    ( 0.0000,  0.0000,  2.1000)
  26 Cr     1.983725    7.200455    1.729943    ( 0.0000,  0.0000,  0.0000)
  27 Cr     1.720068    8.805133   10.615369    ( 0.0000,  0.0000,  0.0000)
  28 Fe     3.612576    7.090271   10.622062    ( 0.0000,  0.0000,  2.0000)
  29 Cr     3.812837    8.797218    2.105963    ( 0.0000,  0.0000,  0.0000)
  30 Co     5.376023    7.115760    1.666298    ( 0.0000,  0.0000,  2.1000)
  31 Co     5.095948    8.944329   10.570002    ( 0.0000,  0.0000,  2.1000)
  32 Cr     7.218732    7.230052   10.540411    ( 0.0000,  0.0000,  0.0000)
  33 Ni     7.061299    9.004305    1.526295    ( 0.0000,  0.0000,  1.5000)
  34 Ni     9.089416    7.066357    1.459262    ( 0.0000,  0.0000,  1.5000)
  35 Cr     8.822555    8.993361   10.615118    ( 0.0000,  0.0000,  0.0000)
  36 Fe    -0.057650   10.471655    3.562962    ( 0.0000,  0.0000,  2.0000)
  37 Ni    10.453962    1.841731    5.363455    ( 0.0000,  0.0000,  1.5000)
  38 Cr     1.854396   -0.057887    5.267693    ( 0.0000,  0.0000,  0.0000)
  39 Fe     1.776237    1.845546    3.640921    ( 0.0000,  0.0000,  2.0000)
  40 Fe     3.570069    0.233823    3.685808    ( 0.0000,  0.0000,  2.0000)
  41 Co     3.645538    1.855851    5.420399    ( 0.0000,  0.0000,  2.1000)
  42 Cr     5.331028   -0.138984    5.315333    ( 0.0000,  0.0000,  0.0000)
  43 Fe     5.473021    1.763841    3.381099    ( 0.0000,  0.0000,  2.0000)
  44 Fe     7.036600    0.011126    3.576258    ( 0.0000,  0.0000,  2.0000)
  45 Fe     7.260587    1.774637    5.265983    ( 0.0000,  0.0000,  2.0000)
  46 Ni     8.890412   -0.073151    5.396300    ( 0.0000,  0.0000,  1.5000)
  47 Co     8.958385    1.783104    3.518530    ( 0.0000,  0.0000,  2.1000)
  48 Cr    -0.136358    3.541796    3.493045    ( 0.0000,  0.0000,  0.0000)
  49 Ni     0.069864    5.196696    5.389081    ( 0.0000,  0.0000,  1.5000)
  50 Fe     1.768863    3.550803    5.179802    ( 0.0000,  0.0000,  2.0000)
  51 Co     1.812010    5.131663    3.429329    ( 0.0000,  0.0000,  2.1000)
  52 Co     3.638812    3.501949    3.467258    ( 0.0000,  0.0000,  2.1000)
  53 Fe     3.685132    5.108084    5.106205    ( 0.0000,  0.0000,  2.0000)
  54 Fe     5.526482    3.298205    5.341707    ( 0.0000,  0.0000,  2.0000)
  55 Ni     5.471982    5.352332    3.626787    ( 0.0000,  0.0000,  1.5000)
  56 Ni     7.321600    3.722485    3.567238    ( 0.0000,  0.0000,  1.5000)
  57 Fe     6.994305    5.422852    5.426256    ( 0.0000,  0.0000,  2.0000)
  58 Co     8.710697    3.707374    5.564692    ( 0.0000,  0.0000,  2.1000)
  59 Ni     9.079492    5.375630    3.485184    ( 0.0000,  0.0000,  1.5000)
[...]
  93 Ni     6.985676    5.329068    8.957440    ( 0.0000,  0.0000,  1.5000)
  94 Ni     8.772897    3.534583    8.757166    ( 0.0000,  0.0000,  1.5000)
  95 Cr     8.782376    5.442234    7.209935    ( 0.0000,  0.0000,  0.0000)
  96 Ni     0.052177    7.210239    7.121340    ( 0.0000,  0.0000,  1.5000)
  97 Co    -0.038170    8.842192    9.030556    ( 0.0000,  0.0000,  2.1000)
  98 Fe     1.875326    7.102460    8.677496    ( 0.0000,  0.0000,  2.0000)
  99 Cr     1.713182    8.782598    6.922392    ( 0.0000,  0.0000,  0.0000)
 100 Co     3.666129    6.976502    6.860756    ( 0.0000,  0.0000,  2.1000)
 101 Cr     3.289455    8.925040    8.788850    ( 0.0000,  0.0000,  0.0000)
 102 Fe     5.259912    7.196008    8.821654    ( 0.0000,  0.0000,  2.0000)
 103 Co     5.195041    8.898877    7.143498    ( 0.0000,  0.0000,  2.1000)
 104 Ni     7.071902    7.090222    7.084510    ( 0.0000,  0.0000,  1.5000)
 105 Co     6.831762    9.079322    8.906767    ( 0.0000,  0.0000,  2.1000)
 106 Cr     8.758298    7.148885    8.762867    ( 0.0000,  0.0000,  0.0000)
 107 Cr     8.808978    8.793103    6.982436    ( 0.0000,  0.0000,  0.0000)

Unit cell:
           periodic     x           y           z      points  spacing
  1. axis:    yes   10.614300    0.000000    0.000000    48     0.2211
  2. axis:    yes    0.000000   10.614300    0.000000    48     0.2211
  3. axis:    yes    0.000000    0.000000   10.614300    48     0.2211

  Lengths:  10.614300  10.614300  10.614300
  Angles:   90.000000  90.000000  90.000000

Effective grid spacing dv^(1/3) = 0.2211

     iter     time        total  log10-change:  magmom
                         energy  eigst   dens
iter:   1 20:18:13 -1069.062833                  +151.4733
iter:   2 20:19:45  -937.136986  -0.30  -1.20    +85.4940
iter:   3 20:21:17  -925.829709  -0.96  -1.25    +71.0034
iter:   4 20:22:49  -922.682613  -1.22  -1.31    +66.5691
iter:   5 20:24:21  -897.691801  -1.57  -1.28    +60.9687
iter:   6 20:25:53  -895.684911  -1.36  -1.39    +61.0829
iter:   7 20:27:25  -897.354371  -1.23  -1.47    +59.9005
iter:   8 20:28:57  -876.323815  -1.60  -1.54    +58.4208
iter:   9 20:30:29  -875.437590  -2.31  -1.82    +59.9241
iter:  10 20:32:02  -876.309650  -2.40  -1.86    +61.8296
iter:  11 20:33:33  -876.562608  -2.63  -1.89    +63.2787
iter:  12 20:35:05  -876.519745  -2.65  -1.90    +64.6315
iter:  13 20:36:37  -879.349669  -2.40  -1.97    +66.1478
iter:  14 20:38:09  -877.352066  -2.45  -1.95    +66.6346
iter:  15 20:39:41  -877.183322  -2.79  -2.10    +67.2700
iter:  16 20:41:14  -877.091427  -2.84  -2.18    +67.8578
iter:  17 20:42:46  -876.943647  -3.08  -2.25    +68.6555
iter:  18 20:44:17  -877.098002  -3.30  -2.31    +69.2047
iter:  19 20:45:49  -877.052986  -3.34  -2.32    +69.4111
iter:  20 20:47:21  -877.492690  -3.13  -2.39    +69.8276
iter:  21 20:48:53  -876.950635  -3.30  -2.31    +70.0118
iter:  22 20:50:25  -876.912037  -3.36  -2.53    +70.1715
iter:  23 20:51:58  -876.956245c -3.64  -2.66    +70.3865
iter:  24 20:53:30  -876.946492c -3.88  -2.67    +70.6808
iter:  25 20:55:01  -876.962954c -3.98  -2.74    +70.7773
iter:  26 20:56:33  -876.992065c -3.91  -2.78    +70.8910
iter:  27 20:58:05  -876.977945c -4.07  -2.82    +70.9181
iter:  28 20:59:38  -876.974489c -4.26  -2.89    +70.9254
iter:  29 21:01:10  -876.984052c -4.63  -2.96    +70.9659
iter:  30 21:02:42  -876.996735c -4.65  -3.00    +70.9432
iter:  31 21:04:13  -877.006319c -4.76  -3.01    +70.9753
iter:  32 21:05:46  -877.013004c -4.78  -3.05    +70.9216
iter:  33 21:07:18  -877.018424c -4.67  -3.08    +70.9007
iter:  34 21:08:50  -877.020646c -4.82  -3.15    +70.8678
iter:  35 21:10:22  -877.024156c -4.89  -3.20    +70.8114
iter:  36 21:11:53  -877.028500c -4.97  -3.24    +70.7870
iter:  37 21:13:26  -877.031142c -5.17  -3.28    +70.7221
iter:  38 21:14:59  -877.034673c -5.12  -3.31    +70.7006
iter:  39 21:16:31  -877.037763c -5.16  -3.35    +70.6401
iter:  40 21:18:03  -877.039847c -5.22  -3.36    +70.6119
iter:  41 21:19:35  -877.041349c -5.28  -3.43    +70.5722
iter:  42 21:21:07  -877.044440c -5.31  -3.50    +70.4933
iter:  43 21:22:39  -877.044811c -5.53  -3.49    +70.4886
iter:  44 21:24:11  -877.046313c -5.70  -3.57    +70.4553
iter:  45 21:25:43  -877.048891c -5.39  -3.63    +70.3807
iter:  46 21:27:15  -877.048918c -5.82  -3.60    +70.3950
iter:  47 21:28:47  -877.049860c -5.91  -3.71    +70.3717
iter:  48 21:30:19  -877.050976c -5.82  -3.74    +70.3309
iter:  49 21:31:52  -877.051557c -6.09  -3.73    +70.3261
iter:  50 21:33:24  -877.052105c -6.04  -3.78    +70.3109
iter:  51 21:34:55  -877.052867c -6.11  -3.83    +70.2909
iter:  52 21:36:27  -877.053919c -6.01  -3.87    +70.2559
iter:  53 21:37:59  -877.054545c -6.06  -3.88    +70.2402
iter:  54 21:39:30  -877.055360c -6.18  -3.92    +70.2232
iter:  55 21:41:02  -877.055633c -6.25  -3.96    +70.2027
iter:  56 21:42:34  -877.055917c -6.44  -3.96    +70.1975
iter:  57 21:44:06  -877.056626c -6.30  -4.03c   +70.1833
iter:  58 21:45:38  -877.056692c -6.52  -4.05c   +70.1696
iter:  59 21:47:10  -877.057083c -6.56  -4.10c   +70.1596
iter:  60 21:48:42  -877.057803c -6.30  -4.14c   +70.1381
iter:  61 21:50:15  -877.058702c -5.91  -4.17c   +70.0936
iter:  62 21:51:46  -877.059202c -6.17  -4.15c   +70.0756
iter:  63 21:53:19  -877.060002c -5.83  -4.18c   +70.0407
iter:  64 21:54:51  -877.060718c -5.84  -4.08c   +70.0195
iter:  65 21:56:23  -877.061834c -5.50  -4.02c   +69.9907
iter:  66 21:57:55  -877.061954c -6.23  -3.95    +69.9901
iter:  67 21:59:27  -877.061992c -6.54  -3.95    +69.9908
iter:  68 22:00:59  -877.061970c -6.90  -3.96    +69.9915
iter:  69 22:02:30  -877.062987c -6.20  -3.95    +69.9909
iter:  70 22:04:02  -877.062716c -6.11  -3.78    +69.9900
iter:  71 22:05:34  -877.062044c -6.61  -3.90    +69.9731
iter:  72 22:07:06  -877.062314c -6.70  -4.03c   +69.9642
iter:  73 22:08:38  -877.062293c -6.72  -4.00c   +69.9631
iter:  74 22:10:10  -877.062109c -6.63  -4.00c   +69.9621
iter:  75 22:11:43  -877.062199c -6.41  -4.10c   +69.9599
iter:  76 22:13:15  -877.062277c -6.40  -4.02c   +69.9591
iter:  77 22:14:47  -877.062258c -6.62  -4.05c   +69.9591
iter:  78 22:16:19  -877.062009c -6.73  -4.13c   +69.9629
iter:  79 22:17:51  -877.062010c -7.01  -4.18c   +69.9628
iter:  80 22:19:23  -877.062062c -7.19  -4.30c   +69.9613
iter:  81 22:20:55  -877.061973c -7.42c -4.31c   +69.9619

Converged after 81 iterations.

Dipole moment: (-3.042843, 9.472208, 5.105998) |e|*Ang

Total magnetic moment: (0.000000, 0.000000, 69.961895)
Local magnetic moments:
   0 Co ( 0.000000,  0.000000,  1.149446)
   1 Co ( 0.000000,  0.000000,  1.353156)
   2 Fe ( 0.000000,  0.000000,  2.101090)
   3 Fe ( 0.000000,  0.000000,  1.860967)
   4 Cr ( 0.000000,  0.000000, -0.031824)
   5 Cr ( 0.000000,  0.000000, -0.069159)
   6 Co ( 0.000000,  0.000000,  0.626866)
   7 Cr ( 0.000000,  0.000000, -1.545476)
   8 Fe ( 0.000000,  0.000000,  2.129386)
   9 Ni ( 0.000000,  0.000000,  0.429230)
  10 Ni ( 0.000000,  0.000000,  0.478563)
  11 Co ( 0.000000,  0.000000,  1.559414)
  12 Cr ( 0.000000,  0.000000, -0.727121)
  13 Fe ( 0.000000,  0.000000,  1.777737)
  14 Cr ( 0.000000,  0.000000, -1.059305)
  15 Fe ( 0.000000,  0.000000,  1.626404)
  16 Ni ( 0.000000,  0.000000,  0.028871)
  17 Co ( 0.000000,  0.000000,  1.010406)
  18 Ni ( 0.000000,  0.000000,  0.258361)
  19 Cr ( 0.000000,  0.000000, -1.486024)
  20 Co ( 0.000000,  0.000000,  0.922511)
  21 Ni ( 0.000000,  0.000000,  0.204064)
  22 Co ( 0.000000,  0.000000,  1.145102)
  23 Cr ( 0.000000,  0.000000, -0.584080)
  24 Fe ( 0.000000,  0.000000,  1.960898)
  25 Co ( 0.000000,  0.000000,  1.062074)
  26 Cr ( 0.000000,  0.000000, -0.594694)
  27 Cr ( 0.000000,  0.000000, -0.458165)
  28 Fe ( 0.000000,  0.000000,  1.645127)
  29 Cr ( 0.000000,  0.000000, -0.942121)
  30 Co ( 0.000000,  0.000000,  1.175044)
  31 Co ( 0.000000,  0.000000,  0.728175)
  32 Cr ( 0.000000,  0.000000,  0.213994)
  33 Ni ( 0.000000,  0.000000,  0.265292)
  34 Ni ( 0.000000,  0.000000,  0.288655)
  35 Cr ( 0.000000,  0.000000, -1.252531)
  36 Fe ( 0.000000,  0.000000,  2.393331)
  37 Ni ( 0.000000,  0.000000,  0.303648)
  38 Cr ( 0.000000,  0.000000, -0.836648)
  39 Fe ( 0.000000,  0.000000,  1.782102)
  40 Fe ( 0.000000,  0.000000,  1.930521)
  41 Co ( 0.000000,  0.000000,  0.653040)
  42 Cr ( 0.000000,  0.000000, -1.514986)
  43 Fe ( 0.000000,  0.000000,  2.248461)
  44 Fe ( 0.000000,  0.000000,  2.368732)
  45 Fe ( 0.000000,  0.000000,  2.350992)
  46 Ni ( 0.000000,  0.000000,  0.389669)
  47 Co ( 0.000000,  0.000000,  1.456921)
  48 Cr ( 0.000000,  0.000000, -1.511381)
  49 Ni ( 0.000000,  0.000000,  0.283201)
  50 Fe ( 0.000000,  0.000000,  1.882371)
  51 Co ( 0.000000,  0.000000,  1.130427)
  52 Co ( 0.000000,  0.000000,  1.157055)
  53 Fe ( 0.000000,  0.000000,  2.364456)
  54 Fe ( 0.000000,  0.000000,  2.313198)
  55 Ni ( 0.000000,  0.000000,  0.565671)
  56 Ni ( 0.000000,  0.000000,  0.503541)
  57 Fe ( 0.000000,  0.000000,  2.336047)
  58 Co ( 0.000000,  0.000000,  1.364715)
  59 Ni ( 0.000000,  0.000000,  0.304942)
[...]
  93 Ni ( 0.000000,  0.000000,  0.149906)
  94 Ni ( 0.000000,  0.000000,  0.189610)
  95 Cr ( 0.000000,  0.000000, -0.759352)
  96 Ni ( 0.000000,  0.000000,  0.186481)
  97 Co ( 0.000000,  0.000000,  0.490022)
  98 Fe ( 0.000000,  0.000000,  1.659461)
  99 Cr ( 0.000000,  0.000000, -0.820160)
 100 Co ( 0.000000,  0.000000,  1.433570)
 101 Cr ( 0.000000,  0.000000, -0.649519)
 102 Fe ( 0.000000,  0.000000,  2.418420)
 103 Co ( 0.000000,  0.000000,  1.112424)
 104 Ni ( 0.000000,  0.000000,  0.196623)
 105 Co ( 0.000000,  0.000000,  1.152287)
 106 Cr ( 0.000000,  0.000000,  0.826238)
 107 Cr ( 0.000000,  0.000000, -1.349112)

Energy contributions relative to reference atoms: (reference = -3846758.590871)

Kinetic:       +313.507680
Potential:     -342.772318
External:        +0.000000
XC:            -885.147699
Entropy (-ST):   -4.739368
Local:          +39.720048
Free energy:   -879.431657
Extrapolated:  -877.061973

Spin contamination: 24.568269 electrons
Showing only first 2 kpts
                      Up                     Down
 Kpt  Band  Eigenvalues  Occupancy  Eigenvalues  Occupancy
  0   524      9.84877    0.99573     10.78067    0.02050
  0   525      9.86496    0.99499     10.79158    0.01842
  0   526      9.87546    0.99444     10.80769    0.01573
  0   527      9.88335    0.99398     10.81521    0.01460

  1   524      9.83059    0.99644     10.78163    0.02031
  1   525      9.85676    0.99538     10.78994    0.01872
  1   526      9.86548    0.99496     10.80534    0.01609
  1   527      9.88269    0.99402     10.81909    0.01406

Fermi level: 10.39403

No gap

Forces in eV/Ang:
  0 Co   -0.31697    0.89366    1.17453
  1 Co    0.15279    0.77015   -0.09275
  2 Fe   -0.49358    0.39474   -0.71018
  3 Fe   -0.92529    0.02443    1.03062
  4 Cr   -0.38377    0.65052   -0.83190
  5 Cr    0.26100   -1.13488    1.37068
  6 Co    0.12266    0.58550   -0.20472
  7 Cr   -0.81540   -0.95255   -0.90174
  8 Fe   -1.15179   -0.50971    1.23157
  9 Ni   -0.09311    0.14763   -0.73579
 10 Ni    0.31807    0.57850    0.00440
 11 Co    0.89861   -1.83177   -1.11268
 12 Cr    0.18491   -0.53817    0.44470
 13 Fe   -1.23318   -0.08380   -1.14870
 14 Cr   -0.26065    0.23982   -0.73903
 15 Fe   -0.82996    0.39880    0.41826
 16 Ni   -1.13341    0.90038   -0.00587
 17 Co   -0.87054    0.57436   -0.24659
 18 Ni    1.00123    0.50866    0.13932
 19 Cr    0.33081    1.08786   -0.40390
 20 Co   -0.28064   -0.50101   -0.17319
 21 Ni    0.14231    1.20124    0.94617
 22 Co    0.52817    0.12696    0.93021
 23 Cr    1.57928    0.05398   -0.88992
 24 Fe   -0.51377   -0.56977   -0.09512
 25 Co    0.36817    1.01566    0.28891
 26 Cr   -0.77361   -0.97848   -0.13208
 27 Cr    0.41117    0.62918    0.46816
 28 Fe   -0.21325    0.66217    0.61408
 29 Cr   -2.64332    0.45704   -2.34737
 30 Co    0.32417   -0.51456    0.42448
 31 Co    0.72360   -0.83168    0.64317
 32 Cr   -1.12378   -0.40996    0.15281
 33 Ni   -0.39544   -0.66872    1.38077
 34 Ni   -1.26626   -0.43925    1.42099
 35 Cr    0.51554   -0.69683   -0.81921
 36 Fe    0.39981    0.75203    0.17269
 37 Ni    0.73661   -0.24110   -0.04038
 38 Cr   -1.31841    0.60177   -0.27912
 39 Fe   -0.33492   -0.45204   -0.19853
 40 Fe    0.58266   -1.08181   -0.60376
 41 Co   -0.04563    0.16476   -0.57319
 42 Cr   -0.50428    1.15295   -0.02330
 43 Fe   -1.05790    0.14720    1.42101
 44 Fe    0.88290   -0.22981    0.03453
 45 Fe   -0.21411   -0.06776    0.04647
 46 Ni   -0.24938    0.40526   -0.29617
 47 Co   -0.31535   -0.13219    0.05839
 48 Cr    0.50152   -0.61236    0.46495
 49 Ni   -1.12371    0.61402   -0.60554
 50 Fe    0.02507   -0.10675    1.03413
 51 Co    0.19492    0.97355    0.75516
 52 Co    0.05398   -0.84885    0.40908
 53 Fe   -0.39738    0.33216    1.75860
 54 Fe   -1.02058    0.87843   -0.67089
 55 Ni    0.49501   -0.71447   -1.32239
 56 Ni   -0.67300   -0.86873    0.13553
 57 Fe    0.34441   -0.48900   -1.04448
 58 Co    0.69373   -0.12422   -0.85773
 59 Ni   -1.71545   -0.90202    0.17593
[...]
 93 Ni   -0.46397    0.03140   -1.16930
 94 Ni    0.32080    0.90041    0.68127
 95 Cr    0.50343   -0.59529   -0.46568
 96 Ni   -1.30995   -0.95215    0.03558
 97 Co   -0.37181   -0.56399   -1.86599
 98 Fe   -0.44148   -0.08186    1.00762
 99 Cr   -0.33879    0.86225    0.66440
100 Co   -0.00640   -0.22883    1.09147
101 Cr    1.14750   -0.50802    0.09324
102 Fe    0.20697   -0.60226   -0.05712
103 Co    0.41603    0.06267   -0.28786
104 Ni   -1.29976    0.31559    0.96047
105 Co    0.87236   -0.75680   -0.53350
106 Cr    0.43034    0.20923    0.80317
107 Cr    0.11720    0.62059    1.09298

Date: Thu Apr 13 22:21:13 2023