User:   c.zeng@d0033
Date:   Sat Apr 15 08:49:48 2023
Arch:   x86_64
Pid:    277787
CWD:    /home/c.zeng/projects/hea-corrosion/hea-mlp/data-curation/bulk-mcmc/dft-jobs/242
Python: 3.8.1
gpaw:   /home/c.zeng/usr/installs/gpaw/source/gpaw-22.8.0/gpaw
_gpaw:  /home/c.zeng/usr/installs/gpaw/source/gpaw-22.8.0/
        _gpaw.cpython-38-x86_64-linux-gnu.so
ase:    /home/c.zeng/.local/lib/python3.8/site-packages/ase-3.22.1-py3.8.egg/ase (version 3.22.1)
numpy:  /shared/centos7/python/3.8.1/lib/python3.8/site-packages/numpy (version 1.17.4)
scipy:  /shared/centos7/python/3.8.1/lib/python3.8/site-packages/scipy (version 1.4.1)
units:  Angstrom and eV
cores: 30
OpenMP: False
OMP_NUM_THREADS: 1

Input parameters:
  convergence: {energy: 0.0001}
  kpts: [2 2 2]
  maxiter: 666
  mode: {ecut: 350.0,
         name: pw}
  occupations: {fixmagmom: False,
                name: fermi-dirac,
                width: 0.1}
  spinpol: True
  xc: PBE

System changes: positions, numbers, cell, pbc, initial_charges, initial_magmoms

Initialize ...

species:
  Cr:
    name: Chromium
    id: 33f258bda2ca9f93018e70263a35547b
    Z: 24.0
    valence: 6
    core: 18
    charge: 0.0
    file: /home/c.zeng/usr/data/gpaw-setups-0.9.20000/Cr.PBE.gz
    compensation charges: {type: gauss,
                           rc: 0.35,
                           lmax: 2}
    cutoffs: {filter: 2.14,
              core: 3.04}
    valence states:
      #              energy  rcut
      - 4s(1.00)    -4.007   1.164
      - 4p(0.00)    -0.989   1.217
      - 3d(5.00)    -2.913   1.111
      -  s          23.205   1.164
      -  p          26.223   1.217
      -  d          24.299   1.111

    # Using partial waves for Cr as LCAO basis

  Al:
    name: Aluminium
    id: 0292cae29f5d6237e50f6abdd43a7bdd
    Z: 13.0
    valence: 3
    core: 10
    charge: 0.0
    file: /home/c.zeng/usr/data/gpaw-setups-0.9.20000/Al.PBE.gz
    compensation charges: {type: gauss,
                           rc: 0.34,
                           lmax: 2}
    cutoffs: {filter: 1.91,
              core: 2.36}
    valence states:
      #              energy  rcut
      - 3s(2.00)    -7.753   1.085
      - 3p(1.00)    -2.712   1.085
      -  s          19.459   1.085
      -  p          24.499   1.085
      -  d           0.000   1.085

[...]

  Ni:
    name: Nickel
    id: 0d9f38a9d6e76a2886f07bb4381f212b
    Z: 28.0
    valence: 16
    core: 12
    charge: 0.0
    file: /home/c.zeng/usr/data/gpaw-setups-0.9.20000/Ni.PBE.gz
    compensation charges: {type: gauss,
                           rc: 0.36,
                           lmax: 2}
    cutoffs: {filter: 2.14,
              core: 1.98}
    valence states:
      #              energy  rcut
      - 4s(2.00)    -5.642   1.164
      - 3p(6.00)   -71.394   1.207
      - 4p(0.00)    -1.226   1.207
      - 3d(8.00)    -8.875   1.138
      -  s          21.570   1.164
      -  d          18.337   1.138

[...]

  Co:
    name: Cobalt
    id: 339d20d5b0b93d2de9531a1bee871d91
    Z: 27.0
    valence: 9
    core: 18
    charge: 0.0
    file: /home/c.zeng/usr/data/gpaw-setups-0.9.20000/Co.PBE.gz
    compensation charges: {type: gauss,
                           rc: 0.32,
                           lmax: 2}
    cutoffs: {filter: 1.87,
              core: 2.55}
    valence states:
      #              energy  rcut
      - 4s(2.00)    -5.469   1.005
      - 4p(0.00)    -1.277   1.058
      - 3d(7.00)    -8.205   1.005
      -  s          21.742   1.005
      -  p          25.934   1.058
      -  d          19.007   1.005

[...]

  Fe:
    name: Iron
    id: 37abbd8d6c3c35915a9b583b742da910
    Z: 26.0
    valence: 8
    core: 18
    charge: 0.0
    file: /home/c.zeng/usr/data/gpaw-setups-0.9.20000/Fe.PBE.gz
    compensation charges: {type: gauss,
                           rc: 0.33,
                           lmax: 2}
    cutoffs: {filter: 2.06,
              core: 2.67}
    valence states:
      #              energy  rcut
      - 4s(2.00)    -5.291   1.164
      - 4p(0.00)    -1.326   1.058
      - 3d(6.00)    -7.505   1.058
      -  s          21.920   1.164
      -  p          25.885   1.058
      -  d          19.706   1.058

    # Using partial waves for Fe as LCAO basis

Reference energy: -3235165.067515  # eV

Spin-polarized calculation.
Magnetic moment: 121.100000

Convergence criteria:
 Maximum [total energy] change in last 3 cyles: 0.0001 eV / electron
 Maximum integral of absolute [dens]ity change: 0.0001 electrons / valence electron
 Maximum integral of absolute [eigenst]ate change: 4e-08 eV^2 / valence electron
 Maximum number of scf [iter]ations: 666
 (Square brackets indicate name in SCF output, whereas a 'c' in
 the SCF output indicates the quantity has converged.)

Symmetries present (total): 1

  ( 1  0  0)
  ( 0  1  0)
  ( 0  0  1)

8 k-points: 2 x 2 x 2 Monkhorst-Pack grid
4 k-points in the irreducible part of the Brillouin zone
       k-points in crystal coordinates                weights
   0:     0.25000000   -0.25000000   -0.25000000          2/8
   1:     0.25000000   -0.25000000    0.25000000          2/8
   2:     0.25000000    0.25000000   -0.25000000          2/8
   3:     0.25000000    0.25000000    0.25000000          2/8

Wave functions: Plane wave expansion
  Cutoff energy: 350.000 eV
  Number of coefficients (min, max): 19084, 19084
  Pulay-stress correction: 0.000000 eV/Ang^3 (de/decut=0.000000)
  Using FFTW library
  ScaLapack parameters: grid=1x1, blocksize=None
  Wavefunction extrapolation:
    Improved wavefunction reuse through dual PAW basis

Occupation numbers: Fermi-Dirac:
  width: 0.1000  # eV

Eigensolver
   Davidson(niter=2)

Densities:
  Coarse grid: 48*48*48 grid
  Fine grid: 96*96*96 grid
  Total Charge: 0.000000

Density mixing:
  Method: difference
  Backend: pulay
  Linear mixing parameter: 0.05
  old densities: 5
  Damping of long wavelength oscillations: 50

Hamiltonian:
  XC and Coulomb potentials evaluated on a 96*96*96 grid
  Using the PBE Exchange-Correlation functional
  External potential:
    NoExternalPotential

XC parameters: PBE with 2 nearest neighbor stencil

Total number of cores used: 30
Parallelization over k-points: 2
Domain decomposition: 5 x 3 x 1

Number of atoms: 108
Number of atomic orbitals: 933
Number of bands in calculation: 624
Number of valence electrons: 912
Bands to converge: occupied

... initialized

Initializing position-dependent things.

Density initialized from atomic densities
Creating initial wave functions:
  624 bands from LCAO basis set

        .--------Al----------------.
       /|           Fe             |
      / |    FeFe     Ni           |
     / Ni       Cr       Al        |
    /   |Fe      NiCo       Fe     |
   /    | NiNi      ACo            |
  /    Co  FeiAlAl    Co Fe  CoAl  |
 *      Fe     AlCoAl   CrFe     Cr|
 |      |FeCr   NiFeFe   AlCrNi   Co
 |      | CoCr   AlCoCoAl CrNiFe   |
 |     Fe  Al CoCo  NiNi Ni  CrCr  |
 |      Cr  Ni CrNiCo CoNiCoAl   Fe|
 |      |NiCo   CoAlAl   CoCrFe   Fe
 |      .-FeCr-----CrCr-Al--CrFe---.
 |     Al  Ni CoCr    Al Co  Ni Ni/
 |    / Co              Cr       Ni
 |   /           Ali      CrFe  /
 |  /      Cr       Fe     NiAl/
 | /                   Fe     /r
 *--------------------------Cr

Positions:
   0 Cr    10.797848    0.093654    0.085777    ( 0.0000,  0.0000,  0.0000)
   1 Al    10.831824    1.844742    1.870716    ( 0.0000,  0.0000,  2.0000)
   2 Ni     1.786803   10.847372    1.827335    ( 0.0000,  0.0000,  0.0000)
   3 Co     1.769614    1.870531   -0.031264    ( 0.0000,  0.0000,  0.0000)
   4 Al     3.620857   10.822050   10.833629    ( 0.0000,  0.0000,  1.5000)
   5 Cr     3.571246    1.883176    1.708402    ( 0.0000,  0.0000,  0.0000)
   6 Co     5.521103   10.788063    1.666217    ( 0.0000,  0.0000,  0.0000)
   7 Al     5.520831    1.813973   10.830911    ( 0.0000,  0.0000,  1.5000)
   8 Al     7.330846    0.011025   10.815657    ( 0.0000,  0.0000,  2.0000)
   9 Fe     7.282018    1.809483    1.793250    ( 0.0000,  0.0000,  2.1000)
  10 Fe     9.029996    0.022005    1.811918    ( 0.0000,  0.0000,  1.5000)
  11 Fe     9.007196    1.868639   10.825714    ( 0.0000,  0.0000,  2.0000)
  12 Cr    10.861310    3.649723    0.014171    ( 0.0000,  0.0000,  2.0000)
  13 Ni    10.867442    5.463468    1.819235    ( 0.0000,  0.0000,  2.1000)
  14 Co     1.756088    3.650267    1.845949    ( 0.0000,  0.0000,  0.0000)
  15 Fe     1.790358    5.439092   10.869084    ( 0.0000,  0.0000,  2.1000)
  16 Ni     3.687842    3.622792   -0.049287    ( 0.0000,  0.0000,  2.0000)
  17 Co     3.667347    5.391145    1.745368    ( 0.0000,  0.0000,  0.0000)
  18 Al     5.497977    3.634415    1.792370    ( 0.0000,  0.0000,  2.0000)
  19 Ni     5.524908    5.448029    0.002551    ( 0.0000,  0.0000,  2.0000)
  20 Co     7.223340    3.611877   10.834270    ( 0.0000,  0.0000,  0.0000)
  21 Al     7.217762    5.474830    1.807776    ( 0.0000,  0.0000,  2.1000)
  22 Cr     9.073442    3.654344    1.775148    ( 0.0000,  0.0000,  0.0000)
  23 Ni     9.008740    5.418608    0.007692    ( 0.0000,  0.0000,  2.0000)
  24 Ni    10.859190    7.178720    0.014480    ( 0.0000,  0.0000,  1.5000)
  25 Fe    -0.018106    8.970948    1.875391    ( 0.0000,  0.0000,  0.0000)
  26 Fe     1.817615    7.224025    1.802546    ( 0.0000,  0.0000,  1.5000)
  27 Ni     1.880729    8.993464   10.874031    ( 0.0000,  0.0000,  0.0000)
  28 Fe     3.684428    7.260447   -0.001356    ( 0.0000,  0.0000,  2.0000)
  29 Co     3.612616    9.025636    1.761807    ( 0.0000,  0.0000,  1.5000)
  30 Cr     5.481440    7.275114    1.811211    ( 0.0000,  0.0000,  1.5000)
  31 Fe     5.461261    9.048153   10.833988    ( 0.0000,  0.0000,  1.5000)
  32 Cr     7.245704    7.257881    0.056891    ( 0.0000,  0.0000,  2.1000)
  33 Co     7.301969    9.004609    1.790315    ( 0.0000,  0.0000,  0.0000)
  34 Cr     9.029343    7.181775    1.815549    ( 0.0000,  0.0000,  2.0000)
  35 Ni     9.030561    9.042010    0.020232    ( 0.0000,  0.0000,  1.5000)
  36 Fe    -0.031046    0.001947    3.645701    ( 0.0000,  0.0000,  2.0000)
  37 Fe    10.825910    1.804351    5.434602    ( 0.0000,  0.0000,  2.1000)
  38 Ni     1.743552   10.849296    5.484376    ( 0.0000,  0.0000,  0.0000)
  39 Al     1.769755    1.791891    3.636068    ( 0.0000,  0.0000,  1.5000)
  40 Al     3.516667   10.719828    3.663227    ( 0.0000,  0.0000,  0.0000)
  41 Co     3.644244    1.785205    5.586728    ( 0.0000,  0.0000,  0.0000)
  42 Al     5.484778   10.815439    5.504022    ( 0.0000,  0.0000,  0.0000)
  43 Cr     5.457934    1.842230    3.658769    ( 0.0000,  0.0000,  0.0000)
  44 Cr     7.360615   10.815439    3.672229    ( 0.0000,  0.0000,  0.0000)
  45 Al     7.266884    1.811614    5.485528    ( 0.0000,  0.0000,  2.1000)
  46 Al     9.077986    0.023590    5.491921    ( 0.0000,  0.0000,  0.0000)
  47 Co     9.066788    1.824226    3.671175    ( 0.0000,  0.0000,  1.5000)
  48 Fe    -0.047135    3.649615    3.617291    ( 0.0000,  0.0000,  2.0000)
  49 Cr    10.809264    5.435993    5.379805    ( 0.0000,  0.0000,  2.0000)
  50 Cr     1.752316    3.624989    5.344676    ( 0.0000,  0.0000,  0.0000)
  51 Ni     1.805786    5.472046    3.619389    ( 0.0000,  0.0000,  2.1000)
  52 Cr     3.649408    3.633491    3.631251    ( 0.0000,  0.0000,  2.1000)
  53 Co     3.657628    5.433797    5.434015    ( 0.0000,  0.0000,  1.5000)
  54 Ni     5.413368    3.672642    5.480309    ( 0.0000,  0.0000,  1.5000)
  55 Al     5.413835    5.465588    3.639666    ( 0.0000,  0.0000,  2.1000)
  56 Cr     7.223449    3.731734    3.720829    ( 0.0000,  0.0000,  0.0000)
  57 Ni     7.220557    5.483180    5.485572    ( 0.0000,  0.0000,  0.0000)
  58 Co     9.069039    3.623673    5.469720    ( 0.0000,  0.0000,  1.5000)
  59 Cr     9.064766    5.503837    3.636731    ( 0.0000,  0.0000,  0.0000)
[...]
  93 Co     7.214631    5.385893    9.048577    ( 0.0000,  0.0000,  2.1000)
  94 Fe     8.994291    3.655975    9.039237    ( 0.0000,  0.0000,  1.5000)
  95 Cr     9.006577    5.423262    7.223296    ( 0.0000,  0.0000,  2.0000)
  96 Cr    -0.070637    7.291956    7.110419    ( 0.0000,  0.0000,  0.0000)
  97 Ni     0.073012    9.104570    9.068375    ( 0.0000,  0.0000,  0.0000)
  98 Ni     1.863247    7.257381    9.054785    ( 0.0000,  0.0000,  2.0000)
  99 Fe     1.858343    9.053708    7.225808    ( 0.0000,  0.0000,  2.1000)
 100 Al     3.683906    7.292456    7.235550    ( 0.0000,  0.0000,  2.0000)
 101 Cr     3.628218    9.069550    9.051262    ( 0.0000,  0.0000,  2.1000)
 102 Co     5.530605    7.331890    9.040129    ( 0.0000,  0.0000,  0.0000)
 103 Al     5.476232    9.097209    7.250467    ( 0.0000,  0.0000,  2.0000)
 104 Cr     7.256827    7.264242    7.208456    ( 0.0000,  0.0000,  2.1000)
 105 Al     7.272548    9.136437    9.056861    ( 0.0000,  0.0000,  1.5000)
 106 Fe     8.936493    7.190875    9.109767    ( 0.0000,  0.0000,  0.0000)
 107 Co     8.994682    9.112169    7.218480    ( 0.0000,  0.0000,  0.0000)

Unit cell:
           periodic     x           y           z      points  spacing
  1. axis:    yes   10.872400    0.000000    0.000000    48     0.2265
  2. axis:    yes    0.000000   10.872400    0.000000    48     0.2265
  3. axis:    yes    0.000000    0.000000   10.872400    48     0.2265

  Lengths:  10.872400  10.872400  10.872400
  Angles:   90.000000  90.000000  90.000000

Effective grid spacing dv^(1/3) = 0.2265

     iter     time        total  log10-change:  magmom
                         energy  eigst   dens
iter:   1 08:53:00  -929.905445                  +120.1438
iter:   2 08:54:14  -853.243788  -0.25  -1.24    +79.7190
iter:   3 08:55:29  -845.927666  -0.73  -1.23    +48.2008
iter:   4 08:56:43  -819.305113  -1.11  -1.27    +44.0834
iter:   5 08:57:58  -811.941490  -1.63  -1.34    +41.5010
iter:   6 08:59:12  -812.214965  -1.72  -1.39    +40.5314
iter:   7 09:00:27  -805.796806  -1.50  -1.42    +39.7769
iter:   8 09:01:41  -803.673779  -1.75  -1.51    +40.4703
iter:   9 09:02:56  -809.273101  -1.76  -1.61    +40.9691
iter:  10 09:04:10  -802.345879  -1.87  -1.59    +41.2267
iter:  11 09:05:25  -803.519610  -2.22  -1.75    +42.2841
iter:  12 09:06:39  -801.973604  -2.39  -1.75    +43.5523
iter:  13 09:07:53  -802.776466  -2.50  -1.85    +45.0940
iter:  14 09:09:08  -802.974254  -2.48  -1.86    +45.9819
iter:  15 09:10:23  -803.063773  -2.50  -1.89    +47.4610
iter:  16 09:11:37  -804.535117  -2.38  -1.96    +48.6856
iter:  17 09:12:52  -803.054977  -2.61  -1.93    +49.3727
iter:  18 09:14:06  -803.617795  -2.72  -2.08    +50.6106
iter:  19 09:15:21  -803.208339  -2.88  -2.06    +51.5961
iter:  20 09:16:35  -803.425458  -3.00  -2.16    +52.7168
iter:  21 09:17:50  -803.476031  -3.02  -2.17    +53.4103
iter:  22 09:19:05  -803.640161  -3.08  -2.22    +53.9468
iter:  23 09:20:19  -804.029319  -2.95  -2.26    +54.8646
iter:  24 09:21:34  -804.150490  -3.03  -2.23    +55.1729
iter:  25 09:22:48  -803.947932  -3.05  -2.26    +55.6052
iter:  26 09:24:03  -804.127114  -3.26  -2.40    +56.1262
iter:  27 09:25:17  -804.078612  -3.37  -2.39    +56.4977
iter:  28 09:26:32  -804.154672c -3.64  -2.45    +56.6855
iter:  29 09:27:46  -804.293955  -3.56  -2.51    +56.8769
iter:  30 09:29:00  -804.288918  -3.89  -2.46    +56.9279
iter:  31 09:30:15  -804.375748c -3.77  -2.53    +56.9936
iter:  32 09:31:29  -804.454122  -3.72  -2.55    +56.9109
iter:  33 09:32:44  -804.483318  -3.63  -2.55    +56.7873
iter:  34 09:33:58  -804.509050c -3.77  -2.64    +56.7497
iter:  35 09:35:13  -804.583096  -3.59  -2.66    +56.5573
iter:  36 09:36:27  -804.571705c -3.85  -2.68    +56.4346
iter:  37 09:37:42  -804.587514c -3.96  -2.77    +56.3197
iter:  38 09:38:56  -804.608823c -4.18  -2.78    +56.2086
iter:  39 09:40:10  -804.630711c -4.40  -2.84    +56.0437
iter:  40 09:41:25  -804.678708c -4.39  -2.88    +55.7750
iter:  41 09:42:40  -804.727123  -4.29  -2.86    +55.7314
iter:  42 09:43:54  -804.765996c -4.16  -2.76    +55.5672
iter:  43 09:45:08  -804.792887c -4.14  -2.79    +55.5450
iter:  44 09:46:23  -804.829250c -4.04  -2.78    +55.4251
iter:  45 09:47:37  -804.816099c -4.15  -2.79    +55.2814
iter:  46 09:48:52  -804.857744c -4.31  -2.82    +55.0248
iter:  47 09:50:06  -804.897513c -4.14  -2.80    +54.6454
iter:  48 09:51:20  -804.906069c -4.33  -2.78    +54.5226
iter:  49 09:52:35  -804.924046c -4.29  -2.85    +54.4091
iter:  50 09:53:49  -804.940608c -4.23  -2.80    +54.3537
iter:  51 09:55:04  -804.928686c -4.73  -2.79    +54.2741
iter:  52 09:56:18  -804.962014c -4.54  -2.86    +54.1525
iter:  53 09:57:33  -804.961123c -4.63  -2.78    +54.0928
iter:  54 09:58:47  -804.978779c -4.01  -2.80    +53.9110
iter:  55 10:00:02  -804.942984c -4.12  -2.83    +53.9004
iter:  56 10:01:16  -804.939854c -4.39  -2.96    +53.9678
iter:  57 10:02:31  -804.938852c -5.00  -3.05    +53.9809
iter:  58 10:03:45  -804.942606c -5.09  -3.09    +53.9969
iter:  59 10:05:00  -804.945108c -5.00  -3.12    +54.0115
iter:  60 10:06:14  -804.945607c -4.99  -3.17    +54.0209
iter:  61 10:07:29  -804.944799c -5.19  -3.28    +54.0197
iter:  62 10:08:43  -804.946404c -5.54  -3.37    +54.0418
iter:  63 10:09:58  -804.947353c -5.43  -3.41    +54.0552
iter:  64 10:11:12  -804.948824c -5.43  -3.43    +54.0656
iter:  65 10:12:26  -804.948719c -5.60  -3.46    +54.0800
iter:  66 10:13:41  -804.950120c -5.71  -3.60    +54.0913
iter:  67 10:14:55  -804.950880c -5.81  -3.64    +54.1042
iter:  68 10:16:10  -804.952385c -5.82  -3.66    +54.1147
iter:  69 10:17:24  -804.952656c -5.89  -3.68    +54.1181
iter:  70 10:18:38  -804.953372c -5.99  -3.71    +54.1257
iter:  71 10:19:53  -804.953770c -6.17  -3.74    +54.1311
iter:  72 10:21:07  -804.954729c -6.22  -3.83    +54.1367
iter:  73 10:22:22  -804.955192c -6.21  -3.85    +54.1488
iter:  74 10:23:36  -804.956116c -6.18  -3.89    +54.1576
iter:  75 10:24:50  -804.956430c -6.30  -3.90    +54.1624
iter:  76 10:26:05  -804.956975c -6.39  -3.95    +54.1703
iter:  77 10:27:19  -804.957076c -6.47  -3.93    +54.1761
iter:  78 10:28:34  -804.957550c -6.52  -4.02c   +54.1793
iter:  79 10:29:48  -804.957525c -6.66  -4.05c   +54.1860
iter:  80 10:31:03  -804.957888c -6.69  -4.09c   +54.1931
iter:  81 10:32:17  -804.958042c -6.69  -4.11c   +54.1975
iter:  82 10:33:32  -804.958356c -6.57  -4.15c   +54.2039
iter:  83 10:34:46  -804.958278c -6.68  -4.08c   +54.2081
iter:  84 10:36:00  -804.958486c -6.99  -4.25c   +54.2116
iter:  85 10:37:15  -804.958489c -7.20  -4.27c   +54.2172
iter:  86 10:38:29  -804.958619c -7.13  -4.31c   +54.2230
iter:  87 10:39:44  -804.958783c -7.15  -4.35c   +54.2270
iter:  88 10:40:58  -804.958803c -6.97  -4.45c   +54.2308
iter:  89 10:42:13  -804.958826c -7.40c -4.37c   +54.2344

Converged after 89 iterations.

Dipole moment: (30.023913, 16.343342, 7.193026) |e|*Ang

Total magnetic moment: (0.000000, 0.000000, 54.234365)
Local magnetic moments:
   0 Cr ( 0.000000,  0.000000, -2.405796)
   1 Al ( 0.000000,  0.000000, -0.024345)
   2 Ni ( 0.000000,  0.000000,  0.175953)
   3 Co ( 0.000000,  0.000000,  0.491930)
   4 Al ( 0.000000,  0.000000, -0.020087)
   5 Cr ( 0.000000,  0.000000,  1.993361)
   6 Co ( 0.000000,  0.000000,  1.114208)
   7 Al ( 0.000000,  0.000000, -0.032803)
   8 Al ( 0.000000,  0.000000, -0.038864)
   9 Fe ( 0.000000,  0.000000,  2.114559)
  10 Fe ( 0.000000,  0.000000,  2.093857)
  11 Fe ( 0.000000,  0.000000,  1.890461)
  12 Cr ( 0.000000,  0.000000,  0.955365)
  13 Ni ( 0.000000,  0.000000,  0.206910)
  14 Co ( 0.000000,  0.000000,  0.981963)
  15 Fe ( 0.000000,  0.000000,  2.252849)
  16 Ni ( 0.000000,  0.000000,  0.321364)
  17 Co ( 0.000000,  0.000000,  1.011377)
  18 Al ( 0.000000,  0.000000, -0.028645)
  19 Ni ( 0.000000,  0.000000,  0.239384)
  20 Co ( 0.000000,  0.000000,  1.171366)
  21 Al ( 0.000000,  0.000000,  0.000983)
  22 Cr ( 0.000000,  0.000000, -1.853776)
  23 Ni ( 0.000000,  0.000000,  0.248661)
  24 Ni ( 0.000000,  0.000000,  0.399850)
  25 Fe ( 0.000000,  0.000000,  2.275095)
  26 Fe ( 0.000000,  0.000000,  2.401858)
  27 Ni ( 0.000000,  0.000000,  0.204744)
  28 Fe ( 0.000000,  0.000000,  2.304587)
  29 Co ( 0.000000,  0.000000,  0.995753)
  30 Cr ( 0.000000,  0.000000,  1.462609)
  31 Fe ( 0.000000,  0.000000,  1.966167)
  32 Cr ( 0.000000,  0.000000, -1.837531)
  33 Co ( 0.000000,  0.000000,  0.846440)
  34 Cr ( 0.000000,  0.000000,  1.542967)
  35 Ni ( 0.000000,  0.000000,  0.076688)
  36 Fe ( 0.000000,  0.000000,  2.254541)
  37 Fe ( 0.000000,  0.000000,  1.916288)
  38 Ni ( 0.000000,  0.000000,  0.272980)
  39 Al ( 0.000000,  0.000000, -0.037262)
  40 Al ( 0.000000,  0.000000, -0.007840)
  41 Co ( 0.000000,  0.000000,  0.786784)
  42 Al ( 0.000000,  0.000000, -0.014093)
  43 Cr ( 0.000000,  0.000000, -2.022006)
  44 Cr ( 0.000000,  0.000000,  1.259891)
  45 Al ( 0.000000,  0.000000, -0.018526)
  46 Al ( 0.000000,  0.000000, -0.025353)
  47 Co ( 0.000000,  0.000000,  0.752207)
  48 Fe ( 0.000000,  0.000000,  1.885805)
  49 Cr ( 0.000000,  0.000000,  0.571714)
  50 Cr ( 0.000000,  0.000000, -1.950812)
  51 Ni ( 0.000000,  0.000000,  0.220931)
  52 Cr ( 0.000000,  0.000000,  1.668672)
  53 Co ( 0.000000,  0.000000,  0.644768)
  54 Ni ( 0.000000,  0.000000,  0.186986)
  55 Al ( 0.000000,  0.000000, -0.009902)
  56 Cr ( 0.000000,  0.000000,  1.829927)
  57 Ni ( 0.000000,  0.000000,  0.180149)
  58 Co ( 0.000000,  0.000000,  0.797139)
  59 Cr ( 0.000000,  0.000000, -1.389157)
[...]
  93 Co ( 0.000000,  0.000000,  1.278512)
  94 Fe ( 0.000000,  0.000000,  2.179284)
  95 Cr ( 0.000000,  0.000000,  1.005219)
  96 Cr ( 0.000000,  0.000000, -1.978026)
  97 Ni ( 0.000000,  0.000000,  0.254332)
  98 Ni ( 0.000000,  0.000000,  0.230882)
  99 Fe ( 0.000000,  0.000000,  2.383407)
 100 Al ( 0.000000,  0.000000, -0.024481)
 101 Cr ( 0.000000,  0.000000, -2.079420)
 102 Co ( 0.000000,  0.000000,  0.323691)
 103 Al ( 0.000000,  0.000000,  0.006799)
 104 Cr ( 0.000000,  0.000000, -1.635079)
 105 Al ( 0.000000,  0.000000, -0.014442)
 106 Fe ( 0.000000,  0.000000,  2.349888)
 107 Co ( 0.000000,  0.000000,  0.688267)

Energy contributions relative to reference atoms: (reference = -3235165.067515)

Kinetic:       +274.775333
Potential:     -259.453764
External:        +0.000000
XC:            -849.295372
Entropy (-ST):   -4.116513
Local:          +31.073234
Free energy:   -807.017082
Extrapolated:  -804.958826

Spin contamination: 30.446251 electrons
Showing only first 2 kpts
                      Up                     Down
 Kpt  Band  Eigenvalues  Occupancy  Eigenvalues  Occupancy
  0   454      9.02605    0.99439      9.87998    0.03351
  0   455      9.03698    0.99375      9.89138    0.03001
  0   456      9.06009    0.99213      9.90853    0.02540
  0   457      9.06654    0.99161      9.93014    0.02057

  1   454      9.01964    0.99474      9.87093    0.03657
  1   455      9.02768    0.99430      9.88237    0.03275
  1   456      9.03835    0.99366      9.90099    0.02734
  1   457      9.05054    0.99284      9.91664    0.02347

Fermi level: 9.54381

No gap

Forces in eV/Ang:
  0 Cr    0.62669   -0.74303   -0.64301
  1 Al    0.05233   -0.09623   -0.38732
  2 Ni   -0.01565    0.06271   -0.01900
  3 Co   -0.03063   -0.06022   -0.06177
  4 Al   -0.51894   -0.04811    0.99709
  5 Cr   -0.07138   -0.52283    0.29191
  6 Co   -0.21220    0.15723    0.93189
  7 Al   -0.33553    0.21872   -0.14371
  8 Al   -0.58124   -0.27096    1.95364
  9 Fe    0.15596   -0.20811    0.45119
 10 Fe    0.12734   -0.38074    0.32991
 11 Fe    0.56650    0.18906   -0.12470
 12 Cr    0.03731   -0.72378    0.47062
 13 Ni   -0.08610   -0.21008    0.02011
 14 Co    0.32280    0.07133   -0.16790
 15 Fe    0.44988   -0.14574    0.38799
 16 Ni   -0.35489   -0.11126    0.22305
 17 Co   -0.44290    0.37736    0.38561
 18 Al   -0.66523   -0.00399   -0.64190
 19 Ni   -0.32293    0.10062   -0.24626
 20 Co    0.56158    0.05271   -0.11518
 21 Al    0.88694   -0.37792   -0.45385
 22 Cr   -0.46153   -0.35631   -0.06840
 23 Ni    0.11140   -0.09011   -0.12906
 24 Ni   -0.02708    0.59631   -0.18748
 25 Fe   -0.19273    0.56741   -0.83273
 26 Fe    0.42512   -0.16870   -0.01327
 27 Ni   -0.68112    0.19847    0.00338
 28 Fe   -0.12620    0.15675    0.15139
 29 Co    0.32482   -0.22092    0.44261
 30 Cr   -0.87461    0.91273   -0.33271
 31 Fe   -0.13827   -0.42354    0.31404
 32 Cr   -0.46616    0.20393   -0.68276
 33 Co   -0.35282    0.43253    0.60424
 34 Cr    0.57859    0.39465   -0.27266
 35 Ni    0.37839    0.16121   -0.31956
 36 Fe   -0.44509   -0.15110   -0.13551
 37 Fe    0.14067    0.77949   -0.34834
 38 Ni    0.78971    0.12111   -0.14502
 39 Al    0.68686   -0.09871    0.41330
 40 Al    1.61600    0.69550   -0.52020
 41 Co   -0.11555    0.30193   -0.48217
 42 Al   -1.32976    1.28775   -0.62118
 43 Cr   -0.35020   -0.13069   -0.77697
 44 Cr   -0.51253    0.28920   -1.40693
 45 Al    0.18355    1.02159    0.26091
 46 Al    0.00541   -0.30786   -0.34846
 47 Co   -0.32101    0.06084   -0.21323
 48 Fe   -0.12578    0.30639    0.12910
 49 Cr    0.17023    0.21280    0.30234
 50 Cr    0.40163    0.39949    0.96976
 51 Ni    0.26819   -0.05547    0.02619
 52 Cr   -0.62464   -0.03947    0.63886
 53 Co   -0.60001    0.13873    0.28485
 54 Ni   -0.00054   -0.37488   -0.04478
 55 Al   -0.39026    0.60170    1.35295
 56 Cr    1.06704   -1.01411   -0.26554
 57 Ni    0.26205   -0.31190   -0.14717
 58 Co    0.02418    0.33754   -0.17649
 59 Cr    0.11420    0.02834    0.60151
[...]
 93 Co    0.04134    0.29216    0.09076
 94 Fe   -0.16352   -0.30355    0.18785
 95 Cr   -0.22694    0.15239   -0.32807
 96 Cr   -0.07805    0.17691    0.56050
 97 Ni   -0.53232   -0.25833    0.06785
 98 Ni   -0.23232   -0.14295   -0.08030
 99 Fe   -0.61950   -0.18863   -0.00012
100 Al   -0.47835   -1.03181   -0.62605
101 Cr   -0.36074   -0.42192    0.62554
102 Co   -0.06253   -0.54985   -0.02681
103 Al   -0.72507   -0.25315    0.89442
104 Cr    0.53321   -1.38351    0.96468
105 Al   -0.12242   -1.47764   -0.37776
106 Fe    0.55406    0.52358   -0.35657
107 Co    0.72788   -0.90678    0.46242

Date: Sat Apr 15 10:42:29 2023