User:   c.zeng@d0080
Date:   Thu Apr 13 20:13:10 2023
Arch:   x86_64
Pid:    274189
CWD:    /home/c.zeng/projects/hea-corrosion/hea-mlp/data-curation/bulk-md/dft-jobs/38
Python: 3.8.1
gpaw:   /home/c.zeng/usr/installs/gpaw/source/gpaw-22.8.0/gpaw
_gpaw:  /home/c.zeng/usr/installs/gpaw/source/gpaw-22.8.0/
        _gpaw.cpython-38-x86_64-linux-gnu.so
ase:    /home/c.zeng/.local/lib/python3.8/site-packages/ase-3.22.1-py3.8.egg/ase (version 3.22.1)
numpy:  /shared/centos7/python/3.8.1/lib/python3.8/site-packages/numpy (version 1.17.4)
scipy:  /shared/centos7/python/3.8.1/lib/python3.8/site-packages/scipy (version 1.4.1)
units:  Angstrom and eV
cores: 30
OpenMP: False
OMP_NUM_THREADS: 1

Input parameters:
  convergence: {energy: 0.0001}
  kpts: [2 2 2]
  maxiter: 666
  mode: {ecut: 350.0,
         name: pw}
  occupations: {fixmagmom: False,
                name: fermi-dirac,
                width: 0.1}
  spinpol: True
  xc: PBE

System changes: positions, numbers, cell, pbc, initial_charges, initial_magmoms

Initialize ...

species:
  Cr:
    name: Chromium
    id: 33f258bda2ca9f93018e70263a35547b
    Z: 24.0
    valence: 6
    core: 18
    charge: 0.0
    file: /home/c.zeng/usr/data/gpaw-setups-0.9.20000/Cr.PBE.gz
    compensation charges: {type: gauss,
                           rc: 0.35,
                           lmax: 2}
    cutoffs: {filter: 2.14,
              core: 3.04}
    valence states:
      #              energy  rcut
      - 4s(1.00)    -4.007   1.164
      - 4p(0.00)    -0.989   1.217
      - 3d(5.00)    -2.913   1.111
      -  s          23.205   1.164
      -  p          26.223   1.217
      -  d          24.299   1.111

    # Using partial waves for Cr as LCAO basis

  Al:
    name: Aluminium
    id: 0292cae29f5d6237e50f6abdd43a7bdd
    Z: 13.0
    valence: 3
    core: 10
    charge: 0.0
    file: /home/c.zeng/usr/data/gpaw-setups-0.9.20000/Al.PBE.gz
    compensation charges: {type: gauss,
                           rc: 0.34,
                           lmax: 2}
    cutoffs: {filter: 1.91,
              core: 2.36}
    valence states:
      #              energy  rcut
      - 3s(2.00)    -7.753   1.085
      - 3p(1.00)    -2.712   1.085
      -  s          19.459   1.085
      -  p          24.499   1.085
      -  d           0.000   1.085

[...]

  Co:
    name: Cobalt
    id: 339d20d5b0b93d2de9531a1bee871d91
    Z: 27.0
    valence: 9
    core: 18
    charge: 0.0
    file: /home/c.zeng/usr/data/gpaw-setups-0.9.20000/Co.PBE.gz
    compensation charges: {type: gauss,
                           rc: 0.32,
                           lmax: 2}
    cutoffs: {filter: 1.87,
              core: 2.55}
    valence states:
      #              energy  rcut
      - 4s(2.00)    -5.469   1.005
      - 4p(0.00)    -1.277   1.058
      - 3d(7.00)    -8.205   1.005
      -  s          21.742   1.005
      -  p          25.934   1.058
      -  d          19.007   1.005

[...]

  Fe:
    name: Iron
    id: 37abbd8d6c3c35915a9b583b742da910
    Z: 26.0
    valence: 8
    core: 18
    charge: 0.0
    file: /home/c.zeng/usr/data/gpaw-setups-0.9.20000/Fe.PBE.gz
    compensation charges: {type: gauss,
                           rc: 0.33,
                           lmax: 2}
    cutoffs: {filter: 2.06,
              core: 2.67}
    valence states:
      #              energy  rcut
      - 4s(2.00)    -5.291   1.164
      - 4p(0.00)    -1.326   1.058
      - 3d(6.00)    -7.505   1.058
      -  s          21.920   1.164
      -  p          25.885   1.058
      -  d          19.706   1.058

[...]

  Ni:
    name: Nickel
    id: 0d9f38a9d6e76a2886f07bb4381f212b
    Z: 28.0
    valence: 16
    core: 12
    charge: 0.0
    file: /home/c.zeng/usr/data/gpaw-setups-0.9.20000/Ni.PBE.gz
    compensation charges: {type: gauss,
                           rc: 0.36,
                           lmax: 2}
    cutoffs: {filter: 2.14,
              core: 1.98}
    valence states:
      #              energy  rcut
      - 4s(2.00)    -5.642   1.164
      - 3p(6.00)   -71.394   1.207
      - 4p(0.00)    -1.226   1.207
      - 3d(8.00)    -8.875   1.138
      -  s          21.570   1.164
      -  d          18.337   1.138

    # Using partial waves for Ni as LCAO basis

Reference energy: -3699400.456887  # eV

Spin-polarized calculation.
Magnetic moment: 143.500000

Convergence criteria:
 Maximum [total energy] change in last 3 cyles: 0.0001 eV / electron
 Maximum integral of absolute [dens]ity change: 0.0001 electrons / valence electron
 Maximum integral of absolute [eigenst]ate change: 4e-08 eV^2 / valence electron
 Maximum number of scf [iter]ations: 666
 (Square brackets indicate name in SCF output, whereas a 'c' in
 the SCF output indicates the quantity has converged.)

Symmetries present (total): 1

  ( 1  0  0)
  ( 0  1  0)
  ( 0  0  1)

8 k-points: 2 x 2 x 2 Monkhorst-Pack grid
4 k-points in the irreducible part of the Brillouin zone
       k-points in crystal coordinates                weights
   0:     0.25000000   -0.25000000   -0.25000000          2/8
   1:     0.25000000   -0.25000000    0.25000000          2/8
   2:     0.25000000    0.25000000   -0.25000000          2/8
   3:     0.25000000    0.25000000    0.25000000          2/8

Wave functions: Plane wave expansion
  Cutoff energy: 350.000 eV
  Number of coefficients (min, max): 18052, 18052
  Pulay-stress correction: 0.000000 eV/Ang^3 (de/decut=0.000000)
  Using FFTW library
  ScaLapack parameters: grid=1x1, blocksize=None
  Wavefunction extrapolation:
    Improved wavefunction reuse through dual PAW basis

Occupation numbers: Fermi-Dirac:
  width: 0.1000  # eV

Eigensolver
   Davidson(niter=2)

Densities:
  Coarse grid: 48*48*48 grid
  Fine grid: 96*96*96 grid
  Total Charge: 0.000000

Density mixing:
  Method: difference
  Backend: pulay
  Linear mixing parameter: 0.05
  old densities: 5
  Damping of long wavelength oscillations: 50

Hamiltonian:
  XC and Coulomb potentials evaluated on a 96*96*96 grid
  Using the PBE Exchange-Correlation functional
  External potential:
    NoExternalPotential

XC parameters: PBE with 2 nearest neighbor stencil

Total number of cores used: 30
Parallelization over k-points: 2
Domain decomposition: 5 x 3 x 1

Number of atoms: 108
Number of atomic orbitals: 1025
Number of bands in calculation: 703
Number of valence electrons: 1020
Bands to converge: occupied

... initialized

Initializing position-dependent things.

Density initialized from atomic densities
Creating initial wave functions:
  703 bands from LCAO basis set

       /|       Fe                |
      / |  Nie       AlAl         |
     /Cri                         |
    /   |Fe     CrCo     FCrr     |
   /o   | Nie      Cr         Ni  Cr
  /    Co    CoFe   CrNi    Ni    |
 *     Co   CrNi Ni Ni Co Co   Fe |
 |      Co Cr  CoNi Co  AlCrFe  Ni|
 |      | FeCo  CoNi NiCo  NiNi   |
 |    Cr| NiCo  Co FeFeCr   FeFe  |
 |      Ni  CrCoFeCr   NiNi    Cr |
 |Co    Ni Ni  CoCr Co  CrFe     Ni
 |      CrFe-------CoCo--Cr-CFe---.
 |    Fe   CrFeAl   CrNFe    CCo /
 |    /       CoCrFe    Nio     /
 |Fe /  Fe         Co          /
 |Al/      Cr                 /
 | /        FeNi    Fe Ni    /
 |/                    Fe   /

Positions:
   0 Cr     0.117645   -0.082668   10.742008    ( 0.0000,  0.0000,  0.0000)
   1 Al    10.708280    1.873401    1.745354    ( 0.0000,  0.0000,  0.0000)
   2 Cr     1.804495   10.577902    1.616456    ( 0.0000,  0.0000,  0.0000)
   3 Co     1.882997    1.643431   10.581538    ( 0.0000,  0.0000,  2.1000)
   4 Fe     3.447358   -0.456878   -0.211275    ( 0.0000,  0.0000,  2.0000)
   5 Cr     3.725847    1.851867    1.725874    ( 0.0000,  0.0000,  0.0000)
   6 Ni     5.325431   10.746430    1.695316    ( 0.0000,  0.0000,  1.5000)
   7 Fe     5.394143    1.642107   -0.107002    ( 0.0000,  0.0000,  2.0000)
   8 Cr     7.158534   -0.109013    0.234510    ( 0.0000,  0.0000,  0.0000)
   9 Co     7.063033    1.777930    2.046115    ( 0.0000,  0.0000,  2.1000)
  10 Ni     8.873997   10.713116    1.948350    ( 0.0000,  0.0000,  1.5000)
  11 Fe     8.803753    1.583090   10.695215    ( 0.0000,  0.0000,  2.0000)
  12 Co     0.005964    3.614147   10.659313    ( 0.0000,  0.0000,  2.1000)
  13 Co    -0.178585    5.272318    1.875937    ( 0.0000,  0.0000,  2.1000)
  14 Fe     1.732427    3.691236    1.618642    ( 0.0000,  0.0000,  2.0000)
  15 Fe     1.985694    5.132232   -0.215976    ( 0.0000,  0.0000,  2.0000)
  16 Fe     3.727244    3.508305    0.078101    ( 0.0000,  0.0000,  2.0000)
  17 Fe     3.432656    5.326808    1.761188    ( 0.0000,  0.0000,  2.0000)
  18 Cr     5.335327    3.644516    1.767479    ( 0.0000,  0.0000,  0.0000)
  19 Co     5.455916    5.412469   -0.081963    ( 0.0000,  0.0000,  2.1000)
  20 Fe     7.061127    3.492200   10.759841    ( 0.0000,  0.0000,  2.0000)
  21 Ni     7.030954    5.261539    1.821248    ( 0.0000,  0.0000,  1.5000)
  22 Co     8.797519    3.645956    1.949814    ( 0.0000,  0.0000,  2.1000)
  23 Cr     8.863929    5.124147   -0.044654    ( 0.0000,  0.0000,  0.0000)
  24 Cr     0.068060    6.985467   -0.160079    ( 0.0000,  0.0000,  0.0000)
  25 Ni    -0.025922    9.047813    1.804369    ( 0.0000,  0.0000,  1.5000)
  26 Fe     1.868364    6.982715    1.859887    ( 0.0000,  0.0000,  2.0000)
  27 Ni     1.702976    8.650970   10.519050    ( 0.0000,  0.0000,  1.5000)
  28 Co     3.596367    7.176989    0.055828    ( 0.0000,  0.0000,  2.1000)
  29 Co     3.424662    8.667913    1.789237    ( 0.0000,  0.0000,  2.1000)
  30 Co     5.361337    7.001173    1.906089    ( 0.0000,  0.0000,  2.1000)
  31 Cr     5.399040    8.758469    0.180826    ( 0.0000,  0.0000,  0.0000)
  32 Al     7.181780    7.183325   10.651762    ( 0.0000,  0.0000,  0.0000)
  33 Cr     7.171990    9.083547    2.027242    ( 0.0000,  0.0000,  0.0000)
  34 Cr     9.037253    7.150052    1.665066    ( 0.0000,  0.0000,  0.0000)
  35 Cr     8.899176    8.949348   10.781225    ( 0.0000,  0.0000,  0.0000)
  36 Fe    10.854684   10.774257    3.491763    ( 0.0000,  0.0000,  2.0000)
  37 Co    10.713609    2.011189    5.292722    ( 0.0000,  0.0000,  2.1000)
  38 Cr     1.705247   10.593516    5.343105    ( 0.0000,  0.0000,  0.0000)
  39 Fe     1.597842    1.780547    3.572318    ( 0.0000,  0.0000,  2.0000)
  40 Co     3.267145   10.665966    3.483875    ( 0.0000,  0.0000,  2.1000)
  41 Ni     3.615097    2.013370    5.629855    ( 0.0000,  0.0000,  1.5000)
  42 Ni     5.161457   -0.183583    5.332244    ( 0.0000,  0.0000,  1.5000)
  43 Al     5.140931    1.826128    3.596847    ( 0.0000,  0.0000,  0.0000)
  44 Fe     6.941764   10.762789    3.671474    ( 0.0000,  0.0000,  2.0000)
  45 Co     7.249668    1.731950    5.409097    ( 0.0000,  0.0000,  2.1000)
  46 Fe     9.051853   10.798702    5.254601    ( 0.0000,  0.0000,  2.0000)
  47 Ni     8.917550    1.719586    3.466468    ( 0.0000,  0.0000,  1.5000)
  48 Fe    -0.004363    3.554645    3.575214    ( 0.0000,  0.0000,  2.0000)
  49 Fe    10.665105    5.253389    5.323944    ( 0.0000,  0.0000,  2.0000)
  50 Ni     1.833939    3.601374    5.566423    ( 0.0000,  0.0000,  1.5000)
  51 Ni     1.600716    5.355509    3.527905    ( 0.0000,  0.0000,  1.5000)
  52 Cr     3.352389    3.516054    3.390630    ( 0.0000,  0.0000,  0.0000)
  53 Co     3.268253    5.363346    5.233908    ( 0.0000,  0.0000,  2.1000)
  54 Fe     5.308480    3.617590    5.353853    ( 0.0000,  0.0000,  2.0000)
  55 Cr     5.227132    5.083492    3.575892    ( 0.0000,  0.0000,  0.0000)
  56 Co     7.384189    3.400014    3.646487    ( 0.0000,  0.0000,  2.1000)
  57 Fe     6.865206    5.407059    5.415481    ( 0.0000,  0.0000,  2.0000)
  58 Ni     8.940374    3.922856    5.375247    ( 0.0000,  0.0000,  1.5000)
  59 Fe     8.769273    5.507390    3.522558    ( 0.0000,  0.0000,  2.0000)
[...]
  93 Ni     7.109021    5.404344    8.850643    ( 0.0000,  0.0000,  1.5000)
  94 Co     9.099077    3.630555    8.623345    ( 0.0000,  0.0000,  2.1000)
  95 Cr     8.890548    5.514767    7.194547    ( 0.0000,  0.0000,  0.0000)
  96 Fe    -0.087913    7.052641    7.205100    ( 0.0000,  0.0000,  2.0000)
  97 Ni     0.007349    9.062897    9.013365    ( 0.0000,  0.0000,  1.5000)
  98 Ni     1.943929    7.016440    8.792293    ( 0.0000,  0.0000,  1.5000)
  99 Fe     1.758011    8.885569    7.210359    ( 0.0000,  0.0000,  2.0000)
 100 Ni     3.603340    7.009352    7.080631    ( 0.0000,  0.0000,  1.5000)
 101 Cr     3.673326    8.821308    8.496476    ( 0.0000,  0.0000,  0.0000)
 102 Cr     5.488846    7.296520    8.743058    ( 0.0000,  0.0000,  0.0000)
 103 Cr     5.287703    8.877577    6.903434    ( 0.0000,  0.0000,  0.0000)
 104 Co     6.965919    7.402125    6.989128    ( 0.0000,  0.0000,  2.1000)
 105 Fe     7.350168    8.917050    8.679601    ( 0.0000,  0.0000,  2.0000)
 106 Cr     8.815314    7.051900    9.177625    ( 0.0000,  0.0000,  0.0000)
 107 Ni     8.885213    8.651296    6.959885    ( 0.0000,  0.0000,  1.5000)

Unit cell:
           periodic     x           y           z      points  spacing
  1. axis:    yes   10.671700    0.000000    0.000000    48     0.2223
  2. axis:    yes    0.000000   10.671700    0.000000    48     0.2223
  3. axis:    yes    0.000000    0.000000   10.671700    48     0.2223

  Lengths:  10.671700  10.671700  10.671700
  Angles:   90.000000  90.000000  90.000000

Effective grid spacing dv^(1/3) = 0.2223

     iter     time        total  log10-change:  magmom
                         energy  eigst   dens
iter:   1 20:19:21 -1031.333481                  +143.7779
iter:   2 20:22:13  -916.695926  -0.25  -1.21    +82.7788
iter:   3 20:25:05  -901.611695  -0.94  -1.23    +70.3764
iter:   4 20:27:55  -885.910564  -1.32  -1.30    +66.6333
iter:   5 20:30:47  -870.664140  -1.61  -1.32    +63.5582
iter:   6 20:33:38  -869.743645  -1.30  -1.39    +64.0746
iter:   7 20:36:29  -874.159298  -1.20  -1.49    +63.1088
iter:   8 20:39:21  -854.829206  -1.69  -1.52    +62.2267
iter:   9 20:42:13  -853.360608  -2.19  -1.76    +63.6272
iter:  10 20:45:04  -853.863332  -2.48  -1.83    +65.1507
iter:  11 20:47:56  -854.133724  -2.52  -1.85    +66.3234
iter:  12 20:50:48  -855.472120  -2.38  -1.89    +67.9065
iter:  13 20:53:39  -855.404963  -2.39  -1.91    +68.5246
iter:  14 20:56:31  -854.743534  -2.48  -1.99    +68.8769
iter:  15 20:59:22  -854.762583  -2.67  -2.06    +69.8827
iter:  16 21:02:14  -854.087838  -3.05  -2.09    +70.3071
iter:  17 21:05:05  -854.266371  -3.19  -2.21    +70.9380
iter:  18 21:07:56  -854.628072  -3.02  -2.24    +71.3361
iter:  19 21:10:47  -854.355714  -3.16  -2.23    +71.7552
iter:  20 21:13:39  -854.319513  -3.17  -2.30    +71.9263
iter:  21 21:16:31  -854.315333c -3.28  -2.37    +72.0603
iter:  22 21:19:23  -854.272523c -3.39  -2.40    +72.4681
iter:  23 21:22:14  -854.152883  -3.53  -2.44    +72.4724
iter:  24 21:25:05  -854.140577  -3.51  -2.55    +72.6084
iter:  25 21:27:54  -854.147923c -3.61  -2.61    +72.7973
iter:  26 21:30:44  -854.162900c -3.87  -2.62    +72.9220
iter:  27 21:33:36  -854.136963c -3.85  -2.64    +72.9862
iter:  28 21:36:27  -854.142204c -3.97  -2.69    +73.1111
iter:  29 21:39:18  -854.150516c -4.07  -2.74    +73.2127
iter:  30 21:42:10  -854.135863c -4.28  -2.74    +73.2197
iter:  31 21:45:01  -854.144832c -4.40  -2.82    +73.3322
iter:  32 21:47:52  -854.150430c -4.39  -2.86    +73.3841
iter:  33 21:50:44  -854.151108c -4.64  -2.89    +73.3847
iter:  34 21:53:35  -854.153462c -4.61  -2.92    +73.4178
iter:  35 21:56:27  -854.158651c -4.62  -2.99    +73.4603
iter:  36 21:59:18  -854.163772c -4.76  -3.02    +73.4824
iter:  37 22:02:09  -854.163008c -4.74  -3.04    +73.4602
iter:  38 22:05:00  -854.168803c -4.71  -3.11    +73.4919
iter:  39 22:07:52  -854.171037c -4.89  -3.12    +73.5157
iter:  40 22:10:43  -854.174712c -4.86  -3.19    +73.5237
iter:  41 22:13:34  -854.181936c -4.90  -3.19    +73.5433
iter:  42 22:16:26  -854.180067c -4.89  -3.20    +73.5595
iter:  43 22:19:18  -854.183277c -5.10  -3.29    +73.5160
iter:  44 22:22:09  -854.186251c -5.10  -3.30    +73.5227
iter:  45 22:25:01  -854.186695c -5.23  -3.33    +73.5374
iter:  46 22:27:53  -854.192342c -5.28  -3.35    +73.5299
iter:  47 22:30:44  -854.191668c -5.25  -3.34    +73.5116
iter:  48 22:33:35  -854.195009c -5.23  -3.40    +73.4967
iter:  49 22:36:26  -854.196359c -5.25  -3.39    +73.5119
iter:  50 22:39:14  -854.196740c -5.37  -3.41    +73.5025
iter:  51 22:42:05  -854.199832c -5.37  -3.49    +73.4819
iter:  52 22:44:56  -854.198701c -5.57  -3.49    +73.4838
iter:  53 22:47:48  -854.201434c -5.65  -3.52    +73.4940
iter:  54 22:50:39  -854.202698c -5.70  -3.62    +73.4904
iter:  55 22:53:31  -854.204187c -5.84  -3.59    +73.4642
iter:  56 22:56:23  -854.205676c -5.90  -3.63    +73.4591
iter:  57 22:59:14  -854.207199c -5.86  -3.67    +73.4487
iter:  58 23:02:05  -854.209323c -5.88  -3.65    +73.4329
iter:  59 23:04:57  -854.210512c -5.81  -3.67    +73.4094
iter:  60 23:07:49  -854.213546c -5.62  -3.70    +73.3954
iter:  61 23:10:40  -854.212932c -6.31  -3.66    +73.4020
iter:  62 23:13:32  -854.214328c -5.94  -3.73    +73.3812
iter:  63 23:16:24  -854.216199c -5.68  -3.73    +73.3867
iter:  64 23:19:14  -854.215597c -5.72  -3.72    +73.3860
iter:  65 23:22:05  -854.218712c -5.69  -3.82    +73.3856
iter:  66 23:24:57  -854.217275c -5.86  -3.72    +73.3787
iter:  67 23:27:49  -854.218550c -6.04  -4.07c   +73.3659
iter:  68 23:30:25  -854.218614c -6.40  -3.97    +73.3701
iter:  69 23:33:01  -854.219455c -6.31  -4.06c   +73.3668
iter:  70 23:35:34  -854.220941c -6.02  -4.12c   +73.3643
iter:  71 23:38:07  -854.229510c -4.54  -4.07c   +73.3580
iter:  72 23:41:16  -854.233120c -4.71  -3.76    +73.3705
iter:  73 23:44:18  -854.233515c -5.49  -3.64    +73.3826
iter:  74 23:46:52  -854.233838c -5.97  -3.63    +73.3988
iter:  75 23:49:25  -854.233655c -6.29  -3.62    +73.4016
iter:  76 23:51:59  -854.234609c -6.08  -3.62    +73.4130
iter:  77 23:54:32  -854.235076c -5.19  -3.53    +73.4062
iter:  78 23:57:06  -854.231819c -5.59  -3.41    +73.4293
iter:  79 23:59:40  -854.234017c -5.50  -3.67    +73.4036
iter:  80 00:02:14  -854.232774c -5.64  -3.58    +73.4085
iter:  81 00:04:47  -854.232610c -5.76  -3.68    +73.4069
iter:  82 00:07:20  -854.231391c -6.12  -3.72    +73.3906
iter:  83 00:09:54  -854.232341c -6.01  -3.86    +73.3724
iter:  84 00:12:28  -854.231488c -6.29  -3.83    +73.3709
iter:  85 00:15:01  -854.231332c -6.54  -3.95    +73.3699
iter:  86 00:17:35  -854.231353c -6.53  -3.93    +73.3628
iter:  87 00:20:08  -854.231250c -6.53  -3.97    +73.3553
iter:  88 00:22:41  -854.231749c -6.38  -3.98    +73.3597
iter:  89 00:25:14  -854.231120c -6.71  -3.96    +73.3606
iter:  90 00:27:48  -854.231413c -6.41  -4.05c   +73.3566
iter:  91 00:30:20  -854.231531c -6.52  -4.00c   +73.3530
iter:  92 00:32:53  -854.231348c -6.52  -4.05c   +73.3553
iter:  93 00:35:27  -854.231251c -6.82  -4.08c   +73.3605
iter:  94 00:38:00  -854.230866c -6.73  -4.17c   +73.3556
iter:  95 00:40:33  -854.231105c -7.16  -4.17c   +73.3540
iter:  96 00:43:06  -854.230975c -6.99  -4.29c   +73.3555
iter:  97 00:46:17  -854.230930c -7.27  -4.25c   +73.3570
iter:  98 00:49:17  -854.230942c -7.23  -4.30c   +73.3560
iter:  99 00:51:50  -854.230915c -7.29  -4.34c   +73.3549
iter: 100 00:54:23  -854.231159c -7.15  -4.35c   +73.3583
iter: 101 00:56:57  -854.230834c -7.33  -4.32c   +73.3606
iter: 102 00:59:30  -854.230912c -7.31  -4.42c   +73.3605
iter: 103 01:02:04  -854.230909c -7.44c -4.38c   +73.3597

Converged after 103 iterations.

Dipole moment: (31.259504, 27.637043, 12.714892) |e|*Ang

Total magnetic moment: (0.000000, 0.000000, 73.359729)
Local magnetic moments:
   0 Cr ( 0.000000,  0.000000,  0.624432)
   1 Al ( 0.000000,  0.000000, -0.045738)
   2 Cr ( 0.000000,  0.000000, -1.236583)
   3 Co ( 0.000000,  0.000000,  0.642940)
   4 Fe ( 0.000000,  0.000000,  1.942031)
   5 Cr ( 0.000000,  0.000000,  0.121746)
   6 Ni ( 0.000000,  0.000000,  0.167147)
   7 Fe ( 0.000000,  0.000000,  2.036453)
   8 Cr ( 0.000000,  0.000000, -0.381672)
   9 Co ( 0.000000,  0.000000,  1.286029)
  10 Ni ( 0.000000,  0.000000,  0.238326)
  11 Fe ( 0.000000,  0.000000,  2.351287)
  12 Co ( 0.000000,  0.000000,  1.220338)
  13 Co ( 0.000000,  0.000000,  0.877447)
  14 Fe ( 0.000000,  0.000000,  1.967925)
  15 Fe ( 0.000000,  0.000000,  2.279419)
  16 Fe ( 0.000000,  0.000000,  1.841953)
  17 Fe ( 0.000000,  0.000000,  1.615216)
  18 Cr ( 0.000000,  0.000000, -0.626159)
  19 Co ( 0.000000,  0.000000,  1.347586)
  20 Fe ( 0.000000,  0.000000,  2.226095)
  21 Ni ( 0.000000,  0.000000,  0.272105)
  22 Co ( 0.000000,  0.000000,  1.294717)
  23 Cr ( 0.000000,  0.000000, -1.265878)
  24 Cr ( 0.000000,  0.000000, -1.149598)
  25 Ni ( 0.000000,  0.000000,  0.198798)
  26 Fe ( 0.000000,  0.000000,  2.269518)
  27 Ni ( 0.000000,  0.000000,  0.286619)
  28 Co ( 0.000000,  0.000000,  1.418010)
  29 Co ( 0.000000,  0.000000,  1.226775)
  30 Co ( 0.000000,  0.000000,  1.319711)
  31 Cr ( 0.000000,  0.000000,  0.739781)
  32 Al ( 0.000000,  0.000000,  0.003523)
  33 Cr ( 0.000000,  0.000000, -1.063638)
  34 Cr ( 0.000000,  0.000000,  0.940580)
  35 Cr ( 0.000000,  0.000000,  0.022224)
  36 Fe ( 0.000000,  0.000000,  2.079551)
  37 Co ( 0.000000,  0.000000,  1.182981)
  38 Cr ( 0.000000,  0.000000, -0.854204)
  39 Fe ( 0.000000,  0.000000,  1.962470)
  40 Co ( 0.000000,  0.000000,  1.184935)
  41 Ni ( 0.000000,  0.000000,  0.270640)
  42 Ni ( 0.000000,  0.000000,  0.273558)
  43 Al ( 0.000000,  0.000000, -0.017672)
  44 Fe ( 0.000000,  0.000000,  2.027350)
  45 Co ( 0.000000,  0.000000,  1.013179)
  46 Fe ( 0.000000,  0.000000,  2.058615)
  47 Ni ( 0.000000,  0.000000,  0.479109)
  48 Fe ( 0.000000,  0.000000,  2.218901)
  49 Fe ( 0.000000,  0.000000,  2.135497)
  50 Ni ( 0.000000,  0.000000,  0.412499)
  51 Ni ( 0.000000,  0.000000,  0.414190)
  52 Cr ( 0.000000,  0.000000, -0.663072)
  53 Co ( 0.000000,  0.000000,  1.440137)
  54 Fe ( 0.000000,  0.000000,  2.091977)
  55 Cr ( 0.000000,  0.000000, -0.819538)
  56 Co ( 0.000000,  0.000000,  1.547449)
  57 Fe ( 0.000000,  0.000000,  2.372658)
  58 Ni ( 0.000000,  0.000000,  0.455467)
  59 Fe ( 0.000000,  0.000000,  1.830334)
[...]
  93 Ni ( 0.000000,  0.000000,  0.151536)
  94 Co ( 0.000000,  0.000000,  1.046938)
  95 Cr ( 0.000000,  0.000000, -1.794134)
  96 Fe ( 0.000000,  0.000000,  2.230394)
  97 Ni ( 0.000000,  0.000000,  0.126850)
  98 Ni ( 0.000000,  0.000000,  0.402567)
  99 Fe ( 0.000000,  0.000000,  1.409934)
 100 Ni ( 0.000000,  0.000000,  0.303620)
 101 Cr ( 0.000000,  0.000000, -0.305594)
 102 Cr ( 0.000000,  0.000000, -1.330569)
 103 Cr ( 0.000000,  0.000000, -0.253741)
 104 Co ( 0.000000,  0.000000,  0.481354)
 105 Fe ( 0.000000,  0.000000,  1.330472)
 106 Cr ( 0.000000,  0.000000,  0.839236)
 107 Ni ( 0.000000,  0.000000,  0.227442)

Energy contributions relative to reference atoms: (reference = -3699400.456887)

Kinetic:       +393.476106
Potential:     -395.019291
External:        +0.000000
XC:            -887.892215
Entropy (-ST):   -4.527889
Local:          +37.468435
Free energy:   -856.494854
Extrapolated:  -854.230909

Spin contamination: 22.066922 electrons
Showing only first 2 kpts
                      Up                     Down
 Kpt  Band  Eigenvalues  Occupancy  Eigenvalues  Occupancy
  0   508      9.62685    0.99642     10.62071    0.01327
  0   509      9.62978    0.99632     10.62870    0.01227
  0   510      9.64876    0.99555     10.64072    0.01089
  0   511      9.66034    0.99501     10.65466    0.00949

  1   508      9.62312    0.99655     10.61401    0.01418
  1   509      9.62808    0.99638     10.63327    0.01172
  1   510      9.64036    0.99591     10.64733    0.01020
  1   511      9.65413    0.99531     10.66468    0.00859

Fermi level: 10.18984

No gap

Forces in eV/Ang:
  0 Cr   -0.24236    0.80353   -0.77275
  1 Al   -0.61712    0.10852   -0.78695
  2 Cr    0.70085   -0.26633    0.57114
  3 Co   -0.15979    0.58607    0.59610
  4 Fe    0.93842    1.36264    0.85624
  5 Cr   -2.15602   -0.17613   -0.99498
  6 Ni   -1.09926   -0.40540    0.58971
  7 Fe   -0.49004    0.64797    0.60704
  8 Cr    0.43141    0.00430   -1.13989
  9 Co   -0.15186   -0.12969   -1.76688
 10 Ni    0.55772   -0.20682   -0.72125
 11 Fe    0.39051    1.08576    0.05874
 12 Co   -0.46200   -0.21907   -0.51921
 13 Co    0.83400    0.17829   -1.27312
 14 Fe    0.30400   -0.75338    0.52922
 15 Fe   -1.68386    1.45032    0.49296
 16 Fe   -0.04204   -0.15166   -1.18845
 17 Fe    1.30717   -0.26239   -0.01678
 18 Cr    0.05095   -0.46014   -0.16003
 19 Co   -1.02595    0.17118    0.87903
 20 Fe    0.51813    0.73876    0.07626
 21 Ni    0.78112    0.86012    0.11933
 22 Co    0.69390   -0.86997   -1.47860
 23 Cr   -0.63206   -0.40693    1.04521
 24 Cr    0.09878    1.21863    1.96988
 25 Ni    0.02101   -1.59176    0.32066
 26 Fe   -3.07321    0.50319   -2.15263
 27 Ni    0.29530    0.54365    1.13279
 28 Co    0.33351   -0.86644   -1.00449
 29 Co    0.10737    1.86318   -0.07073
 30 Co   -0.74384    0.48209   -0.45072
 31 Cr   -0.93298    0.52407   -0.12842
 32 Al   -2.04670   -0.89519    2.33711
 33 Cr   -1.08342   -1.67260   -0.01137
 34 Cr   -0.59232   -0.08494   -0.53654
 35 Cr    0.23935    0.94055   -0.46808
 36 Fe   -1.04473   -1.70142    0.54433
 37 Co   -0.75359   -1.29781    0.81957
 38 Cr    0.04876    0.20351    0.24601
 39 Fe    2.47334    1.10074    0.25353
 40 Co    0.45346   -0.14470    0.42356
 41 Ni   -0.79103   -1.45854   -1.05858
 42 Ni   -0.43286    2.23476   -0.07965
 43 Al    1.07698   -0.80173    1.63964
 44 Fe    1.19023    0.61451   -1.09567
 45 Co   -1.47116    0.93368   -1.19838
 46 Fe    0.14405   -0.95909    0.25608
 47 Ni    0.74414    0.40126    1.38498
 48 Fe   -0.31655    0.52385    0.04480
 49 Fe    0.37421    1.03659    0.30177
 50 Ni    0.10189   -0.87510   -1.18947
 51 Ni    0.79780   -0.66168    0.10369
 52 Cr   -0.56402    0.03095    0.76998
 53 Co    1.75791   -0.41950    0.64710
 54 Fe   -0.06832   -0.39366   -0.14350
 55 Cr    0.00665    0.41798   -0.14835
 56 Co   -2.40216    1.79734    0.82618
 57 Fe    0.95393    0.17468   -0.23998
 58 Ni   -1.74404   -2.11660    0.16860
 59 Fe   -0.78048   -1.51221    0.03396
[...]
 93 Ni    0.20692   -0.08455   -0.36704
 94 Co   -2.24923   -0.61253    2.03640
 95 Cr   -0.59566   -0.24314   -0.81843
 96 Fe    0.57937    0.69952   -0.35752
 97 Ni   -1.13420   -1.20849   -1.12740
 98 Ni   -0.63636   -0.26084    0.34397
 99 Fe   -0.78059   -0.23985   -0.79416
100 Ni   -0.14636   -0.65430   -0.64254
101 Cr   -1.07547   -0.09241    2.14634
102 Cr   -0.57638   -0.74821    1.13508
103 Cr   -0.57381   -0.43552    0.34420
104 Co   -0.30281   -2.30726   -0.30643
105 Fe   -0.80841    0.10380    1.85676
106 Cr    1.54772    1.72928   -2.20336
107 Ni    0.33278    1.58265    0.95725

Date: Fri Apr 14 01:02:26 2023