User:   c.zeng@d0098
Date:   Sat Apr 15 17:38:15 2023
Arch:   x86_64
Pid:    179049
CWD:    /home/c.zeng/projects/hea-corrosion/hea-mlp/data-curation/bulk-mcmc/dft-jobs/64
Python: 3.8.1
gpaw:   /home/c.zeng/usr/installs/gpaw/source/gpaw-22.8.0/gpaw
_gpaw:  /home/c.zeng/usr/installs/gpaw/source/gpaw-22.8.0/
        _gpaw.cpython-38-x86_64-linux-gnu.so
ase:    /home/c.zeng/.local/lib/python3.8/site-packages/ase-3.22.1-py3.8.egg/ase (version 3.22.1)
numpy:  /shared/centos7/python/3.8.1/lib/python3.8/site-packages/numpy (version 1.17.4)
scipy:  /shared/centos7/python/3.8.1/lib/python3.8/site-packages/scipy (version 1.4.1)
units:  Angstrom and eV
cores: 30
OpenMP: False
OMP_NUM_THREADS: 1

Input parameters:
  convergence: {energy: 0.0001}
  kpts: [2 2 2]
  maxiter: 666
  mode: {ecut: 350.0,
         name: pw}
  occupations: {fixmagmom: False,
                name: fermi-dirac,
                width: 0.1}
  spinpol: True
  xc: PBE

System changes: positions, numbers, cell, pbc, initial_charges, initial_magmoms

Initialize ...

species:
  Cr:
    name: Chromium
    id: 33f258bda2ca9f93018e70263a35547b
    Z: 24.0
    valence: 6
    core: 18
    charge: 0.0
    file: /home/c.zeng/usr/data/gpaw-setups-0.9.20000/Cr.PBE.gz
    compensation charges: {type: gauss,
                           rc: 0.35,
                           lmax: 2}
    cutoffs: {filter: 2.14,
              core: 3.04}
    valence states:
      #              energy  rcut
      - 4s(1.00)    -4.007   1.164
      - 4p(0.00)    -0.989   1.217
      - 3d(5.00)    -2.913   1.111
      -  s          23.205   1.164
      -  p          26.223   1.217
      -  d          24.299   1.111

    # Using partial waves for Cr as LCAO basis

  Ni:
    name: Nickel
    id: 0d9f38a9d6e76a2886f07bb4381f212b
    Z: 28.0
    valence: 16
    core: 12
    charge: 0.0
    file: /home/c.zeng/usr/data/gpaw-setups-0.9.20000/Ni.PBE.gz
    compensation charges: {type: gauss,
                           rc: 0.36,
                           lmax: 2}
    cutoffs: {filter: 2.14,
              core: 1.98}
    valence states:
      #              energy  rcut
      - 4s(2.00)    -5.642   1.164
      - 3p(6.00)   -71.394   1.207
      - 4p(0.00)    -1.226   1.207
      - 3d(8.00)    -8.875   1.138
      -  s          21.570   1.164
      -  d          18.337   1.138

[...]

  Fe:
    name: Iron
    id: 37abbd8d6c3c35915a9b583b742da910
    Z: 26.0
    valence: 8
    core: 18
    charge: 0.0
    file: /home/c.zeng/usr/data/gpaw-setups-0.9.20000/Fe.PBE.gz
    compensation charges: {type: gauss,
                           rc: 0.33,
                           lmax: 2}
    cutoffs: {filter: 2.06,
              core: 2.67}
    valence states:
      #              energy  rcut
      - 4s(2.00)    -5.291   1.164
      - 4p(0.00)    -1.326   1.058
      - 3d(6.00)    -7.505   1.058
      -  s          21.920   1.164
      -  p          25.885   1.058
      -  d          19.706   1.058

[...]

  Co:
    name: Cobalt
    id: 339d20d5b0b93d2de9531a1bee871d91
    Z: 27.0
    valence: 9
    core: 18
    charge: 0.0
    file: /home/c.zeng/usr/data/gpaw-setups-0.9.20000/Co.PBE.gz
    compensation charges: {type: gauss,
                           rc: 0.32,
                           lmax: 2}
    cutoffs: {filter: 1.87,
              core: 2.55}
    valence states:
      #              energy  rcut
      - 4s(2.00)    -5.469   1.005
      - 4p(0.00)    -1.277   1.058
      - 3d(7.00)    -8.205   1.005
      -  s          21.742   1.005
      -  p          25.934   1.058
      -  d          19.007   1.005

[...]

  Al:
    name: Aluminium
    id: 0292cae29f5d6237e50f6abdd43a7bdd
    Z: 13.0
    valence: 3
    core: 10
    charge: 0.0
    file: /home/c.zeng/usr/data/gpaw-setups-0.9.20000/Al.PBE.gz
    compensation charges: {type: gauss,
                           rc: 0.34,
                           lmax: 2}
    cutoffs: {filter: 1.91,
              core: 2.36}
    valence states:
      #              energy  rcut
      - 3s(2.00)    -7.753   1.085
      - 3p(1.00)    -2.712   1.085
      -  s          19.459   1.085
      -  p          24.499   1.085
      -  d           0.000   1.085

    # Using partial waves for Al as LCAO basis

Reference energy: -3699400.456887  # eV

Spin-polarized calculation.
Magnetic moment: 143.500000

Convergence criteria:
 Maximum [total energy] change in last 3 cyles: 0.0001 eV / electron
 Maximum integral of absolute [dens]ity change: 0.0001 electrons / valence electron
 Maximum integral of absolute [eigenst]ate change: 4e-08 eV^2 / valence electron
 Maximum number of scf [iter]ations: 666
 (Square brackets indicate name in SCF output, whereas a 'c' in
 the SCF output indicates the quantity has converged.)

Symmetries present (total): 1

  ( 1  0  0)
  ( 0  1  0)
  ( 0  0  1)

8 k-points: 2 x 2 x 2 Monkhorst-Pack grid
4 k-points in the irreducible part of the Brillouin zone
       k-points in crystal coordinates                weights
   0:     0.25000000   -0.25000000   -0.25000000          2/8
   1:     0.25000000   -0.25000000    0.25000000          2/8
   2:     0.25000000    0.25000000   -0.25000000          2/8
   3:     0.25000000    0.25000000    0.25000000          2/8

Wave functions: Plane wave expansion
  Cutoff energy: 350.000 eV
  Number of coefficients (min, max): 18052, 18052
  Pulay-stress correction: 0.000000 eV/Ang^3 (de/decut=0.000000)
  Using FFTW library
  ScaLapack parameters: grid=1x1, blocksize=None
  Wavefunction extrapolation:
    Improved wavefunction reuse through dual PAW basis

Occupation numbers: Fermi-Dirac:
  width: 0.1000  # eV

Eigensolver
   Davidson(niter=2)

Densities:
  Coarse grid: 48*48*48 grid
  Fine grid: 96*96*96 grid
  Total Charge: 0.000000

Density mixing:
  Method: difference
  Backend: pulay
  Linear mixing parameter: 0.05
  old densities: 5
  Damping of long wavelength oscillations: 50

Hamiltonian:
  XC and Coulomb potentials evaluated on a 96*96*96 grid
  Using the PBE Exchange-Correlation functional
  External potential:
    NoExternalPotential

XC parameters: PBE with 2 nearest neighbor stencil

Total number of cores used: 30
Parallelization over k-points: 2
Domain decomposition: 5 x 3 x 1

Number of atoms: 108
Number of atomic orbitals: 1025
Number of bands in calculation: 703
Number of valence electrons: 1020
Bands to converge: occupied

... initialized

Initializing position-dependent things.

Density initialized from atomic densities
Creating initial wave functions:
  703 bands from LCAO basis set

        Cr------------------------.
       /|  Co                Co   |
      Ni|   Cr         Ni         |
     / Fe      Fe       Al        |
    /   CCo      Ni       Fe      |
   /e   | CoNi     CoAl    CrCr   |
  /  FeCr  NiCo     NiCrCo        |
 *    FeFe  FeCoNi     CoAl       |
 |     CoFeCr  CoFe Ni  NiFeNi    |
 | Fe   CrNiNiCo NiNiNiFe  Cr     |
 |   CoCr  CrAlCr   NiCrCr   Fe   |
 |    FeCr  FeFeCoNi CoFeCr   Cr  |
 |     CrFeFe  Ni CrCr  CoFeFe    |
 |      .-CoNiCo-FeCrNiCo--CoCr---.
 |   CrCo    CoAl   NiCrFe       /
 |    / Ni    CrFe       Ni     /
 |   /            Ni           /
 |Ni/      Co       Co        /
 |/            Cr           /
 *----------------Ni-------*

Positions:
   0 Cr     0.005316   -0.016350   10.639749    ( 0.0000,  0.0000,  0.0000)
   1 Ni    10.672340    1.801276    1.786848    ( 0.0000,  0.0000,  0.0000)
   2 Fe     1.795727   10.625972    1.782259    ( 0.0000,  0.0000,  0.0000)
   3 Cr     1.780787    1.796175   10.644605    ( 0.0000,  0.0000,  2.1000)
   4 Fe     3.523539   -0.014558    0.017268    ( 0.0000,  0.0000,  2.0000)
   5 Co     3.522568    1.781672    1.746648    ( 0.0000,  0.0000,  0.0000)
   6 Co     5.320952   10.642342    1.763136    ( 0.0000,  0.0000,  1.5000)
   7 Cr     5.342082    1.828767    0.007462    ( 0.0000,  0.0000,  2.0000)
   8 Ni     7.144895    0.019195    0.012033    ( 0.0000,  0.0000,  0.0000)
   9 Co     7.143497    1.798064    1.764939    ( 0.0000,  0.0000,  2.1000)
  10 Cr     8.891362   10.651627    1.788353    ( 0.0000,  0.0000,  1.5000)
  11 Co     8.888779    1.804777   10.642609    ( 0.0000,  0.0000,  2.0000)
  12 Fe     0.008694    3.581540   10.650250    ( 0.0000,  0.0000,  2.1000)
  13 Cr     0.018979    5.332745    1.789751    ( 0.0000,  0.0000,  2.1000)
  14 Ni     1.778129    3.600941    1.760019    ( 0.0000,  0.0000,  2.0000)
  15 Co     1.790423    5.343267   -0.017766    ( 0.0000,  0.0000,  2.0000)
  16 Ni     3.542802    3.589864   -0.015614    ( 0.0000,  0.0000,  2.0000)
  17 Co     3.526837    5.358538    1.765793    ( 0.0000,  0.0000,  2.0000)
  18 Fe     5.336650    3.606501    1.755815    ( 0.0000,  0.0000,  0.0000)
  19 Ni     5.300399    5.323642   -0.012797    ( 0.0000,  0.0000,  2.1000)
  20 Al     7.122858    3.584816   10.659524    ( 0.0000,  0.0000,  2.0000)
  21 Cr     7.120500    5.315168    1.805502    ( 0.0000,  0.0000,  1.5000)
  22 Ni     8.892034    3.590952    1.773146    ( 0.0000,  0.0000,  2.1000)
  23 Fe     8.925340    5.301487   -0.003100    ( 0.0000,  0.0000,  0.0000)
  24 Ni     0.023055    7.096680   -0.007939    ( 0.0000,  0.0000,  0.0000)
  25 Cr     0.019141    8.871245    1.787510    ( 0.0000,  0.0000,  1.5000)
  26 Co     1.784372    7.104567    1.776443    ( 0.0000,  0.0000,  2.0000)
  27 Co     1.779944    8.867628   10.659406    ( 0.0000,  0.0000,  1.5000)
  28 Cr     3.547785    7.097897    0.009215    ( 0.0000,  0.0000,  2.1000)
  29 Ni     3.541137    8.858109    1.788225    ( 0.0000,  0.0000,  2.1000)
  30 Cr     5.295105    7.099391    1.787894    ( 0.0000,  0.0000,  2.1000)
  31 Ni     5.303685    8.873828    0.029898    ( 0.0000,  0.0000,  0.0000)
  32 Ni     7.106883    7.088719   10.645159    ( 0.0000,  0.0000,  0.0000)
  33 Co     7.111055    8.901137    1.809472    ( 0.0000,  0.0000,  0.0000)
  34 Co     8.939384    7.093404    1.799238    ( 0.0000,  0.0000,  0.0000)
  35 Co     8.919972    8.915853   10.664881    ( 0.0000,  0.0000,  0.0000)
  36 Cr    10.679704   10.658873    3.584517    ( 0.0000,  0.0000,  2.0000)
  37 Fe    10.670921    1.796367    5.340289    ( 0.0000,  0.0000,  2.1000)
  38 Fe     1.770350   10.649001    5.343491    ( 0.0000,  0.0000,  0.0000)
  39 Co     1.791800    1.784671    3.584891    ( 0.0000,  0.0000,  2.0000)
  40 Ni     3.529718   10.626388    3.565234    ( 0.0000,  0.0000,  2.1000)
  41 Fe     3.535716    1.793465    5.367289    ( 0.0000,  0.0000,  1.5000)
  42 Co     5.311497    0.001574    5.366254    ( 0.0000,  0.0000,  1.5000)
  43 Al     5.332627    1.768055    3.580793    ( 0.0000,  0.0000,  0.0000)
  44 Ni     7.136966   10.673941    3.563804    ( 0.0000,  0.0000,  2.0000)
  45 Cr     7.136774    1.794126    5.358944    ( 0.0000,  0.0000,  2.1000)
  46 Co     8.925938   10.673621    5.347589    ( 0.0000,  0.0000,  2.0000)
  47 Fe     8.883827    1.779111    3.582404    ( 0.0000,  0.0000,  1.5000)
  48 Cr    -0.010038    3.572341    3.580996    ( 0.0000,  0.0000,  2.0000)
  49 Co    10.685573    5.328935    5.338550    ( 0.0000,  0.0000,  2.0000)
  50 Cr     1.784180    3.582949    5.348357    ( 0.0000,  0.0000,  1.5000)
  51 Fe     1.766326    5.339510    3.565255    ( 0.0000,  0.0000,  1.5000)
[...]
  55 Cr     5.336458    5.346308    3.560132    ( 0.0000,  0.0000,  0.0000)
  56 Ni     7.143102    3.570089    3.572138    ( 0.0000,  0.0000,  2.1000)
  57 Cr     7.120265    5.347471    5.345689    ( 0.0000,  0.0000,  2.0000)
  58 Cr     8.888299    3.570665    5.342018    ( 0.0000,  0.0000,  1.5000)
  59 Fe     8.904573    5.339084    3.577453    ( 0.0000,  0.0000,  2.0000)
[...]
  93 Cr     7.108740    5.307762    8.854395    ( 0.0000,  0.0000,  1.5000)
  94 Al     8.907593    3.561296    8.890348    ( 0.0000,  0.0000,  2.1000)
  95 Fe     8.917806    5.336309    7.100224    ( 0.0000,  0.0000,  0.0000)
  96 Fe     0.016270    7.102027    7.111664    ( 0.0000,  0.0000,  2.0000)
  97 Fe     0.000822    8.895150    8.883817    ( 0.0000,  0.0000,  1.5000)
  98 Co     1.771182    7.105090    8.888608    ( 0.0000,  0.0000,  1.5000)
  99 Ni     1.775184    8.850318    7.108494    ( 0.0000,  0.0000,  2.0000)
 100 Co     3.530401    7.086478    7.104972    ( 0.0000,  0.0000,  1.5000)
 101 Fe     3.524841    8.851001    8.894798    ( 0.0000,  0.0000,  0.0000)
 102 Co     5.310654    7.102827    8.871128    ( 0.0000,  0.0000,  0.0000)
 103 Ni     5.290613    8.850286    7.104876    ( 0.0000,  0.0000,  0.0000)
 104 Co     7.129016    7.083330    7.142750    ( 0.0000,  0.0000,  2.1000)
 105 Al     7.143241    8.903186    8.854384    ( 0.0000,  0.0000,  2.0000)
 106 Cr     8.926504    7.115858    8.862313    ( 0.0000,  0.0000,  0.0000)
 107 Cr     8.932896    8.877648    7.127479    ( 0.0000,  0.0000,  1.5000)

Unit cell:
           periodic     x           y           z      points  spacing
  1. axis:    yes   10.671700    0.000000    0.000000    48     0.2223
  2. axis:    yes    0.000000   10.671700    0.000000    48     0.2223
  3. axis:    yes    0.000000    0.000000   10.671700    48     0.2223

  Lengths:  10.671700  10.671700  10.671700
  Angles:   90.000000  90.000000  90.000000

Effective grid spacing dv^(1/3) = 0.2223

     iter     time        total  log10-change:  magmom
                         energy  eigst   dens
iter:   1 17:44:29  -924.461946                  +143.1353
iter:   2 17:47:20  -924.071221  -0.55  -1.36    +108.4525
iter:   3 17:50:11  -901.848959  -0.95  -1.33    +78.3388
iter:   4 17:53:02  -875.712037  -1.40  -1.36    +68.0160
iter:   5 17:55:53  -872.553550  -1.95  -1.48    +60.6313
iter:   6 17:58:44  -874.057980  -2.02  -1.51    +56.6930
iter:   7 18:01:36  -873.034078  -1.76  -1.53    +54.6301
iter:   8 18:04:23  -869.825800  -1.66  -1.59    +53.6835
iter:   9 18:07:13  -881.261400  -1.72  -1.74    +53.1005
iter:  10 18:10:05  -869.682677  -1.94  -1.64    +51.5338
iter:  11 18:12:57  -868.047046  -2.41  -1.85    +51.4400
iter:  12 18:15:49  -867.608955  -2.74  -1.90    +51.7897
iter:  13 18:18:41  -868.279776  -2.76  -1.97    +51.9659
iter:  14 18:21:32  -869.426444  -2.57  -1.97    +52.4336
iter:  15 18:24:23  -869.987447  -2.57  -1.99    +52.6484
iter:  16 18:27:14  -871.132617  -2.49  -2.00    +52.8773
iter:  17 18:30:05  -872.076623  -2.34  -1.98    +53.0203
iter:  18 18:32:56  -868.747944  -2.67  -1.96    +53.2323
iter:  19 18:35:47  -869.277097  -2.85  -2.24    +53.7912
iter:  20 18:38:33  -868.797495  -3.08  -2.18    +53.9244
iter:  21 18:41:08  -868.973071  -3.14  -2.30    +54.5889
iter:  22 18:43:41  -868.942772  -3.29  -2.31    +54.8648
iter:  23 18:46:15  -869.119657  -3.29  -2.34    +55.5602
iter:  24 18:48:48  -868.999194  -3.45  -2.36    +55.8635
iter:  25 18:52:20  -869.210279  -3.36  -2.45    +56.2865
iter:  26 18:54:58  -869.155534  -3.54  -2.41    +56.8605
iter:  27 18:57:32  -869.439551  -3.44  -2.54    +57.3989
iter:  28 19:00:07  -869.500720  -3.45  -2.46    +57.7342
iter:  29 19:02:41  -869.538396c -3.52  -2.48    +58.1611
iter:  30 19:05:15  -869.548654c -3.64  -2.55    +58.5403
iter:  31 19:07:49  -869.614361c -3.85  -2.58    +58.9158
iter:  32 19:10:23  -869.643072c -4.10  -2.60    +59.1580
iter:  33 19:12:55  -869.773839  -3.84  -2.65    +59.6277
iter:  34 19:15:29  -869.808850  -4.02  -2.64    +59.8329
iter:  35 19:18:03  -869.932783  -3.77  -2.70    +60.1442
iter:  36 19:20:35  -869.990711  -3.59  -2.69    +60.2241
iter:  37 19:23:09  -869.935146c -4.02  -2.73    +60.3118
iter:  38 19:25:42  -869.990635c -4.14  -2.93    +60.4319
iter:  39 19:28:31  -869.980608c -4.53  -2.89    +60.4857
iter:  40 19:31:58  -870.025565c -4.41  -3.04    +60.6101
iter:  41 19:34:32  -870.036117c -4.79  -2.99    +60.6509
iter:  42 19:37:06  -870.090015c -4.28  -3.08    +60.7361
iter:  43 19:39:40  -870.097422c -4.53  -3.03    +60.7525
iter:  44 19:42:14  -870.128363c -4.54  -3.18    +60.7829
iter:  45 19:44:49  -870.130766c -4.93  -3.17    +60.7771
iter:  46 19:47:23  -870.152797c -4.75  -3.22    +60.7759
iter:  47 19:49:57  -870.185278c -4.58  -3.26    +60.7736
iter:  48 19:52:29  -870.198095c -5.04  -3.24    +60.7755
iter:  49 19:55:03  -870.196958c -5.56  -3.19    +60.7315
iter:  50 19:58:10  -870.227093c -4.75  -3.19    +60.7655
iter:  51 20:01:21  -870.228279c -5.13  -3.17    +60.7625
iter:  52 20:03:54  -870.248182c -4.76  -3.18    +60.7933
iter:  53 20:06:27  -870.299722c -4.21  -3.23    +60.8409
iter:  54 20:09:00  -870.295569c -4.85  -3.10    +60.7858
iter:  55 20:11:33  -870.311437c -4.76  -3.19    +60.7623
iter:  56 20:14:07  -870.338312c -4.55  -3.18    +60.7553
iter:  57 20:16:40  -870.375523c -4.47  -3.16    +60.7676
iter:  58 20:19:13  -870.365509c -5.19  -3.04    +60.7594
iter:  59 20:21:47  -870.402664c -4.48  -3.03    +60.8042
iter:  60 20:24:20  -870.446053c -3.91  -2.98    +60.8756
iter:  61 20:26:53  -870.435597c -4.73  -2.92    +60.8591
iter:  62 20:29:27  -870.464399c -4.43  -2.96    +60.8767
iter:  63 20:33:01  -870.459364c -4.61  -2.88    +60.8471
iter:  64 20:35:39  -870.460728c -4.10  -2.90    +60.8035
iter:  65 20:38:14  -870.459700c -4.23  -2.87    +60.8445
iter:  66 20:40:49  -870.435006c -4.49  -2.89    +60.8370
iter:  67 20:43:23  -870.444813c -4.76  -3.04    +60.8675
iter:  68 20:45:57  -870.441374c -4.62  -3.03    +60.8513
iter:  69 20:48:31  -870.431341c -4.71  -3.04    +60.8865
iter:  70 20:51:05  -870.434968c -4.99  -3.18    +60.8664
iter:  71 20:53:38  -870.436225c -5.09  -3.17    +60.8602
iter:  72 20:56:13  -870.433101c -5.25  -3.18    +60.8573
iter:  73 20:58:46  -870.438562c -5.28  -3.26    +60.8303
iter:  74 21:01:18  -870.434762c -5.40  -3.24    +60.8116
iter:  75 21:03:52  -870.440715c -5.30  -3.31    +60.8025
iter:  76 21:06:25  -870.437919c -5.32  -3.30    +60.7899
iter:  77 21:08:59  -870.437737c -5.57  -3.35    +60.7773
iter:  78 21:11:32  -870.438104c -5.95  -3.41    +60.7731
iter:  79 21:14:39  -870.439516c -5.78  -3.46    +60.7582
iter:  80 21:17:48  -870.439473c -5.66  -3.46    +60.7394
iter:  81 21:20:22  -870.440665c -5.80  -3.49    +60.7360
iter:  82 21:22:56  -870.439944c -5.92  -3.55    +60.7241
iter:  83 21:25:30  -870.440631c -6.14  -3.59    +60.7190
iter:  84 21:28:03  -870.441114c -6.13  -3.63    +60.7102
iter:  85 21:30:37  -870.441640c -5.93  -3.66    +60.7048
iter:  86 21:33:11  -870.441245c -6.22  -3.65    +60.6965
iter:  87 21:35:45  -870.441947c -6.42  -3.76    +60.6892
iter:  88 21:38:18  -870.442166c -6.35  -3.78    +60.6793
iter:  89 21:40:51  -870.442518c -6.22  -3.78    +60.6763
iter:  90 21:43:23  -870.442801c -6.33  -3.79    +60.6702
iter:  91 21:46:23  -870.443034c -6.51  -3.87    +60.6614
iter:  92 21:49:38  -870.443072c -6.73  -3.91    +60.6549
iter:  93 21:52:12  -870.443900c -6.47  -3.94    +60.6497
iter:  94 21:54:46  -870.443830c -6.58  -3.92    +60.6430
iter:  95 21:57:20  -870.443949c -6.57  -3.96    +60.6334
iter:  96 21:59:55  -870.444186c -6.83  -4.01c   +60.6306
iter:  97 22:02:29  -870.444509c -6.66  -4.06c   +60.6205
iter:  98 22:05:03  -870.444668c -6.77  -4.07c   +60.6143
iter:  99 22:07:36  -870.445088c -6.70  -4.10c   +60.6115
iter: 100 22:10:10  -870.445062c -6.82  -4.10c   +60.6039
iter: 101 22:12:43  -870.445271c -6.92  -4.15c   +60.5966
iter: 102 22:15:18  -870.445464c -7.02  -4.18c   +60.5925
iter: 103 22:17:52  -870.445682c -6.68  -4.21c   +60.5803
iter: 104 22:20:24  -870.445837c -6.96  -4.22c   +60.5752
iter: 105 22:22:58  -870.446153c -6.85  -4.25c   +60.5707
iter: 106 22:25:31  -870.446122c -7.07  -4.25c   +60.5643
iter: 107 22:29:11  -870.446291c -7.07  -4.29c   +60.5580
iter: 108 22:31:46  -870.446462c -7.08  -4.31c   +60.5539
iter: 109 22:34:20  -870.446551c -6.97  -4.35c   +60.5455
iter: 110 22:36:55  -870.446685c -7.09  -4.38c   +60.5395
iter: 111 22:39:29  -870.446877c -7.00  -4.41c   +60.5336
iter: 112 22:42:02  -870.446927c -7.13  -4.42c   +60.5277
iter: 113 22:44:36  -870.447088c -7.02  -4.45c   +60.5200
iter: 114 22:47:10  -870.447308c -6.78  -4.47c   +60.5083
iter: 115 22:49:43  -870.447650c -6.33  -4.47c   +60.4865
iter: 116 22:52:17  -870.448133c -6.02  -4.42c   +60.4576
iter: 117 22:55:49  -870.447775c -6.75  -4.25c   +60.4780
iter: 118 22:58:29  -870.448337c -6.17  -4.30c   +60.4465
iter: 119 23:01:03  -870.448563c -6.47  -4.18c   +60.4347
iter: 120 23:03:37  -870.448416c -7.14  -4.17c   +60.4418
iter: 121 23:06:11  -870.448507c -7.28  -4.27c   +60.4385
iter: 122 23:08:44  -870.448440c -7.38  -4.26c   +60.4350
iter: 123 23:11:17  -870.448487c -6.57  -4.25c   +60.4321
iter: 124 23:13:57  -870.448480c -6.86  -4.06c   +60.4314
iter: 125 23:17:31  -870.448492c -7.17  -4.37c   +60.4262
iter: 126 23:20:05  -870.448535c -7.21  -4.32c   +60.4238
iter: 127 23:22:39  -870.448607c -7.49c -4.34c   +60.4208

Converged after 127 iterations.

Dipole moment: (-10.477164, 8.171837, 8.666689) |e|*Ang

Total magnetic moment: (0.000000, 0.000000, 60.420834)
Local magnetic moments:
   0 Cr ( 0.000000,  0.000000,  0.155914)
   1 Ni ( 0.000000,  0.000000,  0.158293)
   2 Fe ( 0.000000,  0.000000,  1.980190)
   3 Cr ( 0.000000,  0.000000, -1.259920)
   4 Fe ( 0.000000,  0.000000,  2.087848)
   5 Co ( 0.000000,  0.000000,  1.261925)
   6 Co ( 0.000000,  0.000000,  1.516871)
   7 Cr ( 0.000000,  0.000000, -1.939892)
   8 Ni ( 0.000000,  0.000000,  0.349759)
   9 Co ( 0.000000,  0.000000,  1.255561)
  10 Cr ( 0.000000,  0.000000, -1.050967)
  11 Co ( 0.000000,  0.000000,  1.121822)
  12 Fe ( 0.000000,  0.000000,  2.252171)
  13 Cr ( 0.000000,  0.000000, -1.732365)
  14 Ni ( 0.000000,  0.000000,  0.242527)
  15 Co ( 0.000000,  0.000000,  1.362058)
  16 Ni ( 0.000000,  0.000000,  0.290116)
  17 Co ( 0.000000,  0.000000,  0.867415)
  18 Fe ( 0.000000,  0.000000,  2.092077)
  19 Ni ( 0.000000,  0.000000,  0.172351)
  20 Al ( 0.000000,  0.000000, -0.017520)
  21 Cr ( 0.000000,  0.000000, -1.427141)
  22 Ni ( 0.000000,  0.000000,  0.145527)
  23 Fe ( 0.000000,  0.000000,  1.863900)
  24 Ni ( 0.000000,  0.000000,  0.332528)
  25 Cr ( 0.000000,  0.000000, -0.357039)
  26 Co ( 0.000000,  0.000000,  1.064446)
  27 Co ( 0.000000,  0.000000,  1.040041)
  28 Cr ( 0.000000,  0.000000, -1.418658)
  29 Ni ( 0.000000,  0.000000,  0.275611)
  30 Cr ( 0.000000,  0.000000, -0.431608)
  31 Ni ( 0.000000,  0.000000,  0.290430)
  32 Ni ( 0.000000,  0.000000,  0.070519)
  33 Co ( 0.000000,  0.000000,  1.316253)
  34 Co ( 0.000000,  0.000000,  0.865677)
  35 Co ( 0.000000,  0.000000,  0.911054)
  36 Cr ( 0.000000,  0.000000, -0.833259)
  37 Fe ( 0.000000,  0.000000,  1.578457)
  38 Fe ( 0.000000,  0.000000,  1.978734)
  39 Co ( 0.000000,  0.000000,  1.258301)
  40 Ni ( 0.000000,  0.000000,  0.370746)
  41 Fe ( 0.000000,  0.000000,  2.025347)
  42 Co ( 0.000000,  0.000000,  1.334400)
  43 Al ( 0.000000,  0.000000, -0.034229)
  44 Ni ( 0.000000,  0.000000,  0.330581)
  45 Cr ( 0.000000,  0.000000,  1.005422)
  46 Co ( 0.000000,  0.000000,  0.888735)
  47 Fe ( 0.000000,  0.000000,  1.930552)
  48 Cr ( 0.000000,  0.000000, -0.211603)
  49 Co ( 0.000000,  0.000000,  0.487262)
  50 Cr ( 0.000000,  0.000000, -1.352093)
  51 Fe ( 0.000000,  0.000000,  1.997491)
  52 Ni ( 0.000000,  0.000000,  0.228876)
  53 Al ( 0.000000,  0.000000, -0.036820)
  54 Co ( 0.000000,  0.000000,  0.611555)
  55 Cr ( 0.000000,  0.000000,  0.896593)
  56 Ni ( 0.000000,  0.000000,  0.175233)
  57 Cr ( 0.000000,  0.000000, -1.081073)
  58 Cr ( 0.000000,  0.000000, -0.676370)
  59 Fe ( 0.000000,  0.000000,  1.749956)
[...]
  93 Cr ( 0.000000,  0.000000, -1.548812)
  94 Al ( 0.000000,  0.000000, -0.031058)
  95 Fe ( 0.000000,  0.000000,  1.441894)
  96 Fe ( 0.000000,  0.000000,  1.894834)
  97 Fe ( 0.000000,  0.000000,  1.895253)
  98 Co ( 0.000000,  0.000000,  1.370598)
  99 Ni ( 0.000000,  0.000000,  0.435830)
 100 Co ( 0.000000,  0.000000,  1.439470)
 101 Fe ( 0.000000,  0.000000,  2.319934)
 102 Co ( 0.000000,  0.000000,  1.240402)
 103 Ni ( 0.000000,  0.000000,  0.460251)
 104 Co ( 0.000000,  0.000000,  0.298891)
 105 Al ( 0.000000,  0.000000, -0.018842)
 106 Cr ( 0.000000,  0.000000, -1.470298)
 107 Cr ( 0.000000,  0.000000,  0.624683)

Energy contributions relative to reference atoms: (reference = -3699400.456887)

Kinetic:       +132.696972
Potential:     -185.778100
External:        +0.000000
XC:            -852.808707
Entropy (-ST):   -4.609000
Local:          +37.745728
Free energy:   -872.753107
Extrapolated:  -870.448607

Spin contamination: 29.086813 electrons
Showing only first 2 kpts
                      Up                     Down
 Kpt  Band  Eigenvalues  Occupancy  Eigenvalues  Occupancy
  0   508      9.63756    0.99397     10.48375    0.03369
  0   509      9.65248    0.99301     10.50492    0.02744
  0   510      9.66940    0.99173     10.51554    0.02474
  0   511      9.68899    0.98996     10.52219    0.02319

  1   508      9.64585    0.99346     10.49236    0.03100
  1   509      9.66628    0.99199     10.50025    0.02871
  1   510      9.67580    0.99119     10.52111    0.02344
  1   511      9.68765    0.99010     10.53052    0.02137

Fermi level: 10.14813

No gap

Forces in eV/Ang:
  0 Cr   -0.14201    0.36194    0.18709
  1 Ni    0.01398   -0.28348    0.01355
  2 Fe   -0.28397    0.46128    0.03066
  3 Cr    0.26446    0.25721    0.32397
  4 Fe    0.45054   -0.09453    0.06115
  5 Co   -0.05933   -0.03065    0.07245
  6 Co    0.15124    0.16892   -0.08574
  7 Cr   -0.96495   -1.25573    0.20919
  8 Ni   -0.24195    0.02792    0.05598
  9 Co   -0.16006   -0.33438    0.13264
 10 Cr    0.12735    0.38203   -0.31701
 11 Co    0.48215   -0.62392    0.71935
 12 Fe    0.21339   -0.39267    0.72645
 13 Cr    0.01002    0.43550   -0.16104
 14 Ni    0.05553   -0.45563    0.27803
 15 Co   -0.11317    0.12787    0.00753
 16 Ni    0.07300   -0.21623    0.15607
 17 Co    0.30361   -0.00026    0.19485
 18 Fe   -0.44541   -0.06034    0.02310
 19 Ni    0.23799    0.40480    0.12402
 20 Al   -0.24381   -0.57774    0.42958
 21 Cr   -0.07746    0.91999    0.40620
 22 Ni    0.22691   -0.49340    0.32923
 23 Fe   -0.32676    1.11239    0.03756
 24 Ni   -0.23758    0.10161    0.11266
 25 Cr   -0.23203   -0.32673   -0.53395
 26 Co   -0.00181    0.12669   -0.01124
 27 Co   -0.06476   -0.03245    0.24462
 28 Cr   -0.10124   -0.15518   -0.13048
 29 Ni   -0.00129    0.20149   -0.18640
 30 Cr    0.19613   -0.11854    0.11605
 31 Ni    0.28553    0.10748   -0.15590
 32 Ni    0.13696   -0.03231    0.37969
 33 Co    0.17043   -0.16215   -0.40955
 34 Co   -0.22873    0.20905   -0.39967
 35 Co   -0.00285   -0.62170    0.46746
 36 Cr    0.03591    0.41428   -0.09170
 37 Fe    0.03020   -0.05482    0.18649
 38 Fe   -0.08701    0.04888   -0.11114
 39 Co   -0.17297   -0.07021   -0.21152
 40 Ni    0.21634    0.41243    0.02452
 41 Fe   -0.15210   -0.06893    0.15280
 42 Co    0.01787   -0.32594    0.20549
 43 Al   -0.20875    0.19998   -0.57099
 44 Ni   -0.09457   -0.19101    0.10843
 45 Cr    0.59039   -0.21461    0.62307
 46 Co   -0.19333   -0.04615   -0.01049
 47 Fe    0.22086   -0.12521   -0.19657
 48 Cr    0.06644   -0.50088   -0.27493
 49 Co   -0.01494   -0.24691    0.06956
 50 Cr   -0.86946   -0.70839    0.03127
 51 Fe   -0.14629    0.09823   -0.23975
 52 Ni    0.34100   -0.36616   -0.31481
 53 Al    0.28751    0.24154    0.11683
 54 Co    0.30216   -0.11245   -0.27178
 55 Cr    0.36329   -0.32008   -0.66041
 56 Ni   -0.27820   -0.01350   -0.10215
 57 Cr   -0.37474   -0.23595    0.22716
 58 Cr    0.26821    0.23389    0.18745
 59 Fe   -0.09181    0.06770   -0.01132
[...]
 93 Cr   -0.70222    1.75294   -0.45792
 94 Al    0.62140   -0.18378   -0.49821
 95 Fe   -0.17615    0.43980   -0.39440
 96 Fe   -0.07155   -0.06125   -0.23005
 97 Fe    0.25822   -0.14297    0.28545
 98 Co    0.13086   -0.07503    0.25118
 99 Ni   -0.02608    0.13928   -0.04852
100 Co    0.11200    0.47359    0.45911
101 Fe    0.40877    0.22474   -0.27240
102 Co   -0.10127   -0.35390    0.12122
103 Ni    0.17557    0.23415   -0.00076
104 Co   -0.03362   -0.17368   -0.44377
105 Al   -1.37089    0.15216    0.76632
106 Cr    0.68862   -0.40334    0.10887
107 Cr    0.19710    0.06143   -0.90189

Date: Sat Apr 15 23:23:04 2023