User:   c.zeng@d0137
Date:   Sat Apr  8 07:12:01 2023
Arch:   x86_64
Pid:    6003
CWD:    /home/c.zeng/projects/hea-corrosion/hea-mlp/data-curation/volume/dft-jobs/27
Python: 3.8.1
gpaw:   /home/c.zeng/usr/installs/gpaw/source/gpaw-22.8.0/gpaw
_gpaw:  /home/c.zeng/usr/installs/gpaw/source/gpaw-22.8.0/
        _gpaw.cpython-38-x86_64-linux-gnu.so
ase:    /home/c.zeng/.local/lib/python3.8/site-packages/ase-3.22.1-py3.8.egg/ase (version 3.22.1)
numpy:  /shared/centos7/python/3.8.1/lib/python3.8/site-packages/numpy (version 1.17.4)
scipy:  /shared/centos7/python/3.8.1/lib/python3.8/site-packages/scipy (version 1.4.1)
units:  Angstrom and eV
cores: 64
OpenMP: False
OMP_NUM_THREADS: 1

Input parameters:
  convergence: {energy: 0.0001}
  kpts: [2 2 2]
  maxiter: 666
  mode: {ecut: 350.0,
         name: pw}
  occupations: {fixmagmom: False,
                name: fermi-dirac,
                width: 0.1}
  spinpol: True
  xc: PBE

System changes: positions, numbers, cell, pbc, initial_charges, initial_magmoms

Initialize ...

species:
  Cr:
    name: Chromium
    id: 33f258bda2ca9f93018e70263a35547b
    Z: 24.0
    valence: 6
    core: 18
    charge: 0.0
    file: /home/c.zeng/usr/data/gpaw-setups-0.9.20000/Cr.PBE.gz
    compensation charges: {type: gauss,
                           rc: 0.35,
                           lmax: 2}
    cutoffs: {filter: 2.14,
              core: 3.04}
    valence states:
      #              energy  rcut
      - 4s(1.00)    -4.007   1.164
      - 4p(0.00)    -0.989   1.217
      - 3d(5.00)    -2.913   1.111
      -  s          23.205   1.164
      -  p          26.223   1.217
      -  d          24.299   1.111

    # Using partial waves for Cr as LCAO basis

  Al:
    name: Aluminium
    id: 0292cae29f5d6237e50f6abdd43a7bdd
    Z: 13.0
    valence: 3
    core: 10
    charge: 0.0
    file: /home/c.zeng/usr/data/gpaw-setups-0.9.20000/Al.PBE.gz
    compensation charges: {type: gauss,
                           rc: 0.34,
                           lmax: 2}
    cutoffs: {filter: 1.91,
              core: 2.36}
    valence states:
      #              energy  rcut
      - 3s(2.00)    -7.753   1.085
      - 3p(1.00)    -2.712   1.085
      -  s          19.459   1.085
      -  p          24.499   1.085
      -  d           0.000   1.085

[...]

  Co:
    name: Cobalt
    id: 339d20d5b0b93d2de9531a1bee871d91
    Z: 27.0
    valence: 9
    core: 18
    charge: 0.0
    file: /home/c.zeng/usr/data/gpaw-setups-0.9.20000/Co.PBE.gz
    compensation charges: {type: gauss,
                           rc: 0.32,
                           lmax: 2}
    cutoffs: {filter: 1.87,
              core: 2.55}
    valence states:
      #              energy  rcut
      - 4s(2.00)    -5.469   1.005
      - 4p(0.00)    -1.277   1.058
      - 3d(7.00)    -8.205   1.005
      -  s          21.742   1.005
      -  p          25.934   1.058
      -  d          19.007   1.005

[...]

  Fe:
    name: Iron
    id: 37abbd8d6c3c35915a9b583b742da910
    Z: 26.0
    valence: 8
    core: 18
    charge: 0.0
    file: /home/c.zeng/usr/data/gpaw-setups-0.9.20000/Fe.PBE.gz
    compensation charges: {type: gauss,
                           rc: 0.33,
                           lmax: 2}
    cutoffs: {filter: 2.06,
              core: 2.67}
    valence states:
      #              energy  rcut
      - 4s(2.00)    -5.291   1.164
      - 4p(0.00)    -1.326   1.058
      - 3d(6.00)    -7.505   1.058
      -  s          21.920   1.164
      -  p          25.885   1.058
      -  d          19.706   1.058

[...]

  Ni:
    name: Nickel
    id: 0d9f38a9d6e76a2886f07bb4381f212b
    Z: 28.0
    valence: 16
    core: 12
    charge: 0.0
    file: /home/c.zeng/usr/data/gpaw-setups-0.9.20000/Ni.PBE.gz
    compensation charges: {type: gauss,
                           rc: 0.36,
                           lmax: 2}
    cutoffs: {filter: 2.14,
              core: 1.98}
    valence states:
      #              energy  rcut
      - 4s(2.00)    -5.642   1.164
      - 3p(6.00)   -71.394   1.207
      - 4p(0.00)    -1.226   1.207
      - 3d(8.00)    -8.875   1.138
      -  s          21.570   1.164
      -  d          18.337   1.138

    # Using partial waves for Ni as LCAO basis

Reference energy: -3699400.456887  # eV

Spin-polarized calculation.
Magnetic moment: 143.500000

Convergence criteria:
 Maximum [total energy] change in last 3 cyles: 0.0001 eV / electron
 Maximum integral of absolute [dens]ity change: 0.0001 electrons / valence electron
 Maximum integral of absolute [eigenst]ate change: 4e-08 eV^2 / valence electron
 Maximum number of scf [iter]ations: 666
 (Square brackets indicate name in SCF output, whereas a 'c' in
 the SCF output indicates the quantity has converged.)

Symmetries present (total): 1

  ( 1  0  0)
  ( 0  1  0)
  ( 0  0  1)

8 k-points: 2 x 2 x 2 Monkhorst-Pack grid
4 k-points in the irreducible part of the Brillouin zone
       k-points in crystal coordinates                weights
   0:     0.25000000   -0.25000000   -0.25000000          2/8
   1:     0.25000000   -0.25000000    0.25000000          2/8
   2:     0.25000000    0.25000000   -0.25000000          2/8
   3:     0.25000000    0.25000000    0.25000000          2/8

Wave functions: Plane wave expansion
  Cutoff energy: 350.000 eV
  Number of coefficients (min, max): 25080, 25080
  Pulay-stress correction: 0.000000 eV/Ang^3 (de/decut=0.000000)
  Using FFTW library
  ScaLapack parameters: grid=1x1, blocksize=None
  Wavefunction extrapolation:
    Improved wavefunction reuse through dual PAW basis

Occupation numbers: Fermi-Dirac:
  width: 0.1000  # eV

Eigensolver
   Davidson(niter=2)

Densities:
  Coarse grid: 54*54*54 grid
  Fine grid: 108*108*108 grid
  Total Charge: 0.000000

Density mixing:
  Method: difference
  Backend: pulay
  Linear mixing parameter: 0.05
  old densities: 5
  Damping of long wavelength oscillations: 50

Hamiltonian:
  XC and Coulomb potentials evaluated on a 108*108*108 grid
  Using the PBE Exchange-Correlation functional
  External potential:
    NoExternalPotential

XC parameters: PBE with 2 nearest neighbor stencil

Total number of cores used: 64
Parallelization over k-points: 4
Domain decomposition: 4 x 2 x 2

Number of atoms: 108
Number of atomic orbitals: 1025
Number of bands in calculation: 703
Number of valence electrons: 1020
Bands to converge: occupied

... initialized

Initializing position-dependent things.

Density initialized from atomic densities
Creating initial wave functions:
  703 bands from LCAO basis set

       /|   Ni                 Cr    |
      / |    Fe          Al          |
    /  Ni       Cr        Fe         |
   /o   |  Ni     CrCr Fe     Cr     Cr
  /  NiCo   FeCo     Cr NiFe   Ni    |
 Cr   FeCo     Ni NiCr   CoCo        |
 |      |Co Crr       Co       Fee   |
 |      |       Al Ni     Al Cr     Ni
 | Ni   |  FeCo   CoNi NiCoFe Ni     Fe
 |   FeCr   NiCo Co  Fe FeCr   Fe    |
 |    CrNi   CrCo FeCrNi NiNi   Ni   |
 |      |   Ni     Cr Co     FeCo    |
 |     NiNi     Ni        Cr         |
 | Fe   .--FeCr-----Co-Co-----Cr-----.
 |   CoFe     Fe Al  Cr NiNi        /
 |    CrFe     Co Cr       Co      /
 |Al /   Fe Cr     Co Co          /
 |  /                        Cr  /
 | /         Fe                 /
 |/              Fe            /
 *---------Fe-----------------*

Positions:
   0 Cr     0.000002    0.000002   -0.000008    ( 0.0000,  0.0000,  0.0000)
   1 Al     0.000000    1.984504    1.984504    ( 0.0000,  0.0000,  0.0000)
   2 Cr     1.984504   -0.000003    1.984504    ( 0.0000,  0.0000,  0.0000)
   3 Co     1.984504    1.984504   -0.000005    ( 0.0000,  0.0000,  2.1000)
   4 Fe     3.968996    0.000002    0.000000    ( 0.0000,  0.0000,  2.0000)
   5 Cr     3.968996    1.984504    1.984492    ( 0.0000,  0.0000,  0.0000)
   6 Ni     5.953500   -0.000002    1.984504    ( 0.0000,  0.0000,  1.5000)
   7 Fe     5.953500    1.984504    0.000001    ( 0.0000,  0.0000,  2.0000)
   8 Cr     7.938004    0.000007   -0.000000    ( 0.0000,  0.0000,  0.0000)
   9 Co     7.938004    1.984504    1.984492    ( 0.0000,  0.0000,  2.1000)
  10 Ni     9.922496   -0.000001    1.984504    ( 0.0000,  0.0000,  1.5000)
  11 Fe     9.922496    1.984504   -0.000003    ( 0.0000,  0.0000,  2.0000)
  12 Co     0.000002    3.968996   -0.000003    ( 0.0000,  0.0000,  2.1000)
  13 Co     0.000006    5.953488    1.984504    ( 0.0000,  0.0000,  2.1000)
  14 Fe     1.984504    3.969008    1.984504    ( 0.0000,  0.0000,  2.0000)
  15 Fe     1.984504    5.953500    0.000004    ( 0.0000,  0.0000,  2.0000)
  16 Fe     3.968996    3.969008    0.000001    ( 0.0000,  0.0000,  2.0000)
  17 Fe     3.968996    5.953500    1.984492    ( 0.0000,  0.0000,  2.0000)
  18 Cr     5.953500    3.969008    1.984492    ( 0.0000,  0.0000,  0.0000)
  19 Co     5.953500    5.953500    0.000001    ( 0.0000,  0.0000,  2.1000)
  20 Fe     7.938004    3.968996   -0.000002    ( 0.0000,  0.0000,  2.0000)
  21 Ni     7.938004    5.953500    1.984504    ( 0.0000,  0.0000,  1.5000)
  22 Co     9.922496    3.968996    1.984504    ( 0.0000,  0.0000,  2.1000)
  23 Cr     9.922508    5.953488    0.000002    ( 0.0000,  0.0000,  0.0000)
  24 Cr     0.000008    7.938004    0.000001    ( 0.0000,  0.0000,  0.0000)
  25 Ni     0.000001    9.922496    1.984504    ( 0.0000,  0.0000,  1.5000)
  26 Fe     1.984504    7.937992    1.984504    ( 0.0000,  0.0000,  2.0000)
  27 Ni     1.984504    9.922496   -0.000001    ( 0.0000,  0.0000,  1.5000)
  28 Co     3.968996    7.937992    0.000004    ( 0.0000,  0.0000,  2.1000)
  29 Co     3.968996    9.922496    1.984504    ( 0.0000,  0.0000,  2.1000)
  30 Co     5.953488    7.938004    1.984504    ( 0.0000,  0.0000,  2.1000)
  31 Cr     5.953500    9.922508    0.000004    ( 0.0000,  0.0000,  0.0000)
  32 Al     7.937992    7.938004   -0.000006    ( 0.0000,  0.0000,  0.0000)
  33 Cr     7.938004    9.922508    1.984516    ( 0.0000,  0.0000,  0.0000)
  34 Cr     9.922508    7.938004    1.984504    ( 0.0000,  0.0000,  0.0000)
  35 Cr     9.922496    9.922508   -0.000004    ( 0.0000,  0.0000,  0.0000)
  36 Fe    -0.000004   -0.000001    3.969008    ( 0.0000,  0.0000,  2.0000)
  37 Co    -0.000001    1.984504    5.953488    ( 0.0000,  0.0000,  2.1000)
  38 Cr     1.984492   -0.000001    5.953500    ( 0.0000,  0.0000,  0.0000)
  39 Fe     1.984504    1.984504    3.968996    ( 0.0000,  0.0000,  2.0000)
  40 Co     3.968996   -0.000004    3.968996    ( 0.0000,  0.0000,  2.1000)
  41 Ni     3.968996    1.984504    5.953500    ( 0.0000,  0.0000,  1.5000)
  42 Ni     5.953500    0.000000    5.953500    ( 0.0000,  0.0000,  1.5000)
  43 Al     5.953512    1.984492    3.969008    ( 0.0000,  0.0000,  0.0000)
  44 Fe     7.938004   -0.000002    3.968996    ( 0.0000,  0.0000,  2.0000)
  45 Co     7.938004    1.984504    5.953500    ( 0.0000,  0.0000,  2.1000)
  46 Fe     9.922496   -0.000001    5.953488    ( 0.0000,  0.0000,  2.0000)
  47 Ni     9.922496    1.984492    3.969008    ( 0.0000,  0.0000,  1.5000)
  48 Fe     0.000002    3.968996    3.968996    ( 0.0000,  0.0000,  2.0000)
  49 Fe     0.000001    5.953500    5.953500    ( 0.0000,  0.0000,  2.0000)
  50 Ni     1.984492    3.968996    5.953500    ( 0.0000,  0.0000,  1.5000)
  51 Ni     1.984492    5.953500    3.968996    ( 0.0000,  0.0000,  1.5000)
  52 Cr     3.968996    3.969008    3.968996    ( 0.0000,  0.0000,  0.0000)
  53 Co     3.968996    5.953500    5.953500    ( 0.0000,  0.0000,  2.1000)
  54 Fe     5.953500    3.968996    5.953500    ( 0.0000,  0.0000,  2.0000)
  55 Cr     5.953500    5.953500    3.969008    ( 0.0000,  0.0000,  0.0000)
  56 Co     7.938004    3.969008    3.969008    ( 0.0000,  0.0000,  2.1000)
  57 Fe     7.938004    5.953500    5.953500    ( 0.0000,  0.0000,  2.0000)
  58 Ni     9.922496    3.969008    5.953500    ( 0.0000,  0.0000,  1.5000)
  59 Fe     9.922496    5.953500    3.969008    ( 0.0000,  0.0000,  2.0000)
[...]
  93 Ni     7.938004    5.953500    9.922496    ( 0.0000,  0.0000,  1.5000)
  94 Co     9.922496    3.968996    9.922508    ( 0.0000,  0.0000,  2.1000)
  95 Cr     9.922496    5.953500    7.937992    ( 0.0000,  0.0000,  0.0000)
  96 Fe     0.000005    7.938004    7.937992    ( 0.0000,  0.0000,  2.0000)
  97 Ni     0.000003    9.922496    9.922496    ( 0.0000,  0.0000,  1.5000)
  98 Ni     1.984504    7.938004    9.922496    ( 0.0000,  0.0000,  1.5000)
  99 Fe     1.984492    9.922496    7.938004    ( 0.0000,  0.0000,  2.0000)
 100 Ni     3.968996    7.938004    7.937992    ( 0.0000,  0.0000,  1.5000)
 101 Cr     3.968984    9.922496    9.922508    ( 0.0000,  0.0000,  0.0000)
 102 Cr     5.953500    7.938004    9.922496    ( 0.0000,  0.0000,  0.0000)
 103 Cr     5.953500    9.922496    7.938004    ( 0.0000,  0.0000,  0.0000)
 104 Co     7.938004    7.937992    7.938004    ( 0.0000,  0.0000,  2.1000)
 105 Fe     7.938004    9.922496    9.922496    ( 0.0000,  0.0000,  2.0000)
 106 Cr     9.922496    7.938004    9.922496    ( 0.0000,  0.0000,  0.0000)
 107 Ni     9.922508    9.922496    7.938004    ( 0.0000,  0.0000,  1.5000)

Unit cell:
           periodic     x           y           z      points  spacing
  1. axis:    yes   11.907000    0.000000    0.000000    54     0.2205
  2. axis:    yes    0.000000   11.907000    0.000000    54     0.2205
  3. axis:    yes    0.000000    0.000000   11.907000    54     0.2205

  Lengths:  11.907000  11.907000  11.907000
  Angles:   90.000000  90.000000  90.000000

Effective grid spacing dv^(1/3) = 0.2205

     iter     time        total  log10-change:  magmom
                         energy  eigst   dens
iter:   1 07:14:20 -1072.294858                  +143.7773
iter:   2 07:15:21  -915.739499  +0.05  -1.16    +78.0366
iter:   3 07:16:22  -921.592282  -0.47  -1.06    +84.9219
iter:   4 07:17:23  -831.942824  -1.10  -1.16    +81.1989
iter:   5 07:18:24  -823.443824  -1.75  -1.33    +84.3898
iter:   6 07:19:25  -829.949918  -1.67  -1.36    +93.7546
iter:   7 07:20:26  -827.646130  -1.24  -1.33    +98.8449
iter:   8 07:21:28  -821.663389  -1.44  -1.38    +104.7141
iter:   9 07:22:29  -828.273142  -1.18  -1.46    +106.0520
iter:  10 07:23:30  -822.861118  -1.58  -1.52    +104.6038
iter:  11 07:24:32  -816.421718  -1.76  -1.58    +103.3054
iter:  12 07:25:33  -815.573229  -1.92  -1.63    +104.3960
iter:  13 07:26:35  -812.553764  -2.23  -1.68    +102.0343
iter:  14 07:27:36  -813.150434  -2.33  -1.82    +99.5327
iter:  15 07:28:38  -813.394159  -2.57  -1.84    +97.3227
iter:  16 07:29:39  -815.534541  -2.58  -1.89    +95.0225
iter:  17 07:30:40  -816.320596  -2.56  -1.89    +92.7948
iter:  18 07:31:41  -817.038798  -2.58  -1.89    +89.4205
iter:  19 07:32:43  -818.189783  -2.61  -1.96    +87.7994
iter:  20 07:33:44  -819.947521  -2.43  -1.98    +85.7158
iter:  21 07:34:45  -819.395399  -2.65  -1.94    +85.0623
iter:  22 07:35:47  -820.460231  -2.72  -2.06    +82.5995
iter:  23 07:36:48  -820.755869  -2.88  -2.06    +82.1855
iter:  24 07:37:49  -821.198823  -3.07  -2.08    +81.4897
iter:  25 07:38:50  -822.210417  -2.94  -2.12    +81.4755
iter:  26 07:39:51  -823.838241  -2.42  -2.09    +82.0792
iter:  27 07:40:53  -823.663223  -3.51  -2.00    +82.6045
iter:  28 07:41:54  -824.137085  -3.34  -2.02    +83.3350
iter:  29 07:42:55  -824.080028  -3.43  -1.99    +83.6553
iter:  30 07:43:56  -823.943870  -3.02  -2.00    +84.1112
iter:  31 07:44:58  -823.138488  -2.59  -1.98    +84.2015
iter:  32 07:45:59  -822.807592  -3.12  -2.02    +84.4588
iter:  33 07:47:00  -822.966946  -3.07  -2.08    +84.1120
iter:  34 07:48:01  -822.907858  -2.89  -2.11    +84.1840
iter:  35 07:49:03  -822.823539  -2.67  -2.17    +84.6426
iter:  36 07:50:04  -822.768837  -3.28  -2.27    +85.3127
iter:  37 07:51:05  -822.926716  -3.33  -2.30    +85.9887
iter:  38 07:52:07  -822.955184  -3.55  -2.31    +86.5293
iter:  39 07:53:08  -823.042045  -3.66  -2.35    +86.9332
iter:  40 07:54:10  -823.165502  -3.57  -2.37    +87.4512
iter:  41 07:55:11  -823.155907  -3.57  -2.40    +87.7317
iter:  42 07:56:12  -823.148277c -3.87  -2.50    +88.0034
iter:  43 07:57:14  -823.252048  -3.70  -2.60    +88.1894
iter:  44 07:58:15  -823.172799  -3.90  -2.57    +88.2363
iter:  45 07:59:17  -823.189393c -4.16  -2.74    +88.3266
iter:  46 08:00:18  -823.177292c -4.29  -2.78    +88.4101
iter:  47 08:01:19  -823.175715c -4.55  -2.86    +88.4234
iter:  48 08:02:21  -823.172343c -4.64  -2.91    +88.4364
iter:  49 08:03:22  -823.180296c -4.43  -2.98    +88.4482
iter:  50 08:04:24  -823.168185c -4.71  -2.94    +88.4424
iter:  51 08:05:25  -823.174062c -4.72  -3.05    +88.4365
iter:  52 08:06:26  -823.166617c -4.98  -3.05    +88.4510
iter:  53 08:07:28  -823.170098c -5.05  -3.11    +88.4489
iter:  54 08:08:30  -823.166916c -5.05  -3.12    +88.4486
iter:  55 08:09:31  -823.167529c -5.30  -3.17    +88.4525
iter:  56 08:10:32  -823.168811c -5.16  -3.21    +88.4526
iter:  57 08:11:34  -823.168545c -5.30  -3.22    +88.4548
iter:  58 08:12:36  -823.167163c -5.32  -3.24    +88.4498
iter:  59 08:13:37  -823.169500c -5.44  -3.32    +88.4430
iter:  60 08:14:38  -823.168208c -5.54  -3.33    +88.4448
iter:  61 08:15:39  -823.168040c -5.67  -3.38    +88.4456
iter:  62 08:16:41  -823.168259c -5.57  -3.41    +88.4396
iter:  63 08:17:42  -823.168717c -5.47  -3.48    +88.4399
iter:  64 08:18:44  -823.168123c -5.71  -3.46    +88.4383
iter:  65 08:19:45  -823.167852c -5.77  -3.54    +88.4355
iter:  66 08:20:47  -823.168169c -5.91  -3.61    +88.4365
iter:  67 08:21:48  -823.167709c -6.03  -3.61    +88.4352
iter:  68 08:22:49  -823.167867c -6.09  -3.67    +88.4357
iter:  69 08:23:50  -823.167596c -6.17  -3.69    +88.4358
iter:  70 08:24:52  -823.167546c -6.03  -3.79    +88.4381
iter:  71 08:25:53  -823.167204c -6.38  -3.79    +88.4396
iter:  72 08:26:54  -823.167161c -6.55  -3.93    +88.4412
iter:  73 08:27:56  -823.167092c -6.73  -3.96    +88.4420
iter:  74 08:28:57  -823.167012c -6.75  -3.99    +88.4438
iter:  75 08:29:59  -823.166951c -6.70  -4.04c   +88.4447
iter:  76 08:31:00  -823.166856c -6.78  -4.06c   +88.4454
iter:  77 08:32:01  -823.166815c -6.81  -4.17c   +88.4458
iter:  78 08:33:02  -823.166826c -7.01  -4.16c   +88.4457
iter:  79 08:34:04  -823.166774c -6.91  -4.19c   +88.4460
iter:  80 08:35:05  -823.166758c -7.16  -4.24c   +88.4464
iter:  81 08:36:07  -823.166721c -7.22  -4.29c   +88.4458
iter:  82 08:37:08  -823.166770c -7.38  -4.36c   +88.4454
iter:  83 08:38:10  -823.166746c -7.23  -4.37c   +88.4454
iter:  84 08:39:11  -823.166769c -7.14  -4.45c   +88.4452
iter:  85 08:40:13  -823.166751c -7.47c -4.39c   +88.4449

Converged after 85 iterations.

Dipole moment: (0.091701, -0.191039, 0.003259) |e|*Ang

Total magnetic moment: (0.000000, 0.000000, 88.444936)
Local magnetic moments:
   0 Cr ( 0.000000,  0.000000, -3.102989)
   1 Al ( 0.000000,  0.000000, -0.029410)
   2 Cr ( 0.000000,  0.000000, -3.104973)
   3 Co ( 0.000000,  0.000000,  1.596268)
   4 Fe ( 0.000000,  0.000000,  2.767723)
   5 Cr ( 0.000000,  0.000000, -3.040914)
   6 Ni ( 0.000000,  0.000000,  0.361959)
   7 Fe ( 0.000000,  0.000000,  2.841854)
   8 Cr ( 0.000000,  0.000000, -3.039470)
   9 Co ( 0.000000,  0.000000,  1.743786)
  10 Ni ( 0.000000,  0.000000,  0.386514)
  11 Fe ( 0.000000,  0.000000,  2.961346)
  12 Co ( 0.000000,  0.000000,  1.846576)
  13 Co ( 0.000000,  0.000000,  1.737121)
  14 Fe ( 0.000000,  0.000000,  2.872908)
  15 Fe ( 0.000000,  0.000000,  3.033105)
  16 Fe ( 0.000000,  0.000000,  2.912829)
  17 Fe ( 0.000000,  0.000000,  2.882108)
  18 Cr ( 0.000000,  0.000000, -2.878994)
  19 Co ( 0.000000,  0.000000,  1.797080)
  20 Fe ( 0.000000,  0.000000,  3.023275)
  21 Ni ( 0.000000,  0.000000,  0.420159)
  22 Co ( 0.000000,  0.000000,  1.821590)
  23 Cr ( 0.000000,  0.000000, -3.085481)
  24 Cr ( 0.000000,  0.000000, -3.083104)
  25 Ni ( 0.000000,  0.000000,  0.285270)
  26 Fe ( 0.000000,  0.000000,  3.018601)
  27 Ni ( 0.000000,  0.000000,  0.527612)
  28 Co ( 0.000000,  0.000000,  1.810106)
  29 Co ( 0.000000,  0.000000,  1.828439)
  30 Co ( 0.000000,  0.000000,  1.784925)
  31 Cr ( 0.000000,  0.000000,  2.879586)
  32 Al ( 0.000000,  0.000000, -0.027277)
  33 Cr ( 0.000000,  0.000000, -3.068684)
  34 Cr ( 0.000000,  0.000000,  3.034939)
  35 Cr ( 0.000000,  0.000000,  2.901769)
  36 Fe ( 0.000000,  0.000000,  2.988416)
  37 Co ( 0.000000,  0.000000,  1.773324)
  38 Cr ( 0.000000,  0.000000, -3.084239)
  39 Fe ( 0.000000,  0.000000,  2.822440)
  40 Co ( 0.000000,  0.000000,  1.719026)
  41 Ni ( 0.000000,  0.000000,  0.351283)
  42 Ni ( 0.000000,  0.000000,  0.425622)
  43 Al ( 0.000000,  0.000000, -0.005315)
  44 Fe ( 0.000000,  0.000000,  2.915024)
  45 Co ( 0.000000,  0.000000,  1.776684)
  46 Fe ( 0.000000,  0.000000,  2.875323)
  47 Ni ( 0.000000,  0.000000,  0.706700)
  48 Fe ( 0.000000,  0.000000,  3.018663)
  49 Fe ( 0.000000,  0.000000,  2.997321)
  50 Ni ( 0.000000,  0.000000,  0.636019)
  51 Ni ( 0.000000,  0.000000,  0.605074)
  52 Cr ( 0.000000,  0.000000, -2.953614)
  53 Co ( 0.000000,  0.000000,  1.864786)
  54 Fe ( 0.000000,  0.000000,  2.945486)
  55 Cr ( 0.000000,  0.000000, -3.136354)
  56 Co ( 0.000000,  0.000000,  1.775495)
  57 Fe ( 0.000000,  0.000000,  3.048867)
  58 Ni ( 0.000000,  0.000000,  0.622956)
  59 Fe ( 0.000000,  0.000000,  3.015055)
[...]
  93 Ni ( 0.000000,  0.000000,  0.394509)
  94 Co ( 0.000000,  0.000000,  1.833263)
  95 Cr ( 0.000000,  0.000000, -3.209173)
  96 Fe ( 0.000000,  0.000000,  3.051285)
  97 Ni ( 0.000000,  0.000000,  0.455671)
  98 Ni ( 0.000000,  0.000000,  0.623901)
  99 Fe ( 0.000000,  0.000000,  2.982023)
 100 Ni ( 0.000000,  0.000000,  0.636189)
 101 Cr ( 0.000000,  0.000000, -3.054066)
 102 Cr ( 0.000000,  0.000000, -3.105971)
 103 Cr ( 0.000000,  0.000000,  2.946683)
 104 Co ( 0.000000,  0.000000,  1.756074)
 105 Fe ( 0.000000,  0.000000,  2.666733)
 106 Cr ( 0.000000,  0.000000,  2.959176)
 107 Ni ( 0.000000,  0.000000,  0.415779)

Energy contributions relative to reference atoms: (reference = -3699400.456887)

Kinetic:       -354.218475
Potential:     +207.649821
External:        +0.000000
XC:            -706.896739
Entropy (-ST):   -5.082892
Local:          +32.840088
Free energy:   -825.708197
Extrapolated:  -823.166751

Spin contamination: 71.006251 electrons
Showing only first 2 kpts
                      Up                     Down
 Kpt  Band  Eigenvalues  Occupancy  Eigenvalues  Occupancy
  0   508      5.55280    0.99985      6.78746    0.02891
  0   509      5.56578    0.99983      6.80294    0.02487
  0   510      5.57175    0.99982      6.81369    0.02239
  0   511      5.59069    0.99979      6.81835    0.02139

  1   508      5.54716    0.99986      6.79039    0.02810
  1   509      5.56275    0.99984      6.80412    0.02458
  1   510      5.56822    0.99983      6.80963    0.02330
  1   511      5.58443    0.99980      6.82318    0.02041

Fermi level: 6.43605

No gap

Forces in eV/Ang:
  0 Cr   -0.28950   -0.34435   -0.58393
  1 Al   -0.31022    0.32084    0.10769
  2 Cr    0.26562   -0.64362    0.34170
  3 Co    0.11545    0.12662   -0.06872
  4 Fe   -0.36174    0.14511    0.22132
  5 Cr   -0.11700   -0.29304   -0.52692
  6 Ni   -0.07324    0.06738    0.06188
  7 Fe    0.24279    0.09471    0.09288
  8 Cr    0.24940    0.30307   -0.09239
  9 Co    0.30554    0.07103   -0.03357
 10 Ni   -0.03295    0.01642    0.19389
 11 Fe   -0.29999    0.12742   -0.05937
 12 Co    0.00724    0.05632   -0.19205
 13 Co    0.19873   -0.42200    0.09330
 14 Fe   -0.12117    0.21163   -0.18519
 15 Fe    0.01672   -0.03334   -0.28718
 16 Fe    0.04961    0.19413   -0.25432
 17 Fe    0.08139    0.10470    0.10881
 18 Cr    0.55511    0.14439   -0.68524
 19 Co   -0.37044   -0.01115    0.03854
 20 Fe   -0.04396    0.07543   -0.04579
 21 Ni   -0.03899   -0.08467    0.13627
 22 Co   -0.05013    0.03528    0.09229
 23 Cr   -0.05551   -0.54301   -0.06121
 24 Cr    0.40135    0.46657   -0.07631
 25 Ni    0.00513    0.08855    0.06147
 26 Fe    0.05825    0.11861    0.19740
 27 Ni    0.09749   -0.08296    0.03532
 28 Co   -0.19157   -0.30292    0.18052
 29 Co   -0.08020   -0.07888    0.21440
 30 Co   -0.19739   -0.19392    0.19422
 31 Cr   -0.19740   -0.04146    0.37767
 32 Al   -0.34594   -0.48544    0.03102
 33 Cr    0.00287   -0.12174    0.53663
 34 Cr    0.08888   -0.38085    0.02140
 35 Cr    0.22297    0.79713    0.15772
 36 Fe   -0.15958   -0.14355    0.25166
 37 Co   -0.11890    0.24416   -0.27192
 38 Cr   -0.01498   -0.39964   -0.37845
 39 Fe    0.16005    0.05808    0.27851
 40 Co    0.01852   -0.39530    0.07346
 41 Ni    0.07056    0.06069    0.01527
 42 Ni   -0.00350    0.10263   -0.11001
 43 Al    0.14723   -0.35152    0.16783
 44 Fe    0.22893    0.30741   -0.07728
 45 Co   -0.01612    0.22539   -0.12080
 46 Fe   -0.04216    0.13036   -0.26695
 47 Ni   -0.10650   -0.00120    0.05497
 48 Fe   -0.08902   -0.00941    0.23161
 49 Fe    0.15144   -0.25460    0.10355
 50 Ni   -0.00050    0.11453   -0.00537
 51 Ni    0.11988   -0.01758    0.02041
 52 Cr   -0.90960    0.20806    0.64559
 53 Co   -0.10745    0.09594    0.11169
 54 Fe   -0.00670   -0.04652    0.40407
 55 Cr    0.43287    0.72067    0.19817
 56 Co    0.20230   -0.01356    0.07129
 57 Fe    0.05661    0.11088    0.13992
 58 Ni   -0.05190   -0.04762   -0.17441
 59 Fe   -0.11896   -0.29887    0.01990
[...]
 93 Ni   -0.13676   -0.07044   -0.02523
 94 Co    0.01818   -0.14922    0.16396
 95 Cr    0.00083   -0.15509    0.09572
 96 Fe    0.26456    0.11401   -0.19785
 97 Ni    0.14225   -0.02962   -0.16836
 98 Ni    0.07248   -0.08924   -0.15406
 99 Fe    0.24507   -0.53910   -0.05651
100 Ni   -0.15119   -0.08654   -0.10204
101 Cr   -0.56183    0.14919   -0.01278
102 Cr    0.33116   -0.38626   -0.30712
103 Cr   -0.20122   -0.38017   -0.24230
104 Co   -0.06351   -0.10492    0.01010
105 Fe    0.48401    0.01111   -0.50155
106 Cr    0.12122   -0.27914   -0.10889
107 Ni   -0.04394   -0.02391   -0.00066

Date: Sat Apr  8 08:40:29 2023