User:   c.zeng@d0098
Date:   Sat Apr 15 23:23:28 2023
Arch:   x86_64
Pid:    196909
CWD:    /home/c.zeng/projects/hea-corrosion/hea-mlp/data-curation/bulk-mcmc/dft-jobs/93
Python: 3.8.1
gpaw:   /home/c.zeng/usr/installs/gpaw/source/gpaw-22.8.0/gpaw
_gpaw:  /home/c.zeng/usr/installs/gpaw/source/gpaw-22.8.0/
        _gpaw.cpython-38-x86_64-linux-gnu.so
ase:    /home/c.zeng/.local/lib/python3.8/site-packages/ase-3.22.1-py3.8.egg/ase (version 3.22.1)
numpy:  /home/c.zeng/.local/lib/python3.8/site-packages/numpy (version 1.24.2)
scipy:  /home/c.zeng/.local/lib/python3.8/site-packages/scipy (version 1.10.1)
units:  Angstrom and eV
cores: 30
OpenMP: False
OMP_NUM_THREADS: 1

Input parameters:
  convergence: {energy: 0.0001}
  kpts: [2 2 2]
  maxiter: 666
  mode: {ecut: 350.0,
         name: pw}
  occupations: {fixmagmom: False,
                name: fermi-dirac,
                width: 0.1}
  spinpol: True
  xc: PBE

System changes: positions, numbers, cell, pbc, initial_charges, initial_magmoms

Initialize ...

species:
  Cr:
    name: Chromium
    id: 33f258bda2ca9f93018e70263a35547b
    Z: 24.0
    valence: 6
    core: 18
    charge: 0.0
    file: /home/c.zeng/usr/data/gpaw-setups-0.9.20000/Cr.PBE.gz
    compensation charges: {type: gauss,
                           rc: 0.35,
                           lmax: 2}
    cutoffs: {filter: 2.14,
              core: 3.04}
    valence states:
      #              energy  rcut
      - 4s(1.00)    -4.007   1.164
      - 4p(0.00)    -0.989   1.217
      - 3d(5.00)    -2.913   1.111
      -  s          23.205   1.164
      -  p          26.223   1.217
      -  d          24.299   1.111

    # Using partial waves for Cr as LCAO basis

  Fe:
    name: Iron
    id: 37abbd8d6c3c35915a9b583b742da910
    Z: 26.0
    valence: 8
    core: 18
    charge: 0.0
    file: /home/c.zeng/usr/data/gpaw-setups-0.9.20000/Fe.PBE.gz
    compensation charges: {type: gauss,
                           rc: 0.33,
                           lmax: 2}
    cutoffs: {filter: 2.06,
              core: 2.67}
    valence states:
      #              energy  rcut
      - 4s(2.00)    -5.291   1.164
      - 4p(0.00)    -1.326   1.058
      - 3d(6.00)    -7.505   1.058
      -  s          21.920   1.164
      -  p          25.885   1.058
      -  d          19.706   1.058

[...]

  Ni:
    name: Nickel
    id: 0d9f38a9d6e76a2886f07bb4381f212b
    Z: 28.0
    valence: 16
    core: 12
    charge: 0.0
    file: /home/c.zeng/usr/data/gpaw-setups-0.9.20000/Ni.PBE.gz
    compensation charges: {type: gauss,
                           rc: 0.36,
                           lmax: 2}
    cutoffs: {filter: 2.14,
              core: 1.98}
    valence states:
      #              energy  rcut
      - 4s(2.00)    -5.642   1.164
      - 3p(6.00)   -71.394   1.207
      - 4p(0.00)    -1.226   1.207
      - 3d(8.00)    -8.875   1.138
      -  s          21.570   1.164
      -  d          18.337   1.138

[...]

  Co:
    name: Cobalt
    id: 339d20d5b0b93d2de9531a1bee871d91
    Z: 27.0
    valence: 9
    core: 18
    charge: 0.0
    file: /home/c.zeng/usr/data/gpaw-setups-0.9.20000/Co.PBE.gz
    compensation charges: {type: gauss,
                           rc: 0.32,
                           lmax: 2}
    cutoffs: {filter: 1.87,
              core: 2.55}
    valence states:
      #              energy  rcut
      - 4s(2.00)    -5.469   1.005
      - 4p(0.00)    -1.277   1.058
      - 3d(7.00)    -8.205   1.005
      -  s          21.742   1.005
      -  p          25.934   1.058
      -  d          19.007   1.005

[...]

  Al:
    name: Aluminium
    id: 0292cae29f5d6237e50f6abdd43a7bdd
    Z: 13.0
    valence: 3
    core: 10
    charge: 0.0
    file: /home/c.zeng/usr/data/gpaw-setups-0.9.20000/Al.PBE.gz
    compensation charges: {type: gauss,
                           rc: 0.34,
                           lmax: 2}
    cutoffs: {filter: 1.91,
              core: 2.36}
    valence states:
      #              energy  rcut
      - 3s(2.00)    -7.753   1.085
      - 3p(1.00)    -2.712   1.085
      -  s          19.459   1.085
      -  p          24.499   1.085
      -  d           0.000   1.085

    # Using partial waves for Al as LCAO basis

Reference energy: -3699400.456887  # eV

Spin-polarized calculation.
Magnetic moment: 143.500000

Convergence criteria:
 Maximum [total energy] change in last 3 cyles: 0.0001 eV / electron
 Maximum integral of absolute [dens]ity change: 0.0001 electrons / valence electron
 Maximum integral of absolute [eigenst]ate change: 4e-08 eV^2 / valence electron
 Maximum number of scf [iter]ations: 666
 (Square brackets indicate name in SCF output, whereas a 'c' in
 the SCF output indicates the quantity has converged.)

Symmetries present (total): 1

  ( 1  0  0)
  ( 0  1  0)
  ( 0  0  1)

8 k-points: 2 x 2 x 2 Monkhorst-Pack grid
4 k-points in the irreducible part of the Brillouin zone
       k-points in crystal coordinates                weights
   0:     0.25000000   -0.25000000   -0.25000000          2/8
   1:     0.25000000   -0.25000000    0.25000000          2/8
   2:     0.25000000    0.25000000   -0.25000000          2/8
   3:     0.25000000    0.25000000    0.25000000          2/8

Wave functions: Plane wave expansion
  Cutoff energy: 350.000 eV
  Number of coefficients (min, max): 18052, 18052
  Pulay-stress correction: 0.000000 eV/Ang^3 (de/decut=0.000000)
  Using FFTW library
  ScaLapack parameters: grid=1x1, blocksize=None
  Wavefunction extrapolation:
    Improved wavefunction reuse through dual PAW basis

Occupation numbers: Fermi-Dirac:
  width: 0.1000  # eV

Eigensolver
   Davidson(niter=2)

Densities:
  Coarse grid: 48*48*48 grid
  Fine grid: 96*96*96 grid
  Total Charge: 0.000000

Density mixing:
  Method: difference
  Backend: pulay
  Linear mixing parameter: 0.05
  old densities: 5
  Damping of long wavelength oscillations: 50

Hamiltonian:
  XC and Coulomb potentials evaluated on a 96*96*96 grid
  Using the PBE Exchange-Correlation functional
  External potential:
    NoExternalPotential

XC parameters: PBE with 2 nearest neighbor stencil

Total number of cores used: 30
Parallelization over k-points: 2
Domain decomposition: 5 x 3 x 1

Number of atoms: 108
Number of atomic orbitals: 1025
Number of bands in calculation: 703
Number of valence electrons: 1020
Bands to converge: occupied

... initialized

Initializing position-dependent things.

Density initialized from atomic densities
Creating initial wave functions:
  703 bands from LCAO basis set

        Cr------------------------.
       /|  Co                Co   |
      Cr|   Ni         Cr         |
     / Fe      Fe       Al        |
    /   CCo      Cr       Fe      |
   /e   | CoCr     CoAl    CrNi   |
  /  FeNi  NiCo     CrNiCo        |
 *    FeFe  FeCoCr     CoAl       |
 |     CoFeNi  CoFe Ni  CrFeNi    |
 | Fe   NiNiCrCo NiNiCrFe  Cr     |
 |   CoCr  CrAlCr   CrNiNi   Fe   |
 |    FeNi  FeFeCoCr CoFeCr   Cr  |
 |     NiFeFe  Cr NiCr  CoFeFe    |
 |      .-CoCrCo-FeCrNiCo--CoNi---.
 |   NiCo    CoAl   NiNiFe       /
 |    / Cr    NiFe       Cr     /
 |   /            Ni           /
 |Cr/      Co       Co        /
 |/            Ni           /
 *----------------Ni-------*

Positions:
   0 Cr     0.005316   -0.016350   10.639749    ( 0.0000,  0.0000,  0.0000)
   1 Cr    10.672340    1.801276    1.786848    ( 0.0000,  0.0000,  0.0000)
   2 Fe     1.795727   10.625972    1.782259    ( 0.0000,  0.0000,  0.0000)
   3 Ni     1.780787    1.796175   10.644605    ( 0.0000,  0.0000,  2.1000)
   4 Fe     3.523539   -0.014558    0.017268    ( 0.0000,  0.0000,  2.0000)
   5 Co     3.522568    1.781672    1.746648    ( 0.0000,  0.0000,  0.0000)
   6 Co     5.320952   10.642342    1.763136    ( 0.0000,  0.0000,  1.5000)
   7 Ni     5.342082    1.828767    0.007462    ( 0.0000,  0.0000,  2.0000)
   8 Ni     7.144895    0.019195    0.012033    ( 0.0000,  0.0000,  0.0000)
   9 Co     7.143497    1.798064    1.764939    ( 0.0000,  0.0000,  2.1000)
  10 Cr     8.891362   10.651627    1.788353    ( 0.0000,  0.0000,  1.5000)
  11 Co     8.888779    1.804777   10.642609    ( 0.0000,  0.0000,  2.0000)
  12 Fe     0.008694    3.581540   10.650250    ( 0.0000,  0.0000,  2.1000)
  13 Ni     0.018979    5.332745    1.789751    ( 0.0000,  0.0000,  2.1000)
  14 Cr     1.778129    3.600941    1.760019    ( 0.0000,  0.0000,  2.0000)
  15 Co     1.790423    5.343267   -0.017766    ( 0.0000,  0.0000,  2.0000)
  16 Cr     3.542802    3.589864   -0.015614    ( 0.0000,  0.0000,  2.0000)
  17 Co     3.526837    5.358538    1.765793    ( 0.0000,  0.0000,  2.0000)
  18 Fe     5.336650    3.606501    1.755815    ( 0.0000,  0.0000,  0.0000)
  19 Cr     5.300399    5.323642   -0.012797    ( 0.0000,  0.0000,  2.1000)
  20 Al     7.122858    3.584816   10.659524    ( 0.0000,  0.0000,  2.0000)
  21 Ni     7.120500    5.315168    1.805502    ( 0.0000,  0.0000,  1.5000)
  22 Cr     8.892034    3.590952    1.773146    ( 0.0000,  0.0000,  2.1000)
  23 Fe     8.925340    5.301487   -0.003100    ( 0.0000,  0.0000,  0.0000)
  24 Cr     0.023055    7.096680   -0.007939    ( 0.0000,  0.0000,  0.0000)
  25 Ni     0.019141    8.871245    1.787510    ( 0.0000,  0.0000,  1.5000)
  26 Co     1.784372    7.104567    1.776443    ( 0.0000,  0.0000,  2.0000)
  27 Co     1.779944    8.867628   10.659406    ( 0.0000,  0.0000,  1.5000)
  28 Ni     3.547785    7.097897    0.009215    ( 0.0000,  0.0000,  2.1000)
  29 Cr     3.541137    8.858109    1.788225    ( 0.0000,  0.0000,  2.1000)
  30 Cr     5.295105    7.099391    1.787894    ( 0.0000,  0.0000,  2.1000)
  31 Ni     5.303685    8.873828    0.029898    ( 0.0000,  0.0000,  0.0000)
  32 Cr     7.106883    7.088719   10.645159    ( 0.0000,  0.0000,  0.0000)
  33 Co     7.111055    8.901137    1.809472    ( 0.0000,  0.0000,  0.0000)
  34 Co     8.939384    7.093404    1.799238    ( 0.0000,  0.0000,  0.0000)
  35 Co     8.919972    8.915853   10.664881    ( 0.0000,  0.0000,  0.0000)
  36 Ni    10.679704   10.658873    3.584517    ( 0.0000,  0.0000,  2.0000)
  37 Fe    10.670921    1.796367    5.340289    ( 0.0000,  0.0000,  2.1000)
  38 Fe     1.770350   10.649001    5.343491    ( 0.0000,  0.0000,  0.0000)
  39 Co     1.791800    1.784671    3.584891    ( 0.0000,  0.0000,  2.0000)
  40 Ni     3.529718   10.626388    3.565234    ( 0.0000,  0.0000,  2.1000)
  41 Fe     3.535716    1.793465    5.367289    ( 0.0000,  0.0000,  1.5000)
  42 Co     5.311497    0.001574    5.366254    ( 0.0000,  0.0000,  1.5000)
  43 Al     5.332627    1.768055    3.580793    ( 0.0000,  0.0000,  0.0000)
  44 Ni     7.136966   10.673941    3.563804    ( 0.0000,  0.0000,  2.0000)
  45 Cr     7.136774    1.794126    5.358944    ( 0.0000,  0.0000,  2.1000)
  46 Co     8.925938   10.673621    5.347589    ( 0.0000,  0.0000,  2.0000)
  47 Fe     8.883827    1.779111    3.582404    ( 0.0000,  0.0000,  1.5000)
  48 Ni    -0.010038    3.572341    3.580996    ( 0.0000,  0.0000,  2.0000)
  49 Co    10.685573    5.328935    5.338550    ( 0.0000,  0.0000,  2.0000)
  50 Ni     1.784180    3.582949    5.348357    ( 0.0000,  0.0000,  1.5000)
  51 Fe     1.766326    5.339510    3.565255    ( 0.0000,  0.0000,  1.5000)
[...]
iter: 157 06:43:06  -870.855609c -5.39  -3.29    +63.0395
iter: 158 06:45:56  -870.861642c -4.97  -3.61    +63.0316
iter: 159 06:48:45  -870.854528c -5.05  -3.31    +63.0228
iter: 160 06:51:35  -870.853901c -5.63  -3.55    +63.0045
iter: 161 06:54:24  -870.854433c -5.83  -3.79    +62.9827
iter: 162 06:57:14  -870.855570c -5.83  -3.75    +62.9703
iter: 163 07:00:00  -870.856130c -5.58  -3.74    +62.9596
iter: 164 07:02:50  -870.855878c -5.88  -3.92    +62.9599
iter: 165 07:05:39  -870.856446c -6.06  -3.87    +62.9558
iter: 166 07:08:29  -870.856836c -5.85  -3.86    +62.9411
iter: 167 07:11:18  -870.857058c -6.05  -3.78    +62.9375
iter: 168 07:14:08  -870.856968c -6.05  -3.94    +62.9271
iter: 169 07:16:58  -870.857235c -6.22  -4.00c   +62.9212
iter: 170 07:19:46  -870.857727c -6.11  -4.20c   +62.9103
iter: 171 07:22:36  -870.857364c -6.68  -4.24c   +62.9149
iter: 172 07:25:25  -870.857452c -6.75  -4.25c   +62.9185
iter: 173 07:28:15  -870.857675c -6.51  -4.20c   +62.9079
iter: 174 07:31:04  -870.857740c -7.02  -4.29c   +62.9123
iter: 175 07:33:54  -870.858152c -6.54  -4.35c   +62.9012
iter: 176 07:36:43  -870.858731c -6.16  -4.44c   +62.8845
iter: 177 07:39:33  -870.858636c -7.17  -4.36c   +62.8866
iter: 178 07:42:23  -870.858714c -6.95  -4.42c   +62.8887
iter: 179 07:45:12  -870.859047c -6.60  -4.37c   +62.8788
iter: 180 07:48:01  -870.858986c -7.37  -4.44c   +62.8803
iter: 181 07:50:51  -870.858950c -6.27  -4.49c   +62.9031
iter: 182 07:53:40  -870.859350c -6.59  -4.47c   +62.8751
iter: 183 07:56:30  -870.859726c -6.58  -4.50c   +62.8647
iter: 184 07:59:20  -870.859216c -6.65  -4.45c   +62.8784
iter: 185 08:02:09  -870.855619c -4.56  -4.57c   +63.0248
iter: 186 08:04:58  -870.856021c -5.99  -3.99    +63.0068
iter: 187 08:07:47  -870.856891c -5.71  -4.06c   +62.9699
iter: 188 08:10:36  -870.856803c -7.03  -4.26c   +62.9692
iter: 189 08:13:26  -870.857115c -6.59  -4.28c   +62.9562
iter: 190 08:16:15  -870.857569c -6.28  -4.32c   +62.9423
iter: 191 08:19:03  -870.856783c -6.19  -4.48c   +62.9651
iter: 192 08:21:53  -870.856080c -5.97  -4.27c   +62.9829
iter: 193 08:24:42  -870.857591c -5.58  -4.14c   +62.9468
iter: 194 08:27:31  -870.855155c -5.16  -4.10c   +62.9955
iter: 195 08:30:20  -870.854044c -5.25  -4.02c   +63.0129
iter: 196 08:33:09  -870.856146c -5.26  -3.86    +62.9741
iter: 197 08:35:58  -870.854822c -5.64  -4.09c   +62.9885
iter: 198 08:38:48  -870.854029c -5.76  -3.90    +62.9924
iter: 199 08:41:37  -870.854539c -6.26  -3.86    +62.9758
iter: 200 08:44:26  -870.854680c -6.06  -3.90    +62.9739
iter: 201 08:47:15  -870.854871c -6.07  -3.69    +62.9597
iter: 202 08:50:04  -870.856262c -5.61  -3.91    +62.9488
iter: 203 08:52:54  -870.856576c -5.62  -3.57    +62.9452
iter: 204 08:55:43  -870.855883c -5.30  -3.65    +62.9439
iter: 205 08:58:32  -870.853974c -5.86  -3.67    +62.9516
iter: 206 09:01:21  -870.854387c -6.30  -3.90    +62.9206
iter: 207 09:04:09  -870.854725c -6.45  -4.18c   +62.9200
iter: 208 09:06:59  -870.855383c -6.25  -4.17c   +62.9092
iter: 209 09:09:48  -870.856163c -6.02  -4.18c   +62.8967
iter: 210 09:12:39  -870.857285c -5.89  -4.43c   +62.8781
iter: 211 09:15:30  -870.858000c -5.89  -4.24c   +62.8711
iter: 212 09:18:20  -870.857539c -6.94  -4.51c   +62.8752
iter: 213 09:21:11  -870.857187c -6.66  -4.53c   +62.8763
iter: 214 09:24:01  -870.858117c -6.17  -4.63c   +62.8678
iter: 215 09:26:53  -870.858510c -6.49  -4.54c   +62.8613
iter: 216 09:29:43  -870.856365c -5.37  -4.44c   +62.8980
iter: 217 09:32:35  -870.850398c -4.18  -4.41c   +63.0356
iter: 218 09:35:26  -870.863860c -3.82  -3.70    +62.7989
iter: 219 09:38:15  -870.850892c -3.94  -3.88    +63.0107
iter: 220 09:41:04  -870.847172c -4.23  -3.74    +63.0841
iter: 221 09:43:52  -870.856865c -3.87  -3.52    +62.9219
iter: 222 09:46:41  -870.879720c -3.62  -4.47c   +62.7687
iter: 223 09:49:30  -870.851477c -3.51  -3.48    +62.9964
iter: 224 09:52:19  -870.840807c -3.64  -3.75    +63.1151
iter: 225 09:55:08  -870.856101c -3.65  -3.38    +62.9471
iter: 226 09:57:56  -870.870171c -3.80  -4.24c   +62.8777
iter: 227 10:00:44  -870.851472c -3.72  -3.64    +62.9908
iter: 228 10:03:34  -870.849882c -4.43  -3.75    +62.9850
iter: 229 10:06:23  -870.852345c -4.94  -3.60    +62.9615
iter: 230 10:09:12  -870.863919c -3.85  -3.81    +62.9065
iter: 231 10:11:59  -870.848824c -3.64  -3.84    +62.9731
iter: 232 10:14:48  -870.879223c -3.33  -3.54    +62.8712
iter: 233 10:17:36  -870.847122c -3.26  -3.47    +62.9524
iter: 234 10:20:25  -870.853201c -4.40  -3.46    +62.8930
iter: 235 10:23:14  -870.859208c -4.25  -3.92    +62.8577
iter: 236 10:26:03  -870.853874c -4.71  -4.27c   +62.8776
iter: 237 10:28:52  -870.852176c -4.77  -4.00c   +62.8815
iter: 238 10:31:41  -870.855386c -4.67  -3.74    +62.8694
iter: 239 10:34:30  -870.861208c -4.43  -4.25c   +62.8579
iter: 240 10:37:19  -870.851795c -3.96  -4.07c   +62.8760
iter: 241 10:40:08  -870.848892c -4.06  -3.68    +62.8660
iter: 242 10:42:57  -870.856645c -3.77  -3.44    +62.8943
iter: 243 10:45:45  -870.888222c -3.43  -4.71c   +62.9464
iter: 244 10:48:34  -870.852481c -3.41  -3.36    +62.8715
iter: 245 10:51:24  -870.850246c -3.90  -3.77    +62.8375
iter: 246 10:54:13  -870.856207c -3.94  -3.48    +62.8937
iter: 247 10:57:03  -870.889532c -3.41  -4.49c   +62.9890
iter: 248 10:59:52  -870.851947c -3.32  -3.34    +62.8504
iter: 249 11:02:41  -870.846781c -3.58  -3.67    +62.7737
iter: 250 11:05:29  -870.855691c -3.62  -3.33    +62.8962
iter: 251 11:08:18  -870.875934c -3.59  -4.32c   +63.0008
iter: 252 11:11:06  -870.852313c -3.50  -3.51    +62.8299
iter: 253 11:13:55  -870.848522c -3.70  -3.63    +62.7190
iter: 254 11:16:43  -870.855666c -3.63  -3.34    +62.8998
iter: 255 11:19:32  -870.883216c -3.43  -4.30c   +63.0837
iter: 256 11:22:21  -870.852161c -3.35  -3.40    +62.8037
iter: 257 11:25:10  -870.848443c -3.62  -3.60    +62.6578
iter: 258 11:27:59  -870.855002c -3.63  -3.32    +62.8874
iter: 259 11:30:49  -870.875280c -3.54  -4.11c   +63.0822
iter: 260 11:33:38  -870.852529c -3.43  -3.51    +62.7711
iter: 261 11:36:26  -870.849639c -3.70  -3.56    +62.6007
iter: 262 11:39:15  -870.854576c -3.67  -3.31    +62.8731
iter: 263 11:42:03  -870.875458c -3.49  -3.99    +63.1269
iter: 264 11:44:52  -870.852593c -3.40  -3.50    +62.7339
iter: 265 11:47:41  -870.849926c -3.68  -3.54    +62.5322
iter: 266 11:50:29  -870.854268c -3.66  -3.30    +62.8542
iter: 267 11:53:18  -870.870919c -3.55  -3.91    +63.1212
iter: 268 11:56:08  -870.853061c -3.47  -3.59    +62.7049
iter: 269 11:58:57  -870.852364c -3.88  -3.53    +62.5246
iter: 270 12:01:46  -870.854123c -3.83  -3.34    +62.8311
iter: 271 12:04:35  -870.877825c -3.39  -3.85    +63.2306
iter: 272 12:07:24  -870.853069c -3.32  -3.45    +62.6608
iter: 273 12:10:13  -870.852321c -3.74  -3.51    +62.4351
iter: 274 12:13:02  -870.854017c -3.78  -3.31    +62.7970
iter: 275 12:15:51  -870.866513c -3.61  -3.79    +63.1120
iter: 276 12:18:40  -870.853618c -3.57  -3.70    +62.6446
iter: 277 12:21:29  -870.853894c -4.04  -3.52    +62.4626
iter: 278 12:24:18  -870.854097c -3.99  -3.37    +62.7774
iter: 279 12:27:07  -870.880725c -3.31  -3.78    +63.3274
iter: 280 12:29:56  -870.853563c -3.28  -3.40    +62.6012
iter: 281 12:32:44  -870.854310c -3.86  -3.51    +62.3890
iter: 282 12:35:33  -870.854077c -4.02  -3.34    +62.7177
iter: 283 12:38:22  -870.863437c -3.68  -3.70    +63.0705
iter: 284 12:41:10  -870.854224c -3.67  -3.84    +62.5806
iter: 285 12:43:58  -870.854991c -4.16  -3.52    +62.4022
iter: 286 12:46:47  -870.854251c -4.12  -3.39    +62.7134
iter: 287 12:49:36  -870.877207c -3.36  -3.73    +63.3180
iter: 288 12:52:24  -870.854217c -3.34  -3.45    +62.5417
iter: 289 12:55:13  -870.855693c -4.00  -3.52    +62.3432
iter: 290 12:58:02  -870.854415c -4.25  -3.37    +62.6310
iter: 291 13:00:51  -870.859893c -3.82  -3.64    +62.9744
iter: 292 13:03:41  -870.854705c -3.90  -4.16c   +62.5424
iter: 293 13:06:31  -870.855810c -4.40  -3.56    +62.3889
iter: 294 13:09:21  -870.854617c -4.35  -3.44    +62.6597
iter: 295 13:12:10  -870.879480c -3.33  -3.72    +63.3799
iter: 296 13:15:01  -870.854672c -3.35  -3.41    +62.5134
iter: 297 13:17:51  -870.855831c -4.22  -3.55    +62.3672
iter: 298 13:20:40  -870.855092c -5.02  -3.44    +62.5032
iter: 299 13:23:27  -870.855498c -4.37  -3.57    +62.6992
iter: 300 13:26:17  -870.855329c -5.94  -3.90    +62.6486
iter: 301 13:29:07  -870.855341c -6.01  -3.84    +62.5959
iter: 302 13:31:58  -870.855381c -6.31  -3.70    +62.6067
iter: 303 13:34:49  -870.855732c -6.42  -3.78    +62.6058
iter: 304 13:37:39  -870.858929c -5.27  -3.77    +62.6036
iter: 305 13:40:30  -870.859299c -4.74  -3.37    +62.6025
iter: 306 13:43:21  -870.853410c -5.26  -3.39    +62.5837
iter: 307 13:46:12  -870.854628c -5.53  -3.82    +62.5889
iter: 308 13:49:03  -870.853099c -5.97  -3.72    +62.5958
iter: 309 13:51:54  -870.853800c -6.07  -4.03c   +62.5921
iter: 310 13:54:44  -870.854428c -6.36  -4.07c   +62.5917
iter: 311 13:57:35  -870.855645c -5.88  -4.25c   +62.6046
iter: 312 14:00:24  -870.857042c -5.81  -4.25c   +62.6142
iter: 313 14:03:15  -870.855284c -5.89  -4.12c   +62.6007
iter: 314 14:06:05  -870.852608c -5.03  -4.35c   +62.5719
iter: 315 14:08:56  -870.853393c -6.50  -3.90    +62.5705
iter: 316 14:11:46  -870.855480c -5.32  -4.00    +62.5718
iter: 317 14:14:37  -870.854204c -6.08  -4.26c   +62.5698
iter: 318 14:17:27  -870.854202c -7.40c -4.10c   +62.5675

Converged after 318 iterations.

Dipole moment: (-10.302119, 7.991119, 9.148413) |e|*Ang

Total magnetic moment: (0.000000, 0.000000, 62.567514)
Local magnetic moments:
   0 Cr ( 0.000000,  0.000000, -1.383561)
   1 Cr ( 0.000000,  0.000000,  0.978142)
   2 Fe ( 0.000000,  0.000000,  2.067552)
   3 Ni ( 0.000000,  0.000000,  0.329773)
   4 Fe ( 0.000000,  0.000000,  2.486715)
   5 Co ( 0.000000,  0.000000,  1.014568)
   6 Co ( 0.000000,  0.000000,  1.233057)
   7 Ni ( 0.000000,  0.000000,  0.284547)
   8 Ni ( 0.000000,  0.000000,  0.359383)
   9 Co ( 0.000000,  0.000000,  1.248901)
  10 Cr ( 0.000000,  0.000000, -1.485940)
  11 Co ( 0.000000,  0.000000,  0.668147)
  12 Fe ( 0.000000,  0.000000,  1.922435)
  13 Ni ( 0.000000,  0.000000,  0.282283)
  14 Cr ( 0.000000,  0.000000,  0.413383)
  15 Co ( 0.000000,  0.000000,  1.083963)
  16 Cr ( 0.000000,  0.000000, -1.072141)
  17 Co ( 0.000000,  0.000000,  0.671170)
  18 Fe ( 0.000000,  0.000000,  2.170195)
  19 Cr ( 0.000000,  0.000000, -0.761902)
  20 Al ( 0.000000,  0.000000, -0.018938)
  21 Ni ( 0.000000,  0.000000,  0.111373)
  22 Cr ( 0.000000,  0.000000, -1.618254)
  23 Fe ( 0.000000,  0.000000,  1.617753)
  24 Cr ( 0.000000,  0.000000, -1.433896)
  25 Ni ( 0.000000,  0.000000,  0.276673)
  26 Co ( 0.000000,  0.000000,  1.122611)
  27 Co ( 0.000000,  0.000000,  1.162335)
  28 Ni ( 0.000000,  0.000000,  0.319026)
  29 Cr ( 0.000000,  0.000000, -0.619301)
  30 Cr ( 0.000000,  0.000000, -0.806085)
  31 Ni ( 0.000000,  0.000000,  0.230327)
  32 Cr ( 0.000000,  0.000000,  1.160758)
  33 Co ( 0.000000,  0.000000,  0.975009)
  34 Co ( 0.000000,  0.000000,  1.245021)
  35 Co ( 0.000000,  0.000000,  0.668993)
  36 Ni ( 0.000000,  0.000000,  0.331838)
  37 Fe ( 0.000000,  0.000000,  2.358117)
  38 Fe ( 0.000000,  0.000000,  2.238919)
  39 Co ( 0.000000,  0.000000,  1.098155)
  40 Ni ( 0.000000,  0.000000,  0.204250)
  41 Fe ( 0.000000,  0.000000,  1.768626)
  42 Co ( 0.000000,  0.000000, -0.117936)
  43 Al ( 0.000000,  0.000000, -0.025004)
  44 Ni ( 0.000000,  0.000000,  0.186345)
  45 Cr ( 0.000000,  0.000000,  0.840277)
  46 Co ( 0.000000,  0.000000,  1.124755)
  47 Fe ( 0.000000,  0.000000,  1.932165)
  48 Ni ( 0.000000,  0.000000,  0.270346)
  49 Co ( 0.000000,  0.000000,  1.070834)
  50 Ni ( 0.000000,  0.000000,  0.229542)
  51 Fe ( 0.000000,  0.000000,  2.094130)
  52 Cr ( 0.000000,  0.000000, -1.613898)
  53 Al ( 0.000000,  0.000000, -0.032677)
  54 Co ( 0.000000,  0.000000,  0.320807)
  55 Ni ( 0.000000,  0.000000,  0.146721)
  56 Ni ( 0.000000,  0.000000,  0.245989)
  57 Ni ( 0.000000,  0.000000,  0.214735)
  58 Cr ( 0.000000,  0.000000, -1.744713)
  59 Fe ( 0.000000,  0.000000,  2.213860)
[...]
  93 Ni ( 0.000000,  0.000000,  0.137590)
  94 Al ( 0.000000,  0.000000, -0.036010)
  95 Fe ( 0.000000,  0.000000,  1.784273)
  96 Fe ( 0.000000,  0.000000,  2.254337)
  97 Fe ( 0.000000,  0.000000,  2.110971)
  98 Co ( 0.000000,  0.000000,  1.323368)
  99 Ni ( 0.000000,  0.000000,  0.605920)
 100 Co ( 0.000000,  0.000000,  1.392110)
 101 Fe ( 0.000000,  0.000000,  2.421324)
 102 Co ( 0.000000,  0.000000,  0.880060)
 103 Cr ( 0.000000,  0.000000, -1.491737)
 104 Co ( 0.000000,  0.000000,  0.897225)
 105 Al ( 0.000000,  0.000000, -0.014424)
 106 Cr ( 0.000000,  0.000000, -1.634726)
 107 Ni ( 0.000000,  0.000000,  0.205476)

Energy contributions relative to reference atoms: (reference = -3699400.456887)

Kinetic:       +142.099580
Potential:     -192.762096
External:        +0.000000
XC:            -855.718887
Entropy (-ST):   -4.526978
Local:          +37.790690
Free energy:   -873.117691
Extrapolated:  -870.854202

Spin contamination: 28.711961 electrons
Showing only first 2 kpts
                      Up                     Down
 Kpt  Band  Eigenvalues  Occupancy  Eigenvalues  Occupancy
  0   508      9.64787    0.99394     10.53326    0.02290
  0   509      9.65328    0.99361     10.53988    0.02147
  0   510      9.66739    0.99265     10.55330    0.01882
  0   511      9.67874    0.99177     10.57550    0.01513

  1   508      9.65366    0.99359     10.53217    0.02315
  1   509      9.66741    0.99265     10.54369    0.02068
  1   510      9.67123    0.99236     10.55195    0.01907
  1   511      9.68508    0.99124     10.56134    0.01739

Fermi level: 10.15793

No gap

Forces in eV/Ang:
  0 Cr    0.13186    0.04712    0.14483
  1 Cr    0.03488   -0.20381    0.20999
  2 Fe   -0.23832    0.29656    0.21697
  3 Ni   -0.18567   -0.12048    0.05007
  4 Fe    0.40608    0.41257   -0.21772
  5 Co    0.02485    0.14146    0.22074
  6 Co    0.07655   -0.18641   -0.07263
  7 Ni   -0.08700   -0.43059    0.02090
  8 Ni   -0.27333   -0.03102    0.09900
  9 Co    0.08231   -0.13354    0.06812
 10 Cr   -0.10458    0.39618   -0.07175
 11 Co    0.15415   -0.51625    0.63608
 12 Fe    0.20143   -0.06696    0.42010
 13 Ni   -0.00545    0.05747   -0.12137
 14 Cr    0.12440   -0.50641   -0.23904
 15 Co    0.08216    0.07863    0.04155
 16 Cr   -0.14524   -0.32300    0.09814
 17 Co    0.06758   -0.11723    0.14525
 18 Fe   -0.59920   -0.03500    0.29245
 19 Cr   -0.43707    0.78656   -0.11912
 20 Al   -0.45252   -0.51691    0.32345
 21 Ni    0.03189    0.45006   -0.33678
 22 Cr    0.89405   -0.60002    0.66948
 23 Fe    0.15723    0.89670    0.44627
 24 Cr   -0.08656    0.13388    0.52873
 25 Ni   -0.13570    0.19604   -0.29541
 26 Co    0.04264   -0.03685   -0.15529
 27 Co   -0.11975   -0.00358    0.17835
 28 Ni    0.08344   -0.05831   -0.21402
 29 Cr    0.24072    0.09864   -0.35014
 30 Cr    0.32482   -0.03435    0.22428
 31 Ni    0.26047    0.10319   -0.02339
 32 Cr    0.21417   -0.34243    0.80389
 33 Co    0.01615   -0.12134   -0.39784
 34 Co   -0.36364    0.21625   -0.43357
 35 Co   -0.00118   -0.22546    0.40124
 36 Ni   -0.03231    0.18139   -0.25986
 37 Fe    0.05514   -0.18514   -0.27621
 38 Fe    0.13349   -0.09498   -0.24452
 39 Co   -0.03608   -0.02757   -0.25236
 40 Ni    0.21195    0.22583    0.07138
 41 Fe   -0.12784   -0.00377    0.12320
 42 Co    0.06684   -0.45139    0.10321
 43 Al    0.00543   -0.39117   -0.57253
 44 Ni   -0.16326   -0.10913    0.13131
 45 Cr    0.25861   -0.46263    0.65547
 46 Co   -0.22305   -0.30419    0.16550
 47 Fe   -0.17769    0.02053   -0.29657
 48 Ni    0.12583   -0.10708   -0.26351
 49 Co    0.04066    0.05334    0.07643
 50 Ni   -0.12133   -0.17988   -0.12720
 51 Fe   -0.10898   -0.02450   -0.11906
 52 Cr   -0.23553   -0.52849   -1.04009
 53 Al    0.19944    0.70346   -0.19631
 54 Co   -0.01207   -0.21605    0.00989
 55 Ni    0.02918   -0.15639   -0.26325
 56 Ni   -0.21039   -0.03112   -0.07540
 57 Ni   -0.11149    0.01604    0.02101
 58 Cr    0.32507    0.20853   -0.08038
 59 Fe    0.09379   -0.09136   -0.10464
[...]
 93 Ni    0.18963    0.45722    0.31099
 94 Al    0.55826   -0.32913   -0.43142
 95 Fe   -0.17522    0.21387   -0.23629
 96 Fe   -0.05666    0.03621   -0.21836
 97 Fe    0.25606   -0.11692    0.22869
 98 Co   -0.00749   -0.12316    0.10242
 99 Ni   -0.08924    0.14946    0.00518
100 Co    0.02321    0.45188    0.31833
101 Fe    0.27494    0.05828   -0.14140
102 Co    0.02551   -0.27751    0.20910
103 Cr   -0.36858    0.33074   -0.61019
104 Co   -0.06691    0.01654   -0.28831
105 Al   -0.55069    0.19143    0.67848
106 Cr    0.02853   -0.90751   -0.14981
107 Ni   -0.18224    0.15803   -0.44196

Date: Sun Apr 16 14:17:50 2023