User:   c.zeng@d0064
Date:   Thu Apr 13 19:34:44 2023
Arch:   x86_64
Pid:    77888
CWD:    /home/c.zeng/projects/hea-corrosion/hea-mlp/data-curation/bulk-md/dft-jobs/18
Python: 3.8.1
gpaw:   /home/c.zeng/usr/installs/gpaw/source/gpaw-22.8.0/gpaw
_gpaw:  /home/c.zeng/usr/installs/gpaw/source/gpaw-22.8.0/
        _gpaw.cpython-38-x86_64-linux-gnu.so
ase:    /home/c.zeng/.local/lib/python3.8/site-packages/ase-3.22.1-py3.8.egg/ase (version 3.22.1)
numpy:  /shared/centos7/python/3.8.1/lib/python3.8/site-packages/numpy (version 1.17.4)
scipy:  /shared/centos7/python/3.8.1/lib/python3.8/site-packages/scipy (version 1.4.1)
units:  Angstrom and eV
cores: 30
OpenMP: False
OMP_NUM_THREADS: 1

Input parameters:
  convergence: {energy: 0.0001}
  kpts: [2 2 2]
  maxiter: 666
  mode: {ecut: 350.0,
         name: pw}
  occupations: {fixmagmom: False,
                name: fermi-dirac,
                width: 0.1}
  spinpol: True
  xc: PBE

System changes: positions, numbers, cell, pbc, initial_charges, initial_magmoms

Initialize ...

species:
  Co:
    name: Cobalt
    id: 339d20d5b0b93d2de9531a1bee871d91
    Z: 27.0
    valence: 9
    core: 18
    charge: 0.0
    file: /home/c.zeng/usr/data/gpaw-setups-0.9.20000/Co.PBE.gz
    compensation charges: {type: gauss,
                           rc: 0.32,
                           lmax: 2}
    cutoffs: {filter: 1.87,
              core: 2.55}
    valence states:
      #              energy  rcut
      - 4s(2.00)    -5.469   1.005
      - 4p(0.00)    -1.277   1.058
      - 3d(7.00)    -8.205   1.005
      -  s          21.742   1.005
      -  p          25.934   1.058
      -  d          19.007   1.005

    # Using partial waves for Co as LCAO basis

  Fe:
    name: Iron
    id: 37abbd8d6c3c35915a9b583b742da910
    Z: 26.0
    valence: 8
    core: 18
    charge: 0.0
    file: /home/c.zeng/usr/data/gpaw-setups-0.9.20000/Fe.PBE.gz
    compensation charges: {type: gauss,
                           rc: 0.33,
                           lmax: 2}
    cutoffs: {filter: 2.06,
              core: 2.67}
    valence states:
      #              energy  rcut
      - 4s(2.00)    -5.291   1.164
      - 4p(0.00)    -1.326   1.058
      - 3d(6.00)    -7.505   1.058
      -  s          21.920   1.164
      -  p          25.885   1.058
      -  d          19.706   1.058

[...]

  Cr:
    name: Chromium
    id: 33f258bda2ca9f93018e70263a35547b
    Z: 24.0
    valence: 6
    core: 18
    charge: 0.0
    file: /home/c.zeng/usr/data/gpaw-setups-0.9.20000/Cr.PBE.gz
    compensation charges: {type: gauss,
                           rc: 0.35,
                           lmax: 2}
    cutoffs: {filter: 2.14,
              core: 3.04}
    valence states:
      #              energy  rcut
      - 4s(1.00)    -4.007   1.164
      - 4p(0.00)    -0.989   1.217
      - 3d(5.00)    -2.913   1.111
      -  s          23.205   1.164
      -  p          26.223   1.217
      -  d          24.299   1.111

[...]

  Ni:
    name: Nickel
    id: 0d9f38a9d6e76a2886f07bb4381f212b
    Z: 28.0
    valence: 16
    core: 12
    charge: 0.0
    file: /home/c.zeng/usr/data/gpaw-setups-0.9.20000/Ni.PBE.gz
    compensation charges: {type: gauss,
                           rc: 0.36,
                           lmax: 2}
    cutoffs: {filter: 2.14,
              core: 1.98}
    valence states:
      #              energy  rcut
      - 4s(2.00)    -5.642   1.164
      - 3p(6.00)   -71.394   1.207
      - 4p(0.00)    -1.226   1.207
      - 3d(8.00)    -8.875   1.138
      -  s          21.570   1.164
      -  d          18.337   1.138

    # Using partial waves for Ni as LCAO basis

Reference energy: -3846758.590871  # eV

Spin-polarized calculation.
Magnetic moment: 151.200000

Convergence criteria:
 Maximum [total energy] change in last 3 cyles: 0.0001 eV / electron
 Maximum integral of absolute [dens]ity change: 0.0001 electrons / valence electron
 Maximum integral of absolute [eigenst]ate change: 4e-08 eV^2 / valence electron
 Maximum number of scf [iter]ations: 666
 (Square brackets indicate name in SCF output, whereas a 'c' in
 the SCF output indicates the quantity has converged.)

Symmetries present (total): 1

  ( 1  0  0)
  ( 0  1  0)
  ( 0  0  1)

8 k-points: 2 x 2 x 2 Monkhorst-Pack grid
4 k-points in the irreducible part of the Brillouin zone
       k-points in crystal coordinates                weights
   0:     0.25000000   -0.25000000   -0.25000000          2/8
   1:     0.25000000   -0.25000000    0.25000000          2/8
   2:     0.25000000    0.25000000   -0.25000000          2/8
   3:     0.25000000    0.25000000    0.25000000          2/8

Wave functions: Plane wave expansion
  Cutoff energy: 350.000 eV
  Number of coefficients (min, max): 17755, 17755
  Pulay-stress correction: 0.000000 eV/Ang^3 (de/decut=0.000000)
  Using FFTW library
  ScaLapack parameters: grid=1x1, blocksize=None
  Wavefunction extrapolation:
    Improved wavefunction reuse through dual PAW basis

Occupation numbers: Fermi-Dirac:
  width: 0.1000  # eV

Eigensolver
   Davidson(niter=2)

Densities:
  Coarse grid: 48*48*48 grid
  Fine grid: 96*96*96 grid
  Total Charge: 0.000000

Density mixing:
  Method: difference
  Backend: pulay
  Linear mixing parameter: 0.05
  old densities: 5
  Damping of long wavelength oscillations: 50

Hamiltonian:
  XC and Coulomb potentials evaluated on a 96*96*96 grid
  Using the PBE Exchange-Correlation functional
  External potential:
    NoExternalPotential

XC parameters: PBE with 2 nearest neighbor stencil

Total number of cores used: 30
Parallelization over k-points: 2
Domain decomposition: 5 x 3 x 1

Number of atoms: 108
Number of atomic orbitals: 1053
Number of bands in calculation: 727
Number of valence electrons: 1053
Bands to converge: occupied

... initialized

Initializing position-dependent things.

Density initialized from atomic densities
Creating initial wave functions:
  727 bands from LCAO basis set

        .-------------------------Co
       /|           Co            |
      / |   Fe               Cr   |
     / Co       Cr     Cro        |
    /   |  Fe    Cr               |
   /r   |   Cr    Fe       Crr    |
  /  CFe|    FeCr  Co NiiCo       |
 *     Cr Cr  CoNNi   Cr  Ni Ni   |
 |      |NiCo     CoFe  CoCrCo    |
 | Cr   | FeCr Fe  CNi Co  Cr     |
 |   NiCr  Ni FCr   NiFNi   Ni    |
 |      Fe     FeFeNiCoFCo Co  Ni |
 |      |Co Co Cr Ni    NiNi    Co|
 |  CCr .-CrCo-----FeNi----Ni-----.
 |     Fe  CrCo       Ni      Fe /
 |    / CFe    Fe       Co      /
 Feo /e   Fe    NiFe     Cor   /
 |  /     Cr        Ni        /
 | / Fe     Ni      Co Ni    /
 *-----------------Fe------*

Positions:
   0 Co    -0.109458   -0.107515   10.484283    ( 0.0000,  0.0000,  2.1000)
   1 Co     0.103003    1.852506    1.871474    ( 0.0000,  0.0000,  2.1000)
   2 Fe     1.700296    0.049590    1.833510    ( 0.0000,  0.0000,  2.0000)
   3 Fe     1.508575    1.873129   10.575852    ( 0.0000,  0.0000,  2.0000)
   4 Cr     3.535350    0.183935   10.495029    ( 0.0000,  0.0000,  0.0000)
   5 Cr     3.397602    1.785384    1.778095    ( 0.0000,  0.0000,  0.0000)
   6 Co     5.166334   10.487628    1.718440    ( 0.0000,  0.0000,  2.1000)
   7 Cr     5.206636    1.817903   10.527183    ( 0.0000,  0.0000,  0.0000)
   8 Fe     7.129625    0.196056   10.859161    ( 0.0000,  0.0000,  2.0000)
   9 Ni     7.114124    1.971904    1.733828    ( 0.0000,  0.0000,  1.5000)
  10 Ni     8.760108    0.126816    1.854111    ( 0.0000,  0.0000,  1.5000)
  11 Co     9.113511    1.808413   10.587392    ( 0.0000,  0.0000,  2.1000)
  12 Cr    10.641013    3.634141   -0.024170    ( 0.0000,  0.0000,  0.0000)
  13 Fe    10.552875    5.147667    1.863287    ( 0.0000,  0.0000,  2.0000)
  14 Cr     1.885561    3.723253    1.918609    ( 0.0000,  0.0000,  0.0000)
  15 Fe     2.050574    5.319277   10.630972    ( 0.0000,  0.0000,  2.0000)
  16 Ni     3.480687    3.443014   10.634579    ( 0.0000,  0.0000,  1.5000)
  17 Co     3.615104    5.391803    1.885919    ( 0.0000,  0.0000,  2.1000)
  18 Ni     5.072151    3.519519    1.566207    ( 0.0000,  0.0000,  1.5000)
  19 Cr     5.339458    5.300372   10.694181    ( 0.0000,  0.0000,  0.0000)
  20 Co     6.929524    3.444896   10.685055    ( 0.0000,  0.0000,  2.1000)
  21 Ni     7.189561    5.353294    2.068970    ( 0.0000,  0.0000,  1.5000)
  22 Co     8.818605    3.540333    1.706139    ( 0.0000,  0.0000,  2.1000)
  23 Cr     8.582802    5.318953    0.047044    ( 0.0000,  0.0000,  0.0000)
  24 Fe     0.009456    6.708685   10.655426    ( 0.0000,  0.0000,  2.0000)
  25 Co    10.463995    8.896901    1.716459    ( 0.0000,  0.0000,  2.1000)
  26 Cr     1.668076    6.935743    1.943891    ( 0.0000,  0.0000,  0.0000)
  27 Cr     1.651495    8.735246   10.670564    ( 0.0000,  0.0000,  0.0000)
  28 Fe     3.697335    7.109142   10.787533    ( 0.0000,  0.0000,  2.0000)
  29 Cr     3.383020    8.968153    1.963221    ( 0.0000,  0.0000,  0.0000)
  30 Co     5.483143    7.078699    1.650234    ( 0.0000,  0.0000,  2.1000)
  31 Co     5.318344    8.973233   10.491597    ( 0.0000,  0.0000,  2.1000)
  32 Cr     6.936945    6.960840   10.443904    ( 0.0000,  0.0000,  0.0000)
  33 Ni     7.170523    8.742009    1.769795    ( 0.0000,  0.0000,  1.5000)
  34 Ni     8.942749    6.942664    1.859954    ( 0.0000,  0.0000,  1.5000)
  35 Cr     9.009068    8.654300   10.241656    ( 0.0000,  0.0000,  0.0000)
  36 Fe     0.079428   10.702990    3.581651    ( 0.0000,  0.0000,  2.0000)
  37 Ni    10.314916    1.666905    5.161714    ( 0.0000,  0.0000,  1.5000)
  38 Cr     1.782815    0.013540    5.369082    ( 0.0000,  0.0000,  0.0000)
  39 Fe     1.812487    1.954347    3.649833    ( 0.0000,  0.0000,  2.0000)
  40 Fe     3.377249    0.029082    3.819070    ( 0.0000,  0.0000,  2.0000)
  41 Co     3.862132    1.881675    5.251717    ( 0.0000,  0.0000,  2.1000)
  42 Cr     5.587413   -0.050664    5.221174    ( 0.0000,  0.0000,  0.0000)
  43 Fe     5.215090    1.909437    3.421941    ( 0.0000,  0.0000,  2.0000)
  44 Fe     6.897803    0.073816    3.263225    ( 0.0000,  0.0000,  2.0000)
  45 Fe     7.014684    1.638923    5.089376    ( 0.0000,  0.0000,  2.0000)
  46 Ni     8.519216   -0.040184    5.036934    ( 0.0000,  0.0000,  1.5000)
  47 Co     8.975227    1.779622    3.375777    ( 0.0000,  0.0000,  2.1000)
  48 Cr     0.092410    3.634942    3.922990    ( 0.0000,  0.0000,  0.0000)
  49 Ni     0.119019    5.428493    5.551233    ( 0.0000,  0.0000,  1.5000)
  50 Fe     2.046856    3.621311    5.356077    ( 0.0000,  0.0000,  2.0000)
  51 Co     1.755077    5.266726    3.614184    ( 0.0000,  0.0000,  2.1000)
  52 Co     3.567356    3.574984    3.593240    ( 0.0000,  0.0000,  2.1000)
  53 Fe     3.755244    5.377792    5.136760    ( 0.0000,  0.0000,  2.0000)
  54 Fe     5.439405    3.584082    5.364019    ( 0.0000,  0.0000,  2.0000)
  55 Ni     5.418311    4.953107    3.508925    ( 0.0000,  0.0000,  1.5000)
  56 Ni     7.229339    3.331341    3.538630    ( 0.0000,  0.0000,  1.5000)
  57 Fe     7.058091    5.269627    5.229147    ( 0.0000,  0.0000,  2.0000)
  58 Co     8.654641    3.474947    5.469127    ( 0.0000,  0.0000,  2.1000)
  59 Ni     8.738554    5.485649    3.599616    ( 0.0000,  0.0000,  1.5000)
[...]
  93 Ni     7.143266    5.266084    8.984202    ( 0.0000,  0.0000,  1.5000)
  94 Ni     9.195679    3.690035    8.604512    ( 0.0000,  0.0000,  1.5000)
  95 Cr     8.787455    5.312570    6.813178    ( 0.0000,  0.0000,  0.0000)
  96 Ni     0.114341    7.126140    7.272510    ( 0.0000,  0.0000,  1.5000)
  97 Co     0.269590    8.689702    8.825958    ( 0.0000,  0.0000,  2.1000)
  98 Fe     2.263839    7.187041    8.944847    ( 0.0000,  0.0000,  2.0000)
  99 Cr     1.974628    8.821754    7.312749    ( 0.0000,  0.0000,  0.0000)
 100 Co     3.621608    6.804096    6.961393    ( 0.0000,  0.0000,  2.1000)
 101 Cr     3.774268    8.990280    8.858314    ( 0.0000,  0.0000,  0.0000)
 102 Fe     5.169660    6.998084    8.775462    ( 0.0000,  0.0000,  2.0000)
 103 Co     5.150771    8.834698    6.914167    ( 0.0000,  0.0000,  2.1000)
 104 Ni     7.034197    7.410143    7.305091    ( 0.0000,  0.0000,  1.5000)
 105 Co     7.096441    9.126708    8.874462    ( 0.0000,  0.0000,  2.1000)
 106 Cr     8.850967    6.859178    8.825253    ( 0.0000,  0.0000,  0.0000)
 107 Cr     8.744337    8.993525    7.079950    ( 0.0000,  0.0000,  0.0000)

Unit cell:
           periodic     x           y           z      points  spacing
  1. axis:    yes   10.614300    0.000000    0.000000    48     0.2211
  2. axis:    yes    0.000000   10.614300    0.000000    48     0.2211
  3. axis:    yes    0.000000    0.000000   10.614300    48     0.2211

  Lengths:  10.614300  10.614300  10.614300
  Angles:   90.000000  90.000000  90.000000

Effective grid spacing dv^(1/3) = 0.2211

     iter     time        total  log10-change:  magmom
                         energy  eigst   dens
iter:   1 19:41:18 -1067.492774                  +151.4734
iter:   2 19:44:22  -939.211286  -0.28  -1.20    +85.6439
iter:   3 19:47:26  -933.744306  -0.89  -1.23    +68.6906
iter:   4 19:50:29  -914.205366  -1.19  -1.29    +64.6478
iter:   5 19:53:33  -892.311956  -1.63  -1.29    +58.6485
iter:   6 19:56:37  -888.836328  -1.37  -1.38    +58.5316
iter:   7 19:59:40  -899.296466  -1.18  -1.48    +56.9474
iter:   8 20:02:44  -871.852003  -1.54  -1.50    +54.4054
iter:   9 20:05:48  -871.815342  -2.12  -1.80    +55.1719
iter:  10 20:08:51  -870.496325  -2.31  -1.81    +56.6237
iter:  11 20:11:55  -870.380646  -2.60  -1.87    +58.7512
iter:  12 20:14:59  -870.968606  -2.68  -1.91    +60.6729
iter:  13 20:18:02  -872.858592  -2.51  -1.95    +62.0875
iter:  14 20:21:07  -873.274175  -2.38  -1.95    +62.9948
iter:  15 20:24:05  -872.256149  -2.57  -1.98    +63.7278
iter:  16 20:27:08  -872.502062  -2.65  -2.10    +64.3262
iter:  17 20:30:12  -872.147241  -2.82  -2.14    +65.0245
iter:  18 20:33:16  -871.819491  -3.09  -2.18    +66.0498
iter:  19 20:36:19  -872.150683  -3.22  -2.26    +66.3530
iter:  20 20:39:23  -872.346753  -2.97  -2.26    +66.7601
iter:  21 20:42:26  -872.314905  -2.94  -2.29    +66.9301
iter:  22 20:45:30  -871.994991  -3.13  -2.29    +67.3627
iter:  23 20:48:34  -872.520502  -3.01  -2.44    +67.4085
iter:  24 20:51:38  -871.931520  -3.21  -2.31    +67.5140
iter:  25 20:54:42  -872.008250  -3.41  -2.54    +68.1684
iter:  26 20:57:46  -871.894132  -3.69  -2.52    +68.3394
iter:  27 21:00:50  -871.998117  -3.65  -2.66    +68.5019
iter:  28 21:03:54  -871.875685  -4.02  -2.59    +68.4459
iter:  29 21:06:58  -871.925157  -4.13  -2.74    +68.6468
iter:  30 21:10:01  -871.910491c -4.33  -2.72    +68.6670
iter:  31 21:13:05  -871.974411c -4.14  -2.78    +68.6513
iter:  32 21:16:09  -871.946810c -4.18  -2.75    +68.6558
iter:  33 21:19:13  -872.053377  -3.87  -2.81    +68.7092
iter:  34 21:22:16  -871.994099  -3.95  -2.74    +68.7904
iter:  35 21:25:05  -872.004455c -4.06  -2.82    +68.6917
iter:  36 21:27:50  -871.975039c -4.30  -2.81    +68.6294
iter:  37 21:30:34  -871.976023c -4.41  -2.93    +68.6867
iter:  38 21:33:20  -871.973285c -4.70  -2.94    +68.7019
iter:  39 21:36:04  -871.974845c -5.04  -3.00    +68.6898
iter:  40 21:39:33  -871.998653c -4.54  -3.04    +68.6246
iter:  41 21:42:42  -871.995614c -4.62  -2.98    +68.6566
iter:  42 21:45:27  -872.003699c -4.50  -3.06    +68.6808
iter:  43 21:48:12  -872.014934c -4.45  -3.06    +68.6581
iter:  44 21:50:57  -872.018486c -4.32  -3.08    +68.6444
iter:  45 21:53:41  -871.998446c -4.64  -3.00    +68.6643
iter:  46 21:56:25  -871.996837c -4.94  -3.27    +68.7225
iter:  47 21:59:11  -871.994232c -5.37  -3.29    +68.6892
iter:  48 22:01:56  -871.996357c -5.83  -3.39    +68.6883
iter:  49 22:04:41  -872.000373c -5.54  -3.43    +68.6740
iter:  50 22:07:26  -872.011414c -4.62  -3.43    +68.6594
iter:  51 22:10:11  -872.022386c -4.45  -3.38    +68.6743
iter:  52 22:12:55  -872.021788c -5.37  -3.27    +68.7083
iter:  53 22:15:41  -872.023178c -5.35  -3.28    +68.7406
iter:  54 22:18:24  -872.022933c -6.09  -3.26    +68.7653
iter:  55 22:21:09  -872.023969c -5.56  -3.25    +68.7982
iter:  56 22:23:53  -872.028295c -4.89  -3.30    +68.7896
iter:  57 22:26:37  -872.024884c -4.92  -3.25    +68.7724
iter:  58 22:29:21  -872.034796c -4.78  -3.37    +68.7471
iter:  59 22:32:05  -872.020298c -5.26  -3.24    +68.7715
iter:  60 22:35:54  -872.020427c -5.71  -3.70    +68.7455
iter:  61 22:38:39  -872.019452c -5.77  -3.69    +68.7369
iter:  62 22:41:24  -872.019675c -6.17  -3.69    +68.7331
iter:  63 22:44:08  -872.019160c -6.30  -3.80    +68.7318
iter:  64 22:46:53  -872.018870c -6.18  -3.85    +68.7230
iter:  65 22:49:39  -872.019023c -6.19  -3.82    +68.7135
iter:  66 22:52:24  -872.019079c -6.48  -3.88    +68.7135
iter:  67 22:55:08  -872.019647c -6.15  -3.93    +68.7147
iter:  68 22:57:52  -872.018373c -6.19  -3.90    +68.7074
iter:  69 23:00:37  -872.018599c -6.39  -3.96    +68.6986
iter:  70 23:03:23  -872.018640c -6.67  -3.99    +68.7043
iter:  71 23:06:07  -872.018401c -6.50  -4.13c   +68.7055
iter:  72 23:08:52  -872.018210c -6.92  -4.05c   +68.7018
iter:  73 23:11:37  -872.018129c -7.12  -4.21c   +68.6943
iter:  74 23:14:21  -872.018560c -6.92  -4.28c   +68.6946
iter:  75 23:17:06  -872.018304c -6.93  -4.21c   +68.6935
iter:  76 23:19:51  -872.018121c -7.25  -4.24c   +68.6885
iter:  77 23:22:36  -872.018330c -7.03  -4.37c   +68.6858
iter:  78 23:25:22  -872.018286c -7.14  -4.26c   +68.6870
iter:  79 23:28:07  -872.018238c -7.55c -4.37c   +68.6887

Converged after 79 iterations.

Dipole moment: (-14.654017, -42.338316, 13.178830) |e|*Ang

Total magnetic moment: (0.000000, 0.000000, 68.688720)
Local magnetic moments:
   0 Co ( 0.000000,  0.000000,  1.194050)
   1 Co ( 0.000000,  0.000000,  1.376845)
   2 Fe ( 0.000000,  0.000000,  1.895939)
   3 Fe ( 0.000000,  0.000000,  1.837445)
   4 Cr ( 0.000000,  0.000000,  0.654318)
   5 Cr ( 0.000000,  0.000000, -1.085636)
   6 Co ( 0.000000,  0.000000,  1.088009)
   7 Cr ( 0.000000,  0.000000, -0.806339)
   8 Fe ( 0.000000,  0.000000,  2.580332)
   9 Ni ( 0.000000,  0.000000,  0.475410)
  10 Ni ( 0.000000,  0.000000,  0.657398)
  11 Co ( 0.000000,  0.000000,  1.556696)
  12 Cr ( 0.000000,  0.000000, -1.086469)
  13 Fe ( 0.000000,  0.000000,  1.850526)
  14 Cr ( 0.000000,  0.000000, -0.883589)
  15 Fe ( 0.000000,  0.000000,  2.029602)
  16 Ni ( 0.000000,  0.000000,  0.171787)
  17 Co ( 0.000000,  0.000000,  0.839942)
  18 Ni ( 0.000000,  0.000000,  0.217232)
  19 Cr ( 0.000000,  0.000000, -1.297981)
  20 Co ( 0.000000,  0.000000,  1.053267)
  21 Ni ( 0.000000,  0.000000,  0.389842)
  22 Co ( 0.000000,  0.000000,  1.347476)
  23 Cr ( 0.000000,  0.000000, -0.847007)
  24 Fe ( 0.000000,  0.000000,  1.992008)
  25 Co ( 0.000000,  0.000000,  1.374469)
  26 Cr ( 0.000000,  0.000000, -1.488619)
  27 Cr ( 0.000000,  0.000000, -1.458944)
  28 Fe ( 0.000000,  0.000000,  1.940982)
  29 Cr ( 0.000000,  0.000000, -1.669030)
  30 Co ( 0.000000,  0.000000,  1.125012)
  31 Co ( 0.000000,  0.000000,  0.976071)
  32 Cr ( 0.000000,  0.000000,  0.504308)
  33 Ni ( 0.000000,  0.000000,  0.485494)
  34 Ni ( 0.000000,  0.000000,  0.422646)
  35 Cr ( 0.000000,  0.000000, -1.782431)
  36 Fe ( 0.000000,  0.000000,  2.426641)
  37 Ni ( 0.000000,  0.000000,  0.384417)
  38 Cr ( 0.000000,  0.000000, -1.082391)
  39 Fe ( 0.000000,  0.000000,  1.813805)
  40 Fe ( 0.000000,  0.000000,  2.077201)
  41 Co ( 0.000000,  0.000000,  0.748645)
  42 Cr ( 0.000000,  0.000000, -1.616634)
  43 Fe ( 0.000000,  0.000000,  2.182406)
  44 Fe ( 0.000000,  0.000000,  2.377019)
  45 Fe ( 0.000000,  0.000000,  2.027860)
  46 Ni ( 0.000000,  0.000000,  0.513485)
  47 Co ( 0.000000,  0.000000,  1.445243)
  48 Cr ( 0.000000,  0.000000, -1.911511)
  49 Ni ( 0.000000,  0.000000,  0.043996)
  50 Fe ( 0.000000,  0.000000,  1.844754)
  51 Co ( 0.000000,  0.000000,  0.696047)
  52 Co ( 0.000000,  0.000000,  0.666697)
  53 Fe ( 0.000000,  0.000000,  2.200270)
  54 Fe ( 0.000000,  0.000000,  2.103020)
  55 Ni ( 0.000000,  0.000000,  0.556037)
  56 Ni ( 0.000000,  0.000000,  0.483529)
  57 Fe ( 0.000000,  0.000000,  2.026804)
  58 Co ( 0.000000,  0.000000,  1.049198)
  59 Ni ( 0.000000,  0.000000,  0.433478)
[...]
  93 Ni ( 0.000000,  0.000000,  0.127407)
  94 Ni ( 0.000000,  0.000000,  0.025642)
  95 Cr ( 0.000000,  0.000000, -1.436227)
  96 Ni ( 0.000000,  0.000000,  0.291303)
  97 Co ( 0.000000,  0.000000,  0.304904)
  98 Fe ( 0.000000,  0.000000,  1.566705)
  99 Cr ( 0.000000,  0.000000, -1.096710)
 100 Co ( 0.000000,  0.000000,  1.300509)
 101 Cr ( 0.000000,  0.000000, -0.551550)
 102 Fe ( 0.000000,  0.000000,  2.032067)
 103 Co ( 0.000000,  0.000000,  0.972999)
 104 Ni ( 0.000000,  0.000000,  0.302791)
 105 Co ( 0.000000,  0.000000,  1.074048)
 106 Cr ( 0.000000,  0.000000,  1.149128)
 107 Cr ( 0.000000,  0.000000, -1.575023)

Energy contributions relative to reference atoms: (reference = -3846758.590871)

Kinetic:       +410.660624
Potential:     -419.597805
External:        +0.000000
XC:            -900.357460
Entropy (-ST):   -4.655009
Local:          +39.603907
Free energy:   -874.345743
Extrapolated:  -872.018238

Spin contamination: 28.703918 electrons
Showing only first 2 kpts
                      Up                     Down
 Kpt  Band  Eigenvalues  Occupancy  Eigenvalues  Occupancy
  0   524      9.86465    0.99609     10.78615    0.02472
  0   525      9.87238    0.99577     10.79839    0.02193
  0   526      9.88133    0.99538     10.80964    0.01964
  0   527      9.89518    0.99470     10.83014    0.01606

  1   524      9.87422    0.99570     10.79475    0.02273
  1   525      9.87953    0.99546     10.81207    0.01918
  1   526      9.89596    0.99466     10.82084    0.01760
  1   527      9.90751    0.99401     10.82531    0.01684

Fermi level: 10.41862

No gap

Forces in eV/Ang:
  0 Co    0.31247    0.15230    0.65366
  1 Co   -0.16404    0.50284   -0.26706
  2 Fe    0.13165   -0.48573   -0.71362
  3 Fe    0.58254   -0.38327   -0.05490
  4 Cr   -0.84372   -0.94756    0.67656
  5 Cr   -0.12129   -0.97741    0.33103
  6 Co   -0.10678    0.66284    0.48795
  7 Cr    0.51932   -1.49513    1.06682
  8 Fe   -0.31767   -1.34014   -1.22707
  9 Ni   -0.86028   -1.33865    0.10510
 10 Ni    1.64201   -0.99656   -0.96518
 11 Co   -0.82404    0.24352   -0.00612
 12 Cr    0.00917    0.59560    0.02903
 13 Fe    0.63679   -0.05447    0.43150
 14 Cr   -0.34800   -0.46486   -0.86354
 15 Fe   -0.94777   -0.00842   -0.12073
 16 Ni   -1.08083    0.13844   -1.34695
 17 Co   -0.28400    0.27377    0.43570
 18 Ni    1.79462   -0.11871    2.17828
 19 Cr   -0.21909    0.11817   -0.27210
 20 Co    2.16850    1.15968    0.00176
 21 Ni   -1.35897   -1.21569   -2.87770
 22 Co    0.65531    0.23727    0.15882
 23 Cr    1.59355   -0.01899    0.56931
 24 Fe    0.56693    1.05089   -0.40162
 25 Co    0.38511   -0.53096    0.22665
 26 Cr    0.03498    0.06974   -0.40313
 27 Cr    0.22317    0.61925    0.17508
 28 Fe   -0.57393    0.67433   -0.10292
 29 Cr    1.35686   -0.13746   -1.03775
 30 Co   -0.91146    0.39844    0.96940
 31 Co    0.30412   -0.51541    1.37367
 32 Cr    0.29662    1.72069    1.41646
 33 Ni   -0.10440    1.08767   -1.44497
 34 Ni   -0.23732    1.62666   -1.39747
 35 Cr   -0.89809    0.00909    1.14665
 36 Fe   -0.31436   -1.63978   -0.41353
 37 Ni    1.23073    0.59826    1.44569
 38 Cr   -0.49888    0.36361   -0.04157
 39 Fe   -0.28812   -0.59989    0.37643
 40 Fe    1.19442   -0.28718   -1.38263
 41 Co   -1.20181   -0.96584    0.73230
 42 Cr   -1.70614    0.66799    0.30777
 43 Fe    0.49936   -0.76763   -0.69408
 44 Fe    0.34375   -0.61599   -0.00084
 45 Fe   -0.17123    1.40547    1.34613
 46 Ni    1.85551   -0.00458    1.35966
 47 Co   -1.04373    0.61737    0.44683
 48 Cr   -0.99188   -0.01381   -1.04993
 49 Ni   -0.45950   -0.46785   -1.06005
 50 Fe   -1.08302   -0.43700    0.45099
 51 Co    0.15496    0.84699    0.20993
 52 Co   -0.34518   -0.17282   -0.77945
 53 Fe   -0.58830   -0.70566    0.76257
 54 Fe   -0.41832   -0.45624    0.17299
 55 Ni   -0.01100    1.88912   -0.75554
 56 Ni   -0.49049    1.86412    0.33418
 57 Fe    0.34643   -0.08460    0.70420
 58 Co    0.91286    0.73246   -1.63662
 59 Ni    1.97902   -1.74397    1.95064
[...]
 93 Ni   -1.09679   -1.57514   -2.74202
 94 Ni   -1.86143   -0.43912    1.52672
 95 Cr   -0.33244    0.49220    1.24344
 96 Ni   -0.11703   -1.05178   -1.06567
 97 Co   -1.39522    0.54190    1.04790
 98 Fe   -1.40164   -0.93565   -0.26725
 99 Cr   -0.69039   -0.05250   -1.33664
100 Co    0.28855    2.12595    0.36168
101 Cr   -0.12646   -0.40538    0.43597
102 Fe    0.03254    0.33652    0.57645
103 Co    2.30623   -0.17141    1.56023
104 Ni   -0.08566   -1.98488   -0.40768
105 Co   -0.05225   -0.56003    0.77385
106 Cr    0.99245    0.99357   -0.44774
107 Cr    1.51219   -0.63669    0.34458

Date: Thu Apr 13 23:28:30 2023