User:   c.zeng@d0067
Date:   Sat Apr 15 16:07:19 2023
Arch:   x86_64
Pid:    115018
CWD:    /home/c.zeng/projects/hea-corrosion/hea-mlp/data-curation/bulk-mcmc/dft-jobs/52
Python: 3.8.1
gpaw:   /home/c.zeng/usr/installs/gpaw/source/gpaw-22.8.0/gpaw
_gpaw:  /home/c.zeng/usr/installs/gpaw/source/gpaw-22.8.0/
        _gpaw.cpython-38-x86_64-linux-gnu.so
ase:    /home/c.zeng/.local/lib/python3.8/site-packages/ase-3.22.1-py3.8.egg/ase (version 3.22.1)
numpy:  /shared/centos7/python/3.8.1/lib/python3.8/site-packages/numpy (version 1.17.4)
scipy:  /shared/centos7/python/3.8.1/lib/python3.8/site-packages/scipy (version 1.4.1)
units:  Angstrom and eV
cores: 30
OpenMP: False
OMP_NUM_THREADS: 1

Input parameters:
  convergence: {energy: 0.0001}
  kpts: [2 2 2]
  maxiter: 666
  mode: {ecut: 350.0,
         name: pw}
  occupations: {fixmagmom: False,
                name: fermi-dirac,
                width: 0.1}
  spinpol: True
  xc: PBE

System changes: positions, numbers, cell, pbc, initial_charges, initial_magmoms

Initialize ...

species:
  Ni:
    name: Nickel
    id: 0d9f38a9d6e76a2886f07bb4381f212b
    Z: 28.0
    valence: 16
    core: 12
    charge: 0.0
    file: /home/c.zeng/usr/data/gpaw-setups-0.9.20000/Ni.PBE.gz
    compensation charges: {type: gauss,
                           rc: 0.36,
                           lmax: 2}
    cutoffs: {filter: 2.14,
              core: 1.98}
    valence states:
      #              energy  rcut
      - 4s(2.00)    -5.642   1.164
      - 3p(6.00)   -71.394   1.207
      - 4p(0.00)    -1.226   1.207
      - 3d(8.00)    -8.875   1.138
      -  s          21.570   1.164
      -  d          18.337   1.138

    # Using partial waves for Ni as LCAO basis

  Cr:
    name: Chromium
    id: 33f258bda2ca9f93018e70263a35547b
    Z: 24.0
    valence: 6
    core: 18
    charge: 0.0
    file: /home/c.zeng/usr/data/gpaw-setups-0.9.20000/Cr.PBE.gz
    compensation charges: {type: gauss,
                           rc: 0.35,
                           lmax: 2}
    cutoffs: {filter: 2.14,
              core: 3.04}
    valence states:
      #              energy  rcut
      - 4s(1.00)    -4.007   1.164
      - 4p(0.00)    -0.989   1.217
      - 3d(5.00)    -2.913   1.111
      -  s          23.205   1.164
      -  p          26.223   1.217
      -  d          24.299   1.111

[...]

  Fe:
    name: Iron
    id: 37abbd8d6c3c35915a9b583b742da910
    Z: 26.0
    valence: 8
    core: 18
    charge: 0.0
    file: /home/c.zeng/usr/data/gpaw-setups-0.9.20000/Fe.PBE.gz
    compensation charges: {type: gauss,
                           rc: 0.33,
                           lmax: 2}
    cutoffs: {filter: 2.06,
              core: 2.67}
    valence states:
      #              energy  rcut
      - 4s(2.00)    -5.291   1.164
      - 4p(0.00)    -1.326   1.058
      - 3d(6.00)    -7.505   1.058
      -  s          21.920   1.164
      -  p          25.885   1.058
      -  d          19.706   1.058

[...]

  Co:
    name: Cobalt
    id: 339d20d5b0b93d2de9531a1bee871d91
    Z: 27.0
    valence: 9
    core: 18
    charge: 0.0
    file: /home/c.zeng/usr/data/gpaw-setups-0.9.20000/Co.PBE.gz
    compensation charges: {type: gauss,
                           rc: 0.32,
                           lmax: 2}
    cutoffs: {filter: 1.87,
              core: 2.55}
    valence states:
      #              energy  rcut
      - 4s(2.00)    -5.469   1.005
      - 4p(0.00)    -1.277   1.058
      - 3d(7.00)    -8.205   1.005
      -  s          21.742   1.005
      -  p          25.934   1.058
      -  d          19.007   1.005

[...]

  Al:
    name: Aluminium
    id: 0292cae29f5d6237e50f6abdd43a7bdd
    Z: 13.0
    valence: 3
    core: 10
    charge: 0.0
    file: /home/c.zeng/usr/data/gpaw-setups-0.9.20000/Al.PBE.gz
    compensation charges: {type: gauss,
                           rc: 0.34,
                           lmax: 2}
    cutoffs: {filter: 1.91,
              core: 2.36}
    valence states:
      #              energy  rcut
      - 3s(2.00)    -7.753   1.085
      - 3p(1.00)    -2.712   1.085
      -  s          19.459   1.085
      -  p          24.499   1.085
      -  d           0.000   1.085

    # Using partial waves for Al as LCAO basis

Reference energy: -3699400.456887  # eV

Spin-polarized calculation.
Magnetic moment: 143.500000

Convergence criteria:
 Maximum [total energy] change in last 3 cyles: 0.0001 eV / electron
 Maximum integral of absolute [dens]ity change: 0.0001 electrons / valence electron
 Maximum integral of absolute [eigenst]ate change: 4e-08 eV^2 / valence electron
 Maximum number of scf [iter]ations: 666
 (Square brackets indicate name in SCF output, whereas a 'c' in
 the SCF output indicates the quantity has converged.)

Symmetries present (total): 1

  ( 1  0  0)
  ( 0  1  0)
  ( 0  0  1)

8 k-points: 2 x 2 x 2 Monkhorst-Pack grid
4 k-points in the irreducible part of the Brillouin zone
       k-points in crystal coordinates                weights
   0:     0.25000000   -0.25000000   -0.25000000          2/8
   1:     0.25000000   -0.25000000    0.25000000          2/8
   2:     0.25000000    0.25000000   -0.25000000          2/8
   3:     0.25000000    0.25000000    0.25000000          2/8

Wave functions: Plane wave expansion
  Cutoff energy: 350.000 eV
  Number of coefficients (min, max): 18052, 18052
  Pulay-stress correction: 0.000000 eV/Ang^3 (de/decut=0.000000)
  Using FFTW library
  ScaLapack parameters: grid=1x1, blocksize=None
  Wavefunction extrapolation:
    Improved wavefunction reuse through dual PAW basis

Occupation numbers: Fermi-Dirac:
  width: 0.1000  # eV

Eigensolver
   Davidson(niter=2)

Densities:
  Coarse grid: 48*48*48 grid
  Fine grid: 96*96*96 grid
  Total Charge: 0.000000

Density mixing:
  Method: difference
  Backend: pulay
  Linear mixing parameter: 0.05
  old densities: 5
  Damping of long wavelength oscillations: 50

Hamiltonian:
  XC and Coulomb potentials evaluated on a 96*96*96 grid
  Using the PBE Exchange-Correlation functional
  External potential:
    NoExternalPotential

XC parameters: PBE with 2 nearest neighbor stencil

Total number of cores used: 30
Parallelization over k-points: 2
Domain decomposition: 5 x 3 x 1

Number of atoms: 108
Number of atomic orbitals: 1025
Number of bands in calculation: 703
Number of valence electrons: 1020
Bands to converge: occupied

... initialized

Initializing position-dependent things.

Density initialized from atomic densities
Creating initial wave functions:
  703 bands from LCAO basis set

        Ni------------------------.
       /|  Co                Co   |
      Cr|   Cr         Cr         |
     / Fe      Fe       Al        |
    /   CCo      Cr       Fe      |
   /e   | CoNi     CoAl    NiCr   |
  /  FeCr  NiCo     NiNiCo        |
 *    FeFe  FeCoCr     CoAl       |
 |     CoFeNi  CoFe Ni  CrFeCr    |
 | Fe   NiNiNiCo NiNiCrFe  Ni     |
 |   CoCr  CrAlCr   CrCrNi   Fe   |
 |    FeCr  FeFeCoNi CoFeCr   Ni  |
 |     NiFeFe  Ni CrCr  CoFeFe    |
 |      .-CoNiCo-FeCrCrCo--CoCr---.
 |   NiCo    CoAl   NiNiFe       /
 |    / Cr    CrFe       Ni     /
 |   /            Ni           /
 |Cr/      Co       Co        /
 |/            Ni           /
 *----------------Cr-------*

Positions:
   0 Ni     0.005316   -0.016350   10.639749    ( 0.0000,  0.0000,  0.0000)
   1 Cr    10.672340    1.801276    1.786848    ( 0.0000,  0.0000,  0.0000)
   2 Fe     1.795727   10.625972    1.782259    ( 0.0000,  0.0000,  0.0000)
   3 Cr     1.780787    1.796175   10.644605    ( 0.0000,  0.0000,  2.1000)
   4 Fe     3.523539   -0.014558    0.017268    ( 0.0000,  0.0000,  2.0000)
   5 Co     3.522568    1.781672    1.746648    ( 0.0000,  0.0000,  0.0000)
   6 Co     5.320952   10.642342    1.763136    ( 0.0000,  0.0000,  1.5000)
   7 Ni     5.342082    1.828767    0.007462    ( 0.0000,  0.0000,  2.0000)
   8 Cr     7.144895    0.019195    0.012033    ( 0.0000,  0.0000,  0.0000)
   9 Co     7.143497    1.798064    1.764939    ( 0.0000,  0.0000,  2.1000)
  10 Ni     8.891362   10.651627    1.788353    ( 0.0000,  0.0000,  1.5000)
  11 Co     8.888779    1.804777   10.642609    ( 0.0000,  0.0000,  2.0000)
  12 Fe     0.008694    3.581540   10.650250    ( 0.0000,  0.0000,  2.1000)
  13 Ni     0.018979    5.332745    1.789751    ( 0.0000,  0.0000,  2.1000)
  14 Cr     1.778129    3.600941    1.760019    ( 0.0000,  0.0000,  2.0000)
  15 Co     1.790423    5.343267   -0.017766    ( 0.0000,  0.0000,  2.0000)
  16 Ni     3.542802    3.589864   -0.015614    ( 0.0000,  0.0000,  2.0000)
  17 Co     3.526837    5.358538    1.765793    ( 0.0000,  0.0000,  2.0000)
  18 Fe     5.336650    3.606501    1.755815    ( 0.0000,  0.0000,  0.0000)
  19 Cr     5.300399    5.323642   -0.012797    ( 0.0000,  0.0000,  2.1000)
  20 Al     7.122858    3.584816   10.659524    ( 0.0000,  0.0000,  2.0000)
  21 Ni     7.120500    5.315168    1.805502    ( 0.0000,  0.0000,  1.5000)
  22 Ni     8.892034    3.590952    1.773146    ( 0.0000,  0.0000,  2.1000)
  23 Fe     8.925340    5.301487   -0.003100    ( 0.0000,  0.0000,  0.0000)
  24 Cr     0.023055    7.096680   -0.007939    ( 0.0000,  0.0000,  0.0000)
  25 Ni     0.019141    8.871245    1.787510    ( 0.0000,  0.0000,  1.5000)
  26 Co     1.784372    7.104567    1.776443    ( 0.0000,  0.0000,  2.0000)
  27 Co     1.779944    8.867628   10.659406    ( 0.0000,  0.0000,  1.5000)
  28 Cr     3.547785    7.097897    0.009215    ( 0.0000,  0.0000,  2.1000)
  29 Ni     3.541137    8.858109    1.788225    ( 0.0000,  0.0000,  2.1000)
  30 Cr     5.295105    7.099391    1.787894    ( 0.0000,  0.0000,  2.1000)
  31 Ni     5.303685    8.873828    0.029898    ( 0.0000,  0.0000,  0.0000)
  32 Cr     7.106883    7.088719   10.645159    ( 0.0000,  0.0000,  0.0000)
  33 Co     7.111055    8.901137    1.809472    ( 0.0000,  0.0000,  0.0000)
  34 Co     8.939384    7.093404    1.799238    ( 0.0000,  0.0000,  0.0000)
  35 Co     8.919972    8.915853   10.664881    ( 0.0000,  0.0000,  0.0000)
  36 Ni    10.679704   10.658873    3.584517    ( 0.0000,  0.0000,  2.0000)
  37 Fe    10.670921    1.796367    5.340289    ( 0.0000,  0.0000,  2.1000)
  38 Fe     1.770350   10.649001    5.343491    ( 0.0000,  0.0000,  0.0000)
  39 Co     1.791800    1.784671    3.584891    ( 0.0000,  0.0000,  2.0000)
  40 Ni     3.529718   10.626388    3.565234    ( 0.0000,  0.0000,  2.1000)
  41 Fe     3.535716    1.793465    5.367289    ( 0.0000,  0.0000,  1.5000)
  42 Co     5.311497    0.001574    5.366254    ( 0.0000,  0.0000,  1.5000)
  43 Al     5.332627    1.768055    3.580793    ( 0.0000,  0.0000,  0.0000)
  44 Ni     7.136966   10.673941    3.563804    ( 0.0000,  0.0000,  2.0000)
  45 Cr     7.136774    1.794126    5.358944    ( 0.0000,  0.0000,  2.1000)
  46 Co     8.925938   10.673621    5.347589    ( 0.0000,  0.0000,  2.0000)
  47 Fe     8.883827    1.779111    3.582404    ( 0.0000,  0.0000,  1.5000)
  48 Cr    -0.010038    3.572341    3.580996    ( 0.0000,  0.0000,  2.0000)
  49 Co    10.685573    5.328935    5.338550    ( 0.0000,  0.0000,  2.0000)
  50 Cr     1.784180    3.582949    5.348357    ( 0.0000,  0.0000,  1.5000)
  51 Fe     1.766326    5.339510    3.565255    ( 0.0000,  0.0000,  1.5000)
  52 Ni     3.522387    3.605007    3.574059    ( 0.0000,  0.0000,  0.0000)
  53 Al     3.543581    5.347343    5.347962    ( 0.0000,  0.0000,  2.1000)
  54 Co     5.333950    3.591678    5.360630    ( 0.0000,  0.0000,  2.0000)
  55 Cr     5.336458    5.346308    3.560132    ( 0.0000,  0.0000,  0.0000)
  56 Cr     7.143102    3.570089    3.572138    ( 0.0000,  0.0000,  2.1000)
  57 Cr     7.120265    5.347471    5.345689    ( 0.0000,  0.0000,  2.0000)
  58 Cr     8.888299    3.570665    5.342018    ( 0.0000,  0.0000,  1.5000)
  59 Fe     8.904573    5.339084    3.577453    ( 0.0000,  0.0000,  2.0000)
[...]
  93 Ni     7.108740    5.307762    8.854395    ( 0.0000,  0.0000,  1.5000)
  94 Al     8.907593    3.561296    8.890348    ( 0.0000,  0.0000,  2.1000)
  95 Fe     8.917806    5.336309    7.100224    ( 0.0000,  0.0000,  0.0000)
  96 Fe     0.016270    7.102027    7.111664    ( 0.0000,  0.0000,  2.0000)
  97 Fe     0.000822    8.895150    8.883817    ( 0.0000,  0.0000,  1.5000)
  98 Co     1.771182    7.105090    8.888608    ( 0.0000,  0.0000,  1.5000)
  99 Ni     1.775184    8.850318    7.108494    ( 0.0000,  0.0000,  2.0000)
 100 Co     3.530401    7.086478    7.104972    ( 0.0000,  0.0000,  1.5000)
 101 Fe     3.524841    8.851001    8.894798    ( 0.0000,  0.0000,  0.0000)
 102 Co     5.310654    7.102827    8.871128    ( 0.0000,  0.0000,  0.0000)
 103 Ni     5.290613    8.850286    7.104876    ( 0.0000,  0.0000,  0.0000)
 104 Co     7.129016    7.083330    7.142750    ( 0.0000,  0.0000,  2.1000)
 105 Al     7.143241    8.903186    8.854384    ( 0.0000,  0.0000,  2.0000)
 106 Ni     8.926504    7.115858    8.862313    ( 0.0000,  0.0000,  0.0000)
 107 Cr     8.932896    8.877648    7.127479    ( 0.0000,  0.0000,  1.5000)

Unit cell:
           periodic     x           y           z      points  spacing
  1. axis:    yes   10.671700    0.000000    0.000000    48     0.2223
  2. axis:    yes    0.000000   10.671700    0.000000    48     0.2223
  3. axis:    yes    0.000000    0.000000   10.671700    48     0.2223

  Lengths:  10.671700  10.671700  10.671700
  Angles:   90.000000  90.000000  90.000000

Effective grid spacing dv^(1/3) = 0.2223

     iter     time        total  log10-change:  magmom
                         energy  eigst   dens
iter:   1 16:11:34  -952.266551                  +143.1538
iter:   2 16:13:09  -970.180593  -0.46  -1.32    +107.8821
iter:   3 16:14:46  -898.106246  -0.87  -1.25    +76.0345
iter:   4 16:16:22  -875.249082  -1.36  -1.38    +63.1301
iter:   5 16:17:59  -876.031325  -1.80  -1.47    +56.7894
iter:   6 16:19:35  -875.080203  -1.96  -1.48    +53.9994
iter:   7 16:21:11  -869.562673  -1.91  -1.51    +51.5529
iter:   8 16:22:48  -866.989128  -1.83  -1.59    +51.1596
iter:   9 16:24:24  -870.241439  -1.85  -1.75    +51.1048
iter:  10 16:26:00  -868.737966  -2.21  -1.79    +51.0613
iter:  11 16:27:37  -868.495003  -2.48  -1.86    +51.7905
iter:  12 16:29:13  -868.138241  -2.71  -1.89    +52.4306
iter:  13 16:30:49  -868.685116  -2.72  -1.95    +53.1819
iter:  14 16:32:25  -868.529952  -2.76  -1.94    +53.8324
iter:  15 16:34:01  -870.352604  -2.58  -2.02    +54.6923
iter:  16 16:35:37  -871.236638  -2.41  -1.97    +55.3472
iter:  17 16:37:14  -871.858624  -2.37  -1.95    +55.5215
iter:  18 16:38:50  -870.174759  -2.57  -1.95    +56.2911
iter:  19 16:40:26  -869.825995  -2.65  -2.08    +56.9762
iter:  20 16:42:02  -868.926276  -3.20  -2.11    +57.6843
iter:  21 16:43:38  -869.159933  -3.44  -2.25    +58.8052
iter:  22 16:45:14  -869.484347  -3.43  -2.26    +59.8102
iter:  23 16:46:50  -869.771845  -3.30  -2.26    +60.8115
iter:  24 16:48:26  -870.170596  -3.15  -2.28    +61.6319
iter:  25 16:50:02  -871.056901  -2.86  -2.29    +62.1722
iter:  26 16:51:38  -870.352848  -2.95  -2.20    +62.9199
iter:  27 16:53:14  -870.587743  -3.13  -2.37    +63.3729
iter:  28 16:54:51  -870.609862  -3.20  -2.35    +63.7804
iter:  29 16:56:26  -870.535816c -3.39  -2.36    +64.2190
iter:  30 16:58:02  -870.428731  -3.76  -2.41    +64.8627
iter:  31 16:59:38  -870.502302  -4.05  -2.49    +65.2565
iter:  32 17:01:14  -870.642802  -3.55  -2.51    +66.0669
iter:  33 17:02:50  -870.694223  -3.72  -2.51    +66.3329
iter:  34 17:04:26  -870.776612  -3.87  -2.52    +66.2042
iter:  35 17:06:02  -870.796967  -3.81  -2.53    +66.1795
iter:  36 17:07:38  -870.808371c -3.76  -2.59    +65.9068
iter:  37 17:09:14  -870.810689c -3.75  -2.68    +65.8330
iter:  38 17:10:50  -870.782066c -3.94  -2.72    +65.8526
iter:  39 17:12:27  -870.761993c -4.42  -2.87    +65.6677
iter:  40 17:14:03  -870.769377c -4.71  -3.05    +65.6224
iter:  41 17:15:39  -870.777529c -4.74  -3.08    +65.5852
iter:  42 17:17:15  -870.777149c -4.90  -3.06    +65.5382
iter:  43 17:18:52  -870.788264c -4.73  -3.15    +65.4586
iter:  44 17:20:27  -870.790641c -4.69  -3.18    +65.4359
iter:  45 17:22:03  -870.793842c -4.78  -3.18    +65.4349
iter:  46 17:23:39  -870.792958c -5.03  -3.22    +65.3555
iter:  47 17:25:15  -870.800308c -5.03  -3.38    +65.3091
iter:  48 17:26:52  -870.801728c -5.26  -3.33    +65.2911
iter:  49 17:28:28  -870.805831c -5.32  -3.38    +65.2719
iter:  50 17:30:04  -870.811498c -5.33  -3.43    +65.2256
iter:  51 17:31:40  -870.823301c -4.86  -3.45    +65.1338
iter:  52 17:33:16  -870.863801c -3.65  -3.39    +64.8363
iter:  53 17:34:52  -870.861383c -4.76  -3.17    +64.9593
iter:  54 17:36:28  -870.860988c -5.06  -3.20    +65.0092
iter:  55 17:38:04  -870.861140c -5.44  -3.23    +65.0583
iter:  56 17:39:40  -870.861349c -5.42  -3.24    +65.1321
iter:  57 17:41:16  -870.860089c -4.57  -3.24    +65.1396
iter:  58 17:42:52  -870.856963c -5.06  -3.18    +65.1250
iter:  59 17:44:28  -870.854194c -5.82  -3.26    +65.1086
iter:  60 17:46:04  -870.858209c -5.34  -3.34    +65.0766
iter:  61 17:47:39  -870.856397c -5.18  -3.29    +65.0585
iter:  62 17:49:15  -870.853451c -5.39  -3.33    +65.0550
iter:  63 17:50:52  -870.853720c -5.71  -3.41    +65.0472
iter:  64 17:52:28  -870.854651c -5.29  -3.43    +65.0385
iter:  65 17:54:04  -870.852427c -5.73  -3.36    +65.0303
iter:  66 17:55:40  -870.852431c -5.79  -3.47    +65.0280
iter:  67 17:57:16  -870.854440c -5.33  -3.50    +65.0142
iter:  68 17:58:52  -870.851897c -5.66  -3.42    +65.0111
iter:  69 18:00:28  -870.850942c -5.97  -3.55    +65.0023
iter:  70 18:02:05  -870.852645c -5.81  -3.63    +64.9971
iter:  71 18:03:40  -870.850634c -5.92  -3.59    +65.0028
iter:  72 18:05:16  -870.851025c -6.24  -3.71    +65.0146
iter:  73 18:06:52  -870.850595c -6.17  -3.71    +65.0077
iter:  74 18:08:28  -870.850426c -6.21  -3.79    +65.0078
iter:  75 18:10:04  -870.850498c -6.36  -3.84    +65.0135
iter:  76 18:11:41  -870.851156c -6.06  -3.92    +65.0094
iter:  77 18:13:17  -870.850353c -6.41  -3.83    +65.0136
iter:  78 18:14:53  -870.850452c -6.54  -3.93    +65.0198
iter:  79 18:16:30  -870.850594c -6.72  -4.06c   +65.0230
iter:  80 18:18:06  -870.850557c -6.81  -4.09c   +65.0217
iter:  81 18:19:42  -870.850635c -6.98  -4.10c   +65.0227
iter:  82 18:21:18  -870.850804c -6.86  -4.14c   +65.0234
iter:  83 18:22:55  -870.850636c -6.99  -4.17c   +65.0201
iter:  84 18:24:31  -870.850795c -7.21  -4.22c   +65.0195
iter:  85 18:26:07  -870.850671c -7.25  -4.31c   +65.0212
iter:  86 18:27:43  -870.850837c -7.36  -4.31c   +65.0209
iter:  87 18:29:19  -870.850788c -7.49c -4.35c   +65.0186

Converged after 87 iterations.

Dipole moment: (-10.360792, 7.651824, 8.869285) |e|*Ang

Total magnetic moment: (0.000000, 0.000000, 65.018578)
Local magnetic moments:
   0 Ni ( 0.000000,  0.000000,  0.306601)
   1 Cr ( 0.000000,  0.000000, -0.792996)
   2 Fe ( 0.000000,  0.000000,  2.269394)
   3 Cr ( 0.000000,  0.000000, -0.164814)
   4 Fe ( 0.000000,  0.000000,  2.246019)
   5 Co ( 0.000000,  0.000000,  1.013084)
   6 Co ( 0.000000,  0.000000,  1.271043)
   7 Ni ( 0.000000,  0.000000,  0.306680)
   8 Cr ( 0.000000,  0.000000, -1.886660)
   9 Co ( 0.000000,  0.000000,  1.146636)
  10 Ni ( 0.000000,  0.000000,  0.293376)
  11 Co ( 0.000000,  0.000000,  0.953209)
  12 Fe ( 0.000000,  0.000000,  1.955309)
  13 Ni ( 0.000000,  0.000000,  0.292186)
  14 Cr ( 0.000000,  0.000000, -0.944816)
  15 Co ( 0.000000,  0.000000,  1.228790)
  16 Ni ( 0.000000,  0.000000,  0.237987)
  17 Co ( 0.000000,  0.000000,  0.776444)
  18 Fe ( 0.000000,  0.000000,  2.005026)
  19 Cr ( 0.000000,  0.000000, -0.051527)
  20 Al ( 0.000000,  0.000000, -0.027139)
  21 Ni ( 0.000000,  0.000000,  0.180030)
  22 Ni ( 0.000000,  0.000000,  0.186296)
  23 Fe ( 0.000000,  0.000000,  2.138783)
  24 Cr ( 0.000000,  0.000000, -1.856024)
  25 Ni ( 0.000000,  0.000000,  0.410803)
  26 Co ( 0.000000,  0.000000,  1.250478)
  27 Co ( 0.000000,  0.000000,  1.249893)
  28 Cr ( 0.000000,  0.000000, -1.035250)
  29 Ni ( 0.000000,  0.000000,  0.235690)
  30 Cr ( 0.000000,  0.000000,  1.024804)
  31 Ni ( 0.000000,  0.000000,  0.164460)
  32 Cr ( 0.000000,  0.000000, -1.742070)
  33 Co ( 0.000000,  0.000000,  1.097483)
  34 Co ( 0.000000,  0.000000,  1.194952)
  35 Co ( 0.000000,  0.000000,  0.991657)
  36 Ni ( 0.000000,  0.000000,  0.395765)
  37 Fe ( 0.000000,  0.000000,  1.869920)
  38 Fe ( 0.000000,  0.000000,  2.245361)
  39 Co ( 0.000000,  0.000000,  1.191113)
  40 Ni ( 0.000000,  0.000000,  0.271524)
  41 Fe ( 0.000000,  0.000000,  2.048111)
  42 Co ( 0.000000,  0.000000,  1.003328)
  43 Al ( 0.000000,  0.000000, -0.029197)
  44 Ni ( 0.000000,  0.000000,  0.296018)
  45 Cr ( 0.000000,  0.000000,  0.749996)
  46 Co ( 0.000000,  0.000000,  1.062158)
  47 Fe ( 0.000000,  0.000000,  2.045435)
  48 Cr ( 0.000000,  0.000000, -0.112585)
  49 Co ( 0.000000,  0.000000,  0.860818)
  50 Cr ( 0.000000,  0.000000, -1.455425)
  51 Fe ( 0.000000,  0.000000,  2.074622)
  52 Ni ( 0.000000,  0.000000,  0.180095)
  53 Al ( 0.000000,  0.000000, -0.033187)
  54 Co ( 0.000000,  0.000000,  0.398653)
  55 Cr ( 0.000000,  0.000000, -0.658486)
  56 Cr ( 0.000000,  0.000000, -0.785586)
  57 Cr ( 0.000000,  0.000000, -0.689899)
  58 Cr ( 0.000000,  0.000000, -0.719636)
  59 Fe ( 0.000000,  0.000000,  1.979860)
[...]
  93 Ni ( 0.000000,  0.000000,  0.189800)
  94 Al ( 0.000000,  0.000000, -0.039839)
  95 Fe ( 0.000000,  0.000000,  1.822846)
  96 Fe ( 0.000000,  0.000000,  2.301054)
  97 Fe ( 0.000000,  0.000000,  2.182396)
  98 Co ( 0.000000,  0.000000,  1.318170)
  99 Ni ( 0.000000,  0.000000,  0.516863)
 100 Co ( 0.000000,  0.000000,  1.433777)
 101 Fe ( 0.000000,  0.000000,  2.328551)
 102 Co ( 0.000000,  0.000000,  1.023662)
 103 Ni ( 0.000000,  0.000000,  0.436535)
 104 Co ( 0.000000,  0.000000,  1.021420)
 105 Al ( 0.000000,  0.000000, -0.016716)
 106 Ni ( 0.000000,  0.000000,  0.210957)
 107 Cr ( 0.000000,  0.000000, -1.574169)

Energy contributions relative to reference atoms: (reference = -3699400.456887)

Kinetic:       +144.308573
Potential:     -194.781872
External:        +0.000000
XC:            -855.971566
Entropy (-ST):   -4.507040
Local:          +37.847597
Free energy:   -873.104307
Extrapolated:  -870.850788

Spin contamination: 27.645483 electrons
Showing only first 2 kpts
                      Up                     Down
 Kpt  Band  Eigenvalues  Occupancy  Eigenvalues  Occupancy
  0   508      9.63509    0.99453     10.53974    0.02097
  0   509      9.64645    0.99388     10.54600    0.01972
  0   510      9.65666    0.99322     10.56345    0.01661
  0   511      9.66160    0.99288     10.57173    0.01531

  1   508      9.62689    0.99496     10.53189    0.02264
  1   509      9.64575    0.99392     10.54185    0.02054
  1   510      9.65232    0.99351     10.56302    0.01668
  1   511      9.65817    0.99312     10.57194    0.01528

Fermi level: 10.15537

No gap

Forces in eV/Ang:
  0 Ni   -0.12744    0.31790    0.44790
  1 Cr   -0.19917   -0.26557   -0.16968
  2 Fe   -0.32085    0.49983    0.01164
  3 Cr    0.01296    0.13958    0.23447
  4 Fe    0.54909    0.33321   -0.22849
  5 Co   -0.14965    0.09217    0.06820
  6 Co    0.16101   -0.06393   -0.02669
  7 Ni   -0.08267   -0.40609   -0.09768
  8 Cr   -0.25837    0.42666    0.59873
  9 Co   -0.15213   -0.23694    0.09096
 10 Ni    0.16434    0.27910   -0.12960
 11 Co    0.45553   -0.39573    0.68348
 12 Fe    0.22891   -0.24608    0.60579
 13 Ni   -0.09331    0.05814   -0.13718
 14 Cr    0.16392   -0.45189    0.18617
 15 Co    0.07362    0.05812    0.05718
 16 Ni   -0.05345   -0.08799    0.17538
 17 Co    0.14822   -0.35074    0.03582
 18 Fe   -0.51579   -0.14514    0.34211
 19 Cr   -0.38194    0.67497    0.09992
 20 Al   -0.07888   -0.60505    0.90521
 21 Ni    0.08798    0.46462   -0.25037
 22 Ni    0.39470   -0.25377    0.19807
 23 Fe    0.04874    1.19227    0.39613
 24 Cr   -0.15594    0.05162    0.08873
 25 Ni   -0.11033    0.06021   -0.30280
 26 Co   -0.03945   -0.05418   -0.17175
 27 Co   -0.01120   -0.02398    0.15042
 28 Cr   -0.20699   -0.20437   -0.11219
 29 Ni   -0.05940    0.22490   -0.17794
 30 Cr    0.57319   -0.13672   -0.33259
 31 Ni    0.37732    0.09375   -0.23018
 32 Cr    0.28773   -0.29834    0.95671
 33 Co    0.03990   -0.33546   -0.51366
 34 Co   -0.55077    0.15395   -0.34165
 35 Co   -0.34724   -0.37877    0.26566
 36 Ni   -0.00654    0.26772   -0.17618
 37 Fe    0.01602   -0.06900    0.11673
 38 Fe   -0.09801   -0.01227   -0.03975
 39 Co    0.03864    0.01871   -0.38769
 40 Ni    0.21936    0.45489    0.04678
 41 Fe   -0.21008    0.05047    0.07845
 42 Co    0.17425   -0.44409    0.01527
 43 Al   -0.62560   -0.23483   -0.56979
 44 Ni   -0.12776   -0.13562    0.07700
 45 Cr    0.23233   -0.19552    0.36171
 46 Co   -0.30612   -0.34135   -0.01308
 47 Fe    0.07125   -0.16074   -0.52282
 48 Cr   -0.17904    0.03384   -0.21557
 49 Co   -0.13555   -0.01159    0.07375
 50 Cr   -0.95690   -0.65584   -0.19512
 51 Fe   -0.18886   -0.18074   -0.25089
 52 Ni    0.15119   -0.37986   -0.28394
 53 Al    0.23739    0.12321    0.21421
 54 Co    0.20753   -0.08887   -0.03245
 55 Cr    0.32279   -0.22331   -0.80011
 56 Cr    0.34349    0.42580   -0.03351
 57 Cr   -0.10841    0.41528    0.18133
 58 Cr    0.62615   -0.08427    0.46252
 59 Fe   -0.12303   -0.18665   -0.32564
[...]
 93 Ni    0.31993    0.43578    0.41652
 94 Al    0.17786   -0.00452   -0.53785
 95 Fe   -0.19854    0.39932   -0.17910
 96 Fe   -0.08725    0.11098   -0.39817
 97 Fe    0.18021   -0.03297    0.12121
 98 Co    0.09196    0.03351    0.09018
 99 Ni   -0.05633    0.14835   -0.02564
100 Co    0.06510    0.37452    0.35282
101 Fe    0.35027    0.10447   -0.15507
102 Co    0.10180   -0.30497    0.23516
103 Ni    0.24725    0.35861   -0.01717
104 Co   -0.07119    0.03714   -0.72414
105 Al   -1.03360   -0.12007   -0.04049
106 Ni   -0.23127   -0.32468    0.40909
107 Cr    0.74382    0.06228   -1.02039

Date: Sat Apr 15 18:29:39 2023