User:   c.zeng@d0098
Date:   Sat Apr 15 07:43:18 2023
Arch:   x86_64
Pid:    145166
CWD:    /home/c.zeng/projects/hea-corrosion/hea-mlp/data-curation/bulk-mcmc/dft-jobs/228
Python: 3.8.1
gpaw:   /home/c.zeng/usr/installs/gpaw/source/gpaw-22.8.0/gpaw
_gpaw:  /home/c.zeng/usr/installs/gpaw/source/gpaw-22.8.0/
        _gpaw.cpython-38-x86_64-linux-gnu.so
ase:    /home/c.zeng/.local/lib/python3.8/site-packages/ase-3.22.1-py3.8.egg/ase (version 3.22.1)
numpy:  /shared/centos7/python/3.8.1/lib/python3.8/site-packages/numpy (version 1.17.4)
scipy:  /shared/centos7/python/3.8.1/lib/python3.8/site-packages/scipy (version 1.4.1)
units:  Angstrom and eV
cores: 30
OpenMP: False
OMP_NUM_THREADS: 1

Input parameters:
  convergence: {energy: 0.0001}
  kpts: [2 2 2]
  maxiter: 666
  mode: {ecut: 350.0,
         name: pw}
  occupations: {fixmagmom: False,
                name: fermi-dirac,
                width: 0.1}
  spinpol: True
  xc: PBE

System changes: positions, numbers, cell, pbc, initial_charges, initial_magmoms

Initialize ...

species:
  Cr:
    name: Chromium
    id: 33f258bda2ca9f93018e70263a35547b
    Z: 24.0
    valence: 6
    core: 18
    charge: 0.0
    file: /home/c.zeng/usr/data/gpaw-setups-0.9.20000/Cr.PBE.gz
    compensation charges: {type: gauss,
                           rc: 0.35,
                           lmax: 2}
    cutoffs: {filter: 2.14,
              core: 3.04}
    valence states:
      #              energy  rcut
      - 4s(1.00)    -4.007   1.164
      - 4p(0.00)    -0.989   1.217
      - 3d(5.00)    -2.913   1.111
      -  s          23.205   1.164
      -  p          26.223   1.217
      -  d          24.299   1.111

    # Using partial waves for Cr as LCAO basis

  Al:
    name: Aluminium
    id: 0292cae29f5d6237e50f6abdd43a7bdd
    Z: 13.0
    valence: 3
    core: 10
    charge: 0.0
    file: /home/c.zeng/usr/data/gpaw-setups-0.9.20000/Al.PBE.gz
    compensation charges: {type: gauss,
                           rc: 0.34,
                           lmax: 2}
    cutoffs: {filter: 1.91,
              core: 2.36}
    valence states:
      #              energy  rcut
      - 3s(2.00)    -7.753   1.085
      - 3p(1.00)    -2.712   1.085
      -  s          19.459   1.085
      -  p          24.499   1.085
      -  d           0.000   1.085

[...]

  Ni:
    name: Nickel
    id: 0d9f38a9d6e76a2886f07bb4381f212b
    Z: 28.0
    valence: 16
    core: 12
    charge: 0.0
    file: /home/c.zeng/usr/data/gpaw-setups-0.9.20000/Ni.PBE.gz
    compensation charges: {type: gauss,
                           rc: 0.36,
                           lmax: 2}
    cutoffs: {filter: 2.14,
              core: 1.98}
    valence states:
      #              energy  rcut
      - 4s(2.00)    -5.642   1.164
      - 3p(6.00)   -71.394   1.207
      - 4p(0.00)    -1.226   1.207
      - 3d(8.00)    -8.875   1.138
      -  s          21.570   1.164
      -  d          18.337   1.138

[...]

  Co:
    name: Cobalt
    id: 339d20d5b0b93d2de9531a1bee871d91
    Z: 27.0
    valence: 9
    core: 18
    charge: 0.0
    file: /home/c.zeng/usr/data/gpaw-setups-0.9.20000/Co.PBE.gz
    compensation charges: {type: gauss,
                           rc: 0.32,
                           lmax: 2}
    cutoffs: {filter: 1.87,
              core: 2.55}
    valence states:
      #              energy  rcut
      - 4s(2.00)    -5.469   1.005
      - 4p(0.00)    -1.277   1.058
      - 3d(7.00)    -8.205   1.005
      -  s          21.742   1.005
      -  p          25.934   1.058
      -  d          19.007   1.005

[...]

  Fe:
    name: Iron
    id: 37abbd8d6c3c35915a9b583b742da910
    Z: 26.0
    valence: 8
    core: 18
    charge: 0.0
    file: /home/c.zeng/usr/data/gpaw-setups-0.9.20000/Fe.PBE.gz
    compensation charges: {type: gauss,
                           rc: 0.33,
                           lmax: 2}
    cutoffs: {filter: 2.06,
              core: 2.67}
    valence states:
      #              energy  rcut
      - 4s(2.00)    -5.291   1.164
      - 4p(0.00)    -1.326   1.058
      - 3d(6.00)    -7.505   1.058
      -  s          21.920   1.164
      -  p          25.885   1.058
      -  d          19.706   1.058

    # Using partial waves for Fe as LCAO basis

Reference energy: -3235165.067515  # eV

Spin-polarized calculation.
Magnetic moment: 121.100000

Convergence criteria:
 Maximum [total energy] change in last 3 cyles: 0.0001 eV / electron
 Maximum integral of absolute [dens]ity change: 0.0001 electrons / valence electron
 Maximum integral of absolute [eigenst]ate change: 4e-08 eV^2 / valence electron
 Maximum number of scf [iter]ations: 666
 (Square brackets indicate name in SCF output, whereas a 'c' in
 the SCF output indicates the quantity has converged.)

Symmetries present (total): 1

  ( 1  0  0)
  ( 0  1  0)
  ( 0  0  1)

8 k-points: 2 x 2 x 2 Monkhorst-Pack grid
4 k-points in the irreducible part of the Brillouin zone
       k-points in crystal coordinates                weights
   0:     0.25000000   -0.25000000   -0.25000000          2/8
   1:     0.25000000   -0.25000000    0.25000000          2/8
   2:     0.25000000    0.25000000   -0.25000000          2/8
   3:     0.25000000    0.25000000    0.25000000          2/8

Wave functions: Plane wave expansion
  Cutoff energy: 350.000 eV
  Number of coefficients (min, max): 19084, 19084
  Pulay-stress correction: 0.000000 eV/Ang^3 (de/decut=0.000000)
  Using FFTW library
  ScaLapack parameters: grid=1x1, blocksize=None
  Wavefunction extrapolation:
    Improved wavefunction reuse through dual PAW basis

Occupation numbers: Fermi-Dirac:
  width: 0.1000  # eV

Eigensolver
   Davidson(niter=2)

Densities:
  Coarse grid: 48*48*48 grid
  Fine grid: 96*96*96 grid
  Total Charge: 0.000000

Density mixing:
  Method: difference
  Backend: pulay
  Linear mixing parameter: 0.05
  old densities: 5
  Damping of long wavelength oscillations: 50

Hamiltonian:
  XC and Coulomb potentials evaluated on a 96*96*96 grid
  Using the PBE Exchange-Correlation functional
  External potential:
    NoExternalPotential

XC parameters: PBE with 2 nearest neighbor stencil

Total number of cores used: 30
Parallelization over k-points: 2
Domain decomposition: 5 x 3 x 1

Number of atoms: 108
Number of atomic orbitals: 933
Number of bands in calculation: 624
Number of valence electrons: 912
Bands to converge: occupied

... initialized

Initializing position-dependent things.

Density initialized from atomic densities
Creating initial wave functions:
  624 bands from LCAO basis set

        .--------Al----------------.
       /|           Fe             |
      / |    FeFe     Cr           |
     / Ni       Cr       Al        |
    /   |Fe      NiCo       Fe     |
   /    | CrCr      ACo            |
  /    Co  FeiAlAl    Co Fe  CoAl  |
 *      Fe     AlCoAl   CrFe     Cr|
 |      |FeNi   NiFeFe   AlNiNi   Co
 |      | CoNi   AlCoCoAl CrCrFe   |
 |     Fe  Al CoCo  CrCr Cr  NiNi  |
 |      Cr  Ni CrNiCo CoNiCoAl   Fe|
 |      |CrCo   CoAlAl   CoNiFe   Fe
 |      .-FeCr-----NiCr-Al--CrFe---.
 |     Al  Cr CoCr    Al Co  Cr Ni/
 |    / Co              Ni       Ni
 |   /           Ali      NiFe  /
 |  /      Ni       Fe     NiAl/
 | /                   Fe     /r
 *--------------------------Cr

Positions:
   0 Cr    10.797848    0.093654    0.085777    ( 0.0000,  0.0000,  0.0000)
   1 Al    10.831824    1.844742    1.870716    ( 0.0000,  0.0000,  2.0000)
   2 Ni     1.786803   10.847372    1.827335    ( 0.0000,  0.0000,  0.0000)
   3 Co     1.769614    1.870531   -0.031264    ( 0.0000,  0.0000,  0.0000)
   4 Al     3.620857   10.822050   10.833629    ( 0.0000,  0.0000,  1.5000)
   5 Ni     3.571246    1.883176    1.708402    ( 0.0000,  0.0000,  0.0000)
   6 Co     5.521103   10.788063    1.666217    ( 0.0000,  0.0000,  0.0000)
   7 Al     5.520831    1.813973   10.830911    ( 0.0000,  0.0000,  1.5000)
   8 Al     7.330846    0.011025   10.815657    ( 0.0000,  0.0000,  2.0000)
   9 Fe     7.282018    1.809483    1.793250    ( 0.0000,  0.0000,  2.1000)
  10 Fe     9.029996    0.022005    1.811918    ( 0.0000,  0.0000,  1.5000)
  11 Fe     9.007196    1.868639   10.825714    ( 0.0000,  0.0000,  2.0000)
  12 Cr    10.861310    3.649723    0.014171    ( 0.0000,  0.0000,  2.0000)
  13 Ni    10.867442    5.463468    1.819235    ( 0.0000,  0.0000,  2.1000)
  14 Co     1.756088    3.650267    1.845949    ( 0.0000,  0.0000,  0.0000)
  15 Fe     1.790358    5.439092   10.869084    ( 0.0000,  0.0000,  2.1000)
  16 Cr     3.687842    3.622792   -0.049287    ( 0.0000,  0.0000,  2.0000)
  17 Co     3.667347    5.391145    1.745368    ( 0.0000,  0.0000,  0.0000)
  18 Al     5.497977    3.634415    1.792370    ( 0.0000,  0.0000,  2.0000)
  19 Ni     5.524908    5.448029    0.002551    ( 0.0000,  0.0000,  2.0000)
  20 Co     7.223340    3.611877   10.834270    ( 0.0000,  0.0000,  0.0000)
  21 Al     7.217762    5.474830    1.807776    ( 0.0000,  0.0000,  2.1000)
  22 Ni     9.073442    3.654344    1.775148    ( 0.0000,  0.0000,  0.0000)
  23 Ni     9.008740    5.418608    0.007692    ( 0.0000,  0.0000,  2.0000)
  24 Ni    10.859190    7.178720    0.014480    ( 0.0000,  0.0000,  1.5000)
  25 Fe    -0.018106    8.970948    1.875391    ( 0.0000,  0.0000,  0.0000)
  26 Fe     1.817615    7.224025    1.802546    ( 0.0000,  0.0000,  1.5000)
  27 Cr     1.880729    8.993464   10.874031    ( 0.0000,  0.0000,  0.0000)
  28 Fe     3.684428    7.260447   -0.001356    ( 0.0000,  0.0000,  2.0000)
  29 Co     3.612616    9.025636    1.761807    ( 0.0000,  0.0000,  1.5000)
  30 Ni     5.481440    7.275114    1.811211    ( 0.0000,  0.0000,  1.5000)
  31 Fe     5.461261    9.048153   10.833988    ( 0.0000,  0.0000,  1.5000)
  32 Ni     7.245704    7.257881    0.056891    ( 0.0000,  0.0000,  2.1000)
  33 Co     7.301969    9.004609    1.790315    ( 0.0000,  0.0000,  0.0000)
  34 Cr     9.029343    7.181775    1.815549    ( 0.0000,  0.0000,  2.0000)
  35 Cr     9.030561    9.042010    0.020232    ( 0.0000,  0.0000,  1.5000)
  36 Fe    -0.031046    0.001947    3.645701    ( 0.0000,  0.0000,  2.0000)
  37 Fe    10.825910    1.804351    5.434602    ( 0.0000,  0.0000,  2.1000)
  38 Ni     1.743552   10.849296    5.484376    ( 0.0000,  0.0000,  0.0000)
  39 Al     1.769755    1.791891    3.636068    ( 0.0000,  0.0000,  1.5000)
  40 Al     3.516667   10.719828    3.663227    ( 0.0000,  0.0000,  0.0000)
  41 Co     3.644244    1.785205    5.586728    ( 0.0000,  0.0000,  0.0000)
  42 Al     5.484778   10.815439    5.504022    ( 0.0000,  0.0000,  0.0000)
  43 Cr     5.457934    1.842230    3.658769    ( 0.0000,  0.0000,  0.0000)
  44 Cr     7.360615   10.815439    3.672229    ( 0.0000,  0.0000,  0.0000)
  45 Al     7.266884    1.811614    5.485528    ( 0.0000,  0.0000,  2.1000)
  46 Al     9.077986    0.023590    5.491921    ( 0.0000,  0.0000,  0.0000)
  47 Co     9.066788    1.824226    3.671175    ( 0.0000,  0.0000,  1.5000)
  48 Fe    -0.047135    3.649615    3.617291    ( 0.0000,  0.0000,  2.0000)
  49 Ni    10.809264    5.435993    5.379805    ( 0.0000,  0.0000,  2.0000)
  50 Cr     1.752316    3.624989    5.344676    ( 0.0000,  0.0000,  0.0000)
  51 Cr     1.805786    5.472046    3.619389    ( 0.0000,  0.0000,  2.1000)
  52 Cr     3.649408    3.633491    3.631251    ( 0.0000,  0.0000,  2.1000)
  53 Co     3.657628    5.433797    5.434015    ( 0.0000,  0.0000,  1.5000)
  54 Ni     5.413368    3.672642    5.480309    ( 0.0000,  0.0000,  1.5000)
  55 Al     5.413835    5.465588    3.639666    ( 0.0000,  0.0000,  2.1000)
  56 Cr     7.223449    3.731734    3.720829    ( 0.0000,  0.0000,  0.0000)
  57 Cr     7.220557    5.483180    5.485572    ( 0.0000,  0.0000,  0.0000)
  58 Co     9.069039    3.623673    5.469720    ( 0.0000,  0.0000,  1.5000)
  59 Ni     9.064766    5.503837    3.636731    ( 0.0000,  0.0000,  0.0000)
[...]
  93 Co     7.214631    5.385893    9.048577    ( 0.0000,  0.0000,  2.1000)
  94 Fe     8.994291    3.655975    9.039237    ( 0.0000,  0.0000,  1.5000)
  95 Ni     9.006577    5.423262    7.223296    ( 0.0000,  0.0000,  2.0000)
  96 Cr    -0.070637    7.291956    7.110419    ( 0.0000,  0.0000,  0.0000)
  97 Ni     0.073012    9.104570    9.068375    ( 0.0000,  0.0000,  0.0000)
  98 Cr     1.863247    7.257381    9.054785    ( 0.0000,  0.0000,  2.0000)
  99 Fe     1.858343    9.053708    7.225808    ( 0.0000,  0.0000,  2.1000)
 100 Al     3.683906    7.292456    7.235550    ( 0.0000,  0.0000,  2.0000)
 101 Cr     3.628218    9.069550    9.051262    ( 0.0000,  0.0000,  2.1000)
 102 Co     5.530605    7.331890    9.040129    ( 0.0000,  0.0000,  0.0000)
 103 Al     5.476232    9.097209    7.250467    ( 0.0000,  0.0000,  2.0000)
 104 Cr     7.256827    7.264242    7.208456    ( 0.0000,  0.0000,  2.1000)
 105 Al     7.272548    9.136437    9.056861    ( 0.0000,  0.0000,  1.5000)
 106 Fe     8.936493    7.190875    9.109767    ( 0.0000,  0.0000,  0.0000)
 107 Co     8.994682    9.112169    7.218480    ( 0.0000,  0.0000,  0.0000)

Unit cell:
           periodic     x           y           z      points  spacing
  1. axis:    yes   10.872400    0.000000    0.000000    48     0.2265
  2. axis:    yes    0.000000   10.872400    0.000000    48     0.2265
  3. axis:    yes    0.000000    0.000000   10.872400    48     0.2265

  Lengths:  10.872400  10.872400  10.872400
  Angles:   90.000000  90.000000  90.000000

Effective grid spacing dv^(1/3) = 0.2265

     iter     time        total  log10-change:  magmom
                         energy  eigst   dens
iter:   1 07:47:54  -904.023497                  +120.1132
iter:   2 07:50:00  -843.356983  -0.29  -1.26    +84.1940
iter:   3 07:52:07  -833.950296  -0.79  -1.27    +50.7919
iter:   4 07:54:13  -812.311765  -1.26  -1.30    +46.4706
iter:   5 07:56:21  -807.186513  -1.71  -1.38    +43.8600
iter:   6 07:58:28  -811.686383  -1.71  -1.42    +43.5309
iter:   7 08:00:34  -805.224835  -1.55  -1.43    +42.9762
iter:   8 08:02:42  -803.814538  -1.71  -1.52    +43.4342
iter:   9 08:04:49  -806.099870  -1.75  -1.61    +44.2495
iter:  10 08:06:56  -801.477695  -2.02  -1.62    +44.9418
iter:  11 08:09:03  -802.383937  -2.24  -1.77    +46.6131
iter:  12 08:11:10  -801.194404  -2.44  -1.77    +47.6347
iter:  13 08:13:17  -802.682835  -2.38  -1.84    +49.8672
iter:  14 08:15:24  -802.165785  -2.39  -1.83    +50.7979
iter:  15 08:17:30  -802.547340  -2.45  -1.91    +52.1019
iter:  16 08:19:37  -802.941706  -2.35  -1.93    +53.4743
iter:  17 08:21:44  -802.698339  -2.52  -1.93    +54.6770
iter:  18 08:23:51  -802.377415  -2.67  -1.99    +56.3022
iter:  19 08:25:58  -802.482806  -2.74  -2.06    +57.1194
iter:  20 08:28:04  -802.072934  -2.97  -2.06    +58.4843
iter:  21 08:30:08  -802.250987  -3.12  -2.15    +60.1527
iter:  22 08:32:13  -802.291800  -3.34  -2.18    +60.4745
iter:  23 08:34:20  -802.566617  -3.20  -2.20    +61.7391
iter:  24 08:36:27  -803.086933  -2.96  -2.22    +62.7509
iter:  25 08:38:33  -803.087597  -2.92  -2.16    +63.3265
iter:  26 08:40:40  -802.943539  -2.98  -2.22    +63.7852
iter:  27 08:42:47  -803.247566  -3.01  -2.36    +64.2525
iter:  28 08:44:54  -803.077398  -3.10  -2.29    +64.5849
iter:  29 08:47:01  -803.096794  -3.37  -2.42    +65.0457
iter:  30 08:49:08  -803.108529c -3.54  -2.42    +65.2967
iter:  31 08:51:15  -803.141864c -3.64  -2.48    +65.5002
iter:  32 08:53:22  -803.118585c -3.98  -2.50    +65.7816
iter:  33 08:55:29  -803.197497c -3.97  -2.56    +66.0162
iter:  34 08:57:36  -803.204559c -4.28  -2.57    +66.0679
iter:  35 08:59:40  -803.331202  -3.72  -2.62    +66.0708
iter:  36 09:01:45  -803.295740  -3.85  -2.59    +66.1599
iter:  37 09:03:52  -803.353209c -3.80  -2.76    +66.2203
iter:  38 09:05:59  -803.375445c -3.90  -2.86    +66.1543
iter:  39 09:08:06  -803.365661c -4.28  -2.87    +66.2004
iter:  40 09:10:13  -803.406991c -4.34  -3.12    +66.1885
iter:  41 09:12:20  -803.416857c -4.77  -3.08    +66.1738
iter:  42 09:14:27  -803.467706c -4.32  -3.13    +66.0910
iter:  43 09:16:34  -803.481024c -4.91  -3.05    +66.0897
iter:  44 09:18:41  -803.480656c -4.85  -3.05    +65.9259
iter:  45 09:20:48  -803.531582c -4.22  -3.09    +65.6821
iter:  46 09:22:54  -803.521308c -4.81  -2.99    +65.9444
iter:  47 09:25:01  -803.553610c -4.16  -3.08    +65.9592
iter:  48 09:27:08  -803.572308c -4.33  -2.97    +65.8625
iter:  49 09:29:15  -803.595242c -4.54  -3.03    +65.6562
iter:  50 09:31:22  -803.645686c -4.16  -3.01    +65.4281
iter:  51 09:33:29  -803.655454c -4.66  -2.85    +65.3512
iter:  52 09:35:36  -803.659407c -4.71  -2.87    +65.1933
iter:  53 09:37:43  -803.698934c -4.23  -2.90    +64.7602
iter:  54 09:39:50  -803.724570c -4.71  -2.88    +64.6099
iter:  55 09:41:57  -803.704467c -3.96  -2.84    +65.0474
iter:  56 09:44:04  -803.760610c -3.96  -2.78    +64.4466
iter:  57 09:46:11  -803.762437c -4.40  -2.76    +64.3840
iter:  58 09:48:17  -803.767055c -4.38  -2.77    +64.0815
iter:  59 09:50:23  -803.824633c -3.68  -2.81    +63.8164
iter:  60 09:52:29  -803.763547c -4.07  -2.68    +63.5771
iter:  61 09:54:37  -803.768961c -4.34  -2.91    +63.2060
iter:  62 09:56:44  -803.784983c -4.51  -3.02    +62.9457
iter:  63 09:58:51  -803.808396c -4.40  -3.06    +62.6903
iter:  64 10:00:58  -803.821954c -4.50  -3.04    +62.5384
iter:  65 10:03:04  -803.835326c -4.56  -3.06    +62.2471
iter:  66 10:05:08  -803.857801c -4.61  -3.17    +61.9337
iter:  67 10:07:10  -803.886217c -4.47  -3.20    +61.5300
iter:  68 10:09:17  -803.920835c -4.25  -3.19    +60.9322
iter:  69 10:11:24  -803.970101c -3.74  -3.15    +59.8437
iter:  70 10:13:31  -803.974282c -4.62  -3.01    +59.8650
iter:  71 10:15:38  -803.980488c -4.89  -3.01    +59.7310
iter:  72 10:17:45  -803.990576c -4.72  -2.99    +59.5718
iter:  73 10:19:51  -803.977207c -4.90  -2.94    +59.5564
iter:  74 10:21:58  -804.002030c -4.07  -3.03    +59.4482
iter:  75 10:24:05  -803.975462c -4.48  -2.91    +59.4169
iter:  76 10:26:11  -803.965518c -4.68  -3.05    +59.3364
iter:  77 10:28:17  -803.968494c -4.82  -3.25    +59.2551
iter:  78 10:30:23  -803.969409c -4.85  -3.32    +59.2113
iter:  79 10:32:27  -803.969840c -5.29  -3.31    +59.1684
iter:  80 10:34:34  -803.970783c -5.49  -3.40    +59.1256
iter:  81 10:36:42  -803.971126c -5.62  -3.46    +59.0851
iter:  82 10:38:48  -803.972967c -5.64  -3.46    +59.0339
iter:  83 10:40:56  -803.973407c -5.66  -3.50    +58.9903
iter:  84 10:43:03  -803.975758c -5.31  -3.52    +58.9509
iter:  85 10:45:10  -803.974582c -5.43  -3.52    +58.9323
iter:  86 10:47:17  -803.974805c -5.53  -3.57    +58.9030
iter:  87 10:49:24  -803.975739c -5.76  -3.70    +58.8797
iter:  88 10:51:31  -803.975131c -6.12  -3.71    +58.8619
iter:  89 10:53:38  -803.975915c -6.18  -3.79    +58.8327
iter:  90 10:55:44  -803.975926c -6.19  -3.81    +58.8140
iter:  91 10:57:51  -803.976360c -6.41  -3.82    +58.7965
iter:  92 10:59:58  -803.976554c -6.30  -3.87    +58.7737
iter:  93 11:02:05  -803.976595c -6.20  -3.87    +58.7609
iter:  94 11:04:11  -803.977223c -6.24  -3.88    +58.7449
iter:  95 11:06:17  -803.976993c -6.30  -3.89    +58.7340
iter:  96 11:08:24  -803.977687c -6.17  -3.91    +58.7149
iter:  97 11:10:30  -803.977305c -6.29  -3.92    +58.7054
iter:  98 11:12:37  -803.977571c -6.33  -3.96    +58.6921
iter:  99 11:14:45  -803.977719c -6.78  -4.00    +58.6807
iter: 100 11:16:53  -803.977606c -6.50  -4.12c   +58.6644
iter: 101 11:19:01  -803.977894c -6.83  -4.04c   +58.6576
iter: 102 11:21:07  -803.977821c -6.78  -4.12c   +58.6488
iter: 103 11:23:13  -803.978243c -6.56  -4.16c   +58.6402
iter: 104 11:25:21  -803.978118c -6.54  -4.10c   +58.6348
iter: 105 11:27:29  -803.978086c -6.91  -4.15c   +58.6281
iter: 106 11:29:36  -803.978523c -6.69  -4.38c   +58.6210
iter: 107 11:31:44  -803.978190c -7.04  -4.19c   +58.6192
iter: 108 11:33:52  -803.978337c -7.34  -4.40c   +58.6106
iter: 109 11:35:59  -803.978341c -7.65c -4.51c   +58.6053

Converged after 109 iterations.

Dipole moment: (29.220710, 16.508438, 8.109912) |e|*Ang

Total magnetic moment: (0.000000, 0.000000, 58.605294)
Local magnetic moments:
   0 Cr ( 0.000000,  0.000000, -2.193495)
   1 Al ( 0.000000,  0.000000, -0.030913)
   2 Ni ( 0.000000,  0.000000,  0.115269)
   3 Co ( 0.000000,  0.000000,  0.918619)
   4 Al ( 0.000000,  0.000000, -0.018998)
   5 Ni ( 0.000000,  0.000000,  0.100338)
   6 Co ( 0.000000,  0.000000,  1.014144)
   7 Al ( 0.000000,  0.000000, -0.030135)
   8 Al ( 0.000000,  0.000000, -0.038083)
   9 Fe ( 0.000000,  0.000000,  2.130836)
  10 Fe ( 0.000000,  0.000000,  1.990070)
  11 Fe ( 0.000000,  0.000000,  2.021483)
  12 Cr ( 0.000000,  0.000000, -2.142365)
  13 Ni ( 0.000000,  0.000000,  0.300810)
  14 Co ( 0.000000,  0.000000,  0.911430)
  15 Fe ( 0.000000,  0.000000,  2.138542)
  16 Cr ( 0.000000,  0.000000,  1.528893)
  17 Co ( 0.000000,  0.000000,  0.802927)
  18 Al ( 0.000000,  0.000000, -0.030266)
  19 Ni ( 0.000000,  0.000000,  0.371508)
  20 Co ( 0.000000,  0.000000,  1.350854)
  21 Al ( 0.000000,  0.000000, -0.017843)
  22 Ni ( 0.000000,  0.000000,  0.223809)
  23 Ni ( 0.000000,  0.000000,  0.311522)
  24 Ni ( 0.000000,  0.000000,  0.286204)
  25 Fe ( 0.000000,  0.000000,  2.013095)
  26 Fe ( 0.000000,  0.000000,  2.204369)
  27 Cr ( 0.000000,  0.000000, -1.639243)
  28 Fe ( 0.000000,  0.000000,  2.256291)
  29 Co ( 0.000000,  0.000000,  0.847287)
  30 Ni ( 0.000000,  0.000000,  0.196228)
  31 Fe ( 0.000000,  0.000000,  2.225402)
  32 Ni ( 0.000000,  0.000000,  0.298757)
  33 Co ( 0.000000,  0.000000,  1.037286)
  34 Cr ( 0.000000,  0.000000,  1.686570)
  35 Cr ( 0.000000,  0.000000, -1.799388)
  36 Fe ( 0.000000,  0.000000,  2.333161)
  37 Fe ( 0.000000,  0.000000,  1.777184)
  38 Ni ( 0.000000,  0.000000,  0.311150)
  39 Al ( 0.000000,  0.000000, -0.030797)
  40 Al ( 0.000000,  0.000000, -0.007136)
  41 Co ( 0.000000,  0.000000,  1.118994)
  42 Al ( 0.000000,  0.000000,  0.002311)
  43 Cr ( 0.000000,  0.000000, -2.026049)
  44 Cr ( 0.000000,  0.000000, -1.513336)
  45 Al ( 0.000000,  0.000000, -0.006871)
  46 Al ( 0.000000,  0.000000, -0.014798)
  47 Co ( 0.000000,  0.000000,  0.908148)
  48 Fe ( 0.000000,  0.000000,  2.282639)
  49 Ni ( 0.000000,  0.000000,  0.283258)
  50 Cr ( 0.000000,  0.000000, -2.053814)
  51 Cr ( 0.000000,  0.000000, -1.840185)
  52 Cr ( 0.000000,  0.000000,  1.879540)
  53 Co ( 0.000000,  0.000000,  0.735770)
  54 Ni ( 0.000000,  0.000000,  0.193481)
  55 Al ( 0.000000,  0.000000, -0.021761)
  56 Cr ( 0.000000,  0.000000,  1.739540)
  57 Cr ( 0.000000,  0.000000, -1.299498)
  58 Co ( 0.000000,  0.000000,  1.128802)
  59 Ni ( 0.000000,  0.000000,  0.295476)
[...]
  93 Co ( 0.000000,  0.000000,  1.525079)
  94 Fe ( 0.000000,  0.000000,  2.315997)
  95 Ni ( 0.000000,  0.000000,  0.335761)
  96 Cr ( 0.000000,  0.000000, -2.042094)
  97 Ni ( 0.000000,  0.000000,  0.061559)
  98 Cr ( 0.000000,  0.000000,  1.345497)
  99 Fe ( 0.000000,  0.000000,  2.280836)
 100 Al ( 0.000000,  0.000000, -0.031670)
 101 Cr ( 0.000000,  0.000000, -1.022715)
 102 Co ( 0.000000,  0.000000,  0.849701)
 103 Al ( 0.000000,  0.000000, -0.000119)
 104 Cr ( 0.000000,  0.000000, -1.381886)
 105 Al ( 0.000000,  0.000000, -0.011501)
 106 Fe ( 0.000000,  0.000000,  2.451912)
 107 Co ( 0.000000,  0.000000,  0.576261)

Energy contributions relative to reference atoms: (reference = -3235165.067515)

Kinetic:       +288.006634
Potential:     -270.356440
External:        +0.000000
XC:            -850.742158
Entropy (-ST):   -4.094875
Local:          +31.161060
Free energy:   -806.025778
Extrapolated:  -803.978341

Spin contamination: 29.627554 electrons
Showing only first 2 kpts
                      Up                     Down
 Kpt  Band  Eigenvalues  Occupancy  Eigenvalues  Occupancy
  0   454      8.99193    0.99543      9.90289    0.02351
  0   455      9.00643    0.99472      9.92309    0.01929
  0   456      9.01490    0.99425      9.93580    0.01703
  0   457      9.03431    0.99303      9.94863    0.01501

  1   454      8.98269    0.99583      9.90076    0.02400
  1   455      8.99192    0.99543      9.91855    0.02017
  1   456      9.00877    0.99459      9.93562    0.01706
  1   457      9.02866    0.99341      9.94733    0.01520

Fermi level: 9.53022

No gap

Forces in eV/Ang:
  0 Cr    0.55278   -0.35469   -0.69696
  1 Al   -0.45071    0.23894   -0.25362
  2 Ni    0.01118    0.07175   -0.08666
  3 Co    0.02515    0.07819   -0.31115
  4 Al   -0.42940    0.96979    1.08014
  5 Ni    0.43873   -0.43712    0.45962
  6 Co   -0.14749    0.26037    0.90847
  7 Al   -0.53309    0.12981   -0.03208
  8 Al   -0.66776    0.12496    1.92598
  9 Fe    0.56379   -0.20869    0.80345
 10 Fe   -0.05060   -0.47900    0.24865
 11 Fe    0.58119    0.35252    0.21603
 12 Cr    0.14482   -0.46486   -0.06856
 13 Ni   -0.06657   -0.21885   -0.06969
 14 Co    0.46167    0.06045   -0.32895
 15 Fe    0.34485   -0.20675    0.40510
 16 Cr   -1.06864   -0.23501    0.69419
 17 Co   -0.32735    0.28833    0.02698
 18 Al   -0.67257   -0.29822   -0.30882
 19 Ni   -0.43732    0.06566   -0.41534
 20 Co    0.31030   -0.02055   -0.04581
 21 Al    0.96535    0.14555   -0.60345
 22 Ni   -0.45025   -0.20323    0.39866
 23 Ni    0.04194    0.00915   -0.10415
 24 Ni    0.10247    0.62378   -0.13748
 25 Fe   -0.17478    0.57806   -0.81459
 26 Fe   -0.06695   -0.22390   -0.30550
 27 Cr   -1.06793   -0.83550    0.09965
 28 Fe    0.17218   -0.15117    0.67239
 29 Co    0.29256   -0.31624    0.35784
 30 Ni   -0.70922    0.19782    0.04308
 31 Fe    0.11209   -0.56881    0.45635
 32 Ni   -0.09257   -0.05230   -0.59389
 33 Co   -0.08906    0.37741    0.60569
 34 Cr    0.65608    0.92360   -0.11245
 35 Cr    1.11305   -1.20367    0.59005
 36 Fe   -0.35938   -0.31283   -0.14713
 37 Fe    0.01577    0.44393   -0.25978
 38 Ni    0.74225    0.13990   -0.24124
 39 Al    0.91007   -0.06178    0.14225
 40 Al    1.27693    1.12429   -0.54414
 41 Co   -0.07387    0.08210   -0.45537
 42 Al   -1.27840    1.50715   -0.38726
 43 Cr   -0.40293   -0.19712   -0.56400
 44 Cr   -0.64209    0.36124   -2.01765
 45 Al   -0.49060    1.10531   -0.29850
 46 Al    0.27907   -1.00273   -0.85100
 47 Co   -0.38583    0.07740   -0.21147
 48 Fe   -0.16526    0.51587    0.37559
 49 Ni    0.27419   -0.11368    0.43100
 50 Cr    0.54984    0.23813    1.46296
 51 Cr    0.24696    0.40946   -0.43377
 52 Cr   -0.49018   -0.23142    0.42901
 53 Co   -0.41311    0.05675    0.29769
 54 Ni   -0.24440   -0.39420   -0.02458
 55 Al   -0.66194    1.03157    0.66509
 56 Cr    0.61765   -0.75725   -0.06638
 57 Cr    0.42965   -0.55221    0.34101
 58 Co   -0.04956    0.12925   -0.11838
 59 Ni   -0.05032   -0.56208   -0.18366
[...]
 93 Co    0.02604    0.26017   -0.04743
 94 Fe   -0.38333   -0.37518    0.03112
 95 Ni    0.06778   -0.05293    0.18191
 96 Cr   -0.06290    0.33576    0.59100
 97 Ni   -0.53964   -0.29053    0.13710
 98 Cr   -0.78938    0.73882    0.55004
 99 Fe   -0.56781    0.10541   -0.10744
100 Al   -0.24393   -1.00079   -0.88835
101 Cr   -0.26064   -0.41318    0.26030
102 Co   -0.20663   -0.48334    0.12539
103 Al   -0.77589   -0.51017    0.57508
104 Cr    0.74972   -1.31063    0.78526
105 Al   -0.00603   -1.84934   -0.31841
106 Fe    0.52437    0.46555   -0.36569
107 Co    0.73275   -0.77495    0.39462

Date: Sat Apr 15 11:36:19 2023