User:   c.zeng@d0085
Date:   Fri Apr 14 02:33:15 2023
Arch:   x86_64
Pid:    179581
CWD:    /home/c.zeng/projects/hea-corrosion/hea-mlp/data-curation/bulk-md/dft-jobs/86
Python: 3.8.1
gpaw:   /home/c.zeng/usr/installs/gpaw/source/gpaw-22.8.0/gpaw
_gpaw:  /home/c.zeng/usr/installs/gpaw/source/gpaw-22.8.0/
        _gpaw.cpython-38-x86_64-linux-gnu.so
ase:    /home/c.zeng/.local/lib/python3.8/site-packages/ase-3.22.1-py3.8.egg/ase (version 3.22.1)
numpy:  /shared/centos7/python/3.8.1/lib/python3.8/site-packages/numpy (version 1.17.4)
scipy:  /shared/centos7/python/3.8.1/lib/python3.8/site-packages/scipy (version 1.4.1)
units:  Angstrom and eV
cores: 30
OpenMP: False
OMP_NUM_THREADS: 1

Input parameters:
  convergence: {energy: 0.0001}
  kpts: [2 2 2]
  maxiter: 666
  mode: {ecut: 350.0,
         name: pw}
  occupations: {fixmagmom: False,
                name: fermi-dirac,
                width: 0.1}
  spinpol: True
  xc: PBE

System changes: positions, numbers, cell, pbc, initial_charges, initial_magmoms

Initialize ...

species:
  Al:
    name: Aluminium
    id: 0292cae29f5d6237e50f6abdd43a7bdd
    Z: 13.0
    valence: 3
    core: 10
    charge: 0.0
    file: /home/c.zeng/usr/data/gpaw-setups-0.9.20000/Al.PBE.gz
    compensation charges: {type: gauss,
                           rc: 0.34,
                           lmax: 2}
    cutoffs: {filter: 1.91,
              core: 2.36}
    valence states:
      #              energy  rcut
      - 3s(2.00)    -7.753   1.085
      - 3p(1.00)    -2.712   1.085
      -  s          19.459   1.085
      -  p          24.499   1.085
      -  d           0.000   1.085

    # Using partial waves for Al as LCAO basis

  Fe:
    name: Iron
    id: 37abbd8d6c3c35915a9b583b742da910
    Z: 26.0
    valence: 8
    core: 18
    charge: 0.0
    file: /home/c.zeng/usr/data/gpaw-setups-0.9.20000/Fe.PBE.gz
    compensation charges: {type: gauss,
                           rc: 0.33,
                           lmax: 2}
    cutoffs: {filter: 2.06,
              core: 2.67}
    valence states:
      #              energy  rcut
      - 4s(2.00)    -5.291   1.164
      - 4p(0.00)    -1.326   1.058
      - 3d(6.00)    -7.505   1.058
      -  s          21.920   1.164
      -  p          25.885   1.058
      -  d          19.706   1.058

[...]

  Cr:
    name: Chromium
    id: 33f258bda2ca9f93018e70263a35547b
    Z: 24.0
    valence: 6
    core: 18
    charge: 0.0
    file: /home/c.zeng/usr/data/gpaw-setups-0.9.20000/Cr.PBE.gz
    compensation charges: {type: gauss,
                           rc: 0.35,
                           lmax: 2}
    cutoffs: {filter: 2.14,
              core: 3.04}
    valence states:
      #              energy  rcut
      - 4s(1.00)    -4.007   1.164
      - 4p(0.00)    -0.989   1.217
      - 3d(5.00)    -2.913   1.111
      -  s          23.205   1.164
      -  p          26.223   1.217
      -  d          24.299   1.111

[...]

  Ni:
    name: Nickel
    id: 0d9f38a9d6e76a2886f07bb4381f212b
    Z: 28.0
    valence: 16
    core: 12
    charge: 0.0
    file: /home/c.zeng/usr/data/gpaw-setups-0.9.20000/Ni.PBE.gz
    compensation charges: {type: gauss,
                           rc: 0.36,
                           lmax: 2}
    cutoffs: {filter: 2.14,
              core: 1.98}
    valence states:
      #              energy  rcut
      - 4s(2.00)    -5.642   1.164
      - 3p(6.00)   -71.394   1.207
      - 4p(0.00)    -1.226   1.207
      - 3d(8.00)    -8.875   1.138
      -  s          21.570   1.164
      -  d          18.337   1.138

[...]

  Co:
    name: Cobalt
    id: 339d20d5b0b93d2de9531a1bee871d91
    Z: 27.0
    valence: 9
    core: 18
    charge: 0.0
    file: /home/c.zeng/usr/data/gpaw-setups-0.9.20000/Co.PBE.gz
    compensation charges: {type: gauss,
                           rc: 0.32,
                           lmax: 2}
    cutoffs: {filter: 1.87,
              core: 2.55}
    valence states:
      #              energy  rcut
      - 4s(2.00)    -5.469   1.005
      - 4p(0.00)    -1.277   1.058
      - 3d(7.00)    -8.205   1.005
      -  s          21.742   1.005
      -  p          25.934   1.058
      -  d          19.007   1.005

    # Using partial waves for Co as LCAO basis

Reference energy: -3235165.067515  # eV

Spin-polarized calculation.
Magnetic moment: 121.100000

Convergence criteria:
 Maximum [total energy] change in last 3 cyles: 0.0001 eV / electron
 Maximum integral of absolute [dens]ity change: 0.0001 electrons / valence electron
 Maximum integral of absolute [eigenst]ate change: 4e-08 eV^2 / valence electron
 Maximum number of scf [iter]ations: 666
 (Square brackets indicate name in SCF output, whereas a 'c' in
 the SCF output indicates the quantity has converged.)

Symmetries present (total): 1

  ( 1  0  0)
  ( 0  1  0)
  ( 0  0  1)

8 k-points: 2 x 2 x 2 Monkhorst-Pack grid
4 k-points in the irreducible part of the Brillouin zone
       k-points in crystal coordinates                weights
   0:     0.25000000   -0.25000000   -0.25000000          2/8
   1:     0.25000000   -0.25000000    0.25000000          2/8
   2:     0.25000000    0.25000000   -0.25000000          2/8
   3:     0.25000000    0.25000000    0.25000000          2/8

Wave functions: Plane wave expansion
  Cutoff energy: 350.000 eV
  Number of coefficients (min, max): 19084, 19084
  Pulay-stress correction: 0.000000 eV/Ang^3 (de/decut=0.000000)
  Using FFTW library
  ScaLapack parameters: grid=1x1, blocksize=None
  Wavefunction extrapolation:
    Improved wavefunction reuse through dual PAW basis

Occupation numbers: Fermi-Dirac:
  width: 0.1000  # eV

Eigensolver
   Davidson(niter=2)

Densities:
  Coarse grid: 48*48*48 grid
  Fine grid: 96*96*96 grid
  Total Charge: 0.000000

Density mixing:
  Method: difference
  Backend: pulay
  Linear mixing parameter: 0.05
  old densities: 5
  Damping of long wavelength oscillations: 50

Hamiltonian:
  XC and Coulomb potentials evaluated on a 96*96*96 grid
  Using the PBE Exchange-Correlation functional
  External potential:
    NoExternalPotential

XC parameters: PBE with 2 nearest neighbor stencil

Total number of cores used: 30
Parallelization over k-points: 2
Domain decomposition: 5 x 3 x 1

Number of atoms: 108
Number of atomic orbitals: 933
Number of bands in calculation: 624
Number of valence electrons: 912
Bands to converge: occupied

... initialized

Initializing position-dependent things.

Density initialized from atomic densities
Creating initial wave functions:
  624 bands from LCAO basis set

        .-------Ni-----------------.
       /|           Ni             |
      Ni|   Cr Fe                  |
     /  |                Ni       Al
    /   | Fe    CoFe        Al     |
   /e   |    Al    Al        Cr    |
  /    Cr  CoCr      FeCoFe    Crl |
 *     Cr      FeCo Fe  CoNi  Cr   |
 |      |AlAl    NNi Fe Ni  FAl   Cr
 |      FeFeCr CoAlCo CrNil FeCr   |
 |    Co|  Fe NiCr   CCr Fe  CrFe  |
 |    CoAl  CrAl NiNiAl NiNCo      |
 |      |CoAl    NCo     CrCrCo  Al|
 |  Fe  .-Ni-------NCol------------.
 |  Co Ni  CCoAlAl    Co Ni FeNi  /
 |    / Cr             Co Al     /
 |   /   Co      Fe          Fe /
 |  /      Ale       Cor   Fe  /
 | /                   Ni     /
 |/             Ni           /
 *--------------------------Al

Positions:
   0 Al    10.777313    0.293123    0.160854    ( 0.0000,  0.0000,  0.0000)
   1 Fe    10.850391    1.809759    2.142120    ( 0.0000,  0.0000,  2.0000)
   2 Cr     1.771086   10.663235    2.126662    ( 0.0000,  0.0000,  0.0000)
   3 Cr     1.816553    1.742557   -0.068166    ( 0.0000,  0.0000,  0.0000)
   4 Ni     3.481931   10.574603   10.864096    ( 0.0000,  0.0000,  1.5000)
   5 Al     3.540227    1.701226    1.796951    ( 0.0000,  0.0000,  0.0000)
   6 Al     5.413081   10.827854    1.453097    ( 0.0000,  0.0000,  0.0000)
   7 Ni     5.686853    1.881862   10.900993    ( 0.0000,  0.0000,  1.5000)
   8 Fe     7.450903    0.016593   10.864990    ( 0.0000,  0.0000,  2.0000)
   9 Co     7.628812    2.020111    1.681868    ( 0.0000,  0.0000,  2.1000)
  10 Ni     9.024495    0.119700    2.005250    ( 0.0000,  0.0000,  1.5000)
  11 Fe     9.008715    1.978852   10.685167    ( 0.0000,  0.0000,  2.0000)
  12 Fe    10.876205    3.611425   -0.026876    ( 0.0000,  0.0000,  2.0000)
  13 Co    10.905184    5.287606    1.892490    ( 0.0000,  0.0000,  2.1000)
  14 Cr     1.727670    3.558326    1.940306    ( 0.0000,  0.0000,  0.0000)
  15 Co     1.875272    5.638084   10.922092    ( 0.0000,  0.0000,  2.1000)
  16 Fe     3.432832    3.657566    0.130083    ( 0.0000,  0.0000,  2.0000)
  17 Al     3.664097    5.568878    1.625576    ( 0.0000,  0.0000,  0.0000)
  18 Fe     5.378833    3.574330    1.696722    ( 0.0000,  0.0000,  2.0000)
  19 Fe     5.503225    5.383834   -0.220274    ( 0.0000,  0.0000,  2.0000)
  20 Cr     7.474254    3.735497   10.974819    ( 0.0000,  0.0000,  0.0000)
  21 Co     7.016647    5.684854    1.752854    ( 0.0000,  0.0000,  2.1000)
  22 Al     9.259196    3.795746    2.116356    ( 0.0000,  0.0000,  0.0000)
  23 Fe     9.203754    5.261115    0.062850    ( 0.0000,  0.0000,  2.0000)
  24 Ni    10.874410    7.127356   -0.021193    ( 0.0000,  0.0000,  1.5000)
  25 Al    -0.228775    8.831588    1.994015    ( 0.0000,  0.0000,  0.0000)
  26 Ni     1.743984    7.187465    1.883233    ( 0.0000,  0.0000,  1.5000)
  27 Cr     1.639150    8.882332   10.933916    ( 0.0000,  0.0000,  0.0000)
  28 Fe     3.708183    7.435679   -0.035712    ( 0.0000,  0.0000,  2.0000)
  29 Ni     3.934346    9.012782    1.735754    ( 0.0000,  0.0000,  1.5000)
  30 Ni     5.446922    7.502624    1.650142    ( 0.0000,  0.0000,  1.5000)
  31 Ni     5.408838    9.118749   10.694351    ( 0.0000,  0.0000,  1.5000)
  32 Co     7.046797    7.506997    0.018309    ( 0.0000,  0.0000,  2.1000)
  33 Cr     7.142128    9.096796    1.748950    ( 0.0000,  0.0000,  0.0000)
  34 Fe     9.024207    6.944953    1.626181    ( 0.0000,  0.0000,  2.0000)
  35 Ni     9.133983    9.153641    0.118934    ( 0.0000,  0.0000,  1.5000)
  36 Fe     0.036235   -0.161421    3.749080    ( 0.0000,  0.0000,  2.0000)
  37 Co    10.855885    1.793104    5.425140    ( 0.0000,  0.0000,  2.1000)
  38 Cr     1.926690   10.613270    5.647588    ( 0.0000,  0.0000,  0.0000)
  39 Ni     2.038686    1.633268    3.722894    ( 0.0000,  0.0000,  1.5000)
  40 Al     3.655909   10.548157    3.734345    ( 0.0000,  0.0000,  0.0000)
  41 Al     3.697736    1.666161    5.814223    ( 0.0000,  0.0000,  0.0000)
  42 Cr     5.476729   10.824988    5.549856    ( 0.0000,  0.0000,  0.0000)
  43 Al     5.431063    1.948094    3.842253    ( 0.0000,  0.0000,  0.0000)
  44 Al     7.055736   10.759392    3.576636    ( 0.0000,  0.0000,  0.0000)
  45 Co     7.325061    1.699404    5.329765    ( 0.0000,  0.0000,  2.1000)
  46 Cr     8.985198   -0.207226    5.479366    ( 0.0000,  0.0000,  0.0000)
  47 Ni     9.077714    1.862659    3.699403    ( 0.0000,  0.0000,  1.5000)
  48 Fe     0.320411    3.472953    3.673911    ( 0.0000,  0.0000,  2.0000)
  49 Fe    10.861545    5.308672    5.390151    ( 0.0000,  0.0000,  2.0000)
  50 Al     2.041750    3.597418    5.212927    ( 0.0000,  0.0000,  0.0000)
  51 Co     1.693939    5.318753    3.681656    ( 0.0000,  0.0000,  2.1000)
  52 Co     3.671459    3.496974    3.459698    ( 0.0000,  0.0000,  2.1000)
  53 Ni     3.639812    5.469748    5.393246    ( 0.0000,  0.0000,  1.5000)
  54 Ni     5.338082    3.740834    5.357979    ( 0.0000,  0.0000,  1.5000)
  55 Co     5.480062    5.414428    3.599283    ( 0.0000,  0.0000,  2.1000)
  56 Al     7.156823    3.661166    3.563792    ( 0.0000,  0.0000,  0.0000)
  57 Cr     7.103622    5.325410    5.395085    ( 0.0000,  0.0000,  0.0000)
  58 Ni     8.981938    3.584200    5.303115    ( 0.0000,  0.0000,  1.5000)
  59 Cr     8.948624    5.699615    3.859029    ( 0.0000,  0.0000,  0.0000)
[...]
  93 Co     7.287540    5.402625    8.734770    ( 0.0000,  0.0000,  2.1000)
  94 Ni     8.965836    3.880650    8.929880    ( 0.0000,  0.0000,  1.5000)
  95 Fe     9.237815    5.640509    7.225418    ( 0.0000,  0.0000,  2.0000)
  96 Al    -0.147693    7.414230    7.325113    ( 0.0000,  0.0000,  0.0000)
  97 Al    -0.025760    9.089529    9.094124    ( 0.0000,  0.0000,  0.0000)
  98 Fe     1.792647    7.357020    9.178358    ( 0.0000,  0.0000,  2.0000)
  99 Co     1.877094    8.778947    7.178993    ( 0.0000,  0.0000,  2.1000)
 100 Fe     3.635364    7.266601    7.116350    ( 0.0000,  0.0000,  2.0000)
 101 Co     3.636548    8.939841    8.805878    ( 0.0000,  0.0000,  2.1000)
 102 Al     5.519406    7.245840    8.975344    ( 0.0000,  0.0000,  0.0000)
 103 Fe     5.556878    9.002498    7.239524    ( 0.0000,  0.0000,  2.0000)
 104 Co     7.242504    7.118850    7.169498    ( 0.0000,  0.0000,  2.1000)
 105 Ni     7.483796    9.071905    9.109626    ( 0.0000,  0.0000,  1.5000)
 106 Al     8.887452    7.056591    9.164315    ( 0.0000,  0.0000,  0.0000)
 107 Cr     9.113358    9.087210    7.388724    ( 0.0000,  0.0000,  0.0000)

Unit cell:
           periodic     x           y           z      points  spacing
  1. axis:    yes   10.872400    0.000000    0.000000    48     0.2265
  2. axis:    yes    0.000000   10.872400    0.000000    48     0.2265
  3. axis:    yes    0.000000    0.000000   10.872400    48     0.2265

  Lengths:  10.872400  10.872400  10.872400
  Angles:   90.000000  90.000000  90.000000

Effective grid spacing dv^(1/3) = 0.2265

     iter     time        total  log10-change:  magmom
                         energy  eigst   dens
iter:   1 02:36:24  -957.449085                  +121.3864
iter:   2 02:37:37  -841.156962  -0.19  -1.16    +65.1162
iter:   3 02:38:51  -823.895564  -0.90  -1.20    +54.6353
iter:   4 02:40:05  -816.362847  -1.25  -1.27    +51.1437
iter:   5 02:41:20  -805.787538  -1.55  -1.28    +48.6708
iter:   6 02:42:34  -798.061946  -1.36  -1.34    +48.4048
iter:   7 02:43:48  -804.694211  -1.27  -1.47    +48.0205
iter:   8 02:45:02  -795.742126  -1.58  -1.50    +47.8391
iter:   9 02:46:16  -791.444911  -2.14  -1.63    +48.4900
iter:  10 02:47:30  -791.449230  -2.47  -1.76    +49.5562
iter:  11 02:48:44  -792.619537  -2.42  -1.80    +50.7558
iter:  12 02:49:58  -792.253034  -2.38  -1.81    +51.4336
iter:  13 02:51:13  -792.459092  -2.46  -1.89    +52.0255
iter:  14 02:52:27  -791.972248  -2.67  -1.94    +52.6830
iter:  15 02:53:41  -791.898031  -2.94  -2.00    +53.1196
iter:  16 02:54:55  -792.170355  -2.90  -2.07    +53.6239
iter:  17 02:56:09  -792.374688  -2.87  -2.11    +53.9446
iter:  18 02:57:23  -791.946462  -3.01  -2.14    +53.9371
iter:  19 02:58:38  -792.044980  -3.22  -2.29    +54.3044
iter:  20 02:59:52  -792.048310  -3.44  -2.33    +54.4483
iter:  21 03:01:06  -792.145064  -3.24  -2.39    +54.4975
iter:  22 03:02:20  -792.118230  -3.49  -2.39    +54.6646
iter:  23 03:03:34  -792.157923c -3.61  -2.47    +54.7161
iter:  24 03:04:48  -792.174414c -3.77  -2.50    +54.7199
iter:  25 03:06:02  -792.261910  -3.73  -2.55    +54.8160
iter:  26 03:07:16  -792.281324  -3.70  -2.57    +54.7976
iter:  27 03:08:30  -792.306639c -3.92  -2.62    +54.7431
iter:  28 03:09:45  -792.353561c -3.88  -2.66    +54.7959
iter:  29 03:10:59  -792.373599c -4.11  -2.68    +54.7298
iter:  30 03:12:13  -792.399576c -4.17  -2.73    +54.7046
iter:  31 03:13:27  -792.452960c -4.02  -2.77    +54.7111
iter:  32 03:14:41  -792.464925c -4.25  -2.78    +54.7319
iter:  33 03:15:56  -792.488226c -4.26  -2.83    +54.7811
iter:  34 03:17:10  -792.506410c -4.40  -2.87    +54.8618
iter:  35 03:18:24  -792.517812c -4.36  -2.88    +54.8890
iter:  36 03:19:38  -792.521791c -4.48  -2.93    +54.9528
iter:  37 03:20:52  -792.532790c -4.63  -2.98    +55.0532
iter:  38 03:22:06  -792.541564c -4.73  -3.03    +55.1198
iter:  39 03:23:21  -792.554973c -4.65  -3.05    +55.2301
iter:  40 03:24:35  -792.561899c -4.79  -3.09    +55.3014
iter:  41 03:25:50  -792.570801c -4.72  -3.11    +55.3606
iter:  42 03:27:04  -792.573538c -4.96  -3.15    +55.4151
iter:  43 03:28:18  -792.581828c -4.92  -3.20    +55.5187
iter:  44 03:29:32  -792.585610c -5.08  -3.23    +55.5775
iter:  45 03:30:46  -792.593429c -5.01  -3.26    +55.6760
iter:  46 03:32:01  -792.598988c -5.04  -3.31    +55.7629
iter:  47 03:33:15  -792.609535c -4.79  -3.34    +55.8754
iter:  48 03:34:29  -792.611736c -5.22  -3.36    +55.9358
iter:  49 03:35:43  -792.618044c -5.10  -3.39    +56.0306
iter:  50 03:36:57  -792.625070c -4.95  -3.42    +56.1462
iter:  51 03:38:12  -792.633516c -4.85  -3.44    +56.2994
iter:  52 03:39:26  -792.652415c -4.19  -3.45    +56.6975
iter:  53 03:40:40  -792.678551c -3.60  -3.36    +57.5160
iter:  54 03:41:54  -792.678892c -4.81  -3.13    +57.4629
iter:  55 03:43:08  -792.681053c -5.08  -3.14    +57.5706
iter:  56 03:44:22  -792.686222c -4.65  -3.12    +57.9361
iter:  57 03:45:37  -792.686914c -5.07  -3.06    +58.0875
iter:  58 03:46:51  -792.684727c -5.08  -3.04    +58.1236
iter:  59 03:48:05  -792.683458c -5.16  -3.01    +58.1140
iter:  60 03:49:19  -792.679418c -5.11  -3.04    +58.1205
iter:  61 03:50:34  -792.667939c -4.30  -3.06    +58.1050
iter:  62 03:51:48  -792.669019c -4.50  -3.06    +58.0783
iter:  63 03:53:02  -792.659889c -4.94  -3.05    +57.8138
iter:  64 03:54:16  -792.666575c -4.68  -3.23    +57.5849
iter:  65 03:55:31  -792.660092c -4.84  -3.19    +57.5427
iter:  66 03:56:45  -792.659040c -5.19  -3.32    +57.4808
iter:  67 03:57:59  -792.659671c -5.25  -3.50    +57.4352
iter:  68 03:59:14  -792.659195c -5.49  -3.48    +57.4119
iter:  69 04:00:28  -792.659664c -5.63  -3.61    +57.3449
iter:  70 04:01:42  -792.660158c -5.81  -3.64    +57.2942
iter:  71 04:02:56  -792.659712c -5.69  -3.69    +57.2374
iter:  72 04:04:11  -792.660146c -5.87  -3.68    +57.2050
iter:  73 04:05:25  -792.659748c -6.05  -3.78    +57.1699
iter:  74 04:06:39  -792.659909c -5.85  -3.87    +57.1098
iter:  75 04:07:54  -792.659562c -5.72  -3.87    +57.0378
iter:  76 04:09:08  -792.659489c -6.04  -3.90    +56.9995
iter:  77 04:10:22  -792.659679c -5.94  -3.90    +56.9429
iter:  78 04:11:36  -792.659420c -6.71  -3.82    +56.9512
iter:  79 04:12:51  -792.659235c -6.68  -3.84    +56.9274
iter:  80 04:14:05  -792.659129c -6.13  -3.83    +56.9064
iter:  81 04:15:19  -792.658585c -6.36  -3.83    +56.9080
iter:  82 04:16:34  -792.658603c -6.43  -3.95    +56.9056
iter:  83 04:17:48  -792.658284c -6.80  -3.97    +56.9117
iter:  84 04:19:02  -792.658556c -6.87  -3.99    +56.9186
iter:  85 04:20:17  -792.658421c -6.57  -4.01c   +56.9217
iter:  86 04:21:31  -792.658349c -6.50  -4.01c   +56.9221
iter:  87 04:22:45  -792.658293c -6.82  -4.17c   +56.9253
iter:  88 04:23:59  -792.658241c -7.10  -4.27c   +56.9293
iter:  89 04:25:14  -792.658309c -7.34  -4.28c   +56.9303
iter:  90 04:26:28  -792.658395c -7.26  -4.33c   +56.9330
iter:  91 04:27:42  -792.658248c -7.27  -4.35c   +56.9342
iter:  92 04:28:56  -792.658330c -7.45c -4.39c   +56.9349

Converged after 92 iterations.

Dipole moment: (30.230154, 36.411868, -0.997334) |e|*Ang

Total magnetic moment: (0.000000, 0.000000, 56.934870)
Local magnetic moments:
   0 Al ( 0.000000,  0.000000, -0.012783)
   1 Fe ( 0.000000,  0.000000,  2.124770)
   2 Cr ( 0.000000,  0.000000, -2.157605)
   3 Cr ( 0.000000,  0.000000,  1.947921)
   4 Ni ( 0.000000,  0.000000,  0.082033)
   5 Al ( 0.000000,  0.000000, -0.005376)
   6 Al ( 0.000000,  0.000000, -0.011488)
   7 Ni ( 0.000000,  0.000000,  0.344212)
   8 Fe ( 0.000000,  0.000000,  2.336702)
   9 Co ( 0.000000,  0.000000,  0.877426)
  10 Ni ( 0.000000,  0.000000,  0.248340)
  11 Fe ( 0.000000,  0.000000,  1.927923)
  12 Fe ( 0.000000,  0.000000,  1.958092)
  13 Co ( 0.000000,  0.000000,  1.144810)
  14 Cr ( 0.000000,  0.000000, -1.727947)
  15 Co ( 0.000000,  0.000000,  1.128309)
  16 Fe ( 0.000000,  0.000000,  2.161118)
  17 Al ( 0.000000,  0.000000, -0.035114)
  18 Fe ( 0.000000,  0.000000,  2.398602)
  19 Fe ( 0.000000,  0.000000,  2.244865)
  20 Cr ( 0.000000,  0.000000, -1.997198)
  21 Co ( 0.000000,  0.000000,  1.460474)
  22 Al ( 0.000000,  0.000000, -0.025046)
  23 Fe ( 0.000000,  0.000000,  1.677966)
  24 Ni ( 0.000000,  0.000000,  0.251656)
  25 Al ( 0.000000,  0.000000, -0.021620)
  26 Ni ( 0.000000,  0.000000,  0.282876)
  27 Cr ( 0.000000,  0.000000,  1.223213)
  28 Fe ( 0.000000,  0.000000,  2.114446)
  29 Ni ( 0.000000,  0.000000,  0.142364)
  30 Ni ( 0.000000,  0.000000,  0.246610)
  31 Ni ( 0.000000,  0.000000,  0.280262)
  32 Co ( 0.000000,  0.000000,  1.219923)
  33 Cr ( 0.000000,  0.000000, -1.749069)
  34 Fe ( 0.000000,  0.000000,  2.355554)
  35 Ni ( 0.000000,  0.000000,  0.178643)
  36 Fe ( 0.000000,  0.000000,  1.635714)
  37 Co ( 0.000000,  0.000000,  1.266081)
  38 Cr ( 0.000000,  0.000000, -2.031686)
  39 Ni ( 0.000000,  0.000000, -0.049600)
  40 Al ( 0.000000,  0.000000,  0.003794)
  41 Al ( 0.000000,  0.000000, -0.006089)
  42 Cr ( 0.000000,  0.000000, -1.449717)
  43 Al ( 0.000000,  0.000000, -0.006351)
  44 Al ( 0.000000,  0.000000,  0.003882)
  45 Co ( 0.000000,  0.000000,  0.277236)
  46 Cr ( 0.000000,  0.000000, -1.345839)
  47 Ni ( 0.000000,  0.000000,  0.227858)
  48 Fe ( 0.000000,  0.000000,  1.745683)
  49 Fe ( 0.000000,  0.000000,  2.000416)
  50 Al ( 0.000000,  0.000000, -0.025217)
  51 Co ( 0.000000,  0.000000,  0.991467)
  52 Co ( 0.000000,  0.000000,  0.830533)
  53 Ni ( 0.000000,  0.000000,  0.375439)
  54 Ni ( 0.000000,  0.000000,  0.159235)
  55 Co ( 0.000000,  0.000000,  1.130239)
  56 Al ( 0.000000,  0.000000, -0.018779)
  57 Cr ( 0.000000,  0.000000,  1.297155)
  58 Ni ( 0.000000,  0.000000,  0.076129)
  59 Cr ( 0.000000,  0.000000, -1.830443)
[...]
  93 Co ( 0.000000,  0.000000,  1.291459)
  94 Ni ( 0.000000,  0.000000,  0.210023)
  95 Fe ( 0.000000,  0.000000,  1.701137)
  96 Al ( 0.000000,  0.000000, -0.032394)
  97 Al ( 0.000000,  0.000000, -0.023500)
  98 Fe ( 0.000000,  0.000000,  1.769285)
  99 Co ( 0.000000,  0.000000,  0.917414)
 100 Fe ( 0.000000,  0.000000,  2.186208)
 101 Co ( 0.000000,  0.000000,  1.245097)
 102 Al ( 0.000000,  0.000000, -0.049934)
 103 Fe ( 0.000000,  0.000000,  2.336952)
 104 Co ( 0.000000,  0.000000,  1.187794)
 105 Ni ( 0.000000,  0.000000,  0.344574)
 106 Al ( 0.000000,  0.000000, -0.037390)
 107 Cr ( 0.000000,  0.000000,  1.396746)

Energy contributions relative to reference atoms: (reference = -3235165.067515)

Kinetic:       +447.421661
Potential:     -399.996529
External:        +0.000000
XC:            -869.152072
Entropy (-ST):   -3.921043
Local:          +31.029131
Free energy:   -794.618852
Extrapolated:  -792.658330

Spin contamination: 26.121892 electrons
Showing only first 2 kpts
                      Up                     Down
 Kpt  Band  Eigenvalues  Occupancy  Eigenvalues  Occupancy
  0   454      9.01844    0.99521      9.94124    0.01999
  0   455      9.04127    0.99399      9.95454    0.01755
  0   456      9.04786    0.99358      9.97164    0.01483
  0   457      9.06372    0.99248      9.98995    0.01238

  1   454      9.02617    0.99482      9.93458    0.02134
  1   455      9.03822    0.99416      9.95029    0.01830
  1   456      9.04990    0.99345      9.96010    0.01661
  1   457      9.06984    0.99201      9.98409    0.01312

Fermi level: 9.55203

No gap

Forces in eV/Ang:
  0 Al   -0.73910   -1.73379    0.21028
  1 Fe    0.82555   -0.60513   -1.26291
  2 Cr   -0.44286   -0.21444   -2.09636
  3 Cr   -0.79022   -0.06501    0.27862
  4 Ni   -0.43642    1.03909   -0.49410
  5 Al    0.28733    0.27822   -0.61015
  6 Al    0.27636    0.72826    0.27200
  7 Ni   -0.72033    0.14493   -0.37884
  8 Fe    0.15213    0.17059    0.25946
  9 Co   -1.43946   -0.31878    0.71911
 10 Ni    0.17054   -0.59575   -0.81497
 11 Fe    0.68263    0.16118    1.14898
 12 Fe    0.23067   -0.12579    0.65541
 13 Co    1.21538    1.60235   -0.36294
 14 Cr    0.27804    0.00979   -1.03910
 15 Co   -1.31456   -0.97615    0.04224
 16 Fe    0.54974   -0.63024   -1.05991
 17 Al    0.42023   -0.37945    1.10519
 18 Fe    0.54382    0.38692    0.30380
 19 Fe    1.00837    0.07851    1.11831
 20 Cr   -1.08427    0.40275   -0.65332
 21 Co    0.44376   -0.84722    0.09425
 22 Al   -0.62352   -0.88770   -0.76164
 23 Fe   -0.89758    0.20593   -0.41578
 24 Ni   -0.58247    0.14939    0.21967
 25 Al    1.66639    0.12835   -1.84602
 26 Ni    0.08711    0.20218    0.07197
 27 Cr    0.98004    1.19677    0.60566
 28 Fe   -0.65145   -0.00660   -0.40079
 29 Ni   -3.59849    1.46406    0.90436
 30 Ni    0.51353   -3.41756    0.74481
 31 Ni    0.52895    0.17565   -0.72824
 32 Co    1.88170   -1.66140   -0.31400
 33 Cr    1.92248   -0.48197   -0.44365
 34 Fe   -0.62143    0.79543    0.85345
 35 Ni    0.32345   -0.41110   -0.21546
 36 Fe   -0.35797    1.91031    0.22440
 37 Co    0.30375   -0.21620   -0.15478
 38 Cr   -0.99313    0.31586    0.18715
 39 Ni   -0.64788   -0.20660    0.45902
 40 Al    0.36335    1.17209   -0.45605
 41 Al   -1.16516    0.94960   -1.02113
 42 Cr    0.28042    0.37455    0.54228
 43 Al   -0.58509   -1.13746   -0.65057
 44 Al    1.72576    2.27967    0.07664
 45 Co   -0.42131    0.02345    0.82457
 46 Cr   -0.29604    1.13847   -0.31012
 47 Ni    0.05366   -0.69449   -0.12322
 48 Fe   -2.36307    0.19132    0.69152
 49 Fe   -1.10970    0.60666   -0.94806
 50 Al   -0.02187   -0.69835    1.83146
 51 Co    0.99851    1.56734   -0.35945
 52 Co    0.48873    1.51779   -0.32213
 53 Ni   -0.26641    0.11500   -0.51102
 54 Ni   -0.28161   -1.96803   -0.32520
 55 Co   -0.77093    0.87538   -0.42765
 56 Al    0.65343    0.07559   -0.19739
 57 Cr    0.67220    1.80854    0.38605
 58 Ni    0.71446    0.47663   -0.05730
 59 Cr    0.48304   -0.23310   -0.20670
[...]
 93 Co   -1.59041   -0.47362    0.89571
 94 Ni    0.48056   -1.31190    0.35864
 95 Fe   -1.10931   -1.61521   -1.50174
 96 Al    1.58532   -1.26270   -1.07553
 97 Al   -1.53267   -0.05502    0.81456
 98 Fe    0.07963   -0.54030   -0.71056
 99 Co   -0.28618    1.55901    0.62627
100 Fe    0.24524   -0.81478    0.34411
101 Co    0.25951    0.24823    1.11311
102 Al    0.45950    0.12548   -0.22310
103 Fe    0.28842    1.16883    0.59403
104 Co   -0.09847    0.91787   -0.51791
105 Ni   -1.03083    0.26625   -0.39710
106 Al    0.07302    1.12468    1.28284
107 Cr   -2.29009    0.81393   -1.42300

Date: Fri Apr 14 04:29:13 2023