User:   c.zeng@d0072
Date:   Fri Apr 14 05:24:43 2023
Arch:   x86_64
Pid:    19843
CWD:    /home/c.zeng/projects/hea-corrosion/hea-mlp/data-curation/bulk-mcmc/dft-jobs/11
Python: 3.8.1
gpaw:   /home/c.zeng/usr/installs/gpaw/source/gpaw-22.8.0/gpaw
_gpaw:  /home/c.zeng/usr/installs/gpaw/source/gpaw-22.8.0/
        _gpaw.cpython-38-x86_64-linux-gnu.so
ase:    /home/c.zeng/.local/lib/python3.8/site-packages/ase-3.22.1-py3.8.egg/ase (version 3.22.1)
numpy:  /shared/centos7/python/3.8.1/lib/python3.8/site-packages/numpy (version 1.17.4)
scipy:  /shared/centos7/python/3.8.1/lib/python3.8/site-packages/scipy (version 1.4.1)
units:  Angstrom and eV
cores: 30
OpenMP: False
OMP_NUM_THREADS: 1

Input parameters:
  convergence: {energy: 0.0001}
  kpts: [2 2 2]
  maxiter: 666
  mode: {ecut: 350.0,
         name: pw}
  occupations: {fixmagmom: False,
                name: fermi-dirac,
                width: 0.1}
  spinpol: True
  xc: PBE

System changes: positions, numbers, cell, pbc, initial_charges, initial_magmoms

Initialize ...

species:
  Co:
    name: Cobalt
    id: 339d20d5b0b93d2de9531a1bee871d91
    Z: 27.0
    valence: 9
    core: 18
    charge: 0.0
    file: /home/c.zeng/usr/data/gpaw-setups-0.9.20000/Co.PBE.gz
    compensation charges: {type: gauss,
                           rc: 0.32,
                           lmax: 2}
    cutoffs: {filter: 1.87,
              core: 2.55}
    valence states:
      #              energy  rcut
      - 4s(2.00)    -5.469   1.005
      - 4p(0.00)    -1.277   1.058
      - 3d(7.00)    -8.205   1.005
      -  s          21.742   1.005
      -  p          25.934   1.058
      -  d          19.007   1.005

    # Using partial waves for Co as LCAO basis

  Fe:
    name: Iron
    id: 37abbd8d6c3c35915a9b583b742da910
    Z: 26.0
    valence: 8
    core: 18
    charge: 0.0
    file: /home/c.zeng/usr/data/gpaw-setups-0.9.20000/Fe.PBE.gz
    compensation charges: {type: gauss,
                           rc: 0.33,
                           lmax: 2}
    cutoffs: {filter: 2.06,
              core: 2.67}
    valence states:
      #              energy  rcut
      - 4s(2.00)    -5.291   1.164
      - 4p(0.00)    -1.326   1.058
      - 3d(6.00)    -7.505   1.058
      -  s          21.920   1.164
      -  p          25.885   1.058
      -  d          19.706   1.058

[...]

  Cr:
    name: Chromium
    id: 33f258bda2ca9f93018e70263a35547b
    Z: 24.0
    valence: 6
    core: 18
    charge: 0.0
    file: /home/c.zeng/usr/data/gpaw-setups-0.9.20000/Cr.PBE.gz
    compensation charges: {type: gauss,
                           rc: 0.35,
                           lmax: 2}
    cutoffs: {filter: 2.14,
              core: 3.04}
    valence states:
      #              energy  rcut
      - 4s(1.00)    -4.007   1.164
      - 4p(0.00)    -0.989   1.217
      - 3d(5.00)    -2.913   1.111
      -  s          23.205   1.164
      -  p          26.223   1.217
      -  d          24.299   1.111

[...]

  Ni:
    name: Nickel
    id: 0d9f38a9d6e76a2886f07bb4381f212b
    Z: 28.0
    valence: 16
    core: 12
    charge: 0.0
    file: /home/c.zeng/usr/data/gpaw-setups-0.9.20000/Ni.PBE.gz
    compensation charges: {type: gauss,
                           rc: 0.36,
                           lmax: 2}
    cutoffs: {filter: 2.14,
              core: 1.98}
    valence states:
      #              energy  rcut
      - 4s(2.00)    -5.642   1.164
      - 3p(6.00)   -71.394   1.207
      - 4p(0.00)    -1.226   1.207
      - 3d(8.00)    -8.875   1.138
      -  s          21.570   1.164
      -  d          18.337   1.138

    # Using partial waves for Ni as LCAO basis

Reference energy: -3846758.590871  # eV

Spin-polarized calculation.
Magnetic moment: 151.200000

Convergence criteria:
 Maximum [total energy] change in last 3 cyles: 0.0001 eV / electron
 Maximum integral of absolute [dens]ity change: 0.0001 electrons / valence electron
 Maximum integral of absolute [eigenst]ate change: 4e-08 eV^2 / valence electron
 Maximum number of scf [iter]ations: 666
 (Square brackets indicate name in SCF output, whereas a 'c' in
 the SCF output indicates the quantity has converged.)

Symmetries present (total): 1

  ( 1  0  0)
  ( 0  1  0)
  ( 0  0  1)

8 k-points: 2 x 2 x 2 Monkhorst-Pack grid
4 k-points in the irreducible part of the Brillouin zone
       k-points in crystal coordinates                weights
   0:     0.25000000   -0.25000000   -0.25000000          2/8
   1:     0.25000000   -0.25000000    0.25000000          2/8
   2:     0.25000000    0.25000000   -0.25000000          2/8
   3:     0.25000000    0.25000000    0.25000000          2/8

Wave functions: Plane wave expansion
  Cutoff energy: 350.000 eV
  Number of coefficients (min, max): 17755, 17755
  Pulay-stress correction: 0.000000 eV/Ang^3 (de/decut=0.000000)
  Using FFTW library
  ScaLapack parameters: grid=1x1, blocksize=None
  Wavefunction extrapolation:
    Improved wavefunction reuse through dual PAW basis

Occupation numbers: Fermi-Dirac:
  width: 0.1000  # eV

Eigensolver
   Davidson(niter=2)

Densities:
  Coarse grid: 48*48*48 grid
  Fine grid: 96*96*96 grid
  Total Charge: 0.000000

Density mixing:
  Method: difference
  Backend: pulay
  Linear mixing parameter: 0.05
  old densities: 5
  Damping of long wavelength oscillations: 50

Hamiltonian:
  XC and Coulomb potentials evaluated on a 96*96*96 grid
  Using the PBE Exchange-Correlation functional
  External potential:
    NoExternalPotential

XC parameters: PBE with 2 nearest neighbor stencil

Total number of cores used: 30
Parallelization over k-points: 2
Domain decomposition: 5 x 3 x 1

Number of atoms: 108
Number of atomic orbitals: 1053
Number of bands in calculation: 727
Number of valence electrons: 1053
Bands to converge: occupied

... initialized

Initializing position-dependent things.

Density initialized from atomic densities
Creating initial wave functions:
  727 bands from LCAO basis set

       /|  Ni       Ni      Cr    |
      / |   CrFe     Cr           |
     /  |       Co      Fe       Fe
    /   |Cr      CFe       Co     Cr
   /    | Co       Ni       NFe   |
  /  CCo|  FeNi     CoCr          |
 *    CrCr    FeNi   FeCrCo       |
 |      |CoNi   FeFeCr  CoNiFe   Ni
 |      | CrCo     CoNiFeNiCrNi   |
 |    Co|  CoFeCr   CoNiFe   NiCo |
 |      Cr    NiNiCr CrNiNi     Ni|
 |      |FeFe  CoFeCr   FeNiFe   Cr
 |      .-FeCo-----CrCrFe--NiCr---Co
 |   Cro     Fe       Cr         /
 |    NiCo     Coi     CNie     /
 |   /    Co               Cr  /
 |  /      Fe       Fe    CrFe/
 | / Fe     Cr       NiNi    /
 |/            Co       Cr  /
 *--------Co------Co-------*

Positions:
   0 Co    -0.012479   -0.003723   10.616104    ( 0.0000,  0.0000,  2.1000)
   1 Fe    -0.011321    1.761305    1.763386    ( 0.0000,  0.0000,  2.1000)
   2 Fe     1.758365    0.001326    1.769011    ( 0.0000,  0.0000,  2.0000)
   3 Co     1.752686    1.779222   10.610436    ( 0.0000,  0.0000,  2.0000)
   4 Co     3.541196    0.004726   10.616104    ( 0.0000,  0.0000,  0.0000)
   5 Fe     3.534711    1.782438    1.778999    ( 0.0000,  0.0000,  0.0000)
   6 Cr     5.305717   10.600629    1.767950    ( 0.0000,  0.0000,  2.1000)
   7 Co     5.324780    1.765604   10.614618    ( 0.0000,  0.0000,  0.0000)
   8 Co     7.089121    0.014598   10.619926    ( 0.0000,  0.0000,  2.0000)
   9 Fe     7.085279    1.771219    1.773543    ( 0.0000,  0.0000,  1.5000)
  10 Ni     8.850554    0.011470    1.768756    ( 0.0000,  0.0000,  1.5000)
  11 Cr     8.842381    1.777333   10.615680    ( 0.0000,  0.0000,  2.1000)
  12 Fe    10.590535    3.538203   -0.001956    ( 0.0000,  0.0000,  0.0000)
  13 Ni    10.624277    5.310674    1.769786    ( 0.0000,  0.0000,  2.0000)
  14 Co     1.761379    3.535623    1.784572    ( 0.0000,  0.0000,  0.0000)
  15 Cr     1.770200    5.301408   10.611753    ( 0.0000,  0.0000,  2.0000)
  16 Cr     3.556003    3.551407   10.618333    ( 0.0000,  0.0000,  1.5000)
  17 Fe     3.539370    5.311290    1.775199    ( 0.0000,  0.0000,  2.1000)
  18 Ni     5.320142    3.545059    1.779678    ( 0.0000,  0.0000,  1.5000)
  19 Fe     5.306980    5.314654   10.602720    ( 0.0000,  0.0000,  0.0000)
  20 Ni     7.081585    3.529127   10.614725    ( 0.0000,  0.0000,  2.1000)
  21 Cr     7.069241    5.303361    1.781271    ( 0.0000,  0.0000,  1.5000)
  22 Fe     8.841447    3.542671    1.781600    ( 0.0000,  0.0000,  2.1000)
  23 Cr     8.850893    5.290379    0.000220    ( 0.0000,  0.0000,  0.0000)
  24 Ni     0.005868    7.083411   10.614937    ( 0.0000,  0.0000,  2.0000)
  25 Cr    10.601043    8.849694    1.772960    ( 0.0000,  0.0000,  2.1000)
  26 Fe     1.773713    7.072329    1.777184    ( 0.0000,  0.0000,  0.0000)
  27 Ni     1.755520    8.842943   10.608324    ( 0.0000,  0.0000,  0.0000)
  28 Fe     3.544009    7.063116   10.610489    ( 0.0000,  0.0000,  2.0000)
  29 Co     3.542225    8.826820    1.785580    ( 0.0000,  0.0000,  0.0000)
  30 Cr     5.309835    7.081776    1.776600    ( 0.0000,  0.0000,  2.1000)
  31 Ni     5.331945    8.840321   10.604673    ( 0.0000,  0.0000,  2.1000)
  32 Co     7.068434    7.069028   10.623110    ( 0.0000,  0.0000,  0.0000)
  33 Fe     7.083750    8.846796    1.774509    ( 0.0000,  0.0000,  1.5000)
  34 Ni     8.841404    7.058180    1.777173    ( 0.0000,  0.0000,  1.5000)
  35 Cr     8.835524    8.853600   10.611753    ( 0.0000,  0.0000,  0.0000)
  36 Cr    -0.009351   10.618864    3.531070    ( 0.0000,  0.0000,  2.0000)
  37 Fe    10.602508    1.764818    5.300452    ( 0.0000,  0.0000,  1.5000)
  38 Cr     1.756720    0.001379    5.295867    ( 0.0000,  0.0000,  0.0000)
  39 Co     1.766506    1.767154    3.539222    ( 0.0000,  0.0000,  2.0000)
  40 Co     3.539742    0.013881    3.542873    ( 0.0000,  0.0000,  2.0000)
  41 Fe     3.548944    1.788658    5.306237    ( 0.0000,  0.0000,  2.1000)
  42 Fe     5.320174   -0.004685    5.301386    ( 0.0000,  0.0000,  0.0000)
  43 Co     5.316862    1.765551    3.538935    ( 0.0000,  0.0000,  2.0000)
  44 Ni     7.081086   -0.000289    3.531325    ( 0.0000,  0.0000,  2.0000)
  45 Cr     7.072902    1.777407    5.300537    ( 0.0000,  0.0000,  2.0000)
  46 Fe     8.840544    0.012372    5.307851    ( 0.0000,  0.0000,  1.5000)
  47 Ni     8.833592    1.767928    3.534318    ( 0.0000,  0.0000,  2.1000)
  48 Cr    -0.004066    3.525285    3.545951    ( 0.0000,  0.0000,  0.0000)
  49 Co    -0.001689    5.317934    5.307787    ( 0.0000,  0.0000,  1.5000)
  50 Cr     1.769043    3.555101    5.297279    ( 0.0000,  0.0000,  2.0000)
  51 Fe     1.773692    5.305929    3.538266    ( 0.0000,  0.0000,  2.1000)
  52 Co     3.542746    3.537364    3.547575    ( 0.0000,  0.0000,  2.1000)
  53 Fe     3.548477    5.306927    5.301153    ( 0.0000,  0.0000,  2.0000)
  54 Ni     5.316246    3.553031    5.303637    ( 0.0000,  0.0000,  2.0000)
  55 Fe     5.303286    5.303531    3.542385    ( 0.0000,  0.0000,  1.5000)
  56 Cr     7.074962    3.533023    3.537215    ( 0.0000,  0.0000,  1.5000)
  57 Ni     7.066046    5.306046    5.300081    ( 0.0000,  0.0000,  2.0000)
  58 Ni     8.834526    3.538160    5.294530    ( 0.0000,  0.0000,  2.1000)
  59 Ni     8.846255    5.300452    3.537672    ( 0.0000,  0.0000,  1.5000)
[...]
  93 Cr     7.071130    5.304220    8.839313    ( 0.0000,  0.0000,  1.5000)
  94 Co     8.837997    3.524669    8.843389    ( 0.0000,  0.0000,  1.5000)
  95 Ni     8.833772    5.299051    7.076862    ( 0.0000,  0.0000,  0.0000)
  96 Cr     0.012168    7.080333    7.083835    ( 0.0000,  0.0000,  1.5000)
  97 Fe    -0.017034    8.848707    8.843941    ( 0.0000,  0.0000,  2.1000)
  98 Co     1.777938    7.075503    8.840194    ( 0.0000,  0.0000,  2.0000)
  99 Fe     1.758800    8.840035    7.069803    ( 0.0000,  0.0000,  0.0000)
 100 Fe     3.549921    7.066194    7.070090    ( 0.0000,  0.0000,  2.1000)
 101 Co     3.553137    8.839111    8.836776    ( 0.0000,  0.0000,  0.0000)
 102 Ni     5.304189    7.079929    8.840215    ( 0.0000,  0.0000,  2.0000)
 103 Co     5.321946    8.832180    7.082997    ( 0.0000,  0.0000,  2.1000)
 104 Cr     7.057077    7.072149    7.064167    ( 0.0000,  0.0000,  1.5000)
 105 Fe     7.082402    8.855500    8.837487    ( 0.0000,  0.0000,  2.1000)
 106 Co     8.846786    7.077881    8.846732    ( 0.0000,  0.0000,  0.0000)
 107 Ni     8.839313    8.848272    7.075153    ( 0.0000,  0.0000,  0.0000)

Unit cell:
           periodic     x           y           z      points  spacing
  1. axis:    yes   10.614300    0.000000    0.000000    48     0.2211
  2. axis:    yes    0.000000   10.614300    0.000000    48     0.2211
  3. axis:    yes    0.000000    0.000000   10.614300    48     0.2211

  Lengths:  10.614300  10.614300  10.614300
  Angles:   90.000000  90.000000  90.000000

Effective grid spacing dv^(1/3) = 0.2211

     iter     time        total  log10-change:  magmom
                         energy  eigst   dens
iter:   1 05:31:21  -956.355309                  +151.1286
iter:   2 05:34:25  -931.839482  -0.60  -1.38    +115.0352
iter:   3 05:37:28  -929.731668  -0.94  -1.36    +82.6302
iter:   4 05:40:31  -895.628619  -1.33  -1.36    +71.1907
iter:   5 05:43:34  -892.935794  -1.92  -1.49    +63.7200
iter:   6 05:46:37  -895.098499  -1.99  -1.52    +58.7915
iter:   7 05:49:40  -900.930642  -1.63  -1.55    +56.7406
iter:   8 05:52:27  -889.738249  -1.85  -1.55    +55.2385
iter:   9 05:54:18  -900.828591  -1.71  -1.72    +54.0600
iter:  10 05:56:09  -888.362294  -2.00  -1.66    +53.1184
iter:  11 05:58:01  -889.237824  -2.37  -1.90    +52.3169
iter:  12 05:59:53  -887.939681  -2.65  -1.89    +52.8165
iter:  13 06:01:44  -888.578250  -2.79  -1.99    +52.9268
iter:  14 06:03:36  -890.280445  -2.63  -2.01    +53.3218
iter:  15 06:05:28  -890.176931  -2.61  -1.98    +53.6109
iter:  16 06:07:20  -891.184733  -2.58  -2.03    +53.9209
iter:  17 06:09:11  -889.930951  -2.73  -2.00    +54.0626
iter:  18 06:11:04  -890.719160  -2.75  -2.16    +54.1623
iter:  19 06:12:56  -890.306852  -2.77  -2.14    +54.5848
iter:  20 06:14:47  -890.215012  -3.03  -2.17    +54.8891
iter:  21 06:16:39  -890.679835  -2.96  -2.29    +55.1478
iter:  22 06:18:31  -890.669444  -2.93  -2.24    +55.3237
iter:  23 06:20:23  -890.182939  -3.22  -2.28    +55.6790
iter:  24 06:22:15  -890.284877  -3.47  -2.42    +56.1572
iter:  25 06:24:07  -890.456802  -3.39  -2.46    +56.4178
iter:  26 06:25:59  -890.348033  -3.76  -2.43    +56.6982
iter:  27 06:27:50  -890.637235  -3.48  -2.55    +57.2708
iter:  28 06:29:43  -890.614605  -3.58  -2.48    +57.5226
iter:  29 06:31:35  -890.718276c -3.55  -2.53    +57.7871
iter:  30 06:33:28  -890.675166c -3.73  -2.57    +58.0054
iter:  31 06:35:20  -890.910663  -3.52  -2.63    +58.5682
iter:  32 06:37:13  -890.781940  -3.82  -2.54    +58.6842
iter:  33 06:39:05  -890.862477  -3.88  -2.67    +58.9960
iter:  34 06:40:57  -890.862087c -4.21  -2.65    +59.2622
iter:  35 06:42:49  -890.907235c -4.21  -2.71    +59.7422
iter:  36 06:44:42  -891.009515  -3.98  -2.72    +60.2955
iter:  37 06:46:34  -891.231882  -3.28  -2.69    +61.6363
iter:  38 06:48:27  -891.275434  -3.94  -2.60    +61.9230
iter:  39 06:50:19  -891.353577  -3.69  -2.58    +62.4883
iter:  40 06:52:12  -891.422164  -4.05  -2.54    +62.6963
iter:  41 06:54:05  -891.430858c -4.54  -2.50    +62.7306
iter:  42 06:55:57  -891.634450  -3.71  -2.51    +62.7495
iter:  43 06:57:49  -891.489232  -3.41  -2.43    +62.7337
iter:  44 06:59:41  -891.446123  -3.50  -2.49    +62.7344
iter:  45 07:01:34  -891.640926  -3.19  -2.47    +62.6661
iter:  46 07:03:26  -891.302025  -3.46  -2.43    +62.3812
iter:  47 07:05:18  -891.307196  -3.69  -2.58    +61.9964
iter:  48 07:07:11  -891.186488  -4.05  -2.62    +62.0388
iter:  49 07:09:03  -891.276098  -3.89  -2.74    +61.9009
iter:  50 07:10:55  -891.286708c -3.73  -2.67    +61.8153
iter:  51 07:12:47  -891.245909c -3.92  -2.67    +61.6876
iter:  52 07:14:40  -891.298857c -3.80  -2.77    +61.7377
iter:  53 07:16:32  -891.237689c -3.91  -2.70    +61.7013
iter:  54 07:18:24  -891.181715  -4.07  -2.79    +61.4734
iter:  55 07:20:17  -891.173854c -4.75  -2.91    +61.4351
iter:  56 07:22:09  -891.182445c -4.48  -2.99    +61.4675
iter:  57 07:24:01  -891.167851c -4.68  -2.95    +61.4390
iter:  58 07:25:53  -891.174498c -4.73  -3.00    +61.3659
iter:  59 07:27:46  -891.181257c -4.62  -3.03    +61.3329
iter:  60 07:29:38  -891.203114c -4.25  -3.05    +61.3586
iter:  61 07:31:31  -891.165368c -4.59  -2.96    +61.3273
iter:  62 07:33:23  -891.168699c -4.73  -3.13    +61.2160
iter:  63 07:35:15  -891.162222c -4.87  -3.13    +61.2044
iter:  64 07:37:07  -891.156987c -5.47  -3.22    +61.2117
iter:  65 07:39:00  -891.155022c -5.66  -3.29    +61.2050
iter:  66 07:40:52  -891.160321c -5.32  -3.32    +61.1820
iter:  67 07:42:44  -891.157844c -5.28  -3.28    +61.1815
iter:  68 07:44:37  -891.160307c -5.25  -3.33    +61.1960
iter:  69 07:46:29  -891.162090c -4.93  -3.32    +61.1807
iter:  70 07:48:21  -891.158393c -5.08  -3.25    +61.1507
iter:  71 07:50:14  -891.156748c -5.30  -3.35    +61.1307
iter:  72 07:52:06  -891.155863c -5.58  -3.43    +61.1520
iter:  73 07:53:58  -891.153700c -5.59  -3.47    +61.1451
iter:  74 07:55:50  -891.153853c -6.21  -3.51    +61.1330
iter:  75 07:57:43  -891.156427c -5.69  -3.55    +61.1335
iter:  76 07:59:35  -891.155326c -5.56  -3.51    +61.1412
iter:  77 08:01:27  -891.155065c -5.38  -3.52    +61.1401
iter:  78 08:03:19  -891.154210c -5.64  -3.48    +61.1090
iter:  79 08:05:12  -891.156510c -5.38  -3.66    +61.1064
iter:  80 08:07:04  -891.153678c -5.73  -3.52    +61.1103
iter:  81 08:08:56  -891.152666c -6.07  -3.72    +61.0981
iter:  82 08:10:49  -891.152736c -6.24  -3.78    +61.0853
iter:  83 08:12:41  -891.153012c -6.40  -3.86    +61.0813
iter:  84 08:14:33  -891.152538c -6.99  -3.87    +61.0880
iter:  85 08:16:25  -891.152808c -6.25  -3.95    +61.0866
iter:  86 08:18:17  -891.152955c -6.20  -3.83    +61.0849
iter:  87 08:20:10  -891.153200c -6.37  -3.88    +61.0865
iter:  88 08:22:02  -891.152752c -6.27  -3.94    +61.0930
iter:  89 08:23:54  -891.152428c -6.23  -3.92    +61.0910
iter:  90 08:25:46  -891.152373c -6.52  -3.89    +61.0791
iter:  91 08:27:39  -891.152459c -7.17  -4.10c   +61.0783
iter:  92 08:29:31  -891.152320c -7.02  -4.13c   +61.0795
iter:  93 08:31:23  -891.152189c -7.33  -4.12c   +61.0783
iter:  94 08:33:15  -891.152531c -6.81  -4.15c   +61.0755
iter:  95 08:35:08  -891.152720c -6.74  -4.09c   +61.0758
iter:  96 08:37:00  -891.152287c -6.40  -4.14c   +61.0818
iter:  97 08:38:52  -891.152131c -6.78  -4.05c   +61.0779
iter:  98 08:40:44  -891.152292c -6.71  -4.21c   +61.0705
iter:  99 08:42:37  -891.152304c -6.98  -4.20c   +61.0699
iter: 100 08:44:29  -891.152146c -7.42c -4.39c   +61.0705

Converged after 100 iterations.

Dipole moment: (6.473518, -1.944409, 0.590974) |e|*Ang

Total magnetic moment: (0.000000, 0.000000, 61.070517)
Local magnetic moments:
   0 Co ( 0.000000,  0.000000,  0.932676)
   1 Fe ( 0.000000,  0.000000,  2.064379)
   2 Fe ( 0.000000,  0.000000,  2.229375)
   3 Co ( 0.000000,  0.000000,  1.013052)
   4 Co ( 0.000000,  0.000000,  1.118607)
   5 Fe ( 0.000000,  0.000000,  2.294023)
   6 Cr ( 0.000000,  0.000000, -1.822135)
   7 Co ( 0.000000,  0.000000,  0.873934)
   8 Co ( 0.000000,  0.000000,  0.865280)
   9 Fe ( 0.000000,  0.000000,  2.306819)
  10 Ni ( 0.000000,  0.000000,  0.273488)
  11 Cr ( 0.000000,  0.000000, -1.569578)
  12 Fe ( 0.000000,  0.000000,  1.928888)
  13 Ni ( 0.000000,  0.000000,  0.284507)
  14 Co ( 0.000000,  0.000000,  1.150264)
  15 Cr ( 0.000000,  0.000000, -1.272518)
  16 Cr ( 0.000000,  0.000000, -1.322892)
  17 Fe ( 0.000000,  0.000000,  2.023220)
  18 Ni ( 0.000000,  0.000000,  0.293267)
  19 Fe ( 0.000000,  0.000000,  1.911653)
  20 Ni ( 0.000000,  0.000000,  0.197512)
  21 Cr ( 0.000000,  0.000000,  0.925518)
  22 Fe ( 0.000000,  0.000000,  1.835698)
  23 Cr ( 0.000000,  0.000000, -1.201201)
  24 Ni ( 0.000000,  0.000000,  0.223333)
  25 Cr ( 0.000000,  0.000000,  1.104446)
  26 Fe ( 0.000000,  0.000000,  2.296355)
  27 Ni ( 0.000000,  0.000000,  0.363438)
  28 Fe ( 0.000000,  0.000000,  2.198878)
  29 Co ( 0.000000,  0.000000,  1.314721)
  30 Cr ( 0.000000,  0.000000, -1.741547)
  31 Ni ( 0.000000,  0.000000,  0.292963)
  32 Co ( 0.000000,  0.000000,  0.809245)
  33 Fe ( 0.000000,  0.000000,  2.375543)
  34 Ni ( 0.000000,  0.000000,  0.196187)
  35 Cr ( 0.000000,  0.000000, -1.589266)
  36 Cr ( 0.000000,  0.000000, -1.547265)
  37 Fe ( 0.000000,  0.000000,  1.853939)
  38 Cr ( 0.000000,  0.000000, -1.394988)
  39 Co ( 0.000000,  0.000000,  0.771562)
  40 Co ( 0.000000,  0.000000,  1.158549)
  41 Fe ( 0.000000,  0.000000,  2.132600)
  42 Fe ( 0.000000,  0.000000,  2.148644)
  43 Co ( 0.000000,  0.000000,  1.060543)
  44 Ni ( 0.000000,  0.000000,  0.346007)
  45 Cr ( 0.000000,  0.000000,  0.411565)
  46 Fe ( 0.000000,  0.000000,  1.978498)
  47 Ni ( 0.000000,  0.000000,  0.198499)
  48 Cr ( 0.000000,  0.000000, -1.632946)
  49 Co ( 0.000000,  0.000000,  0.674672)
  50 Cr ( 0.000000,  0.000000, -1.468926)
  51 Fe ( 0.000000,  0.000000,  1.968829)
  52 Co ( 0.000000,  0.000000,  1.161353)
  53 Fe ( 0.000000,  0.000000,  2.098809)
  54 Ni ( 0.000000,  0.000000,  0.312092)
  55 Fe ( 0.000000,  0.000000,  2.041144)
  56 Cr ( 0.000000,  0.000000, -1.616095)
  57 Ni ( 0.000000,  0.000000,  0.210289)
  58 Ni ( 0.000000,  0.000000,  0.188317)
  59 Ni ( 0.000000,  0.000000,  0.114607)
[...]
  93 Cr ( 0.000000,  0.000000,  0.507103)
  94 Co ( 0.000000,  0.000000,  0.724210)
  95 Ni ( 0.000000,  0.000000,  0.162203)
  96 Cr ( 0.000000,  0.000000, -1.271585)
  97 Fe ( 0.000000,  0.000000,  2.046572)
  98 Co ( 0.000000,  0.000000,  1.380697)
  99 Fe ( 0.000000,  0.000000,  1.697131)
 100 Fe ( 0.000000,  0.000000,  2.177755)
 101 Co ( 0.000000,  0.000000,  1.218828)
 102 Ni ( 0.000000,  0.000000,  0.409122)
 103 Co ( 0.000000,  0.000000,  1.039831)
 104 Cr ( 0.000000,  0.000000, -1.596305)
 105 Fe ( 0.000000,  0.000000,  2.067705)
 106 Co ( 0.000000,  0.000000,  0.921753)
 107 Ni ( 0.000000,  0.000000,  0.148855)

Energy contributions relative to reference atoms: (reference = -3846758.590871)

Kinetic:       +124.237804
Potential:     -190.456265
External:        +0.000000
XC:            -862.779579
Entropy (-ST):   -4.616570
Local:          +40.154179
Free energy:   -893.460431
Extrapolated:  -891.152146

Spin contamination: 33.819120 electrons
Showing only first 2 kpts
                      Up                     Down
 Kpt  Band  Eigenvalues  Occupancy  Eigenvalues  Occupancy
  0   524      9.84684    0.99335     10.70836    0.02638
  0   525      9.85899    0.99250     10.71687    0.02428
  0   526      9.88066    0.99070     10.73370    0.02059
  0   527      9.88994    0.98980     10.75115    0.01735

  1   524      9.85791    0.99258     10.71641    0.02439
  1   525      9.86809    0.99179     10.73352    0.02063
  1   526      9.88368    0.99042     10.75377    0.01691
  1   527      9.88949    0.98985     10.75949    0.01599

Fermi level: 10.34750

Gap: 0.004 eV
Transition (v -> c):
  (s=0, k=0, n=556, [0.25, -0.25, -0.25]) -> (s=1, k=1, n=496, [0.25, -0.25, 0.25])

Forces in eV/Ang:
  0 Co    0.06819   -0.01660    0.03920
  1 Fe    0.29031    0.09911    0.01588
  2 Fe    0.30612   -0.04470   -0.06187
  3 Co    0.16969    0.03326   -0.04709
  4 Co    0.01600   -0.16502   -0.00672
  5 Fe   -0.16113    0.03280   -0.00366
  6 Cr   -0.02763    0.20886   -0.11556
  7 Co   -0.24715   -0.12208   -0.06835
  8 Co   -0.13267   -0.15716   -0.09271
  9 Fe   -0.42054   -0.13955   -0.11523
 10 Ni   -0.01519    0.07101   -0.00610
 11 Cr    0.02574   -0.26364   -0.08258
 12 Fe    0.39956    0.27389    0.00579
 13 Ni   -0.01502   -0.15272   -0.07365
 14 Co   -0.12007   -0.04513   -0.12200
 15 Cr   -0.24728    0.18725    0.08299
 16 Cr    0.20268   -0.30243    0.03166
 17 Fe   -0.01791   -0.38438   -0.01157
 18 Ni   -0.02919   -0.06699   -0.11025
 19 Fe   -0.11490   -0.15335    0.04516
 20 Ni   -0.16856    0.27761   -0.05822
 21 Cr    0.07858    0.10451   -0.18541
 22 Fe    0.30518   -0.02010   -0.00909
 23 Cr    0.00200    0.37026   -0.25908
 24 Ni   -0.05076   -0.17208   -0.04453
 25 Cr    0.12918    0.04129   -0.06900
 26 Fe    0.13157   -0.03169    0.00133
 27 Ni    0.28393    0.09578   -0.00787
 28 Fe   -0.00806    0.41012   -0.17656
 29 Co   -0.07526    0.24169    0.00674
 30 Cr   -0.16305    0.04768   -0.08881
 31 Ni   -0.21786    0.12740    0.08350
 32 Co    0.17369   -0.14163   -0.14878
 33 Fe    0.04044   -0.14864   -0.05760
 34 Ni   -0.06463    0.03984   -0.15995
 35 Cr   -0.14093   -0.03547   -0.14037
 36 Cr   -0.16528    0.16464   -0.21824
 37 Fe    0.26917    0.03208    0.03754
 38 Cr    0.82525    0.11249    0.03027
 39 Co    0.03645    0.16362    0.07125
 40 Co   -0.16415   -0.42681    0.04017
 41 Fe   -0.24570   -0.04160    0.01545
 42 Fe    0.00370   -0.24469   -0.05736
 43 Co   -0.13711    0.09039    0.11092
 44 Ni   -0.05927   -0.00838    0.17080
 45 Cr   -0.05813   -0.06903    0.12587
 46 Fe   -0.04209   -0.42531    0.17597
 47 Ni    0.08192    0.00577    0.13258
 48 Cr   -0.39544    0.08886   -0.38979
 49 Co    0.38651   -0.03844    0.03413
 50 Cr    0.45889   -0.02011    0.47369
 51 Fe   -0.16635   -0.25593    0.24758
 52 Co    0.07641    0.00385   -0.11546
 53 Fe   -0.11180   -0.14742    0.01136
 54 Ni   -0.07624   -0.24806    0.05443
 55 Fe   -0.02018    0.07788    0.13339
 56 Cr    0.12138    0.06444   -0.02508
 57 Ni    0.01294    0.05382   -0.10487
 58 Ni    0.04221   -0.00464    0.08971
 59 Ni   -0.01576    0.02204    0.14807
[...]
 93 Cr    0.28804    0.00521    0.45980
 94 Co   -0.13208    0.05514    0.12080
 95 Ni    0.16996    0.09026    0.01797
 96 Cr   -0.35753   -0.35051    0.56171
 97 Fe    0.04707    0.01639    0.12858
 98 Co   -0.15729   -0.09343   -0.03301
 99 Fe    0.15361    0.09943   -0.04891
100 Fe   -0.26243    0.16486    0.38115
101 Co   -0.19694    0.18172   -0.11242
102 Ni    0.17545    0.01703    0.19516
103 Co   -0.14013    0.21701   -0.14019
104 Cr    0.21305    0.32647    0.16565
105 Fe    0.06711   -0.07216    0.07688
106 Co   -0.02984   -0.17628   -0.14771
107 Ni    0.01586   -0.03130   -0.09843

Date: Fri Apr 14 08:44:51 2023