User:   c.zeng@d0103
Date:   Fri Apr 14 23:43:35 2023
Arch:   x86_64
Pid:    106933
CWD:    /home/c.zeng/projects/hea-corrosion/hea-mlp/data-curation/bulk-mcmc/dft-jobs/184
Python: 3.8.1
gpaw:   /home/c.zeng/usr/installs/gpaw/source/gpaw-22.8.0/gpaw
_gpaw:  /home/c.zeng/usr/installs/gpaw/source/gpaw-22.8.0/
        _gpaw.cpython-38-x86_64-linux-gnu.so
ase:    /home/c.zeng/.local/lib/python3.8/site-packages/ase-3.22.1-py3.8.egg/ase (version 3.22.1)
numpy:  /shared/centos7/python/3.8.1/lib/python3.8/site-packages/numpy (version 1.17.4)
scipy:  /shared/centos7/python/3.8.1/lib/python3.8/site-packages/scipy (version 1.4.1)
units:  Angstrom and eV
cores: 30
OpenMP: False
OMP_NUM_THREADS: 1

Input parameters:
  convergence: {energy: 0.0001}
  kpts: [2 2 2]
  maxiter: 666
  mode: {ecut: 350.0,
         name: pw}
  occupations: {fixmagmom: False,
                name: fermi-dirac,
                width: 0.1}
  spinpol: True
  xc: PBE

System changes: positions, numbers, cell, pbc, initial_charges, initial_magmoms

Initialize ...

species:
  Fe:
    name: Iron
    id: 37abbd8d6c3c35915a9b583b742da910
    Z: 26.0
    valence: 8
    core: 18
    charge: 0.0
    file: /home/c.zeng/usr/data/gpaw-setups-0.9.20000/Fe.PBE.gz
    compensation charges: {type: gauss,
                           rc: 0.33,
                           lmax: 2}
    cutoffs: {filter: 2.06,
              core: 2.67}
    valence states:
      #              energy  rcut
      - 4s(2.00)    -5.291   1.164
      - 4p(0.00)    -1.326   1.058
      - 3d(6.00)    -7.505   1.058
      -  s          21.920   1.164
      -  p          25.885   1.058
      -  d          19.706   1.058

    # Using partial waves for Fe as LCAO basis

  Co:
    name: Cobalt
    id: 339d20d5b0b93d2de9531a1bee871d91
    Z: 27.0
    valence: 9
    core: 18
    charge: 0.0
    file: /home/c.zeng/usr/data/gpaw-setups-0.9.20000/Co.PBE.gz
    compensation charges: {type: gauss,
                           rc: 0.32,
                           lmax: 2}
    cutoffs: {filter: 1.87,
              core: 2.55}
    valence states:
      #              energy  rcut
      - 4s(2.00)    -5.469   1.005
      - 4p(0.00)    -1.277   1.058
      - 3d(7.00)    -8.205   1.005
      -  s          21.742   1.005
      -  p          25.934   1.058
      -  d          19.007   1.005

[...]

  Al:
    name: Aluminium
    id: 0292cae29f5d6237e50f6abdd43a7bdd
    Z: 13.0
    valence: 3
    core: 10
    charge: 0.0
    file: /home/c.zeng/usr/data/gpaw-setups-0.9.20000/Al.PBE.gz
    compensation charges: {type: gauss,
                           rc: 0.34,
                           lmax: 2}
    cutoffs: {filter: 1.91,
              core: 2.36}
    valence states:
      #              energy  rcut
      - 3s(2.00)    -7.753   1.085
      - 3p(1.00)    -2.712   1.085
      -  s          19.459   1.085
      -  p          24.499   1.085
      -  d           0.000   1.085

[...]

  Cr:
    name: Chromium
    id: 33f258bda2ca9f93018e70263a35547b
    Z: 24.0
    valence: 6
    core: 18
    charge: 0.0
    file: /home/c.zeng/usr/data/gpaw-setups-0.9.20000/Cr.PBE.gz
    compensation charges: {type: gauss,
                           rc: 0.35,
                           lmax: 2}
    cutoffs: {filter: 2.14,
              core: 3.04}
    valence states:
      #              energy  rcut
      - 4s(1.00)    -4.007   1.164
      - 4p(0.00)    -0.989   1.217
      - 3d(5.00)    -2.913   1.111
      -  s          23.205   1.164
      -  p          26.223   1.217
      -  d          24.299   1.111

[...]

  Ni:
    name: Nickel
    id: 0d9f38a9d6e76a2886f07bb4381f212b
    Z: 28.0
    valence: 16
    core: 12
    charge: 0.0
    file: /home/c.zeng/usr/data/gpaw-setups-0.9.20000/Ni.PBE.gz
    compensation charges: {type: gauss,
                           rc: 0.36,
                           lmax: 2}
    cutoffs: {filter: 2.14,
              core: 1.98}
    valence states:
      #              energy  rcut
      - 4s(2.00)    -5.642   1.164
      - 3p(6.00)   -71.394   1.207
      - 4p(0.00)    -1.226   1.207
      - 3d(8.00)    -8.875   1.138
      -  s          21.570   1.164
      -  d          18.337   1.138

    # Using partial waves for Ni as LCAO basis

Reference energy: -3382523.201499  # eV

Spin-polarized calculation.
Magnetic moment: 128.800000

Convergence criteria:
 Maximum [total energy] change in last 3 cyles: 0.0001 eV / electron
 Maximum integral of absolute [dens]ity change: 0.0001 electrons / valence electron
 Maximum integral of absolute [eigenst]ate change: 4e-08 eV^2 / valence electron
 Maximum number of scf [iter]ations: 666
 (Square brackets indicate name in SCF output, whereas a 'c' in
 the SCF output indicates the quantity has converged.)

Symmetries present (total): 1

  ( 1  0  0)
  ( 0  1  0)
  ( 0  0  1)

8 k-points: 2 x 2 x 2 Monkhorst-Pack grid
4 k-points in the irreducible part of the Brillouin zone
       k-points in crystal coordinates                weights
   0:     0.25000000   -0.25000000   -0.25000000          2/8
   1:     0.25000000   -0.25000000    0.25000000          2/8
   2:     0.25000000    0.25000000   -0.25000000          2/8
   3:     0.25000000    0.25000000    0.25000000          2/8

Wave functions: Plane wave expansion
  Cutoff energy: 350.000 eV
  Number of coefficients (min, max): 18865, 18865
  Pulay-stress correction: 0.000000 eV/Ang^3 (de/decut=0.000000)
  Using FFTW library
  ScaLapack parameters: grid=1x1, blocksize=None
  Wavefunction extrapolation:
    Improved wavefunction reuse through dual PAW basis

Occupation numbers: Fermi-Dirac:
  width: 0.1000  # eV

Eigensolver
   Davidson(niter=2)

Densities:
  Coarse grid: 48*48*48 grid
  Fine grid: 96*96*96 grid
  Total Charge: 0.000000

Density mixing:
  Method: difference
  Backend: pulay
  Linear mixing parameter: 0.05
  old densities: 5
  Damping of long wavelength oscillations: 50

Hamiltonian:
  XC and Coulomb potentials evaluated on a 96*96*96 grid
  Using the PBE Exchange-Correlation functional
  External potential:
    NoExternalPotential

XC parameters: PBE with 2 nearest neighbor stencil

Total number of cores used: 30
Parallelization over k-points: 2
Domain decomposition: 5 x 3 x 1

Number of atoms: 108
Number of atomic orbitals: 961
Number of bands in calculation: 649
Number of valence electrons: 945
Bands to converge: occupied

... initialized

Initializing position-dependent things.

Density initialized from atomic densities
Creating initial wave functions:
  649 bands from LCAO basis set

       /|                     Co   |
      / |            Fe Co     CrCo|
     /  |       Cr       Ni       Cr
    /   |Fe       Fel     FFer     |
   /i   | Fee        Co      Co    |
  /  CrAl   NCr       Ni           |
 *      Ni     FeCo   AlFeCrFe   Cr|
 |      |CoNi   CrNiAl   NiAlNi   Co
 | CrCo | AlNi   AlAlFe     Ni     |
 |     Fe  CoCr Cr  Fe FeNi  CrNi  |
 |      FeNi   AlCr   FeFeCoNi  Fe |
 |Al    |CoCr   AlCrCo   CrCo     Co
 |      .-CrCo-----NiCr-FeFeCrNi---.
 |     /   Ni Co    Cr CoNi    Al /
 |    Fe       ACoi       Al     /
 |   /  Fe         Al       Cr  /
 |  /      Fe       Al       Co/
 | / Co     Co       Ni Ni    /
 |/             Cr       Ni  /
 *--------Co----------------*

Positions:
   0 Fe    10.764147   10.861293   10.805330    ( 0.0000,  0.0000,  2.0000)
   1 Co    10.786221    1.792513    1.813624    ( 0.0000,  0.0000,  0.0000)
   2 Co     1.744156    0.036560    1.851269    ( 0.0000,  0.0000,  1.5000)
   3 Al     1.736571    1.831142   10.798805    ( 0.0000,  0.0000,  0.0000)
   4 Co     3.575126    0.057318    0.061759    ( 0.0000,  0.0000,  0.0000)
   5 Fe     3.594289    1.817617    1.845577    ( 0.0000,  0.0000,  2.0000)
   6 Fe     5.429813   10.817005    1.865054    ( 0.0000,  0.0000,  1.5000)
   7 Cr     5.429608    1.929425    0.057134    ( 0.0000,  0.0000,  0.0000)
   8 Fe     7.316909   10.723332    0.087382    ( 0.0000,  0.0000,  0.0000)
   9 Al     7.263142    1.825786    1.869404    ( 0.0000,  0.0000,  2.1000)
  10 Ni     9.063554    0.025226    1.863474    ( 0.0000,  0.0000,  1.5000)
  11 Ni     9.049217    1.829703    0.033106    ( 0.0000,  0.0000,  2.1000)
  12 Ni     0.004792    3.558981   10.794801    ( 0.0000,  0.0000,  1.5000)
  13 Al    10.759710    5.390697    1.778165    ( 0.0000,  0.0000,  0.0000)
  14 Fe     1.733585    3.561849    1.761112    ( 0.0000,  0.0000,  2.0000)
  15 Fe     1.776899    5.391834   10.795505    ( 0.0000,  0.0000,  0.0000)
  16 Co     3.565452    3.619360   10.832619    ( 0.0000,  0.0000,  2.1000)
  17 Co     3.633221    5.394614    1.719551    ( 0.0000,  0.0000,  0.0000)
  18 Ni     5.471624    3.659114    1.836033    ( 0.0000,  0.0000,  2.1000)
  19 Fe     5.440212    5.373060   -0.002773    ( 0.0000,  0.0000,  2.0000)
  20 Ni     7.258997    3.609080    0.031294    ( 0.0000,  0.0000,  0.0000)
  21 Co     7.268941    5.378362    1.785274    ( 0.0000,  0.0000,  2.0000)
  22 Al     9.030724    3.577636    1.833728    ( 0.0000,  0.0000,  2.1000)
  23 Fe     9.040420    5.372281   10.801110    ( 0.0000,  0.0000,  0.0000)
  24 Co    10.791663    7.196206   10.792486    ( 0.0000,  0.0000,  1.5000)
  25 Co    10.758434    9.040387    1.848239    ( 0.0000,  0.0000,  0.0000)
  26 Cr     1.690487    7.202493    1.786032    ( 0.0000,  0.0000,  0.0000)
  27 Ni     1.652691    8.981047    0.027217    ( 0.0000,  0.0000,  0.0000)
  28 Al     3.631241    7.164437    0.034633    ( 0.0000,  0.0000,  0.0000)
  29 Al     3.625452    9.063759    1.801678    ( 0.0000,  0.0000,  0.0000)
  30 Ni     5.490852    7.187095    1.746342    ( 0.0000,  0.0000,  2.0000)
  31 Cr     5.426935    8.989152    0.009861    ( 0.0000,  0.0000,  2.0000)
  32 Co     7.229122    7.237075   -0.008698    ( 0.0000,  0.0000,  1.5000)
  33 Cr     7.249194    8.995850    1.810713    ( 0.0000,  0.0000,  0.0000)
  34 Cr     9.052073    7.204300    1.764218    ( 0.0000,  0.0000,  2.1000)
  35 Co     9.092553    8.989639   10.808760    ( 0.0000,  0.0000,  1.5000)
  36 Cr    -0.000975   10.826235    3.639789    ( 0.0000,  0.0000,  1.5000)
  37 Al    10.822772    1.771770    5.422044    ( 0.0000,  0.0000,  2.1000)
  38 Ni     1.754263   10.802084    5.428872    ( 0.0000,  0.0000,  2.1000)
  39 Fe     1.741873    1.774270    3.610801    ( 0.0000,  0.0000,  0.0000)
  40 Al     3.591183   10.794152    3.612143    ( 0.0000,  0.0000,  2.0000)
  41 Cr     3.593088    1.736744    5.455177    ( 0.0000,  0.0000,  0.0000)
  42 Al     5.437150   10.794563    5.400804    ( 0.0000,  0.0000,  2.0000)
  43 Co     5.451931    1.783251    3.601387    ( 0.0000,  0.0000,  1.5000)
  44 Al     7.226222    0.007781    3.626209    ( 0.0000,  0.0000,  0.0000)
  45 Co     7.236069    1.766512    5.381392    ( 0.0000,  0.0000,  2.1000)
  46 Fe     9.034587   10.848850    5.403844    ( 0.0000,  0.0000,  2.1000)
  47 Ni     9.031558    1.804946    3.616730    ( 0.0000,  0.0000,  1.5000)
  48 Ni    10.773885    3.543973    3.617867    ( 0.0000,  0.0000,  1.5000)
  49 Ni    10.772186    5.358409    5.454917    ( 0.0000,  0.0000,  0.0000)
  50 Fe     1.757531    3.575678    5.428937    ( 0.0000,  0.0000,  2.1000)
  51 Co     1.621766    5.386986    3.572550    ( 0.0000,  0.0000,  0.0000)
  52 Co     3.634303    3.633188    3.540792    ( 0.0000,  0.0000,  0.0000)
  53 Cr     3.550606    5.397969    5.404753    ( 0.0000,  0.0000,  2.0000)
  54 Cr     5.402221    3.610887    5.370193    ( 0.0000,  0.0000,  2.0000)
  55 Cr     5.460241    5.433590    3.575613    ( 0.0000,  0.0000,  2.0000)
  56 Cr     7.250157    3.615183    3.623169    ( 0.0000,  0.0000,  1.5000)
  57 Fe     7.248707    5.410715    5.362099    ( 0.0000,  0.0000,  1.5000)
  58 Co     9.058230    3.565236    5.380082    ( 0.0000,  0.0000,  2.1000)
  59 Co     9.074071    5.365323    3.589008    ( 0.0000,  0.0000,  2.1000)
[...]
  93 Ni     7.211073    5.388295    9.040181    ( 0.0000,  0.0000,  0.0000)
  94 Cr     9.095052    3.598119    8.980636    ( 0.0000,  0.0000,  2.0000)
  95 Al     9.078205    5.402416    7.227759    ( 0.0000,  0.0000,  0.0000)
  96 Cr    10.763411    7.244682    7.260285    ( 0.0000,  0.0000,  1.5000)
  97 Cr    10.795093    9.034566    8.977574    ( 0.0000,  0.0000,  2.0000)
  98 Fe     1.740045    7.178947    8.984662    ( 0.0000,  0.0000,  2.1000)
  99 Fe     1.734429    9.080207    7.236696    ( 0.0000,  0.0000,  1.5000)
 100 Fe     3.580482    7.154277    7.248285    ( 0.0000,  0.0000,  0.0000)
 101 Cr     3.612835    8.970898    8.958086    ( 0.0000,  0.0000,  0.0000)
 102 Al     5.410943    7.155878    9.067049    ( 0.0000,  0.0000,  0.0000)
 103 Co     5.466441    9.064062    7.220963    ( 0.0000,  0.0000,  2.1000)
 104 Fe     7.307203    7.271549    7.289738    ( 0.0000,  0.0000,  0.0000)
 105 Ni     7.271073    9.044683    9.027879    ( 0.0000,  0.0000,  1.5000)
 106 Cr     9.081743    7.219805    9.041166    ( 0.0000,  0.0000,  2.1000)
 107 Co     9.063684    9.083009    7.213865    ( 0.0000,  0.0000,  2.0000)

Unit cell:
           periodic     x           y           z      points  spacing
  1. axis:    yes   10.820500    0.000000    0.000000    48     0.2254
  2. axis:    yes    0.000000   10.820500    0.000000    48     0.2254
  3. axis:    yes    0.000000    0.000000   10.820500    48     0.2254

  Lengths:  10.820500  10.820500  10.820500
  Angles:   90.000000  90.000000  90.000000

Effective grid spacing dv^(1/3) = 0.2254

     iter     time        total  log10-change:  magmom
                         energy  eigst   dens
iter:   1 23:48:42  -895.104866                  +128.4417
iter:   2 23:51:00  -860.726307  -0.40  -1.31    +95.3443
iter:   3 23:53:18  -843.879048  -0.95  -1.30    +65.9107
iter:   4 23:55:38  -833.444309  -1.26  -1.37    +57.3035
iter:   5 23:57:58  -826.175734  -1.87  -1.40    +52.2547
iter:   6 00:00:19  -827.039840  -1.99  -1.47    +49.9724
iter:   7 00:02:40  -826.766075  -1.67  -1.50    +48.5117
iter:   8 00:05:01  -825.024493  -1.78  -1.55    +48.2445
iter:   9 00:07:11  -828.088756  -1.84  -1.65    +48.3394
iter:  10 00:09:20  -824.438978  -1.96  -1.67    +47.7650
iter:  11 00:11:27  -824.539752  -2.23  -1.78    +48.3748
iter:  12 00:13:35  -822.865261  -2.41  -1.80    +48.6068
iter:  13 00:15:42  -823.373497  -2.59  -1.89    +49.3781
iter:  14 00:17:50  -823.951841  -2.50  -1.93    +50.1579
iter:  15 00:19:57  -824.785564  -2.52  -1.93    +50.9134
iter:  16 00:22:04  -824.611131  -2.45  -1.94    +51.8977
iter:  17 00:24:12  -824.636764  -2.62  -1.97    +52.1671
iter:  18 00:26:19  -824.125004  -2.68  -2.01    +53.0645
iter:  19 00:28:26  -824.140420  -2.87  -2.12    +53.7845
iter:  20 00:30:58  -824.174559c -3.09  -2.13    +54.4203
iter:  21 00:33:28  -824.558611  -3.06  -2.19    +55.0352
iter:  22 00:35:35  -824.639150  -3.06  -2.19    +55.4183
iter:  23 00:37:42  -824.671553  -3.20  -2.18    +56.1415
iter:  24 00:39:50  -824.752022  -3.25  -2.24    +56.4200
iter:  25 00:41:58  -824.954448  -3.21  -2.28    +56.7876
iter:  26 00:44:05  -824.986824  -3.26  -2.29    +57.0278
iter:  27 00:46:13  -825.323649  -3.18  -2.35    +57.2902
iter:  28 00:48:22  -825.527357  -3.01  -2.30    +57.2713
iter:  29 00:50:29  -825.341579  -3.17  -2.29    +57.1251
iter:  30 00:52:37  -825.183616  -3.45  -2.37    +57.3145
iter:  31 00:54:44  -825.258379  -3.52  -2.49    +57.2708
iter:  32 00:56:52  -825.194330c -4.00  -2.45    +57.2276
iter:  33 00:58:59  -825.267342c -3.91  -2.56    +57.1093
iter:  34 01:01:07  -825.291618  -4.08  -2.54    +57.0984
iter:  35 01:03:14  -825.413813  -3.72  -2.58    +56.9584
iter:  36 01:05:21  -825.385312  -3.76  -2.53    +56.8391
iter:  37 01:07:29  -825.504890  -3.59  -2.63    +56.7386
iter:  38 01:09:36  -825.429617  -3.69  -2.61    +56.6474
iter:  39 01:12:18  -825.509205c -3.76  -2.71    +56.4858
iter:  40 01:14:38  -825.443335c -3.96  -2.68    +56.3115
iter:  41 01:16:45  -825.463301c -4.14  -2.85    +56.1449
iter:  42 01:18:52  -825.452341c -4.52  -2.84    +56.0744
iter:  43 01:21:00  -825.478487c -4.60  -2.95    +55.8737
iter:  44 01:23:08  -825.553592  -3.87  -2.98    +55.3559
iter:  45 01:25:16  -825.552813c -4.66  -2.92    +55.3638
iter:  46 01:27:23  -825.568673c -4.53  -2.96    +55.2307
iter:  47 01:29:31  -825.573388c -5.00  -2.97    +55.2121
iter:  48 01:31:38  -825.587808c -4.85  -2.99    +55.1670
iter:  49 01:33:46  -825.613242c -4.31  -3.01    +55.1075
iter:  50 01:35:53  -825.628635c -4.54  -3.08    +55.1395
iter:  51 01:38:00  -825.637060c -4.53  -3.08    +55.1556
iter:  52 01:40:08  -825.642665c -4.70  -3.13    +55.1710
iter:  53 01:42:15  -825.652029c -4.60  -3.16    +55.2282
iter:  54 01:44:23  -825.647346c -4.86  -3.15    +55.2863
iter:  55 01:46:30  -825.652941c -5.19  -3.42    +55.3264
iter:  56 01:48:37  -825.659570c -5.19  -3.45    +55.4059
iter:  57 01:50:44  -825.671303c -4.83  -3.45    +55.5129
iter:  58 01:53:06  -825.685637c -4.70  -3.42    +55.6617
iter:  59 01:55:44  -825.710273c -4.16  -3.33    +56.0223
iter:  60 01:57:51  -825.731583c -3.93  -3.22    +56.4500
iter:  61 02:00:00  -825.731000c -5.07  -3.10    +56.3195
iter:  62 02:02:08  -825.733628c -5.07  -3.12    +56.4228
iter:  63 02:04:15  -825.733177c -5.44  -3.13    +56.4356
iter:  64 02:06:22  -825.736594c -4.49  -3.14    +56.4556
iter:  65 02:08:30  -825.733635c -4.08  -3.00    +56.4566
iter:  66 02:10:38  -825.708852c -4.55  -2.96    +56.3647
iter:  67 02:12:45  -825.707402c -5.16  -3.20    +56.2683
iter:  68 02:14:52  -825.709585c -5.31  -3.28    +56.2211
iter:  69 02:16:59  -825.714188c -4.80  -3.26    +56.1366
iter:  70 02:19:06  -825.709186c -5.06  -3.22    +56.1175
iter:  71 02:21:14  -825.710532c -5.05  -3.34    +56.0878
iter:  72 02:23:22  -825.712652c -4.99  -3.33    +56.0720
iter:  73 02:25:33  -825.708030c -5.27  -3.31    +56.0374
iter:  74 02:27:42  -825.708467c -5.51  -3.49    +55.9776
iter:  75 02:29:48  -825.708805c -5.71  -3.50    +55.9695
iter:  76 02:31:51  -825.709092c -5.71  -3.54    +55.9370
iter:  77 02:33:58  -825.709603c -5.70  -3.56    +55.9116
iter:  78 02:36:05  -825.709809c -5.81  -3.55    +55.8915
iter:  79 02:38:12  -825.710531c -5.68  -3.63    +55.8769
iter:  80 02:40:19  -825.710832c -5.71  -3.63    +55.8669
iter:  81 02:42:29  -825.710869c -5.75  -3.63    +55.8260
iter:  82 02:44:39  -825.711261c -5.85  -3.67    +55.8064
iter:  83 02:46:53  -825.711532c -6.10  -3.70    +55.7957
iter:  84 02:49:03  -825.711924c -6.16  -3.76    +55.7762
iter:  85 02:51:10  -825.712214c -6.44  -3.81    +55.7628
iter:  86 02:53:17  -825.712898c -6.36  -3.81    +55.7419
iter:  87 02:55:25  -825.710821c -5.68  -3.82    +55.8029
iter:  88 02:57:33  -825.705733c -4.51  -3.87    +55.9850
iter:  89 02:59:41  -825.705434c -5.31  -3.86    +56.0052
iter:  90 03:01:56  -825.705632c -6.16  -3.85    +55.9723
iter:  91 03:04:08  -825.705712c -6.36  -3.90    +55.9562
iter:  92 03:06:19  -825.705567c -6.69  -4.00    +55.9552
iter:  93 03:08:28  -825.705952c -6.30  -4.01c   +55.9383
iter:  94 03:10:38  -825.705888c -6.45  -4.18c   +55.9342
iter:  95 03:12:47  -825.706111c -6.66  -4.27c   +55.9293
iter:  96 03:14:54  -825.706439c -6.55  -4.38c   +55.9150
iter:  97 03:17:01  -825.706302c -7.51c -4.45c   +55.9244

Converged after 97 iterations.

Dipole moment: (28.826170, -4.196834, -10.253363) |e|*Ang

Total magnetic moment: (0.000000, 0.000000, 55.924367)
Local magnetic moments:
   0 Fe ( 0.000000,  0.000000,  2.316115)
   1 Co ( 0.000000,  0.000000,  1.331812)
   2 Co ( 0.000000,  0.000000,  1.342018)
   3 Al ( 0.000000,  0.000000, -0.041551)
   4 Co ( 0.000000,  0.000000,  1.363191)
   5 Fe ( 0.000000,  0.000000,  2.431042)
   6 Fe ( 0.000000,  0.000000,  1.930033)
   7 Cr ( 0.000000,  0.000000, -2.392578)
   8 Fe ( 0.000000,  0.000000,  2.169470)
   9 Al ( 0.000000,  0.000000, -0.010179)
  10 Ni ( 0.000000,  0.000000,  0.152542)
  11 Ni ( 0.000000,  0.000000,  0.112861)
  12 Ni ( 0.000000,  0.000000,  0.233093)
  13 Al ( 0.000000,  0.000000, -0.030098)
  14 Fe ( 0.000000,  0.000000,  2.345483)
  15 Fe ( 0.000000,  0.000000,  2.040948)
  16 Co ( 0.000000,  0.000000,  1.247328)
  17 Co ( 0.000000,  0.000000,  1.092400)
  18 Ni ( 0.000000,  0.000000,  0.242475)
  19 Fe ( 0.000000,  0.000000,  2.330604)
  20 Ni ( 0.000000,  0.000000,  0.097718)
  21 Co ( 0.000000,  0.000000,  1.213015)
  22 Al ( 0.000000,  0.000000, -0.022984)
  23 Fe ( 0.000000,  0.000000,  2.090315)
  24 Co ( 0.000000,  0.000000,  0.481867)
  25 Co ( 0.000000,  0.000000,  0.963978)
  26 Cr ( 0.000000,  0.000000, -1.918113)
  27 Ni ( 0.000000,  0.000000,  0.114144)
  28 Al ( 0.000000,  0.000000, -0.017325)
  29 Al ( 0.000000,  0.000000, -0.014931)
  30 Ni ( 0.000000,  0.000000,  0.295478)
  31 Cr ( 0.000000,  0.000000,  1.658821)
  32 Co ( 0.000000,  0.000000,  0.965695)
  33 Cr ( 0.000000,  0.000000, -0.740997)
  34 Cr ( 0.000000,  0.000000, -1.668156)
  35 Co ( 0.000000,  0.000000,  0.930855)
  36 Cr ( 0.000000,  0.000000, -1.202065)
  37 Al ( 0.000000,  0.000000, -0.034672)
  38 Ni ( 0.000000,  0.000000,  0.150084)
  39 Fe ( 0.000000,  0.000000,  2.175755)
  40 Al ( 0.000000,  0.000000, -0.032151)
  41 Cr ( 0.000000,  0.000000, -1.997071)
  42 Al ( 0.000000,  0.000000, -0.022402)
  43 Co ( 0.000000,  0.000000,  0.610685)
  44 Al ( 0.000000,  0.000000, -0.020892)
  45 Co ( 0.000000,  0.000000,  0.805269)
  46 Fe ( 0.000000,  0.000000,  2.038974)
  47 Ni ( 0.000000,  0.000000,  0.202390)
  48 Ni ( 0.000000,  0.000000,  0.349032)
  49 Ni ( 0.000000,  0.000000,  0.247021)
  50 Fe ( 0.000000,  0.000000,  2.281869)
  51 Co ( 0.000000,  0.000000,  1.149313)
  52 Co ( 0.000000,  0.000000,  1.269999)
  53 Cr ( 0.000000,  0.000000, -1.703049)
  54 Cr ( 0.000000,  0.000000, -0.226553)
  55 Cr ( 0.000000,  0.000000,  0.983877)
  56 Cr ( 0.000000,  0.000000, -0.427069)
  57 Fe ( 0.000000,  0.000000,  2.147196)
  58 Co ( 0.000000,  0.000000,  1.130429)
  59 Co ( 0.000000,  0.000000,  0.999794)
[...]
  93 Ni ( 0.000000,  0.000000,  0.306640)
  94 Cr ( 0.000000,  0.000000,  1.290874)
  95 Al ( 0.000000,  0.000000, -0.017211)
  96 Cr ( 0.000000,  0.000000,  0.884512)
  97 Cr ( 0.000000,  0.000000, -0.402866)
  98 Fe ( 0.000000,  0.000000,  1.743172)
  99 Fe ( 0.000000,  0.000000,  1.939120)
 100 Fe ( 0.000000,  0.000000, -1.580244)
 101 Cr ( 0.000000,  0.000000, -2.115597)
 102 Al ( 0.000000,  0.000000, -0.005968)
 103 Co ( 0.000000,  0.000000,  1.009964)
 104 Fe ( 0.000000,  0.000000,  2.483296)
 105 Ni ( 0.000000,  0.000000,  0.231677)
 106 Cr ( 0.000000,  0.000000, -1.338931)
 107 Co ( 0.000000,  0.000000,  0.903296)

Energy contributions relative to reference atoms: (reference = -3382523.201499)

Kinetic:       +202.817416
Potential:     -214.646702
External:        +0.000000
XC:            -844.979058
Entropy (-ST):   -4.247322
Local:          +33.225704
Free energy:   -827.829963
Extrapolated:  -825.706302

Spin contamination: 28.703761 electrons
Showing only first 2 kpts
                      Up                     Down
 Kpt  Band  Eigenvalues  Occupancy  Eigenvalues  Occupancy
  0   470      9.16662    0.99410     10.02311    0.03115
  0   471      9.17528    0.99357     10.04045    0.02632
  0   472      9.20251    0.99158     10.04442    0.02533
  0   473      9.21242    0.99071     10.06294    0.02113

  1   470      9.16477    0.99421     10.02768    0.02980
  1   471      9.18009    0.99326     10.03797    0.02697
  1   472      9.18471    0.99294     10.04781    0.02450
  1   473      9.21217    0.99073     10.06269    0.02119

Fermi level: 9.67939

No gap

Forces in eV/Ang:
  0 Fe    0.08255   -0.64018    0.34194
  1 Co    0.48969   -0.29018    0.11762
  2 Co   -0.01199   -0.06866   -0.42631
  3 Al    0.44703   -0.32225   -0.32917
  4 Co    0.12893   -0.28465   -0.56880
  5 Fe    0.26384    0.35308   -0.24787
  6 Fe    0.28704    0.25846   -0.86464
  7 Cr   -1.13624   -0.99157   -0.87254
  8 Fe   -0.38036    0.46806   -0.36094
  9 Al   -0.39557   -0.42738   -1.05545
 10 Ni   -0.21141   -0.24904   -0.25312
 11 Ni   -0.25158   -0.27976   -0.40787
 12 Ni   -0.34838    0.52224    0.11124
 13 Al    0.76617   -0.21397    0.02645
 14 Fe    0.64253    0.51160    0.95953
 15 Fe   -0.13667    0.02698    0.00871
 16 Co    0.40698    0.08642    0.16526
 17 Co   -0.41014   -0.49458    0.75843
 18 Ni   -0.41965   -0.18750    0.06580
 19 Fe    0.28233   -0.63035    0.46212
 20 Ni   -0.16104   -0.05056   -0.44212
 21 Co    0.03890    0.51313    0.13720
 22 Al    0.37660   -0.03145   -0.45139
 23 Fe   -0.49125    0.80589   -0.54679
 24 Co    0.31524   -0.01199   -0.04990
 25 Co    0.21577   -0.07211   -0.12566
 26 Cr   -0.67991    0.17422    0.04146
 27 Ni    0.83278    0.47138   -0.26280
 28 Al   -0.90706    0.07699    0.34170
 29 Al   -0.74045    0.53283   -0.95114
 30 Ni   -0.18321    0.04449    0.37357
 31 Cr    0.51551    1.03861   -0.37198
 32 Co    0.43260   -0.15541    0.22114
 33 Cr    0.13162   -0.03954   -0.51880
 34 Cr   -0.60497    0.39274   -0.22677
 35 Co   -0.21743   -0.02454    0.16878
 36 Cr    0.20746   -0.85204   -0.93850
 37 Al   -0.24431    0.16768   -0.14114
 38 Ni    0.23657   -0.11496    0.01197
 39 Fe    0.40926    0.43928   -0.28703
 40 Al   -0.59453    0.70601   -0.27580
 41 Cr   -0.43494    1.44250    0.04600
 42 Al    0.25727   -0.04060    0.78141
 43 Co   -0.37871    0.49071    0.09769
 44 Al    0.68648   -0.04614    0.06210
 45 Co    0.14679    0.63139    0.48032
 46 Fe   -0.05847   -0.50981    0.15643
 47 Ni   -0.10235   -0.14494    0.03240
 48 Ni    0.50890    0.43633   -0.04987
 49 Ni    0.26133    0.16041   -0.44002
 50 Fe    0.76269    0.65621   -0.40793
 51 Co    1.10246   -0.14869    0.16923
 52 Co   -0.22131   -0.00909    0.24438
 53 Cr   -0.09468   -0.83110   -0.10185
 54 Cr    0.19022    0.10734    0.01078
 55 Cr   -0.24585   -0.71922   -0.25025
 56 Cr   -1.05284    0.71258    1.45096
 57 Fe    0.32543    0.03454    0.03169
 58 Co   -0.62950    0.18447    0.24061
 59 Co   -0.38153    0.39073    0.53005
[...]
 93 Ni    0.32576   -0.16455   -0.23503
 94 Cr    0.38045    0.22097    0.49425
 95 Al   -1.21169   -0.08717   -0.91043
 96 Cr   -0.20665    0.24838    0.73829
 97 Cr    0.47893   -0.01176    0.37344
 98 Fe    0.13032    0.23035   -0.18054
 99 Fe    0.15389    0.06502    0.67574
100 Fe   -0.44231    0.54028   -0.24066
101 Cr   -0.47400    1.07980    0.26617
102 Al    1.15829    0.23952   -1.40686
103 Co   -0.21177   -0.42051    0.35403
104 Fe   -0.06935    0.02115   -0.57030
105 Ni    0.09775    0.07134    0.06902
106 Cr   -0.76782    0.56450    0.35546
107 Co   -0.29991   -0.21432   -0.08777

Date: Sat Apr 15 03:17:23 2023