User:   c.zeng@d0025
Date:   Thu Apr 13 20:19:12 2023
Arch:   x86_64
Pid:    72294
CWD:    /home/c.zeng/projects/hea-corrosion/hea-mlp/data-curation/bulk-md/dft-jobs/41
Python: 3.8.1
gpaw:   /home/c.zeng/usr/installs/gpaw/source/gpaw-22.8.0/gpaw
_gpaw:  /home/c.zeng/usr/installs/gpaw/source/gpaw-22.8.0/
        _gpaw.cpython-38-x86_64-linux-gnu.so
ase:    /home/c.zeng/.local/lib/python3.8/site-packages/ase-3.22.1-py3.8.egg/ase (version 3.22.1)
numpy:  /shared/centos7/python/3.8.1/lib/python3.8/site-packages/numpy (version 1.17.4)
scipy:  /shared/centos7/python/3.8.1/lib/python3.8/site-packages/scipy (version 1.4.1)
units:  Angstrom and eV
cores: 30
OpenMP: False
OMP_NUM_THREADS: 1

Input parameters:
  convergence: {energy: 0.0001}
  kpts: [2 2 2]
  maxiter: 666
  mode: {ecut: 350.0,
         name: pw}
  occupations: {fixmagmom: False,
                name: fermi-dirac,
                width: 0.1}
  spinpol: True
  xc: PBE

System changes: positions, numbers, cell, pbc, initial_charges, initial_magmoms

Initialize ...

species:
  Co:
    name: Cobalt
    id: 339d20d5b0b93d2de9531a1bee871d91
    Z: 27.0
    valence: 9
    core: 18
    charge: 0.0
    file: /home/c.zeng/usr/data/gpaw-setups-0.9.20000/Co.PBE.gz
    compensation charges: {type: gauss,
                           rc: 0.32,
                           lmax: 2}
    cutoffs: {filter: 1.87,
              core: 2.55}
    valence states:
      #              energy  rcut
      - 4s(2.00)    -5.469   1.005
      - 4p(0.00)    -1.277   1.058
      - 3d(7.00)    -8.205   1.005
      -  s          21.742   1.005
      -  p          25.934   1.058
      -  d          19.007   1.005

    # Using partial waves for Co as LCAO basis

  Ni:
    name: Nickel
    id: 0d9f38a9d6e76a2886f07bb4381f212b
    Z: 28.0
    valence: 16
    core: 12
    charge: 0.0
    file: /home/c.zeng/usr/data/gpaw-setups-0.9.20000/Ni.PBE.gz
    compensation charges: {type: gauss,
                           rc: 0.36,
                           lmax: 2}
    cutoffs: {filter: 2.14,
              core: 1.98}
    valence states:
      #              energy  rcut
      - 4s(2.00)    -5.642   1.164
      - 3p(6.00)   -71.394   1.207
      - 4p(0.00)    -1.226   1.207
      - 3d(8.00)    -8.875   1.138
      -  s          21.570   1.164
      -  d          18.337   1.138

[...]

  Al:
    name: Aluminium
    id: 0292cae29f5d6237e50f6abdd43a7bdd
    Z: 13.0
    valence: 3
    core: 10
    charge: 0.0
    file: /home/c.zeng/usr/data/gpaw-setups-0.9.20000/Al.PBE.gz
    compensation charges: {type: gauss,
                           rc: 0.34,
                           lmax: 2}
    cutoffs: {filter: 1.91,
              core: 2.36}
    valence states:
      #              energy  rcut
      - 3s(2.00)    -7.753   1.085
      - 3p(1.00)    -2.712   1.085
      -  s          19.459   1.085
      -  p          24.499   1.085
      -  d           0.000   1.085

[...]

  Cr:
    name: Chromium
    id: 33f258bda2ca9f93018e70263a35547b
    Z: 24.0
    valence: 6
    core: 18
    charge: 0.0
    file: /home/c.zeng/usr/data/gpaw-setups-0.9.20000/Cr.PBE.gz
    compensation charges: {type: gauss,
                           rc: 0.35,
                           lmax: 2}
    cutoffs: {filter: 2.14,
              core: 3.04}
    valence states:
      #              energy  rcut
      - 4s(1.00)    -4.007   1.164
      - 4p(0.00)    -0.989   1.217
      - 3d(5.00)    -2.913   1.111
      -  s          23.205   1.164
      -  p          26.223   1.217
      -  d          24.299   1.111

[...]

  Fe:
    name: Iron
    id: 37abbd8d6c3c35915a9b583b742da910
    Z: 26.0
    valence: 8
    core: 18
    charge: 0.0
    file: /home/c.zeng/usr/data/gpaw-setups-0.9.20000/Fe.PBE.gz
    compensation charges: {type: gauss,
                           rc: 0.33,
                           lmax: 2}
    cutoffs: {filter: 2.06,
              core: 2.67}
    valence states:
      #              energy  rcut
      - 4s(2.00)    -5.291   1.164
      - 4p(0.00)    -1.326   1.058
      - 3d(6.00)    -7.505   1.058
      -  s          21.920   1.164
      -  p          25.885   1.058
      -  d          19.706   1.058

    # Using partial waves for Fe as LCAO basis

Reference energy: -3548577.034362  # eV

Spin-polarized calculation.
Magnetic moment: 136.400000

Convergence criteria:
 Maximum [total energy] change in last 3 cyles: 0.0001 eV / electron
 Maximum integral of absolute [dens]ity change: 0.0001 electrons / valence electron
 Maximum integral of absolute [eigenst]ate change: 4e-08 eV^2 / valence electron
 Maximum number of scf [iter]ations: 666
 (Square brackets indicate name in SCF output, whereas a 'c' in
 the SCF output indicates the quantity has converged.)

Symmetries present (total): 1

  ( 1  0  0)
  ( 0  1  0)
  ( 0  0  1)

8 k-points: 2 x 2 x 2 Monkhorst-Pack grid
4 k-points in the irreducible part of the Brillouin zone
       k-points in crystal coordinates                weights
   0:     0.25000000   -0.25000000   -0.25000000          2/8
   1:     0.25000000   -0.25000000    0.25000000          2/8
   2:     0.25000000    0.25000000   -0.25000000          2/8
   3:     0.25000000    0.25000000    0.25000000          2/8

Wave functions: Plane wave expansion
  Cutoff energy: 350.000 eV
  Number of coefficients (min, max): 18331, 18331
  Pulay-stress correction: 0.000000 eV/Ang^3 (de/decut=0.000000)
  Using FFTW library
  ScaLapack parameters: grid=1x1, blocksize=None
  Wavefunction extrapolation:
    Improved wavefunction reuse through dual PAW basis

Occupation numbers: Fermi-Dirac:
  width: 0.1000  # eV

Eigensolver
   Davidson(niter=2)

Densities:
  Coarse grid: 48*48*48 grid
  Fine grid: 96*96*96 grid
  Total Charge: 0.000000

Density mixing:
  Method: difference
  Backend: pulay
  Linear mixing parameter: 0.05
  old densities: 5
  Damping of long wavelength oscillations: 50

Hamiltonian:
  XC and Coulomb potentials evaluated on a 96*96*96 grid
  Using the PBE Exchange-Correlation functional
  External potential:
    NoExternalPotential

XC parameters: PBE with 2 nearest neighbor stencil

Total number of cores used: 30
Parallelization over k-points: 2
Domain decomposition: 5 x 3 x 1

Number of atoms: 108
Number of atomic orbitals: 994
Number of bands in calculation: 674
Number of valence electrons: 980
Bands to converge: occupied

... initialized

Initializing position-dependent things.

Density initialized from atomic densities
Creating initial wave functions:
  674 bands from LCAO basis set

       /|           Fe      Cr    |
      Fe|              Fe         |
     / Ni       Ni      Ni        |
    /   |Ali     CoFe     CrFe    |
   /Co  |Al Cr       Co           |
  /    Cr  CoFe     CoNi     FCo  |
 *      Ni    CoAl   CoCoCr  Al Co|
 |Co   NiFeFe   CoCCr   CrCr      |
 |    Co| CrCoFe   CFeAl   FeCr   |
 |     Fe  NiNi     CrCNi   NiFe  |
 |    NFe     CCroNi   CrCr   Fe  |
 | Ni  AlNiNi   NiCCo   CrFe      |
 |    CoCoNNi----CrCoCr------Cr---.
 |   FeNi   CrCNi     CrNi Fe    /
 |    / Al     FAl       Cr     /
 Ni  /    Coe     Cr           /
 |Ni/ Al           Fe         /
 | /          Fe             /
 |/           Fe        Al  /
 *----------------Cr-------*

Positions:
   0 Co    10.875693   -0.003246   10.805955    ( 0.0000,  0.0000,  2.1000)
   1 Ni    10.836880    1.789583    1.765000    ( 0.0000,  0.0000,  1.5000)
   2 Al     1.912967    0.142436    2.000542    ( 0.0000,  0.0000,  0.0000)
   3 Cr     2.104269    1.859155   10.697051    ( 0.0000,  0.0000,  0.0000)
   4 Cr     3.642075   -0.182829   10.818288    ( 0.0000,  0.0000,  0.0000)
   5 Fe     3.495679    1.992358    2.011802    ( 0.0000,  0.0000,  2.0000)
   6 Fe     5.302372    0.059301    1.770737    ( 0.0000,  0.0000,  2.0000)
   7 Fe     5.016694    1.714795    0.119629    ( 0.0000,  0.0000,  2.0000)
   8 Cr     7.080400    0.102029    0.201929    ( 0.0000,  0.0000,  0.0000)
   9 Fe     6.959938    1.818818    1.735079    ( 0.0000,  0.0000,  2.0000)
  10 Fe     8.930577   -0.182504    1.927059    ( 0.0000,  0.0000,  2.0000)
  11 Al     8.937836    1.670152    0.220015    ( 0.0000,  0.0000,  0.0000)
  12 Co    10.848364    3.406841   10.716673    ( 0.0000,  0.0000,  2.1000)
  13 Fe    10.841701    5.368680    1.717901    ( 0.0000,  0.0000,  2.0000)
  14 Al     1.722384    3.598153    2.024593    ( 0.0000,  0.0000,  0.0000)
  15 Al     1.664307    5.547065   10.488008    ( 0.0000,  0.0000,  0.0000)
  16 Cr     3.650785    3.647790   10.573086    ( 0.0000,  0.0000,  0.0000)
  17 Cr     3.793236    5.528346    1.914389    ( 0.0000,  0.0000,  0.0000)
  18 Al     5.364227    3.652886    1.793588    ( 0.0000,  0.0000,  0.0000)
  19 Co     5.293598    5.341539   10.634940    ( 0.0000,  0.0000,  2.1000)
  20 Co     7.161781    3.556542   -0.108803    ( 0.0000,  0.0000,  2.1000)
  21 Cr     7.159073    5.367160    1.753489    ( 0.0000,  0.0000,  0.0000)
  22 Cr     8.934067    3.680114    1.933356    ( 0.0000,  0.0000,  0.0000)
  23 Cr     8.924493    5.127065   -0.084355    ( 0.0000,  0.0000,  0.0000)
  24 Fe    10.729192    7.225063   10.626656    ( 0.0000,  0.0000,  2.0000)
  25 Al    11.000429    8.898713    1.765054    ( 0.0000,  0.0000,  0.0000)
  26 Ni     1.797688    7.057681    1.769330    ( 0.0000,  0.0000,  1.5000)
  27 Cr     1.976665    8.772310   10.764253    ( 0.0000,  0.0000,  0.0000)
  28 Fe     3.680692    7.081625   10.760935    ( 0.0000,  0.0000,  2.0000)
  29 Ni     3.665644    9.030932    1.952898    ( 0.0000,  0.0000,  1.5000)
  30 Co     5.433032    7.143316    1.664855    ( 0.0000,  0.0000,  2.1000)
  31 Fe     5.321593    8.948939   10.681668    ( 0.0000,  0.0000,  2.0000)
  32 Fe     7.137692    7.261001   10.626461    ( 0.0000,  0.0000,  2.0000)
  33 Cr     7.138487    9.050908    1.764899    ( 0.0000,  0.0000,  0.0000)
  34 Fe     9.002158    7.031438    1.526891    ( 0.0000,  0.0000,  2.0000)
  35 Cr     8.873461    9.033353   -0.007276    ( 0.0000,  0.0000,  0.0000)
  36 Ni    10.758980    0.010840    3.678300    ( 0.0000,  0.0000,  1.5000)
  37 Ni     0.124977    1.856626    5.414571    ( 0.0000,  0.0000,  1.5000)
  38 Co     1.906857    0.214588    5.391042    ( 0.0000,  0.0000,  2.1000)
  39 Ni     1.847416    1.869195    3.761464    ( 0.0000,  0.0000,  1.5000)
  40 Co     3.638683    0.018847    3.650705    ( 0.0000,  0.0000,  2.1000)
  41 Ni     3.547439    1.838073    5.493539    ( 0.0000,  0.0000,  1.5000)
  42 Co     5.328829   -0.144515    5.327650    ( 0.0000,  0.0000,  2.1000)
  43 Ni     5.398814    1.871656    3.620478    ( 0.0000,  0.0000,  1.5000)
  44 Cr     6.997689    0.153979    3.402103    ( 0.0000,  0.0000,  0.0000)
  45 Co     7.132788    1.782940    5.263334    ( 0.0000,  0.0000,  2.1000)
  46 Al     8.882587   10.633362    5.090416    ( 0.0000,  0.0000,  0.0000)
  47 Ni     8.848235    1.869972    3.592249    ( 0.0000,  0.0000,  1.5000)
  48 Cr    10.516393    3.570023    3.638503    ( 0.0000,  0.0000,  0.0000)
  49 Fe    -0.182872    5.395706    5.451346    ( 0.0000,  0.0000,  2.0000)
  50 Fe     1.615012    3.771332    5.537835    ( 0.0000,  0.0000,  2.0000)
  51 Ni     1.695256    5.386995    3.585906    ( 0.0000,  0.0000,  1.5000)
[...]
  93 Ni     7.096865    5.381147    8.931784    ( 0.0000,  0.0000,  1.5000)
  94 Cr     9.053549    3.395236    9.118089    ( 0.0000,  0.0000,  0.0000)
  95 Cr     8.903967    5.467768    7.304006    ( 0.0000,  0.0000,  0.0000)
  96 Co    10.700347    7.174703    7.141351    ( 0.0000,  0.0000,  2.1000)
  97 Ni    10.900806    8.947709    8.977632    ( 0.0000,  0.0000,  1.5000)
  98 Ni     1.904834    7.310670    8.852282    ( 0.0000,  0.0000,  1.5000)
  99 Co     1.877987    8.857437    6.919103    ( 0.0000,  0.0000,  2.1000)
 100 Co     3.418644    7.110359    7.076921    ( 0.0000,  0.0000,  2.1000)
 101 Ni     3.702843    8.969850    8.979493    ( 0.0000,  0.0000,  1.5000)
 102 Fe     5.325206    7.182505    8.954139    ( 0.0000,  0.0000,  2.0000)
 103 Co     5.367353    8.874514    7.016219    ( 0.0000,  0.0000,  2.1000)
 104 Co     6.998925    7.126796    7.156917    ( 0.0000,  0.0000,  2.1000)
 105 Ni     7.004233    8.978726    8.904684    ( 0.0000,  0.0000,  1.5000)
 106 Fe     9.070293    7.399818    8.808019    ( 0.0000,  0.0000,  2.0000)
 107 Fe     9.144302    9.003102    7.036604    ( 0.0000,  0.0000,  2.0000)

Unit cell:
           periodic     x           y           z      points  spacing
  1. axis:    yes   10.722400    0.000000    0.000000    48     0.2234
  2. axis:    yes    0.000000   10.722400    0.000000    48     0.2234
  3. axis:    yes    0.000000    0.000000   10.722400    48     0.2234

  Lengths:  10.722400  10.722400  10.722400
  Angles:   90.000000  90.000000  90.000000

Effective grid spacing dv^(1/3) = 0.2234

     iter     time        total  log10-change:  magmom
                         energy  eigst   dens
iter:   1 20:24:49 -1021.758585                  +136.6833
iter:   2 20:27:22  -914.521627  -0.21  -1.18    +75.0429
iter:   3 20:29:55  -906.395174  -0.78  -1.19    +62.0757
iter:   4 20:32:27  -874.576349  -1.21  -1.26    +57.3973
iter:   5 20:34:59  -864.044385  -1.64  -1.29    +53.5220
iter:   6 20:37:32  -869.960296  -1.30  -1.34    +53.7742
iter:   7 20:40:04  -851.740797  -1.27  -1.39    +52.1174
iter:   8 20:42:36  -844.541681  -1.54  -1.55    +51.5764
iter:   9 20:45:09  -844.327549  -1.92  -1.73    +52.3703
iter:  10 20:47:41  -842.602102  -2.32  -1.76    +53.1716
iter:  11 20:50:12  -843.265664  -2.58  -1.84    +54.5213
iter:  12 20:52:45  -843.708344  -2.46  -1.84    +55.9198
iter:  13 20:55:17  -844.815333  -2.40  -1.88    +56.8198
iter:  14 20:57:49  -843.934415  -2.34  -1.91    +57.0323
iter:  15 21:00:21  -844.040143  -2.53  -2.01    +58.1584
iter:  16 21:02:54  -843.670778  -2.78  -2.05    +58.5216
iter:  17 21:05:27  -843.322385  -3.03  -2.11    +58.9053
iter:  18 21:07:53  -844.030761  -2.87  -2.19    +59.3418
iter:  19 21:10:24  -843.504995  -3.01  -2.15    +59.7429
iter:  20 21:12:56  -843.831175  -3.04  -2.24    +60.0439
iter:  21 21:15:29  -843.491699  -3.04  -2.26    +59.8589
iter:  22 21:18:01  -843.393203  -3.31  -2.38    +60.2220
iter:  23 21:20:34  -843.521701  -3.28  -2.46    +60.2809
iter:  24 21:23:06  -843.310747  -3.40  -2.45    +60.3087
iter:  25 21:25:38  -843.339189  -3.87  -2.61    +60.5803
iter:  26 21:28:11  -843.343644c -3.88  -2.64    +60.5770
iter:  27 21:30:43  -843.371880c -3.91  -2.68    +60.6329
iter:  28 21:33:16  -843.364585c -3.96  -2.70    +60.6684
iter:  29 21:35:46  -843.371932c -4.09  -2.76    +60.7466
iter:  30 21:38:15  -843.393863c -4.06  -2.82    +60.6899
iter:  31 21:40:48  -843.368636c -4.33  -2.81    +60.6327
iter:  32 21:43:20  -843.385681c -4.57  -2.96    +60.5696
iter:  33 21:45:52  -843.401960c -4.56  -2.97    +60.4751
iter:  34 21:48:24  -843.413280c -4.68  -2.99    +60.3704
iter:  35 21:50:56  -843.416588c -4.75  -3.01    +60.2858
iter:  36 21:53:28  -843.431496c -4.62  -3.08    +60.1771
iter:  37 21:56:00  -843.430396c -4.82  -3.10    +60.0560
iter:  38 21:58:32  -843.439951c -4.87  -3.18    +59.9606
iter:  39 22:01:05  -843.445234c -5.03  -3.21    +59.8716
iter:  40 22:03:37  -843.454778c -4.93  -3.23    +59.6998
iter:  41 22:06:10  -843.457356c -5.14  -3.25    +59.6621
iter:  42 22:08:42  -843.467402c -4.96  -3.31    +59.5191
iter:  43 22:11:14  -843.468897c -5.18  -3.31    +59.4461
iter:  44 22:13:46  -843.477888c -5.14  -3.38    +59.3294
iter:  45 22:16:18  -843.480080c -5.30  -3.38    +59.2662
iter:  46 22:18:51  -843.487176c -5.23  -3.42    +59.1202
iter:  47 22:21:23  -843.489926c -5.38  -3.44    +59.0702
iter:  48 22:23:55  -843.498054c -5.17  -3.49    +58.8962
iter:  49 22:26:23  -843.503528c -5.23  -3.50    +58.7786
iter:  50 22:28:50  -843.512405c -5.06  -3.54    +58.6114
iter:  51 22:31:23  -843.524785c -4.76  -3.55    +58.3634
iter:  52 22:33:55  -843.550499c -4.06  -3.54    +57.7377
iter:  53 22:36:27  -843.557326c -4.55  -3.36    +57.5609
iter:  54 22:38:59  -843.556853c -5.07  -3.33    +57.5437
iter:  55 22:41:31  -843.558653c -5.28  -3.40    +57.4988
iter:  56 22:44:03  -843.557670c -5.74  -3.41    +57.5018
iter:  57 22:46:34  -843.559772c -5.19  -3.44    +57.4731
iter:  58 22:49:03  -843.557049c -5.27  -3.44    +57.4458
iter:  59 22:51:34  -843.557321c -5.81  -3.55    +57.3911
iter:  60 22:54:06  -843.558538c -5.79  -3.60    +57.3514
iter:  61 22:56:38  -843.560525c -5.60  -3.60    +57.3280
iter:  62 22:59:09  -843.559365c -5.79  -3.57    +57.3076
iter:  63 23:01:41  -843.560255c -5.78  -3.72    +57.2754
iter:  64 23:04:14  -843.560694c -6.05  -3.72    +57.2674
iter:  65 23:06:46  -843.561386c -6.07  -3.81    +57.2406
iter:  66 23:09:18  -843.561499c -6.33  -3.87    +57.2351
iter:  67 23:11:49  -843.562617c -6.15  -3.86    +57.2109
iter:  68 23:14:22  -843.563513c -6.36  -3.94    +57.2021
iter:  69 23:16:55  -843.564289c -6.22  -3.92    +57.1763
iter:  70 23:19:27  -843.564954c -6.18  -3.96    +57.1587
iter:  71 23:21:59  -843.565008c -6.61  -3.94    +57.1415
iter:  72 23:24:32  -843.566742c -6.04  -4.01c   +57.1094
iter:  73 23:27:03  -843.566211c -6.52  -4.09c   +57.1197
iter:  74 23:29:32  -843.568126c -6.00  -4.05c   +57.0881
iter:  75 23:32:01  -843.567511c -6.62  -4.14c   +57.1114
iter:  76 23:34:33  -843.569821c -6.07  -4.17c   +57.0796
iter:  77 23:37:05  -843.568682c -6.81  -4.16c   +57.0985
iter:  78 23:39:38  -843.570088c -6.41  -4.21c   +57.0739
iter:  79 23:42:11  -843.569502c -7.22  -4.29c   +57.0814
iter:  80 23:44:43  -843.565665c -5.34  -4.31c   +57.1166
iter:  81 23:47:15  -843.566255c -6.51  -4.13c   +57.1096
iter:  82 23:49:48  -843.566698c -6.66  -4.16c   +57.1016
iter:  83 23:52:17  -843.562223c -4.64  -4.26c   +57.1782
iter:  84 23:54:47  -843.565012c -5.73  -3.70    +57.1458
iter:  85 23:57:19  -843.565180c -6.57  -3.85    +57.1534
iter:  86 23:59:52  -843.566847c -6.06  -3.83    +57.1345
iter:  87 00:02:24  -843.561690c -5.08  -3.81    +57.2045
iter:  88 00:04:57  -843.557006c -4.89  -3.87    +57.2728
iter:  89 00:07:29  -843.555017c -5.06  -3.96    +57.3268
iter:  90 00:10:02  -843.555828c -5.77  -3.80    +57.2961
iter:  91 00:12:34  -843.555400c -5.96  -3.75    +57.2971
iter:  92 00:15:06  -843.556294c -5.89  -3.79    +57.2918
iter:  93 00:17:38  -843.556549c -5.88  -3.73    +57.2808
iter:  94 00:20:11  -843.559779c -5.38  -3.85    +57.2644
iter:  95 00:22:44  -843.557053c -5.83  -3.66    +57.2558
iter:  96 00:25:16  -843.558404c -6.07  -4.01c   +57.2426
iter:  97 00:27:49  -843.559164c -6.26  -4.18c   +57.2271
iter:  98 00:30:16  -843.559978c -6.39  -4.16c   +57.2159
iter:  99 00:32:46  -843.560932c -6.33  -4.32c   +57.2046
iter: 100 00:35:19  -843.560933c -7.01  -4.35c   +57.2014
iter: 101 00:37:52  -843.562411c -6.26  -4.43c   +57.1665
iter: 102 00:40:24  -843.559802c -5.98  -4.43c   +57.2221
iter: 103 00:42:56  -843.553900c -4.95  -4.45c   +57.3945
iter: 104 00:45:29  -843.551321c -5.20  -4.10c   +57.4918
iter: 105 00:48:00  -843.547747c -4.76  -3.95    +57.6747
iter: 106 00:50:33  -843.547366c -5.40  -3.76    +57.7252
iter: 107 00:53:06  -843.547022c -5.19  -3.72    +57.8033
iter: 108 00:55:38  -843.547462c -5.43  -3.67    +57.8493
iter: 109 00:58:12  -843.547221c -6.29  -3.62    +57.8293
iter: 110 01:00:45  -843.552491c -5.23  -3.65    +57.8395
iter: 111 01:03:15  -843.551408c -5.17  -3.41    +57.8298
iter: 112 01:05:46  -843.549849c -5.15  -3.38    +57.8442
iter: 113 01:08:19  -843.549105c -5.45  -3.51    +57.8752
iter: 114 01:10:52  -843.548794c -5.74  -3.71    +57.8466
iter: 115 01:13:26  -843.548423c -6.00  -3.68    +57.8504
iter: 116 01:15:59  -843.548654c -6.02  -3.88    +57.8412
iter: 117 01:18:32  -843.549940c -5.80  -3.79    +57.8375
iter: 118 01:21:04  -843.549931c -5.84  -3.73    +57.8220
iter: 119 01:23:38  -843.548658c -5.79  -3.72    +57.8135
iter: 120 01:26:11  -843.550105c -5.74  -3.79    +57.8257
iter: 121 01:28:44  -843.549307c -5.90  -3.74    +57.8027
iter: 122 01:31:17  -843.549681c -6.23  -3.88    +57.7782
iter: 123 01:33:50  -843.549074c -6.35  -3.98    +57.7731
iter: 124 01:36:21  -843.549105c -6.72  -4.05c   +57.7682
iter: 125 01:38:48  -843.549327c -6.95  -4.18c   +57.7546
iter: 126 01:41:21  -843.549363c -6.74  -4.24c   +57.7381
iter: 127 01:43:54  -843.549657c -6.46  -4.14c   +57.7376
iter: 128 01:46:26  -843.549414c -6.69  -4.04c   +57.7286
iter: 129 01:48:58  -843.550223c -6.45  -4.25c   +57.7141
iter: 130 01:51:30  -843.549975c -6.56  -4.08c   +57.7079
iter: 131 01:54:03  -843.549599c -6.74  -4.20c   +57.6979
iter: 132 01:56:35  -843.549796c -7.07  -4.29c   +57.6930
iter: 133 01:59:06  -843.549816c -7.25  -4.44c   +57.6795
iter: 134 02:01:31  -843.549904c -7.43c -4.46c   +57.6721

Converged after 134 iterations.

Dipole moment: (-35.236365, -2.576507, 8.691265) |e|*Ang

Total magnetic moment: (0.000000, 0.000000, 57.672129)
Local magnetic moments:
   0 Co ( 0.000000,  0.000000,  0.620455)
   1 Ni ( 0.000000,  0.000000,  0.082019)
   2 Al ( 0.000000,  0.000000, -0.010242)
   3 Cr ( 0.000000,  0.000000, -1.212864)
   4 Cr ( 0.000000,  0.000000, -0.201021)
   5 Fe ( 0.000000,  0.000000,  1.940986)
   6 Fe ( 0.000000,  0.000000,  0.825476)
   7 Fe ( 0.000000,  0.000000,  1.014509)
   8 Cr ( 0.000000,  0.000000,  0.061415)
   9 Fe ( 0.000000,  0.000000,  0.899882)
  10 Fe ( 0.000000,  0.000000,  1.958352)
  11 Al ( 0.000000,  0.000000, -0.015952)
  12 Co ( 0.000000,  0.000000,  0.521741)
  13 Fe ( 0.000000,  0.000000,  1.943500)
  14 Al ( 0.000000,  0.000000, -0.020169)
  15 Al ( 0.000000,  0.000000, -0.037285)
  16 Cr ( 0.000000,  0.000000,  0.733413)
  17 Cr ( 0.000000,  0.000000, -1.406679)
  18 Al ( 0.000000,  0.000000, -0.014492)
  19 Co ( 0.000000,  0.000000,  0.968445)
  20 Co ( 0.000000,  0.000000, -0.029459)
  21 Cr ( 0.000000,  0.000000, -1.326151)
  22 Cr ( 0.000000,  0.000000,  0.859264)
  23 Cr ( 0.000000,  0.000000, -1.359623)
  24 Fe ( 0.000000,  0.000000,  1.761460)
  25 Al ( 0.000000,  0.000000, -0.018272)
  26 Ni ( 0.000000,  0.000000,  0.182696)
  27 Cr ( 0.000000,  0.000000, -1.606384)
  28 Fe ( 0.000000,  0.000000,  2.062762)
  29 Ni ( 0.000000,  0.000000,  0.160364)
  30 Co ( 0.000000,  0.000000,  0.765655)
  31 Fe ( 0.000000,  0.000000,  1.419843)
  32 Fe ( 0.000000,  0.000000,  2.072822)
  33 Cr ( 0.000000,  0.000000, -0.987385)
  34 Fe ( 0.000000,  0.000000,  2.071510)
  35 Cr ( 0.000000,  0.000000, -1.635789)
  36 Ni ( 0.000000,  0.000000,  0.235426)
  37 Ni ( 0.000000,  0.000000,  0.179167)
  38 Co ( 0.000000,  0.000000,  1.388894)
  39 Ni ( 0.000000,  0.000000,  0.333468)
  40 Co ( 0.000000,  0.000000,  1.446149)
  41 Ni ( 0.000000,  0.000000,  0.319604)
  42 Co ( 0.000000,  0.000000,  1.176079)
  43 Ni ( 0.000000,  0.000000,  0.192213)
  44 Cr ( 0.000000,  0.000000, -0.266313)
  45 Co ( 0.000000,  0.000000,  0.368864)
  46 Al ( 0.000000,  0.000000, -0.008838)
  47 Ni ( 0.000000,  0.000000,  0.028079)
  48 Cr ( 0.000000,  0.000000, -0.739315)
  49 Fe ( 0.000000,  0.000000,  1.505161)
  50 Fe ( 0.000000,  0.000000,  2.338511)
  51 Ni ( 0.000000,  0.000000,  0.246859)
  52 Ni ( 0.000000,  0.000000,  0.239005)
  53 Ni ( 0.000000,  0.000000,  0.266291)
  54 Co ( 0.000000,  0.000000,  1.088221)
  55 Cr ( 0.000000,  0.000000,  0.500837)
  56 Cr ( 0.000000,  0.000000, -0.600734)
  57 Co ( 0.000000,  0.000000,  0.791518)
  58 Cr ( 0.000000,  0.000000,  0.287449)
  59 Fe ( 0.000000,  0.000000,  0.793110)
[...]
  93 Ni ( 0.000000,  0.000000,  0.223158)
  94 Cr ( 0.000000,  0.000000,  1.151066)
  95 Cr ( 0.000000,  0.000000, -1.602794)
  96 Co ( 0.000000,  0.000000,  1.088205)
  97 Ni ( 0.000000,  0.000000,  0.277348)
  98 Ni ( 0.000000,  0.000000,  0.377530)
  99 Co ( 0.000000,  0.000000,  1.539336)
 100 Co ( 0.000000,  0.000000,  1.530900)
 101 Ni ( 0.000000,  0.000000,  0.362051)
 102 Fe ( 0.000000,  0.000000,  2.268038)
 103 Co ( 0.000000,  0.000000,  1.467926)
 104 Co ( 0.000000,  0.000000,  1.409070)
 105 Ni ( 0.000000,  0.000000,  0.380356)
 106 Fe ( 0.000000,  0.000000,  2.129102)
 107 Fe ( 0.000000,  0.000000,  2.087974)

Energy contributions relative to reference atoms: (reference = -3548577.034362)

Kinetic:       +284.644128
Potential:     -297.213989
External:        +0.000000
XC:            -864.683381
Entropy (-ST):   -4.464135
Local:          +35.935406
Free energy:   -845.781972
Extrapolated:  -843.549904

Spin contamination: 24.563164 electrons
Showing only first 2 kpts
                      Up                     Down
 Kpt  Band  Eigenvalues  Occupancy  Eigenvalues  Occupancy
  0   488      9.53530    0.99184     10.37486    0.02671
  0   489      9.54792    0.99075     10.37979    0.02546
  0   490      9.55626    0.98995     10.39574    0.02179
  0   491      9.56654    0.98888     10.41011    0.01893

  1   488      9.53074    0.99220     10.36397    0.02970
  1   489      9.54726    0.99081     10.38556    0.02407
  1   490      9.55712    0.98987     10.39992    0.02092
  1   491      9.58890    0.98613     10.41613    0.01784

Fermi level: 10.01531

No gap

Forces in eV/Ang:
  0 Co    0.15195   -0.41020   -0.53308
  1 Ni   -0.45111   -0.17784    0.94542
  2 Al   -0.44984   -0.19383   -0.43119
  3 Cr   -0.78285   -0.05768   -0.20833
  4 Cr    0.18528    0.97704   -1.14850
  5 Fe    0.95244   -1.13762   -0.82597
  6 Fe   -0.24214   -0.14717    0.72910
  7 Fe    0.48122    0.64629   -0.77831
  8 Cr   -1.23812   -1.31077   -0.60833
  9 Fe    0.92754    0.20323   -0.02245
 10 Fe    0.64070    0.95002    0.10208
 11 Al    1.04987    0.63262    0.13478
 12 Co   -0.13919    0.94122    0.12194
 13 Fe   -1.57070   -0.12387   -0.14498
 14 Al    0.15069    0.12610   -1.62268
 15 Al    1.07131   -1.25441    0.99561
 16 Cr   -1.75156    0.07259    1.56581
 17 Cr   -1.23499   -0.39633   -0.06128
 18 Al   -0.26280   -0.96188   -0.20511
 19 Co    0.76707    0.05034    0.11897
 20 Co   -0.83032   -0.42395    0.44117
 21 Cr    0.02359    0.86005   -0.27165
 22 Cr    0.12770    0.22386   -0.75866
 23 Cr    0.52611    1.26714   -0.12098
 24 Fe   -0.54139    0.48472    0.17277
 25 Al   -2.17855   -0.03773    1.17281
 26 Ni    0.95154    0.20013    0.00774
 27 Cr   -0.07959    0.84905   -1.11666
 28 Fe   -0.42992    0.32930   -0.35039
 29 Ni   -0.36562   -0.79956   -0.83497
 30 Co    0.30674    0.29350    0.39594
 31 Fe    0.41488    0.27792    1.33348
 32 Fe    0.20393   -0.64298    0.30595
 33 Cr   -0.73106   -1.22996    0.45787
 34 Fe   -0.54769   -0.05587    0.77454
 35 Cr    0.93910   -0.56878    0.20793
 36 Ni    0.33057   -0.07545   -0.46004
 37 Ni   -1.33163   -0.47484   -0.14378
 38 Co    0.27760   -2.00851   -0.14024
 39 Ni   -1.20210   -0.21952   -0.35233
 40 Co    0.39239    0.36268    0.70166
 41 Ni    0.41262    0.16284   -0.62612
 42 Co    0.26922    0.91806    0.05882
 43 Ni   -1.47315   -0.85705   -0.47903
 44 Cr    0.14502   -0.69899    0.28391
 45 Co   -0.04167   -0.51411    0.65242
 46 Al    0.87867    1.00774    0.74190
 47 Ni    1.31162   -1.44300   -0.92248
 48 Cr    0.45479    0.42263    0.46119
 49 Fe    0.44959    0.16551   -0.46720
 50 Fe    0.23895   -0.74205   -0.73238
 51 Ni    0.70115   -0.65134   -0.08189
 52 Ni    1.82965    0.10662   -0.11581
 53 Ni    0.34677    1.33254    0.62580
 54 Co   -0.57284    1.28998    0.88906
 55 Cr   -0.32539    0.62137   -0.37764
 56 Cr   -0.05860    1.50129    0.57471
 57 Co    0.23920    0.57779   -0.02409
 58 Cr    0.15911   -0.13317    0.43316
 59 Fe   -0.44438   -0.09835   -0.64438
[...]
 93 Ni    0.30082   -0.19143    0.11238
 94 Cr   -0.37671    1.00190   -1.45887
 95 Cr   -0.32493   -0.21096   -0.24813
 96 Co    0.33322   -0.16007    0.56398
 97 Ni   -0.51574    1.02629   -0.36603
 98 Ni   -0.44837   -0.55226    0.08788
 99 Co    0.27257    0.18516    1.02507
100 Co    1.48939   -0.03854   -0.22643
101 Ni   -0.85253   -0.00252   -0.93951
102 Fe    0.06672   -0.50018   -0.45303
103 Co    0.16896    0.70439    1.02492
104 Co    1.08630    0.27630    0.21679
105 Ni    1.29208   -0.47472   -0.29028
106 Fe   -1.50348   -0.75246    0.71862
107 Fe   -1.79374   -0.36399    0.32935

Date: Fri Apr 14 02:01:52 2023