User:   c.zeng@d0024
Date:   Sat Apr 15 21:26:03 2023
Arch:   x86_64
Pid:    147807
CWD:    /home/c.zeng/projects/hea-corrosion/hea-mlp/data-curation/bulk-mcmc/dft-jobs/85
Python: 3.8.1
gpaw:   /home/c.zeng/usr/installs/gpaw/source/gpaw-22.8.0/gpaw
_gpaw:  /home/c.zeng/usr/installs/gpaw/source/gpaw-22.8.0/
        _gpaw.cpython-38-x86_64-linux-gnu.so
ase:    /home/c.zeng/.local/lib/python3.8/site-packages/ase-3.22.1-py3.8.egg/ase (version 3.22.1)
numpy:  /shared/centos7/python/3.8.1/lib/python3.8/site-packages/numpy (version 1.17.4)
scipy:  /shared/centos7/python/3.8.1/lib/python3.8/site-packages/scipy (version 1.4.1)
units:  Angstrom and eV
cores: 30
OpenMP: False
OMP_NUM_THREADS: 1

Input parameters:
  convergence: {energy: 0.0001}
  kpts: [2 2 2]
  maxiter: 666
  mode: {ecut: 350.0,
         name: pw}
  occupations: {fixmagmom: False,
                name: fermi-dirac,
                width: 0.1}
  spinpol: True
  xc: PBE

System changes: positions, numbers, cell, pbc, initial_charges, initial_magmoms

Initialize ...

species:
  Ni:
    name: Nickel
    id: 0d9f38a9d6e76a2886f07bb4381f212b
    Z: 28.0
    valence: 16
    core: 12
    charge: 0.0
    file: /home/c.zeng/usr/data/gpaw-setups-0.9.20000/Ni.PBE.gz
    compensation charges: {type: gauss,
                           rc: 0.36,
                           lmax: 2}
    cutoffs: {filter: 2.14,
              core: 1.98}
    valence states:
      #              energy  rcut
      - 4s(2.00)    -5.642   1.164
      - 3p(6.00)   -71.394   1.207
      - 4p(0.00)    -1.226   1.207
      - 3d(8.00)    -8.875   1.138
      -  s          21.570   1.164
      -  d          18.337   1.138

    # Using partial waves for Ni as LCAO basis

  Fe:
    name: Iron
    id: 37abbd8d6c3c35915a9b583b742da910
    Z: 26.0
    valence: 8
    core: 18
    charge: 0.0
    file: /home/c.zeng/usr/data/gpaw-setups-0.9.20000/Fe.PBE.gz
    compensation charges: {type: gauss,
                           rc: 0.33,
                           lmax: 2}
    cutoffs: {filter: 2.06,
              core: 2.67}
    valence states:
      #              energy  rcut
      - 4s(2.00)    -5.291   1.164
      - 4p(0.00)    -1.326   1.058
      - 3d(6.00)    -7.505   1.058
      -  s          21.920   1.164
      -  p          25.885   1.058
      -  d          19.706   1.058

[...]

  Cr:
    name: Chromium
    id: 33f258bda2ca9f93018e70263a35547b
    Z: 24.0
    valence: 6
    core: 18
    charge: 0.0
    file: /home/c.zeng/usr/data/gpaw-setups-0.9.20000/Cr.PBE.gz
    compensation charges: {type: gauss,
                           rc: 0.35,
                           lmax: 2}
    cutoffs: {filter: 2.14,
              core: 3.04}
    valence states:
      #              energy  rcut
      - 4s(1.00)    -4.007   1.164
      - 4p(0.00)    -0.989   1.217
      - 3d(5.00)    -2.913   1.111
      -  s          23.205   1.164
      -  p          26.223   1.217
      -  d          24.299   1.111

[...]

  Co:
    name: Cobalt
    id: 339d20d5b0b93d2de9531a1bee871d91
    Z: 27.0
    valence: 9
    core: 18
    charge: 0.0
    file: /home/c.zeng/usr/data/gpaw-setups-0.9.20000/Co.PBE.gz
    compensation charges: {type: gauss,
                           rc: 0.32,
                           lmax: 2}
    cutoffs: {filter: 1.87,
              core: 2.55}
    valence states:
      #              energy  rcut
      - 4s(2.00)    -5.469   1.005
      - 4p(0.00)    -1.277   1.058
      - 3d(7.00)    -8.205   1.005
      -  s          21.742   1.005
      -  p          25.934   1.058
      -  d          19.007   1.005

[...]

  Al:
    name: Aluminium
    id: 0292cae29f5d6237e50f6abdd43a7bdd
    Z: 13.0
    valence: 3
    core: 10
    charge: 0.0
    file: /home/c.zeng/usr/data/gpaw-setups-0.9.20000/Al.PBE.gz
    compensation charges: {type: gauss,
                           rc: 0.34,
                           lmax: 2}
    cutoffs: {filter: 1.91,
              core: 2.36}
    valence states:
      #              energy  rcut
      - 3s(2.00)    -7.753   1.085
      - 3p(1.00)    -2.712   1.085
      -  s          19.459   1.085
      -  p          24.499   1.085
      -  d           0.000   1.085

    # Using partial waves for Al as LCAO basis

Reference energy: -3699400.456887  # eV

Spin-polarized calculation.
Magnetic moment: 143.500000

Convergence criteria:
 Maximum [total energy] change in last 3 cyles: 0.0001 eV / electron
 Maximum integral of absolute [dens]ity change: 0.0001 electrons / valence electron
 Maximum integral of absolute [eigenst]ate change: 4e-08 eV^2 / valence electron
 Maximum number of scf [iter]ations: 666
 (Square brackets indicate name in SCF output, whereas a 'c' in
 the SCF output indicates the quantity has converged.)

Symmetries present (total): 1

  ( 1  0  0)
  ( 0  1  0)
  ( 0  0  1)

8 k-points: 2 x 2 x 2 Monkhorst-Pack grid
4 k-points in the irreducible part of the Brillouin zone
       k-points in crystal coordinates                weights
   0:     0.25000000   -0.25000000   -0.25000000          2/8
   1:     0.25000000   -0.25000000    0.25000000          2/8
   2:     0.25000000    0.25000000   -0.25000000          2/8
   3:     0.25000000    0.25000000    0.25000000          2/8

Wave functions: Plane wave expansion
  Cutoff energy: 350.000 eV
  Number of coefficients (min, max): 18052, 18052
  Pulay-stress correction: 0.000000 eV/Ang^3 (de/decut=0.000000)
  Using FFTW library
  ScaLapack parameters: grid=1x1, blocksize=None
  Wavefunction extrapolation:
    Improved wavefunction reuse through dual PAW basis

Occupation numbers: Fermi-Dirac:
  width: 0.1000  # eV

Eigensolver
   Davidson(niter=2)

Densities:
  Coarse grid: 48*48*48 grid
  Fine grid: 96*96*96 grid
  Total Charge: 0.000000

Density mixing:
  Method: difference
  Backend: pulay
  Linear mixing parameter: 0.05
  old densities: 5
  Damping of long wavelength oscillations: 50

Hamiltonian:
  XC and Coulomb potentials evaluated on a 96*96*96 grid
  Using the PBE Exchange-Correlation functional
  External potential:
    NoExternalPotential

XC parameters: PBE with 2 nearest neighbor stencil

Total number of cores used: 30
Parallelization over k-points: 2
Domain decomposition: 5 x 3 x 1

Number of atoms: 108
Number of atomic orbitals: 1025
Number of bands in calculation: 703
Number of valence electrons: 1020
Bands to converge: occupied

... initialized

Initializing position-dependent things.

Density initialized from atomic densities
Creating initial wave functions:
  703 bands from LCAO basis set

        Ni------------------------.
       /|  Co                Co   |
      Cr|   Cr         Cr         |
     / Fe      Fe       Al        |
    /   CCo      Cr       Fe      |
   /e   | CoNi     CoAl    NiCr   |
  /  FeCr  NiCo     NiNiCo        |
 *    FeFe  FeCoCr     CoAl       |
 |     CoFeCr  CoFe Cr  CrFeCr    |
 | Fe   CrNiNiCo CrNiNiFe  Ni     |
 |   CoCr  CrAlCr   NiCrNi   Fe   |
 |    FeNi  FeFeCoNi CoFeNi   Ni  |
 |     NiFeFe  Ni CrNi  CoFeFe    |
 |      .-CoNiCo-FeCrCrCo--CoCr---.
 |   CrCo    CoAl   CrCrFe       /
 |    / Ni    NiFe       Cr     /
 |   /            Cr           /
 |Ni/      Co       Co        /
 |/            Ni           /
 *----------------Ni-------*

Positions:
   0 Ni     0.005316   -0.016350   10.639749    ( 0.0000,  0.0000,  0.0000)
   1 Ni    10.672340    1.801276    1.786848    ( 0.0000,  0.0000,  0.0000)
   2 Fe     1.795727   10.625972    1.782259    ( 0.0000,  0.0000,  0.0000)
   3 Cr     1.780787    1.796175   10.644605    ( 0.0000,  0.0000,  2.1000)
   4 Fe     3.523539   -0.014558    0.017268    ( 0.0000,  0.0000,  2.0000)
   5 Co     3.522568    1.781672    1.746648    ( 0.0000,  0.0000,  0.0000)
   6 Co     5.320952   10.642342    1.763136    ( 0.0000,  0.0000,  1.5000)
   7 Ni     5.342082    1.828767    0.007462    ( 0.0000,  0.0000,  2.0000)
   8 Ni     7.144895    0.019195    0.012033    ( 0.0000,  0.0000,  0.0000)
   9 Co     7.143497    1.798064    1.764939    ( 0.0000,  0.0000,  2.1000)
  10 Ni     8.891362   10.651627    1.788353    ( 0.0000,  0.0000,  1.5000)
  11 Co     8.888779    1.804777   10.642609    ( 0.0000,  0.0000,  2.0000)
  12 Fe     0.008694    3.581540   10.650250    ( 0.0000,  0.0000,  2.1000)
  13 Cr     0.018979    5.332745    1.789751    ( 0.0000,  0.0000,  2.1000)
  14 Ni     1.778129    3.600941    1.760019    ( 0.0000,  0.0000,  2.0000)
  15 Co     1.790423    5.343267   -0.017766    ( 0.0000,  0.0000,  2.0000)
  16 Ni     3.542802    3.589864   -0.015614    ( 0.0000,  0.0000,  2.0000)
  17 Co     3.526837    5.358538    1.765793    ( 0.0000,  0.0000,  2.0000)
  18 Fe     5.336650    3.606501    1.755815    ( 0.0000,  0.0000,  0.0000)
  19 Cr     5.300399    5.323642   -0.012797    ( 0.0000,  0.0000,  2.1000)
  20 Al     7.122858    3.584816   10.659524    ( 0.0000,  0.0000,  2.0000)
  21 Cr     7.120500    5.315168    1.805502    ( 0.0000,  0.0000,  1.5000)
  22 Cr     8.892034    3.590952    1.773146    ( 0.0000,  0.0000,  2.1000)
  23 Fe     8.925340    5.301487   -0.003100    ( 0.0000,  0.0000,  0.0000)
  24 Cr     0.023055    7.096680   -0.007939    ( 0.0000,  0.0000,  0.0000)
  25 Ni     0.019141    8.871245    1.787510    ( 0.0000,  0.0000,  1.5000)
  26 Co     1.784372    7.104567    1.776443    ( 0.0000,  0.0000,  2.0000)
  27 Co     1.779944    8.867628   10.659406    ( 0.0000,  0.0000,  1.5000)
  28 Ni     3.547785    7.097897    0.009215    ( 0.0000,  0.0000,  2.1000)
  29 Ni     3.541137    8.858109    1.788225    ( 0.0000,  0.0000,  2.1000)
  30 Cr     5.295105    7.099391    1.787894    ( 0.0000,  0.0000,  2.1000)
  31 Cr     5.303685    8.873828    0.029898    ( 0.0000,  0.0000,  0.0000)
  32 Cr     7.106883    7.088719   10.645159    ( 0.0000,  0.0000,  0.0000)
  33 Co     7.111055    8.901137    1.809472    ( 0.0000,  0.0000,  0.0000)
  34 Co     8.939384    7.093404    1.799238    ( 0.0000,  0.0000,  0.0000)
  35 Co     8.919972    8.915853   10.664881    ( 0.0000,  0.0000,  0.0000)
  36 Cr    10.679704   10.658873    3.584517    ( 0.0000,  0.0000,  2.0000)
  37 Fe    10.670921    1.796367    5.340289    ( 0.0000,  0.0000,  2.1000)
  38 Fe     1.770350   10.649001    5.343491    ( 0.0000,  0.0000,  0.0000)
  39 Co     1.791800    1.784671    3.584891    ( 0.0000,  0.0000,  2.0000)
  40 Cr     3.529718   10.626388    3.565234    ( 0.0000,  0.0000,  2.1000)
  41 Fe     3.535716    1.793465    5.367289    ( 0.0000,  0.0000,  1.5000)
  42 Co     5.311497    0.001574    5.366254    ( 0.0000,  0.0000,  1.5000)
  43 Al     5.332627    1.768055    3.580793    ( 0.0000,  0.0000,  0.0000)
  44 Cr     7.136966   10.673941    3.563804    ( 0.0000,  0.0000,  2.0000)
  45 Ni     7.136774    1.794126    5.358944    ( 0.0000,  0.0000,  2.1000)
  46 Co     8.925938   10.673621    5.347589    ( 0.0000,  0.0000,  2.0000)
  47 Fe     8.883827    1.779111    3.582404    ( 0.0000,  0.0000,  1.5000)
  48 Cr    -0.010038    3.572341    3.580996    ( 0.0000,  0.0000,  2.0000)
  49 Co    10.685573    5.328935    5.338550    ( 0.0000,  0.0000,  2.0000)
  50 Ni     1.784180    3.582949    5.348357    ( 0.0000,  0.0000,  1.5000)
  51 Fe     1.766326    5.339510    3.565255    ( 0.0000,  0.0000,  1.5000)
[...]
  2. axis:    yes    0.000000   10.671700    0.000000    48     0.2223
  3. axis:    yes    0.000000    0.000000   10.671700    48     0.2223

  Lengths:  10.671700  10.671700  10.671700
  Angles:   90.000000  90.000000  90.000000

Effective grid spacing dv^(1/3) = 0.2223

     iter     time        total  log10-change:  magmom
                         energy  eigst   dens
iter:   1 21:32:15  -942.881854                  +143.1654
iter:   2 21:35:06  -948.289886  -0.49  -1.33    +109.3120
iter:   3 21:37:57  -900.621612  -0.87  -1.27    +79.9815
iter:   4 21:40:48  -875.154236  -1.41  -1.37    +67.0046
iter:   5 21:43:39  -873.350842  -1.89  -1.47    +59.2997
iter:   6 21:46:30  -875.994347  -1.94  -1.50    +55.8689
iter:   7 21:49:21  -871.508375  -1.78  -1.51    +54.4565
iter:   8 21:52:12  -870.314925  -1.75  -1.58    +53.7533
iter:   9 21:55:00  -878.555465  -1.67  -1.69    +53.4326
iter:  10 21:57:51  -868.316747  -1.96  -1.66    +52.6280
iter:  11 22:00:42  -869.011749  -2.33  -1.86    +52.7354
iter:  12 22:03:34  -867.287896  -2.56  -1.86    +53.2513
iter:  13 22:06:26  -867.875734  -2.76  -1.96    +54.2250
iter:  14 22:09:18  -868.538072  -2.66  -1.98    +54.8847
iter:  15 22:12:09  -869.475968  -2.59  -1.98    +55.5303
iter:  16 22:15:01  -870.855126  -2.38  -1.99    +56.0745
iter:  17 22:17:52  -870.292520  -2.52  -1.95    +56.4869
iter:  18 22:20:43  -869.306812  -2.57  -2.03    +56.9568
iter:  19 22:23:35  -869.061571  -2.80  -2.11    +57.4568
iter:  20 22:26:24  -868.609810  -3.03  -2.14    +57.9207
iter:  21 22:29:00  -868.543665  -3.32  -2.22    +58.8948
iter:  22 22:31:34  -868.764274  -3.30  -2.28    +59.5552
iter:  23 22:34:08  -868.742054  -3.62  -2.26    +59.9910
iter:  24 22:37:38  -868.968933  -3.35  -2.31    +60.8653
iter:  25 22:40:15  -869.418552  -3.15  -2.32    +61.2761
iter:  26 22:42:49  -869.365927  -3.08  -2.27    +61.6961
iter:  27 22:45:24  -869.505554  -3.16  -2.32    +61.8498
iter:  28 22:47:57  -869.640416  -3.08  -2.31    +62.1867
iter:  29 22:50:31  -869.352416  -3.29  -2.32    +62.5097
iter:  30 22:53:05  -869.225385  -3.64  -2.40    +62.7259
iter:  31 22:55:38  -869.227133  -4.07  -2.47    +63.0418
iter:  32 22:58:12  -869.306716c -4.13  -2.51    +63.4243
iter:  33 23:00:46  -869.470148  -3.74  -2.52    +63.7904
iter:  34 23:03:19  -869.502081  -3.64  -2.48    +63.7524
iter:  35 23:05:53  -869.809139  -3.37  -2.62    +63.9058
iter:  36 23:08:27  -869.571305  -3.49  -2.47    +63.9538
iter:  37 23:11:01  -869.674414  -3.60  -2.71    +64.0846
iter:  38 23:13:36  -869.571785  -3.88  -2.64    +64.1401
iter:  39 23:16:11  -869.575363  -4.03  -2.78    +64.1512
iter:  40 23:18:44  -869.567244c -4.61  -2.83    +64.3082
iter:  41 23:21:17  -869.592858c -4.54  -2.96    +64.4427
iter:  42 23:23:50  -869.618313c -4.66  -2.97    +64.6250
iter:  43 23:26:30  -869.700758  -3.75  -2.99    +65.1627
iter:  44 23:29:59  -869.730270  -4.15  -3.01    +65.3364
iter:  45 23:32:33  -869.756990c -4.39  -3.01    +65.4233
iter:  46 23:35:07  -869.801700c -4.32  -2.98    +65.4485
iter:  47 23:37:41  -869.783778c -4.82  -2.89    +65.4325
iter:  48 23:40:16  -869.812254c -4.64  -2.91    +65.3821
iter:  49 23:42:49  -869.827143c -4.92  -2.86    +65.3690
iter:  50 23:45:22  -869.792932c -4.61  -2.86    +65.3323
iter:  51 23:47:57  -869.799215c -4.24  -2.96    +65.2268
iter:  52 23:50:30  -869.793795c -4.83  -2.95    +65.2785
iter:  53 23:53:04  -869.803137c -4.69  -2.99    +65.2788
iter:  54 23:55:38  -869.835121c -4.28  -2.99    +65.2433
iter:  55 23:58:10  -869.793896c -4.63  -2.89    +65.2077
iter:  56 00:00:43  -869.803341c -4.83  -3.11    +65.1959
iter:  57 00:03:17  -869.804767c -4.90  -3.13    +65.2012
iter:  58 00:05:50  -869.804363c -5.02  -3.12    +65.1641
iter:  59 00:08:23  -869.807272c -5.11  -3.17    +65.1185
iter:  60 00:10:57  -869.811000c -5.04  -3.21    +65.1166
iter:  61 00:13:30  -869.815680c -5.00  -3.21    +65.0728
iter:  62 00:17:07  -869.812160c -5.23  -3.21    +65.0293
iter:  63 00:19:42  -869.818263c -5.12  -3.29    +64.9623
iter:  64 00:22:16  -869.819867c -5.23  -3.28    +64.9466
iter:  65 00:24:51  -869.821445c -5.41  -3.32    +64.9114
iter:  66 00:27:24  -869.825908c -5.52  -3.37    +64.8237
iter:  67 00:29:57  -869.824953c -5.74  -3.39    +64.8339
iter:  68 00:32:31  -869.832889c -5.41  -3.40    +64.7390
iter:  69 00:35:05  -869.825368c -5.75  -3.42    +64.8253
iter:  70 00:37:38  -869.822162c -4.89  -3.49    +64.9139
iter:  71 00:40:12  -869.829668c -4.99  -3.34    +64.8198
iter:  72 00:42:46  -869.826912c -5.36  -3.46    +64.8571
iter:  73 00:45:20  -869.833754c -5.24  -3.50    +64.7471
iter:  74 00:47:54  -869.832013c -5.50  -3.53    +64.7406
iter:  75 00:50:27  -869.838182c -5.38  -3.57    +64.6214
iter:  76 00:53:01  -869.838025c -6.05  -3.72    +64.6272
iter:  77 00:55:33  -869.846790c -5.44  -3.64    +64.5455
iter:  78 00:58:08  -869.839917c -5.86  -3.67    +64.6321
iter:  79 01:00:42  -869.827826c -5.05  -3.69    +64.7768
iter:  80 01:03:14  -869.827399c -5.43  -3.76    +64.7676
iter:  81 01:05:48  -869.832767c -5.56  -3.55    +64.6730
iter:  82 01:08:21  -869.831400c -6.58  -3.84    +64.6905
iter:  83 01:11:26  -869.838631c -5.57  -3.87    +64.5923
iter:  84 01:14:34  -869.832294c -5.87  -4.00    +64.6668
iter:  85 01:17:07  -869.809069c -4.43  -4.11c   +65.0040
iter:  86 01:19:42  -869.799329c -4.51  -3.76    +65.2744
iter:  87 01:22:16  -869.796670c -4.55  -3.64    +65.5553
iter:  88 01:24:50  -869.797761c -4.98  -3.52    +65.6826
iter:  89 01:27:25  -869.801030c -4.88  -3.50    +65.8647
iter:  90 01:29:59  -869.808056c -5.17  -3.48    +65.9040
iter:  91 01:32:35  -869.803274c -5.48  -3.30    +65.8826
iter:  92 01:35:09  -869.811786c -4.85  -3.43    +65.8829
iter:  93 01:37:44  -869.805809c -4.94  -3.23    +65.8777
iter:  94 01:40:17  -869.805985c -4.72  -3.32    +65.9200
iter:  95 01:42:51  -869.802870c -5.03  -3.43    +65.8765
iter:  96 01:45:25  -869.800059c -5.51  -3.43    +65.8669
iter:  97 01:47:59  -869.800739c -5.79  -3.67    +65.8499
iter:  98 01:50:32  -869.802529c -5.52  -3.65    +65.8438
iter:  99 01:53:07  -869.802656c -5.51  -3.54    +65.8198
iter: 100 01:56:40  -869.801668c -5.61  -3.60    +65.8047
iter: 101 01:59:18  -869.804526c -5.53  -3.73    +65.7867
iter: 102 02:01:52  -869.802872c -5.53  -3.62    +65.7755
iter: 103 02:04:27  -869.803408c -5.78  -3.67    +65.7604
iter: 104 02:07:02  -869.803837c -5.90  -3.76    +65.7450
iter: 105 02:09:36  -869.803929c -6.03  -3.83    +65.7338
iter: 106 02:12:10  -869.804433c -6.32  -3.91    +65.7080
iter: 107 02:14:45  -869.805174c -6.18  -3.98    +65.6784
iter: 108 02:17:19  -869.805796c -6.34  -3.98    +65.6673
iter: 109 02:19:54  -869.806005c -6.29  -3.95    +65.6448
iter: 110 02:22:28  -869.806803c -6.26  -3.99    +65.6171
iter: 111 02:25:03  -869.807032c -6.39  -4.05c   +65.6202
iter: 112 02:27:38  -869.807660c -6.17  -3.98    +65.5914
iter: 113 02:30:12  -869.807958c -6.47  -4.04c   +65.5830
iter: 114 02:32:46  -869.808465c -6.33  -4.05c   +65.5478
iter: 115 02:35:20  -869.809211c -6.48  -4.11c   +65.5319
iter: 116 02:37:55  -869.809051c -7.02  -4.06c   +65.5342
iter: 117 02:40:29  -869.810031c -6.16  -4.15c   +65.5078
iter: 118 02:43:03  -869.809382c -6.42  -4.11c   +65.5090
iter: 119 02:45:37  -869.810365c -6.40  -4.16c   +65.4744
iter: 120 02:49:11  -869.807856c -5.70  -4.17c   +65.5648
iter: 121 02:51:47  -869.805489c -5.30  -4.14c   +65.6854
iter: 122 02:54:21  -869.805734c -6.25  -4.14c   +65.6937
iter: 123 02:56:56  -869.806178c -6.59  -4.08c   +65.6663
iter: 124 02:59:31  -869.806449c -6.73  -4.30c   +65.6720
iter: 125 03:02:05  -869.807159c -6.48  -4.23c   +65.6389
iter: 126 03:04:39  -869.806994c -6.95  -4.30c   +65.6721
iter: 127 03:07:13  -869.807789c -6.05  -4.44c   +65.7307
iter: 128 03:09:47  -869.808604c -6.34  -4.28c   +65.7071
iter: 129 03:12:22  -869.808761c -6.89  -4.17c   +65.6857
iter: 130 03:14:56  -869.809265c -6.77  -4.21c   +65.6708
iter: 131 03:17:30  -869.806845c -5.64  -4.19c   +65.7367
iter: 132 03:20:05  -869.806793c -6.37  -4.36c   +65.7253
iter: 133 03:22:38  -869.807487c -6.56  -4.17c   +65.7086
iter: 134 03:25:13  -869.808239c -6.42  -4.55c   +65.6729
iter: 135 03:27:53  -869.806641c -5.96  -4.54c   +65.7513
iter: 136 03:31:21  -869.803899c -5.14  -4.53c   +65.9109
iter: 137 03:33:56  -869.805019c -6.29  -4.07c   +65.8329
iter: 138 03:36:31  -869.806116c -5.97  -4.24c   +65.7638
iter: 139 03:39:05  -869.806791c -6.18  -4.41c   +65.7242
iter: 140 03:41:40  -869.806758c -7.18  -4.50c   +65.7233
iter: 141 03:44:15  -869.807350c -6.49  -4.55c   +65.6912
iter: 142 03:46:50  -869.806359c -6.26  -4.51c   +65.7494
iter: 143 03:49:24  -869.805308c -5.83  -4.40c   +65.8288
iter: 144 03:51:58  -869.805637c -6.93  -4.20c   +65.8135
iter: 145 03:54:32  -869.805843c -7.06  -4.21c   +65.7947
iter: 146 03:57:06  -869.806437c -6.48  -4.31c   +65.7566
iter: 147 03:59:41  -869.805957c -6.93  -4.42c   +65.7873
iter: 148 04:02:16  -869.806707c -6.44  -4.34c   +65.7471
iter: 149 04:04:49  -869.806098c -6.93  -4.24c   +65.7689
iter: 150 04:07:24  -869.806287c -7.22  -4.37c   +65.7510
iter: 151 04:09:58  -869.807237c -6.40  -4.34c   +65.7390
iter: 152 04:12:30  -869.806655c -6.71  -4.07c   +65.7365
iter: 153 04:15:05  -869.807159c -6.59  -4.45c   +65.7148
iter: 154 04:17:39  -869.807048c -7.05  -4.43c   +65.7187
iter: 155 04:20:14  -869.807571c -6.60  -4.56c   +65.6947
iter: 156 04:22:53  -869.807418c -7.67c -4.78c   +65.6989

Converged after 156 iterations.

Dipole moment: (-10.581335, 8.403245, 8.880662) |e|*Ang

Total magnetic moment: (0.000000, 0.000000, 65.698938)
Local magnetic moments:
   0 Ni ( 0.000000,  0.000000,  0.165907)
   1 Ni ( 0.000000,  0.000000,  0.144348)
   2 Fe ( 0.000000,  0.000000, -1.698528)
   3 Cr ( 0.000000,  0.000000, -0.715491)
   4 Fe ( 0.000000,  0.000000,  2.078728)
   5 Co ( 0.000000,  0.000000,  1.069558)
   6 Co ( 0.000000,  0.000000,  1.041385)
   7 Ni ( 0.000000,  0.000000,  0.287395)
   8 Ni ( 0.000000,  0.000000,  0.354839)
   9 Co ( 0.000000,  0.000000,  0.823923)
  10 Ni ( 0.000000,  0.000000,  0.300749)
  11 Co ( 0.000000,  0.000000,  0.684317)
  12 Fe ( 0.000000,  0.000000,  1.803931)
  13 Cr ( 0.000000,  0.000000, -0.697393)
  14 Ni ( 0.000000,  0.000000,  0.260777)
  15 Co ( 0.000000,  0.000000,  1.315571)
  16 Ni ( 0.000000,  0.000000,  0.293241)
  17 Co ( 0.000000,  0.000000,  0.896806)
  18 Fe ( 0.000000,  0.000000,  1.782637)
  19 Cr ( 0.000000,  0.000000,  0.193662)
  20 Al ( 0.000000,  0.000000, -0.016926)
  21 Cr ( 0.000000,  0.000000, -0.717857)
  22 Cr ( 0.000000,  0.000000,  0.062601)
  23 Fe ( 0.000000,  0.000000,  1.768712)
  24 Cr ( 0.000000,  0.000000, -1.652181)
  25 Ni ( 0.000000,  0.000000,  0.297703)
  26 Co ( 0.000000,  0.000000,  1.088492)
  27 Co ( 0.000000,  0.000000,  1.184152)
  28 Ni ( 0.000000,  0.000000,  0.230077)
  29 Ni ( 0.000000,  0.000000,  0.199562)
  30 Cr ( 0.000000,  0.000000, -0.708113)
  31 Cr ( 0.000000,  0.000000, -1.159878)
  32 Cr ( 0.000000,  0.000000,  0.565376)
  33 Co ( 0.000000,  0.000000,  1.028645)
  34 Co ( 0.000000,  0.000000,  0.529770)
  35 Co ( 0.000000,  0.000000,  1.071275)
  36 Cr ( 0.000000,  0.000000, -0.723778)
  37 Fe ( 0.000000,  0.000000,  2.129433)
  38 Fe ( 0.000000,  0.000000,  1.787922)
  39 Co ( 0.000000,  0.000000,  1.212934)
  40 Cr ( 0.000000,  0.000000,  0.809961)
  41 Fe ( 0.000000,  0.000000,  2.085749)
  42 Co ( 0.000000,  0.000000,  0.971414)
  43 Al ( 0.000000,  0.000000, -0.027819)
  44 Cr ( 0.000000,  0.000000,  0.273695)
  45 Ni ( 0.000000,  0.000000,  0.098771)
  46 Co ( 0.000000,  0.000000,  0.915470)
  47 Fe ( 0.000000,  0.000000,  1.870246)
  48 Cr ( 0.000000,  0.000000, -1.122883)
  49 Co ( 0.000000,  0.000000,  1.320323)
  50 Ni ( 0.000000,  0.000000,  0.318605)
  51 Fe ( 0.000000,  0.000000,  2.300981)
  52 Ni ( 0.000000,  0.000000,  0.288251)
  53 Al ( 0.000000,  0.000000, -0.043213)
  54 Co ( 0.000000,  0.000000,  0.830158)
  55 Cr ( 0.000000,  0.000000,  0.656498)
  56 Cr ( 0.000000,  0.000000, -1.008953)
  57 Cr ( 0.000000,  0.000000, -1.527629)
  58 Ni ( 0.000000,  0.000000,  0.153524)
  59 Fe ( 0.000000,  0.000000,  1.703351)
[...]
  93 Ni ( 0.000000,  0.000000,  0.268198)
  94 Al ( 0.000000,  0.000000, -0.039669)
  95 Fe ( 0.000000,  0.000000,  2.322936)
  96 Fe ( 0.000000,  0.000000,  2.337579)
  97 Fe ( 0.000000,  0.000000,  2.195005)
  98 Co ( 0.000000,  0.000000,  1.394387)
  99 Ni ( 0.000000,  0.000000,  0.477407)
 100 Co ( 0.000000,  0.000000,  1.436646)
 101 Fe ( 0.000000,  0.000000,  2.360397)
 102 Co ( 0.000000,  0.000000,  1.169059)
 103 Ni ( 0.000000,  0.000000,  0.448638)
 104 Co ( 0.000000,  0.000000,  1.032916)
 105 Al ( 0.000000,  0.000000, -0.017719)
 106 Ni ( 0.000000,  0.000000,  0.242314)
 107 Cr ( 0.000000,  0.000000, -1.650370)

Energy contributions relative to reference atoms: (reference = -3699400.456887)

Kinetic:       +132.249571
Potential:     -185.299993
External:        +0.000000
XC:            -852.246251
Entropy (-ST):   -4.690024
Local:          +37.834266
Free energy:   -872.152430
Extrapolated:  -869.807418

Spin contamination: 25.027736 electrons
Showing only first 2 kpts
                      Up                     Down
 Kpt  Band  Eigenvalues  Occupancy  Eigenvalues  Occupancy
  0   508      9.64690    0.99277     10.52124    0.02144
  0   509      9.65857    0.99189     10.53175    0.01934
  0   510      9.66577    0.99129     10.54569    0.01687
  0   511      9.67683    0.99028     10.55640    0.01518

  1   508      9.63835    0.99336     10.53809    0.01818
  1   509      9.65139    0.99244     10.54124    0.01762
  1   510      9.66139    0.99166     10.55575    0.01528
  1   511      9.67605    0.99035     10.56935    0.01336

Fermi level: 10.13917

No gap

Forces in eV/Ang:
  0 Ni    0.07051    0.23050    0.24312
  1 Ni    0.08076   -0.21937    0.00530
  2 Fe   -0.28083    0.12628    0.24510
  3 Cr    0.08000    0.29545    0.40401
  4 Fe    0.35261    0.17232    0.07068
  5 Co   -0.03011   -0.07997    0.03259
  6 Co    0.05983    0.14853    0.00113
  7 Ni   -0.22778   -0.56504    0.05750
  8 Ni   -0.38149   -0.05100   -0.10920
  9 Co   -0.07778   -0.28844    0.40250
 10 Ni    0.21000    0.22127    0.02303
 11 Co    0.12320    0.00045    0.26062
 12 Fe    0.24274   -0.15014    0.75107
 13 Cr   -0.08789    0.12563   -0.17463
 14 Ni   -0.05679   -0.48910    0.18991
 15 Co   -0.07380   -0.07748    0.00865
 16 Ni   -0.06847   -0.11857    0.15676
 17 Co    0.31925   -0.22034    0.02348
 18 Fe   -0.48768   -0.08380    0.16878
 19 Cr   -0.39241    0.74310    0.17597
 20 Al   -0.39621   -0.50308    0.51706
 21 Cr    0.53991    1.00503    0.22225
 22 Cr    0.63062   -0.63349    0.02715
 23 Fe    0.16488    1.19532    0.34685
 24 Cr   -0.44285    0.00123    0.04249
 25 Ni   -0.09201    0.17390   -0.13485
 26 Co   -0.13210    0.02131   -0.03854
 27 Co   -0.01169    0.11757    0.12868
 28 Ni    0.12498   -0.05533   -0.22609
 29 Ni    0.09546    0.26866   -0.27819
 30 Cr    0.15288    0.11076    0.04413
 31 Cr    0.15781   -0.00869    0.29924
 32 Cr    0.16251   -0.38387    0.68813
 33 Co    0.10240   -0.12509   -0.23338
 34 Co   -0.33958    0.13554   -0.33061
 35 Co   -0.35856   -0.44566    0.39180
 36 Cr    0.13271    0.38412   -0.16598
 37 Fe    0.22107   -0.25254   -0.02409
 38 Fe   -0.21405   -0.11995    0.05771
 39 Co   -0.05413   -0.15080   -0.30480
 40 Cr   -0.40370   -0.36440   -0.29827
 41 Fe   -0.41736    0.28093    0.30998
 42 Co    0.20435   -0.27180    0.07032
 43 Al   -0.41367    0.43414   -0.20166
 44 Cr    0.47514   -0.70301   -0.03590
 45 Ni   -0.24842   -0.19172   -0.28034
 46 Co   -0.17388   -0.23109   -0.07439
 47 Fe   -0.02644    0.06784   -0.31649
 48 Cr   -0.06843   -0.10021   -0.18434
 49 Co   -0.09973   -0.07994   -0.04263
 50 Ni   -0.14637   -0.34585   -0.04674
 51 Fe   -0.22904   -0.00652   -0.35106
 52 Ni    0.27311   -0.38237   -0.33817
 53 Al   -0.14686   -0.39989    0.12593
 54 Co    0.22464   -0.26997   -0.08683
 55 Cr    0.34843   -0.40071   -0.82877
 56 Cr    0.43261    0.01480   -0.03509
 57 Cr    0.03962    0.55455    0.06691
 58 Ni    0.14494   -0.03531   -0.07320
 59 Fe   -0.25668   -0.02759    0.17665
[...]
 93 Ni    0.19422    0.47398    0.32870
 94 Al    0.13594    0.39250   -0.76295
 95 Fe   -0.20700    0.38730   -0.31841
 96 Fe   -0.00480    0.22725   -0.27679
 97 Fe    0.13803    0.06696    0.24082
 98 Co    0.14933   -0.08810    0.13454
 99 Ni   -0.04910    0.22725   -0.15472
100 Co    0.03790    0.43131    0.32219
101 Fe    0.11577    0.15422   -0.16613
102 Co    0.13151   -0.20795    0.24942
103 Ni    0.18241    0.37359   -0.06708
104 Co   -0.18588    0.10319   -0.56932
105 Al   -0.71870    0.25610    0.19532
106 Ni   -0.32584   -0.30519    0.40589
107 Cr    0.93408    0.14551   -0.87792

Date: Sun Apr 16 04:23:25 2023