User:   c.zeng@d0103
Date:   Sat Apr 15 03:38:39 2023
Arch:   x86_64
Pid:    123215
CWD:    /home/c.zeng/projects/hea-corrosion/hea-mlp/data-curation/bulk-mcmc/dft-jobs/210
Python: 3.8.1
gpaw:   /home/c.zeng/usr/installs/gpaw/source/gpaw-22.8.0/gpaw
_gpaw:  /home/c.zeng/usr/installs/gpaw/source/gpaw-22.8.0/
        _gpaw.cpython-38-x86_64-linux-gnu.so
ase:    /home/c.zeng/.local/lib/python3.8/site-packages/ase-3.22.1-py3.8.egg/ase (version 3.22.1)
numpy:  /shared/centos7/python/3.8.1/lib/python3.8/site-packages/numpy (version 1.17.4)
scipy:  /shared/centos7/python/3.8.1/lib/python3.8/site-packages/scipy (version 1.4.1)
units:  Angstrom and eV
cores: 30
OpenMP: False
OMP_NUM_THREADS: 1

Input parameters:
  convergence: {energy: 0.0001}
  kpts: [2 2 2]
  maxiter: 666
  mode: {ecut: 350.0,
         name: pw}
  occupations: {fixmagmom: False,
                name: fermi-dirac,
                width: 0.1}
  spinpol: True
  xc: PBE

System changes: positions, numbers, cell, pbc, initial_charges, initial_magmoms

Initialize ...

species:
  Ni:
    name: Nickel
    id: 0d9f38a9d6e76a2886f07bb4381f212b
    Z: 28.0
    valence: 16
    core: 12
    charge: 0.0
    file: /home/c.zeng/usr/data/gpaw-setups-0.9.20000/Ni.PBE.gz
    compensation charges: {type: gauss,
                           rc: 0.36,
                           lmax: 2}
    cutoffs: {filter: 2.14,
              core: 1.98}
    valence states:
      #              energy  rcut
      - 4s(2.00)    -5.642   1.164
      - 3p(6.00)   -71.394   1.207
      - 4p(0.00)    -1.226   1.207
      - 3d(8.00)    -8.875   1.138
      -  s          21.570   1.164
      -  d          18.337   1.138

    # Using partial waves for Ni as LCAO basis

  Al:
    name: Aluminium
    id: 0292cae29f5d6237e50f6abdd43a7bdd
    Z: 13.0
    valence: 3
    core: 10
    charge: 0.0
    file: /home/c.zeng/usr/data/gpaw-setups-0.9.20000/Al.PBE.gz
    compensation charges: {type: gauss,
                           rc: 0.34,
                           lmax: 2}
    cutoffs: {filter: 1.91,
              core: 2.36}
    valence states:
      #              energy  rcut
      - 3s(2.00)    -7.753   1.085
      - 3p(1.00)    -2.712   1.085
      -  s          19.459   1.085
      -  p          24.499   1.085
      -  d           0.000   1.085

[...]

  Co:
    name: Cobalt
    id: 339d20d5b0b93d2de9531a1bee871d91
    Z: 27.0
    valence: 9
    core: 18
    charge: 0.0
    file: /home/c.zeng/usr/data/gpaw-setups-0.9.20000/Co.PBE.gz
    compensation charges: {type: gauss,
                           rc: 0.32,
                           lmax: 2}
    cutoffs: {filter: 1.87,
              core: 2.55}
    valence states:
      #              energy  rcut
      - 4s(2.00)    -5.469   1.005
      - 4p(0.00)    -1.277   1.058
      - 3d(7.00)    -8.205   1.005
      -  s          21.742   1.005
      -  p          25.934   1.058
      -  d          19.007   1.005

[...]

  Fe:
    name: Iron
    id: 37abbd8d6c3c35915a9b583b742da910
    Z: 26.0
    valence: 8
    core: 18
    charge: 0.0
    file: /home/c.zeng/usr/data/gpaw-setups-0.9.20000/Fe.PBE.gz
    compensation charges: {type: gauss,
                           rc: 0.33,
                           lmax: 2}
    cutoffs: {filter: 2.06,
              core: 2.67}
    valence states:
      #              energy  rcut
      - 4s(2.00)    -5.291   1.164
      - 4p(0.00)    -1.326   1.058
      - 3d(6.00)    -7.505   1.058
      -  s          21.920   1.164
      -  p          25.885   1.058
      -  d          19.706   1.058

[...]

  Cr:
    name: Chromium
    id: 33f258bda2ca9f93018e70263a35547b
    Z: 24.0
    valence: 6
    core: 18
    charge: 0.0
    file: /home/c.zeng/usr/data/gpaw-setups-0.9.20000/Cr.PBE.gz
    compensation charges: {type: gauss,
                           rc: 0.35,
                           lmax: 2}
    cutoffs: {filter: 2.14,
              core: 3.04}
    valence states:
      #              energy  rcut
      - 4s(1.00)    -4.007   1.164
      - 4p(0.00)    -0.989   1.217
      - 3d(5.00)    -2.913   1.111
      -  s          23.205   1.164
      -  p          26.223   1.217
      -  d          24.299   1.111

    # Using partial waves for Cr as LCAO basis

Reference energy: -3235165.067515  # eV

Spin-polarized calculation.
Magnetic moment: 121.100000

Convergence criteria:
 Maximum [total energy] change in last 3 cyles: 0.0001 eV / electron
 Maximum integral of absolute [dens]ity change: 0.0001 electrons / valence electron
 Maximum integral of absolute [eigenst]ate change: 4e-08 eV^2 / valence electron
 Maximum number of scf [iter]ations: 666
 (Square brackets indicate name in SCF output, whereas a 'c' in
 the SCF output indicates the quantity has converged.)

Symmetries present (total): 1

  ( 1  0  0)
  ( 0  1  0)
  ( 0  0  1)

8 k-points: 2 x 2 x 2 Monkhorst-Pack grid
4 k-points in the irreducible part of the Brillouin zone
       k-points in crystal coordinates                weights
   0:     0.25000000   -0.25000000   -0.25000000          2/8
   1:     0.25000000   -0.25000000    0.25000000          2/8
   2:     0.25000000    0.25000000   -0.25000000          2/8
   3:     0.25000000    0.25000000    0.25000000          2/8

Wave functions: Plane wave expansion
  Cutoff energy: 350.000 eV
  Number of coefficients (min, max): 19084, 19084
  Pulay-stress correction: 0.000000 eV/Ang^3 (de/decut=0.000000)
  Using FFTW library
  ScaLapack parameters: grid=1x1, blocksize=None
  Wavefunction extrapolation:
    Improved wavefunction reuse through dual PAW basis

Occupation numbers: Fermi-Dirac:
  width: 0.1000  # eV

Eigensolver
   Davidson(niter=2)

Densities:
  Coarse grid: 48*48*48 grid
  Fine grid: 96*96*96 grid
  Total Charge: 0.000000

Density mixing:
  Method: difference
  Backend: pulay
  Linear mixing parameter: 0.05
  old densities: 5
  Damping of long wavelength oscillations: 50

Hamiltonian:
  XC and Coulomb potentials evaluated on a 96*96*96 grid
  Using the PBE Exchange-Correlation functional
  External potential:
    NoExternalPotential

XC parameters: PBE with 2 nearest neighbor stencil

Total number of cores used: 30
Parallelization over k-points: 2
Domain decomposition: 5 x 3 x 1

Number of atoms: 108
Number of atomic orbitals: 933
Number of bands in calculation: 624
Number of valence electrons: 912
Bands to converge: occupied

... initialized

Initializing position-dependent things.

Density initialized from atomic densities
Creating initial wave functions:
  624 bands from LCAO basis set

        .--------Al----------------.
       /|           Fe             |
      / |    FeFe     Ni           |
     / Cr       Cr       Al        |
    /   |Fe      NiCo       Fe     |
   /    | CrCr      ACo            |
  /    Co  FerAlAl    Co Fe  CoAl  |
 *      Fe     AlCoAl   CrFe     Cr|
 |      |FeCr   NiFeFe   AlNiNi   Co
 |      | CoCr   AlCoCoAl NiNiFe   |
 |     Fe  Al CoCo  CrNi Ni  CrNi  |
 |      Ni  Ni CrNiCo CoNiCoAl   Fe|
 |      |NiCo   CoAlAl   CoCrFe   Fe
 |      .-FeCr-----CrCr-Al--CrFe---.
 |     Al  Ni CoCr    Al Co  Ni Ni/
 |    / Co              Ni       Cr
 |   /           Alr      CrFe  /
 |  /      Ni       Fe     NiAl/
 | /                   Fe     /r
 *--------------------------Ni

Positions:
   0 Ni    10.797848    0.093654    0.085777    ( 0.0000,  0.0000,  0.0000)
   1 Al    10.831824    1.844742    1.870716    ( 0.0000,  0.0000,  2.0000)
   2 Ni     1.786803   10.847372    1.827335    ( 0.0000,  0.0000,  0.0000)
   3 Co     1.769614    1.870531   -0.031264    ( 0.0000,  0.0000,  0.0000)
   4 Al     3.620857   10.822050   10.833629    ( 0.0000,  0.0000,  1.5000)
   5 Ni     3.571246    1.883176    1.708402    ( 0.0000,  0.0000,  0.0000)
   6 Co     5.521103   10.788063    1.666217    ( 0.0000,  0.0000,  0.0000)
   7 Al     5.520831    1.813973   10.830911    ( 0.0000,  0.0000,  1.5000)
   8 Al     7.330846    0.011025   10.815657    ( 0.0000,  0.0000,  2.0000)
   9 Fe     7.282018    1.809483    1.793250    ( 0.0000,  0.0000,  2.1000)
  10 Fe     9.029996    0.022005    1.811918    ( 0.0000,  0.0000,  1.5000)
  11 Fe     9.007196    1.868639   10.825714    ( 0.0000,  0.0000,  2.0000)
  12 Cr    10.861310    3.649723    0.014171    ( 0.0000,  0.0000,  2.0000)
  13 Ni    10.867442    5.463468    1.819235    ( 0.0000,  0.0000,  2.1000)
  14 Co     1.756088    3.650267    1.845949    ( 0.0000,  0.0000,  0.0000)
  15 Fe     1.790358    5.439092   10.869084    ( 0.0000,  0.0000,  2.1000)
  16 Cr     3.687842    3.622792   -0.049287    ( 0.0000,  0.0000,  2.0000)
  17 Co     3.667347    5.391145    1.745368    ( 0.0000,  0.0000,  0.0000)
  18 Al     5.497977    3.634415    1.792370    ( 0.0000,  0.0000,  2.0000)
  19 Cr     5.524908    5.448029    0.002551    ( 0.0000,  0.0000,  2.0000)
  20 Co     7.223340    3.611877   10.834270    ( 0.0000,  0.0000,  0.0000)
  21 Al     7.217762    5.474830    1.807776    ( 0.0000,  0.0000,  2.1000)
  22 Cr     9.073442    3.654344    1.775148    ( 0.0000,  0.0000,  0.0000)
  23 Ni     9.008740    5.418608    0.007692    ( 0.0000,  0.0000,  2.0000)
  24 Cr    10.859190    7.178720    0.014480    ( 0.0000,  0.0000,  1.5000)
  25 Fe    -0.018106    8.970948    1.875391    ( 0.0000,  0.0000,  0.0000)
  26 Fe     1.817615    7.224025    1.802546    ( 0.0000,  0.0000,  1.5000)
  27 Ni     1.880729    8.993464   10.874031    ( 0.0000,  0.0000,  0.0000)
  28 Fe     3.684428    7.260447   -0.001356    ( 0.0000,  0.0000,  2.0000)
  29 Co     3.612616    9.025636    1.761807    ( 0.0000,  0.0000,  1.5000)
  30 Cr     5.481440    7.275114    1.811211    ( 0.0000,  0.0000,  1.5000)
  31 Fe     5.461261    9.048153   10.833988    ( 0.0000,  0.0000,  1.5000)
  32 Ni     7.245704    7.257881    0.056891    ( 0.0000,  0.0000,  2.1000)
  33 Co     7.301969    9.004609    1.790315    ( 0.0000,  0.0000,  0.0000)
  34 Cr     9.029343    7.181775    1.815549    ( 0.0000,  0.0000,  2.0000)
  35 Ni     9.030561    9.042010    0.020232    ( 0.0000,  0.0000,  1.5000)
  36 Fe    -0.031046    0.001947    3.645701    ( 0.0000,  0.0000,  2.0000)
  37 Fe    10.825910    1.804351    5.434602    ( 0.0000,  0.0000,  2.1000)
  38 Cr     1.743552   10.849296    5.484376    ( 0.0000,  0.0000,  0.0000)
  39 Al     1.769755    1.791891    3.636068    ( 0.0000,  0.0000,  1.5000)
  40 Al     3.516667   10.719828    3.663227    ( 0.0000,  0.0000,  0.0000)
  41 Co     3.644244    1.785205    5.586728    ( 0.0000,  0.0000,  0.0000)
  42 Al     5.484778   10.815439    5.504022    ( 0.0000,  0.0000,  0.0000)
  43 Cr     5.457934    1.842230    3.658769    ( 0.0000,  0.0000,  0.0000)
  44 Ni     7.360615   10.815439    3.672229    ( 0.0000,  0.0000,  0.0000)
  45 Al     7.266884    1.811614    5.485528    ( 0.0000,  0.0000,  2.1000)
  46 Al     9.077986    0.023590    5.491921    ( 0.0000,  0.0000,  0.0000)
  47 Co     9.066788    1.824226    3.671175    ( 0.0000,  0.0000,  1.5000)
  48 Fe    -0.047135    3.649615    3.617291    ( 0.0000,  0.0000,  2.0000)
  49 Ni    10.809264    5.435993    5.379805    ( 0.0000,  0.0000,  2.0000)
  50 Ni     1.752316    3.624989    5.344676    ( 0.0000,  0.0000,  0.0000)
  51 Ni     1.805786    5.472046    3.619389    ( 0.0000,  0.0000,  2.1000)
  52 Cr     3.649408    3.633491    3.631251    ( 0.0000,  0.0000,  2.1000)
  53 Co     3.657628    5.433797    5.434015    ( 0.0000,  0.0000,  1.5000)
  54 Ni     5.413368    3.672642    5.480309    ( 0.0000,  0.0000,  1.5000)
  55 Al     5.413835    5.465588    3.639666    ( 0.0000,  0.0000,  2.1000)
  56 Cr     7.223449    3.731734    3.720829    ( 0.0000,  0.0000,  0.0000)
  57 Ni     7.220557    5.483180    5.485572    ( 0.0000,  0.0000,  0.0000)
  58 Co     9.069039    3.623673    5.469720    ( 0.0000,  0.0000,  1.5000)
  59 Cr     9.064766    5.503837    3.636731    ( 0.0000,  0.0000,  0.0000)
[...]
  93 Co     7.214631    5.385893    9.048577    ( 0.0000,  0.0000,  2.1000)
  94 Fe     8.994291    3.655975    9.039237    ( 0.0000,  0.0000,  1.5000)
  95 Ni     9.006577    5.423262    7.223296    ( 0.0000,  0.0000,  2.0000)
  96 Cr    -0.070637    7.291956    7.110419    ( 0.0000,  0.0000,  0.0000)
  97 Cr     0.073012    9.104570    9.068375    ( 0.0000,  0.0000,  0.0000)
  98 Cr     1.863247    7.257381    9.054785    ( 0.0000,  0.0000,  2.0000)
  99 Fe     1.858343    9.053708    7.225808    ( 0.0000,  0.0000,  2.1000)
 100 Al     3.683906    7.292456    7.235550    ( 0.0000,  0.0000,  2.0000)
 101 Cr     3.628218    9.069550    9.051262    ( 0.0000,  0.0000,  2.1000)
 102 Co     5.530605    7.331890    9.040129    ( 0.0000,  0.0000,  0.0000)
 103 Al     5.476232    9.097209    7.250467    ( 0.0000,  0.0000,  2.0000)
 104 Cr     7.256827    7.264242    7.208456    ( 0.0000,  0.0000,  2.1000)
 105 Al     7.272548    9.136437    9.056861    ( 0.0000,  0.0000,  1.5000)
 106 Fe     8.936493    7.190875    9.109767    ( 0.0000,  0.0000,  0.0000)
 107 Co     8.994682    9.112169    7.218480    ( 0.0000,  0.0000,  0.0000)

Unit cell:
           periodic     x           y           z      points  spacing
  1. axis:    yes   10.872400    0.000000    0.000000    48     0.2265
  2. axis:    yes    0.000000   10.872400    0.000000    48     0.2265
  3. axis:    yes    0.000000    0.000000   10.872400    48     0.2265

  Lengths:  10.872400  10.872400  10.872400
  Angles:   90.000000  90.000000  90.000000

Effective grid spacing dv^(1/3) = 0.2265

     iter     time        total  log10-change:  magmom
                         energy  eigst   dens
iter:   1 03:43:15  -925.057908                  +120.1256
iter:   2 03:45:19  -874.167906  -0.24  -1.24    +81.5304
iter:   3 03:47:23  -847.232885  -0.69  -1.20    +47.3190
iter:   4 03:49:28  -815.140909  -1.20  -1.26    +41.7826
iter:   5 03:51:33  -810.081535  -1.60  -1.37    +38.3929
iter:   6 03:53:37  -810.864881  -1.70  -1.39    +37.3913
iter:   7 03:55:41  -804.990171  -1.58  -1.42    +37.0958
iter:   8 03:57:46  -803.085135  -1.74  -1.50    +37.4101
iter:   9 03:59:51  -808.589233  -1.70  -1.59    +38.4716
iter:  10 04:01:55  -800.682626  -1.93  -1.58    +39.1337
iter:  11 04:04:00  -801.680418  -2.28  -1.77    +40.5642
iter:  12 04:06:05  -801.121877  -2.48  -1.79    +42.2512
iter:  13 04:08:09  -802.171491  -2.44  -1.84    +44.2000
iter:  14 04:10:14  -802.149823  -2.42  -1.86    +45.6792
iter:  15 04:12:19  -802.676854  -2.47  -1.92    +47.0559
iter:  16 04:14:24  -803.116708  -2.44  -1.94    +48.5361
iter:  17 04:16:28  -802.880785  -2.56  -1.96    +49.7482
iter:  18 04:18:33  -802.782974  -2.66  -2.01    +50.6296
iter:  19 04:20:37  -802.686672  -2.82  -2.07    +51.8790
iter:  20 04:22:42  -802.533571  -2.97  -2.10    +52.9212
iter:  21 04:24:46  -802.692545  -3.13  -2.14    +54.2462
iter:  22 04:26:51  -802.892470  -3.18  -2.18    +54.9395
iter:  23 04:28:56  -803.005991  -3.28  -2.18    +55.8157
iter:  24 04:31:00  -803.377516  -3.09  -2.23    +56.6064
iter:  25 04:33:05  -803.440503  -3.08  -2.22    +57.0170
iter:  26 04:35:10  -803.639665  -3.05  -2.25    +57.4563
iter:  27 04:37:15  -803.743750  -3.12  -2.27    +57.7636
iter:  28 04:39:19  -803.842902  -3.08  -2.28    +58.2945
iter:  29 04:41:23  -803.776644  -3.28  -2.31    +58.2973
iter:  30 04:43:28  -803.771940c -3.51  -2.35    +58.4996
iter:  31 04:45:33  -803.865532  -3.72  -2.41    +58.7071
iter:  32 04:47:37  -803.897045  -3.94  -2.42    +58.8010
iter:  33 04:49:42  -803.987433  -3.81  -2.44    +58.8391
iter:  34 04:51:47  -804.037497  -3.82  -2.44    +58.7691
iter:  35 04:53:52  -804.175491  -3.49  -2.49    +58.5773
iter:  36 04:55:56  -804.192204  -3.47  -2.52    +58.4375
iter:  37 04:58:00  -804.194570c -3.51  -2.56    +58.2882
iter:  38 05:00:04  -804.210258c -3.71  -2.65    +58.1459
iter:  39 05:02:09  -804.190809c -4.01  -2.68    +57.9466
iter:  40 05:04:13  -804.203764c -4.06  -2.81    +57.7358
iter:  41 05:06:17  -804.204040c -4.43  -2.82    +57.6316
iter:  42 05:08:22  -804.228522c -4.46  -2.91    +57.4923
iter:  43 05:10:23  -804.246610c -4.54  -2.92    +57.2604
iter:  44 05:12:27  -804.261662c -4.64  -2.95    +57.1005
iter:  45 05:14:31  -804.280469c -4.69  -2.96    +56.9156
iter:  46 05:16:36  -804.301478c -4.65  -2.97    +56.7231
iter:  47 05:18:41  -804.325423c -4.57  -2.95    +56.5307
iter:  48 05:20:46  -804.334255c -4.90  -2.93    +56.4809
iter:  49 05:22:50  -804.349560c -4.83  -2.92    +56.3275
iter:  50 05:24:55  -804.357154c -5.10  -2.90    +56.2556
iter:  51 05:27:00  -804.369433c -4.83  -2.89    +56.1146
iter:  52 05:29:05  -804.382840c -4.66  -2.87    +56.0620
iter:  53 05:31:09  -804.392540c -4.41  -2.83    +55.9407
iter:  54 05:33:14  -804.408162c -4.23  -2.87    +55.8792
iter:  55 05:35:18  -804.407060c -4.28  -2.83    +55.8145
iter:  56 05:37:23  -804.409099c -4.26  -2.89    +55.6957
iter:  57 05:39:27  -804.393966c -4.65  -2.90    +55.6104
iter:  58 05:41:31  -804.399462c -4.96  -2.98    +55.5230
iter:  59 05:43:36  -804.400604c -5.31  -3.00    +55.4952
iter:  60 05:45:41  -804.411293c -4.84  -3.03    +55.3964
iter:  61 05:47:45  -804.411103c -4.80  -3.03    +55.4016
iter:  62 05:49:48  -804.414795c -4.24  -3.07    +55.3674
iter:  63 05:51:48  -804.412315c -4.76  -3.20    +55.3524
iter:  64 05:53:53  -804.410362c -5.18  -3.26    +55.3612
iter:  65 05:55:58  -804.411233c -5.53  -3.39    +55.3784
iter:  66 05:58:02  -804.412857c -5.53  -3.45    +55.3705
iter:  67 06:00:07  -804.412899c -5.48  -3.47    +55.3782
iter:  68 06:02:11  -804.414774c -5.55  -3.61    +55.3727
iter:  69 06:04:16  -804.415573c -5.69  -3.65    +55.3774
iter:  70 06:06:20  -804.415303c -5.86  -3.61    +55.3808
iter:  71 06:08:25  -804.416161c -5.86  -3.71    +55.3841
iter:  72 06:10:29  -804.416692c -6.11  -3.74    +55.3805
iter:  73 06:12:34  -804.417235c -6.06  -3.80    +55.3865
iter:  74 06:14:39  -804.418896c -5.77  -3.83    +55.3881
iter:  75 06:16:43  -804.419437c -5.99  -3.84    +55.4005
iter:  76 06:18:48  -804.419264c -6.32  -3.82    +55.4035
iter:  77 06:20:53  -804.419823c -6.31  -3.92    +55.4099
iter:  78 06:22:57  -804.420258c -6.44  -3.93    +55.4134
iter:  79 06:25:02  -804.420452c -6.38  -3.95    +55.4222
iter:  80 06:27:07  -804.421122c -6.30  -4.05c   +55.4254
iter:  81 06:29:12  -804.421452c -6.52  -4.08c   +55.4349
iter:  82 06:31:16  -804.421404c -6.64  -4.07c   +55.4416
iter:  83 06:33:21  -804.421854c -6.52  -4.14c   +55.4529
iter:  84 06:35:26  -804.422467c -6.22  -4.23c   +55.4702
iter:  85 06:37:30  -804.422400c -6.88  -4.22c   +55.4705
iter:  86 06:39:34  -804.422712c -6.66  -4.33c   +55.4812
iter:  87 06:41:38  -804.422935c -6.93  -4.36c   +55.4879
iter:  88 06:43:40  -804.423155c -6.64  -4.39c   +55.5005
iter:  89 06:45:45  -804.423207c -7.31  -4.39c   +55.5015
iter:  90 06:47:49  -804.423528c -6.69  -4.46c   +55.5185
iter:  91 06:49:54  -804.423196c -6.82  -4.47c   +55.5001
iter:  92 06:51:59  -804.423093c -6.82  -4.53c   +55.4888
iter:  93 06:54:03  -804.423500c -6.62  -4.55c   +55.5128
iter:  94 06:56:08  -804.423315c -7.28  -4.63c   +55.5031
iter:  95 06:58:12  -804.423445c -7.26  -4.62c   +55.5077
iter:  96 07:00:16  -804.423646c -7.07  -4.62c   +55.5186
iter:  97 07:02:20  -804.424115c -6.29  -4.70c   +55.5410
iter:  98 07:04:25  -804.423338c -6.04  -4.70c   +55.5034
iter:  99 07:06:28  -804.422358c -5.56  -4.59c   +55.4564
iter: 100 07:08:29  -804.422805c -6.81  -4.26c   +55.4793
iter: 101 07:10:34  -804.423910c -5.66  -4.36c   +55.5409
iter: 102 07:12:39  -804.423502c -7.03  -4.73c   +55.5200
iter: 103 07:14:43  -804.425238c -5.38  -4.60c   +55.6055
iter: 104 07:16:47  -804.423130c -5.34  -4.45c   +55.5000
iter: 105 07:18:52  -804.423375c -7.04  -4.47c   +55.5100
iter: 106 07:20:57  -804.423341c -7.81c -4.52c   +55.5102

Converged after 106 iterations.

Dipole moment: (28.180868, 16.914507, 9.142288) |e|*Ang

Total magnetic moment: (0.000000, 0.000000, 55.510152)
Local magnetic moments:
   0 Ni ( 0.000000,  0.000000,  0.376337)
   1 Al ( 0.000000,  0.000000, -0.034490)
   2 Ni ( 0.000000,  0.000000,  0.237212)
   3 Co ( 0.000000,  0.000000,  1.102313)
   4 Al ( 0.000000,  0.000000, -0.022152)
   5 Ni ( 0.000000,  0.000000,  0.140925)
   6 Co ( 0.000000,  0.000000,  1.166954)
   7 Al ( 0.000000,  0.000000, -0.023619)
   8 Al ( 0.000000,  0.000000, -0.044680)
   9 Fe ( 0.000000,  0.000000,  2.145972)
  10 Fe ( 0.000000,  0.000000,  2.396854)
  11 Fe ( 0.000000,  0.000000,  2.151341)
  12 Cr ( 0.000000,  0.000000,  0.712300)
  13 Ni ( 0.000000,  0.000000,  0.111501)
  14 Co ( 0.000000,  0.000000,  1.009228)
  15 Fe ( 0.000000,  0.000000,  1.813061)
  16 Cr ( 0.000000,  0.000000,  1.541273)
  17 Co ( 0.000000,  0.000000,  0.515545)
  18 Al ( 0.000000,  0.000000, -0.020251)
  19 Cr ( 0.000000,  0.000000, -1.443126)
  20 Co ( 0.000000,  0.000000,  1.023967)
  21 Al ( 0.000000,  0.000000,  0.010579)
  22 Cr ( 0.000000,  0.000000, -1.796598)
  23 Ni ( 0.000000,  0.000000,  0.160720)
  24 Cr ( 0.000000,  0.000000, -1.945124)
  25 Fe ( 0.000000,  0.000000,  2.264705)
  26 Fe ( 0.000000,  0.000000,  2.248855)
  27 Ni ( 0.000000,  0.000000,  0.130132)
  28 Fe ( 0.000000,  0.000000,  2.094977)
  29 Co ( 0.000000,  0.000000,  0.990074)
  30 Cr ( 0.000000,  0.000000, -0.222699)
  31 Fe ( 0.000000,  0.000000,  2.137929)
  32 Ni ( 0.000000,  0.000000,  0.215435)
  33 Co ( 0.000000,  0.000000,  1.084332)
  34 Cr ( 0.000000,  0.000000,  1.713631)
  35 Ni ( 0.000000,  0.000000,  0.139084)
  36 Fe ( 0.000000,  0.000000,  2.104675)
  37 Fe ( 0.000000,  0.000000,  2.017332)
  38 Cr ( 0.000000,  0.000000, -1.592212)
  39 Al ( 0.000000,  0.000000, -0.029988)
  40 Al ( 0.000000,  0.000000,  0.006922)
  41 Co ( 0.000000,  0.000000,  0.799635)
  42 Al ( 0.000000,  0.000000, -0.004341)
  43 Cr ( 0.000000,  0.000000, -2.310781)
  44 Ni ( 0.000000,  0.000000, -0.099625)
  45 Al ( 0.000000,  0.000000, -0.019774)
  46 Al ( 0.000000,  0.000000, -0.022727)
  47 Co ( 0.000000,  0.000000,  0.918548)
  48 Fe ( 0.000000,  0.000000,  2.321195)
  49 Ni ( 0.000000,  0.000000,  0.390699)
  50 Ni ( 0.000000,  0.000000,  0.336638)
  51 Ni ( 0.000000,  0.000000,  0.374378)
  52 Cr ( 0.000000,  0.000000,  1.994791)
  53 Co ( 0.000000,  0.000000,  0.544132)
  54 Ni ( 0.000000,  0.000000,  0.201343)
  55 Al ( 0.000000,  0.000000, -0.023479)
  56 Cr ( 0.000000,  0.000000,  1.976124)
  57 Ni ( 0.000000,  0.000000,  0.234412)
  58 Co ( 0.000000,  0.000000,  1.319972)
  59 Cr ( 0.000000,  0.000000, -1.795139)
[...]
  93 Co ( 0.000000,  0.000000,  1.270352)
  94 Fe ( 0.000000,  0.000000,  2.414470)
  95 Ni ( 0.000000,  0.000000,  0.365186)
  96 Cr ( 0.000000,  0.000000, -2.115033)
  97 Cr ( 0.000000,  0.000000, -2.170850)
  98 Cr ( 0.000000,  0.000000,  1.637870)
  99 Fe ( 0.000000,  0.000000,  2.130387)
 100 Al ( 0.000000,  0.000000, -0.026407)
 101 Cr ( 0.000000,  0.000000, -1.850717)
 102 Co ( 0.000000,  0.000000,  0.462284)
 103 Al ( 0.000000,  0.000000, -0.004378)
 104 Cr ( 0.000000,  0.000000,  1.160060)
 105 Al ( 0.000000,  0.000000, -0.025958)
 106 Fe ( 0.000000,  0.000000,  2.349854)
 107 Co ( 0.000000,  0.000000,  0.295431)

Energy contributions relative to reference atoms: (reference = -3235165.067515)

Kinetic:       +287.226594
Potential:     -269.435669
External:        +0.000000
XC:            -851.357485
Entropy (-ST):   -4.046574
Local:          +31.166506
Free energy:   -806.446628
Extrapolated:  -804.423341

Spin contamination: 30.567792 electrons
Showing only first 2 kpts
                      Up                     Down
 Kpt  Band  Eigenvalues  Occupancy  Eigenvalues  Occupancy
  0   454      9.01849    0.99452      9.90152    0.02584
  0   455      9.04199    0.99307      9.91186    0.02336
  0   456      9.05016    0.99249      9.92576    0.02039
  0   457      9.07247    0.99063      9.94031    0.01768

  1   454      9.03524    0.99352      9.90033    0.02614
  1   455      9.04128    0.99312      9.91016    0.02375
  1   456      9.06020    0.99170      9.91805    0.02199
  1   457      9.07784    0.99012      9.93230    0.01912

Fermi level: 9.53854

No gap

Forces in eV/Ang:
  0 Ni    0.26841   -0.53967   -0.54129
  1 Al    0.02719   -0.64159   -0.90985
  2 Ni   -0.11408   -0.00278    0.00299
  3 Co   -0.16461   -0.01717   -0.24823
  4 Al   -0.51508    0.28854    1.29328
  5 Ni    0.46443   -0.45204    0.32812
  6 Co   -0.12767    0.10645    0.99557
  7 Al   -0.33752   -0.03073    0.02894
  8 Al   -0.74827   -0.18911    1.86166
  9 Fe    0.31644   -0.37209    0.63499
 10 Fe    0.00824   -0.47728    0.55596
 11 Fe    0.51621    0.26616   -0.06091
 12 Cr    0.06056   -0.44776    0.49360
 13 Ni    0.07755   -0.35603   -0.03351
 14 Co    0.20126    0.08088   -0.38756
 15 Fe    0.18917   -0.25987    0.43872
 16 Cr   -0.89809   -0.24774    0.54731
 17 Co   -0.45897    0.25886    0.39243
 18 Al   -0.62232   -0.61847    0.09589
 19 Cr   -0.48351    0.66107   -0.86656
 20 Co    0.26942    0.14419    0.04502
 21 Al    1.16972   -0.01677   -0.44726
 22 Cr   -0.51291   -0.37812   -0.14591
 23 Ni    0.07415   -0.09189   -0.24334
 24 Cr    0.13038    0.71316    0.58591
 25 Fe    0.01618    0.82203   -0.94057
 26 Fe    0.26798   -0.23132   -0.30155
 27 Ni   -0.71719    0.38916    0.09793
 28 Fe    0.04842   -0.12628    0.46662
 29 Co    0.25972   -0.39729    0.37154
 30 Cr   -1.08162    1.18402   -0.61166
 31 Fe   -0.12936   -0.61830    0.56261
 32 Ni    0.06214    0.03559   -0.36793
 33 Co   -0.47657    0.19514    0.77630
 34 Cr    0.31051    0.65898    0.00694
 35 Ni    0.34976    0.27472   -0.32456
 36 Fe   -0.10357   -0.14457   -0.10685
 37 Fe    0.11321    0.55413   -0.23352
 38 Cr    0.59916    0.16719    0.71907
 39 Al    0.99904    0.58513    0.23997
 40 Al    1.36833    1.07010   -0.89062
 41 Co   -0.19282    0.39736   -0.53246
 42 Al   -1.26331    1.56580   -0.42758
 43 Cr   -0.29502   -0.08117   -0.80684
 44 Ni   -0.67878    0.18968   -0.15115
 45 Al    0.20725    0.86607    0.11568
 46 Al   -0.20773   -0.27399   -0.71084
 47 Co   -0.12169    0.18933   -0.33201
 48 Fe   -0.32421    0.41300    0.27631
 49 Ni    0.40945   -0.14120    0.55518
 50 Ni    0.43041    0.19724    0.70850
 51 Ni    0.23348   -0.05839    0.00233
 52 Cr   -0.22761   -0.20360    0.42662
 53 Co   -0.62639    0.02756    0.15261
 54 Ni    0.05540   -0.34721    0.00796
 55 Al   -0.43222    0.75046    1.25152
 56 Cr    1.03108   -0.98539   -0.10082
 57 Ni    0.15376   -0.20880   -0.11563
 58 Co   -0.00222    0.40526   -0.08509
 59 Cr    0.18088   -0.11972    0.43660
[...]
 93 Co    0.07544    0.34776    0.04412
 94 Fe   -0.31515   -0.24861    0.02450
 95 Ni    0.27656    0.14681    0.10038
 96 Cr    0.09835    0.02929    0.21218
 97 Cr    0.08519   -0.64383    0.40527
 98 Cr   -1.10729    0.34357    0.44850
 99 Fe   -0.71603    0.30076   -0.40517
100 Al   -0.23002   -0.96441   -0.89990
101 Cr   -0.49481   -0.46686    0.34533
102 Co   -0.04916   -0.53977   -0.09914
103 Al   -0.66226   -0.20375    0.73010
104 Cr    0.25091   -1.04869    0.66829
105 Al   -0.02987   -1.84568   -0.14653
106 Fe    0.78043    0.34105   -0.45221
107 Co    0.80981   -0.98867    0.53437

Date: Sat Apr 15 07:21:16 2023