User:   c.zeng@d0100
Date:   Sat Apr 15 07:35:16 2023
Arch:   x86_64
Pid:    106749
CWD:    /home/c.zeng/projects/hea-corrosion/hea-mlp/data-curation/bulk-mcmc/dft-jobs/225
Python: 3.8.1
gpaw:   /home/c.zeng/usr/installs/gpaw/source/gpaw-22.8.0/gpaw
_gpaw:  /home/c.zeng/usr/installs/gpaw/source/gpaw-22.8.0/
        _gpaw.cpython-38-x86_64-linux-gnu.so
ase:    /home/c.zeng/.local/lib/python3.8/site-packages/ase-3.22.1-py3.8.egg/ase (version 3.22.1)
numpy:  /shared/centos7/python/3.8.1/lib/python3.8/site-packages/numpy (version 1.17.4)
scipy:  /shared/centos7/python/3.8.1/lib/python3.8/site-packages/scipy (version 1.4.1)
units:  Angstrom and eV
cores: 30
OpenMP: False
OMP_NUM_THREADS: 1

Input parameters:
  convergence: {energy: 0.0001}
  kpts: [2 2 2]
  maxiter: 666
  mode: {ecut: 350.0,
         name: pw}
  occupations: {fixmagmom: False,
                name: fermi-dirac,
                width: 0.1}
  spinpol: True
  xc: PBE

System changes: positions, numbers, cell, pbc, initial_charges, initial_magmoms

Initialize ...

species:
  Cr:
    name: Chromium
    id: 33f258bda2ca9f93018e70263a35547b
    Z: 24.0
    valence: 6
    core: 18
    charge: 0.0
    file: /home/c.zeng/usr/data/gpaw-setups-0.9.20000/Cr.PBE.gz
    compensation charges: {type: gauss,
                           rc: 0.35,
                           lmax: 2}
    cutoffs: {filter: 2.14,
              core: 3.04}
    valence states:
      #              energy  rcut
      - 4s(1.00)    -4.007   1.164
      - 4p(0.00)    -0.989   1.217
      - 3d(5.00)    -2.913   1.111
      -  s          23.205   1.164
      -  p          26.223   1.217
      -  d          24.299   1.111

    # Using partial waves for Cr as LCAO basis

  Al:
    name: Aluminium
    id: 0292cae29f5d6237e50f6abdd43a7bdd
    Z: 13.0
    valence: 3
    core: 10
    charge: 0.0
    file: /home/c.zeng/usr/data/gpaw-setups-0.9.20000/Al.PBE.gz
    compensation charges: {type: gauss,
                           rc: 0.34,
                           lmax: 2}
    cutoffs: {filter: 1.91,
              core: 2.36}
    valence states:
      #              energy  rcut
      - 3s(2.00)    -7.753   1.085
      - 3p(1.00)    -2.712   1.085
      -  s          19.459   1.085
      -  p          24.499   1.085
      -  d           0.000   1.085

[...]

  Co:
    name: Cobalt
    id: 339d20d5b0b93d2de9531a1bee871d91
    Z: 27.0
    valence: 9
    core: 18
    charge: 0.0
    file: /home/c.zeng/usr/data/gpaw-setups-0.9.20000/Co.PBE.gz
    compensation charges: {type: gauss,
                           rc: 0.32,
                           lmax: 2}
    cutoffs: {filter: 1.87,
              core: 2.55}
    valence states:
      #              energy  rcut
      - 4s(2.00)    -5.469   1.005
      - 4p(0.00)    -1.277   1.058
      - 3d(7.00)    -8.205   1.005
      -  s          21.742   1.005
      -  p          25.934   1.058
      -  d          19.007   1.005

[...]

  Ni:
    name: Nickel
    id: 0d9f38a9d6e76a2886f07bb4381f212b
    Z: 28.0
    valence: 16
    core: 12
    charge: 0.0
    file: /home/c.zeng/usr/data/gpaw-setups-0.9.20000/Ni.PBE.gz
    compensation charges: {type: gauss,
                           rc: 0.36,
                           lmax: 2}
    cutoffs: {filter: 2.14,
              core: 1.98}
    valence states:
      #              energy  rcut
      - 4s(2.00)    -5.642   1.164
      - 3p(6.00)   -71.394   1.207
      - 4p(0.00)    -1.226   1.207
      - 3d(8.00)    -8.875   1.138
      -  s          21.570   1.164
      -  d          18.337   1.138

[...]

  Fe:
    name: Iron
    id: 37abbd8d6c3c35915a9b583b742da910
    Z: 26.0
    valence: 8
    core: 18
    charge: 0.0
    file: /home/c.zeng/usr/data/gpaw-setups-0.9.20000/Fe.PBE.gz
    compensation charges: {type: gauss,
                           rc: 0.33,
                           lmax: 2}
    cutoffs: {filter: 2.06,
              core: 2.67}
    valence states:
      #              energy  rcut
      - 4s(2.00)    -5.291   1.164
      - 4p(0.00)    -1.326   1.058
      - 3d(6.00)    -7.505   1.058
      -  s          21.920   1.164
      -  p          25.885   1.058
      -  d          19.706   1.058

    # Using partial waves for Fe as LCAO basis

Reference energy: -3235165.067515  # eV

Spin-polarized calculation.
Magnetic moment: 121.100000

Convergence criteria:
 Maximum [total energy] change in last 3 cyles: 0.0001 eV / electron
 Maximum integral of absolute [dens]ity change: 0.0001 electrons / valence electron
 Maximum integral of absolute [eigenst]ate change: 4e-08 eV^2 / valence electron
 Maximum number of scf [iter]ations: 666
 (Square brackets indicate name in SCF output, whereas a 'c' in
 the SCF output indicates the quantity has converged.)

Symmetries present (total): 1

  ( 1  0  0)
  ( 0  1  0)
  ( 0  0  1)

8 k-points: 2 x 2 x 2 Monkhorst-Pack grid
4 k-points in the irreducible part of the Brillouin zone
       k-points in crystal coordinates                weights
   0:     0.25000000   -0.25000000   -0.25000000          2/8
   1:     0.25000000   -0.25000000    0.25000000          2/8
   2:     0.25000000    0.25000000   -0.25000000          2/8
   3:     0.25000000    0.25000000    0.25000000          2/8

Wave functions: Plane wave expansion
  Cutoff energy: 350.000 eV
  Number of coefficients (min, max): 19084, 19084
  Pulay-stress correction: 0.000000 eV/Ang^3 (de/decut=0.000000)
  Using FFTW library
  ScaLapack parameters: grid=1x1, blocksize=None
  Wavefunction extrapolation:
    Improved wavefunction reuse through dual PAW basis

Occupation numbers: Fermi-Dirac:
  width: 0.1000  # eV

Eigensolver
   Davidson(niter=2)

Densities:
  Coarse grid: 48*48*48 grid
  Fine grid: 96*96*96 grid
  Total Charge: 0.000000

Density mixing:
  Method: difference
  Backend: pulay
  Linear mixing parameter: 0.05
  old densities: 5
  Damping of long wavelength oscillations: 50

Hamiltonian:
  XC and Coulomb potentials evaluated on a 96*96*96 grid
  Using the PBE Exchange-Correlation functional
  External potential:
    NoExternalPotential

XC parameters: PBE with 2 nearest neighbor stencil

Total number of cores used: 30
Parallelization over k-points: 2
Domain decomposition: 5 x 3 x 1

Number of atoms: 108
Number of atomic orbitals: 933
Number of bands in calculation: 624
Number of valence electrons: 912
Bands to converge: occupied

... initialized

Initializing position-dependent things.

Density initialized from atomic densities
Creating initial wave functions:
  624 bands from LCAO basis set

        .--------Al----------------.
       /|           Fe             |
      / |    FeFe     Ni           |
     / Cr       Ni       Al        |
    /   |Fe      CrCo       Fe     |
   /    | NiNi      ACo            |
  /    Co  FeiAlAl    Co Fe  CoAl  |
 *      Fe     AlCoAl   CrFe     Ni|
 |      |FeCr   NiFeFe   AlNiCr   Co
 |      | CoCr   AlCoCoAl CrNiFe   |
 |     Fe  Al CoCo  CrNi Cr  CrCr  |
 |      Cr  Cr CrCrCo CoNiCoAl   Fe|
 |      |CrCo   CoAlAl   CoNiFe   Fe
 |      .-FeNi-----NiNi-Al--CrFe---.
 |     Al  Ni CoNi    Al Co  Ni Ni/
 |    / Co              Cr       Cr
 |   /           Alr      CrFe  /
 |  /      Ni       Fe     NiAl/
 | /                   Fe     /i
 *--------------------------Cr

Positions:
   0 Cr    10.797848    0.093654    0.085777    ( 0.0000,  0.0000,  0.0000)
   1 Al    10.831824    1.844742    1.870716    ( 0.0000,  0.0000,  2.0000)
   2 Cr     1.786803   10.847372    1.827335    ( 0.0000,  0.0000,  0.0000)
   3 Co     1.769614    1.870531   -0.031264    ( 0.0000,  0.0000,  0.0000)
   4 Al     3.620857   10.822050   10.833629    ( 0.0000,  0.0000,  1.5000)
   5 Ni     3.571246    1.883176    1.708402    ( 0.0000,  0.0000,  0.0000)
   6 Co     5.521103   10.788063    1.666217    ( 0.0000,  0.0000,  0.0000)
   7 Al     5.520831    1.813973   10.830911    ( 0.0000,  0.0000,  1.5000)
   8 Al     7.330846    0.011025   10.815657    ( 0.0000,  0.0000,  2.0000)
   9 Fe     7.282018    1.809483    1.793250    ( 0.0000,  0.0000,  2.1000)
  10 Fe     9.029996    0.022005    1.811918    ( 0.0000,  0.0000,  1.5000)
  11 Fe     9.007196    1.868639   10.825714    ( 0.0000,  0.0000,  2.0000)
  12 Ni    10.861310    3.649723    0.014171    ( 0.0000,  0.0000,  2.0000)
  13 Ni    10.867442    5.463468    1.819235    ( 0.0000,  0.0000,  2.1000)
  14 Co     1.756088    3.650267    1.845949    ( 0.0000,  0.0000,  0.0000)
  15 Fe     1.790358    5.439092   10.869084    ( 0.0000,  0.0000,  2.1000)
  16 Ni     3.687842    3.622792   -0.049287    ( 0.0000,  0.0000,  2.0000)
  17 Co     3.667347    5.391145    1.745368    ( 0.0000,  0.0000,  0.0000)
  18 Al     5.497977    3.634415    1.792370    ( 0.0000,  0.0000,  2.0000)
  19 Cr     5.524908    5.448029    0.002551    ( 0.0000,  0.0000,  2.0000)
  20 Co     7.223340    3.611877   10.834270    ( 0.0000,  0.0000,  0.0000)
  21 Al     7.217762    5.474830    1.807776    ( 0.0000,  0.0000,  2.1000)
  22 Cr     9.073442    3.654344    1.775148    ( 0.0000,  0.0000,  0.0000)
  23 Ni     9.008740    5.418608    0.007692    ( 0.0000,  0.0000,  2.0000)
  24 Cr    10.859190    7.178720    0.014480    ( 0.0000,  0.0000,  1.5000)
  25 Fe    -0.018106    8.970948    1.875391    ( 0.0000,  0.0000,  0.0000)
  26 Fe     1.817615    7.224025    1.802546    ( 0.0000,  0.0000,  1.5000)
  27 Ni     1.880729    8.993464   10.874031    ( 0.0000,  0.0000,  0.0000)
  28 Fe     3.684428    7.260447   -0.001356    ( 0.0000,  0.0000,  2.0000)
  29 Co     3.612616    9.025636    1.761807    ( 0.0000,  0.0000,  1.5000)
  30 Ni     5.481440    7.275114    1.811211    ( 0.0000,  0.0000,  1.5000)
  31 Fe     5.461261    9.048153   10.833988    ( 0.0000,  0.0000,  1.5000)
  32 Cr     7.245704    7.257881    0.056891    ( 0.0000,  0.0000,  2.1000)
  33 Co     7.301969    9.004609    1.790315    ( 0.0000,  0.0000,  0.0000)
  34 Cr     9.029343    7.181775    1.815549    ( 0.0000,  0.0000,  2.0000)
  35 Ni     9.030561    9.042010    0.020232    ( 0.0000,  0.0000,  1.5000)
  36 Fe    -0.031046    0.001947    3.645701    ( 0.0000,  0.0000,  2.0000)
  37 Fe    10.825910    1.804351    5.434602    ( 0.0000,  0.0000,  2.1000)
  38 Ni     1.743552   10.849296    5.484376    ( 0.0000,  0.0000,  0.0000)
  39 Al     1.769755    1.791891    3.636068    ( 0.0000,  0.0000,  1.5000)
  40 Al     3.516667   10.719828    3.663227    ( 0.0000,  0.0000,  0.0000)
  41 Co     3.644244    1.785205    5.586728    ( 0.0000,  0.0000,  0.0000)
  42 Al     5.484778   10.815439    5.504022    ( 0.0000,  0.0000,  0.0000)
  43 Ni     5.457934    1.842230    3.658769    ( 0.0000,  0.0000,  0.0000)
  44 Cr     7.360615   10.815439    3.672229    ( 0.0000,  0.0000,  0.0000)
  45 Al     7.266884    1.811614    5.485528    ( 0.0000,  0.0000,  2.1000)
  46 Al     9.077986    0.023590    5.491921    ( 0.0000,  0.0000,  0.0000)
  47 Co     9.066788    1.824226    3.671175    ( 0.0000,  0.0000,  1.5000)
  48 Fe    -0.047135    3.649615    3.617291    ( 0.0000,  0.0000,  2.0000)
  49 Cr    10.809264    5.435993    5.379805    ( 0.0000,  0.0000,  2.0000)
  50 Cr     1.752316    3.624989    5.344676    ( 0.0000,  0.0000,  0.0000)
  51 Cr     1.805786    5.472046    3.619389    ( 0.0000,  0.0000,  2.1000)
  52 Ni     3.649408    3.633491    3.631251    ( 0.0000,  0.0000,  2.1000)
  53 Co     3.657628    5.433797    5.434015    ( 0.0000,  0.0000,  1.5000)
  54 Cr     5.413368    3.672642    5.480309    ( 0.0000,  0.0000,  1.5000)
  55 Al     5.413835    5.465588    3.639666    ( 0.0000,  0.0000,  2.1000)
  56 Ni     7.223449    3.731734    3.720829    ( 0.0000,  0.0000,  0.0000)
  57 Ni     7.220557    5.483180    5.485572    ( 0.0000,  0.0000,  0.0000)
  58 Co     9.069039    3.623673    5.469720    ( 0.0000,  0.0000,  1.5000)
  59 Ni     9.064766    5.503837    3.636731    ( 0.0000,  0.0000,  0.0000)
[...]
  93 Co     7.214631    5.385893    9.048577    ( 0.0000,  0.0000,  2.1000)
  94 Fe     8.994291    3.655975    9.039237    ( 0.0000,  0.0000,  1.5000)
  95 Ni     9.006577    5.423262    7.223296    ( 0.0000,  0.0000,  2.0000)
  96 Ni    -0.070637    7.291956    7.110419    ( 0.0000,  0.0000,  0.0000)
  97 Cr     0.073012    9.104570    9.068375    ( 0.0000,  0.0000,  0.0000)
  98 Ni     1.863247    7.257381    9.054785    ( 0.0000,  0.0000,  2.0000)
  99 Fe     1.858343    9.053708    7.225808    ( 0.0000,  0.0000,  2.1000)
 100 Al     3.683906    7.292456    7.235550    ( 0.0000,  0.0000,  2.0000)
 101 Ni     3.628218    9.069550    9.051262    ( 0.0000,  0.0000,  2.1000)
 102 Co     5.530605    7.331890    9.040129    ( 0.0000,  0.0000,  0.0000)
 103 Al     5.476232    9.097209    7.250467    ( 0.0000,  0.0000,  2.0000)
 104 Cr     7.256827    7.264242    7.208456    ( 0.0000,  0.0000,  2.1000)
 105 Al     7.272548    9.136437    9.056861    ( 0.0000,  0.0000,  1.5000)
 106 Fe     8.936493    7.190875    9.109767    ( 0.0000,  0.0000,  0.0000)
 107 Co     8.994682    9.112169    7.218480    ( 0.0000,  0.0000,  0.0000)

Unit cell:
           periodic     x           y           z      points  spacing
  1. axis:    yes   10.872400    0.000000    0.000000    48     0.2265
  2. axis:    yes    0.000000   10.872400    0.000000    48     0.2265
  3. axis:    yes    0.000000    0.000000   10.872400    48     0.2265

  Lengths:  10.872400  10.872400  10.872400
  Angles:   90.000000  90.000000  90.000000

Effective grid spacing dv^(1/3) = 0.2265

     iter     time        total  log10-change:  magmom
                         energy  eigst   dens
iter:   1 07:39:21  -921.426412                  +120.1318
iter:   2 07:41:06  -843.283960  -0.26  -1.25    +80.5500
iter:   3 07:42:51  -840.796857  -0.77  -1.26    +48.6008
iter:   4 07:44:36  -815.544573  -1.21  -1.28    +44.1008
iter:   5 07:46:21  -808.949230  -1.75  -1.36    +40.6863
iter:   6 07:48:04  -809.674151  -1.60  -1.42    +39.4123
iter:   7 07:49:50  -808.377888  -1.47  -1.47    +38.6857
iter:   8 07:51:36  -805.351659  -1.74  -1.54    +38.8309
iter:   9 07:53:21  -807.008286  -1.88  -1.62    +38.9181
iter:  10 07:55:07  -801.942933  -1.98  -1.64    +39.0811
iter:  11 07:56:52  -803.099887  -2.34  -1.79    +39.7784
iter:  12 07:58:37  -802.420807  -2.43  -1.78    +40.5280
iter:  13 08:00:22  -802.916877  -2.51  -1.86    +41.7693
iter:  14 08:02:07  -804.599232  -2.38  -1.89    +42.3648
iter:  15 08:03:53  -802.648256  -2.56  -1.87    +43.0987
iter:  16 08:05:39  -804.092630  -2.53  -2.03    +44.0051
iter:  17 08:07:25  -803.167405  -2.68  -1.98    +44.5893
iter:  18 08:09:10  -803.296989  -2.93  -2.06    +45.4995
iter:  19 08:10:56  -803.184291  -2.95  -2.10    +46.2325
iter:  20 08:12:42  -803.622957  -2.86  -2.18    +46.9859
iter:  21 08:14:28  -803.377487  -3.03  -2.16    +47.3026
iter:  22 08:16:14  -803.356857  -3.05  -2.24    +47.9504
iter:  23 08:18:00  -804.099366  -2.85  -2.34    +48.7198
iter:  24 08:19:47  -803.798033  -2.94  -2.22    +48.8525
iter:  25 08:21:33  -803.533472  -3.25  -2.30    +49.2022
iter:  26 08:23:20  -803.655572  -3.50  -2.49    +49.5627
iter:  27 08:25:07  -803.693106  -3.51  -2.49    +49.9127
iter:  28 08:26:54  -803.736383c -3.80  -2.50    +50.1851
iter:  29 08:28:40  -803.828416  -3.96  -2.57    +50.4064
iter:  30 08:30:25  -803.826133  -4.66  -2.58    +50.4204
iter:  31 08:32:11  -803.981479  -3.77  -2.60    +50.6059
iter:  32 08:33:58  -804.000987  -3.77  -2.57    +50.6670
iter:  33 08:35:45  -804.088373  -3.64  -2.70    +50.7639
iter:  34 08:37:32  -804.114605  -3.91  -2.83    +50.8219
iter:  35 08:39:19  -804.240781  -3.76  -2.94    +50.7950
iter:  36 08:41:05  -804.310394  -3.96  -2.89    +50.7868
iter:  37 08:42:51  -804.444438  -3.89  -2.96    +50.7976
iter:  38 08:44:37  -804.265001  -3.91  -2.80    +50.5860
iter:  39 08:46:23  -804.767654  -2.81  -2.89    +51.2161
iter:  40 08:48:09  -804.857147  -3.41  -2.68    +51.1474
iter:  41 08:49:56  -804.986203  -3.35  -2.65    +50.8951
iter:  42 08:51:43  -805.048450  -3.66  -2.59    +50.6300
iter:  43 08:53:29  -805.234159  -3.27  -2.56    +49.8799
iter:  44 08:55:16  -805.098317  -3.73  -2.43    +49.8266
iter:  45 08:57:03  -805.193494  -3.31  -2.45    +49.7549
iter:  46 08:58:48  -805.017079  -3.36  -2.36    +49.6803
iter:  47 09:00:34  -804.938859  -3.55  -2.46    +49.0651
iter:  48 09:02:21  -805.102849  -3.25  -2.54    +48.7058
iter:  49 09:04:08  -804.858047  -3.75  -2.46    +48.4466
iter:  50 09:05:55  -804.861476  -4.25  -2.64    +47.8718
iter:  51 09:07:42  -804.902075c -3.80  -2.70    +47.3445
iter:  52 09:09:28  -804.889696c -3.69  -2.71    +47.3219
iter:  53 09:11:14  -804.845220c -4.17  -2.79    +47.1954
iter:  54 09:13:00  -804.870650c -4.20  -2.95    +47.0173
iter:  55 09:14:44  -804.856625c -4.55  -2.93    +46.9128
iter:  56 09:16:31  -804.864248c -4.75  -3.07    +46.7907
iter:  57 09:18:18  -804.872212c -4.67  -3.11    +46.6626
iter:  58 09:20:04  -804.875351c -4.81  -3.13    +46.5742
iter:  59 09:21:51  -804.876429c -4.77  -3.17    +46.4539
iter:  60 09:23:37  -804.885003c -4.89  -3.30    +46.3724
iter:  61 09:25:23  -804.885469c -5.02  -3.30    +46.3106
iter:  62 09:27:09  -804.890983c -5.03  -3.41    +46.1980
iter:  63 09:28:55  -804.899998c -4.70  -3.41    +45.9864
iter:  64 09:30:41  -804.906534c -4.67  -3.40    +45.8076
iter:  65 09:32:28  -804.918595c -4.21  -3.36    +45.4833
iter:  66 09:34:14  -804.920908c -5.24  -3.21    +45.5396
iter:  67 09:36:01  -804.922864c -5.37  -3.22    +45.4755
iter:  68 09:37:47  -804.921813c -5.17  -3.20    +45.3924
iter:  69 09:39:33  -804.908790c -5.07  -3.17    +45.3749
iter:  70 09:41:18  -804.907285c -5.12  -3.22    +45.3747
iter:  71 09:43:05  -804.908428c -5.66  -3.21    +45.3802
iter:  72 09:44:51  -804.912124c -4.79  -3.20    +45.4081
iter:  73 09:46:38  -804.911789c -4.68  -3.12    +45.4082
iter:  74 09:48:25  -804.904669c -5.09  -3.15    +45.4169
iter:  75 09:50:12  -804.904949c -5.21  -3.31    +45.4589
iter:  76 09:51:58  -804.908748c -4.93  -3.32    +45.4672
iter:  77 09:53:45  -804.901471c -5.07  -3.23    +45.4695
iter:  78 09:55:30  -804.902144c -5.28  -3.55    +45.4892
iter:  79 09:57:17  -804.901878c -5.67  -3.60    +45.5022
iter:  80 09:59:03  -804.902259c -5.85  -3.64    +45.5093
iter:  81 10:00:50  -804.902148c -5.99  -3.72    +45.5212
iter:  82 10:02:37  -804.902651c -6.11  -3.72    +45.5318
iter:  83 10:04:23  -804.902990c -6.18  -3.79    +45.5350
iter:  84 10:06:09  -804.902501c -6.10  -3.84    +45.5409
iter:  85 10:07:56  -804.902958c -5.93  -3.88    +45.5388
iter:  86 10:09:40  -804.903032c -6.36  -3.88    +45.5380
iter:  87 10:11:28  -804.902807c -6.55  -4.04c   +45.5441
iter:  88 10:13:14  -804.902939c -6.87  -4.13c   +45.5440
iter:  89 10:15:01  -804.903067c -6.92  -4.16c   +45.5439
iter:  90 10:16:47  -804.902934c -6.85  -4.17c   +45.5452
iter:  91 10:18:34  -804.903060c -7.07  -4.21c   +45.5429
iter:  92 10:20:20  -804.903107c -6.95  -4.27c   +45.5425
iter:  93 10:22:07  -804.902898c -7.18  -4.30c   +45.5423
iter:  94 10:23:52  -804.903166c -7.30  -4.34c   +45.5406
iter:  95 10:25:38  -804.903132c -7.58c -4.40c   +45.5403

Converged after 95 iterations.

Dipole moment: (29.007399, 17.463385, 7.370667) |e|*Ang

Total magnetic moment: (0.000000, 0.000000, 45.540332)
Local magnetic moments:
   0 Cr ( 0.000000,  0.000000, -1.832029)
   1 Al ( 0.000000,  0.000000, -0.025038)
   2 Cr ( 0.000000,  0.000000,  1.761111)
   3 Co ( 0.000000,  0.000000,  1.074076)
   4 Al ( 0.000000,  0.000000, -0.024863)
   5 Ni ( 0.000000,  0.000000,  0.261791)
   6 Co ( 0.000000,  0.000000,  1.151527)
   7 Al ( 0.000000,  0.000000, -0.024911)
   8 Al ( 0.000000,  0.000000, -0.044246)
   9 Fe ( 0.000000,  0.000000,  2.276556)
  10 Fe ( 0.000000,  0.000000,  2.070614)
  11 Fe ( 0.000000,  0.000000,  1.914668)
  12 Ni ( 0.000000,  0.000000,  0.296504)
  13 Ni ( 0.000000,  0.000000,  0.189900)
  14 Co ( 0.000000,  0.000000,  1.206784)
  15 Fe ( 0.000000,  0.000000,  2.335149)
  16 Ni ( 0.000000,  0.000000,  0.182415)
  17 Co ( 0.000000,  0.000000,  0.992418)
  18 Al ( 0.000000,  0.000000, -0.024958)
  19 Cr ( 0.000000,  0.000000,  1.341119)
  20 Co ( 0.000000,  0.000000,  0.872036)
  21 Al ( 0.000000,  0.000000,  0.002582)
  22 Cr ( 0.000000,  0.000000, -2.291886)
  23 Ni ( 0.000000,  0.000000,  0.167260)
  24 Cr ( 0.000000,  0.000000, -1.990619)
  25 Fe ( 0.000000,  0.000000,  2.054028)
  26 Fe ( 0.000000,  0.000000,  2.154670)
  27 Ni ( 0.000000,  0.000000,  0.130683)
  28 Fe ( 0.000000,  0.000000,  2.352449)
  29 Co ( 0.000000,  0.000000,  0.734846)
  30 Ni ( 0.000000,  0.000000,  0.068999)
  31 Fe ( 0.000000,  0.000000,  2.235870)
  32 Cr ( 0.000000,  0.000000, -1.832331)
  33 Co ( 0.000000,  0.000000,  0.778768)
  34 Cr ( 0.000000,  0.000000,  1.552386)
  35 Ni ( 0.000000,  0.000000, -0.063349)
  36 Fe ( 0.000000,  0.000000,  2.065470)
  37 Fe ( 0.000000,  0.000000,  1.824619)
  38 Ni ( 0.000000,  0.000000,  0.261239)
  39 Al ( 0.000000,  0.000000, -0.022252)
  40 Al ( 0.000000,  0.000000, -0.015761)
  41 Co ( 0.000000,  0.000000, -0.246569)
  42 Al ( 0.000000,  0.000000,  0.001909)
  43 Ni ( 0.000000,  0.000000,  0.039378)
  44 Cr ( 0.000000,  0.000000, -1.781232)
  45 Al ( 0.000000,  0.000000, -0.009697)
  46 Al ( 0.000000,  0.000000, -0.014893)
  47 Co ( 0.000000,  0.000000,  0.870430)
  48 Fe ( 0.000000,  0.000000,  1.956977)
  49 Cr ( 0.000000,  0.000000, -1.771198)
  50 Cr ( 0.000000,  0.000000, -1.610268)
  51 Cr ( 0.000000,  0.000000,  1.305435)
  52 Ni ( 0.000000,  0.000000,  0.092084)
  53 Co ( 0.000000,  0.000000,  0.165425)
  54 Cr ( 0.000000,  0.000000,  1.328891)
  55 Al ( 0.000000,  0.000000, -0.008391)
  56 Ni ( 0.000000,  0.000000,  0.098044)
  57 Ni ( 0.000000,  0.000000,  0.281216)
  58 Co ( 0.000000,  0.000000,  0.955981)
  59 Ni ( 0.000000,  0.000000,  0.178837)
[...]
  93 Co ( 0.000000,  0.000000,  1.199945)
  94 Fe ( 0.000000,  0.000000,  2.289909)
  95 Ni ( 0.000000,  0.000000,  0.414940)
  96 Ni ( 0.000000,  0.000000,  0.292879)
  97 Cr ( 0.000000,  0.000000, -1.813390)
  98 Ni ( 0.000000,  0.000000,  0.242627)
  99 Fe ( 0.000000,  0.000000,  2.364008)
 100 Al ( 0.000000,  0.000000, -0.032261)
 101 Ni ( 0.000000,  0.000000,  0.158535)
 102 Co ( 0.000000,  0.000000,  0.408673)
 103 Al ( 0.000000,  0.000000,  0.011616)
 104 Cr ( 0.000000,  0.000000, -1.826569)
 105 Al ( 0.000000,  0.000000, -0.011723)
 106 Fe ( 0.000000,  0.000000,  2.262280)
 107 Co ( 0.000000,  0.000000,  0.621858)

Energy contributions relative to reference atoms: (reference = -3235165.067515)

Kinetic:       +252.473618
Potential:     -242.014194
External:        +0.000000
XC:            -844.574469
Entropy (-ST):   -4.110115
Local:          +31.266971
Free energy:   -806.958189
Extrapolated:  -804.903132

Spin contamination: 32.326497 electrons
Showing only first 2 kpts
                      Up                     Down
 Kpt  Band  Eigenvalues  Occupancy  Eigenvalues  Occupancy
  0   454      9.09171    0.98739      9.82382    0.04922
  0   455      9.10314    0.98588      9.83087    0.04603
  0   456      9.12444    0.98259      9.84831    0.03895
  0   457      9.12952    0.98169      9.85879    0.03521

  1   454      9.09312    0.98721      9.82436    0.04897
  1   455      9.11273    0.98448      9.84097    0.04179
  1   456      9.13363    0.98094      9.85927    0.03504
  1   457      9.15096    0.97742      9.86520    0.03310

Fermi level: 9.52773

No gap

Forces in eV/Ang:
  0 Cr    0.59446   -1.14762   -0.12364
  1 Al   -0.23812    0.21771   -0.60522
  2 Cr   -0.46740   -0.28415   -1.08465
  3 Co    0.22575   -0.10977   -0.23457
  4 Al   -0.30966   -0.15421    0.38937
  5 Ni    0.30862   -0.47293    0.62838
  6 Co   -0.29220    0.19420    0.94937
  7 Al   -0.57842    0.36156    0.04575
  8 Al   -0.57135   -0.18229    2.07269
  9 Fe    0.36292   -0.17728    0.88915
 10 Fe    0.13039   -0.49366    0.33785
 11 Fe    0.59761    0.20549    0.13849
 12 Ni    0.03195   -0.30196   -0.06611
 13 Ni   -0.00223   -0.18707    0.08784
 14 Co    0.51575   -0.00171   -0.36428
 15 Fe    0.33952   -0.25906    0.70892
 16 Ni   -0.42764   -0.16417    0.09478
 17 Co   -0.23179    0.43059    0.09910
 18 Al   -0.93398   -1.21813    0.69063
 19 Cr   -0.20018    0.21560   -0.75611
 20 Co    0.22118    0.39391    0.04290
 21 Al    1.07100   -0.18951    0.38546
 22 Cr   -0.55112   -0.28308    0.27247
 23 Ni    0.01017   -0.15658   -0.34607
 24 Cr    0.05813    1.03452    0.55054
 25 Fe   -0.26141    0.35454   -0.89482
 26 Fe    0.28847    0.12618   -0.11243
 27 Ni   -0.89837    0.22706    0.00470
 28 Fe   -0.30610    0.20099    0.31611
 29 Co    0.17233   -0.10128    0.59503
 30 Ni   -0.55113    0.00342    0.06696
 31 Fe    0.06435   -0.61583    0.64142
 32 Cr   -0.00445    0.17400   -0.67076
 33 Co   -0.23305    0.40989    0.55195
 34 Cr    0.68055    0.72784   -0.13736
 35 Ni    0.41498    0.23586   -0.30667
 36 Fe   -0.40547   -0.24891   -0.11845
 37 Fe   -0.02323    0.63005   -0.17780
 38 Ni    0.78017    0.07549   -0.22422
 39 Al    1.16322    0.39469    0.43648
 40 Al    1.75346    1.31225   -0.26772
 41 Co   -0.06026    0.41657   -0.49895
 42 Al   -1.08479    1.86146   -0.89945
 43 Ni   -0.04415   -0.49253    0.03912
 44 Cr   -1.13156    0.27949   -1.73529
 45 Al   -0.47582    1.16869   -0.84071
 46 Al    0.13419   -0.69481   -0.77725
 47 Co   -0.29621    0.31092   -0.09256
 48 Fe   -0.29028    0.34792    0.31858
 49 Cr   -0.08973    0.13599    0.43072
 50 Cr    0.79020    0.39102    0.95680
 51 Cr    0.48337   -0.47200    0.27367
 52 Ni   -0.19280   -0.04787    0.06851
 53 Co   -0.26851   -0.09795    0.17128
 54 Cr   -0.79692   -0.92299    0.60134
 55 Al   -0.44841    0.63049    0.79133
 56 Ni    0.14814   -0.32537   -0.63099
 57 Ni    0.14394   -0.18864   -0.06154
 58 Co    0.08677    0.10899   -0.01999
 59 Ni   -0.21937   -0.48909   -0.15568
[...]
 93 Co   -0.00003    0.38868   -0.11270
 94 Fe   -0.27706   -0.26961    0.08773
 95 Ni    0.16899    0.08636    0.23844
 96 Ni    0.01451    0.01902    0.77532
 97 Cr   -0.04990   -0.91597   -0.06153
 98 Ni   -0.40179   -0.05593   -0.18558
 99 Fe   -0.77855   -0.14324   -0.03051
100 Al   -0.58046   -0.58501   -0.29981
101 Ni    0.27614   -0.40052    0.09265
102 Co   -0.11697   -0.61211    0.08191
103 Al   -0.58661   -0.68886    1.14830
104 Cr    0.42702   -1.51286    0.67636
105 Al   -0.00389   -1.53575   -0.42216
106 Fe    0.46477    0.31023   -0.36259
107 Co    0.96994   -0.91627    0.45976

Date: Sat Apr 15 10:26:00 2023