User:   c.zeng@d0088
Date:   Fri Apr 14 20:08:07 2023
Arch:   x86_64
Pid:    100756
CWD:    /home/c.zeng/projects/hea-corrosion/hea-mlp/data-curation/bulk-mcmc/dft-jobs/166
Python: 3.8.1
gpaw:   /home/c.zeng/usr/installs/gpaw/source/gpaw-22.8.0/gpaw
_gpaw:  /home/c.zeng/usr/installs/gpaw/source/gpaw-22.8.0/
        _gpaw.cpython-38-x86_64-linux-gnu.so
ase:    /home/c.zeng/.local/lib/python3.8/site-packages/ase-3.22.1-py3.8.egg/ase (version 3.22.1)
numpy:  /shared/centos7/python/3.8.1/lib/python3.8/site-packages/numpy (version 1.17.4)
scipy:  /shared/centos7/python/3.8.1/lib/python3.8/site-packages/scipy (version 1.4.1)
units:  Angstrom and eV
cores: 30
OpenMP: False
OMP_NUM_THREADS: 1

Input parameters:
  convergence: {energy: 0.0001}
  kpts: [2 2 2]
  maxiter: 666
  mode: {ecut: 350.0,
         name: pw}
  occupations: {fixmagmom: False,
                name: fermi-dirac,
                width: 0.1}
  spinpol: True
  xc: PBE

System changes: positions, numbers, cell, pbc, initial_charges, initial_magmoms

Initialize ...

species:
  Fe:
    name: Iron
    id: 37abbd8d6c3c35915a9b583b742da910
    Z: 26.0
    valence: 8
    core: 18
    charge: 0.0
    file: /home/c.zeng/usr/data/gpaw-setups-0.9.20000/Fe.PBE.gz
    compensation charges: {type: gauss,
                           rc: 0.33,
                           lmax: 2}
    cutoffs: {filter: 2.06,
              core: 2.67}
    valence states:
      #              energy  rcut
      - 4s(2.00)    -5.291   1.164
      - 4p(0.00)    -1.326   1.058
      - 3d(6.00)    -7.505   1.058
      -  s          21.920   1.164
      -  p          25.885   1.058
      -  d          19.706   1.058

    # Using partial waves for Fe as LCAO basis

  Co:
    name: Cobalt
    id: 339d20d5b0b93d2de9531a1bee871d91
    Z: 27.0
    valence: 9
    core: 18
    charge: 0.0
    file: /home/c.zeng/usr/data/gpaw-setups-0.9.20000/Co.PBE.gz
    compensation charges: {type: gauss,
                           rc: 0.32,
                           lmax: 2}
    cutoffs: {filter: 1.87,
              core: 2.55}
    valence states:
      #              energy  rcut
      - 4s(2.00)    -5.469   1.005
      - 4p(0.00)    -1.277   1.058
      - 3d(7.00)    -8.205   1.005
      -  s          21.742   1.005
      -  p          25.934   1.058
      -  d          19.007   1.005

[...]

  Al:
    name: Aluminium
    id: 0292cae29f5d6237e50f6abdd43a7bdd
    Z: 13.0
    valence: 3
    core: 10
    charge: 0.0
    file: /home/c.zeng/usr/data/gpaw-setups-0.9.20000/Al.PBE.gz
    compensation charges: {type: gauss,
                           rc: 0.34,
                           lmax: 2}
    cutoffs: {filter: 1.91,
              core: 2.36}
    valence states:
      #              energy  rcut
      - 3s(2.00)    -7.753   1.085
      - 3p(1.00)    -2.712   1.085
      -  s          19.459   1.085
      -  p          24.499   1.085
      -  d           0.000   1.085

[...]

  Cr:
    name: Chromium
    id: 33f258bda2ca9f93018e70263a35547b
    Z: 24.0
    valence: 6
    core: 18
    charge: 0.0
    file: /home/c.zeng/usr/data/gpaw-setups-0.9.20000/Cr.PBE.gz
    compensation charges: {type: gauss,
                           rc: 0.35,
                           lmax: 2}
    cutoffs: {filter: 2.14,
              core: 3.04}
    valence states:
      #              energy  rcut
      - 4s(1.00)    -4.007   1.164
      - 4p(0.00)    -0.989   1.217
      - 3d(5.00)    -2.913   1.111
      -  s          23.205   1.164
      -  p          26.223   1.217
      -  d          24.299   1.111

[...]

  Ni:
    name: Nickel
    id: 0d9f38a9d6e76a2886f07bb4381f212b
    Z: 28.0
    valence: 16
    core: 12
    charge: 0.0
    file: /home/c.zeng/usr/data/gpaw-setups-0.9.20000/Ni.PBE.gz
    compensation charges: {type: gauss,
                           rc: 0.36,
                           lmax: 2}
    cutoffs: {filter: 2.14,
              core: 1.98}
    valence states:
      #              energy  rcut
      - 4s(2.00)    -5.642   1.164
      - 3p(6.00)   -71.394   1.207
      - 4p(0.00)    -1.226   1.207
      - 3d(8.00)    -8.875   1.138
      -  s          21.570   1.164
      -  d          18.337   1.138

    # Using partial waves for Ni as LCAO basis

Reference energy: -3382523.201499  # eV

Spin-polarized calculation.
Magnetic moment: 128.800000

Convergence criteria:
 Maximum [total energy] change in last 3 cyles: 0.0001 eV / electron
 Maximum integral of absolute [dens]ity change: 0.0001 electrons / valence electron
 Maximum integral of absolute [eigenst]ate change: 4e-08 eV^2 / valence electron
 Maximum number of scf [iter]ations: 666
 (Square brackets indicate name in SCF output, whereas a 'c' in
 the SCF output indicates the quantity has converged.)

Symmetries present (total): 1

  ( 1  0  0)
  ( 0  1  0)
  ( 0  0  1)

8 k-points: 2 x 2 x 2 Monkhorst-Pack grid
4 k-points in the irreducible part of the Brillouin zone
       k-points in crystal coordinates                weights
   0:     0.25000000   -0.25000000   -0.25000000          2/8
   1:     0.25000000   -0.25000000    0.25000000          2/8
   2:     0.25000000    0.25000000   -0.25000000          2/8
   3:     0.25000000    0.25000000    0.25000000          2/8

Wave functions: Plane wave expansion
  Cutoff energy: 350.000 eV
  Number of coefficients (min, max): 18865, 18865
  Pulay-stress correction: 0.000000 eV/Ang^3 (de/decut=0.000000)
  Using FFTW library
  ScaLapack parameters: grid=1x1, blocksize=None
  Wavefunction extrapolation:
    Improved wavefunction reuse through dual PAW basis

Occupation numbers: Fermi-Dirac:
  width: 0.1000  # eV

Eigensolver
   Davidson(niter=2)

Densities:
  Coarse grid: 48*48*48 grid
  Fine grid: 96*96*96 grid
  Total Charge: 0.000000

Density mixing:
  Method: difference
  Backend: pulay
  Linear mixing parameter: 0.05
  old densities: 5
  Damping of long wavelength oscillations: 50

Hamiltonian:
  XC and Coulomb potentials evaluated on a 96*96*96 grid
  Using the PBE Exchange-Correlation functional
  External potential:
    NoExternalPotential

XC parameters: PBE with 2 nearest neighbor stencil

Total number of cores used: 30
Parallelization over k-points: 2
Domain decomposition: 5 x 3 x 1

Number of atoms: 108
Number of atomic orbitals: 961
Number of bands in calculation: 649
Number of valence electrons: 945
Bands to converge: occupied

... initialized

Initializing position-dependent things.

Density initialized from atomic densities
Creating initial wave functions:
  649 bands from LCAO basis set

       /|                     Co   |
      / |            Co Co     CrCo|
     /  |       Cr       Ni       Cr
    /   |Fe       Fel     CFer     |
   /i   | Coo        Co      Fe    |
  /  CrAl   NCr       Ni           |
 *      Ni     FeCo   AlFeCrFe   Cr|
 |      |CoNi   CrNiAl   NiAlNi   Fe
 | CrFe | AlNi   AlAlFe     Ni     |
 |     Co  FeCr Cr  Fe CoNi  CrNi  |
 |      CoNi   AlCr   FeCoFeNi  Co |
 |Al    |FeCr   AlCrCo   CrFe     Co
 |      .-CrCo-----NiCr-CoFeCrNi---.
 |     /   Ni Fe    Cr CoNi    Al /
 |    Fe       AFei       Al     /
 |   /  Fe         Al       Cr  /
 |  /      Fe       Al       Co/
 | / Co     Fe       Ni Ni    /
 |/             Cr       Ni  /
 *--------Co----------------*

Positions:
   0 Fe    10.764147   10.861293   10.805330    ( 0.0000,  0.0000,  2.0000)
   1 Co    10.786221    1.792513    1.813624    ( 0.0000,  0.0000,  0.0000)
   2 Co     1.744156    0.036560    1.851269    ( 0.0000,  0.0000,  1.5000)
   3 Al     1.736571    1.831142   10.798805    ( 0.0000,  0.0000,  0.0000)
   4 Co     3.575126    0.057318    0.061759    ( 0.0000,  0.0000,  0.0000)
   5 Fe     3.594289    1.817617    1.845577    ( 0.0000,  0.0000,  2.0000)
   6 Fe     5.429813   10.817005    1.865054    ( 0.0000,  0.0000,  1.5000)
   7 Cr     5.429608    1.929425    0.057134    ( 0.0000,  0.0000,  0.0000)
   8 Fe     7.316909   10.723332    0.087382    ( 0.0000,  0.0000,  0.0000)
   9 Al     7.263142    1.825786    1.869404    ( 0.0000,  0.0000,  2.1000)
  10 Ni     9.063554    0.025226    1.863474    ( 0.0000,  0.0000,  1.5000)
  11 Ni     9.049217    1.829703    0.033106    ( 0.0000,  0.0000,  2.1000)
  12 Ni     0.004792    3.558981   10.794801    ( 0.0000,  0.0000,  1.5000)
  13 Al    10.759710    5.390697    1.778165    ( 0.0000,  0.0000,  0.0000)
  14 Fe     1.733585    3.561849    1.761112    ( 0.0000,  0.0000,  2.0000)
  15 Fe     1.776899    5.391834   10.795505    ( 0.0000,  0.0000,  0.0000)
  16 Fe     3.565452    3.619360   10.832619    ( 0.0000,  0.0000,  2.1000)
  17 Fe     3.633221    5.394614    1.719551    ( 0.0000,  0.0000,  0.0000)
  18 Ni     5.471624    3.659114    1.836033    ( 0.0000,  0.0000,  2.1000)
  19 Fe     5.440212    5.373060   -0.002773    ( 0.0000,  0.0000,  2.0000)
  20 Ni     7.258997    3.609080    0.031294    ( 0.0000,  0.0000,  0.0000)
  21 Co     7.268941    5.378362    1.785274    ( 0.0000,  0.0000,  2.0000)
  22 Al     9.030724    3.577636    1.833728    ( 0.0000,  0.0000,  2.1000)
  23 Fe     9.040420    5.372281   10.801110    ( 0.0000,  0.0000,  0.0000)
  24 Co    10.791663    7.196206   10.792486    ( 0.0000,  0.0000,  1.5000)
  25 Co    10.758434    9.040387    1.848239    ( 0.0000,  0.0000,  0.0000)
  26 Cr     1.690487    7.202493    1.786032    ( 0.0000,  0.0000,  0.0000)
  27 Ni     1.652691    8.981047    0.027217    ( 0.0000,  0.0000,  0.0000)
  28 Al     3.631241    7.164437    0.034633    ( 0.0000,  0.0000,  0.0000)
  29 Al     3.625452    9.063759    1.801678    ( 0.0000,  0.0000,  0.0000)
  30 Ni     5.490852    7.187095    1.746342    ( 0.0000,  0.0000,  2.0000)
  31 Cr     5.426935    8.989152    0.009861    ( 0.0000,  0.0000,  2.0000)
  32 Co     7.229122    7.237075   -0.008698    ( 0.0000,  0.0000,  1.5000)
  33 Cr     7.249194    8.995850    1.810713    ( 0.0000,  0.0000,  0.0000)
  34 Cr     9.052073    7.204300    1.764218    ( 0.0000,  0.0000,  2.1000)
  35 Co     9.092553    8.989639   10.808760    ( 0.0000,  0.0000,  1.5000)
  36 Cr    -0.000975   10.826235    3.639789    ( 0.0000,  0.0000,  1.5000)
  37 Al    10.822772    1.771770    5.422044    ( 0.0000,  0.0000,  2.1000)
  38 Ni     1.754263   10.802084    5.428872    ( 0.0000,  0.0000,  2.1000)
  39 Fe     1.741873    1.774270    3.610801    ( 0.0000,  0.0000,  0.0000)
  40 Al     3.591183   10.794152    3.612143    ( 0.0000,  0.0000,  2.0000)
  41 Cr     3.593088    1.736744    5.455177    ( 0.0000,  0.0000,  0.0000)
  42 Al     5.437150   10.794563    5.400804    ( 0.0000,  0.0000,  2.0000)
  43 Fe     5.451931    1.783251    3.601387    ( 0.0000,  0.0000,  1.5000)
  44 Al     7.226222    0.007781    3.626209    ( 0.0000,  0.0000,  0.0000)
  45 Co     7.236069    1.766512    5.381392    ( 0.0000,  0.0000,  2.1000)
  46 Co     9.034587   10.848850    5.403844    ( 0.0000,  0.0000,  2.1000)
  47 Ni     9.031558    1.804946    3.616730    ( 0.0000,  0.0000,  1.5000)
  48 Ni    10.773885    3.543973    3.617867    ( 0.0000,  0.0000,  1.5000)
  49 Ni    10.772186    5.358409    5.454917    ( 0.0000,  0.0000,  0.0000)
  50 Co     1.757531    3.575678    5.428937    ( 0.0000,  0.0000,  2.1000)
  51 Fe     1.621766    5.386986    3.572550    ( 0.0000,  0.0000,  0.0000)
[...]
  53 Cr     3.550606    5.397969    5.404753    ( 0.0000,  0.0000,  2.0000)
  54 Cr     5.402221    3.610887    5.370193    ( 0.0000,  0.0000,  2.0000)
  55 Cr     5.460241    5.433590    3.575613    ( 0.0000,  0.0000,  2.0000)
  56 Cr     7.250157    3.615183    3.623169    ( 0.0000,  0.0000,  1.5000)
  57 Co     7.248707    5.410715    5.362099    ( 0.0000,  0.0000,  1.5000)
  58 Fe     9.058230    3.565236    5.380082    ( 0.0000,  0.0000,  2.1000)
  59 Fe     9.074071    5.365323    3.589008    ( 0.0000,  0.0000,  2.1000)
[...]
  93 Ni     7.211073    5.388295    9.040181    ( 0.0000,  0.0000,  0.0000)
  94 Cr     9.095052    3.598119    8.980636    ( 0.0000,  0.0000,  2.0000)
  95 Al     9.078205    5.402416    7.227759    ( 0.0000,  0.0000,  0.0000)
  96 Cr    10.763411    7.244682    7.260285    ( 0.0000,  0.0000,  1.5000)
  97 Cr    10.795093    9.034566    8.977574    ( 0.0000,  0.0000,  2.0000)
  98 Co     1.740045    7.178947    8.984662    ( 0.0000,  0.0000,  2.1000)
  99 Co     1.734429    9.080207    7.236696    ( 0.0000,  0.0000,  1.5000)
 100 Fe     3.580482    7.154277    7.248285    ( 0.0000,  0.0000,  0.0000)
 101 Cr     3.612835    8.970898    8.958086    ( 0.0000,  0.0000,  0.0000)
 102 Al     5.410943    7.155878    9.067049    ( 0.0000,  0.0000,  0.0000)
 103 Co     5.466441    9.064062    7.220963    ( 0.0000,  0.0000,  2.1000)
 104 Fe     7.307203    7.271549    7.289738    ( 0.0000,  0.0000,  0.0000)
 105 Ni     7.271073    9.044683    9.027879    ( 0.0000,  0.0000,  1.5000)
 106 Cr     9.081743    7.219805    9.041166    ( 0.0000,  0.0000,  2.1000)
 107 Fe     9.063684    9.083009    7.213865    ( 0.0000,  0.0000,  2.0000)

Unit cell:
           periodic     x           y           z      points  spacing
  1. axis:    yes   10.820500    0.000000    0.000000    48     0.2254
  2. axis:    yes    0.000000   10.820500    0.000000    48     0.2254
  3. axis:    yes    0.000000    0.000000   10.820500    48     0.2254

  Lengths:  10.820500  10.820500  10.820500
  Angles:   90.000000  90.000000  90.000000

Effective grid spacing dv^(1/3) = 0.2254

     iter     time        total  log10-change:  magmom
                         energy  eigst   dens
iter:   1 20:11:43  -895.210755                  +128.4417
iter:   2 20:13:09  -859.121968  -0.41  -1.31    +95.4671
iter:   3 20:14:34  -843.031490  -0.95  -1.30    +65.7464
iter:   4 20:15:59  -833.204718  -1.26  -1.37    +56.6201
iter:   5 20:17:24  -825.957379  -1.85  -1.40    +52.0018
iter:   6 20:18:50  -826.995538  -1.97  -1.47    +49.8337
iter:   7 20:20:15  -827.262032  -1.67  -1.49    +48.5011
iter:   8 20:21:40  -824.256068  -1.79  -1.54    +48.1185
iter:   9 20:23:05  -828.505377  -1.81  -1.65    +48.7193
iter:  10 20:24:30  -823.703699  -1.95  -1.65    +48.2611
iter:  11 20:25:55  -824.514950  -2.19  -1.78    +48.6616
iter:  12 20:27:20  -822.623392  -2.37  -1.80    +49.2875
iter:  13 20:28:45  -822.942674  -2.54  -1.87    +49.9967
iter:  14 20:30:10  -823.317700  -2.54  -1.91    +51.0359
iter:  15 20:31:35  -824.373868  -2.50  -1.92    +51.6881
iter:  16 20:33:01  -823.983120  -2.44  -1.92    +53.2344
iter:  17 20:34:26  -824.565539  -2.59  -1.96    +53.6723
iter:  18 20:35:51  -823.734112  -2.65  -1.97    +54.1626
iter:  19 20:37:16  -824.004011  -2.80  -2.09    +54.9759
iter:  20 20:38:41  -823.753713  -2.96  -2.09    +55.7651
iter:  21 20:40:06  -824.055232  -3.11  -2.14    +56.4582
iter:  22 20:41:32  -824.280115  -3.01  -2.17    +56.7151
iter:  23 20:42:57  -824.187675  -3.23  -2.14    +57.2663
iter:  24 20:44:22  -824.308740  -3.19  -2.19    +57.8420
iter:  25 20:45:47  -824.556894  -3.17  -2.22    +58.1398
iter:  26 20:47:12  -824.620618  -3.10  -2.22    +58.3154
iter:  27 20:48:38  -824.732377  -3.15  -2.26    +58.4201
iter:  28 20:50:03  -825.086738  -2.94  -2.25    +58.7885
iter:  29 20:51:28  -824.782268  -3.13  -2.23    +58.6535
iter:  30 20:52:53  -824.611801  -3.42  -2.30    +58.6801
iter:  31 20:54:19  -824.625878  -3.56  -2.39    +58.6786
iter:  32 20:55:44  -824.580109c -4.01  -2.38    +58.7077
iter:  33 20:57:09  -824.656618c -3.85  -2.44    +58.7538
iter:  34 20:58:34  -824.745955  -3.83  -2.44    +58.7395
iter:  35 20:59:59  -824.930669  -3.43  -2.44    +58.7277
iter:  36 21:01:24  -824.844383  -3.51  -2.39    +58.6458
iter:  37 21:02:50  -825.211006  -3.23  -2.50    +58.5551
iter:  38 21:04:15  -824.899561  -3.41  -2.39    +58.5315
iter:  39 21:05:40  -824.951137  -3.47  -2.58    +58.3677
iter:  40 21:07:06  -824.894944c -3.85  -2.53    +58.3638
iter:  41 21:08:30  -824.896720c -3.92  -2.65    +58.2831
iter:  42 21:09:55  -824.907806c -4.32  -2.70    +58.2931
iter:  43 21:11:19  -824.931718c -4.64  -2.73    +58.2881
iter:  44 21:12:43  -825.032019  -3.92  -2.77    +58.2246
iter:  45 21:14:07  -825.044125  -4.14  -2.74    +58.2350
iter:  46 21:15:31  -825.066109c -4.08  -2.87    +58.1882
iter:  47 21:16:55  -825.073005c -4.27  -2.95    +58.1584
iter:  48 21:18:19  -825.083429c -4.53  -3.13    +58.1179
iter:  49 21:19:43  -825.102411c -4.58  -3.20    +58.0931
iter:  50 21:21:07  -825.121663c -4.72  -3.27    +58.0411
iter:  51 21:22:31  -825.138881c -4.94  -3.15    +57.9768
iter:  52 21:23:55  -825.165409c -4.64  -3.10    +57.8354
iter:  53 21:25:19  -825.218908c -4.06  -3.04    +57.4946
iter:  54 21:26:43  -825.218486c -4.63  -2.94    +57.4055
iter:  55 21:28:07  -825.225433c -4.77  -2.92    +57.2741
iter:  56 21:29:31  -825.230312c -4.60  -2.96    +57.1467
iter:  57 21:30:55  -825.253423c -4.43  -2.91    +57.0757
iter:  58 21:32:18  -825.253488c -3.84  -2.84    +57.0026
iter:  59 21:33:42  -825.243418c -4.04  -2.83    +56.9461
iter:  60 21:35:06  -825.245083c -4.10  -2.87    +56.7872
iter:  61 21:36:30  -825.225544c -4.29  -2.87    +56.6853
iter:  62 21:37:54  -825.209799c -4.82  -2.97    +56.5484
iter:  63 21:39:18  -825.213313c -5.16  -3.11    +56.4461
iter:  64 21:40:41  -825.223659c -4.94  -3.13    +56.3218
iter:  65 21:42:05  -825.224989c -4.82  -3.11    +56.2628
iter:  66 21:43:29  -825.227841c -4.74  -3.16    +56.1791
iter:  67 21:44:53  -825.229171c -4.93  -3.24    +56.0713
iter:  68 21:46:17  -825.231976c -5.25  -3.31    +55.9959
iter:  69 21:47:41  -825.233332c -5.54  -3.35    +55.9519
iter:  70 21:49:04  -825.239788c -5.32  -3.39    +55.8222
iter:  71 21:50:28  -825.232743c -5.61  -3.38    +55.9605
iter:  72 21:51:52  -825.223075c -5.01  -3.40    +56.1722
iter:  73 21:53:16  -825.235426c -5.08  -3.43    +55.9564
iter:  74 21:54:40  -825.230840c -5.37  -3.40    +56.0625
iter:  75 21:56:04  -825.240023c -5.09  -3.40    +55.8916
iter:  76 21:57:28  -825.237375c -5.66  -3.37    +55.9230
iter:  77 21:58:52  -825.242253c -5.46  -3.45    +55.8013
iter:  78 22:00:16  -825.245415c -5.76  -3.43    +55.7664
iter:  79 22:01:39  -825.249537c -5.61  -3.42    +55.6891
iter:  80 22:03:03  -825.252689c -5.52  -3.42    +55.6303
iter:  81 22:04:27  -825.256559c -5.73  -3.37    +55.5722
iter:  82 22:05:51  -825.251990c -5.48  -3.35    +55.6629
iter:  83 22:07:15  -825.259971c -5.36  -3.33    +55.5126
iter:  84 22:08:39  -825.256879c -5.70  -3.34    +55.5311
iter:  85 22:10:03  -825.263379c -5.40  -3.46    +55.4330
iter:  86 22:11:27  -825.273214c -4.83  -3.50    +55.3195
iter:  87 22:12:50  -825.271327c -5.35  -3.41    +55.2773
iter:  88 22:14:14  -825.276182c -5.24  -3.55    +55.1668
iter:  89 22:15:38  -825.279216c -5.30  -3.57    +55.0653
iter:  90 22:17:02  -825.282387c -5.75  -3.56    +55.0030
iter:  91 22:18:25  -825.299116c -4.71  -3.54    +54.7184
iter:  92 22:19:49  -825.288330c -5.25  -3.42    +54.9305
iter:  93 22:21:13  -825.306710c -4.73  -3.44    +54.6371
iter:  94 22:22:36  -825.306797c -5.28  -3.34    +54.6395
iter:  95 22:24:00  -825.308768c -5.26  -3.32    +54.5360
iter:  96 22:25:24  -825.310557c -5.11  -3.40    +54.4685
iter:  97 22:26:47  -825.313333c -5.34  -3.37    +54.3895
iter:  98 22:28:11  -825.324224c -4.69  -3.41    +54.3081
iter:  99 22:29:35  -825.315071c -5.30  -3.21    +54.2974
iter: 100 22:30:58  -825.315850c -5.48  -3.43    +54.2125
iter: 101 22:32:22  -825.316237c -5.86  -3.46    +54.1746
iter: 102 22:33:45  -825.317915c -5.42  -3.48    +54.1395
iter: 103 22:35:09  -825.317511c -6.03  -3.43    +54.1331
iter: 104 22:36:33  -825.318763c -5.72  -3.49    +54.1130
iter: 105 22:37:56  -825.319062c -5.82  -3.46    +54.1009
iter: 106 22:39:20  -825.319362c -6.09  -3.50    +54.0629
iter: 107 22:40:43  -825.319575c -6.31  -3.51    +54.0152
iter: 108 22:42:07  -825.320973c -6.02  -3.52    +53.9674
iter: 109 22:43:30  -825.319944c -5.22  -3.45    +53.9716
iter: 110 22:44:54  -825.319222c -5.03  -3.54    +53.9474
iter: 111 22:46:17  -825.318436c -5.87  -3.62    +53.9616
iter: 112 22:47:41  -825.318250c -6.17  -3.81    +53.9718
iter: 113 22:49:04  -825.318271c -6.44  -3.86    +53.9680
iter: 114 22:50:28  -825.318128c -6.38  -3.91    +53.9709
iter: 115 22:51:52  -825.318156c -6.29  -3.90    +53.9710
iter: 116 22:53:16  -825.318186c -6.36  -4.05c   +53.9706
iter: 117 22:54:40  -825.317994c -6.68  -4.02c   +53.9682
iter: 118 22:56:04  -825.318103c -6.84  -4.19c   +53.9677
iter: 119 22:57:27  -825.318048c -6.98  -4.20c   +53.9694
iter: 120 22:58:51  -825.318087c -7.24  -4.27c   +53.9691
iter: 121 23:00:15  -825.318153c -7.02  -4.36c   +53.9672
iter: 122 23:01:38  -825.318196c -7.25  -4.35c   +53.9681
iter: 123 23:03:02  -825.318202c -7.38  -4.43c   +53.9643
iter: 124 23:04:26  -825.318279c -7.50c -4.51c   +53.9636

Converged after 124 iterations.

Dipole moment: (29.213738, -3.893558, -10.235873) |e|*Ang

Total magnetic moment: (0.000000, 0.000000, 53.963602)
Local magnetic moments:
   0 Fe ( 0.000000,  0.000000,  2.243845)
   1 Co ( 0.000000,  0.000000,  1.321087)
   2 Co ( 0.000000,  0.000000,  1.323806)
   3 Al ( 0.000000,  0.000000, -0.049668)
   4 Co ( 0.000000,  0.000000,  1.384447)
   5 Fe ( 0.000000,  0.000000,  2.373420)
   6 Fe ( 0.000000,  0.000000,  1.900602)
   7 Cr ( 0.000000,  0.000000, -2.408488)
   8 Fe ( 0.000000,  0.000000,  2.228243)
   9 Al ( 0.000000,  0.000000, -0.014471)
  10 Ni ( 0.000000,  0.000000,  0.163630)
  11 Ni ( 0.000000,  0.000000,  0.137484)
  12 Ni ( 0.000000,  0.000000,  0.161125)
  13 Al ( 0.000000,  0.000000, -0.023280)
  14 Fe ( 0.000000,  0.000000,  2.182899)
  15 Fe ( 0.000000,  0.000000, -1.593231)
  16 Fe ( 0.000000,  0.000000,  2.078832)
  17 Fe ( 0.000000,  0.000000,  2.115620)
  18 Ni ( 0.000000,  0.000000,  0.215955)
  19 Fe ( 0.000000,  0.000000,  2.298525)
  20 Ni ( 0.000000,  0.000000,  0.119990)
  21 Co ( 0.000000,  0.000000,  1.190264)
  22 Al ( 0.000000,  0.000000, -0.022902)
  23 Fe ( 0.000000,  0.000000,  2.124168)
  24 Co ( 0.000000,  0.000000,  0.251218)
  25 Co ( 0.000000,  0.000000,  1.015390)
  26 Cr ( 0.000000,  0.000000, -1.451064)
  27 Ni ( 0.000000,  0.000000,  0.127344)
  28 Al ( 0.000000,  0.000000, -0.006046)
  29 Al ( 0.000000,  0.000000, -0.018938)
  30 Ni ( 0.000000,  0.000000,  0.337379)
  31 Cr ( 0.000000,  0.000000,  1.769000)
  32 Co ( 0.000000,  0.000000,  0.935258)
  33 Cr ( 0.000000,  0.000000, -1.357255)
  34 Cr ( 0.000000,  0.000000, -1.644698)
  35 Co ( 0.000000,  0.000000,  0.985817)
  36 Cr ( 0.000000,  0.000000, -1.634520)
  37 Al ( 0.000000,  0.000000, -0.025713)
  38 Ni ( 0.000000,  0.000000,  0.131080)
  39 Fe ( 0.000000,  0.000000,  2.279499)
  40 Al ( 0.000000,  0.000000, -0.040434)
  41 Cr ( 0.000000,  0.000000, -2.028970)
  42 Al ( 0.000000,  0.000000, -0.024850)
  43 Fe ( 0.000000,  0.000000,  1.886909)
  44 Al ( 0.000000,  0.000000, -0.027322)
  45 Co ( 0.000000,  0.000000,  0.724635)
  46 Co ( 0.000000,  0.000000,  0.893715)
  47 Ni ( 0.000000,  0.000000,  0.148479)
  48 Ni ( 0.000000,  0.000000,  0.389719)
  49 Ni ( 0.000000,  0.000000,  0.265041)
  50 Co ( 0.000000,  0.000000,  1.196591)
  51 Fe ( 0.000000,  0.000000,  2.346851)
  52 Co ( 0.000000,  0.000000,  1.072484)
  53 Cr ( 0.000000,  0.000000, -1.703087)
  54 Cr ( 0.000000,  0.000000, -1.447794)
  55 Cr ( 0.000000,  0.000000,  1.455176)
  56 Cr ( 0.000000,  0.000000, -1.643334)
  57 Co ( 0.000000,  0.000000,  1.105481)
  58 Fe ( 0.000000,  0.000000,  2.208904)
  59 Fe ( 0.000000,  0.000000,  2.217024)
[...]
  93 Ni ( 0.000000,  0.000000,  0.315077)
  94 Cr ( 0.000000,  0.000000,  0.921688)
  95 Al ( 0.000000,  0.000000, -0.019065)
  96 Cr ( 0.000000,  0.000000,  0.516143)
  97 Cr ( 0.000000,  0.000000, -0.015548)
  98 Co ( 0.000000,  0.000000, -0.083904)
  99 Co ( 0.000000,  0.000000,  0.708087)
 100 Fe ( 0.000000,  0.000000, -1.825341)
 101 Cr ( 0.000000,  0.000000, -2.087402)
 102 Al ( 0.000000,  0.000000, -0.012194)
 103 Co ( 0.000000,  0.000000,  1.125180)
 104 Fe ( 0.000000,  0.000000,  2.483844)
 105 Ni ( 0.000000,  0.000000,  0.295402)
 106 Cr ( 0.000000,  0.000000, -1.159838)
 107 Fe ( 0.000000,  0.000000,  2.024866)

Energy contributions relative to reference atoms: (reference = -3382523.201499)

Kinetic:       +215.283827
Potential:     -224.646195
External:        +0.000000
XC:            -847.146770
Entropy (-ST):   -4.226381
Local:          +33.304049
Free energy:   -827.431470
Extrapolated:  -825.318279

Spin contamination: 30.596659 electrons
Showing only first 2 kpts
                      Up                     Down
 Kpt  Band  Eigenvalues  Occupancy  Eigenvalues  Occupancy
  0   470      9.19096    0.99264     10.00707    0.03707
  0   471      9.21059    0.99105     10.02969    0.02979
  0   472      9.21539    0.99062     10.03755    0.02760
  0   473      9.22888    0.98928     10.04576    0.02548

  1   470      9.19113    0.99262     10.01505    0.03432
  1   471      9.20038    0.99192     10.02219    0.03203
  1   472      9.21976    0.99020     10.03890    0.02724
  1   473      9.22622    0.98956     10.05007    0.02443

Fermi level: 9.68135

No gap

Forces in eV/Ang:
  0 Fe   -0.04326   -0.58205    0.43394
  1 Co    0.52331   -0.30068    0.10763
  2 Co    0.04916   -0.19709   -0.50821
  3 Al    0.26688   -0.28961   -0.08043
  4 Co    0.28700   -0.13566   -0.49397
  5 Fe    0.11791    0.43872   -0.30445
  6 Fe    0.29438    0.41809   -0.78982
  7 Cr   -1.13755   -0.99891   -0.88797
  8 Fe   -0.41701    0.47199   -0.46933
  9 Al   -0.24433   -0.50744   -1.24773
 10 Ni   -0.20739   -0.21103   -0.36495
 11 Ni   -0.25616   -0.25337   -0.41873
 12 Ni   -0.33065    0.57750    0.03136
 13 Al    0.96330   -0.05445   -0.36716
 14 Fe    0.49351    0.30157    0.56686
 15 Fe   -0.19069    0.00110   -0.46128
 16 Fe    0.36004   -0.04836    0.16595
 17 Fe   -0.48057   -0.74656    0.68884
 18 Ni   -0.37904   -0.18389    0.01098
 19 Fe    0.60828   -0.40995    0.35899
 20 Ni   -0.15385   -0.09098   -0.43844
 21 Co    0.03326    0.53259    0.00962
 22 Al    0.48025   -0.24785   -0.70588
 23 Fe   -0.58822    0.72505   -0.51020
 24 Co    0.45075   -0.00149   -0.14709
 25 Co    0.31763   -0.25143   -0.21155
 26 Cr   -0.68599    0.08752    0.04196
 27 Ni    0.74509    0.36401   -0.24010
 28 Al   -1.11206    0.12586    0.02622
 29 Al   -0.67705    0.48537   -1.12565
 30 Ni   -0.06717    0.07176    0.44491
 31 Cr    0.47314    1.13637   -0.53302
 32 Co    0.52777   -0.13957    0.19457
 33 Cr    0.07274   -0.01245   -0.49845
 34 Cr   -0.52430    0.46196   -0.16623
 35 Co   -0.28152   -0.05486    0.20909
 36 Cr   -0.02866   -0.60704   -0.96094
 37 Al    0.03885   -0.07719    0.10145
 38 Ni    0.38975    0.01909    0.21257
 39 Fe    0.40918    0.52761   -0.15291
 40 Al   -0.58691    0.76244   -0.30317
 41 Cr   -0.70786    1.27557    0.12943
 42 Al    0.41486   -0.20091    1.09242
 43 Fe   -0.55509    0.68137    0.22354
 44 Al    1.01945   -0.10191    0.21641
 45 Co    0.05386    0.49280    0.48787
 46 Co   -0.21972   -0.31543    0.04101
 47 Ni   -0.07367   -0.20924    0.01914
 48 Ni    0.54342    0.39114   -0.05886
 49 Ni    0.36022    0.27140   -0.34526
 50 Co    0.71596    0.22110   -0.31157
 51 Fe    1.17140   -0.15484    0.42040
 52 Co   -0.28198    0.00188    0.37765
 53 Cr   -0.46730   -0.73289   -0.13180
 54 Cr    0.26777    0.24976    0.19246
 55 Cr    0.12299   -0.68198    0.24690
 56 Cr   -0.66976    0.56986    1.18892
 57 Co    0.18345    0.20375    0.24908
 58 Fe   -0.70560    0.06923    0.23964
 59 Fe   -0.71918    0.88291    0.78987
[...]
 93 Ni    0.31474   -0.21001   -0.20490
 94 Cr    0.30672    0.21910    0.45619
 95 Al   -1.29499    0.03789   -0.86025
 96 Cr    0.27444    0.33442    0.91540
 97 Cr    0.49418   -0.43733    0.48168
 98 Co   -0.10698    0.26637   -0.09846
 99 Co    0.13986   -0.37434    0.27691
100 Fe   -0.56999    0.44389   -0.06058
101 Cr   -0.35297    1.01538    0.20562
102 Al    1.21219    0.16561   -1.28569
103 Co   -0.07536   -0.31436    0.44130
104 Fe   -0.13220   -0.14259   -0.55545
105 Ni   -0.04955    0.16284    0.04056
106 Cr   -0.61661    0.49470    0.43170
107 Fe   -0.49532    0.14574   -0.22653

Date: Fri Apr 14 23:04:45 2023