User:   c.zeng@d0054
Date:   Thu Apr 13 20:19:14 2023
Arch:   x86_64
Pid:    137248
CWD:    /home/c.zeng/projects/hea-corrosion/hea-mlp/data-curation/bulk-md/dft-jobs/42
Python: 3.8.1
gpaw:   /home/c.zeng/usr/installs/gpaw/source/gpaw-22.8.0/gpaw
_gpaw:  /home/c.zeng/usr/installs/gpaw/source/gpaw-22.8.0/
        _gpaw.cpython-38-x86_64-linux-gnu.so
ase:    /home/c.zeng/.local/lib/python3.8/site-packages/ase-3.22.1-py3.8.egg/ase (version 3.22.1)
numpy:  /shared/centos7/python/3.8.1/lib/python3.8/site-packages/numpy (version 1.17.4)
scipy:  /shared/centos7/python/3.8.1/lib/python3.8/site-packages/scipy (version 1.4.1)
units:  Angstrom and eV
cores: 30
OpenMP: False
OMP_NUM_THREADS: 1

Input parameters:
  convergence: {energy: 0.0001}
  kpts: [2 2 2]
  maxiter: 666
  mode: {ecut: 350.0,
         name: pw}
  occupations: {fixmagmom: False,
                name: fermi-dirac,
                width: 0.1}
  spinpol: True
  xc: PBE

System changes: positions, numbers, cell, pbc, initial_charges, initial_magmoms

Initialize ...

species:
  Co:
    name: Cobalt
    id: 339d20d5b0b93d2de9531a1bee871d91
    Z: 27.0
    valence: 9
    core: 18
    charge: 0.0
    file: /home/c.zeng/usr/data/gpaw-setups-0.9.20000/Co.PBE.gz
    compensation charges: {type: gauss,
                           rc: 0.32,
                           lmax: 2}
    cutoffs: {filter: 1.87,
              core: 2.55}
    valence states:
      #              energy  rcut
      - 4s(2.00)    -5.469   1.005
      - 4p(0.00)    -1.277   1.058
      - 3d(7.00)    -8.205   1.005
      -  s          21.742   1.005
      -  p          25.934   1.058
      -  d          19.007   1.005

    # Using partial waves for Co as LCAO basis

  Ni:
    name: Nickel
    id: 0d9f38a9d6e76a2886f07bb4381f212b
    Z: 28.0
    valence: 16
    core: 12
    charge: 0.0
    file: /home/c.zeng/usr/data/gpaw-setups-0.9.20000/Ni.PBE.gz
    compensation charges: {type: gauss,
                           rc: 0.36,
                           lmax: 2}
    cutoffs: {filter: 2.14,
              core: 1.98}
    valence states:
      #              energy  rcut
      - 4s(2.00)    -5.642   1.164
      - 3p(6.00)   -71.394   1.207
      - 4p(0.00)    -1.226   1.207
      - 3d(8.00)    -8.875   1.138
      -  s          21.570   1.164
      -  d          18.337   1.138

[...]

  Al:
    name: Aluminium
    id: 0292cae29f5d6237e50f6abdd43a7bdd
    Z: 13.0
    valence: 3
    core: 10
    charge: 0.0
    file: /home/c.zeng/usr/data/gpaw-setups-0.9.20000/Al.PBE.gz
    compensation charges: {type: gauss,
                           rc: 0.34,
                           lmax: 2}
    cutoffs: {filter: 1.91,
              core: 2.36}
    valence states:
      #              energy  rcut
      - 3s(2.00)    -7.753   1.085
      - 3p(1.00)    -2.712   1.085
      -  s          19.459   1.085
      -  p          24.499   1.085
      -  d           0.000   1.085

[...]

  Cr:
    name: Chromium
    id: 33f258bda2ca9f93018e70263a35547b
    Z: 24.0
    valence: 6
    core: 18
    charge: 0.0
    file: /home/c.zeng/usr/data/gpaw-setups-0.9.20000/Cr.PBE.gz
    compensation charges: {type: gauss,
                           rc: 0.35,
                           lmax: 2}
    cutoffs: {filter: 2.14,
              core: 3.04}
    valence states:
      #              energy  rcut
      - 4s(1.00)    -4.007   1.164
      - 4p(0.00)    -0.989   1.217
      - 3d(5.00)    -2.913   1.111
      -  s          23.205   1.164
      -  p          26.223   1.217
      -  d          24.299   1.111

[...]

  Fe:
    name: Iron
    id: 37abbd8d6c3c35915a9b583b742da910
    Z: 26.0
    valence: 8
    core: 18
    charge: 0.0
    file: /home/c.zeng/usr/data/gpaw-setups-0.9.20000/Fe.PBE.gz
    compensation charges: {type: gauss,
                           rc: 0.33,
                           lmax: 2}
    cutoffs: {filter: 2.06,
              core: 2.67}
    valence states:
      #              energy  rcut
      - 4s(2.00)    -5.291   1.164
      - 4p(0.00)    -1.326   1.058
      - 3d(6.00)    -7.505   1.058
      -  s          21.920   1.164
      -  p          25.885   1.058
      -  d          19.706   1.058

    # Using partial waves for Fe as LCAO basis

Reference energy: -3548577.034362  # eV

Spin-polarized calculation.
Magnetic moment: 136.400000

Convergence criteria:
 Maximum [total energy] change in last 3 cyles: 0.0001 eV / electron
 Maximum integral of absolute [dens]ity change: 0.0001 electrons / valence electron
 Maximum integral of absolute [eigenst]ate change: 4e-08 eV^2 / valence electron
 Maximum number of scf [iter]ations: 666
 (Square brackets indicate name in SCF output, whereas a 'c' in
 the SCF output indicates the quantity has converged.)

Symmetries present (total): 1

  ( 1  0  0)
  ( 0  1  0)
  ( 0  0  1)

8 k-points: 2 x 2 x 2 Monkhorst-Pack grid
4 k-points in the irreducible part of the Brillouin zone
       k-points in crystal coordinates                weights
   0:     0.25000000   -0.25000000   -0.25000000          2/8
   1:     0.25000000   -0.25000000    0.25000000          2/8
   2:     0.25000000    0.25000000   -0.25000000          2/8
   3:     0.25000000    0.25000000    0.25000000          2/8

Wave functions: Plane wave expansion
  Cutoff energy: 350.000 eV
  Number of coefficients (min, max): 18331, 18331
  Pulay-stress correction: 0.000000 eV/Ang^3 (de/decut=0.000000)
  Using FFTW library
  ScaLapack parameters: grid=1x1, blocksize=None
  Wavefunction extrapolation:
    Improved wavefunction reuse through dual PAW basis

Occupation numbers: Fermi-Dirac:
  width: 0.1000  # eV

Eigensolver
   Davidson(niter=2)

Densities:
  Coarse grid: 48*48*48 grid
  Fine grid: 96*96*96 grid
  Total Charge: 0.000000

Density mixing:
  Method: difference
  Backend: pulay
  Linear mixing parameter: 0.05
  old densities: 5
  Damping of long wavelength oscillations: 50

Hamiltonian:
  XC and Coulomb potentials evaluated on a 96*96*96 grid
  Using the PBE Exchange-Correlation functional
  External potential:
    NoExternalPotential

XC parameters: PBE with 2 nearest neighbor stencil

Total number of cores used: 30
Parallelization over k-points: 2
Domain decomposition: 5 x 3 x 1

Number of atoms: 108
Number of atomic orbitals: 994
Number of bands in calculation: 674
Number of valence electrons: 980
Bands to converge: occupied

... initialized

Initializing position-dependent things.

Density initialized from atomic densities
Creating initial wave functions:
  674 bands from LCAO basis set

       /| Cr        Fe       Cr   |
      / |              Fe     Al  |
     /Fei       Ni      Ni        |
    /   |Al               Cre     |
   /    |  NCr  FeFe  Ni    Fe    |
  / CoCCr   CFeFe   Co            |
 *      Ni    CoAl   CoCoCr   Al  |
 |     NiFeFe  Co CoCr   CCrCo    |
 |    CoNCr CoFe CoCoFe    FeCr   |
 |     Fe  NiNiCr   CrCoNi  NiFe  |
 Al     Fe  AlCoCoNi   CrCr     Ni|
 |      |Ni    Ni CrCo  CrFeNi   Al
 | Cr   .-NNii---CrCoCr--CrFe-----.
 |   Co/     CrNi      Ni        /
 |    /Nil    FeAlCr  Cr Cr     /
 |   /            Co        Ni /
 |  /      Fe       Fe       Co
 | /          Fe     CFeAl   /
 *-------------------------Co

Positions:
   0 Co    10.588721    0.098103   11.027665    ( 0.0000,  0.0000,  2.1000)
   1 Ni    10.632650    1.908103    2.131323    ( 0.0000,  0.0000,  1.5000)
   2 Al     1.833425   -0.031218    1.846909    ( 0.0000,  0.0000,  0.0000)
   3 Cr     1.943786    1.802093   10.695816    ( 0.0000,  0.0000,  0.0000)
   4 Cr     3.732351   -0.159658   10.871235    ( 0.0000,  0.0000,  0.0000)
   5 Fe     3.546629    1.814399    1.777837    ( 0.0000,  0.0000,  2.0000)
   6 Fe     5.348917    0.014795    1.828675    ( 0.0000,  0.0000,  2.0000)
   7 Fe     5.497051    1.670159   -0.055232    ( 0.0000,  0.0000,  2.0000)
   8 Cr     7.193308   -0.090250    0.140013    ( 0.0000,  0.0000,  0.0000)
   9 Fe     7.148752    1.831461    1.788281    ( 0.0000,  0.0000,  2.0000)
  10 Fe     8.686958    0.071842    2.000960    ( 0.0000,  0.0000,  2.0000)
  11 Al     8.886607    1.949629    0.192472    ( 0.0000,  0.0000,  0.0000)
  12 Co    10.625003    3.709207   10.887138    ( 0.0000,  0.0000,  2.1000)
  13 Fe    10.743532    5.574793    1.768659    ( 0.0000,  0.0000,  2.0000)
  14 Al     1.866533    3.669814    1.743472    ( 0.0000,  0.0000,  0.0000)
  15 Al     1.710802    5.401921   10.475352    ( 0.0000,  0.0000,  0.0000)
  16 Cr     3.752176    3.669258   10.713672    ( 0.0000,  0.0000,  0.0000)
  17 Cr     3.416854    5.309294    1.755693    ( 0.0000,  0.0000,  0.0000)
  18 Al     5.355232    3.465094    2.012380    ( 0.0000,  0.0000,  0.0000)
  19 Co     5.299749    5.599993   10.846219    ( 0.0000,  0.0000,  2.1000)
  20 Co     7.227434    3.591420    0.103031    ( 0.0000,  0.0000,  2.1000)
  21 Cr     7.209536    5.467433    1.566260    ( 0.0000,  0.0000,  0.0000)
  22 Cr     9.058645    3.566075    1.851524    ( 0.0000,  0.0000,  0.0000)
  23 Cr     9.030689    5.389444   -0.225098    ( 0.0000,  0.0000,  0.0000)
  24 Fe    10.752592    7.059792   10.471301    ( 0.0000,  0.0000,  2.0000)
  25 Al    10.691425    8.655503    1.747107    ( 0.0000,  0.0000,  0.0000)
  26 Ni     1.757021    7.098821    1.872027    ( 0.0000,  0.0000,  1.5000)
  27 Cr     1.456306    8.993170   10.566864    ( 0.0000,  0.0000,  0.0000)
  28 Fe     3.466052    7.141016   10.739648    ( 0.0000,  0.0000,  2.0000)
  29 Ni     3.507319    8.906507    1.941246    ( 0.0000,  0.0000,  1.5000)
  30 Co     5.258545    7.298104    1.850520    ( 0.0000,  0.0000,  2.1000)
  31 Fe     5.306781    9.128892   10.700343    ( 0.0000,  0.0000,  2.0000)
  32 Fe     6.918736    7.317734   10.650887    ( 0.0000,  0.0000,  2.0000)
  33 Cr     7.194214    8.821782    1.905656    ( 0.0000,  0.0000,  0.0000)
  34 Fe     8.823565    7.118106    1.530492    ( 0.0000,  0.0000,  2.0000)
  35 Cr     9.225901    8.919135   -0.135938    ( 0.0000,  0.0000,  0.0000)
  36 Ni    10.737286   -0.151419    3.450556    ( 0.0000,  0.0000,  1.5000)
  37 Ni    -0.078631    1.883580    5.285907    ( 0.0000,  0.0000,  1.5000)
  38 Co     1.758390    0.034912    5.148614    ( 0.0000,  0.0000,  2.1000)
  39 Ni     1.799221    1.879421    3.524266    ( 0.0000,  0.0000,  1.5000)
  40 Co     3.630488   -0.022151    3.507232    ( 0.0000,  0.0000,  2.1000)
  41 Ni     3.624274    1.554877    5.320818    ( 0.0000,  0.0000,  1.5000)
  42 Co     5.409032   -0.038015    5.380067    ( 0.0000,  0.0000,  2.1000)
  43 Ni     5.353779    1.816884    3.724673    ( 0.0000,  0.0000,  1.5000)
  44 Cr     6.993932    0.036434    3.756937    ( 0.0000,  0.0000,  0.0000)
  45 Co     7.134211    1.842378    5.270521    ( 0.0000,  0.0000,  2.1000)
  46 Al     8.974649   10.690978    5.159444    ( 0.0000,  0.0000,  0.0000)
  47 Ni     8.720643    1.785439    3.613468    ( 0.0000,  0.0000,  1.5000)
  48 Cr    10.793424    3.525901    3.635055    ( 0.0000,  0.0000,  0.0000)
  49 Fe    -0.066843    5.461353    5.401408    ( 0.0000,  0.0000,  2.0000)
  50 Fe     1.811130    3.452275    5.377477    ( 0.0000,  0.0000,  2.0000)
  51 Ni     1.755463    5.412448    3.634263    ( 0.0000,  0.0000,  1.5000)
  52 Ni     3.683034    3.514024    3.779160    ( 0.0000,  0.0000,  1.5000)
  53 Ni     3.531711    5.482856    5.194256    ( 0.0000,  0.0000,  1.5000)
  54 Co     5.314868    3.783334    5.544214    ( 0.0000,  0.0000,  2.1000)
  55 Cr     5.458167    5.488510    3.602925    ( 0.0000,  0.0000,  0.0000)
  56 Cr     7.228227    3.702343    3.680674    ( 0.0000,  0.0000,  0.0000)
  57 Co     7.255986    5.237277    5.536281    ( 0.0000,  0.0000,  2.1000)
  58 Cr     8.888238    3.434689    5.406645    ( 0.0000,  0.0000,  0.0000)
  59 Fe     8.860222    5.375122    3.595718    ( 0.0000,  0.0000,  2.0000)
[...]
  93 Ni     7.048831    5.469836    9.019052    ( 0.0000,  0.0000,  1.5000)
  94 Cr     9.056677    3.579679    9.020824    ( 0.0000,  0.0000,  0.0000)
  95 Cr     8.880208    5.416064    7.332970    ( 0.0000,  0.0000,  0.0000)
  96 Co    10.780670    7.389051    7.281374    ( 0.0000,  0.0000,  2.1000)
  97 Ni    10.763339    8.939802    8.842424    ( 0.0000,  0.0000,  1.5000)
  98 Ni     1.999395    7.155565    8.738026    ( 0.0000,  0.0000,  1.5000)
  99 Co     1.999592    8.834502    7.041678    ( 0.0000,  0.0000,  2.1000)
 100 Co     3.601440    7.185009    6.989219    ( 0.0000,  0.0000,  2.1000)
 101 Ni     3.652232    8.885329    8.833680    ( 0.0000,  0.0000,  1.5000)
 102 Fe     5.277527    7.095982    8.933397    ( 0.0000,  0.0000,  2.0000)
 103 Co     5.378916    9.098757    6.983682    ( 0.0000,  0.0000,  2.1000)
 104 Co     6.970824    7.189645    7.009987    ( 0.0000,  0.0000,  2.1000)
 105 Ni     7.034446    9.104574    8.946204    ( 0.0000,  0.0000,  1.5000)
 106 Fe     8.747664    7.168885    8.995135    ( 0.0000,  0.0000,  2.0000)
 107 Fe     8.839517    8.843129    7.284414    ( 0.0000,  0.0000,  2.0000)

Unit cell:
           periodic     x           y           z      points  spacing
  1. axis:    yes   10.722400    0.000000    0.000000    48     0.2234
  2. axis:    yes    0.000000   10.722400    0.000000    48     0.2234
  3. axis:    yes    0.000000    0.000000   10.722400    48     0.2234

  Lengths:  10.722400  10.722400  10.722400
  Angles:   90.000000  90.000000  90.000000

Effective grid spacing dv^(1/3) = 0.2234

     iter     time        total  log10-change:  magmom
                         energy  eigst   dens
iter:   1 20:24:54 -1019.166216                  +136.6833
iter:   2 20:27:30  -902.051939  -0.23  -1.19    +75.7866
iter:   3 20:30:08  -899.418837  -0.79  -1.21    +63.6311
iter:   4 20:32:43  -873.219041  -1.17  -1.27    +59.0694
iter:   5 20:35:17  -858.688977  -1.57  -1.28    +55.6678
iter:   6 20:37:54  -861.729800  -1.29  -1.36    +56.1043
iter:   7 20:40:31  -850.821816  -1.27  -1.42    +54.4209
iter:   8 20:43:08  -840.303607  -1.63  -1.55    +53.7452
iter:   9 20:45:45  -840.389602  -2.09  -1.75    +54.9159
iter:  10 20:48:22  -839.881928  -2.33  -1.78    +56.1661
iter:  11 20:51:00  -840.269406  -2.54  -1.83    +57.1128
iter:  12 20:53:36  -840.396973  -2.49  -1.84    +58.6024
iter:  13 20:56:13  -841.445149  -2.37  -1.89    +59.5216
iter:  14 20:58:50  -840.668864  -2.43  -1.93    +59.5474
iter:  15 21:01:24  -840.574716  -2.65  -2.02    +60.3741
iter:  16 21:04:00  -840.634910c -2.76  -2.09    +60.8031
iter:  17 21:06:37  -840.256723  -3.01  -2.10    +61.4478
iter:  18 21:09:14  -840.565141  -2.96  -2.19    +61.6059
iter:  19 21:11:51  -840.418786  -3.09  -2.20    +61.9428
iter:  20 21:14:29  -840.734192  -3.00  -2.25    +62.3034
iter:  21 21:17:06  -840.354917  -3.11  -2.24    +62.0953
iter:  22 21:19:43  -840.346284  -3.20  -2.39    +62.1764
iter:  23 21:22:20  -840.476221  -3.16  -2.45    +62.1312
iter:  24 21:24:56  -840.277242  -3.44  -2.45    +62.3319
iter:  25 21:27:34  -840.306033  -3.77  -2.59    +62.3148
iter:  26 21:30:11  -840.331035c -3.88  -2.64    +62.3002
iter:  27 21:32:49  -840.331492c -3.98  -2.65    +62.3198
iter:  28 21:35:14  -840.379598c -4.05  -2.72    +62.2434
iter:  29 21:37:27  -840.377918c -4.08  -2.70    +62.2214
iter:  30 21:39:48  -840.468875c -3.79  -2.81    +61.9453
iter:  31 21:42:09  -840.411410c -4.00  -2.70    +62.0127
iter:  32 21:44:29  -840.419812c -4.14  -2.90    +61.9276
iter:  33 21:46:49  -840.431742c -4.36  -2.99    +61.8960
iter:  34 21:49:08  -840.448549c -4.41  -3.03    +61.8253
iter:  35 21:51:27  -840.451456c -4.68  -3.05    +61.7641
iter:  36 21:53:46  -840.467849c -4.77  -3.10    +61.7462
iter:  37 21:56:05  -840.499641c -4.40  -3.11    +61.5327
iter:  38 21:58:23  -840.545748c -4.08  -3.04    +61.2420
iter:  39 22:00:42  -840.514868c -4.66  -2.98    +61.4289
iter:  40 22:03:01  -840.531830c -4.55  -3.09    +61.2863
iter:  41 22:05:21  -840.542236c -4.66  -3.16    +61.2495
iter:  42 22:07:40  -840.547832c -4.49  -3.12    +61.1669
iter:  43 22:09:59  -840.542821c -4.69  -3.13    +61.1536
iter:  44 22:12:18  -840.550909c -4.97  -3.29    +61.0424
iter:  45 22:14:35  -840.559830c -4.92  -3.33    +61.0184
iter:  46 22:16:54  -840.559799c -5.11  -3.24    +60.9608
iter:  47 22:19:12  -840.567321c -5.16  -3.37    +60.8968
iter:  48 22:21:31  -840.586626c -4.60  -3.38    +60.7841
iter:  49 22:23:55  -840.582915c -5.73  -3.35    +60.8076
iter:  50 22:26:59  -840.620103c -4.16  -3.31    +60.5296
iter:  51 22:29:29  -840.643892c -4.24  -3.23    +60.3831
iter:  52 22:31:47  -840.648272c -4.87  -3.20    +60.3551
iter:  53 22:34:06  -840.653303c -5.15  -3.15    +60.3381
iter:  54 22:36:25  -840.663416c -5.03  -3.17    +60.2823
iter:  55 22:38:44  -840.665072c -4.78  -3.14    +60.2698
iter:  56 22:41:03  -840.672793c -4.79  -3.08    +60.1692
iter:  57 22:43:21  -840.698991c -4.18  -3.06    +60.0033
iter:  58 22:45:39  -840.692924c -4.39  -2.96    +60.0493
iter:  59 22:47:58  -840.692016c -4.25  -2.99    +60.0567
iter:  60 22:50:17  -840.671097c -4.71  -2.99    +60.0179
iter:  61 22:52:35  -840.672168c -4.87  -3.23    +59.8978
iter:  62 22:54:54  -840.676637c -4.85  -3.22    +59.8735
iter:  63 22:57:12  -840.676601c -4.85  -3.26    +59.8431
iter:  64 22:59:50  -840.672596c -5.12  -3.23    +59.8128
iter:  65 23:02:53  -840.677586c -4.95  -3.32    +59.7565
iter:  66 23:05:14  -840.672059c -5.27  -3.25    +59.7609
iter:  67 23:07:32  -840.673422c -5.63  -3.41    +59.7675
iter:  68 23:09:51  -840.673240c -5.92  -3.44    +59.7298
iter:  69 23:12:11  -840.675047c -5.70  -3.47    +59.7027
iter:  70 23:14:29  -840.675757c -5.65  -3.46    +59.6948
iter:  71 23:16:47  -840.677542c -5.21  -3.45    +59.6936
iter:  72 23:19:06  -840.681065c -5.06  -3.49    +59.6707
iter:  73 23:21:24  -840.677205c -5.17  -3.38    +59.6660
iter:  74 23:23:43  -840.677333c -5.59  -3.53    +59.7110
iter:  75 23:26:21  -840.677345c -5.87  -3.75    +59.7069
iter:  76 23:29:18  -840.677657c -5.98  -3.80    +59.7106
iter:  77 23:31:38  -840.677993c -6.46  -3.84    +59.7036
iter:  78 23:33:56  -840.678953c -6.23  -3.94    +59.7095
iter:  79 23:36:14  -840.679326c -6.60  -3.93    +59.7068
iter:  80 23:38:33  -840.681035c -5.72  -3.95    +59.7085
iter:  81 23:40:52  -840.680586c -6.83  -3.90    +59.7125
iter:  82 23:43:11  -840.681583c -6.30  -3.94    +59.7232
iter:  83 23:45:30  -840.681596c -6.62  -3.86    +59.7238
iter:  84 23:47:49  -840.682510c -6.11  -3.93    +59.7481
iter:  85 23:50:07  -840.682265c -6.44  -3.89    +59.7418
iter:  86 23:52:27  -840.684490c -5.79  -4.05c   +59.7572
iter:  87 23:54:45  -840.683508c -6.31  -3.77    +59.7617
iter:  88 23:57:03  -840.684004c -6.20  -4.19c   +59.7711
iter:  89 23:59:23  -840.684261c -6.67  -4.05c   +59.7761
iter:  90 00:01:41  -840.684864c -6.41  -4.22c   +59.7857
iter:  91 00:04:00  -840.685167c -6.90  -4.19c   +59.7957
iter:  92 00:06:19  -840.688164c -5.38  -4.23c   +59.8839
iter:  93 00:08:38  -840.689350c -5.81  -4.17c   +59.9143
iter:  94 00:10:56  -840.687897c -6.21  -4.04c   +59.8726
iter:  95 00:13:15  -840.690582c -5.56  -4.10c   +59.9494
iter:  96 00:15:33  -840.690168c -6.54  -3.98    +59.9320
iter:  97 00:17:52  -840.690938c -6.01  -3.87    +59.9691
iter:  98 00:20:10  -840.693016c -5.37  -4.04c   +60.0602
iter:  99 00:22:29  -840.694909c -5.25  -3.94    +60.1342
iter: 100 00:24:47  -840.695811c -5.47  -3.82    +60.1516
iter: 101 00:27:07  -840.695587c -6.07  -3.63    +60.1310
iter: 102 00:29:26  -840.695890c -6.39  -3.70    +60.1330
iter: 103 00:31:44  -840.695386c -5.75  -3.68    +60.1379
iter: 104 00:34:02  -840.694109c -5.73  -3.64    +60.1248
iter: 105 00:36:25  -840.698111c -5.32  -3.76    +60.1223
iter: 106 00:39:28  -840.694046c -5.86  -3.55    +60.1379
iter: 107 00:41:57  -840.693912c -6.48  -4.12c   +60.1306
iter: 108 00:44:15  -840.693974c -6.88  -4.14c   +60.1379
iter: 109 00:46:33  -840.694206c -6.80  -4.19c   +60.1455
iter: 110 00:48:53  -840.694093c -6.91  -4.18c   +60.1446
iter: 111 00:51:12  -840.693830c -6.93  -4.21c   +60.1432
iter: 112 00:53:31  -840.694021c -6.93  -4.24c   +60.1385
iter: 113 00:55:50  -840.693997c -7.08  -4.22c   +60.1415
iter: 114 00:58:08  -840.693953c -7.12  -4.30c   +60.1413
iter: 115 01:00:27  -840.693836c -7.26  -4.29c   +60.1403
iter: 116 01:02:46  -840.693856c -7.16  -4.34c   +60.1389
iter: 117 01:05:05  -840.694005c -7.30  -4.32c   +60.1415
iter: 118 01:07:24  -840.693826c -7.39  -4.36c   +60.1429
iter: 119 01:09:42  -840.693794c -7.48c -4.39c   +60.1389

Converged after 119 iterations.

Dipole moment: (9.844165, -4.621365, -5.189061) |e|*Ang

Total magnetic moment: (0.000000, 0.000000, 60.138909)
Local magnetic moments:
   0 Co ( 0.000000,  0.000000, -0.689688)
   1 Ni ( 0.000000,  0.000000, -0.026329)
   2 Al ( 0.000000,  0.000000,  0.003323)
   3 Cr ( 0.000000,  0.000000, -2.106176)
   4 Cr ( 0.000000,  0.000000, -1.304012)
   5 Fe ( 0.000000,  0.000000,  1.802375)
   6 Fe ( 0.000000,  0.000000,  1.807893)
   7 Fe ( 0.000000,  0.000000,  1.830095)
   8 Cr ( 0.000000,  0.000000, -1.018331)
   9 Fe ( 0.000000,  0.000000,  1.604293)
  10 Fe ( 0.000000,  0.000000,  1.973268)
  11 Al ( 0.000000,  0.000000, -0.017275)
  12 Co ( 0.000000,  0.000000,  0.167464)
  13 Fe ( 0.000000,  0.000000,  2.235220)
  14 Al ( 0.000000,  0.000000, -0.016690)
  15 Al ( 0.000000,  0.000000, -0.032109)
  16 Cr ( 0.000000,  0.000000,  1.428394)
  17 Cr ( 0.000000,  0.000000, -1.683307)
  18 Al ( 0.000000,  0.000000, -0.011452)
  19 Co ( 0.000000,  0.000000,  1.174620)
  20 Co ( 0.000000,  0.000000,  0.614863)
  21 Cr ( 0.000000,  0.000000, -1.255358)
  22 Cr ( 0.000000,  0.000000,  0.528457)
  23 Cr ( 0.000000,  0.000000, -0.849510)
  24 Fe ( 0.000000,  0.000000,  1.682328)
  25 Al ( 0.000000,  0.000000, -0.016266)
  26 Ni ( 0.000000,  0.000000,  0.263487)
  27 Cr ( 0.000000,  0.000000, -2.166566)
  28 Fe ( 0.000000,  0.000000,  2.502705)
  29 Ni ( 0.000000,  0.000000,  0.195298)
  30 Co ( 0.000000,  0.000000,  0.986658)
  31 Fe ( 0.000000,  0.000000,  1.596714)
  32 Fe ( 0.000000,  0.000000,  1.842332)
  33 Cr ( 0.000000,  0.000000, -0.791402)
  34 Fe ( 0.000000,  0.000000,  1.600991)
  35 Cr ( 0.000000,  0.000000, -1.208856)
  36 Ni ( 0.000000,  0.000000,  0.245324)
  37 Ni ( 0.000000,  0.000000,  0.022824)
  38 Co ( 0.000000,  0.000000,  1.535361)
  39 Ni ( 0.000000,  0.000000,  0.290693)
  40 Co ( 0.000000,  0.000000,  1.393138)
  41 Ni ( 0.000000,  0.000000,  0.459647)
  42 Co ( 0.000000,  0.000000,  1.192157)
  43 Ni ( 0.000000,  0.000000,  0.235946)
  44 Cr ( 0.000000,  0.000000, -0.188413)
  45 Co ( 0.000000,  0.000000,  0.705548)
  46 Al ( 0.000000,  0.000000, -0.006305)
  47 Ni ( 0.000000,  0.000000,  0.089033)
  48 Cr ( 0.000000,  0.000000, -1.512488)
  49 Fe ( 0.000000,  0.000000,  1.867710)
  50 Fe ( 0.000000,  0.000000,  2.442871)
  51 Ni ( 0.000000,  0.000000,  0.264769)
  52 Ni ( 0.000000,  0.000000,  0.282800)
  53 Ni ( 0.000000,  0.000000,  0.378707)
  54 Co ( 0.000000,  0.000000,  1.454626)
  55 Cr ( 0.000000,  0.000000,  1.351148)
  56 Cr ( 0.000000,  0.000000, -1.099262)
  57 Co ( 0.000000,  0.000000,  0.674005)
  58 Cr ( 0.000000,  0.000000,  0.357453)
  59 Fe ( 0.000000,  0.000000,  1.525365)
[...]
  93 Ni ( 0.000000,  0.000000,  0.327424)
  94 Cr ( 0.000000,  0.000000,  0.507502)
  95 Cr ( 0.000000,  0.000000, -1.155442)
  96 Co ( 0.000000,  0.000000,  1.316252)
  97 Ni ( 0.000000,  0.000000,  0.070017)
  98 Ni ( 0.000000,  0.000000,  0.491196)
  99 Co ( 0.000000,  0.000000,  1.453668)
 100 Co ( 0.000000,  0.000000,  1.555391)
 101 Ni ( 0.000000,  0.000000,  0.496448)
 102 Fe ( 0.000000,  0.000000,  2.444104)
 103 Co ( 0.000000,  0.000000,  1.583931)
 104 Co ( 0.000000,  0.000000,  1.457772)
 105 Ni ( 0.000000,  0.000000,  0.300763)
 106 Fe ( 0.000000,  0.000000,  1.855620)
 107 Fe ( 0.000000,  0.000000,  2.244799)

Energy contributions relative to reference atoms: (reference = -3548577.034362)

Kinetic:       +358.606793
Potential:     -356.185373
External:        +0.000000
XC:            -876.693859
Entropy (-ST):   -4.336894
Local:          +35.747092
Free energy:   -842.862241
Extrapolated:  -840.693794

Spin contamination: 27.501610 electrons
Showing only first 2 kpts
                      Up                     Down
 Kpt  Band  Eigenvalues  Occupancy  Eigenvalues  Occupancy
  0   488      9.53449    0.99419     10.40768    0.02686
  0   489      9.54247    0.99371     10.41481    0.02506
  0   490      9.55694    0.99274     10.43093    0.02141
  0   491      9.56934    0.99179     10.43868    0.01984

  1   488      9.53731    0.99402     10.39941    0.02911
  1   489      9.54550    0.99352     10.41129    0.02593
  1   490      9.55916    0.99257     10.41613    0.02474
  1   491      9.56748    0.99194     10.43156    0.02128

Fermi level: 10.04870

No gap

Forces in eV/Ang:
  0 Co    0.42771   -0.15387   -0.57683
  1 Ni    0.43929   -1.59603   -2.36472
  2 Al   -0.68429    0.27816    0.39007
  3 Cr   -0.85246    0.00829   -0.65209
  4 Cr   -0.66753    0.88084   -1.48593
  5 Fe    0.46541   -0.47144    0.04433
  6 Fe    0.35598    0.41539    0.10103
  7 Fe   -0.28628    0.58418    0.49971
  8 Cr   -0.57892   -0.09077   -0.32825
  9 Fe   -0.66613   -0.15049    0.80339
 10 Fe    0.76346   -1.11214   -0.81052
 11 Al    1.25372   -1.87201   -1.27184
 12 Co    0.89371   -1.35925   -0.58925
 13 Fe   -0.70836   -0.57315    0.20122
 14 Al   -1.86637   -1.62350    0.88463
 15 Al    0.38171   -0.10971    0.58226
 16 Cr   -1.16853   -0.05115    0.35258
 17 Cr    2.85001    1.70879    0.33207
 18 Al    0.08910    0.71004   -1.33690
 19 Co    0.01989   -1.31289   -0.35884
 20 Co   -1.13581    0.69661   -0.36706
 21 Cr   -0.47519    0.10795    0.59769
 22 Cr   -1.18893    2.27221    1.33015
 23 Cr   -0.48584    0.29076    0.60320
 24 Fe   -0.29533    0.56670   -0.00318
 25 Al   -0.08867    0.77750    1.97897
 26 Ni    0.25454    0.34565   -1.30947
 27 Cr    2.49170    0.03886    0.20691
 28 Fe    0.47186    0.79871    0.09343
 29 Ni    0.55217    0.55212   -1.85039
 30 Co    0.71293   -0.74829   -0.45107
 31 Fe    0.24838   -1.19721    0.72970
 32 Fe    1.02635    0.29744    0.47659
 33 Cr   -0.07568    0.10018   -0.30069
 34 Fe   -0.20037   -0.51479    0.82038
 35 Cr   -2.23920   -1.05204    0.89049
 36 Ni   -0.16747    0.26372    0.03578
 37 Ni    1.10216   -1.70080   -0.62383
 38 Co    0.07377   -0.37730    0.24198
 39 Ni    0.71721   -0.68816    0.50470
 40 Co    0.17945    0.48857    0.84676
 41 Ni   -0.81140    1.91963   -0.34340
 42 Co   -0.46430    0.29656    0.21015
 43 Ni    0.18330   -0.37677   -0.56395
 44 Cr    0.28361   -0.38087   -1.45162
 45 Co   -0.85801    0.12468    1.67650
 46 Al    1.73055    1.34790    0.75146
 47 Ni    1.46318    0.63105   -0.44683
 48 Cr   -1.03483    2.22762    0.86468
 49 Fe    0.05572   -1.20242    0.16381
 50 Fe    0.15226    0.89445    0.01403
 51 Ni   -0.16706   -0.80401   -0.21520
 52 Ni   -0.80150    0.66040   -0.66005
 53 Ni    0.24012   -0.20938    1.22330
 54 Co    0.74746   -1.46978   -0.71299
 55 Cr   -0.32485   -0.08230   -0.15218
 56 Cr   -0.35438   -0.13247    0.12483
 57 Co   -0.12623    0.64604   -0.81309
 58 Cr    0.18955    1.83305   -0.71558
 59 Fe    0.34544    0.14422    0.01395
[...]
 93 Ni    0.03800   -0.98847   -0.32595
 94 Cr   -1.04189   -0.29992   -0.62213
 95 Cr   -0.06452   -0.17197   -0.21490
 96 Co   -0.71210   -1.88446   -0.53459
 97 Ni    0.23605    1.44880   -0.63176
 98 Ni   -0.99532   -0.01743    1.14742
 99 Co   -1.37653    0.64162    0.08939
100 Co    0.80273   -0.40625   -0.00763
101 Ni   -0.37821    0.35921    0.25419
102 Fe   -0.03719    0.70011   -0.43669
103 Co   -0.23420   -0.98404    0.64259
104 Co    0.34135    0.40519    0.98093
105 Ni    0.19224   -0.66947   -0.28141
106 Fe    0.58740    0.16282   -0.43026
107 Fe    0.00716    0.63608   -1.15946

Date: Fri Apr 14 01:10:04 2023