User:   c.zeng@d0093
Date:   Fri Apr 14 01:21:47 2023
Arch:   x86_64
Pid:    111854
CWD:    /home/c.zeng/projects/hea-corrosion/hea-mlp/data-curation/bulk-md/dft-jobs/8
Python: 3.8.1
gpaw:   /home/c.zeng/usr/installs/gpaw/source/gpaw-22.8.0/gpaw
_gpaw:  /home/c.zeng/usr/installs/gpaw/source/gpaw-22.8.0/
        _gpaw.cpython-38-x86_64-linux-gnu.so
ase:    /home/c.zeng/.local/lib/python3.8/site-packages/ase-3.22.1-py3.8.egg/ase (version 3.22.1)
numpy:  /shared/centos7/python/3.8.1/lib/python3.8/site-packages/numpy (version 1.17.4)
scipy:  /shared/centos7/python/3.8.1/lib/python3.8/site-packages/scipy (version 1.4.1)
units:  Angstrom and eV
cores: 30
OpenMP: False
OMP_NUM_THREADS: 1

Input parameters:
  convergence: {energy: 0.0001}
  kpts: [2 2 2]
  maxiter: 666
  mode: {ecut: 350.0,
         name: pw}
  occupations: {fixmagmom: False,
                name: fermi-dirac,
                width: 0.1}
  spinpol: True
  xc: PBE

System changes: positions, numbers, cell, pbc, initial_charges, initial_magmoms

Initialize ...

species:
  Co:
    name: Cobalt
    id: 339d20d5b0b93d2de9531a1bee871d91
    Z: 27.0
    valence: 9
    core: 18
    charge: 0.0
    file: /home/c.zeng/usr/data/gpaw-setups-0.9.20000/Co.PBE.gz
    compensation charges: {type: gauss,
                           rc: 0.32,
                           lmax: 2}
    cutoffs: {filter: 1.87,
              core: 2.55}
    valence states:
      #              energy  rcut
      - 4s(2.00)    -5.469   1.005
      - 4p(0.00)    -1.277   1.058
      - 3d(7.00)    -8.205   1.005
      -  s          21.742   1.005
      -  p          25.934   1.058
      -  d          19.007   1.005

    # Using partial waves for Co as LCAO basis

  Fe:
    name: Iron
    id: 37abbd8d6c3c35915a9b583b742da910
    Z: 26.0
    valence: 8
    core: 18
    charge: 0.0
    file: /home/c.zeng/usr/data/gpaw-setups-0.9.20000/Fe.PBE.gz
    compensation charges: {type: gauss,
                           rc: 0.33,
                           lmax: 2}
    cutoffs: {filter: 2.06,
              core: 2.67}
    valence states:
      #              energy  rcut
      - 4s(2.00)    -5.291   1.164
      - 4p(0.00)    -1.326   1.058
      - 3d(6.00)    -7.505   1.058
      -  s          21.920   1.164
      -  p          25.885   1.058
      -  d          19.706   1.058

[...]

  Cr:
    name: Chromium
    id: 33f258bda2ca9f93018e70263a35547b
    Z: 24.0
    valence: 6
    core: 18
    charge: 0.0
    file: /home/c.zeng/usr/data/gpaw-setups-0.9.20000/Cr.PBE.gz
    compensation charges: {type: gauss,
                           rc: 0.35,
                           lmax: 2}
    cutoffs: {filter: 2.14,
              core: 3.04}
    valence states:
      #              energy  rcut
      - 4s(1.00)    -4.007   1.164
      - 4p(0.00)    -0.989   1.217
      - 3d(5.00)    -2.913   1.111
      -  s          23.205   1.164
      -  p          26.223   1.217
      -  d          24.299   1.111

[...]

  Ni:
    name: Nickel
    id: 0d9f38a9d6e76a2886f07bb4381f212b
    Z: 28.0
    valence: 16
    core: 12
    charge: 0.0
    file: /home/c.zeng/usr/data/gpaw-setups-0.9.20000/Ni.PBE.gz
    compensation charges: {type: gauss,
                           rc: 0.36,
                           lmax: 2}
    cutoffs: {filter: 2.14,
              core: 1.98}
    valence states:
      #              energy  rcut
      - 4s(2.00)    -5.642   1.164
      - 3p(6.00)   -71.394   1.207
      - 4p(0.00)    -1.226   1.207
      - 3d(8.00)    -8.875   1.138
      -  s          21.570   1.164
      -  d          18.337   1.138

    # Using partial waves for Ni as LCAO basis

Reference energy: -3846758.590871  # eV

Spin-polarized calculation.
Magnetic moment: 151.200000

Convergence criteria:
 Maximum [total energy] change in last 3 cyles: 0.0001 eV / electron
 Maximum integral of absolute [dens]ity change: 0.0001 electrons / valence electron
 Maximum integral of absolute [eigenst]ate change: 4e-08 eV^2 / valence electron
 Maximum number of scf [iter]ations: 666
 (Square brackets indicate name in SCF output, whereas a 'c' in
 the SCF output indicates the quantity has converged.)

Symmetries present (total): 1

  ( 1  0  0)
  ( 0  1  0)
  ( 0  0  1)

8 k-points: 2 x 2 x 2 Monkhorst-Pack grid
4 k-points in the irreducible part of the Brillouin zone
       k-points in crystal coordinates                weights
   0:     0.25000000   -0.25000000   -0.25000000          2/8
   1:     0.25000000   -0.25000000    0.25000000          2/8
   2:     0.25000000    0.25000000   -0.25000000          2/8
   3:     0.25000000    0.25000000    0.25000000          2/8

Wave functions: Plane wave expansion
  Cutoff energy: 350.000 eV
  Number of coefficients (min, max): 17755, 17755
  Pulay-stress correction: 0.000000 eV/Ang^3 (de/decut=0.000000)
  Using FFTW library
  ScaLapack parameters: grid=1x1, blocksize=None
  Wavefunction extrapolation:
    Improved wavefunction reuse through dual PAW basis

Occupation numbers: Fermi-Dirac:
  width: 0.1000  # eV

Eigensolver
   Davidson(niter=2)

Densities:
  Coarse grid: 48*48*48 grid
  Fine grid: 96*96*96 grid
  Total Charge: 0.000000

Density mixing:
  Method: difference
  Backend: pulay
  Linear mixing parameter: 0.05
  old densities: 5
  Damping of long wavelength oscillations: 50

Hamiltonian:
  XC and Coulomb potentials evaluated on a 96*96*96 grid
  Using the PBE Exchange-Correlation functional
  External potential:
    NoExternalPotential

XC parameters: PBE with 2 nearest neighbor stencil

Total number of cores used: 30
Parallelization over k-points: 2
Domain decomposition: 5 x 3 x 1

Number of atoms: 108
Number of atomic orbitals: 1053
Number of bands in calculation: 727
Number of valence electrons: 1053
Bands to converge: occupied

... initialized

Initializing position-dependent things.

Density initialized from atomic densities
Creating initial wave functions:
  727 bands from LCAO basis set

        Co------------------------.
       /|  Cr               Cr    |
      Fe|                         |
     /  |      Cr                Co
    /   | Fe     CFe    CoNiCr    |
   /    |  CNie     Co            |
  /     |    Cr       Ni     CCo  |
 *    NiCCr   Co NiFe  NNi   Ni   |
 | Co  FeNiCo  Ni CFe   CoCr      |
 |   Fe FeFe CFe   CoNiCo  CrCr   |
 |     Cr  NiFe Cr  NiFeNi   NNi  |
 |    NiFe    Fe Fe    Fe CCoNi   |
 | Ni  CCo Co  CrNi Fe Ni  Ni     |
 |      .-Cr--Cr--Co-Ni-----Ni----.
 |     /    Co Fe   CoNiCo   Cre /
 |    /Fe Fe  Co Ni    CrCo     /
 |   /  Cr        FeNi    Cr   /
 |  /      Cr     Cr        Cor
 | /  Fe      Co     Co      /
 |/    Fe       Cr      Co  /

Positions:
   0 Co     0.164088   -0.226210   10.504116    ( 0.0000,  0.0000,  2.1000)
   1 Co    -0.059561    1.684097    1.848638    ( 0.0000,  0.0000,  2.1000)
   2 Fe     1.977184    0.012846    1.789761    ( 0.0000,  0.0000,  2.0000)
   3 Fe     1.846435    2.010536   10.621152    ( 0.0000,  0.0000,  2.0000)
   4 Cr     3.354453    0.071505   10.475824    ( 0.0000,  0.0000,  0.0000)
   5 Cr     3.660035    1.658569    1.696042    ( 0.0000,  0.0000,  0.0000)
   6 Co     5.386298   10.690163    1.745470    ( 0.0000,  0.0000,  2.1000)
   7 Cr     5.595404    1.782322   10.821987    ( 0.0000,  0.0000,  0.0000)
   8 Fe     7.251710    0.062084   10.521198    ( 0.0000,  0.0000,  2.0000)
   9 Ni     7.129642    1.733591    1.960130    ( 0.0000,  0.0000,  1.5000)
  10 Ni     8.663225   -0.190049    1.795381    ( 0.0000,  0.0000,  1.5000)
  11 Co     8.768262    1.948483   10.631693    ( 0.0000,  0.0000,  2.1000)
  12 Cr    10.448109    3.637319    0.251698    ( 0.0000,  0.0000,  0.0000)
  13 Fe    10.470114    5.334414    1.645986    ( 0.0000,  0.0000,  2.0000)
  14 Cr     1.926418    3.489270    1.674421    ( 0.0000,  0.0000,  0.0000)
  15 Fe     1.632118    5.157962   10.702202    ( 0.0000,  0.0000,  2.0000)
  16 Ni     3.673961    3.351430   10.435366    ( 0.0000,  0.0000,  1.5000)
  17 Co     3.885903    5.209633    1.624607    ( 0.0000,  0.0000,  2.1000)
  18 Ni     5.549683    3.506059    2.029226    ( 0.0000,  0.0000,  1.5000)
  19 Cr     5.518354    5.138808   10.663696    ( 0.0000,  0.0000,  0.0000)
  20 Co     7.126285    3.556610   10.722418    ( 0.0000,  0.0000,  2.1000)
  21 Ni     7.054226    5.581061    1.731990    ( 0.0000,  0.0000,  1.5000)
  22 Co     8.724155    3.592624    1.870282    ( 0.0000,  0.0000,  2.1000)
  23 Cr     8.729646    5.667711    0.104474    ( 0.0000,  0.0000,  0.0000)
  24 Fe     0.054669    7.306664   10.547334    ( 0.0000,  0.0000,  2.0000)
  25 Co    10.666519    9.019610    1.733788    ( 0.0000,  0.0000,  2.1000)
  26 Cr     1.645415    6.911570    1.779785    ( 0.0000,  0.0000,  0.0000)
  27 Cr     1.864039    8.855515   10.598504    ( 0.0000,  0.0000,  0.0000)
  28 Fe     3.372143    7.177860   10.696854    ( 0.0000,  0.0000,  2.0000)
  29 Cr     3.244007    8.710282    1.992396    ( 0.0000,  0.0000,  0.0000)
  30 Co     4.989404    7.276961    1.715515    ( 0.0000,  0.0000,  2.1000)
  31 Co     5.206341    8.931938   10.646381    ( 0.0000,  0.0000,  2.1000)
  32 Cr     6.934177    7.223382   10.634845    ( 0.0000,  0.0000,  0.0000)
  33 Ni     6.807720    8.717695    1.895664    ( 0.0000,  0.0000,  1.5000)
  34 Ni     8.848798    7.319749    1.922039    ( 0.0000,  0.0000,  1.5000)
  35 Cr     8.639649    8.726559   10.577433    ( 0.0000,  0.0000,  0.0000)
  36 Fe     0.120712   10.533865    3.613476    ( 0.0000,  0.0000,  2.0000)
  37 Ni    10.782458    1.681394    5.245806    ( 0.0000,  0.0000,  1.5000)
  38 Cr     1.910451   -0.044468    5.469966    ( 0.0000,  0.0000,  0.0000)
  39 Fe     1.826206    1.572614    3.537343    ( 0.0000,  0.0000,  2.0000)
  40 Fe     3.646246    0.163990    3.638966    ( 0.0000,  0.0000,  2.0000)
  41 Co     3.515245    1.733977    5.355270    ( 0.0000,  0.0000,  2.1000)
  42 Cr     5.172022    0.179583    5.409342    ( 0.0000,  0.0000,  0.0000)
  43 Fe     5.380834    1.913348    3.570991    ( 0.0000,  0.0000,  2.0000)
  44 Fe     6.893216    0.005265    3.614240    ( 0.0000,  0.0000,  2.0000)
  45 Fe     7.197230    1.654753    5.237421    ( 0.0000,  0.0000,  2.0000)
  46 Ni     8.761770   -0.143284    5.301689    ( 0.0000,  0.0000,  1.5000)
  47 Co     9.023430    1.619137    3.654867    ( 0.0000,  0.0000,  2.1000)
  48 Cr    -0.015571    3.546652    3.291199    ( 0.0000,  0.0000,  0.0000)
  49 Ni    -0.104096    5.423571    5.128467    ( 0.0000,  0.0000,  1.5000)
  50 Fe     1.777602    3.494951    5.118699    ( 0.0000,  0.0000,  2.0000)
  51 Co     1.571072    5.217297    3.581606    ( 0.0000,  0.0000,  2.1000)
  52 Co     3.623356    3.508171    3.380805    ( 0.0000,  0.0000,  2.1000)
  53 Fe     3.546742    5.251389    5.344103    ( 0.0000,  0.0000,  2.0000)
  54 Fe     5.452501    3.456514    5.279198    ( 0.0000,  0.0000,  2.0000)
  55 Ni     5.267561    5.406992    3.593977    ( 0.0000,  0.0000,  1.5000)
  56 Ni     7.357925    3.543058    3.712875    ( 0.0000,  0.0000,  1.5000)
  57 Fe     6.965060    5.350244    5.263591    ( 0.0000,  0.0000,  2.0000)
  58 Co     9.323174    3.585514    5.054208    ( 0.0000,  0.0000,  2.1000)
  59 Ni     9.032824    5.357060    3.504659    ( 0.0000,  0.0000,  1.5000)
[...]
  93 Ni     7.109551    5.457107    8.824828    ( 0.0000,  0.0000,  1.5000)
  94 Ni     8.505051    3.481867    8.604438    ( 0.0000,  0.0000,  1.5000)
  95 Cr     8.831046    5.192716    7.012440    ( 0.0000,  0.0000,  0.0000)
  96 Ni     0.002325    7.094357    7.072127    ( 0.0000,  0.0000,  1.5000)
  97 Co    -0.129213    8.864048    8.945644    ( 0.0000,  0.0000,  2.1000)
  98 Fe     1.759281    7.057555    9.075109    ( 0.0000,  0.0000,  2.0000)
  99 Cr     1.777875    8.710390    7.415270    ( 0.0000,  0.0000,  0.0000)
 100 Co     3.621353    6.980174    7.152865    ( 0.0000,  0.0000,  2.1000)
 101 Cr     3.312702    8.842344    8.873126    ( 0.0000,  0.0000,  0.0000)
 102 Fe     5.164846    7.124767    8.902521    ( 0.0000,  0.0000,  2.0000)
 103 Co     5.235012    8.948085    7.049239    ( 0.0000,  0.0000,  2.1000)
 104 Ni     7.094979    7.130046    6.851999    ( 0.0000,  0.0000,  1.5000)
 105 Co     7.047983    8.813062    8.723526    ( 0.0000,  0.0000,  2.1000)
 106 Cr     8.947392    7.130696    8.821813    ( 0.0000,  0.0000,  0.0000)
 107 Cr     8.978717    8.907715    6.976163    ( 0.0000,  0.0000,  0.0000)

Unit cell:
           periodic     x           y           z      points  spacing
  1. axis:    yes   10.614300    0.000000    0.000000    48     0.2211
  2. axis:    yes    0.000000   10.614300    0.000000    48     0.2211
  3. axis:    yes    0.000000    0.000000   10.614300    48     0.2211

  Lengths:  10.614300  10.614300  10.614300
  Angles:   90.000000  90.000000  90.000000

Effective grid spacing dv^(1/3) = 0.2211

     iter     time        total  log10-change:  magmom
                         energy  eigst   dens
iter:   1 01:28:01 -1060.991625                  +151.4734
iter:   2 01:30:48  -934.383535  -0.30  -1.21    +85.4371
iter:   3 01:33:35  -930.226749  -0.93  -1.25    +68.5138
iter:   4 01:36:21  -915.755918  -1.23  -1.30    +64.4642
iter:   5 01:39:08  -895.201176  -1.60  -1.30    +57.8207
iter:   6 01:41:53  -896.333549  -1.31  -1.38    +57.4892
iter:   7 01:44:39  -892.156830  -1.21  -1.46    +55.7683
iter:   8 01:47:25  -872.949578  -1.63  -1.56    +53.7919
iter:   9 01:50:11  -873.255469  -2.24  -1.82    +55.2609
iter:  10 01:53:07  -873.948357  -2.30  -1.83    +56.5377
iter:  11 01:56:47  -873.177616  -2.59  -1.86    +57.9009
iter:  12 01:59:34  -873.756814  -2.60  -1.90    +59.1433
iter:  13 02:02:21  -874.263896  -2.55  -1.93    +60.0642
iter:  14 02:05:07  -874.889446  -2.43  -1.99    +60.9892
iter:  15 02:07:54  -874.781229  -2.50  -2.03    +61.8473
iter:  16 02:10:39  -874.922338  -2.62  -2.08    +62.1678
iter:  17 02:13:27  -873.973715  -2.84  -2.08    +62.5352
iter:  18 02:16:14  -874.438024  -2.82  -2.21    +63.3112
iter:  19 02:18:59  -873.648674  -3.10  -2.17    +63.6715
iter:  20 02:21:45  -873.781833  -3.36  -2.29    +64.0913
iter:  21 02:24:32  -873.692165  -3.26  -2.29    +64.2735
iter:  22 02:27:17  -873.817499  -3.34  -2.34    +64.8060
iter:  23 02:30:05  -873.709067  -3.33  -2.34    +65.1780
iter:  24 02:32:50  -873.953039  -3.35  -2.38    +65.3114
iter:  25 02:35:36  -873.744850  -3.30  -2.36    +65.3445
iter:  26 02:38:22  -873.728528  -3.45  -2.44    +65.5365
iter:  27 02:41:09  -873.680079c -3.62  -2.44    +65.9136
iter:  28 02:43:55  -873.738064c -3.66  -2.51    +65.9500
iter:  29 02:46:42  -873.689162c -3.75  -2.49    +65.9685
iter:  30 02:49:28  -873.667309c -3.83  -2.54    +66.1292
iter:  31 02:52:14  -873.695065c -3.88  -2.58    +66.3378
iter:  32 02:55:00  -873.712949c -3.87  -2.58    +66.3835
iter:  33 02:57:46  -873.702705c -3.98  -2.58    +66.3242
iter:  34 03:00:32  -873.725472c -3.89  -2.62    +66.4156
iter:  35 03:03:18  -873.723513c -3.92  -2.61    +66.5139
iter:  36 03:06:04  -873.733699c -4.02  -2.62    +66.5359
iter:  37 03:08:50  -873.714228c -4.05  -2.66    +66.4415
iter:  38 03:11:36  -873.703055c -4.06  -2.68    +66.4553
iter:  39 03:14:21  -873.698160c -4.34  -2.69    +66.5781
iter:  40 03:17:07  -873.711007c -4.28  -2.74    +66.5850
iter:  41 03:20:23  -873.723712c -4.28  -2.74    +66.5574
iter:  42 03:23:46  -873.704742c -4.26  -2.74    +66.5632
iter:  43 03:26:32  -873.722178c -4.32  -2.77    +66.6313
iter:  44 03:29:19  -873.737859c -4.21  -2.77    +66.6320
iter:  45 03:32:06  -873.719027c -4.36  -2.77    +66.5663
iter:  46 03:34:52  -873.716708c -4.38  -2.81    +66.5732
iter:  47 03:37:38  -873.712029c -4.50  -2.82    +66.6120
iter:  48 03:40:25  -873.721914c -4.55  -2.85    +66.6180
iter:  49 03:43:10  -873.711340c -4.64  -2.87    +66.5680
iter:  50 03:45:56  -873.719865c -4.58  -2.89    +66.5663
iter:  51 03:48:44  -873.720460c -4.59  -2.88    +66.6046
iter:  52 03:51:30  -873.729913c -4.56  -2.91    +66.5892
iter:  53 03:54:16  -873.736040c -4.57  -2.90    +66.5483
iter:  54 03:57:01  -873.722200c -4.50  -2.91    +66.5338
iter:  55 03:58:57  -873.722058c -4.65  -2.94    +66.5660
iter:  56 04:02:02  -873.726248c -4.80  -2.96    +66.5475
iter:  57 04:05:06  -873.721185c -4.80  -2.99    +66.5030
iter:  58 04:08:10  -873.721928c -4.85  -3.00    +66.4974
iter:  59 04:11:14  -873.722714c -4.91  -3.00    +66.5138
iter:  60 04:14:19  -873.736855c -4.75  -3.03    +66.5078
iter:  61 04:17:24  -873.730336c -4.67  -3.02    +66.4659
iter:  62 04:20:28  -873.729850c -4.83  -3.03    +66.4589
iter:  63 04:23:32  -873.729699c -4.74  -3.05    +66.4901
iter:  64 04:26:36  -873.731973c -4.87  -3.07    +66.4737
iter:  65 04:29:40  -873.730390c -5.06  -3.09    +66.4375
iter:  66 04:32:47  -873.725834c -5.04  -3.13    +66.4184
iter:  67 04:35:52  -873.729555c -5.02  -3.15    +66.4272
iter:  68 04:38:55  -873.731075c -5.29  -3.16    +66.4034
iter:  69 04:42:00  -873.732767c -5.00  -3.20    +66.3647
iter:  70 04:45:03  -873.736155c -4.95  -3.17    +66.3566
iter:  71 04:48:07  -873.732476c -5.00  -3.14    +66.3657
iter:  72 04:51:11  -873.737925c -5.07  -3.21    +66.3539
iter:  73 04:54:15  -873.735187c -5.02  -3.24    +66.3137
iter:  74 04:57:19  -873.731825c -5.42  -3.23    +66.3025
iter:  75 05:00:23  -873.733421c -5.34  -3.31    +66.3007
iter:  76 05:03:27  -873.735574c -5.57  -3.32    +66.2876
iter:  77 05:06:31  -873.737066c -5.45  -3.34    +66.2617
iter:  78 05:09:34  -873.735753c -5.38  -3.33    +66.2469
iter:  79 05:12:38  -873.741697c -5.19  -3.34    +66.2493
iter:  80 05:15:42  -873.740308c -5.33  -3.30    +66.2289
iter:  81 05:18:46  -873.740497c -5.29  -3.38    +66.1958
iter:  82 05:21:50  -873.740056c -5.57  -3.37    +66.1889
iter:  83 05:24:54  -873.739902c -5.55  -3.41    +66.1871
iter:  84 05:27:58  -873.741851c -5.85  -3.45    +66.1772
iter:  85 05:31:02  -873.742682c -5.77  -3.48    +66.1456
iter:  86 05:34:05  -873.742789c -5.81  -3.48    +66.1365
iter:  87 05:37:08  -873.746165c -5.48  -3.50    +66.1211
iter:  88 05:40:11  -873.746704c -5.62  -3.43    +66.1058
iter:  89 05:43:15  -873.749426c -5.42  -3.52    +66.0756
iter:  90 05:46:18  -873.746357c -5.40  -3.45    +66.0651
iter:  91 05:49:22  -873.748212c -5.63  -3.48    +66.0682
iter:  92 05:52:24  -873.748073c -5.68  -3.53    +66.0485
iter:  93 05:54:55  -873.748515c -6.03  -3.60    +66.0350
iter:  94 05:57:26  -873.748984c -6.27  -3.63    +66.0266
iter:  95 06:00:30  -873.750902c -5.79  -3.66    +66.0118
iter:  96 06:03:33  -873.752870c -5.94  -3.65    +66.0003
iter:  97 06:06:36  -873.752221c -5.95  -3.63    +65.9830
iter:  98 06:09:39  -873.752833c -5.79  -3.81    +65.9741
iter:  99 06:12:42  -873.753913c -5.80  -3.97    +65.9675
iter: 100 06:15:45  -873.754302c -6.10  -4.07c   +65.9583
iter: 101 06:18:47  -873.754144c -6.44  -4.03c   +65.9493
iter: 102 06:21:49  -873.754591c -6.42  -4.34c   +65.9416
iter: 103 06:24:52  -873.756063c -5.79  -4.38c   +65.9202
iter: 104 06:27:55  -873.758718c -5.05  -4.32c   +65.8665
iter: 105 06:30:58  -873.760497c -4.96  -4.11c   +65.8295
iter: 106 06:34:04  -873.760201c -5.90  -3.90    +65.8439
iter: 107 06:37:06  -873.760546c -6.21  -3.95    +65.8531
iter: 108 06:40:09  -873.760988c -6.45  -3.91    +65.8554
iter: 109 06:43:11  -873.760663c -6.26  -3.90    +65.8559
iter: 110 06:46:14  -873.760386c -5.58  -3.75    +65.8586
iter: 111 06:49:16  -873.760118c -6.23  -3.85    +65.8631
iter: 112 06:52:18  -873.759979c -6.84  -3.89    +65.8736
iter: 113 06:55:22  -873.759958c -6.43  -3.96    +65.8867
iter: 114 06:58:25  -873.760292c -6.36  -3.94    +65.8915
iter: 115 07:01:27  -873.759815c -6.47  -3.90    +65.8979
iter: 116 07:04:30  -873.759958c -6.59  -3.94    +65.9037
iter: 117 07:07:33  -873.759522c -6.34  -4.06c   +65.9047
iter: 118 07:10:36  -873.760075c -6.64  -3.97    +65.9067
iter: 119 07:13:39  -873.759631c -7.05  -4.05c   +65.9085
iter: 120 07:16:42  -873.759956c -6.54  -4.15c   +65.9091
iter: 121 07:19:45  -873.759689c -6.63  -4.10c   +65.9140
iter: 122 07:22:48  -873.759733c -7.00  -4.17c   +65.9180
iter: 123 07:25:51  -873.759522c -7.34  -4.36c   +65.9189
iter: 124 07:28:53  -873.759899c -7.23  -4.41c   +65.9236
iter: 125 07:31:56  -873.759585c -7.53c -4.34c   +65.9233

Converged after 125 iterations.

Dipole moment: (-2.696940, -7.243991, -16.265628) |e|*Ang

Total magnetic moment: (0.000000, 0.000000, 65.923284)
Local magnetic moments:
   0 Co ( 0.000000,  0.000000,  1.413448)
   1 Co ( 0.000000,  0.000000,  1.205602)
   2 Fe ( 0.000000,  0.000000,  1.242880)
   3 Fe ( 0.000000,  0.000000,  1.526089)
   4 Cr ( 0.000000,  0.000000, -0.413118)
   5 Cr ( 0.000000,  0.000000, -0.561385)
   6 Co ( 0.000000,  0.000000,  0.543741)
   7 Cr ( 0.000000,  0.000000, -1.401710)
   8 Fe ( 0.000000,  0.000000,  2.297752)
   9 Ni ( 0.000000,  0.000000,  0.351103)
  10 Ni ( 0.000000,  0.000000,  0.508862)
  11 Co ( 0.000000,  0.000000,  1.566244)
  12 Cr ( 0.000000,  0.000000, -0.480854)
  13 Fe ( 0.000000,  0.000000,  1.008915)
  14 Cr ( 0.000000,  0.000000, -1.033715)
  15 Fe ( 0.000000,  0.000000,  1.499297)
  16 Ni ( 0.000000,  0.000000,  0.131517)
  17 Co ( 0.000000,  0.000000,  1.203967)
  18 Ni ( 0.000000,  0.000000,  0.349935)
  19 Cr ( 0.000000,  0.000000, -1.701065)
  20 Co ( 0.000000,  0.000000,  1.115992)
  21 Ni ( 0.000000,  0.000000,  0.113431)
  22 Co ( 0.000000,  0.000000,  0.956091)
  23 Cr ( 0.000000,  0.000000, -1.249595)
  24 Fe ( 0.000000,  0.000000,  1.517335)
  25 Co ( 0.000000,  0.000000,  1.392029)
  26 Cr ( 0.000000,  0.000000, -1.095571)
  27 Cr ( 0.000000,  0.000000, -0.354123)
  28 Fe ( 0.000000,  0.000000,  1.325681)
  29 Cr ( 0.000000,  0.000000, -0.711280)
  30 Co ( 0.000000,  0.000000,  1.102142)
  31 Co ( 0.000000,  0.000000,  1.108453)
  32 Cr ( 0.000000,  0.000000,  0.834465)
  33 Ni ( 0.000000,  0.000000,  0.377857)
  34 Ni ( 0.000000,  0.000000,  0.229608)
  35 Cr ( 0.000000,  0.000000, -1.332901)
  36 Fe ( 0.000000,  0.000000,  2.240265)
  37 Ni ( 0.000000,  0.000000,  0.312461)
  38 Cr ( 0.000000,  0.000000, -0.601103)
  39 Fe ( 0.000000,  0.000000,  1.497222)
  40 Fe ( 0.000000,  0.000000,  1.638724)
  41 Co ( 0.000000,  0.000000,  0.075376)
  42 Cr ( 0.000000,  0.000000, -0.342155)
  43 Fe ( 0.000000,  0.000000,  1.833996)
  44 Fe ( 0.000000,  0.000000,  2.334425)
  45 Fe ( 0.000000,  0.000000,  2.113601)
  46 Ni ( 0.000000,  0.000000,  0.330483)
  47 Co ( 0.000000,  0.000000,  1.465983)
  48 Cr ( 0.000000,  0.000000, -0.518033)
  49 Ni ( 0.000000,  0.000000,  0.225346)
  50 Fe ( 0.000000,  0.000000,  2.139408)
  51 Co ( 0.000000,  0.000000,  1.045102)
  52 Co ( 0.000000,  0.000000,  1.136638)
  53 Fe ( 0.000000,  0.000000,  2.240405)
  54 Fe ( 0.000000,  0.000000,  1.901731)
  55 Ni ( 0.000000,  0.000000,  0.563884)
  56 Ni ( 0.000000,  0.000000,  0.506669)
  57 Fe ( 0.000000,  0.000000,  2.087145)
  58 Co ( 0.000000,  0.000000,  0.819991)
  59 Ni ( 0.000000,  0.000000,  0.251613)
[...]
  93 Ni ( 0.000000,  0.000000,  0.152196)
  94 Ni ( 0.000000,  0.000000,  0.242325)
  95 Cr ( 0.000000,  0.000000, -1.559933)
  96 Ni ( 0.000000,  0.000000,  0.083066)
  97 Co ( 0.000000,  0.000000,  0.698740)
  98 Fe ( 0.000000,  0.000000,  1.319063)
  99 Cr ( 0.000000,  0.000000, -0.729390)
 100 Co ( 0.000000,  0.000000,  1.353342)
 101 Cr ( 0.000000,  0.000000,  0.161408)
 102 Fe ( 0.000000,  0.000000,  2.295459)
 103 Co ( 0.000000,  0.000000,  1.018222)
 104 Ni ( 0.000000,  0.000000,  0.176083)
 105 Co ( 0.000000,  0.000000,  1.085257)
 106 Cr ( 0.000000,  0.000000,  1.187228)
 107 Cr ( 0.000000,  0.000000, -1.762846)

Energy contributions relative to reference atoms: (reference = -3846758.590871)

Kinetic:       +355.488149
Potential:     -377.646873
External:        +0.000000
XC:            -889.076858
Entropy (-ST):   -4.809216
Local:          +39.880605
Free energy:   -876.164193
Extrapolated:  -873.759585

Spin contamination: 23.957079 electrons
Showing only first 2 kpts
                      Up                     Down
 Kpt  Band  Eigenvalues  Occupancy  Eigenvalues  Occupancy
  0   524      9.85388    0.99466     10.73331    0.02746
  0   525      9.86207    0.99421     10.74583    0.02431
  0   526      9.88101    0.99301     10.76277    0.02060
  0   527      9.88819    0.99249     10.77345    0.01855

  1   524      9.86227    0.99419     10.75236    0.02281
  1   525      9.87798    0.99321     10.75905    0.02136
  1   526      9.89361    0.99208     10.77113    0.01898
  1   527      9.89844    0.99169     10.77606    0.01808

Fermi level: 10.37659

No gap

Forces in eV/Ang:
  0 Co   -1.46584    2.78413    1.51866
  1 Co    0.23386   -0.40268   -0.83355
  2 Fe   -0.96061    0.45003   -0.33951
  3 Fe   -1.26714   -1.43266   -0.33311
  4 Cr    1.67517    0.50679    0.21739
  5 Cr    0.07424    0.50818    0.65122
  6 Co   -0.50864   -0.76621   -0.01777
  7 Cr   -1.23892   -0.00910   -1.54368
  8 Fe   -1.07430   -0.80110    0.68704
  9 Ni    1.15089    0.04728   -0.49505
 10 Ni    0.94613    0.55354    0.47805
 11 Co    0.69834   -1.26596    0.02350
 12 Cr   -0.27174   -0.75043   -0.57901
 13 Fe    0.45860    0.67580    0.20733
 14 Cr    0.06923    0.31015    0.81411
 15 Fe    1.51449    0.56742   -0.33882
 16 Ni    0.61034    1.20347    0.71381
 17 Co   -1.83925   -0.23302   -0.03171
 18 Ni    0.08904    1.08583   -1.66948
 19 Cr   -1.36332    0.95291   -0.75018
 20 Co    0.22351    0.35356   -0.62557
 21 Ni    0.01956   -1.04704    1.60930
 22 Co    0.37164   -0.31173   -0.78249
 23 Cr    0.27869   -0.64518   -0.63439
 24 Fe   -0.69617   -1.95470    1.63756
 25 Co   -0.01548   -0.68837    0.69127
 26 Cr    0.46261   -0.16055   -0.54783
 27 Cr   -1.08358    0.40356    0.75637
 28 Fe    0.98291   -1.31085    0.27384
 29 Cr    2.04903    1.22754   -1.42235
 30 Co    1.19814   -1.12191    0.78246
 31 Co   -0.15310    0.43756   -0.38467
 32 Cr   -0.03812   -0.04084   -0.19791
 33 Ni    1.29601    1.56844   -1.05591
 34 Ni   -0.13828   -0.47756   -0.79068
 35 Cr    0.66507    0.35822    0.29862
 36 Fe   -0.84731    0.12260   -0.37468
 37 Ni   -0.85387    0.18652    0.52307
 38 Cr   -0.68611   -0.04936   -0.21087
 39 Fe    0.11746    1.29014   -0.46821
 40 Fe    0.03251   -1.15586   -0.86374
 41 Co    0.24027    1.43897   -0.14109
 42 Cr    0.78752   -1.24663    0.06795
 43 Fe   -0.51094   -1.23421    0.33132
 44 Fe    0.84423   -0.74378   -0.35743
 45 Fe    0.53126    0.38025   -0.08572
 46 Ni    1.64450    1.12189   -0.62860
 47 Co   -0.76003    0.17948   -0.95985
 48 Cr    0.49756   -0.85079   -0.23359
 49 Ni    1.50037    1.06591    2.35109
 50 Fe    0.04499    0.06138    0.51233
 51 Co    1.52693    0.45006   -1.05180
 52 Co   -1.02906    0.32381    0.86398
 53 Fe    0.57146    0.05496   -0.62826
 54 Fe   -1.23736    0.57048   -0.26904
 55 Ni    0.16901   -0.42212   -0.55317
 56 Ni   -0.99616    0.04625    0.09345
 57 Fe    0.60052   -0.71651    0.23811
 58 Co   -2.27048   -1.64996    1.38705
 59 Ni   -2.56628    0.07255   -1.30398
[...]
 93 Ni    0.04124   -0.20449    0.02245
 94 Ni    1.73265    0.63940    2.97224
 95 Cr   -0.01713    0.64498    0.19139
 96 Ni   -0.35602   -0.84155    0.13524
 97 Co    0.70779    0.37476   -2.23722
 98 Fe   -1.03837   -1.54987   -1.76825
 99 Cr   -0.61809    0.37855   -1.47721
100 Co   -0.39079    0.21265   -0.47658
101 Cr    2.77749   -0.34169   -0.32881
102 Fe    1.10293    0.19605   -0.31196
103 Co    0.74386   -1.03652    0.00952
104 Ni   -0.17434    0.07765    2.07381
105 Co   -0.04239    0.21760    0.00473
106 Cr   -1.12147   -0.97132   -0.60988
107 Cr   -0.22323   -0.90424    0.85853

Date: Fri Apr 14 07:32:20 2023