User:   c.zeng@d0073
Date:   Sat Apr 15 22:31:55 2023
Arch:   x86_64
Pid:    270583
CWD:    /home/c.zeng/projects/hea-corrosion/hea-mlp/data-curation/bulk-mcmc/dft-jobs/9
Python: 3.8.1
gpaw:   /home/c.zeng/usr/installs/gpaw/source/gpaw-22.8.0/gpaw
_gpaw:  /home/c.zeng/usr/installs/gpaw/source/gpaw-22.8.0/
        _gpaw.cpython-38-x86_64-linux-gnu.so
ase:    /home/c.zeng/.local/lib/python3.8/site-packages/ase-3.22.1-py3.8.egg/ase (version 3.22.1)
numpy:  /home/c.zeng/.local/lib/python3.8/site-packages/numpy (version 1.24.2)
scipy:  /home/c.zeng/.local/lib/python3.8/site-packages/scipy (version 1.10.1)
units:  Angstrom and eV
cores: 30
OpenMP: False
OMP_NUM_THREADS: 1

Input parameters:
  convergence: {energy: 0.0001}
  kpts: [2 2 2]
  maxiter: 666
  mode: {ecut: 350.0,
         name: pw}
  occupations: {fixmagmom: False,
                name: fermi-dirac,
                width: 0.1}
  spinpol: True
  xc: PBE

System changes: positions, numbers, cell, pbc, initial_charges, initial_magmoms

Initialize ...

species:
  Co:
    name: Cobalt
    id: 339d20d5b0b93d2de9531a1bee871d91
    Z: 27.0
    valence: 9
    core: 18
    charge: 0.0
    file: /home/c.zeng/usr/data/gpaw-setups-0.9.20000/Co.PBE.gz
    compensation charges: {type: gauss,
                           rc: 0.32,
                           lmax: 2}
    cutoffs: {filter: 1.87,
              core: 2.55}
    valence states:
      #              energy  rcut
      - 4s(2.00)    -5.469   1.005
      - 4p(0.00)    -1.277   1.058
      - 3d(7.00)    -8.205   1.005
      -  s          21.742   1.005
      -  p          25.934   1.058
      -  d          19.007   1.005

    # Using partial waves for Co as LCAO basis

  Fe:
    name: Iron
    id: 37abbd8d6c3c35915a9b583b742da910
    Z: 26.0
    valence: 8
    core: 18
    charge: 0.0
    file: /home/c.zeng/usr/data/gpaw-setups-0.9.20000/Fe.PBE.gz
    compensation charges: {type: gauss,
                           rc: 0.33,
                           lmax: 2}
    cutoffs: {filter: 2.06,
              core: 2.67}
    valence states:
      #              energy  rcut
      - 4s(2.00)    -5.291   1.164
      - 4p(0.00)    -1.326   1.058
      - 3d(6.00)    -7.505   1.058
      -  s          21.920   1.164
      -  p          25.885   1.058
      -  d          19.706   1.058

[...]

  Cr:
    name: Chromium
    id: 33f258bda2ca9f93018e70263a35547b
    Z: 24.0
    valence: 6
    core: 18
    charge: 0.0
    file: /home/c.zeng/usr/data/gpaw-setups-0.9.20000/Cr.PBE.gz
    compensation charges: {type: gauss,
                           rc: 0.35,
                           lmax: 2}
    cutoffs: {filter: 2.14,
              core: 3.04}
    valence states:
      #              energy  rcut
      - 4s(1.00)    -4.007   1.164
      - 4p(0.00)    -0.989   1.217
      - 3d(5.00)    -2.913   1.111
      -  s          23.205   1.164
      -  p          26.223   1.217
      -  d          24.299   1.111

[...]

  Ni:
    name: Nickel
    id: 0d9f38a9d6e76a2886f07bb4381f212b
    Z: 28.0
    valence: 16
    core: 12
    charge: 0.0
    file: /home/c.zeng/usr/data/gpaw-setups-0.9.20000/Ni.PBE.gz
    compensation charges: {type: gauss,
                           rc: 0.36,
                           lmax: 2}
    cutoffs: {filter: 2.14,
              core: 1.98}
    valence states:
      #              energy  rcut
      - 4s(2.00)    -5.642   1.164
      - 3p(6.00)   -71.394   1.207
      - 4p(0.00)    -1.226   1.207
      - 3d(8.00)    -8.875   1.138
      -  s          21.570   1.164
      -  d          18.337   1.138

    # Using partial waves for Ni as LCAO basis

Reference energy: -3846758.590871  # eV

Spin-polarized calculation.
Magnetic moment: 151.200000

Convergence criteria:
 Maximum [total energy] change in last 3 cyles: 0.0001 eV / electron
 Maximum integral of absolute [dens]ity change: 0.0001 electrons / valence electron
 Maximum integral of absolute [eigenst]ate change: 4e-08 eV^2 / valence electron
 Maximum number of scf [iter]ations: 666
 (Square brackets indicate name in SCF output, whereas a 'c' in
 the SCF output indicates the quantity has converged.)

Symmetries present (total): 1

  ( 1  0  0)
  ( 0  1  0)
  ( 0  0  1)

8 k-points: 2 x 2 x 2 Monkhorst-Pack grid
4 k-points in the irreducible part of the Brillouin zone
       k-points in crystal coordinates                weights
   0:     0.25000000   -0.25000000   -0.25000000          2/8
   1:     0.25000000   -0.25000000    0.25000000          2/8
   2:     0.25000000    0.25000000   -0.25000000          2/8
   3:     0.25000000    0.25000000    0.25000000          2/8

Wave functions: Plane wave expansion
  Cutoff energy: 350.000 eV
  Number of coefficients (min, max): 17755, 17755
  Pulay-stress correction: 0.000000 eV/Ang^3 (de/decut=0.000000)
  Using FFTW library
  ScaLapack parameters: grid=1x1, blocksize=None
  Wavefunction extrapolation:
    Improved wavefunction reuse through dual PAW basis

Occupation numbers: Fermi-Dirac:
  width: 0.1000  # eV

Eigensolver
   Davidson(niter=2)

Densities:
  Coarse grid: 48*48*48 grid
  Fine grid: 96*96*96 grid
  Total Charge: 0.000000

Density mixing:
  Method: difference
  Backend: pulay
  Linear mixing parameter: 0.05
  old densities: 5
  Damping of long wavelength oscillations: 50

Hamiltonian:
  XC and Coulomb potentials evaluated on a 96*96*96 grid
  Using the PBE Exchange-Correlation functional
  External potential:
    NoExternalPotential

XC parameters: PBE with 2 nearest neighbor stencil

Total number of cores used: 30
Parallelization over k-points: 2
Domain decomposition: 5 x 3 x 1

Number of atoms: 108
Number of atomic orbitals: 1053
Number of bands in calculation: 727
Number of valence electrons: 1053
Bands to converge: occupied

... initialized

Initializing position-dependent things.

Density initialized from atomic densities
Creating initial wave functions:
  727 bands from LCAO basis set

       /|  Ni       Cr      Cr    |
      / |   CrFe     Cr           |
     /  |       Co      Fe       Fe
    /   |Ni      CFe       Co     Cr
   /    | Co       Cr       CFe   |
  /  CCo|  FeNi     CoCr          |
 *    NiCr    FeNi   FeCrCo       |
 |      |CoNi   FeFeCr  CoCrFe   Cr
 |      | CrCo     CoNiFeNiNiNi   |
 |    Co|  CoFeNi   CoNiFe   CrCo |
 |      Cr    CrCrNi CrNiNi     Ni|
 |      |FeFe  CoFeCr   FeCrFe   Ni
 |      .-FeCo-----NiNiFe--CrNi---Co
 |   Cro     Fe       Ni         /
 |    CrCo     Coi     CNie     /
 |   /    Co               Ni  /
 |  /      Fe       Fe    CrFe/
 | / Fe     Cr       NiCr    /
 |/            Co       Ni  /
 *--------Co------Co-------*

Positions:
   0 Co    -0.012479   -0.003723   10.616104    ( 0.0000,  0.0000,  2.1000)
   1 Fe    -0.011321    1.761305    1.763386    ( 0.0000,  0.0000,  2.1000)
   2 Fe     1.758365    0.001326    1.769011    ( 0.0000,  0.0000,  2.0000)
   3 Co     1.752686    1.779222   10.610436    ( 0.0000,  0.0000,  2.0000)
   4 Co     3.541196    0.004726   10.616104    ( 0.0000,  0.0000,  0.0000)
   5 Fe     3.534711    1.782438    1.778999    ( 0.0000,  0.0000,  0.0000)
   6 Cr     5.305717   10.600629    1.767950    ( 0.0000,  0.0000,  2.1000)
   7 Co     5.324780    1.765604   10.614618    ( 0.0000,  0.0000,  0.0000)
   8 Co     7.089121    0.014598   10.619926    ( 0.0000,  0.0000,  2.0000)
   9 Fe     7.085279    1.771219    1.773543    ( 0.0000,  0.0000,  1.5000)
  10 Cr     8.850554    0.011470    1.768756    ( 0.0000,  0.0000,  1.5000)
  11 Ni     8.842381    1.777333   10.615680    ( 0.0000,  0.0000,  2.1000)
  12 Fe    10.590535    3.538203   -0.001956    ( 0.0000,  0.0000,  0.0000)
  13 Ni    10.624277    5.310674    1.769786    ( 0.0000,  0.0000,  2.0000)
  14 Co     1.761379    3.535623    1.784572    ( 0.0000,  0.0000,  0.0000)
  15 Ni     1.770200    5.301408   10.611753    ( 0.0000,  0.0000,  2.0000)
  16 Cr     3.556003    3.551407   10.618333    ( 0.0000,  0.0000,  1.5000)
  17 Fe     3.539370    5.311290    1.775199    ( 0.0000,  0.0000,  2.1000)
  18 Ni     5.320142    3.545059    1.779678    ( 0.0000,  0.0000,  1.5000)
  19 Fe     5.306980    5.314654   10.602720    ( 0.0000,  0.0000,  0.0000)
  20 Ni     7.081585    3.529127   10.614725    ( 0.0000,  0.0000,  2.1000)
  21 Ni     7.069241    5.303361    1.781271    ( 0.0000,  0.0000,  1.5000)
  22 Fe     8.841447    3.542671    1.781600    ( 0.0000,  0.0000,  2.1000)
  23 Cr     8.850893    5.290379    0.000220    ( 0.0000,  0.0000,  0.0000)
  24 Cr     0.005868    7.083411   10.614937    ( 0.0000,  0.0000,  2.0000)
  25 Ni    10.601043    8.849694    1.772960    ( 0.0000,  0.0000,  2.1000)
  26 Fe     1.773713    7.072329    1.777184    ( 0.0000,  0.0000,  0.0000)
  27 Ni     1.755520    8.842943   10.608324    ( 0.0000,  0.0000,  0.0000)
  28 Fe     3.544009    7.063116   10.610489    ( 0.0000,  0.0000,  2.0000)
  29 Co     3.542225    8.826820    1.785580    ( 0.0000,  0.0000,  0.0000)
  30 Ni     5.309835    7.081776    1.776600    ( 0.0000,  0.0000,  2.1000)
  31 Cr     5.331945    8.840321   10.604673    ( 0.0000,  0.0000,  2.1000)
  32 Co     7.068434    7.069028   10.623110    ( 0.0000,  0.0000,  0.0000)
  33 Fe     7.083750    8.846796    1.774509    ( 0.0000,  0.0000,  1.5000)
  34 Cr     8.841404    7.058180    1.777173    ( 0.0000,  0.0000,  1.5000)
  35 Cr     8.835524    8.853600   10.611753    ( 0.0000,  0.0000,  0.0000)
  36 Ni    -0.009351   10.618864    3.531070    ( 0.0000,  0.0000,  2.0000)
  37 Fe    10.602508    1.764818    5.300452    ( 0.0000,  0.0000,  1.5000)
  38 Cr     1.756720    0.001379    5.295867    ( 0.0000,  0.0000,  0.0000)
  39 Co     1.766506    1.767154    3.539222    ( 0.0000,  0.0000,  2.0000)
  40 Co     3.539742    0.013881    3.542873    ( 0.0000,  0.0000,  2.0000)
  41 Fe     3.548944    1.788658    5.306237    ( 0.0000,  0.0000,  2.1000)
  42 Fe     5.320174   -0.004685    5.301386    ( 0.0000,  0.0000,  0.0000)
  43 Co     5.316862    1.765551    3.538935    ( 0.0000,  0.0000,  2.0000)
  44 Ni     7.081086   -0.000289    3.531325    ( 0.0000,  0.0000,  2.0000)
  45 Cr     7.072902    1.777407    5.300537    ( 0.0000,  0.0000,  2.0000)
  46 Fe     8.840544    0.012372    5.307851    ( 0.0000,  0.0000,  1.5000)
  47 Ni     8.833592    1.767928    3.534318    ( 0.0000,  0.0000,  2.1000)
  48 Ni    -0.004066    3.525285    3.545951    ( 0.0000,  0.0000,  0.0000)
  49 Co    -0.001689    5.317934    5.307787    ( 0.0000,  0.0000,  1.5000)
  50 Cr     1.769043    3.555101    5.297279    ( 0.0000,  0.0000,  2.0000)
  51 Fe     1.773692    5.305929    3.538266    ( 0.0000,  0.0000,  2.1000)
  52 Co     3.542746    3.537364    3.547575    ( 0.0000,  0.0000,  2.1000)
  53 Fe     3.548477    5.306927    5.301153    ( 0.0000,  0.0000,  2.0000)
  54 Cr     5.316246    3.553031    5.303637    ( 0.0000,  0.0000,  2.0000)
  55 Fe     5.303286    5.303531    3.542385    ( 0.0000,  0.0000,  1.5000)
  56 Ni     7.074962    3.533023    3.537215    ( 0.0000,  0.0000,  1.5000)
  57 Ni     7.066046    5.306046    5.300081    ( 0.0000,  0.0000,  2.0000)
  58 Ni     8.834526    3.538160    5.294530    ( 0.0000,  0.0000,  2.1000)
  59 Cr     8.846255    5.300452    3.537672    ( 0.0000,  0.0000,  1.5000)
[...]
[...]
  94 Co     8.837997    3.524669    8.843389    ( 0.0000,  0.0000,  1.5000)
  95 Cr     8.833772    5.299051    7.076862    ( 0.0000,  0.0000,  0.0000)
  96 Ni     0.012168    7.080333    7.083835    ( 0.0000,  0.0000,  1.5000)
  97 Fe    -0.017034    8.848707    8.843941    ( 0.0000,  0.0000,  2.1000)
  98 Co     1.777938    7.075503    8.840194    ( 0.0000,  0.0000,  2.0000)
  99 Fe     1.758800    8.840035    7.069803    ( 0.0000,  0.0000,  0.0000)
 100 Fe     3.549921    7.066194    7.070090    ( 0.0000,  0.0000,  2.1000)
 101 Co     3.553137    8.839111    8.836776    ( 0.0000,  0.0000,  0.0000)
 102 Cr     5.304189    7.079929    8.840215    ( 0.0000,  0.0000,  2.0000)
 103 Co     5.321946    8.832180    7.082997    ( 0.0000,  0.0000,  2.1000)
 104 Cr     7.057077    7.072149    7.064167    ( 0.0000,  0.0000,  1.5000)
 105 Fe     7.082402    8.855500    8.837487    ( 0.0000,  0.0000,  2.1000)
 106 Co     8.846786    7.077881    8.846732    ( 0.0000,  0.0000,  0.0000)
 107 Cr     8.839313    8.848272    7.075153    ( 0.0000,  0.0000,  0.0000)

Unit cell:
           periodic     x           y           z      points  spacing
  1. axis:    yes   10.614300    0.000000    0.000000    48     0.2211
  2. axis:    yes    0.000000   10.614300    0.000000    48     0.2211
  3. axis:    yes    0.000000    0.000000   10.614300    48     0.2211

  Lengths:  10.614300  10.614300  10.614300
  Angles:   90.000000  90.000000  90.000000

Effective grid spacing dv^(1/3) = 0.2211

     iter     time        total  log10-change:  magmom
                         energy  eigst   dens
iter:   1 22:37:43  -946.811223                  +151.1019
iter:   2 22:40:12  -933.106451  -0.60  -1.38    +113.6658
iter:   3 22:42:40  -920.314255  -0.98  -1.37    +83.8031
iter:   4 22:45:08  -894.645577  -1.43  -1.38    +71.9888
iter:   5 22:47:37  -892.044005  -1.92  -1.50    +64.5350
iter:   6 22:50:04  -896.780765  -1.95  -1.53    +60.7043
iter:   7 22:52:32  -896.040437  -1.70  -1.54    +58.0594
iter:   8 22:55:00  -887.747897  -1.80  -1.57    +56.4999
iter:   9 22:57:28  -892.088029  -1.83  -1.78    +56.0697
iter:  10 22:59:56  -889.081817  -2.21  -1.79    +55.3703
iter:  11 23:02:24  -889.079136  -2.37  -1.88    +54.8384
iter:  12 23:04:50  -887.673127  -2.71  -1.90    +55.0436
iter:  13 23:07:17  -888.645904  -2.73  -1.97    +55.3452
iter:  14 23:09:45  -888.523811  -2.74  -1.98    +55.6566
iter:  15 23:12:14  -889.306978  -2.74  -2.02    +55.9290
iter:  16 23:14:42  -890.787968  -2.52  -2.02    +56.3972
iter:  17 23:17:11  -891.465059  -2.47  -1.97    +56.5750
iter:  18 23:19:39  -889.825014  -2.54  -2.00    +56.5632
iter:  19 23:22:07  -889.695805  -2.80  -2.09    +56.9286
iter:  20 23:24:35  -888.983772  -3.00  -2.11    +57.3061
iter:  21 23:26:59  -889.040410  -3.43  -2.20    +58.0165
iter:  22 23:29:28  -889.224559  -3.39  -2.24    +58.5521
iter:  23 23:31:56  -889.448063  -3.51  -2.24    +59.1715
iter:  24 23:34:25  -890.179870  -3.04  -2.27    +59.8424
iter:  25 23:36:54  -890.176514  -3.10  -2.22    +59.9734
iter:  26 23:39:23  -890.437164  -2.93  -2.26    +60.7182
iter:  27 23:41:51  -890.424513  -3.05  -2.30    +60.9690
iter:  28 23:44:20  -890.826917  -2.97  -2.33    +61.3914
iter:  29 23:46:48  -890.421867  -3.26  -2.27    +61.4195
iter:  30 23:49:16  -890.306086  -3.40  -2.38    +61.7641
iter:  31 23:51:45  -890.245242  -3.81  -2.45    +61.9347
iter:  32 23:54:13  -890.280873c -4.33  -2.50    +62.0565
iter:  33 23:56:41  -890.464218  -3.76  -2.53    +62.2556
iter:  34 23:59:10  -890.705749  -3.56  -2.54    +62.2516
iter:  35 00:01:36  -890.712481  -3.48  -2.52    +62.2530
iter:  36 00:04:03  -890.603828  -3.65  -2.59    +62.0115
iter:  37 00:06:32  -890.672740  -3.71  -2.82    +61.9834
iter:  38 00:09:00  -890.606112c -3.91  -2.76    +61.9995
iter:  39 00:11:29  -890.600411c -4.33  -2.90    +61.8856
iter:  40 00:13:58  -890.612997c -4.54  -3.04    +61.8159
iter:  41 00:16:26  -890.616479c -4.72  -3.09    +61.7602
iter:  42 00:18:55  -890.635121c -4.89  -3.15    +61.7692
iter:  43 00:21:23  -890.689109c -4.13  -3.19    +61.6806
iter:  44 00:23:51  -890.761065  -3.81  -3.13    +61.5502
iter:  45 00:26:19  -890.798958  -4.00  -3.00    +61.4630
iter:  46 00:28:48  -890.819513c -4.36  -2.93    +61.3559
iter:  47 00:31:16  -890.815322c -4.97  -2.90    +61.3102
iter:  48 00:33:44  -890.809816c -5.19  -2.92    +61.3074
iter:  49 00:36:12  -890.835384c -4.47  -2.94    +61.2644
iter:  50 00:38:40  -890.840932c -3.89  -2.88    +61.2719
iter:  51 00:41:08  -890.789360c -4.17  -2.89    +61.2489
iter:  52 00:43:34  -890.775007c -4.62  -3.10    +61.2051
iter:  53 00:46:01  -890.781925c -4.78  -3.24    +61.1866
iter:  54 00:48:29  -890.773076c -5.07  -3.24    +61.1449
iter:  55 00:50:58  -890.773163c -5.42  -3.38    +61.1538
iter:  56 00:53:26  -890.774507c -5.47  -3.42    +61.1603
iter:  57 00:55:55  -890.774850c -5.43  -3.43    +61.1317
iter:  58 00:58:23  -890.778232c -5.21  -3.44    +61.1396
iter:  59 01:00:51  -890.774759c -5.41  -3.39    +61.1295
iter:  60 01:03:20  -890.777229c -5.28  -3.47    +61.1199
iter:  61 01:05:48  -890.776388c -5.45  -3.45    +61.1077
iter:  62 01:08:16  -890.774638c -5.57  -3.53    +61.0689
iter:  63 01:10:40  -890.774544c -5.95  -3.60    +61.0763
iter:  64 01:13:08  -890.774681c -5.99  -3.66    +61.0557
iter:  65 01:15:37  -890.775080c -6.18  -3.68    +61.0465
iter:  66 01:18:05  -890.775584c -5.94  -3.71    +61.0276
iter:  67 01:20:34  -890.775543c -6.05  -3.67    +61.0265
iter:  68 01:23:02  -890.777121c -5.77  -3.72    +61.0213
iter:  69 01:25:30  -890.776951c -5.78  -3.66    +60.9973
iter:  70 01:27:58  -890.777698c -5.78  -3.68    +60.9920
iter:  71 01:30:25  -890.776642c -5.86  -3.68    +60.9855
iter:  72 01:32:50  -890.777197c -6.11  -3.77    +60.9787
iter:  73 01:35:18  -890.777299c -6.37  -3.80    +60.9698
iter:  74 01:37:47  -890.777575c -6.30  -3.87    +60.9573
iter:  75 01:40:16  -890.777816c -6.54  -3.87    +60.9567
iter:  76 01:42:44  -890.778076c -6.44  -3.89    +60.9435
iter:  77 01:45:13  -890.780445c -5.73  -3.96    +60.9310
iter:  78 01:47:42  -890.778777c -6.04  -3.74    +60.9289
iter:  79 01:50:10  -890.779351c -6.11  -4.05c   +60.9230
iter:  80 01:52:39  -890.779434c -6.43  -4.00c   +60.9195
iter:  81 01:55:07  -890.779698c -6.40  -4.18c   +60.9020
iter:  82 01:57:35  -890.779817c -6.73  -4.18c   +60.9031
iter:  83 02:00:04  -890.780162c -6.75  -4.33c   +60.8981
iter:  84 02:02:32  -890.781931c -5.54  -4.32c   +60.8741
iter:  85 02:05:00  -890.780989c -6.44  -4.11c   +60.8874
iter:  86 02:07:28  -890.782306c -5.96  -4.17c   +60.8761
iter:  87 02:09:57  -890.783073c -6.04  -4.09c   +60.8683
iter:  88 02:12:25  -890.783050c -6.73  -3.99    +60.8719
iter:  89 02:14:52  -890.784330c -6.09  -4.04c   +60.8696
iter:  90 02:17:18  -890.783778c -6.34  -3.85    +60.8699
iter:  91 02:19:47  -890.784109c -6.10  -4.00    +60.8609
iter:  92 02:22:16  -890.783841c -6.61  -3.90    +60.8657
iter:  93 02:24:45  -890.784494c -6.32  -4.21c   +60.8634
iter:  94 02:27:13  -890.784404c -6.67  -4.14c   +60.8581
iter:  95 02:29:42  -890.784571c -6.62  -4.29c   +60.8571
iter:  96 02:32:11  -890.784749c -6.85  -4.28c   +60.8579
iter:  97 02:34:40  -890.785066c -6.66  -4.30c   +60.8593
iter:  98 02:37:08  -890.785240c -6.79  -4.39c   +60.8530
iter:  99 02:39:37  -890.785412c -6.94  -4.41c   +60.8518
iter: 100 02:42:05  -890.786091c -6.22  -4.44c   +60.8527
iter: 101 02:44:34  -890.785808c -7.12  -4.37c   +60.8519
iter: 102 02:47:02  -890.787185c -5.77  -4.32c   +60.8524
iter: 103 02:49:31  -890.787282c -6.64  -4.17c   +60.8553
iter: 104 02:52:00  -890.787486c -6.63  -4.14c   +60.8538
iter: 105 02:54:28  -890.787768c -6.57  -4.16c   +60.8526
iter: 106 02:56:56  -890.788173c -6.47  -4.10c   +60.8538
iter: 107 02:59:24  -890.788048c -6.30  -4.02c   +60.8541
iter: 108 03:01:52  -890.788166c -6.65  -4.01c   +60.8545
iter: 109 03:04:20  -890.788251c -6.90  -4.19c   +60.8490
iter: 110 03:06:48  -890.788388c -6.85  -4.20c   +60.8499
iter: 111 03:09:17  -890.788443c -6.97  -4.16c   +60.8495
iter: 112 03:11:45  -890.788746c -6.57  -4.26c   +60.8404
iter: 113 03:14:10  -890.788802c -6.62  -4.22c   +60.8411
iter: 114 03:16:39  -890.788812c -6.53  -4.23c   +60.8410
iter: 115 03:19:08  -890.788916c -6.81  -4.14c   +60.8419
iter: 116 03:21:36  -890.789072c -6.77  -4.42c   +60.8349
iter: 117 03:24:05  -890.789053c -7.10  -4.38c   +60.8370
iter: 118 03:26:34  -890.789141c -7.31  -4.50c   +60.8386
iter: 119 03:29:02  -890.789261c -7.24  -4.55c   +60.8383
iter: 120 03:31:30  -890.789996c -5.92  -4.55c   +60.8351
iter: 121 03:33:58  -890.790746c -5.68  -4.35c   +60.8323
iter: 122 03:36:26  -890.791977c -5.08  -4.25c   +60.8286
iter: 123 03:38:55  -890.792762c -5.23  -4.05c   +60.8261
iter: 124 03:41:23  -890.792794c -6.00  -3.93    +60.8213
iter: 125 03:43:51  -890.793307c -6.32  -3.92    +60.8184
iter: 126 03:46:20  -890.793296c -6.67  -3.84    +60.8182
iter: 127 03:48:48  -890.793460c -6.08  -3.82    +60.8165
iter: 128 03:51:12  -890.793751c -5.51  -3.75    +60.8120
iter: 129 03:53:41  -890.791963c -5.85  -3.66    +60.7961
iter: 130 03:56:09  -890.792920c -5.79  -4.00c   +60.7849
iter: 131 03:58:37  -890.791718c -6.37  -3.77    +60.7891
iter: 132 04:01:06  -890.791718c -6.88  -4.37c   +60.7881
iter: 133 04:03:35  -890.791636c -7.08  -4.35c   +60.7834
iter: 134 04:06:03  -890.791761c -7.14  -4.42c   +60.7854
iter: 135 04:08:32  -890.791704c -7.45c -4.48c   +60.7825

Converged after 135 iterations.

Dipole moment: (6.640153, -1.977000, 0.813728) |e|*Ang

Total magnetic moment: (0.000000, 0.000000, 60.782455)
Local magnetic moments:
   0 Co ( 0.000000,  0.000000,  0.909948)
   1 Fe ( 0.000000,  0.000000,  2.247705)
   2 Fe ( 0.000000,  0.000000,  2.530633)
   3 Co ( 0.000000,  0.000000,  1.075862)
   4 Co ( 0.000000,  0.000000,  1.049308)
   5 Fe ( 0.000000,  0.000000,  2.305578)
   6 Cr ( 0.000000,  0.000000, -1.377052)
   7 Co ( 0.000000,  0.000000,  0.995815)
   8 Co ( 0.000000,  0.000000,  0.403713)
   9 Fe ( 0.000000,  0.000000,  2.306890)
  10 Cr ( 0.000000,  0.000000, -1.295872)
  11 Ni ( 0.000000,  0.000000,  0.362278)
  12 Fe ( 0.000000,  0.000000,  2.192399)
  13 Ni ( 0.000000,  0.000000,  0.256055)
  14 Co ( 0.000000,  0.000000,  1.499649)
  15 Ni ( 0.000000,  0.000000,  0.295172)
  16 Cr ( 0.000000,  0.000000, -1.787301)
  17 Fe ( 0.000000,  0.000000,  2.097900)
  18 Ni ( 0.000000,  0.000000,  0.431223)
  19 Fe ( 0.000000,  0.000000,  2.204170)
  20 Ni ( 0.000000,  0.000000,  0.248835)
  21 Ni ( 0.000000,  0.000000,  0.232520)
  22 Fe ( 0.000000,  0.000000,  2.323384)
  23 Cr ( 0.000000,  0.000000, -1.265195)
  24 Cr ( 0.000000,  0.000000, -1.108724)
  25 Ni ( 0.000000,  0.000000,  0.147289)
  26 Fe ( 0.000000,  0.000000,  2.333472)
  27 Ni ( 0.000000,  0.000000,  0.376290)
  28 Fe ( 0.000000,  0.000000,  2.098646)
  29 Co ( 0.000000,  0.000000,  1.255204)
  30 Ni ( 0.000000,  0.000000,  0.305256)
  31 Cr ( 0.000000,  0.000000,  0.011526)
  32 Co ( 0.000000,  0.000000,  0.572998)
  33 Fe ( 0.000000,  0.000000,  1.794852)
  34 Cr ( 0.000000,  0.000000,  1.172630)
  35 Cr ( 0.000000,  0.000000, -0.914393)
  36 Ni ( 0.000000,  0.000000,  0.230130)
  37 Fe ( 0.000000,  0.000000,  2.233475)
  38 Cr ( 0.000000,  0.000000, -1.554735)
  39 Co ( 0.000000,  0.000000,  1.220503)
  40 Co ( 0.000000,  0.000000,  1.184226)
  41 Fe ( 0.000000,  0.000000,  2.154013)
  42 Fe ( 0.000000,  0.000000,  2.408916)
  43 Co ( 0.000000,  0.000000,  1.091495)
  44 Ni ( 0.000000,  0.000000,  0.245174)
  45 Cr ( 0.000000,  0.000000, -0.919341)
  46 Fe ( 0.000000,  0.000000,  1.818833)
  47 Ni ( 0.000000,  0.000000,  0.345934)
  48 Ni ( 0.000000,  0.000000,  0.418005)
  49 Co ( 0.000000,  0.000000,  1.074641)
  50 Cr ( 0.000000,  0.000000, -1.762227)
  51 Fe ( 0.000000,  0.000000,  2.062988)
  52 Co ( 0.000000,  0.000000,  1.142681)
  53 Fe ( 0.000000,  0.000000,  1.762507)
  54 Cr ( 0.000000,  0.000000, -1.700921)
  55 Fe ( 0.000000,  0.000000,  2.340005)
  56 Ni ( 0.000000,  0.000000,  0.318674)
  57 Ni ( 0.000000,  0.000000,  0.175970)
  58 Ni ( 0.000000,  0.000000,  0.308822)
  59 Cr ( 0.000000,  0.000000, -1.659665)
[...]
  93 Cr ( 0.000000,  0.000000, -0.331283)
  94 Co ( 0.000000,  0.000000,  0.881966)
  95 Cr ( 0.000000,  0.000000,  0.754129)
  96 Ni ( 0.000000,  0.000000,  0.135528)
  97 Fe ( 0.000000,  0.000000,  1.799413)
  98 Co ( 0.000000,  0.000000,  1.403532)
  99 Fe ( 0.000000,  0.000000,  1.714195)
 100 Fe ( 0.000000,  0.000000,  1.946774)
 101 Co ( 0.000000,  0.000000,  0.989284)
 102 Cr ( 0.000000,  0.000000, -1.152114)
 103 Co ( 0.000000,  0.000000,  1.004052)
 104 Cr ( 0.000000,  0.000000, -0.836481)
 105 Fe ( 0.000000,  0.000000,  1.568366)
 106 Co ( 0.000000,  0.000000,  0.400406)
 107 Cr ( 0.000000,  0.000000, -0.690915)

Energy contributions relative to reference atoms: (reference = -3846758.590871)

Kinetic:       +122.044781
Potential:     -188.480714
External:        +0.000000
XC:            -862.025688
Entropy (-ST):   -4.593080
Local:          +39.966457
Free energy:   -893.088244
Extrapolated:  -890.791704

Spin contamination: 32.865164 electrons
Showing only first 2 kpts
                      Up                     Down
 Kpt  Band  Eigenvalues  Occupancy  Eigenvalues  Occupancy
  0   524      9.86135    0.99288     10.70567    0.02914
  0   525      9.87230    0.99206     10.72058    0.02521
  0   526      9.88250    0.99121     10.73059    0.02286
  0   527      9.89686    0.98987     10.74111    0.02062

  1   524      9.86197    0.99283     10.70177    0.03027
  1   525      9.87124    0.99214     10.71458    0.02672
  1   526      9.88313    0.99116     10.73261    0.02241
  1   527      9.89859    0.98970     10.74794    0.01929

Fermi level: 10.35507

No gap

Forces in eV/Ang:
  0 Co   -0.14081    0.09672   -0.16156
  1 Fe    0.35124    0.02480    0.07882
  2 Fe    0.20246   -0.27641   -0.00928
  3 Co    0.20908    0.05211   -0.15767
  4 Co    0.16604    0.04836   -0.12540
  5 Fe    0.08485    0.23948    0.00945
  6 Cr    0.10938    0.05223   -0.20079
  7 Co   -0.17858   -0.18415   -0.11390
  8 Co   -0.11440   -0.19599   -0.01192
  9 Fe   -0.38676   -0.36737   -0.05676
 10 Cr   -0.33053    0.15949   -0.11568
 11 Ni   -0.00795   -0.22100   -0.10042
 12 Fe    0.36583    0.34101   -0.22583
 13 Ni    0.11582   -0.15834    0.01870
 14 Co    0.06334   -0.01858   -0.10941
 15 Ni   -0.01419   -0.01770    0.03606
 16 Cr    0.27480   -0.34335    0.41974
 17 Fe   -0.16041   -0.40117   -0.11247
 18 Ni   -0.18586   -0.12157    0.02880
 19 Fe    0.24297   -0.18371    0.00417
 20 Ni   -0.06121    0.05563   -0.16092
 21 Ni    0.09531    0.14716   -0.12363
 22 Fe   -0.01932    0.43427    0.03153
 23 Cr   -0.04975    0.03793   -0.17546
 24 Cr    0.24085   -0.17168   -0.34055
 25 Ni    0.19926   -0.03803    0.10508
 26 Fe   -0.15899    0.26394    0.11667
 27 Ni    0.26996    0.01406   -0.00221
 28 Fe   -0.12428    0.30755   -0.15651
 29 Co    0.02492    0.25431   -0.07867
 30 Ni    0.02717    0.11719   -0.10862
 31 Cr   -0.00413    0.23708    0.07966
 32 Co    0.38875    0.33043   -0.34400
 33 Fe   -0.03066    0.13558    0.01609
 34 Cr   -0.09100   -0.09667   -0.32165
 35 Cr   -0.39786   -0.18639   -0.34428
 36 Ni    0.04403    0.24887    0.12591
 37 Fe    0.33857   -0.08877    0.00661
 38 Cr    0.35747   -0.02061   -0.12720
 39 Co    0.06532    0.20580   -0.01049
 40 Co   -0.00664   -0.31448   -0.06427
 41 Fe   -0.33337    0.02482   -0.04636
 42 Fe    0.19662   -0.04286   -0.02841
 43 Co   -0.20627    0.08989    0.14200
 44 Ni    0.01533    0.14686    0.03377
 45 Cr    0.26514   -0.42591    0.03322
 46 Fe   -0.40926   -0.18276   -0.08110
 47 Ni    0.06686   -0.14573    0.03861
 48 Ni   -0.03498    0.08875    0.00854
 49 Co    0.26795    0.03934   -0.13245
 50 Cr    0.16447    0.05495    0.14111
 51 Fe   -0.22352   -0.29458    0.17283
 52 Co    0.04116   -0.14531   -0.14098
 53 Fe   -0.15718   -0.11030    0.32342
 54 Cr   -0.32560    0.10446   -0.13858
 55 Fe    0.06993   -0.17340    0.06162
 56 Ni    0.05762   -0.11398    0.06994
 57 Ni    0.06322   -0.00687    0.05516
 58 Ni   -0.08940    0.00640    0.17171
 59 Cr    0.19776    0.02657   -0.21415
[...]
 93 Cr    0.18557   -0.08307    0.08692
 94 Co   -0.17961    0.30722    0.04307
 95 Cr    0.04096    0.05518    0.55067
 96 Ni   -0.24052   -0.19416   -0.06814
 97 Fe    0.25665    0.00823    0.00892
 98 Co   -0.19542   -0.01303    0.02430
 99 Fe    0.52798    0.19954    0.26601
100 Fe   -0.01341    0.13100    0.17881
101 Co   -0.04781    0.15127   -0.08199
102 Cr   -0.08456    0.47577    0.15335
103 Co   -0.26009   -0.09123    0.04489
104 Cr    0.21018    0.20432   -0.29259
105 Fe    0.00217   -0.28911    0.31736
106 Co   -0.27697   -0.12646    0.29208
107 Cr   -0.00126   -0.06443    0.15089

Date: Sun Apr 16 04:08:56 2023