User:   c.zeng@d0127
Date:   Sat Apr 15 23:37:35 2023
Arch:   x86_64
Pid:    175417
CWD:    /home/c.zeng/projects/hea-corrosion/hea-mlp/data-curation/bulk-mcmc/dft-jobs/97
Python: 3.8.1
gpaw:   /home/c.zeng/usr/installs/gpaw/source/gpaw-22.8.0/gpaw
_gpaw:  /home/c.zeng/usr/installs/gpaw/source/gpaw-22.8.0/
        _gpaw.cpython-38-x86_64-linux-gnu.so
ase:    /home/c.zeng/.local/lib/python3.8/site-packages/ase-3.22.1-py3.8.egg/ase (version 3.22.1)
numpy:  /home/c.zeng/.local/lib/python3.8/site-packages/numpy (version 1.24.2)
scipy:  /home/c.zeng/.local/lib/python3.8/site-packages/scipy (version 1.10.1)
units:  Angstrom and eV
cores: 30
OpenMP: False
OMP_NUM_THREADS: 1

Input parameters:
  convergence: {energy: 0.0001}
  kpts: [2 2 2]
  maxiter: 666
  mode: {ecut: 350.0,
         name: pw}
  occupations: {fixmagmom: False,
                name: fermi-dirac,
                width: 0.1}
  spinpol: True
  xc: PBE

System changes: positions, numbers, cell, pbc, initial_charges, initial_magmoms

Initialize ...

species:
  Ni:
    name: Nickel
    id: 0d9f38a9d6e76a2886f07bb4381f212b
    Z: 28.0
    valence: 16
    core: 12
    charge: 0.0
    file: /home/c.zeng/usr/data/gpaw-setups-0.9.20000/Ni.PBE.gz
    compensation charges: {type: gauss,
                           rc: 0.36,
                           lmax: 2}
    cutoffs: {filter: 2.14,
              core: 1.98}
    valence states:
      #              energy  rcut
      - 4s(2.00)    -5.642   1.164
      - 3p(6.00)   -71.394   1.207
      - 4p(0.00)    -1.226   1.207
      - 3d(8.00)    -8.875   1.138
      -  s          21.570   1.164
      -  d          18.337   1.138

    # Using partial waves for Ni as LCAO basis

  Cr:
    name: Chromium
    id: 33f258bda2ca9f93018e70263a35547b
    Z: 24.0
    valence: 6
    core: 18
    charge: 0.0
    file: /home/c.zeng/usr/data/gpaw-setups-0.9.20000/Cr.PBE.gz
    compensation charges: {type: gauss,
                           rc: 0.35,
                           lmax: 2}
    cutoffs: {filter: 2.14,
              core: 3.04}
    valence states:
      #              energy  rcut
      - 4s(1.00)    -4.007   1.164
      - 4p(0.00)    -0.989   1.217
      - 3d(5.00)    -2.913   1.111
      -  s          23.205   1.164
      -  p          26.223   1.217
      -  d          24.299   1.111

[...]

  Fe:
    name: Iron
    id: 37abbd8d6c3c35915a9b583b742da910
    Z: 26.0
    valence: 8
    core: 18
    charge: 0.0
    file: /home/c.zeng/usr/data/gpaw-setups-0.9.20000/Fe.PBE.gz
    compensation charges: {type: gauss,
                           rc: 0.33,
                           lmax: 2}
    cutoffs: {filter: 2.06,
              core: 2.67}
    valence states:
      #              energy  rcut
      - 4s(2.00)    -5.291   1.164
      - 4p(0.00)    -1.326   1.058
      - 3d(6.00)    -7.505   1.058
      -  s          21.920   1.164
      -  p          25.885   1.058
      -  d          19.706   1.058

[...]

  Co:
    name: Cobalt
    id: 339d20d5b0b93d2de9531a1bee871d91
    Z: 27.0
    valence: 9
    core: 18
    charge: 0.0
    file: /home/c.zeng/usr/data/gpaw-setups-0.9.20000/Co.PBE.gz
    compensation charges: {type: gauss,
                           rc: 0.32,
                           lmax: 2}
    cutoffs: {filter: 1.87,
              core: 2.55}
    valence states:
      #              energy  rcut
      - 4s(2.00)    -5.469   1.005
      - 4p(0.00)    -1.277   1.058
      - 3d(7.00)    -8.205   1.005
      -  s          21.742   1.005
      -  p          25.934   1.058
      -  d          19.007   1.005

[...]

  Al:
    name: Aluminium
    id: 0292cae29f5d6237e50f6abdd43a7bdd
    Z: 13.0
    valence: 3
    core: 10
    charge: 0.0
    file: /home/c.zeng/usr/data/gpaw-setups-0.9.20000/Al.PBE.gz
    compensation charges: {type: gauss,
                           rc: 0.34,
                           lmax: 2}
    cutoffs: {filter: 1.91,
              core: 2.36}
    valence states:
      #              energy  rcut
      - 3s(2.00)    -7.753   1.085
      - 3p(1.00)    -2.712   1.085
      -  s          19.459   1.085
      -  p          24.499   1.085
      -  d           0.000   1.085

    # Using partial waves for Al as LCAO basis

Reference energy: -3699400.456887  # eV

Spin-polarized calculation.
Magnetic moment: 143.500000

Convergence criteria:
 Maximum [total energy] change in last 3 cyles: 0.0001 eV / electron
 Maximum integral of absolute [dens]ity change: 0.0001 electrons / valence electron
 Maximum integral of absolute [eigenst]ate change: 4e-08 eV^2 / valence electron
 Maximum number of scf [iter]ations: 666
 (Square brackets indicate name in SCF output, whereas a 'c' in
 the SCF output indicates the quantity has converged.)

Symmetries present (total): 1

  ( 1  0  0)
  ( 0  1  0)
  ( 0  0  1)

8 k-points: 2 x 2 x 2 Monkhorst-Pack grid
4 k-points in the irreducible part of the Brillouin zone
       k-points in crystal coordinates                weights
   0:     0.25000000   -0.25000000   -0.25000000          2/8
   1:     0.25000000   -0.25000000    0.25000000          2/8
   2:     0.25000000    0.25000000   -0.25000000          2/8
   3:     0.25000000    0.25000000    0.25000000          2/8

Wave functions: Plane wave expansion
  Cutoff energy: 350.000 eV
  Number of coefficients (min, max): 18052, 18052
  Pulay-stress correction: 0.000000 eV/Ang^3 (de/decut=0.000000)
  Using FFTW library
  ScaLapack parameters: grid=1x1, blocksize=None
  Wavefunction extrapolation:
    Improved wavefunction reuse through dual PAW basis

Occupation numbers: Fermi-Dirac:
  width: 0.1000  # eV

Eigensolver
   Davidson(niter=2)

Densities:
  Coarse grid: 48*48*48 grid
  Fine grid: 96*96*96 grid
  Total Charge: 0.000000

Density mixing:
  Method: difference
  Backend: pulay
  Linear mixing parameter: 0.05
  old densities: 5
  Damping of long wavelength oscillations: 50

Hamiltonian:
  XC and Coulomb potentials evaluated on a 96*96*96 grid
  Using the PBE Exchange-Correlation functional
  External potential:
    NoExternalPotential

XC parameters: PBE with 2 nearest neighbor stencil

Total number of cores used: 30
Parallelization over k-points: 2
Domain decomposition: 5 x 3 x 1

Number of atoms: 108
Number of atomic orbitals: 1025
Number of bands in calculation: 703
Number of valence electrons: 1020
Bands to converge: occupied

... initialized

Initializing position-dependent things.

Density initialized from atomic densities
Creating initial wave functions:
  703 bands from LCAO basis set

        Ni------------------------.
       /|  Co                Co   |
      Cr|   Cr         Ni         |
     / Fe      Fe       Al        |
    /   CCo      Ni       Fe      |
   /e   | CoCr     CoAl    CrNi   |
  /  FeCr  CrCo     CrNiCo        |
 *    FeFe  FeCoNi     CoAl       |
 |     CoFeCr  CoFe Ni  CrFeNi    |
 | Fe   CrNiNiCo CrNiCrFe  Cr     |
 |   CoNi  NiAlCr   NiNiCr   Fe   |
 |    FeCr  FeFeCoNi CoFeCr   Ni  |
 |     CrFeFe  Cr NiNi  CoFeFe    |
 |      .-CoNiCo-FeNiCrCo--CoNi---.
 |   CrCo    CoAl   CrCrFe       /
 |    / Ni    NiFe       Ni     /
 |   /            Cr           /
 |Cr/      Co       Co        /
 |/            Cr           /
 *----------------Ni-------*

Positions:
   0 Ni     0.005316   -0.016350   10.639749    ( 0.0000,  0.0000,  0.0000)
   1 Cr    10.672340    1.801276    1.786848    ( 0.0000,  0.0000,  0.0000)
   2 Fe     1.795727   10.625972    1.782259    ( 0.0000,  0.0000,  0.0000)
   3 Cr     1.780787    1.796175   10.644605    ( 0.0000,  0.0000,  2.1000)
   4 Fe     3.523539   -0.014558    0.017268    ( 0.0000,  0.0000,  2.0000)
   5 Co     3.522568    1.781672    1.746648    ( 0.0000,  0.0000,  0.0000)
   6 Co     5.320952   10.642342    1.763136    ( 0.0000,  0.0000,  1.5000)
   7 Cr     5.342082    1.828767    0.007462    ( 0.0000,  0.0000,  2.0000)
   8 Ni     7.144895    0.019195    0.012033    ( 0.0000,  0.0000,  0.0000)
   9 Co     7.143497    1.798064    1.764939    ( 0.0000,  0.0000,  2.1000)
  10 Ni     8.891362   10.651627    1.788353    ( 0.0000,  0.0000,  1.5000)
  11 Co     8.888779    1.804777   10.642609    ( 0.0000,  0.0000,  2.0000)
  12 Fe     0.008694    3.581540   10.650250    ( 0.0000,  0.0000,  2.1000)
  13 Cr     0.018979    5.332745    1.789751    ( 0.0000,  0.0000,  2.1000)
  14 Ni     1.778129    3.600941    1.760019    ( 0.0000,  0.0000,  2.0000)
  15 Co     1.790423    5.343267   -0.017766    ( 0.0000,  0.0000,  2.0000)
  16 Cr     3.542802    3.589864   -0.015614    ( 0.0000,  0.0000,  2.0000)
  17 Co     3.526837    5.358538    1.765793    ( 0.0000,  0.0000,  2.0000)
  18 Fe     5.336650    3.606501    1.755815    ( 0.0000,  0.0000,  0.0000)
  19 Ni     5.300399    5.323642   -0.012797    ( 0.0000,  0.0000,  2.1000)
  20 Al     7.122858    3.584816   10.659524    ( 0.0000,  0.0000,  2.0000)
  21 Cr     7.120500    5.315168    1.805502    ( 0.0000,  0.0000,  1.5000)
  22 Ni     8.892034    3.590952    1.773146    ( 0.0000,  0.0000,  2.1000)
  23 Fe     8.925340    5.301487   -0.003100    ( 0.0000,  0.0000,  0.0000)
  24 Cr     0.023055    7.096680   -0.007939    ( 0.0000,  0.0000,  0.0000)
  25 Cr     0.019141    8.871245    1.787510    ( 0.0000,  0.0000,  1.5000)
  26 Co     1.784372    7.104567    1.776443    ( 0.0000,  0.0000,  2.0000)
  27 Co     1.779944    8.867628   10.659406    ( 0.0000,  0.0000,  1.5000)
  28 Ni     3.547785    7.097897    0.009215    ( 0.0000,  0.0000,  2.1000)
  29 Cr     3.541137    8.858109    1.788225    ( 0.0000,  0.0000,  2.1000)
  30 Ni     5.295105    7.099391    1.787894    ( 0.0000,  0.0000,  2.1000)
  31 Cr     5.303685    8.873828    0.029898    ( 0.0000,  0.0000,  0.0000)
  32 Ni     7.106883    7.088719   10.645159    ( 0.0000,  0.0000,  0.0000)
  33 Co     7.111055    8.901137    1.809472    ( 0.0000,  0.0000,  0.0000)
  34 Co     8.939384    7.093404    1.799238    ( 0.0000,  0.0000,  0.0000)
  35 Co     8.919972    8.915853   10.664881    ( 0.0000,  0.0000,  0.0000)
  36 Cr    10.679704   10.658873    3.584517    ( 0.0000,  0.0000,  2.0000)
  37 Fe    10.670921    1.796367    5.340289    ( 0.0000,  0.0000,  2.1000)
  38 Fe     1.770350   10.649001    5.343491    ( 0.0000,  0.0000,  0.0000)
  39 Co     1.791800    1.784671    3.584891    ( 0.0000,  0.0000,  2.0000)
  40 Cr     3.529718   10.626388    3.565234    ( 0.0000,  0.0000,  2.1000)
  41 Fe     3.535716    1.793465    5.367289    ( 0.0000,  0.0000,  1.5000)
  42 Co     5.311497    0.001574    5.366254    ( 0.0000,  0.0000,  1.5000)
  43 Al     5.332627    1.768055    3.580793    ( 0.0000,  0.0000,  0.0000)
  44 Cr     7.136966   10.673941    3.563804    ( 0.0000,  0.0000,  2.0000)
  45 Ni     7.136774    1.794126    5.358944    ( 0.0000,  0.0000,  2.1000)
  46 Co     8.925938   10.673621    5.347589    ( 0.0000,  0.0000,  2.0000)
  47 Fe     8.883827    1.779111    3.582404    ( 0.0000,  0.0000,  1.5000)
  48 Ni    -0.010038    3.572341    3.580996    ( 0.0000,  0.0000,  2.0000)
  49 Co    10.685573    5.328935    5.338550    ( 0.0000,  0.0000,  2.0000)
  50 Cr     1.784180    3.582949    5.348357    ( 0.0000,  0.0000,  1.5000)
  51 Fe     1.766326    5.339510    3.565255    ( 0.0000,  0.0000,  1.5000)
[...]
iter:  78 02:08:47  -870.667352c -6.55  -3.75    +45.4824
iter:  79 02:10:41  -870.671889c -5.84  -3.76    +45.5043
iter:  80 02:12:36  -870.641811c -4.07  -3.71    +45.3126
iter:  81 02:14:31  -870.631729c -4.34  -3.68    +45.1988
iter:  82 02:16:25  -870.636699c -5.51  -3.61    +45.2390
iter:  83 02:18:20  -870.638226c -5.57  -3.57    +45.2399
iter:  84 02:20:15  -870.637684c -6.30  -3.68    +45.2407
iter:  85 02:22:09  -870.641857c -5.28  -3.75    +45.2500
iter:  86 02:24:03  -870.638380c -5.68  -3.47    +45.2371
iter:  87 02:25:57  -870.641490c -5.56  -3.82    +45.2438
iter:  88 02:27:52  -870.640336c -5.93  -3.68    +45.2640
iter:  89 02:29:46  -870.642552c -5.79  -3.85    +45.3013
iter:  90 02:32:05  -870.642527c -6.32  -3.94    +45.2775
iter:  91 02:34:09  -870.645456c -5.75  -4.05c   +45.2685
iter:  92 02:36:04  -870.644248c -6.18  -3.95    +45.2890
iter:  93 02:37:58  -870.647934c -5.70  -3.99    +45.2954
iter:  94 02:39:53  -870.648374c -6.37  -4.04c   +45.3048
iter:  95 02:41:47  -870.651197c -5.91  -4.09c   +45.3119
iter:  96 02:43:42  -870.649026c -6.37  -4.11c   +45.3056
iter:  97 02:45:36  -870.644021c -5.39  -4.15c   +45.2871
iter:  98 02:47:30  -870.647499c -6.02  -4.08c   +45.3001
iter:  99 02:49:25  -870.647496c -7.16  -4.19c   +45.3005
iter: 100 02:51:19  -870.650796c -5.85  -4.25c   +45.3117
iter: 101 02:53:14  -870.640430c -4.88  -4.15c   +45.2902
iter: 102 02:55:08  -870.626397c -4.16  -4.08c   +45.2546
iter: 103 02:57:02  -870.627496c -5.28  -3.61    +45.2744
iter: 104 02:58:57  -870.631631c -5.11  -3.61    +45.3431
iter: 105 03:01:01  -870.635429c -5.11  -3.66    +45.3842
iter: 106 03:03:19  -870.640761c -4.82  -3.67    +45.4362
iter: 107 03:05:13  -870.649397c -4.64  -3.59    +45.4973
iter: 108 03:07:08  -870.641978c -5.15  -3.33    +45.4544
iter: 109 03:09:02  -870.644426c -5.27  -3.54    +45.4783
iter: 110 03:10:57  -870.643837c -5.28  -3.42    +45.4801
iter: 111 03:12:51  -870.642391c -5.28  -3.50    +45.4975
iter: 112 03:14:45  -870.641627c -5.91  -3.60    +45.4886
iter: 113 03:16:40  -870.642337c -5.92  -3.77    +45.5040
iter: 114 03:18:34  -870.643612c -5.79  -3.76    +45.5156
iter: 115 03:20:29  -870.644362c -5.79  -3.72    +45.5208
iter: 116 03:22:23  -870.643909c -5.90  -3.73    +45.5491
iter: 117 03:24:18  -870.644809c -6.06  -3.94    +45.5687
iter: 118 03:26:12  -870.645751c -5.93  -3.96    +45.5918
iter: 119 03:28:07  -870.645826c -6.29  -3.83    +45.6060
iter: 120 03:30:01  -870.646593c -6.18  -4.01c   +45.6330
iter: 121 03:31:56  -870.645568c -6.47  -4.04c   +45.6068
iter: 122 03:33:50  -870.646772c -6.27  -4.00c   +45.6443
iter: 123 03:35:45  -870.642469c -4.98  -3.96    +45.4565
iter: 124 03:37:39  -870.640382c -5.03  -4.18c   +45.2982
iter: 125 03:39:34  -870.641089c -6.29  -4.07c   +45.3155
iter: 126 03:41:28  -870.642104c -6.04  -4.14c   +45.3284
iter: 127 03:43:22  -870.643164c -5.96  -4.21c   +45.3472
iter: 128 03:45:17  -870.642924c -7.19  -4.17c   +45.3451
iter: 129 03:47:12  -870.644216c -6.05  -4.20c   +45.3632
iter: 130 03:49:06  -870.644021c -6.90  -4.10c   +45.3678
iter: 131 03:51:01  -870.644830c -6.25  -4.17c   +45.3880
iter: 132 03:52:57  -870.645312c -6.48  -4.15c   +45.3995
iter: 133 03:55:19  -870.645397c -6.81  -4.17c   +45.4057
iter: 134 03:57:18  -870.645359c -6.93  -4.11c   +45.4007
iter: 135 03:59:13  -870.646373c -6.26  -4.06c   +45.4314
iter: 136 04:01:08  -870.646147c -6.97  -4.01c   +45.4278
iter: 137 04:03:04  -870.647042c -6.22  -4.05c   +45.4571
iter: 138 04:05:01  -870.647322c -6.72  -4.04c   +45.4570
iter: 139 04:06:58  -870.648411c -6.17  -4.01c   +45.4879
iter: 140 04:08:54  -870.648397c -6.62  -3.94    +45.4884
iter: 141 04:10:51  -870.649122c -6.20  -3.97    +45.5185
iter: 142 04:12:48  -870.648671c -6.57  -3.98    +45.5016
iter: 143 04:14:44  -870.650347c -5.73  -3.89    +45.5563
iter: 144 04:16:41  -870.648929c -5.92  -3.78    +45.5009
iter: 145 04:18:37  -870.648500c -6.19  -3.85    +45.4978
iter: 146 04:20:34  -870.649405c -6.01  -3.89    +45.5187
iter: 147 04:22:31  -870.650192c -6.06  -3.88    +45.5301
iter: 148 04:24:28  -870.650244c -6.19  -3.87    +45.5629
iter: 149 04:26:24  -870.652118c -5.91  -4.04c   +45.5894
iter: 150 04:28:21  -870.652340c -6.21  -3.81    +45.6184
iter: 151 04:30:17  -870.652390c -6.58  -3.89    +45.6197
iter: 152 04:32:14  -870.653593c -5.91  -3.90    +45.6591
iter: 153 04:34:11  -870.653257c -6.44  -3.83    +45.6701
iter: 154 04:36:07  -870.654533c -6.02  -4.10c   +45.7121
iter: 155 04:38:04  -870.654977c -6.12  -3.98    +45.6924
iter: 156 04:40:00  -870.654568c -6.19  -3.90    +45.7130
iter: 157 04:42:06  -870.654783c -6.90  -4.09c   +45.7180
iter: 158 04:44:30  -870.656546c -5.81  -4.08c   +45.7739
iter: 159 04:46:27  -870.654000c -5.57  -4.02c   +45.6835
iter: 160 04:48:23  -870.652309c -5.55  -3.96    +45.6012
iter: 161 04:50:20  -870.653302c -6.14  -4.01c   +45.6432
iter: 162 04:52:16  -870.653166c -6.73  -4.14c   +45.6338
iter: 163 04:54:13  -870.654814c -6.01  -4.04c   +45.7006
iter: 164 04:56:09  -870.653633c -5.90  -3.94    +45.5862
iter: 165 04:58:06  -870.652083c -5.87  -4.00    +45.4884
iter: 166 05:00:02  -870.653841c -5.89  -4.17c   +45.6010
iter: 167 05:01:58  -870.652560c -6.18  -4.05c   +45.5000
iter: 168 05:03:53  -870.652195c -5.98  -4.26c   +45.4062
iter: 169 05:05:48  -870.652733c -5.49  -4.23c   +45.2665
iter: 170 05:07:42  -870.654831c -5.08  -4.03c   +45.0858
iter: 171 05:09:37  -870.655922c -5.68  -3.82    +45.0906
iter: 172 05:11:31  -870.651413c -5.12  -3.81    +45.0975
iter: 173 05:13:26  -870.652175c -6.53  -3.91    +45.1396
iter: 174 05:15:20  -870.652663c -6.77  -3.94    +45.1470
iter: 175 05:17:15  -870.652953c -5.96  -3.88    +45.1792
iter: 176 05:19:09  -870.652410c -6.24  -3.86    +45.1600
iter: 177 05:21:04  -870.654414c -5.77  -3.91    +45.2197
iter: 178 05:22:58  -870.654728c -6.04  -3.92    +45.2577
iter: 179 05:24:59  -870.655653c -6.19  -4.08c   +45.2917
iter: 180 05:27:20  -870.656555c -6.22  -4.07c   +45.3282
iter: 181 05:29:16  -870.656736c -6.83  -4.10c   +45.3373
iter: 182 05:31:10  -870.656531c -6.77  -4.06c   +45.3232
iter: 183 05:33:04  -870.658049c -6.06  -4.01c   +45.3768
iter: 184 05:34:59  -870.658036c -6.59  -4.00c   +45.3810
iter: 185 05:36:53  -870.659153c -6.24  -4.05c   +45.4175
iter: 186 05:38:47  -870.660256c -6.17  -4.06c   +45.4368
iter: 187 05:40:42  -870.660836c -6.17  -3.94    +45.4607
iter: 188 05:42:36  -870.660061c -6.45  -4.00c   +45.4310
iter: 189 05:44:30  -870.662111c -5.81  -3.91    +45.4939
iter: 190 05:46:25  -870.657370c -5.08  -3.85    +45.3380
iter: 191 05:48:19  -870.654551c -4.95  -3.99    +45.1810
iter: 192 05:50:13  -870.654649c -6.14  -3.89    +45.2405
iter: 193 05:52:08  -870.654507c -6.74  -4.13c   +45.2399
iter: 194 05:54:02  -870.655070c -6.49  -4.18c   +45.2768
iter: 195 05:55:56  -870.654071c -6.43  -4.23c   +45.2319
iter: 196 05:57:51  -870.656570c -5.53  -4.24c   +45.3576
iter: 197 05:59:45  -870.650988c -4.78  -4.19c   +45.0595
iter: 198 06:01:40  -870.647524c -4.65  -4.01c   +44.7963
iter: 199 06:03:34  -870.647744c -5.65  -3.74    +44.7991
iter: 200 06:05:28  -870.649035c -5.90  -3.76    +44.8310
iter: 201 06:07:23  -870.650024c -6.00  -3.78    +44.8534
iter: 202 06:09:35  -870.645940c -5.19  -3.80    +44.7800
iter: 203 06:11:46  -870.652508c -4.90  -3.68    +44.8725
iter: 204 06:13:40  -870.644418c -5.15  -3.48    +44.8143
iter: 205 06:15:35  -870.645714c -5.81  -3.89    +44.8594
iter: 206 06:17:29  -870.645394c -5.92  -3.74    +44.8703
iter: 207 06:19:23  -870.646260c -6.07  -3.83    +44.9205
iter: 208 06:21:17  -870.647226c -6.12  -3.97    +44.9593
iter: 209 06:23:12  -870.650309c -5.38  -4.10c   +45.0663
iter: 210 06:25:06  -870.652753c -5.55  -4.02c   +45.1471
iter: 211 06:27:00  -870.648084c -5.29  -3.89    +44.9861
iter: 212 06:28:54  -870.642402c -4.55  -4.17c   +44.6707
iter: 213 06:30:49  -870.646854c -5.01  -3.69    +44.9274
iter: 214 06:32:43  -870.643546c -5.41  -4.03c   +44.7679
iter: 215 06:34:37  -870.644752c -6.37  -3.88    +44.8243
iter: 216 06:36:31  -870.646377c -5.76  -3.98    +44.8923
iter: 217 06:38:26  -870.644355c -5.79  -3.97    +44.8018
iter: 218 06:40:20  -870.643622c -5.96  -3.93    +44.7587
iter: 219 06:42:14  -870.645278c -5.79  -3.76    +44.8457
iter: 220 06:44:09  -870.646910c -5.73  -3.95    +44.8770
iter: 221 06:46:31  -870.645989c -6.10  -3.67    +44.8836
iter: 222 06:48:32  -870.647174c -5.84  -4.03c   +44.9289
iter: 223 06:50:26  -870.646249c -6.17  -3.79    +44.9071
iter: 224 06:52:20  -870.647930c -5.75  -3.93    +44.9467
iter: 225 06:54:14  -870.647361c -6.15  -3.78    +44.9410
iter: 226 06:56:09  -870.648209c -6.11  -4.04c   +44.9717
iter: 227 06:58:03  -870.649089c -6.11  -4.25c   +45.0082
iter: 228 06:59:57  -870.648885c -6.96  -4.21c   +44.9922
iter: 229 07:01:52  -870.648678c -6.50  -4.41c   +44.9713
iter: 230 07:03:46  -870.649665c -6.31  -4.26c   +45.0245
iter: 231 07:05:40  -870.649903c -6.80  -4.47c   +45.0342
iter: 232 07:07:35  -870.650985c -6.21  -4.46c   +45.0816
iter: 233 07:09:29  -870.650563c -7.22  -4.33c   +45.0591
iter: 234 07:11:23  -870.647892c -5.46  -4.42c   +44.9076
iter: 235 07:13:17  -870.649512c -6.13  -4.31c   +44.9961
iter: 236 07:15:11  -870.650188c -6.40  -4.48c   +45.0323
iter: 237 07:17:06  -870.649680c -7.09  -4.58c   +45.0096
iter: 238 07:19:00  -870.650643c -6.40  -4.52c   +45.0570
iter: 239 07:20:54  -870.650417c -7.61c -4.48c   +45.0446

Converged after 239 iterations.

Dipole moment: (-10.792892, 8.457724, 8.413443) |e|*Ang

Total magnetic moment: (0.000000, 0.000000, 45.044646)
Local magnetic moments:
   0 Ni ( 0.000000,  0.000000,  0.200669)
   1 Cr ( 0.000000,  0.000000, -1.501131)
   2 Fe ( 0.000000,  0.000000, -1.451465)
   3 Cr ( 0.000000,  0.000000,  0.394378)
   4 Fe ( 0.000000,  0.000000,  1.686052)
   5 Co ( 0.000000,  0.000000,  0.257723)
   6 Co ( 0.000000,  0.000000,  0.695358)
   7 Cr ( 0.000000,  0.000000, -1.131055)
   8 Ni ( 0.000000,  0.000000,  0.254376)
   9 Co ( 0.000000,  0.000000,  0.895728)
  10 Ni ( 0.000000,  0.000000,  0.258313)
  11 Co ( 0.000000,  0.000000,  1.161773)
  12 Fe ( 0.000000,  0.000000,  2.021350)
  13 Cr ( 0.000000,  0.000000, -1.520638)
  14 Ni ( 0.000000,  0.000000,  0.237115)
  15 Co ( 0.000000,  0.000000,  1.114112)
  16 Cr ( 0.000000,  0.000000, -0.671809)
  17 Co ( 0.000000,  0.000000,  1.354520)
  18 Fe ( 0.000000,  0.000000,  1.985915)
  19 Ni ( 0.000000,  0.000000,  0.220262)
  20 Al ( 0.000000,  0.000000, -0.020623)
  21 Cr ( 0.000000,  0.000000, -1.695212)
  22 Ni ( 0.000000,  0.000000,  0.095669)
  23 Fe ( 0.000000,  0.000000,  1.875235)
  24 Cr ( 0.000000,  0.000000, -1.097836)
  25 Cr ( 0.000000,  0.000000,  0.278134)
  26 Co ( 0.000000,  0.000000,  0.918779)
  27 Co ( 0.000000,  0.000000,  1.058353)
  28 Ni ( 0.000000,  0.000000,  0.345676)
  29 Cr ( 0.000000,  0.000000, -0.020621)
  30 Ni ( 0.000000,  0.000000,  0.303802)
  31 Cr ( 0.000000,  0.000000, -1.530087)
  32 Ni ( 0.000000,  0.000000,  0.207089)
  33 Co ( 0.000000,  0.000000,  1.392187)
  34 Co ( 0.000000,  0.000000,  0.459106)
  35 Co ( 0.000000,  0.000000,  1.038465)
  36 Cr ( 0.000000,  0.000000, -0.396939)
  37 Fe ( 0.000000,  0.000000,  2.000710)
  38 Fe ( 0.000000,  0.000000, -0.330707)
  39 Co ( 0.000000,  0.000000,  0.864660)
  40 Cr ( 0.000000,  0.000000,  0.247155)
  41 Fe ( 0.000000,  0.000000,  2.122067)
  42 Co ( 0.000000,  0.000000, -0.000083)
  43 Al ( 0.000000,  0.000000, -0.016880)
  44 Cr ( 0.000000,  0.000000, -1.599065)
  45 Ni ( 0.000000,  0.000000, -0.091498)
  46 Co ( 0.000000,  0.000000,  0.937321)
  47 Fe ( 0.000000,  0.000000,  1.946375)
  48 Ni ( 0.000000,  0.000000,  0.227606)
  49 Co ( 0.000000,  0.000000,  0.916010)
  50 Cr ( 0.000000,  0.000000, -1.877394)
  51 Fe ( 0.000000,  0.000000,  2.139162)
  52 Ni ( 0.000000,  0.000000,  0.252085)
  53 Al ( 0.000000,  0.000000, -0.036228)
  54 Co ( 0.000000,  0.000000,  0.873057)
  55 Ni ( 0.000000,  0.000000,  0.235615)
  56 Cr ( 0.000000,  0.000000, -0.761460)
  57 Ni ( 0.000000,  0.000000,  0.122684)
  58 Cr ( 0.000000,  0.000000, -1.085757)
  59 Fe ( 0.000000,  0.000000,  1.851434)
[...]
  93 Ni ( 0.000000,  0.000000,  0.219413)
  94 Al ( 0.000000,  0.000000, -0.031299)
  95 Fe ( 0.000000,  0.000000,  1.854297)
  96 Fe ( 0.000000,  0.000000,  2.003111)
  97 Fe ( 0.000000,  0.000000,  1.988621)
  98 Co ( 0.000000,  0.000000,  1.187522)
  99 Cr ( 0.000000,  0.000000, -1.342830)
 100 Co ( 0.000000,  0.000000,  1.201478)
 101 Fe ( 0.000000,  0.000000,  2.000290)
 102 Co ( 0.000000,  0.000000,  1.165036)
 103 Cr ( 0.000000,  0.000000, -1.278759)
 104 Co ( 0.000000,  0.000000,  0.662874)
 105 Al ( 0.000000,  0.000000, -0.005394)
 106 Cr ( 0.000000,  0.000000, -1.650563)
 107 Ni ( 0.000000,  0.000000,  0.173309)

Energy contributions relative to reference atoms: (reference = -3699400.456887)

Kinetic:        +80.575815
Potential:     -143.388593
External:        +0.000000
XC:            -843.404071
Entropy (-ST):   -4.707480
Local:          +37.920171
Free energy:   -873.004157
Extrapolated:  -870.650417

Spin contamination: 31.502356 electrons
Showing only first 2 kpts
                      Up                     Down
 Kpt  Band  Eigenvalues  Occupancy  Eigenvalues  Occupancy
  0   508      9.76854    0.97711     10.40171    0.07059
  0   509      9.77913    0.97462     10.41143    0.06447
  0   510      9.78868    0.97215     10.41936    0.05985
  0   511      9.80989    0.96579     10.43423    0.05201

  1   508      9.74273    0.98223     10.40081    0.07118
  1   509      9.76551    0.97778     10.41706    0.06116
  1   510      9.77480    0.97567     10.42688    0.05576
  1   511      9.79555    0.97022     10.43489    0.05168

Fermi level: 10.14394

No gap

Forces in eV/Ang:
  0 Ni   -0.03277    0.11229    0.38867
  1 Cr    0.01711   -0.13752   -0.09161
  2 Fe   -0.01798    0.08185   -0.07592
  3 Cr    0.40518   -0.24771    0.29620
  4 Fe    0.49258    0.41064   -0.01113
  5 Co    0.00073   -0.21728   -0.18853
  6 Co    0.04451    0.28364   -0.04388
  7 Cr   -1.02169   -1.52854    0.49384
  8 Ni   -0.37492   -0.07877   -0.04884
  9 Co   -0.23365   -0.18029    0.29003
 10 Ni    0.16603    0.24767   -0.11335
 11 Co    0.50642   -0.41780    0.67349
 12 Fe    0.33186   -0.23220    0.70266
 13 Cr   -0.29511    0.04874    0.03286
 14 Ni    0.17175   -0.45810    0.13351
 15 Co   -0.20256    0.00980    0.06869
 16 Cr   -0.06021    0.02637    0.21049
 17 Co    0.19853   -0.22790    0.16604
 18 Fe   -0.19737   -0.19856    0.26484
 19 Ni    0.21792    0.30435    0.08250
 20 Al   -0.34178   -0.07164    0.01385
 21 Cr    0.02450    1.14055    0.12694
 22 Ni    0.15658   -0.38852    0.28208
 23 Fe    0.07299    1.09294    0.28288
 24 Cr    0.08767    0.19913    0.25157
 25 Cr    0.01864    0.25923   -0.37382
 26 Co   -0.27274    0.13220   -0.17049
 27 Co    0.00091    0.13286    0.10847
 28 Ni   -0.12167    0.16484   -0.24902
 29 Cr   -0.38853    0.36620   -0.20578
 30 Ni    0.31218   -0.01554   -0.06391
 31 Cr   -0.21461    0.35469    0.26884
 32 Ni    0.22737    0.16884    0.25963
 33 Co    0.07485   -0.16963   -0.32842
 34 Co   -0.09220    0.17134   -0.39151
 35 Co   -0.13962   -0.56237    0.36685
 36 Cr    0.20548   -0.02666    0.23781
 37 Fe    0.29398   -0.25481   -0.06609
 38 Fe    0.43602    0.22354   -0.19742
 39 Co   -0.07059   -0.24964   -0.26149
 40 Cr   -0.60102   -0.11585    0.11762
 41 Fe   -0.22168   -0.08947    0.24426
 42 Co    0.19597   -0.37431   -0.04827
 43 Al   -0.46741    0.45568   -0.22421
 44 Cr    0.59952   -0.57810   -0.38345
 45 Ni   -0.25403   -0.26799    0.04841
 46 Co   -0.31012   -0.01521   -0.03922
 47 Fe    0.04611   -0.16068   -0.23512
 48 Ni    0.14499   -0.08681   -0.14777
 49 Co   -0.06292    0.04940    0.19084
 50 Cr   -0.97324   -0.78286   -0.10268
 51 Fe   -0.25599   -0.09368   -0.34934
 52 Ni    0.25147   -0.33628   -0.47878
 53 Al    0.63778    0.14768   -0.25421
 54 Co    0.48321   -0.39382   -0.07925
 55 Ni    0.00533   -0.16292   -0.21350
 56 Cr    0.10392    0.16811    0.14611
 57 Ni   -0.08962   -0.09378    0.05781
 58 Cr    0.46563    0.17554   -0.04299
 59 Fe    0.04656   -0.11776   -0.08672
[...]
 93 Ni    0.10897    0.46535    0.23546
 94 Al    0.55037    0.13345   -0.05902
 95 Fe   -0.15475    0.08368   -0.29847
 96 Fe   -0.13287    0.10708   -0.14978
 97 Fe    0.30187   -0.23697    0.27344
 98 Co    0.22368   -0.07444    0.30835
 99 Cr    0.16612    0.19830   -0.46166
100 Co    0.08610    0.54315    0.46795
101 Fe    0.33359    0.22475   -0.16534
102 Co   -0.07414   -0.05725    0.13543
103 Cr   -0.92245    0.29906   -0.48854
104 Co   -0.10324    0.24669   -0.32791
105 Al   -0.32901    0.28821    0.29071
106 Cr    0.14326   -0.97554    0.10667
107 Ni   -0.12008    0.15791   -0.58162

Date: Sun Apr 16 07:21:19 2023