User:   c.zeng@d0143
Date:   Sat Apr  8 06:30:44 2023
Arch:   x86_64
Pid:    87290
CWD:    /home/c.zeng/projects/hea-corrosion/hea-mlp/data-curation/volume/dft-jobs/2
Python: 3.8.1
gpaw:   /home/c.zeng/usr/installs/gpaw/source/gpaw-22.8.0/gpaw
_gpaw:  /home/c.zeng/usr/installs/gpaw/source/gpaw-22.8.0/
        _gpaw.cpython-38-x86_64-linux-gnu.so
ase:    /home/c.zeng/.local/lib/python3.8/site-packages/ase-3.22.1-py3.8.egg/ase (version 3.22.1)
numpy:  /shared/centos7/python/3.8.1/lib/python3.8/site-packages/numpy (version 1.17.4)
scipy:  /shared/centos7/python/3.8.1/lib/python3.8/site-packages/scipy (version 1.4.1)
units:  Angstrom and eV
cores: 64
OpenMP: False
OMP_NUM_THREADS: 1

Input parameters:
  convergence: {energy: 0.0001}
  kpts: [2 2 2]
  maxiter: 666
  mode: {ecut: 350.0,
         name: pw}
  occupations: {fixmagmom: False,
                name: fermi-dirac,
                width: 0.1}
  spinpol: True
  xc: PBE

System changes: positions, numbers, cell, pbc, initial_charges, initial_magmoms

Initialize ...

species:
  Co:
    name: Cobalt
    id: 339d20d5b0b93d2de9531a1bee871d91
    Z: 27.0
    valence: 9
    core: 18
    charge: 0.0
    file: /home/c.zeng/usr/data/gpaw-setups-0.9.20000/Co.PBE.gz
    compensation charges: {type: gauss,
                           rc: 0.32,
                           lmax: 2}
    cutoffs: {filter: 1.87,
              core: 2.55}
    valence states:
      #              energy  rcut
      - 4s(2.00)    -5.469   1.005
      - 4p(0.00)    -1.277   1.058
      - 3d(7.00)    -8.205   1.005
      -  s          21.742   1.005
      -  p          25.934   1.058
      -  d          19.007   1.005

    # Using partial waves for Co as LCAO basis

  Fe:
    name: Iron
    id: 37abbd8d6c3c35915a9b583b742da910
    Z: 26.0
    valence: 8
    core: 18
    charge: 0.0
    file: /home/c.zeng/usr/data/gpaw-setups-0.9.20000/Fe.PBE.gz
    compensation charges: {type: gauss,
                           rc: 0.33,
                           lmax: 2}
    cutoffs: {filter: 2.06,
              core: 2.67}
    valence states:
      #              energy  rcut
      - 4s(2.00)    -5.291   1.164
      - 4p(0.00)    -1.326   1.058
      - 3d(6.00)    -7.505   1.058
      -  s          21.920   1.164
      -  p          25.885   1.058
      -  d          19.706   1.058

[...]

  Cr:
    name: Chromium
    id: 33f258bda2ca9f93018e70263a35547b
    Z: 24.0
    valence: 6
    core: 18
    charge: 0.0
    file: /home/c.zeng/usr/data/gpaw-setups-0.9.20000/Cr.PBE.gz
    compensation charges: {type: gauss,
                           rc: 0.35,
                           lmax: 2}
    cutoffs: {filter: 2.14,
              core: 3.04}
    valence states:
      #              energy  rcut
      - 4s(1.00)    -4.007   1.164
      - 4p(0.00)    -0.989   1.217
      - 3d(5.00)    -2.913   1.111
      -  s          23.205   1.164
      -  p          26.223   1.217
      -  d          24.299   1.111

[...]

  Ni:
    name: Nickel
    id: 0d9f38a9d6e76a2886f07bb4381f212b
    Z: 28.0
    valence: 16
    core: 12
    charge: 0.0
    file: /home/c.zeng/usr/data/gpaw-setups-0.9.20000/Ni.PBE.gz
    compensation charges: {type: gauss,
                           rc: 0.36,
                           lmax: 2}
    cutoffs: {filter: 2.14,
              core: 1.98}
    valence states:
      #              energy  rcut
      - 4s(2.00)    -5.642   1.164
      - 3p(6.00)   -71.394   1.207
      - 4p(0.00)    -1.226   1.207
      - 3d(8.00)    -8.875   1.138
      -  s          21.570   1.164
      -  d          18.337   1.138

    # Using partial waves for Ni as LCAO basis

Reference energy: -3846758.590871  # eV

Spin-polarized calculation.
Magnetic moment: 151.200000

Convergence criteria:
 Maximum [total energy] change in last 3 cyles: 0.0001 eV / electron
 Maximum integral of absolute [dens]ity change: 0.0001 electrons / valence electron
 Maximum integral of absolute [eigenst]ate change: 4e-08 eV^2 / valence electron
 Maximum number of scf [iter]ations: 666
 (Square brackets indicate name in SCF output, whereas a 'c' in
 the SCF output indicates the quantity has converged.)

Symmetries present (total): 1

  ( 1  0  0)
  ( 0  1  0)
  ( 0  0  1)

8 k-points: 2 x 2 x 2 Monkhorst-Pack grid
4 k-points in the irreducible part of the Brillouin zone
       k-points in crystal coordinates                weights
   0:     0.25000000   -0.25000000   -0.25000000          2/8
   1:     0.25000000   -0.25000000    0.25000000          2/8
   2:     0.25000000    0.25000000   -0.25000000          2/8
   3:     0.25000000    0.25000000    0.25000000          2/8

Wave functions: Plane wave expansion
  Cutoff energy: 350.000 eV
  Number of coefficients (min, max): 25080, 25080
  Pulay-stress correction: 0.000000 eV/Ang^3 (de/decut=0.000000)
  Using FFTW library
  ScaLapack parameters: grid=1x1, blocksize=None
  Wavefunction extrapolation:
    Improved wavefunction reuse through dual PAW basis

Occupation numbers: Fermi-Dirac:
  width: 0.1000  # eV

Eigensolver
   Davidson(niter=2)

Densities:
  Coarse grid: 54*54*54 grid
  Fine grid: 108*108*108 grid
  Total Charge: 0.000000

Density mixing:
  Method: difference
  Backend: pulay
  Linear mixing parameter: 0.05
  old densities: 5
  Damping of long wavelength oscillations: 50

Hamiltonian:
  XC and Coulomb potentials evaluated on a 108*108*108 grid
  Using the PBE Exchange-Correlation functional
  External potential:
    NoExternalPotential

XC parameters: PBE with 2 nearest neighbor stencil

Total number of cores used: 64
Parallelization over k-points: 4
Domain decomposition: 4 x 2 x 2

Number of atoms: 108
Number of atomic orbitals: 1053
Number of bands in calculation: 727
Number of valence electrons: 1053
Bands to converge: occupied

... initialized

Initializing position-dependent things.

Density initialized from atomic densities
Creating initial wave functions:
  727 bands from LCAO basis set

       /|   Cr       Co        Cr    |
      / |      Fe                    |
     /  |             Fe             |
    /  CoFe      CrCr     Co         |
   /    |  FeNi     Fe Co     Cr     Co
  /  CoFe   CrFe Cr  Co NiCo   Cr    |
 *    NiCr Cr  Co NiFe   NiNi        |
 |      |Ni Co     Co Fe     CrCo    |
 |    Fee       Ni        Co         |
 |      Fe FeCr     Co NiCo   CrCr   |
 |   NiCr   NiFe Cr  Ni FeNi   Ni    |
 |    NiFe Cr  Fe FeNi   FeCo        |
 |      |Co Co     Ni Fe       Ni    |
 |     Co       Crr      Nii Ni      |
 | Cr Cr.--CrCo-----Co-Ni-----Ni-----.
 |     Fe     Co Fe     NiCo     Fe /
 |    FeCr Fe     NiFe   CrCo      /
 |Co /      Cr        Ni     Cr   /
 |  / Fe        Co       Ni      /
 | /r                           /
 Co---------------------------*

Positions:
   0 Co     0.000002    0.000003    0.000000    ( 0.0000,  0.0000,  2.1000)
   1 Co     0.000002    1.984492    1.984504    ( 0.0000,  0.0000,  2.1000)
   2 Fe     1.984492    0.000004    1.984504    ( 0.0000,  0.0000,  2.0000)
   3 Fe     1.984504    1.984492   -0.000001    ( 0.0000,  0.0000,  2.0000)
   4 Cr     3.968996    0.000003   -0.000002    ( 0.0000,  0.0000,  0.0000)
   5 Cr     3.968996    1.984492    1.984504    ( 0.0000,  0.0000,  0.0000)
   6 Co     5.953500    0.000000    1.984504    ( 0.0000,  0.0000,  2.1000)
   7 Cr     5.953500    1.984492   -0.000004    ( 0.0000,  0.0000,  0.0000)
   8 Fe     7.938004    0.000001   -0.000002    ( 0.0000,  0.0000,  2.0000)
   9 Ni     7.938004    1.984504    1.984504    ( 0.0000,  0.0000,  1.5000)
  10 Ni     9.922496    0.000003    1.984504    ( 0.0000,  0.0000,  1.5000)
  11 Co     9.922496    1.984492   -0.000001    ( 0.0000,  0.0000,  2.1000)
  12 Cr     0.000000    3.968996    0.000001    ( 0.0000,  0.0000,  0.0000)
  13 Fe    -0.000000    5.953500    1.984504    ( 0.0000,  0.0000,  2.0000)
  14 Cr     1.984504    3.968996    1.984504    ( 0.0000,  0.0000,  0.0000)
  15 Fe     1.984504    5.953500   -0.000002    ( 0.0000,  0.0000,  2.0000)
  16 Ni     3.968996    3.969008   -0.000003    ( 0.0000,  0.0000,  1.5000)
  17 Co     3.968996    5.953500    1.984504    ( 0.0000,  0.0000,  2.1000)
  18 Ni     5.953500    3.968996    1.984504    ( 0.0000,  0.0000,  1.5000)
  19 Cr     5.953500    5.953500   -0.000002    ( 0.0000,  0.0000,  0.0000)
  20 Co     7.938004    3.968996   -0.000001    ( 0.0000,  0.0000,  2.1000)
  21 Ni     7.938004    5.953500    1.984504    ( 0.0000,  0.0000,  1.5000)
  22 Co     9.922496    3.968996    1.984504    ( 0.0000,  0.0000,  2.1000)
  23 Cr     9.922508    5.953500    0.000003    ( 0.0000,  0.0000,  0.0000)
  24 Fe     0.000004    7.937992    0.000000    ( 0.0000,  0.0000,  2.0000)
  25 Co     0.000000    9.922496    1.984504    ( 0.0000,  0.0000,  2.1000)
  26 Cr     1.984504    7.937992    1.984504    ( 0.0000,  0.0000,  0.0000)
  27 Cr     1.984492    9.922496   -0.000002    ( 0.0000,  0.0000,  0.0000)
  28 Fe     3.968996    7.937992   -0.000003    ( 0.0000,  0.0000,  2.0000)
  29 Cr     3.969008    9.922496    1.984504    ( 0.0000,  0.0000,  0.0000)
  30 Co     5.953500    7.938004    1.984504    ( 0.0000,  0.0000,  2.1000)
  31 Co     5.953500    9.922496   -0.000002    ( 0.0000,  0.0000,  2.1000)
  32 Cr     7.937992    7.938004    0.000000    ( 0.0000,  0.0000,  0.0000)
  33 Ni     7.937992    9.922496    1.984504    ( 0.0000,  0.0000,  1.5000)
  34 Ni     9.922508    7.937992    1.984504    ( 0.0000,  0.0000,  1.5000)
  35 Cr     9.922496    9.922508   -0.000000    ( 0.0000,  0.0000,  0.0000)
  36 Fe     0.000002   -0.000001    3.968996    ( 0.0000,  0.0000,  2.0000)
  37 Ni    -0.000000    1.984504    5.953500    ( 0.0000,  0.0000,  1.5000)
  38 Cr     1.984492    0.000001    5.953488    ( 0.0000,  0.0000,  0.0000)
  39 Fe     1.984504    1.984492    3.968996    ( 0.0000,  0.0000,  2.0000)
  40 Fe     3.968996    0.000002    3.968996    ( 0.0000,  0.0000,  2.0000)
  41 Co     3.968996    1.984504    5.953488    ( 0.0000,  0.0000,  2.1000)
  42 Cr     5.953500    0.000002    5.953500    ( 0.0000,  0.0000,  0.0000)
  43 Fe     5.953500    1.984504    3.969008    ( 0.0000,  0.0000,  2.0000)
  44 Fe     7.938004    0.000001    3.968996    ( 0.0000,  0.0000,  2.0000)
  45 Fe     7.938004    1.984504    5.953500    ( 0.0000,  0.0000,  2.0000)
  46 Ni     9.922496    0.000002    5.953500    ( 0.0000,  0.0000,  1.5000)
  47 Co     9.922496    1.984492    3.968996    ( 0.0000,  0.0000,  2.1000)
  48 Cr     0.000001    3.968996    3.968996    ( 0.0000,  0.0000,  0.0000)
  49 Ni     0.000005    5.953500    5.953500    ( 0.0000,  0.0000,  1.5000)
  50 Fe     1.984504    3.968996    5.953500    ( 0.0000,  0.0000,  2.0000)
  51 Co     1.984504    5.953500    3.969008    ( 0.0000,  0.0000,  2.1000)
  52 Co     3.968996    3.968996    3.969008    ( 0.0000,  0.0000,  2.1000)
  53 Fe     3.968996    5.953500    5.953500    ( 0.0000,  0.0000,  2.0000)
  54 Fe     5.953500    3.968996    5.953500    ( 0.0000,  0.0000,  2.0000)
  55 Ni     5.953500    5.953500    3.969008    ( 0.0000,  0.0000,  1.5000)
  56 Ni     7.938004    3.968996    3.969008    ( 0.0000,  0.0000,  1.5000)
  57 Fe     7.937992    5.953500    5.953500    ( 0.0000,  0.0000,  2.0000)
  58 Co     9.922496    3.968996    5.953500    ( 0.0000,  0.0000,  2.1000)
  59 Ni     9.922496    5.953500    3.968996    ( 0.0000,  0.0000,  1.5000)
[...]
  93 Ni     7.937992    5.953500    9.922496    ( 0.0000,  0.0000,  1.5000)
  94 Ni     9.922496    3.968996    9.922496    ( 0.0000,  0.0000,  1.5000)
  95 Cr     9.922496    5.953500    7.938004    ( 0.0000,  0.0000,  0.0000)
  96 Ni     0.000006    7.938004    7.938004    ( 0.0000,  0.0000,  1.5000)
  97 Co     0.000002    9.922496    9.922496    ( 0.0000,  0.0000,  2.1000)
  98 Fe     1.984504    7.937992    9.922508    ( 0.0000,  0.0000,  2.0000)
  99 Cr     1.984492    9.922496    7.938004    ( 0.0000,  0.0000,  0.0000)
 100 Co     3.968996    7.937992    7.938004    ( 0.0000,  0.0000,  2.1000)
 101 Cr     3.969008    9.922496    9.922496    ( 0.0000,  0.0000,  0.0000)
 102 Fe     5.953500    7.938004    9.922496    ( 0.0000,  0.0000,  2.0000)
 103 Co     5.953500    9.922496    7.938004    ( 0.0000,  0.0000,  2.1000)
 104 Ni     7.937992    7.938004    7.938004    ( 0.0000,  0.0000,  1.5000)
 105 Co     7.937992    9.922508    9.922496    ( 0.0000,  0.0000,  2.1000)
 106 Cr     9.922508    7.938004    9.922496    ( 0.0000,  0.0000,  0.0000)
 107 Cr     9.922496    9.922508    7.938004    ( 0.0000,  0.0000,  0.0000)

Unit cell:
           periodic     x           y           z      points  spacing
  1. axis:    yes   11.907000    0.000000    0.000000    54     0.2205
  2. axis:    yes    0.000000   11.907000    0.000000    54     0.2205
  3. axis:    yes    0.000000    0.000000   11.907000    54     0.2205

  Lengths:  11.907000  11.907000  11.907000
  Angles:   90.000000  90.000000  90.000000

Effective grid spacing dv^(1/3) = 0.2205

     iter     time        total  log10-change:  magmom
                         energy  eigst   dens
iter:   1 06:33:42 -1106.313031                  +151.4728
iter:   2 06:35:00  -903.414447  -0.02  -1.16    +82.6904
iter:   3 06:36:18  -941.810031  -0.51  -1.11    +88.6852
iter:   4 06:37:37  -855.486313  -0.99  -1.17    +82.5777
iter:   5 06:38:56  -836.773423  -1.63  -1.28    +83.0566
iter:   6 06:40:15  -844.543734  -1.66  -1.35    +94.8580
iter:   7 06:41:36  -844.945414  -1.34  -1.33    +100.8967
iter:   8 06:42:55  -840.825397  -1.34  -1.38    +107.0805
iter:   9 06:44:14  -836.069855  -1.34  -1.45    +107.0218
iter:  10 06:45:32  -834.399684  -1.67  -1.61    +105.4332
iter:  11 06:46:51  -830.405000  -1.85  -1.66    +104.8161
iter:  12 06:48:10  -829.298389  -1.98  -1.70    +103.8912
iter:  13 06:49:29  -828.636277  -2.36  -1.78    +100.7157
iter:  14 06:50:47  -829.385893  -2.38  -1.86    +97.9979
iter:  15 06:52:05  -830.687360  -2.46  -1.90    +95.5304
iter:  16 06:53:25  -832.490968  -2.65  -1.95    +91.7158
iter:  17 06:54:43  -833.825982  -2.61  -1.95    +89.2814
iter:  18 06:56:01  -834.818885  -2.66  -1.95    +86.2342
iter:  19 06:57:20  -835.467691  -2.75  -2.02    +84.2277
iter:  20 06:58:39  -836.977325  -2.63  -2.07    +82.3205
iter:  21 06:59:58  -836.846150  -2.78  -2.04    +82.0316
iter:  22 07:01:18  -837.910515  -2.71  -2.13    +80.6332
iter:  23 07:02:36  -837.394809  -2.90  -2.08    +80.5490
iter:  24 07:03:54  -837.853234  -2.98  -2.22    +80.2028
iter:  25 07:05:12  -838.103542  -3.00  -2.21    +80.3576
iter:  26 07:06:31  -837.841128  -2.83  -2.21    +80.3501
iter:  27 07:07:49  -838.096098  -3.21  -2.39    +80.4993
iter:  28 07:09:08  -838.133733  -3.26  -2.38    +80.7216
iter:  29 07:10:26  -838.278406  -3.53  -2.45    +81.1601
iter:  30 07:11:45  -838.450179  -3.70  -2.49    +81.5362
iter:  31 07:13:03  -838.596871  -3.74  -2.54    +81.7234
iter:  32 07:14:22  -838.714482  -3.81  -2.58    +82.0794
iter:  33 07:15:40  -838.785428  -3.95  -2.56    +82.3852
iter:  34 07:16:59  -838.883910  -3.92  -2.63    +82.7806
iter:  35 07:18:17  -838.935180  -4.01  -2.64    +83.1593
iter:  36 07:19:35  -838.937915c -4.50  -2.64    +83.2511
iter:  37 07:20:53  -838.943325c -4.23  -2.66    +83.2582
iter:  38 07:22:12  -838.976424c -4.08  -2.67    +83.2825
iter:  39 07:23:31  -838.935025c -3.95  -2.63    +83.4470
iter:  40 07:24:49  -838.919480c -4.05  -2.70    +83.4021
iter:  41 07:26:07  -838.985778c -3.76  -2.73    +83.2365
iter:  42 07:27:25  -838.911916c -3.86  -2.65    +83.2071
iter:  43 07:28:45  -838.900090c -3.96  -2.77    +83.3233
iter:  44 07:30:04  -838.871271c -4.42  -2.86    +83.3291
iter:  45 07:31:23  -838.885479c -4.41  -2.98    +83.3664
iter:  46 07:32:41  -838.878289c -4.59  -2.95    +83.3774
iter:  47 07:34:00  -838.876040c -4.75  -3.01    +83.3796
iter:  48 07:35:19  -838.875332c -4.72  -3.02    +83.4037
iter:  49 07:36:38  -838.881794c -4.57  -3.09    +83.4000
iter:  50 07:37:57  -838.872254c -4.85  -3.07    +83.3615
iter:  51 07:39:16  -838.870650c -4.97  -3.20    +83.3865
iter:  52 07:40:34  -838.872507c -5.13  -3.30    +83.3680
iter:  53 07:41:52  -838.871209c -5.35  -3.30    +83.3657
iter:  54 07:43:10  -838.871444c -5.53  -3.34    +83.3608
iter:  55 07:44:29  -838.873626c -5.39  -3.38    +83.3567
iter:  56 07:45:47  -838.871788c -5.52  -3.40    +83.3494
iter:  57 07:47:06  -838.871842c -5.59  -3.45    +83.3478
iter:  58 07:48:24  -838.872218c -5.76  -3.53    +83.3463
iter:  59 07:49:42  -838.871935c -5.94  -3.55    +83.3479
iter:  60 07:51:00  -838.871970c -6.03  -3.58    +83.3505
iter:  61 07:52:19  -838.872656c -5.92  -3.64    +83.3503
iter:  62 07:53:38  -838.871902c -6.05  -3.64    +83.3512
iter:  63 07:54:57  -838.871786c -6.14  -3.73    +83.3503
iter:  64 07:56:15  -838.872297c -6.18  -3.77    +83.3516
iter:  65 07:57:33  -838.871787c -6.19  -3.77    +83.3528
iter:  66 07:58:52  -838.871868c -6.17  -3.84    +83.3510
iter:  67 08:00:11  -838.872004c -6.19  -3.86    +83.3522
iter:  68 08:01:30  -838.871703c -6.39  -3.87    +83.3539
iter:  69 08:02:49  -838.871727c -6.49  -3.95    +83.3539
iter:  70 08:04:09  -838.871812c -6.52  -3.95    +83.3542
iter:  71 08:05:28  -838.871479c -6.57  -3.96    +83.3536
iter:  72 08:06:48  -838.871669c -6.66  -4.00c   +83.3526
iter:  73 08:08:06  -838.871478c -6.84  -4.06c   +83.3525
iter:  74 08:09:24  -838.871516c -7.03  -4.11c   +83.3514
iter:  75 08:10:43  -838.871480c -6.99  -4.13c   +83.3505
iter:  76 08:12:00  -838.871563c -6.98  -4.13c   +83.3510
iter:  77 08:13:02  -838.871380c -7.02  -4.15c   +83.3497
iter:  78 08:14:05  -838.871461c -7.22  -4.19c   +83.3484
iter:  79 08:15:08  -838.871371c -7.36  -4.26c   +83.3493
iter:  80 08:16:10  -838.871436c -7.40  -4.27c   +83.3491
iter:  81 08:17:12  -838.871388c -7.32  -4.30c   +83.3489
iter:  82 08:18:14  -838.871429c -7.27  -4.32c   +83.3497
iter:  83 08:19:16  -838.871380c -7.41c -4.34c   +83.3497

Converged after 83 iterations.

Dipole moment: (-0.198756, 0.162838, -0.040022) |e|*Ang

Total magnetic moment: (0.000000, 0.000000, 83.349706)
Local magnetic moments:
   0 Co ( 0.000000,  0.000000,  1.877058)
   1 Co ( 0.000000,  0.000000,  1.730744)
   2 Fe ( 0.000000,  0.000000,  2.892085)
   3 Fe ( 0.000000,  0.000000,  2.874289)
   4 Cr ( 0.000000,  0.000000,  2.879760)
   5 Cr ( 0.000000,  0.000000, -3.157804)
   6 Co ( 0.000000,  0.000000,  1.698828)
   7 Cr ( 0.000000,  0.000000, -3.171277)
   8 Fe ( 0.000000,  0.000000,  3.007331)
   9 Ni ( 0.000000,  0.000000,  0.626146)
  10 Ni ( 0.000000,  0.000000,  0.707302)
  11 Co ( 0.000000,  0.000000,  1.943261)
  12 Cr ( 0.000000,  0.000000, -3.117102)
  13 Fe ( 0.000000,  0.000000,  2.850592)
  14 Cr ( 0.000000,  0.000000, -3.181450)
  15 Fe ( 0.000000,  0.000000,  2.890901)
  16 Ni ( 0.000000,  0.000000,  0.353013)
  17 Co ( 0.000000,  0.000000,  1.758616)
  18 Ni ( 0.000000,  0.000000,  0.530466)
  19 Cr ( 0.000000,  0.000000, -3.200346)
  20 Co ( 0.000000,  0.000000,  1.838252)
  21 Ni ( 0.000000,  0.000000,  0.580152)
  22 Co ( 0.000000,  0.000000,  1.810296)
  23 Cr ( 0.000000,  0.000000, -3.129796)
  24 Fe ( 0.000000,  0.000000,  2.902712)
  25 Co ( 0.000000,  0.000000,  1.770113)
  26 Cr ( 0.000000,  0.000000, -3.119738)
  27 Cr ( 0.000000,  0.000000, -3.097052)
  28 Fe ( 0.000000,  0.000000,  2.811668)
  29 Cr ( 0.000000,  0.000000, -3.087628)
  30 Co ( 0.000000,  0.000000,  1.807109)
  31 Co ( 0.000000,  0.000000,  1.699613)
  32 Cr ( 0.000000,  0.000000,  2.958612)
  33 Ni ( 0.000000,  0.000000,  0.633252)
  34 Ni ( 0.000000,  0.000000,  0.568175)
  35 Cr ( 0.000000,  0.000000, -3.178697)
  36 Fe ( 0.000000,  0.000000,  3.048195)
  37 Ni ( 0.000000,  0.000000,  0.513806)
  38 Cr ( 0.000000,  0.000000, -3.152887)
  39 Fe ( 0.000000,  0.000000,  2.840479)
  40 Fe ( 0.000000,  0.000000,  2.946863)
  41 Co ( 0.000000,  0.000000,  1.541797)
  42 Cr ( 0.000000,  0.000000, -3.165076)
  43 Fe ( 0.000000,  0.000000,  2.964709)
  44 Fe ( 0.000000,  0.000000,  3.064768)
  45 Fe ( 0.000000,  0.000000,  2.989904)
  46 Ni ( 0.000000,  0.000000,  0.629110)
  47 Co ( 0.000000,  0.000000,  1.947339)
  48 Cr ( 0.000000,  0.000000, -3.190999)
  49 Ni ( 0.000000,  0.000000,  0.424748)
  50 Fe ( 0.000000,  0.000000,  2.962440)
  51 Co ( 0.000000,  0.000000,  1.750507)
  52 Co ( 0.000000,  0.000000,  1.787962)
  53 Fe ( 0.000000,  0.000000,  3.002006)
  54 Fe ( 0.000000,  0.000000,  2.935861)
  55 Ni ( 0.000000,  0.000000,  0.753563)
  56 Ni ( 0.000000,  0.000000,  0.709304)
  57 Fe ( 0.000000,  0.000000,  3.008513)
  58 Co ( 0.000000,  0.000000,  1.822995)
  59 Ni ( 0.000000,  0.000000,  0.601053)
[...]
  93 Ni ( 0.000000,  0.000000,  0.373815)
  94 Ni ( 0.000000,  0.000000,  0.465971)
  95 Cr ( 0.000000,  0.000000, -3.156960)
  96 Ni ( 0.000000,  0.000000,  0.368390)
  97 Co ( 0.000000,  0.000000,  1.560095)
  98 Fe ( 0.000000,  0.000000,  2.892209)
  99 Cr ( 0.000000,  0.000000, -3.186485)
 100 Co ( 0.000000,  0.000000,  1.797254)
 101 Cr ( 0.000000,  0.000000, -3.125266)
 102 Fe ( 0.000000,  0.000000,  2.978473)
 103 Co ( 0.000000,  0.000000,  1.819832)
 104 Ni ( 0.000000,  0.000000,  0.414855)
 105 Co ( 0.000000,  0.000000,  1.742778)
 106 Cr ( 0.000000,  0.000000,  2.961051)
 107 Cr ( 0.000000,  0.000000, -3.187019)

Energy contributions relative to reference atoms: (reference = -3846758.590871)

Kinetic:       -378.582727
Potential:     +218.461082
External:        +0.000000
XC:            -710.745039
Entropy (-ST):   -5.175675
Local:          +34.583142
Free energy:   -841.459217
Extrapolated:  -838.871380

Spin contamination: 79.785944 electrons
Showing only first 2 kpts
                      Up                     Down
 Kpt  Band  Eigenvalues  Occupancy  Eigenvalues  Occupancy
  0   524      5.50524    0.99988      6.72966    0.03718
  0   525      5.50864    0.99987      6.73211    0.03631
  0   526      5.52389    0.99985      6.74022    0.03358
  0   527      5.54062    0.99982      6.74831    0.03105

  1   524      5.50098    0.99988      6.72791    0.03781
  1   525      5.51691    0.99986      6.73472    0.03541
  1   526      5.52170    0.99985      6.73710    0.03460
  1   527      5.54422    0.99982      6.75361    0.02949

Fermi level: 6.40425

No gap

Forces in eV/Ang:
  0 Co   -0.05070    0.09504    0.03405
  1 Co   -0.17313   -0.09841    0.03242
  2 Fe   -0.54500   -0.02630    0.14094
  3 Fe   -0.22934   -0.00399    0.04085
  4 Cr    0.22533   -0.31348    0.14082
  5 Cr    0.09922   -0.27655    0.36100
  6 Co    0.24600   -0.10943    0.18309
  7 Cr    0.33501    0.18089   -0.29532
  8 Fe   -0.02070   -0.13348    0.23881
  9 Ni    0.14314    0.05546    0.03724
 10 Ni    0.05491    0.09944    0.02524
 11 Co    0.02848   -0.09878    0.06073
 12 Cr   -0.05883   -0.37184   -0.46791
 13 Fe   -0.13985    0.04603    0.28727
 14 Cr    0.40591    0.49442   -0.14565
 15 Fe    0.07562    0.15207    0.12548
 16 Ni   -0.15912   -0.02043   -0.08627
 17 Co    0.17353   -0.08943    0.19336
 18 Ni    0.01010    0.03326    0.11514
 19 Cr    0.12493   -0.18829    0.07905
 20 Co    0.18652   -0.10249    0.03177
 21 Ni    0.05246   -0.05415    0.18913
 22 Co   -0.12776   -0.28661   -0.00378
 23 Cr   -0.39337    0.32529   -0.09804
 24 Fe    0.12059    0.11538    0.14620
 25 Co   -0.05484    0.11565    0.18964
 26 Cr   -0.43410   -0.65911    0.45026
 27 Cr   -0.76752    0.36813   -0.22869
 28 Fe    0.05903    0.24375    0.35147
 29 Cr    0.78653    0.46868    0.28004
 30 Co   -0.17800    0.06401    0.15404
 31 Co    0.16510   -0.05747    0.12803
 32 Cr   -0.10520    0.01108    0.59973
 33 Ni   -0.11089    0.06464    0.13907
 34 Ni    0.11642    0.05472    0.10350
 35 Cr    0.10594   -0.05723    0.12313
 36 Fe   -0.32908    0.02080   -0.21837
 37 Ni   -0.13289   -0.07628   -0.03358
 38 Cr    0.07343    0.33276   -0.43761
 39 Fe    0.03536    0.11318    0.09179
 40 Fe    0.10572   -0.26003    0.08407
 41 Co    0.16521    0.38744   -0.56164
 42 Cr   -0.09842   -0.46539   -0.26015
 43 Fe    0.04388    0.33415   -0.10948
 44 Fe    0.18425   -0.22764   -0.34784
 45 Fe    0.39673    0.23075    0.10694
 46 Ni    0.03478   -0.02109   -0.08752
 47 Co   -0.10773    0.07480   -0.08129
 48 Cr   -0.46393    0.01790    0.36843
 49 Ni    0.10176   -0.00688   -0.03113
 50 Fe    0.03496    0.22109   -0.26049
 51 Co    0.22956   -0.00773    0.17286
 52 Co   -0.05262    0.12255    0.05797
 53 Fe    0.13553    0.14520   -0.04548
 54 Fe   -0.00413    0.10619   -0.09840
 55 Ni   -0.03066   -0.05674   -0.08533
 56 Ni    0.02387   -0.03930    0.07023
 57 Fe   -0.28286   -0.17927   -0.00907
 58 Co   -0.20384   -0.15578   -0.15231
 59 Ni   -0.09279   -0.01995   -0.04059
[...]
 93 Ni   -0.15168   -0.10262   -0.05770
 94 Ni   -0.05161   -0.10450    0.11624
 95 Cr   -0.29249   -0.01055    0.41851
 96 Ni    0.05593   -0.05388    0.00496
 97 Co    0.16192    0.19846   -0.01145
 98 Fe   -0.22644   -0.17134   -0.26519
 99 Cr   -0.36662   -0.34235    0.03526
100 Co    0.21002    0.02115   -0.05838
101 Cr    0.78277   -0.08952   -0.03034
102 Fe    0.07220    0.07966   -0.51547
103 Co    0.27173   -0.26427   -0.11399
104 Ni   -0.17357    0.14296   -0.08959
105 Co   -0.39725    0.37037   -0.24765
106 Cr    0.07556   -0.03631   -0.61926
107 Cr   -0.02676    0.41213    0.43204

Date: Sat Apr  8 08:19:32 2023