User:   c.zeng@d0010
Date:   Fri Apr 14 00:49:35 2023
Arch:   x86_64
Pid:    162461
CWD:    /home/c.zeng/projects/hea-corrosion/hea-mlp/data-curation/bulk-md/dft-jobs/7
Python: 3.8.1
gpaw:   /home/c.zeng/usr/installs/gpaw/source/gpaw-22.8.0/gpaw
_gpaw:  /home/c.zeng/usr/installs/gpaw/source/gpaw-22.8.0/
        _gpaw.cpython-38-x86_64-linux-gnu.so
ase:    /home/c.zeng/.local/lib/python3.8/site-packages/ase-3.22.1-py3.8.egg/ase (version 3.22.1)
numpy:  /shared/centos7/python/3.8.1/lib/python3.8/site-packages/numpy (version 1.17.4)
scipy:  /shared/centos7/python/3.8.1/lib/python3.8/site-packages/scipy (version 1.4.1)
units:  Angstrom and eV
cores: 30
OpenMP: False
OMP_NUM_THREADS: 1

Input parameters:
  convergence: {energy: 0.0001}
  kpts: [2 2 2]
  maxiter: 666
  mode: {ecut: 350.0,
         name: pw}
  occupations: {fixmagmom: False,
                name: fermi-dirac,
                width: 0.1}
  spinpol: True
  xc: PBE

System changes: positions, numbers, cell, pbc, initial_charges, initial_magmoms

Initialize ...

species:
  Co:
    name: Cobalt
    id: 339d20d5b0b93d2de9531a1bee871d91
    Z: 27.0
    valence: 9
    core: 18
    charge: 0.0
    file: /home/c.zeng/usr/data/gpaw-setups-0.9.20000/Co.PBE.gz
    compensation charges: {type: gauss,
                           rc: 0.32,
                           lmax: 2}
    cutoffs: {filter: 1.87,
              core: 2.55}
    valence states:
      #              energy  rcut
      - 4s(2.00)    -5.469   1.005
      - 4p(0.00)    -1.277   1.058
      - 3d(7.00)    -8.205   1.005
      -  s          21.742   1.005
      -  p          25.934   1.058
      -  d          19.007   1.005

    # Using partial waves for Co as LCAO basis

  Fe:
    name: Iron
    id: 37abbd8d6c3c35915a9b583b742da910
    Z: 26.0
    valence: 8
    core: 18
    charge: 0.0
    file: /home/c.zeng/usr/data/gpaw-setups-0.9.20000/Fe.PBE.gz
    compensation charges: {type: gauss,
                           rc: 0.33,
                           lmax: 2}
    cutoffs: {filter: 2.06,
              core: 2.67}
    valence states:
      #              energy  rcut
      - 4s(2.00)    -5.291   1.164
      - 4p(0.00)    -1.326   1.058
      - 3d(6.00)    -7.505   1.058
      -  s          21.920   1.164
      -  p          25.885   1.058
      -  d          19.706   1.058

[...]

  Cr:
    name: Chromium
    id: 33f258bda2ca9f93018e70263a35547b
    Z: 24.0
    valence: 6
    core: 18
    charge: 0.0
    file: /home/c.zeng/usr/data/gpaw-setups-0.9.20000/Cr.PBE.gz
    compensation charges: {type: gauss,
                           rc: 0.35,
                           lmax: 2}
    cutoffs: {filter: 2.14,
              core: 3.04}
    valence states:
      #              energy  rcut
      - 4s(1.00)    -4.007   1.164
      - 4p(0.00)    -0.989   1.217
      - 3d(5.00)    -2.913   1.111
      -  s          23.205   1.164
      -  p          26.223   1.217
      -  d          24.299   1.111

[...]

  Ni:
    name: Nickel
    id: 0d9f38a9d6e76a2886f07bb4381f212b
    Z: 28.0
    valence: 16
    core: 12
    charge: 0.0
    file: /home/c.zeng/usr/data/gpaw-setups-0.9.20000/Ni.PBE.gz
    compensation charges: {type: gauss,
                           rc: 0.36,
                           lmax: 2}
    cutoffs: {filter: 2.14,
              core: 1.98}
    valence states:
      #              energy  rcut
      - 4s(2.00)    -5.642   1.164
      - 3p(6.00)   -71.394   1.207
      - 4p(0.00)    -1.226   1.207
      - 3d(8.00)    -8.875   1.138
      -  s          21.570   1.164
      -  d          18.337   1.138

    # Using partial waves for Ni as LCAO basis

Reference energy: -3846758.590871  # eV

Spin-polarized calculation.
Magnetic moment: 151.200000

Convergence criteria:
 Maximum [total energy] change in last 3 cyles: 0.0001 eV / electron
 Maximum integral of absolute [dens]ity change: 0.0001 electrons / valence electron
 Maximum integral of absolute [eigenst]ate change: 4e-08 eV^2 / valence electron
 Maximum number of scf [iter]ations: 666
 (Square brackets indicate name in SCF output, whereas a 'c' in
 the SCF output indicates the quantity has converged.)

Symmetries present (total): 1

  ( 1  0  0)
  ( 0  1  0)
  ( 0  0  1)

8 k-points: 2 x 2 x 2 Monkhorst-Pack grid
4 k-points in the irreducible part of the Brillouin zone
       k-points in crystal coordinates                weights
   0:     0.25000000   -0.25000000   -0.25000000          2/8
   1:     0.25000000   -0.25000000    0.25000000          2/8
   2:     0.25000000    0.25000000   -0.25000000          2/8
   3:     0.25000000    0.25000000    0.25000000          2/8

Wave functions: Plane wave expansion
  Cutoff energy: 350.000 eV
  Number of coefficients (min, max): 17755, 17755
  Pulay-stress correction: 0.000000 eV/Ang^3 (de/decut=0.000000)
  Using FFTW library
  ScaLapack parameters: grid=1x1, blocksize=None
  Wavefunction extrapolation:
    Improved wavefunction reuse through dual PAW basis

Occupation numbers: Fermi-Dirac:
  width: 0.1000  # eV

Eigensolver
   Davidson(niter=2)

Densities:
  Coarse grid: 48*48*48 grid
  Fine grid: 96*96*96 grid
  Total Charge: 0.000000

Density mixing:
  Method: difference
  Backend: pulay
  Linear mixing parameter: 0.05
  old densities: 5
  Damping of long wavelength oscillations: 50

Hamiltonian:
  XC and Coulomb potentials evaluated on a 96*96*96 grid
  Using the PBE Exchange-Correlation functional
  External potential:
    NoExternalPotential

XC parameters: PBE with 2 nearest neighbor stencil

Total number of cores used: 30
Parallelization over k-points: 2
Domain decomposition: 5 x 3 x 1

Number of atoms: 108
Number of atomic orbitals: 1053
Number of bands in calculation: 727
Number of valence electrons: 1053
Bands to converge: occupied

... initialized

Initializing position-dependent things.

Density initialized from atomic densities
Creating initial wave functions:
  727 bands from LCAO basis set

       /|                   Cr    |
      / |   Fe         Cr         |
     /  |       Cr      Co       Co
    /   |                  Cr     |
   /    | FeNi     Feo      Cr    |
  /  CFe|  CrCFCr     NCo         |
 *    NCr      CNiFe    CoNCo    Fe
 |      |NCo    NiCFe     CrCo    |
 |  Cr  | FeCFe  FeCNi Co  Cr    Fe
 |     Cr  NiFeCr    NFNi   Ni Ni |
 Co     FCr Fe FeFNi CoFeCo   NiNi|
 |     CCo Co  Cr NiFe  NiNi      |
 | Ni   .Cr-CoCr--Co-NiNi---NCr---.
 |     Fe   CCo    Co  NCo    Fe /
 |    Fe      FFe               /
 |   / Cr        NFe     Co    /
 |  /    FeCr      Ni       Co/
 | /                 Co      /r
 *--------Cr---------------*

Positions:
   0 Co    -0.017267    0.007373   10.545798    ( 0.0000,  0.0000,  2.1000)
   1 Co    -0.154758    1.751204    1.840649    ( 0.0000,  0.0000,  2.1000)
   2 Fe     1.785522   -0.055483    1.836689    ( 0.0000,  0.0000,  2.0000)
   3 Fe     1.598012    1.643423   10.539854    ( 0.0000,  0.0000,  2.0000)
   4 Cr     3.553713    0.261395   10.747124    ( 0.0000,  0.0000,  0.0000)
   5 Cr     3.419291    1.744595    1.834703    ( 0.0000,  0.0000,  0.0000)
   6 Co     5.331573   10.316989    1.939371    ( 0.0000,  0.0000,  2.1000)
   7 Cr     5.396655    1.938965   10.487983    ( 0.0000,  0.0000,  0.0000)
   8 Fe     6.966693    0.058661   10.529329    ( 0.0000,  0.0000,  2.0000)
   9 Ni     7.019997    1.883577    1.679996    ( 0.0000,  0.0000,  1.5000)
  10 Ni     8.799739   -0.014745    1.423761    ( 0.0000,  0.0000,  1.5000)
  11 Co     8.634386    1.937798   10.305542    ( 0.0000,  0.0000,  2.1000)
  12 Cr    10.459089    3.476873    0.097244    ( 0.0000,  0.0000,  0.0000)
  13 Fe    10.389793    5.196814    1.793364    ( 0.0000,  0.0000,  2.0000)
  14 Cr     1.650342    3.395225    1.716263    ( 0.0000,  0.0000,  0.0000)
  15 Fe     1.827625    5.203516   10.617572    ( 0.0000,  0.0000,  2.0000)
  16 Ni     3.405902    3.302360   10.510270    ( 0.0000,  0.0000,  1.5000)
  17 Co     3.341973    5.103636    1.998284    ( 0.0000,  0.0000,  2.1000)
  18 Ni     5.506841    3.664710    1.523713    ( 0.0000,  0.0000,  1.5000)
  19 Cr     5.378193    5.381780   10.620380    ( 0.0000,  0.0000,  0.0000)
  20 Co     7.293736    3.761251   10.620304    ( 0.0000,  0.0000,  2.1000)
  21 Ni     7.535708    5.262794    1.752749    ( 0.0000,  0.0000,  1.5000)
  22 Co     8.885173    3.470859    1.686917    ( 0.0000,  0.0000,  2.1000)
  23 Cr     9.077472    5.403130   -0.108081    ( 0.0000,  0.0000,  0.0000)
  24 Fe     0.191926    7.157275   10.676904    ( 0.0000,  0.0000,  2.0000)
  25 Co    10.815948    8.852635    1.794457    ( 0.0000,  0.0000,  2.1000)
  26 Cr     1.585450    6.730037    1.836135    ( 0.0000,  0.0000,  0.0000)
  27 Cr     1.918498    8.798637   10.807345    ( 0.0000,  0.0000,  0.0000)
  28 Fe     3.293968    6.996320   10.769055    ( 0.0000,  0.0000,  2.0000)
  29 Cr     3.437182    8.809294    1.918390    ( 0.0000,  0.0000,  0.0000)
  30 Co     5.210154    6.986850    1.569585    ( 0.0000,  0.0000,  2.1000)
  31 Co     5.003442    8.801150   10.709237    ( 0.0000,  0.0000,  2.1000)
  32 Cr     7.014608    7.108050   10.574503    ( 0.0000,  0.0000,  0.0000)
  33 Ni     7.021987    8.686933    1.697189    ( 0.0000,  0.0000,  1.5000)
  34 Ni     9.052660    7.158886    1.738034    ( 0.0000,  0.0000,  1.5000)
  35 Cr     8.704180    8.883062   10.501698    ( 0.0000,  0.0000,  0.0000)
  36 Fe    -0.216945   10.564465    3.454235    ( 0.0000,  0.0000,  2.0000)
  37 Ni    10.855215    1.481534    5.294520    ( 0.0000,  0.0000,  1.5000)
  38 Cr     2.152390   -0.093003    5.386754    ( 0.0000,  0.0000,  0.0000)
  39 Fe     1.849008    1.716617    3.581472    ( 0.0000,  0.0000,  2.0000)
  40 Fe     3.597939   -0.082473    3.546125    ( 0.0000,  0.0000,  2.0000)
  41 Co     3.622916    1.708126    5.298015    ( 0.0000,  0.0000,  2.1000)
  42 Cr     5.241481    0.119359    5.351097    ( 0.0000,  0.0000,  0.0000)
  43 Fe     5.428382    1.709486    3.287028    ( 0.0000,  0.0000,  2.0000)
  44 Fe     6.963106    0.120875    3.327165    ( 0.0000,  0.0000,  2.0000)
  45 Fe     7.108435    1.734007    5.408469    ( 0.0000,  0.0000,  2.0000)
  46 Ni     8.879240    0.080575    5.288242    ( 0.0000,  0.0000,  1.5000)
  47 Co     8.792630    1.586923    3.659994    ( 0.0000,  0.0000,  2.1000)
  48 Cr    -0.014644    3.467087    3.749783    ( 0.0000,  0.0000,  0.0000)
  49 Ni    -0.025685    5.404249    5.382453    ( 0.0000,  0.0000,  1.5000)
  50 Fe     1.801442    3.353280    5.296804    ( 0.0000,  0.0000,  2.0000)
  51 Co     1.651217    5.026771    3.633520    ( 0.0000,  0.0000,  2.1000)
  52 Co     3.724140    3.512561    3.688643    ( 0.0000,  0.0000,  2.1000)
  53 Fe     3.475558    5.432334    5.148133    ( 0.0000,  0.0000,  2.0000)
  54 Fe     5.465154    3.391095    5.256927    ( 0.0000,  0.0000,  2.0000)
  55 Ni     5.408447    5.376688    3.624061    ( 0.0000,  0.0000,  1.5000)
  56 Ni     7.223082    3.376638    3.514705    ( 0.0000,  0.0000,  1.5000)
  57 Fe     7.198757    5.348458    5.351596    ( 0.0000,  0.0000,  2.0000)
  58 Co     8.940927    3.458926    5.415531    ( 0.0000,  0.0000,  2.1000)
  59 Ni     8.953491    5.130522    3.668937    ( 0.0000,  0.0000,  1.5000)
[...]
  93 Ni     7.071680    5.569965    8.714665    ( 0.0000,  0.0000,  1.5000)
  94 Ni     9.064117    3.951948    8.420093    ( 0.0000,  0.0000,  1.5000)
  95 Cr     8.917121    5.498558    6.993514    ( 0.0000,  0.0000,  0.0000)
  96 Ni     0.235266    7.098928    7.120981    ( 0.0000,  0.0000,  1.5000)
  97 Co    -0.093926    8.802480    8.847297    ( 0.0000,  0.0000,  2.1000)
  98 Fe     1.935635    7.141079    8.808646    ( 0.0000,  0.0000,  2.0000)
  99 Cr     1.884205    8.705516    7.049429    ( 0.0000,  0.0000,  0.0000)
 100 Co     3.822669    7.109505    7.036085    ( 0.0000,  0.0000,  2.1000)
 101 Cr     3.665667    8.902143    8.919801    ( 0.0000,  0.0000,  0.0000)
 102 Fe     5.414155    7.160138    8.794990    ( 0.0000,  0.0000,  2.0000)
 103 Co     5.172566    9.014815    7.125966    ( 0.0000,  0.0000,  2.1000)
 104 Ni     7.170477    7.293932    7.237445    ( 0.0000,  0.0000,  1.5000)
 105 Co     7.018787    8.914998    8.961438    ( 0.0000,  0.0000,  2.1000)
 106 Cr     8.857208    7.113605    8.911856    ( 0.0000,  0.0000,  0.0000)
 107 Cr     8.667395    9.011301    7.195051    ( 0.0000,  0.0000,  0.0000)

Unit cell:
           periodic     x           y           z      points  spacing
  1. axis:    yes   10.614300    0.000000    0.000000    48     0.2211
  2. axis:    yes    0.000000   10.614300    0.000000    48     0.2211
  3. axis:    yes    0.000000    0.000000   10.614300    48     0.2211

  Lengths:  10.614300  10.614300  10.614300
  Angles:   90.000000  90.000000  90.000000

Effective grid spacing dv^(1/3) = 0.2211

     iter     time        total  log10-change:  magmom
                         energy  eigst   dens
iter:   1 01:00:24 -1062.973771                  +151.4733
iter:   2 01:04:58  -934.145659  -0.31  -1.21    +84.8989
iter:   3 01:09:33  -926.649924  -0.94  -1.25    +69.4782
iter:   4 01:14:33  -920.419476  -1.20  -1.31    +65.0619
iter:   5 01:19:23  -895.185883  -1.58  -1.28    +58.7879
iter:   6 01:23:58  -891.246099  -1.34  -1.38    +58.5299
iter:   7 01:28:32  -900.157697  -1.18  -1.49    +57.2205
iter:   8 01:33:06  -874.252267  -1.57  -1.51    +55.1778
iter:   9 01:37:40  -872.942108  -2.25  -1.82    +55.8490
iter:  10 01:42:14  -873.753904  -2.31  -1.84    +57.6323
iter:  11 01:46:49  -873.773789  -2.53  -1.87    +58.8872
iter:  12 01:51:24  -873.277895  -2.68  -1.88    +60.0107
iter:  13 01:55:59  -876.744174  -2.36  -1.96    +61.5678
iter:  14 02:00:34  -874.725633  -2.39  -1.92    +61.9502
iter:  15 02:05:09  -874.168817  -2.67  -2.07    +62.5093
iter:  16 02:09:44  -874.509803  -2.68  -2.18    +63.1648
iter:  17 02:14:19  -873.917562  -2.97  -2.20    +63.8104
iter:  18 02:18:54  -873.968029  -3.36  -2.31    +64.6513
iter:  19 02:24:04  -874.051897  -3.36  -2.35    +64.9819
iter:  20 02:28:42  -874.276821  -3.27  -2.39    +65.5043
iter:  21 02:33:17  -874.076726  -3.30  -2.36    +65.8737
iter:  22 02:37:52  -873.940361  -3.28  -2.47    +66.0533
iter:  23 02:42:26  -873.981799  -3.64  -2.65    +66.4709
iter:  24 02:47:01  -873.958993c -3.84  -2.68    +66.7318
iter:  25 02:51:36  -873.999875c -4.00  -2.75    +67.1004
iter:  26 02:56:11  -873.997541c -4.01  -2.75    +67.2308
iter:  27 03:00:46  -873.997944c -4.08  -2.82    +67.4074
iter:  28 03:05:23  -874.009844c -4.19  -2.89    +67.5116
iter:  29 03:10:01  -874.002306c -4.45  -2.92    +67.6124
iter:  30 03:15:04  -874.017409c -4.66  -3.00    +67.7144
iter:  31 03:19:52  -874.021794c -4.65  -3.01    +67.7798
iter:  32 03:24:29  -874.031608c -4.77  -3.04    +67.8088
iter:  33 03:29:04  -874.027812c -4.82  -3.05    +67.8419
iter:  34 03:33:39  -874.036251c -4.84  -3.17    +67.8720
iter:  35 03:38:14  -874.037478c -5.04  -3.18    +67.8626
iter:  36 03:42:51  -874.042787c -4.99  -3.23    +67.8857
iter:  37 03:47:28  -874.043868c -5.13  -3.25    +67.8832
iter:  38 03:52:04  -874.049998c -5.13  -3.30    +67.8679
iter:  39 03:56:42  -874.050493c -5.13  -3.30    +67.8649
iter:  40 04:01:20  -874.053608c -5.21  -3.38    +67.8569
iter:  41 04:05:56  -874.054945c -5.24  -3.40    +67.8473
iter:  42 04:11:02  -874.056512c -5.48  -3.44    +67.8404
iter:  43 04:15:45  -874.057813c -5.47  -3.49    +67.8320
iter:  44 04:20:22  -874.061061c -5.46  -3.52    +67.8186
iter:  45 04:24:59  -874.059985c -5.58  -3.51    +67.8207
iter:  46 04:29:34  -874.061327c -5.77  -3.61    +67.8107
iter:  47 04:34:10  -874.062397c -5.77  -3.65    +67.8036
iter:  48 04:38:46  -874.063249c -5.84  -3.65    +67.8058
iter:  49 04:43:23  -874.063536c -5.91  -3.68    +67.8005
iter:  50 04:48:00  -874.064031c -5.95  -3.70    +67.7882
iter:  51 04:52:37  -874.064312c -6.17  -3.76    +67.7907
iter:  52 04:57:14  -874.065206c -6.16  -3.79    +67.7896
iter:  53 05:01:51  -874.065683c -6.11  -3.81    +67.7877
iter:  54 05:06:29  -874.066210c -6.11  -3.85    +67.7909
iter:  55 05:11:43  -874.066209c -6.24  -3.87    +67.7881
iter:  56 05:16:22  -874.066598c -6.43  -3.92    +67.7822
iter:  57 05:20:59  -874.066976c -6.45  -3.96    +67.7836
iter:  58 05:25:36  -874.067315c -6.52  -3.99    +67.7798
iter:  59 05:30:14  -874.067609c -6.50  -4.03c   +67.7753
iter:  60 05:34:51  -874.067798c -6.66  -4.07c   +67.7762
iter:  61 05:39:28  -874.068033c -6.73  -4.13c   +67.7736
iter:  62 05:44:05  -874.068352c -6.68  -4.15c   +67.7693
iter:  63 05:48:43  -874.068519c -6.95  -4.19c   +67.7700
iter:  64 05:53:20  -874.068804c -6.79  -4.24c   +67.7670
iter:  65 05:57:58  -874.068895c -6.94  -4.24c   +67.7657
iter:  66 06:02:35  -874.069034c -7.10  -4.30c   +67.7647
iter:  67 06:07:26  -874.069158c -7.05  -4.35c   +67.7615
iter:  68 06:12:27  -874.069337c -7.06  -4.37c   +67.7609
iter:  69 06:17:05  -874.069415c -7.24  -4.38c   +67.7588
iter:  70 06:21:42  -874.069508c -7.25  -4.42c   +67.7554
iter:  71 06:26:19  -874.069574c -7.34  -4.43c   +67.7552
iter:  72 06:30:56  -874.069657c -7.40c -4.46c   +67.7534

Converged after 72 iterations.

Dipole moment: (5.931628, -11.755513, 10.797934) |e|*Ang

Total magnetic moment: (0.000000, 0.000000, 67.753397)
Local magnetic moments:
   0 Co ( 0.000000,  0.000000,  1.480732)
   1 Co ( 0.000000,  0.000000,  1.159649)
   2 Fe ( 0.000000,  0.000000,  1.804234)
   3 Fe ( 0.000000,  0.000000,  1.661226)
   4 Cr ( 0.000000,  0.000000, -0.066944)
   5 Cr ( 0.000000,  0.000000, -0.721252)
   6 Co ( 0.000000,  0.000000,  1.044668)
   7 Cr ( 0.000000,  0.000000, -1.001206)
   8 Fe ( 0.000000,  0.000000,  2.302801)
   9 Ni ( 0.000000,  0.000000,  0.391315)
  10 Ni ( 0.000000,  0.000000,  0.482762)
  11 Co ( 0.000000,  0.000000,  1.508986)
  12 Cr ( 0.000000,  0.000000,  0.209466)
  13 Fe ( 0.000000,  0.000000,  1.666055)
  14 Cr ( 0.000000,  0.000000, -0.494366)
  15 Fe ( 0.000000,  0.000000,  1.675601)
  16 Ni ( 0.000000,  0.000000,  0.055673)
  17 Co ( 0.000000,  0.000000,  1.106421)
  18 Ni ( 0.000000,  0.000000,  0.168237)
  19 Cr ( 0.000000,  0.000000, -1.596001)
  20 Co ( 0.000000,  0.000000,  1.286627)
  21 Ni ( 0.000000,  0.000000,  0.224459)
  22 Co ( 0.000000,  0.000000,  1.116562)
  23 Cr ( 0.000000,  0.000000, -0.727607)
  24 Fe ( 0.000000,  0.000000,  1.830850)
  25 Co ( 0.000000,  0.000000,  1.204642)
  26 Cr ( 0.000000,  0.000000, -1.330212)
  27 Cr ( 0.000000,  0.000000, -0.486103)
  28 Fe ( 0.000000,  0.000000,  1.469694)
  29 Cr ( 0.000000,  0.000000, -1.017181)
  30 Co ( 0.000000,  0.000000,  0.989997)
  31 Co ( 0.000000,  0.000000,  0.583805)
  32 Cr ( 0.000000,  0.000000,  0.425804)
  33 Ni ( 0.000000,  0.000000,  0.331291)
  34 Ni ( 0.000000,  0.000000,  0.315288)
  35 Cr ( 0.000000,  0.000000, -1.200963)
  36 Fe ( 0.000000,  0.000000,  2.524720)
  37 Ni ( 0.000000,  0.000000,  0.363600)
  38 Cr ( 0.000000,  0.000000,  0.161120)
  39 Fe ( 0.000000,  0.000000,  1.814414)
  40 Fe ( 0.000000,  0.000000,  1.725776)
  41 Co ( 0.000000,  0.000000,  0.443931)
  42 Cr ( 0.000000,  0.000000, -0.656959)
  43 Fe ( 0.000000,  0.000000,  2.055531)
  44 Fe ( 0.000000,  0.000000,  2.281344)
  45 Fe ( 0.000000,  0.000000,  2.195483)
  46 Ni ( 0.000000,  0.000000,  0.496354)
  47 Co ( 0.000000,  0.000000,  1.484352)
  48 Cr ( 0.000000,  0.000000, -1.330915)
  49 Ni ( 0.000000,  0.000000,  0.028198)
  50 Fe ( 0.000000,  0.000000,  1.144518)
  51 Co ( 0.000000,  0.000000,  0.981372)
  52 Co ( 0.000000,  0.000000,  1.340058)
  53 Fe ( 0.000000,  0.000000,  2.205680)
  54 Fe ( 0.000000,  0.000000,  2.290582)
  55 Ni ( 0.000000,  0.000000,  0.591595)
  56 Ni ( 0.000000,  0.000000,  0.419191)
  57 Fe ( 0.000000,  0.000000,  2.188814)
  58 Co ( 0.000000,  0.000000,  0.870099)
  59 Ni ( 0.000000,  0.000000,  0.304473)
[...]
  93 Ni ( 0.000000,  0.000000,  0.260389)
  94 Ni ( 0.000000,  0.000000, -0.027471)
  95 Cr ( 0.000000,  0.000000, -0.895447)
  96 Ni ( 0.000000,  0.000000,  0.185960)
  97 Co ( 0.000000,  0.000000,  0.842562)
  98 Fe ( 0.000000,  0.000000,  1.918545)
  99 Cr ( 0.000000,  0.000000, -1.352298)
 100 Co ( 0.000000,  0.000000,  1.167941)
 101 Cr ( 0.000000,  0.000000, -0.749753)
 102 Fe ( 0.000000,  0.000000,  1.920015)
 103 Co ( 0.000000,  0.000000,  0.864317)
 104 Ni ( 0.000000,  0.000000,  0.066576)
 105 Co ( 0.000000,  0.000000,  0.560234)
 106 Cr ( 0.000000,  0.000000,  0.743513)
 107 Cr ( 0.000000,  0.000000, -1.370192)

Energy contributions relative to reference atoms: (reference = -3846758.590871)

Kinetic:       +355.221251
Potential:     -377.108909
External:        +0.000000
XC:            -889.469472
Entropy (-ST):   -4.734640
Local:          +39.654792
Free energy:   -876.436977
Extrapolated:  -874.069657

Spin contamination: 23.645878 electrons
Showing only first 2 kpts
                      Up                     Down
 Kpt  Band  Eigenvalues  Occupancy  Eigenvalues  Occupancy
  0   524      9.86180    0.99479     10.77071    0.02112
  0   525      9.88471    0.99346     10.78201    0.01891
  0   526      9.88743    0.99328     10.79096    0.01731
  0   527      9.89896    0.99247     10.80174    0.01557

  1   524      9.85717    0.99503     10.75170    0.02543
  1   525      9.87014    0.99434     10.76521    0.02229
  1   526      9.88312    0.99357     10.78604    0.01817
  1   527      9.88823    0.99323     10.79150    0.01722

Fermi level: 10.38709

No gap

Forces in eV/Ang:
  0 Co    0.23675   -0.17873    0.01319
  1 Co    0.61494   -0.36779   -0.26225
  2 Fe   -0.69676    0.77697    0.44882
  3 Fe   -0.45690    0.67777    0.49247
  4 Cr   -0.51974   -0.79063    0.25259
  5 Cr    1.19444    0.46523   -0.00899
  6 Co   -1.16820    1.26152   -1.99283
  7 Cr   -0.17847   -0.07866    1.08344
  8 Fe   -0.40696   -0.33237    0.63068
  9 Ni    1.24581   -0.91646   -1.09324
 10 Ni   -0.24167    0.53976    1.89360
 11 Co    1.05265   -0.73412    0.92842
 12 Cr    0.79569   -0.21141   -1.83922
 13 Fe    1.51469    0.39350    0.25681
 14 Cr    0.22022    0.39340    0.03327
 15 Fe   -0.51697   -0.17289   -0.21923
 16 Ni    0.49551    2.07423    1.77464
 17 Co    1.48048    0.19820   -1.15779
 18 Ni   -1.40358    0.08663    1.86660
 19 Cr   -0.52798   -0.40294   -0.45960
 20 Co   -0.80010    0.02722   -1.98087
 21 Ni   -2.17511    1.37951    0.45992
 22 Co   -0.00046   -1.45005    0.89682
 23 Cr   -0.29675    0.10913   -0.48027
 24 Fe   -0.44228   -0.41775   -1.04896
 25 Co   -1.29123   -0.10589    0.02305
 26 Cr    0.72766    0.68155    0.58099
 27 Cr   -0.59192    1.04110   -0.84056
 28 Fe    1.05739   -0.45993   -0.24988
 29 Cr    0.79773    0.06047   -0.20314
 30 Co    0.57201   -0.37097    1.34375
 31 Co    1.10957    0.11518   -0.23734
 32 Cr    0.37649   -0.27987    0.72313
 33 Ni    0.29638    0.85858   -0.03712
 34 Ni   -1.03462    0.27739   -0.52851
 35 Cr    1.16357   -0.76823    0.44833
 36 Fe    1.51470   -0.38057    0.01571
 37 Ni   -1.08161    0.69938    0.26997
 38 Cr   -1.51543    0.01383   -0.25688
 39 Fe   -0.33868    0.08253   -0.49910
 40 Fe    0.05640   -0.18121   -0.04735
 41 Co   -0.16931    0.76330   -0.27611
 42 Cr    0.14616   -0.17599   -0.20639
 43 Fe   -1.86681    1.11283    1.18028
 44 Fe    2.31305   -1.28288    1.37429
 45 Fe   -0.66280    0.03409   -0.88218
 46 Ni   -0.02867   -1.24871    1.48655
 47 Co    0.26808    1.71593   -1.53838
 48 Cr   -0.15331   -1.13729   -0.49704
 49 Ni    0.56258    0.55229   -0.74154
 50 Fe   -0.03515    1.08825   -0.47859
 51 Co    0.07672    1.09705   -0.81365
 52 Co   -0.56925   -0.31729   -0.72808
 53 Fe    1.45660   -1.08279    0.45178
 54 Fe   -0.45846    0.72529    0.16200
 55 Ni    0.16245   -0.66282   -1.11807
 56 Ni   -0.57450    1.17081    0.49441
 57 Fe   -0.27720   -0.72113    0.10446
 58 Co   -0.91691   -0.19495    0.16372
 59 Ni   -0.75268    0.94735    0.02121
[...]
 93 Ni    0.07198   -2.42785    0.81544
 94 Ni   -2.12982   -2.96676    3.04602
 95 Cr   -1.07447    1.19212   -0.64309
 96 Ni   -2.17606    0.39390   -0.32129
 97 Co    1.10039    0.48444   -0.06859
 98 Fe   -0.25159   -0.01981    0.25740
 99 Cr    0.16693    0.77213   -0.25717
100 Co   -0.94854   -0.30412    0.50597
101 Cr   -0.21882   -0.98393   -0.11068
102 Fe   -1.30249    0.27677    0.45211
103 Co    1.48860    0.05358    0.55285
104 Ni   -1.01698   -0.32902   -2.04082
105 Co   -0.65196    0.47040   -0.39169
106 Cr    0.74514    0.09405   -0.53856
107 Cr    1.26430    0.53033    0.13191

Date: Fri Apr 14 06:31:49 2023