User:   c.zeng@d0008
Date:   Fri Apr 14 04:09:02 2023
Arch:   x86_64
Pid:    104131
CWD:    /home/c.zeng/projects/hea-corrosion/hea-mlp/data-curation/bulk-md/dft-jobs/93
Python: 3.8.1
gpaw:   /home/c.zeng/usr/installs/gpaw/source/gpaw-22.8.0/gpaw
_gpaw:  /home/c.zeng/usr/installs/gpaw/source/gpaw-22.8.0/
        _gpaw.cpython-38-x86_64-linux-gnu.so
ase:    /home/c.zeng/.local/lib/python3.8/site-packages/ase-3.22.1-py3.8.egg/ase (version 3.22.1)
numpy:  /shared/centos7/python/3.8.1/lib/python3.8/site-packages/numpy (version 1.17.4)
scipy:  /shared/centos7/python/3.8.1/lib/python3.8/site-packages/scipy (version 1.4.1)
units:  Angstrom and eV
cores: 30
OpenMP: False
OMP_NUM_THREADS: 1

Input parameters:
  convergence: {energy: 0.0001}
  kpts: [2 2 2]
  maxiter: 666
  mode: {ecut: 350.0,
         name: pw}
  occupations: {fixmagmom: False,
                name: fermi-dirac,
                width: 0.1}
  spinpol: True
  xc: PBE

System changes: positions, numbers, cell, pbc, initial_charges, initial_magmoms

Initialize ...

species:
  Al:
    name: Aluminium
    id: 0292cae29f5d6237e50f6abdd43a7bdd
    Z: 13.0
    valence: 3
    core: 10
    charge: 0.0
    file: /home/c.zeng/usr/data/gpaw-setups-0.9.20000/Al.PBE.gz
    compensation charges: {type: gauss,
                           rc: 0.34,
                           lmax: 2}
    cutoffs: {filter: 1.91,
              core: 2.36}
    valence states:
      #              energy  rcut
      - 3s(2.00)    -7.753   1.085
      - 3p(1.00)    -2.712   1.085
      -  s          19.459   1.085
      -  p          24.499   1.085
      -  d           0.000   1.085

    # Using partial waves for Al as LCAO basis

  Fe:
    name: Iron
    id: 37abbd8d6c3c35915a9b583b742da910
    Z: 26.0
    valence: 8
    core: 18
    charge: 0.0
    file: /home/c.zeng/usr/data/gpaw-setups-0.9.20000/Fe.PBE.gz
    compensation charges: {type: gauss,
                           rc: 0.33,
                           lmax: 2}
    cutoffs: {filter: 2.06,
              core: 2.67}
    valence states:
      #              energy  rcut
      - 4s(2.00)    -5.291   1.164
      - 4p(0.00)    -1.326   1.058
      - 3d(6.00)    -7.505   1.058
      -  s          21.920   1.164
      -  p          25.885   1.058
      -  d          19.706   1.058

[...]

  Cr:
    name: Chromium
    id: 33f258bda2ca9f93018e70263a35547b
    Z: 24.0
    valence: 6
    core: 18
    charge: 0.0
    file: /home/c.zeng/usr/data/gpaw-setups-0.9.20000/Cr.PBE.gz
    compensation charges: {type: gauss,
                           rc: 0.35,
                           lmax: 2}
    cutoffs: {filter: 2.14,
              core: 3.04}
    valence states:
      #              energy  rcut
      - 4s(1.00)    -4.007   1.164
      - 4p(0.00)    -0.989   1.217
      - 3d(5.00)    -2.913   1.111
      -  s          23.205   1.164
      -  p          26.223   1.217
      -  d          24.299   1.111

[...]

  Ni:
    name: Nickel
    id: 0d9f38a9d6e76a2886f07bb4381f212b
    Z: 28.0
    valence: 16
    core: 12
    charge: 0.0
    file: /home/c.zeng/usr/data/gpaw-setups-0.9.20000/Ni.PBE.gz
    compensation charges: {type: gauss,
                           rc: 0.36,
                           lmax: 2}
    cutoffs: {filter: 2.14,
              core: 1.98}
    valence states:
      #              energy  rcut
      - 4s(2.00)    -5.642   1.164
      - 3p(6.00)   -71.394   1.207
      - 4p(0.00)    -1.226   1.207
      - 3d(8.00)    -8.875   1.138
      -  s          21.570   1.164
      -  d          18.337   1.138

[...]

  Co:
    name: Cobalt
    id: 339d20d5b0b93d2de9531a1bee871d91
    Z: 27.0
    valence: 9
    core: 18
    charge: 0.0
    file: /home/c.zeng/usr/data/gpaw-setups-0.9.20000/Co.PBE.gz
    compensation charges: {type: gauss,
                           rc: 0.32,
                           lmax: 2}
    cutoffs: {filter: 1.87,
              core: 2.55}
    valence states:
      #              energy  rcut
      - 4s(2.00)    -5.469   1.005
      - 4p(0.00)    -1.277   1.058
      - 3d(7.00)    -8.205   1.005
      -  s          21.742   1.005
      -  p          25.934   1.058
      -  d          19.007   1.005

    # Using partial waves for Co as LCAO basis

Reference energy: -3235165.067515  # eV

Spin-polarized calculation.
Magnetic moment: 121.100000

Convergence criteria:
 Maximum [total energy] change in last 3 cyles: 0.0001 eV / electron
 Maximum integral of absolute [dens]ity change: 0.0001 electrons / valence electron
 Maximum integral of absolute [eigenst]ate change: 4e-08 eV^2 / valence electron
 Maximum number of scf [iter]ations: 666
 (Square brackets indicate name in SCF output, whereas a 'c' in
 the SCF output indicates the quantity has converged.)

Symmetries present (total): 1

  ( 1  0  0)
  ( 0  1  0)
  ( 0  0  1)

8 k-points: 2 x 2 x 2 Monkhorst-Pack grid
4 k-points in the irreducible part of the Brillouin zone
       k-points in crystal coordinates                weights
   0:     0.25000000   -0.25000000   -0.25000000          2/8
   1:     0.25000000   -0.25000000    0.25000000          2/8
   2:     0.25000000    0.25000000   -0.25000000          2/8
   3:     0.25000000    0.25000000    0.25000000          2/8

Wave functions: Plane wave expansion
  Cutoff energy: 350.000 eV
  Number of coefficients (min, max): 19084, 19084
  Pulay-stress correction: 0.000000 eV/Ang^3 (de/decut=0.000000)
  Using FFTW library
  ScaLapack parameters: grid=1x1, blocksize=None
  Wavefunction extrapolation:
    Improved wavefunction reuse through dual PAW basis

Occupation numbers: Fermi-Dirac:
  width: 0.1000  # eV

Eigensolver
   Davidson(niter=2)

Densities:
  Coarse grid: 48*48*48 grid
  Fine grid: 96*96*96 grid
  Total Charge: 0.000000

Density mixing:
  Method: difference
  Backend: pulay
  Linear mixing parameter: 0.05
  old densities: 5
  Damping of long wavelength oscillations: 50

Hamiltonian:
  XC and Coulomb potentials evaluated on a 96*96*96 grid
  Using the PBE Exchange-Correlation functional
  External potential:
    NoExternalPotential

XC parameters: PBE with 2 nearest neighbor stencil

Total number of cores used: 30
Parallelization over k-points: 2
Domain decomposition: 5 x 3 x 1

Number of atoms: 108
Number of atomic orbitals: 933
Number of bands in calculation: 624
Number of valence electrons: 912
Bands to converge: occupied

... initialized

Initializing position-dependent things.

Density initialized from atomic densities
Creating initial wave functions:
  624 bands from LCAO basis set

      / |                     Ni   |
     /Ni|       Co       NiFe     Al
    /   |Co       FeAl     Al     Co
   /    | Fe Fe  Co  FCr     CFe   |
  /    Cr   CoAle      Co      Crl |
 *     Cr  Ni    Co    Co NiAl     |
 |      |AlFAl  NiNiFe   NiFeAl Cr |
 |   Cr |    CrCoAl CoCr   Fe Cr   Fe
 |   FCo|    Ni  Cr  CCrFe   Cr    |
 |      Al Fe  AlNi NiANi Ni    Co |
 |     AlCAl    Ni CoCo  CrCrCo    |
 |      .---Co-Cr--Ni-ACr-FeFeFe---.
 |     /  NiCr      NiCo     NiCo /
 |    /Nir    AlAl      CNi      /
 |   /           FeAl     Al    /
 | Fe      Al       Co         /
 | / Cr                 Ni    /
 |/             Ni       Fe  /

Positions:
   0 Al    10.803858    0.043544   -0.006711    ( 0.0000,  0.0000,  0.0000)
   1 Fe    11.213580    2.105335    1.690437    ( 0.0000,  0.0000,  2.0000)
   2 Cr     1.774819   10.973647    1.725188    ( 0.0000,  0.0000,  0.0000)
   3 Cr     1.727142    2.126333   -0.263742    ( 0.0000,  0.0000,  0.0000)
   4 Ni     3.898440   10.892008   10.657788    ( 0.0000,  0.0000,  1.5000)
   5 Al     3.487277    1.967695    1.596201    ( 0.0000,  0.0000,  0.0000)
   6 Al     5.618071   10.780112    1.807423    ( 0.0000,  0.0000,  0.0000)
   7 Ni     5.689663    1.988265   10.937632    ( 0.0000,  0.0000,  1.5000)
   8 Fe     7.364436   -0.037627   11.097113    ( 0.0000,  0.0000,  2.0000)
   9 Co     7.268685    1.861136    1.788853    ( 0.0000,  0.0000,  2.1000)
  10 Ni     9.225203    0.003241    1.808407    ( 0.0000,  0.0000,  1.5000)
  11 Fe     9.061700    1.740604   10.886658    ( 0.0000,  0.0000,  2.0000)
  12 Fe    10.818262    3.784808   -0.067315    ( 0.0000,  0.0000,  2.0000)
  13 Co    10.721247    5.370650    1.960820    ( 0.0000,  0.0000,  2.1000)
  14 Cr     1.802072    3.772322    2.190692    ( 0.0000,  0.0000,  0.0000)
  15 Co     1.794973    5.224697   10.835192    ( 0.0000,  0.0000,  2.1000)
  16 Fe     3.771228    3.719771   -0.139973    ( 0.0000,  0.0000,  2.0000)
  17 Al     3.761485    5.324480    1.678543    ( 0.0000,  0.0000,  0.0000)
  18 Fe     5.366977    3.736205    1.728592    ( 0.0000,  0.0000,  2.0000)
  19 Fe     5.582243    5.410607   -0.072822    ( 0.0000,  0.0000,  2.0000)
  20 Cr     7.426728    3.495297   10.713547    ( 0.0000,  0.0000,  0.0000)
  21 Co     7.214379    5.363364    1.994433    ( 0.0000,  0.0000,  2.1000)
  22 Al     9.226168    3.442845    1.580574    ( 0.0000,  0.0000,  0.0000)
  23 Fe     8.894718    5.603457   -0.065320    ( 0.0000,  0.0000,  2.0000)
  24 Ni    11.202204    7.095219   -0.303896    ( 0.0000,  0.0000,  1.5000)
  25 Al     0.110966    8.572144    1.742857    ( 0.0000,  0.0000,  0.0000)
  26 Ni     1.938151    7.183511    1.534450    ( 0.0000,  0.0000,  1.5000)
  27 Cr     1.935531    9.126608   11.021612    ( 0.0000,  0.0000,  0.0000)
  28 Fe     3.533056    7.150861    0.002627    ( 0.0000,  0.0000,  2.0000)
  29 Ni     3.654993    8.850212    1.918639    ( 0.0000,  0.0000,  1.5000)
  30 Ni     5.616854    7.008435    1.871513    ( 0.0000,  0.0000,  1.5000)
  31 Ni     5.399731    8.912738   11.052928    ( 0.0000,  0.0000,  1.5000)
  32 Co     7.235396    7.268212    0.008834    ( 0.0000,  0.0000,  2.1000)
  33 Cr     7.249964    8.985445    1.806200    ( 0.0000,  0.0000,  0.0000)
  34 Fe     8.874818    7.135640    2.013103    ( 0.0000,  0.0000,  2.0000)
  35 Ni     9.045776    8.845179    0.058778    ( 0.0000,  0.0000,  1.5000)
  36 Fe    -0.014224   -0.153907    3.758841    ( 0.0000,  0.0000,  2.0000)
  37 Co    10.743632    1.698263    5.359569    ( 0.0000,  0.0000,  2.1000)
  38 Cr     1.681249   10.759840    5.537746    ( 0.0000,  0.0000,  0.0000)
  39 Ni     1.955561    1.743331    3.524388    ( 0.0000,  0.0000,  1.5000)
  40 Al     3.494127   10.650873    3.663098    ( 0.0000,  0.0000,  0.0000)
  41 Al     3.371696    1.736745    5.536993    ( 0.0000,  0.0000,  0.0000)
  42 Cr     5.568484   10.906141    5.542877    ( 0.0000,  0.0000,  0.0000)
  43 Al     5.558085    1.785932    3.465311    ( 0.0000,  0.0000,  0.0000)
  44 Al     7.409805   10.882740    3.663754    ( 0.0000,  0.0000,  0.0000)
  45 Co     7.473547    2.012491    5.299425    ( 0.0000,  0.0000,  2.1000)
  46 Cr     8.857197    0.162805    5.446438    ( 0.0000,  0.0000,  0.0000)
  47 Ni     9.217003    1.597944    3.619634    ( 0.0000,  0.0000,  1.5000)
  48 Fe    -0.141654    3.560296    3.576531    ( 0.0000,  0.0000,  2.0000)
  49 Fe    10.914124    5.588105    5.456091    ( 0.0000,  0.0000,  2.0000)
  50 Al     1.664677    3.725100    5.160659    ( 0.0000,  0.0000,  0.0000)
  51 Co     1.756006    5.756982    3.764566    ( 0.0000,  0.0000,  2.1000)
  52 Co     3.719171    3.433626    3.685449    ( 0.0000,  0.0000,  2.1000)
  53 Ni     3.436277    5.483092    5.694685    ( 0.0000,  0.0000,  1.5000)
  54 Ni     5.381372    3.486233    5.377673    ( 0.0000,  0.0000,  1.5000)
  55 Co     5.684146    5.446671    3.753800    ( 0.0000,  0.0000,  2.1000)
  56 Al     7.445552    3.736828    3.563037    ( 0.0000,  0.0000,  0.0000)
  57 Cr     7.316879    5.135450    5.393872    ( 0.0000,  0.0000,  0.0000)
  58 Ni     9.093991    3.597267    5.219969    ( 0.0000,  0.0000,  1.5000)
  59 Cr     9.011169    5.668114    3.738460    ( 0.0000,  0.0000,  0.0000)
[...]
  93 Co     7.253989    5.424361    8.930339    ( 0.0000,  0.0000,  2.1000)
  94 Ni     8.949726    3.597580    9.130625    ( 0.0000,  0.0000,  1.5000)
  95 Fe     8.934831    5.533617    7.244316    ( 0.0000,  0.0000,  2.0000)
  96 Al    -0.217172    7.481071    7.300804    ( 0.0000,  0.0000,  0.0000)
  97 Al    -0.016509    9.131298    9.038732    ( 0.0000,  0.0000,  0.0000)
  98 Fe     1.880949    7.248983    8.980889    ( 0.0000,  0.0000,  2.0000)
  99 Co     1.844403    9.199553    7.147138    ( 0.0000,  0.0000,  2.1000)
 100 Fe     3.597108    7.346648    7.406155    ( 0.0000,  0.0000,  2.0000)
 101 Co     3.485254    9.162565    9.042234    ( 0.0000,  0.0000,  2.1000)
 102 Al     5.585800    7.390494    9.214591    ( 0.0000,  0.0000,  0.0000)
 103 Fe     5.706312    9.134803    7.302322    ( 0.0000,  0.0000,  2.0000)
 104 Co     7.125319    7.143366    7.282283    ( 0.0000,  0.0000,  2.1000)
 105 Ni     7.165050    9.409505    9.291666    ( 0.0000,  0.0000,  1.5000)
 106 Al     8.751613    7.302147    9.071839    ( 0.0000,  0.0000,  0.0000)
 107 Cr     8.808814    9.158749    7.307245    ( 0.0000,  0.0000,  0.0000)

Unit cell:
           periodic     x           y           z      points  spacing
  1. axis:    yes   10.872400    0.000000    0.000000    48     0.2265
  2. axis:    yes    0.000000   10.872400    0.000000    48     0.2265
  3. axis:    yes    0.000000    0.000000   10.872400    48     0.2265

  Lengths:  10.872400  10.872400  10.872400
  Angles:   90.000000  90.000000  90.000000

Effective grid spacing dv^(1/3) = 0.2265

     iter     time        total  log10-change:  magmom
                         energy  eigst   dens
iter:   1 04:13:13  -955.871762                  +121.3865
iter:   2 04:15:04  -844.671472  -0.17  -1.16    +64.8302
iter:   3 04:16:56  -830.922654  -0.86  -1.18    +56.1423
iter:   4 04:18:47  -812.661923  -1.27  -1.25    +52.2734
iter:   5 04:20:40  -803.431858  -1.57  -1.29    +50.1413
iter:   6 04:22:32  -800.166312  -1.33  -1.34    +50.8722
iter:   7 04:24:24  -801.174214  -1.33  -1.45    +50.8605
iter:   8 04:26:16  -794.910465  -1.59  -1.49    +51.6797
iter:   9 04:28:09  -791.802749  -1.90  -1.62    +52.3747
iter:  10 04:30:01  -790.702118  -2.34  -1.72    +52.7748
iter:  11 04:31:53  -791.142399  -2.40  -1.77    +54.1670
iter:  12 04:33:45  -791.946375  -2.40  -1.81    +55.3443
iter:  13 04:35:37  -791.698294  -2.38  -1.82    +55.6768
iter:  14 04:37:29  -790.994963  -2.54  -1.89    +56.1253
iter:  15 04:39:21  -790.909499  -2.80  -1.97    +57.0198
iter:  16 04:41:13  -790.961904c -3.02  -2.05    +57.2345
iter:  17 04:43:05  -791.233239  -2.95  -2.08    +57.5253
iter:  18 04:44:57  -791.054180  -3.00  -2.11    +57.8613
iter:  19 04:46:59  -791.099604  -3.07  -2.19    +57.8597
iter:  20 04:49:42  -790.994505  -3.30  -2.26    +57.8637
iter:  21 04:51:38  -791.068534  -3.38  -2.34    +57.9774
iter:  22 04:53:30  -791.107659  -3.40  -2.38    +58.0037
iter:  23 04:55:21  -791.140125c -3.45  -2.42    +57.9678
iter:  24 04:57:14  -791.150960c -3.70  -2.46    +58.0233
iter:  25 04:59:06  -791.224262c -3.76  -2.52    +57.9505
iter:  26 05:00:57  -791.261177  -3.83  -2.52    +57.9388
iter:  27 05:02:50  -791.313292c -3.87  -2.57    +57.8944
iter:  28 05:04:41  -791.359112  -3.88  -2.59    +57.8174
iter:  29 05:06:33  -791.379888c -4.05  -2.61    +57.7995
iter:  30 05:08:25  -791.413284c -4.02  -2.65    +57.7987
iter:  31 05:10:17  -791.440317c -4.14  -2.69    +57.7534
iter:  32 05:12:43  -791.456275c -4.10  -2.71    +57.8243
iter:  33 05:15:04  -791.480085c -4.35  -2.77    +57.8221
iter:  34 05:16:55  -791.501345c -4.31  -2.79    +57.8495
iter:  35 05:18:48  -791.523528c -4.43  -2.83    +57.9005
iter:  36 05:20:39  -791.550337c -4.34  -2.87    +57.9846
iter:  37 05:22:32  -791.565577c -4.50  -2.89    +58.0235
iter:  38 05:24:23  -791.588521c -4.42  -2.92    +58.1846
iter:  39 05:26:15  -791.599906c -4.62  -2.96    +58.2353
iter:  40 05:28:07  -791.621310c -4.53  -2.97    +58.3615
iter:  41 05:29:58  -791.637818c -4.76  -3.02    +58.4524
iter:  42 05:31:50  -791.665841c -4.51  -3.06    +58.6491
iter:  43 05:33:42  -791.693218c -4.51  -3.08    +58.8225
iter:  44 05:35:33  -791.732029c -4.22  -3.09    +59.2332
iter:  45 05:37:25  -791.772919c -4.13  -3.13    +59.6304
iter:  46 05:39:16  -791.830163  -3.48  -3.09    +60.6138
iter:  47 05:41:08  -791.824917c -4.66  -2.98    +60.3116
iter:  48 05:43:00  -791.834936c -4.87  -3.03    +60.4832
iter:  49 05:45:20  -791.837548c -5.21  -3.00    +60.5520
iter:  50 05:47:48  -791.829109c -4.88  -2.99    +60.4967
iter:  51 05:49:40  -791.828790c -4.68  -2.96    +60.6722
iter:  52 05:51:33  -791.854705c -4.23  -3.01    +60.6832
iter:  53 05:53:25  -791.826735c -4.31  -2.88    +60.7459
iter:  54 05:55:18  -791.836285c -4.42  -3.00    +60.7035
iter:  55 05:57:09  -791.820520c -4.71  -3.01    +60.6386
iter:  56 05:59:01  -791.826128c -4.54  -3.23    +60.6556
iter:  57 06:00:53  -791.823883c -4.89  -3.21    +60.6738
iter:  58 06:02:45  -791.829777c -4.75  -3.30    +60.6719
iter:  59 06:04:37  -791.825927c -5.17  -3.25    +60.6921
iter:  60 06:06:30  -791.827842c -5.32  -3.45    +60.7225
iter:  61 06:08:21  -791.829863c -5.55  -3.48    +60.7407
iter:  62 06:10:13  -791.832808c -5.46  -3.49    +60.7511
iter:  63 06:12:04  -791.835166c -5.52  -3.54    +60.7878
iter:  64 06:13:56  -791.837497c -5.50  -3.54    +60.8172
iter:  65 06:15:48  -791.840294c -5.43  -3.58    +60.8464
iter:  66 06:17:40  -791.840930c -5.65  -3.57    +60.8573
iter:  67 06:19:54  -791.842583c -5.48  -3.67    +60.8851
iter:  68 06:22:28  -791.844850c -5.54  -3.71    +60.9104
iter:  69 06:24:21  -791.845986c -5.56  -3.68    +60.9196
iter:  70 06:26:12  -791.847530c -5.66  -3.80    +60.9522
iter:  71 06:28:04  -791.848367c -5.92  -3.77    +60.9738
iter:  72 06:29:56  -791.850379c -5.70  -3.90    +61.0079
iter:  73 06:31:48  -791.852481c -5.73  -3.88    +61.0471
iter:  74 06:33:39  -791.856753c -5.29  -3.90    +61.1190
iter:  75 06:35:32  -791.866846c -4.34  -3.76    +61.3559
iter:  76 06:37:24  -791.870351c -4.79  -3.56    +61.4362
iter:  77 06:39:16  -791.869655c -5.79  -3.47    +61.4114
iter:  78 06:41:07  -791.871461c -5.72  -3.49    +61.4409
iter:  79 06:42:59  -791.872367c -6.12  -3.45    +61.4459
iter:  80 06:44:51  -791.865450c -5.00  -3.43    +61.4558
iter:  81 06:46:43  -791.865533c -5.43  -3.52    +61.4591
iter:  82 06:48:35  -791.864822c -5.54  -3.57    +61.4349
iter:  83 06:50:27  -791.866940c -5.18  -3.59    +61.4142
iter:  84 06:52:19  -791.864347c -5.42  -3.46    +61.3952
iter:  85 06:54:10  -791.863741c -5.86  -3.68    +61.3526
iter:  86 06:56:02  -791.863458c -6.06  -3.87    +61.3343
iter:  87 06:58:28  -791.863400c -6.01  -3.87    +61.3088
iter:  88 07:00:50  -791.863835c -6.15  -3.85    +61.3026
iter:  89 07:02:42  -791.863550c -6.17  -3.91    +61.2878
iter:  90 07:04:35  -791.863317c -6.30  -3.94    +61.2833
iter:  91 07:06:26  -791.863179c -6.25  -4.04c   +61.2765
iter:  92 07:08:18  -791.863350c -6.46  -3.99    +61.2619
iter:  93 07:10:11  -791.863174c -6.67  -4.10c   +61.2564
iter:  94 07:12:03  -791.862831c -6.62  -4.21c   +61.2467
iter:  95 07:13:54  -791.862950c -6.96  -4.15c   +61.2447
iter:  96 07:15:47  -791.862939c -7.03  -4.25c   +61.2389
iter:  97 07:17:39  -791.862937c -7.14  -4.29c   +61.2355
iter:  98 07:19:31  -791.862829c -7.10  -4.31c   +61.2348
iter:  99 07:21:23  -791.862849c -7.30  -4.31c   +61.2311
iter: 100 07:23:15  -791.863003c -6.85  -4.34c   +61.2289
iter: 101 07:25:18  -791.862842c -6.97  -4.32c   +61.2275
iter: 102 07:28:00  -791.862790c -6.83  -4.34c   +61.2276
iter: 103 07:29:56  -791.862837c -6.93  -4.28c   +61.2270
iter: 104 07:31:48  -791.862863c -7.10  -4.41c   +61.2229
iter: 105 07:33:41  -791.862801c -7.28  -4.46c   +61.2253
iter: 106 07:35:33  -791.862762c -7.75c -4.54c   +61.2245

Converged after 106 iterations.

Dipole moment: (72.139741, 7.397487, 25.281464) |e|*Ang

Total magnetic moment: (0.000000, 0.000000, 61.224497)
Local magnetic moments:
   0 Al ( 0.000000,  0.000000, -0.013251)
   1 Fe ( 0.000000,  0.000000,  1.720929)
   2 Cr ( 0.000000,  0.000000, -2.435679)
   3 Cr ( 0.000000,  0.000000,  1.558781)
   4 Ni ( 0.000000,  0.000000,  0.182748)
   5 Al ( 0.000000,  0.000000, -0.014387)
   6 Al ( 0.000000,  0.000000, -0.014152)
   7 Ni ( 0.000000,  0.000000,  0.285142)
   8 Fe ( 0.000000,  0.000000,  2.119305)
   9 Co ( 0.000000,  0.000000,  0.775232)
  10 Ni ( 0.000000,  0.000000,  0.291264)
  11 Fe ( 0.000000,  0.000000,  1.600850)
  12 Fe ( 0.000000,  0.000000,  2.038925)
  13 Co ( 0.000000,  0.000000,  1.386041)
  14 Cr ( 0.000000,  0.000000, -1.650674)
  15 Co ( 0.000000,  0.000000,  1.262278)
  16 Fe ( 0.000000,  0.000000,  1.897273)
  17 Al ( 0.000000,  0.000000, -0.033095)
  18 Fe ( 0.000000,  0.000000,  2.219038)
  19 Fe ( 0.000000,  0.000000,  2.261850)
  20 Cr ( 0.000000,  0.000000, -1.433637)
  21 Co ( 0.000000,  0.000000,  1.049788)
  22 Al ( 0.000000,  0.000000, -0.036713)
  23 Fe ( 0.000000,  0.000000,  2.268173)
  24 Ni ( 0.000000,  0.000000,  0.356516)
  25 Al ( 0.000000,  0.000000, -0.023259)
  26 Ni ( 0.000000,  0.000000,  0.535470)
  27 Cr ( 0.000000,  0.000000,  2.049316)
  28 Fe ( 0.000000,  0.000000,  2.443085)
  29 Ni ( 0.000000,  0.000000,  0.338933)
  30 Ni ( 0.000000,  0.000000,  0.302977)
  31 Ni ( 0.000000,  0.000000,  0.196985)
  32 Co ( 0.000000,  0.000000,  1.104918)
  33 Cr ( 0.000000,  0.000000, -1.581815)
  34 Fe ( 0.000000,  0.000000,  1.751864)
  35 Ni ( 0.000000,  0.000000,  0.231053)
  36 Fe ( 0.000000,  0.000000,  2.335230)
  37 Co ( 0.000000,  0.000000,  0.860658)
  38 Cr ( 0.000000,  0.000000, -2.333587)
  39 Ni ( 0.000000,  0.000000, -0.096651)
  40 Al ( 0.000000,  0.000000,  0.006423)
  41 Al ( 0.000000,  0.000000, -0.007287)
  42 Cr ( 0.000000,  0.000000, -2.037923)
  43 Al ( 0.000000,  0.000000, -0.009543)
  44 Al ( 0.000000,  0.000000,  0.001602)
  45 Co ( 0.000000,  0.000000, -0.075096)
  46 Cr ( 0.000000,  0.000000, -1.201229)
  47 Ni ( 0.000000,  0.000000,  0.216497)
  48 Fe ( 0.000000,  0.000000,  1.976819)
  49 Fe ( 0.000000,  0.000000,  2.133808)
  50 Al ( 0.000000,  0.000000, -0.036509)
  51 Co ( 0.000000,  0.000000,  1.199152)
  52 Co ( 0.000000,  0.000000,  0.749991)
  53 Ni ( 0.000000,  0.000000,  0.287281)
  54 Ni ( 0.000000,  0.000000,  0.202764)
  55 Co ( 0.000000,  0.000000,  1.030817)
  56 Al ( 0.000000,  0.000000, -0.015812)
  57 Cr ( 0.000000,  0.000000,  0.883249)
  58 Ni ( 0.000000,  0.000000,  0.281923)
  59 Cr ( 0.000000,  0.000000, -1.427360)
[...]
  93 Co ( 0.000000,  0.000000,  1.103198)
  94 Ni ( 0.000000,  0.000000,  0.110739)
  95 Fe ( 0.000000,  0.000000,  1.666353)
  96 Al ( 0.000000,  0.000000, -0.023536)
  97 Al ( 0.000000,  0.000000, -0.025642)
  98 Fe ( 0.000000,  0.000000,  2.212771)
  99 Co ( 0.000000,  0.000000,  0.989268)
 100 Fe ( 0.000000,  0.000000,  2.410312)
 101 Co ( 0.000000,  0.000000,  1.224867)
 102 Al ( 0.000000,  0.000000, -0.047241)
 103 Fe ( 0.000000,  0.000000,  2.425573)
 104 Co ( 0.000000,  0.000000,  1.283496)
 105 Ni ( 0.000000,  0.000000,  0.431767)
 106 Al ( 0.000000,  0.000000, -0.031105)
 107 Cr ( 0.000000,  0.000000,  1.001748)

Energy contributions relative to reference atoms: (reference = -3235165.067515)

Kinetic:       +477.874534
Potential:     -424.308450
External:        +0.000000
XC:            -874.513524
Entropy (-ST):   -3.960137
Local:          +31.064746
Free energy:   -793.842831
Extrapolated:  -791.862762

Spin contamination: 25.403357 electrons
Showing only first 2 kpts
                      Up                     Down
 Kpt  Band  Eigenvalues  Occupancy  Eigenvalues  Occupancy
  0   454      9.00989    0.99645      9.97790    0.01725
  0   455      9.03285    0.99554      9.98739    0.01572
  0   456      9.04000    0.99521      9.99359    0.01479
  0   457      9.04927    0.99475     10.01054    0.01251

  1   454      9.00877    0.99649      9.97658    0.01748
  1   455      9.01842    0.99614      9.98915    0.01545
  1   456      9.02626    0.99582     10.01036    0.01253
  1   457      9.03377    0.99550     10.01865    0.01155

Fermi level: 9.57367

No gap

Forces in eV/Ang:
  0 Al    0.38008    0.08497    0.32572
  1 Fe   -0.49297   -1.66501    0.41941
  2 Cr   -0.25396   -1.44651   -0.34029
  3 Cr    0.62138   -0.57758   -0.43620
  4 Ni   -0.81142    0.65367    0.66961
  5 Al    0.92148   -0.31992   -0.15785
  6 Al   -2.15043    1.00484   -2.04145
  7 Ni   -1.52756   -1.34099   -0.44788
  8 Fe    0.39270    0.39253   -0.68648
  9 Co    0.87389    0.02595    0.49524
 10 Ni   -0.20094   -0.36111    0.04829
 11 Fe   -0.23488    0.28165   -0.06128
 12 Fe    0.12293    0.50356   -0.43998
 13 Co    0.86671    0.87997   -0.67644
 14 Cr   -0.59555    0.67600   -0.85361
 15 Co    0.35724   -0.23089    0.15940
 16 Fe   -0.41425   -1.09968    0.72437
 17 Al   -1.08201    1.35702    1.25365
 18 Fe    1.81754   -1.24393    0.72806
 19 Fe    0.54972   -0.02962    0.05628
 20 Cr   -1.35284    1.08150    1.26561
 21 Co    0.92293    0.13037   -1.94147
 22 Al   -1.20690    1.22048    1.98543
 23 Fe    0.50337   -0.99753    0.81989
 24 Ni   -2.08413    0.47886    1.22039
 25 Al   -2.76200    0.99335   -0.51401
 26 Ni   -0.42785   -2.37651    0.91822
 27 Cr    0.35074    1.15451   -1.45596
 28 Fe    1.63807    0.08386   -1.77601
 29 Ni    0.44326    0.72081   -0.12095
 30 Ni   -1.66681    1.06193   -0.71660
 31 Ni   -0.49061    0.58480   -0.31309
 32 Co   -0.11203   -0.37495    1.43203
 33 Cr    0.97824   -0.49993   -0.19151
 34 Fe    0.40863   -0.06488   -1.29667
 35 Ni    1.00953    0.70138    0.21519
 36 Fe    0.71206    0.06601   -0.41595
 37 Co    0.84905   -0.05574    0.99412
 38 Cr   -1.21716   -0.45842   -0.19575
 39 Ni   -1.02895   -0.51742    1.02455
 40 Al   -0.08968   -0.08472   -0.27641
 41 Al    1.12806   -0.05786    0.35460
 42 Cr   -0.00469    0.42244   -0.04430
 43 Al   -0.57481    1.31952    1.43291
 44 Al   -0.70554    0.92778   -1.50034
 45 Co   -1.81692   -0.87500    0.12251
 46 Cr    2.36784   -0.66290    0.99789
 47 Ni   -0.10308    1.32019   -1.74072
 48 Fe    0.23651    0.57423   -0.00249
 49 Fe   -1.09426   -0.33013    0.32179
 50 Al    0.36799   -0.60943    0.48582
 51 Co    0.09465   -0.19637   -0.58813
 52 Co    0.03281    1.38734   -0.55898
 53 Ni    1.58751    0.33419   -2.42235
 54 Ni    0.35826    1.01385   -0.70865
 55 Co   -2.52998   -1.67307    0.25788
 56 Al   -0.79491   -2.64763   -1.34531
 57 Cr   -1.16281    1.54593    1.62993
 58 Ni    1.13736    0.40454    1.52113
 59 Cr    0.72088   -0.94549   -0.24848
[...]
 93 Co   -0.52012   -0.32733    0.81021
 94 Ni    0.35905    0.61325   -1.02131
 95 Fe    0.58883   -0.55430   -0.17287
 96 Al    1.19806   -2.49766    0.02567
 97 Al    0.32200    0.07405    0.92358
 98 Fe    0.33567   -0.14342   -0.21494
 99 Co   -0.79166   -0.52540    1.17509
100 Fe    1.37712    0.31727   -0.68333
101 Co    0.40618   -0.45733    0.21166
102 Al   -0.76813   -0.09900   -0.90996
103 Fe   -0.82089   -0.30052   -0.10533
104 Co    0.32654    0.80499   -0.35953
105 Ni   -0.10246   -1.72106   -0.42191
106 Al    0.46238    0.74833    0.24891
107 Cr    0.41409   -1.18753   -0.35590

Date: Fri Apr 14 07:35:54 2023