User:   c.zeng@d0062
Date:   Fri Apr 14 22:40:52 2023
Arch:   x86_64
Pid:    34174
CWD:    /home/c.zeng/projects/hea-corrosion/hea-mlp/data-curation/bulk-mcmc/dft-jobs/176
Python: 3.8.1
gpaw:   /home/c.zeng/usr/installs/gpaw/source/gpaw-22.8.0/gpaw
_gpaw:  /home/c.zeng/usr/installs/gpaw/source/gpaw-22.8.0/
        _gpaw.cpython-38-x86_64-linux-gnu.so
ase:    /home/c.zeng/.local/lib/python3.8/site-packages/ase-3.22.1-py3.8.egg/ase (version 3.22.1)
numpy:  /shared/centos7/python/3.8.1/lib/python3.8/site-packages/numpy (version 1.17.4)
scipy:  /shared/centos7/python/3.8.1/lib/python3.8/site-packages/scipy (version 1.4.1)
units:  Angstrom and eV
cores: 30
OpenMP: False
OMP_NUM_THREADS: 1

Input parameters:
  convergence: {energy: 0.0001}
  kpts: [2 2 2]
  maxiter: 666
  mode: {ecut: 350.0,
         name: pw}
  occupations: {fixmagmom: False,
                name: fermi-dirac,
                width: 0.1}
  spinpol: True
  xc: PBE

System changes: positions, numbers, cell, pbc, initial_charges, initial_magmoms

Initialize ...

species:
  Co:
    name: Cobalt
    id: 339d20d5b0b93d2de9531a1bee871d91
    Z: 27.0
    valence: 9
    core: 18
    charge: 0.0
    file: /home/c.zeng/usr/data/gpaw-setups-0.9.20000/Co.PBE.gz
    compensation charges: {type: gauss,
                           rc: 0.32,
                           lmax: 2}
    cutoffs: {filter: 1.87,
              core: 2.55}
    valence states:
      #              energy  rcut
      - 4s(2.00)    -5.469   1.005
      - 4p(0.00)    -1.277   1.058
      - 3d(7.00)    -8.205   1.005
      -  s          21.742   1.005
      -  p          25.934   1.058
      -  d          19.007   1.005

    # Using partial waves for Co as LCAO basis

  Al:
    name: Aluminium
    id: 0292cae29f5d6237e50f6abdd43a7bdd
    Z: 13.0
    valence: 3
    core: 10
    charge: 0.0
    file: /home/c.zeng/usr/data/gpaw-setups-0.9.20000/Al.PBE.gz
    compensation charges: {type: gauss,
                           rc: 0.34,
                           lmax: 2}
    cutoffs: {filter: 1.91,
              core: 2.36}
    valence states:
      #              energy  rcut
      - 3s(2.00)    -7.753   1.085
      - 3p(1.00)    -2.712   1.085
      -  s          19.459   1.085
      -  p          24.499   1.085
      -  d           0.000   1.085

[...]

  Fe:
    name: Iron
    id: 37abbd8d6c3c35915a9b583b742da910
    Z: 26.0
    valence: 8
    core: 18
    charge: 0.0
    file: /home/c.zeng/usr/data/gpaw-setups-0.9.20000/Fe.PBE.gz
    compensation charges: {type: gauss,
                           rc: 0.33,
                           lmax: 2}
    cutoffs: {filter: 2.06,
              core: 2.67}
    valence states:
      #              energy  rcut
      - 4s(2.00)    -5.291   1.164
      - 4p(0.00)    -1.326   1.058
      - 3d(6.00)    -7.505   1.058
      -  s          21.920   1.164
      -  p          25.885   1.058
      -  d          19.706   1.058

[...]

  Cr:
    name: Chromium
    id: 33f258bda2ca9f93018e70263a35547b
    Z: 24.0
    valence: 6
    core: 18
    charge: 0.0
    file: /home/c.zeng/usr/data/gpaw-setups-0.9.20000/Cr.PBE.gz
    compensation charges: {type: gauss,
                           rc: 0.35,
                           lmax: 2}
    cutoffs: {filter: 2.14,
              core: 3.04}
    valence states:
      #              energy  rcut
      - 4s(1.00)    -4.007   1.164
      - 4p(0.00)    -0.989   1.217
      - 3d(5.00)    -2.913   1.111
      -  s          23.205   1.164
      -  p          26.223   1.217
      -  d          24.299   1.111

[...]

  Ni:
    name: Nickel
    id: 0d9f38a9d6e76a2886f07bb4381f212b
    Z: 28.0
    valence: 16
    core: 12
    charge: 0.0
    file: /home/c.zeng/usr/data/gpaw-setups-0.9.20000/Ni.PBE.gz
    compensation charges: {type: gauss,
                           rc: 0.36,
                           lmax: 2}
    cutoffs: {filter: 2.14,
              core: 1.98}
    valence states:
      #              energy  rcut
      - 4s(2.00)    -5.642   1.164
      - 3p(6.00)   -71.394   1.207
      - 4p(0.00)    -1.226   1.207
      - 3d(8.00)    -8.875   1.138
      -  s          21.570   1.164
      -  d          18.337   1.138

    # Using partial waves for Ni as LCAO basis

Reference energy: -3382523.201499  # eV

Spin-polarized calculation.
Magnetic moment: 128.800000

Convergence criteria:
 Maximum [total energy] change in last 3 cyles: 0.0001 eV / electron
 Maximum integral of absolute [dens]ity change: 0.0001 electrons / valence electron
 Maximum integral of absolute [eigenst]ate change: 4e-08 eV^2 / valence electron
 Maximum number of scf [iter]ations: 666
 (Square brackets indicate name in SCF output, whereas a 'c' in
 the SCF output indicates the quantity has converged.)

Symmetries present (total): 1

  ( 1  0  0)
  ( 0  1  0)
  ( 0  0  1)

8 k-points: 2 x 2 x 2 Monkhorst-Pack grid
4 k-points in the irreducible part of the Brillouin zone
       k-points in crystal coordinates                weights
   0:     0.25000000   -0.25000000   -0.25000000          2/8
   1:     0.25000000   -0.25000000    0.25000000          2/8
   2:     0.25000000    0.25000000   -0.25000000          2/8
   3:     0.25000000    0.25000000    0.25000000          2/8

Wave functions: Plane wave expansion
  Cutoff energy: 350.000 eV
  Number of coefficients (min, max): 18865, 18865
  Pulay-stress correction: 0.000000 eV/Ang^3 (de/decut=0.000000)
  Using FFTW library
  ScaLapack parameters: grid=1x1, blocksize=None
  Wavefunction extrapolation:
    Improved wavefunction reuse through dual PAW basis

Occupation numbers: Fermi-Dirac:
  width: 0.1000  # eV

Eigensolver
   Davidson(niter=2)

Densities:
  Coarse grid: 48*48*48 grid
  Fine grid: 96*96*96 grid
  Total Charge: 0.000000

Density mixing:
  Method: difference
  Backend: pulay
  Linear mixing parameter: 0.05
  old densities: 5
  Damping of long wavelength oscillations: 50

Hamiltonian:
  XC and Coulomb potentials evaluated on a 96*96*96 grid
  Using the PBE Exchange-Correlation functional
  External potential:
    NoExternalPotential

XC parameters: PBE with 2 nearest neighbor stencil

Total number of cores used: 30
Parallelization over k-points: 2
Domain decomposition: 5 x 3 x 1

Number of atoms: 108
Number of atomic orbitals: 961
Number of bands in calculation: 649
Number of valence electrons: 945
Bands to converge: occupied

... initialized

Initializing position-dependent things.

Density initialized from atomic densities
Creating initial wave functions:
  649 bands from LCAO basis set

       /|                     Co   |
      / |            Co Co     CrCo|
     /  |       Cr       Ni       Cr
    /   |Co       Fel     FFer     |
   /i   | Feo        Fe      Co    |
  /  CrAl   NCr       Ni           |
 *      Ni     CoFe   AlFeCrCo   Cr|
 |      |CoNi   CrNiAl   NiAlNi   Fe
 | CrCo | AlNi   AlAlFe     Ni     |
 |     Fe  FeCr Cr  Fe FeNi  CrNi  |
 |      CoNi   AlCr   CoCoCoNi  Fe |
 |Al    |FeCr   AlCrCo   CrCo     Fe
 |      .-CrCo-----NiCr-CoFeCrNi---.
 |     /   Ni Fe    Cr FeNi    Al /
 |    Fe       ACoi       Al     /
 |   /  Fe         Al       Cr  /
 |  /      Fe       Al       Co/
 | / Co     Co       Ni Ni    /
 |/             Cr       Ni  /
 *--------Fe----------------*

Positions:
   0 Co    10.764147   10.861293   10.805330    ( 0.0000,  0.0000,  2.0000)
   1 Co    10.786221    1.792513    1.813624    ( 0.0000,  0.0000,  0.0000)
   2 Co     1.744156    0.036560    1.851269    ( 0.0000,  0.0000,  1.5000)
   3 Al     1.736571    1.831142   10.798805    ( 0.0000,  0.0000,  0.0000)
   4 Fe     3.575126    0.057318    0.061759    ( 0.0000,  0.0000,  0.0000)
   5 Fe     3.594289    1.817617    1.845577    ( 0.0000,  0.0000,  2.0000)
   6 Co     5.429813   10.817005    1.865054    ( 0.0000,  0.0000,  1.5000)
   7 Cr     5.429608    1.929425    0.057134    ( 0.0000,  0.0000,  0.0000)
   8 Fe     7.316909   10.723332    0.087382    ( 0.0000,  0.0000,  0.0000)
   9 Al     7.263142    1.825786    1.869404    ( 0.0000,  0.0000,  2.1000)
  10 Ni     9.063554    0.025226    1.863474    ( 0.0000,  0.0000,  1.5000)
  11 Ni     9.049217    1.829703    0.033106    ( 0.0000,  0.0000,  2.1000)
  12 Ni     0.004792    3.558981   10.794801    ( 0.0000,  0.0000,  1.5000)
  13 Al    10.759710    5.390697    1.778165    ( 0.0000,  0.0000,  0.0000)
  14 Fe     1.733585    3.561849    1.761112    ( 0.0000,  0.0000,  2.0000)
  15 Co     1.776899    5.391834   10.795505    ( 0.0000,  0.0000,  0.0000)
  16 Co     3.565452    3.619360   10.832619    ( 0.0000,  0.0000,  2.1000)
  17 Fe     3.633221    5.394614    1.719551    ( 0.0000,  0.0000,  0.0000)
  18 Ni     5.471624    3.659114    1.836033    ( 0.0000,  0.0000,  2.1000)
  19 Fe     5.440212    5.373060   -0.002773    ( 0.0000,  0.0000,  2.0000)
  20 Ni     7.258997    3.609080    0.031294    ( 0.0000,  0.0000,  0.0000)
  21 Fe     7.268941    5.378362    1.785274    ( 0.0000,  0.0000,  2.0000)
  22 Al     9.030724    3.577636    1.833728    ( 0.0000,  0.0000,  2.1000)
  23 Fe     9.040420    5.372281   10.801110    ( 0.0000,  0.0000,  0.0000)
  24 Co    10.791663    7.196206   10.792486    ( 0.0000,  0.0000,  1.5000)
  25 Fe    10.758434    9.040387    1.848239    ( 0.0000,  0.0000,  0.0000)
  26 Cr     1.690487    7.202493    1.786032    ( 0.0000,  0.0000,  0.0000)
  27 Ni     1.652691    8.981047    0.027217    ( 0.0000,  0.0000,  0.0000)
  28 Al     3.631241    7.164437    0.034633    ( 0.0000,  0.0000,  0.0000)
  29 Al     3.625452    9.063759    1.801678    ( 0.0000,  0.0000,  0.0000)
  30 Ni     5.490852    7.187095    1.746342    ( 0.0000,  0.0000,  2.0000)
  31 Cr     5.426935    8.989152    0.009861    ( 0.0000,  0.0000,  2.0000)
  32 Co     7.229122    7.237075   -0.008698    ( 0.0000,  0.0000,  1.5000)
  33 Cr     7.249194    8.995850    1.810713    ( 0.0000,  0.0000,  0.0000)
  34 Cr     9.052073    7.204300    1.764218    ( 0.0000,  0.0000,  2.1000)
  35 Co     9.092553    8.989639   10.808760    ( 0.0000,  0.0000,  1.5000)
  36 Cr    -0.000975   10.826235    3.639789    ( 0.0000,  0.0000,  1.5000)
  37 Al    10.822772    1.771770    5.422044    ( 0.0000,  0.0000,  2.1000)
  38 Ni     1.754263   10.802084    5.428872    ( 0.0000,  0.0000,  2.1000)
  39 Fe     1.741873    1.774270    3.610801    ( 0.0000,  0.0000,  0.0000)
  40 Al     3.591183   10.794152    3.612143    ( 0.0000,  0.0000,  2.0000)
  41 Cr     3.593088    1.736744    5.455177    ( 0.0000,  0.0000,  0.0000)
  42 Al     5.437150   10.794563    5.400804    ( 0.0000,  0.0000,  2.0000)
  43 Co     5.451931    1.783251    3.601387    ( 0.0000,  0.0000,  1.5000)
  44 Al     7.226222    0.007781    3.626209    ( 0.0000,  0.0000,  0.0000)
  45 Co     7.236069    1.766512    5.381392    ( 0.0000,  0.0000,  2.1000)
  46 Co     9.034587   10.848850    5.403844    ( 0.0000,  0.0000,  2.1000)
  47 Ni     9.031558    1.804946    3.616730    ( 0.0000,  0.0000,  1.5000)
  48 Ni    10.773885    3.543973    3.617867    ( 0.0000,  0.0000,  1.5000)
  49 Ni    10.772186    5.358409    5.454917    ( 0.0000,  0.0000,  0.0000)
  50 Co     1.757531    3.575678    5.428937    ( 0.0000,  0.0000,  2.1000)
  51 Fe     1.621766    5.386986    3.572550    ( 0.0000,  0.0000,  0.0000)
  52 Co     3.634303    3.633188    3.540792    ( 0.0000,  0.0000,  0.0000)
  53 Cr     3.550606    5.397969    5.404753    ( 0.0000,  0.0000,  2.0000)
  54 Cr     5.402221    3.610887    5.370193    ( 0.0000,  0.0000,  2.0000)
  55 Cr     5.460241    5.433590    3.575613    ( 0.0000,  0.0000,  2.0000)
  56 Cr     7.250157    3.615183    3.623169    ( 0.0000,  0.0000,  1.5000)
  57 Fe     7.248707    5.410715    5.362099    ( 0.0000,  0.0000,  1.5000)
  58 Co     9.058230    3.565236    5.380082    ( 0.0000,  0.0000,  2.1000)
  59 Co     9.074071    5.365323    3.589008    ( 0.0000,  0.0000,  2.1000)
[...]
  93 Ni     7.211073    5.388295    9.040181    ( 0.0000,  0.0000,  0.0000)
  94 Cr     9.095052    3.598119    8.980636    ( 0.0000,  0.0000,  2.0000)
  95 Al     9.078205    5.402416    7.227759    ( 0.0000,  0.0000,  0.0000)
  96 Cr    10.763411    7.244682    7.260285    ( 0.0000,  0.0000,  1.5000)
  97 Cr    10.795093    9.034566    8.977574    ( 0.0000,  0.0000,  2.0000)
  98 Fe     1.740045    7.178947    8.984662    ( 0.0000,  0.0000,  2.1000)
  99 Co     1.734429    9.080207    7.236696    ( 0.0000,  0.0000,  1.5000)
 100 Co     3.580482    7.154277    7.248285    ( 0.0000,  0.0000,  0.0000)
 101 Cr     3.612835    8.970898    8.958086    ( 0.0000,  0.0000,  0.0000)
 102 Al     5.410943    7.155878    9.067049    ( 0.0000,  0.0000,  0.0000)
 103 Fe     5.466441    9.064062    7.220963    ( 0.0000,  0.0000,  2.1000)
 104 Fe     7.307203    7.271549    7.289738    ( 0.0000,  0.0000,  0.0000)
 105 Ni     7.271073    9.044683    9.027879    ( 0.0000,  0.0000,  1.5000)
 106 Cr     9.081743    7.219805    9.041166    ( 0.0000,  0.0000,  2.1000)
 107 Co     9.063684    9.083009    7.213865    ( 0.0000,  0.0000,  2.0000)

Unit cell:
           periodic     x           y           z      points  spacing
  1. axis:    yes   10.820500    0.000000    0.000000    48     0.2254
  2. axis:    yes    0.000000   10.820500    0.000000    48     0.2254
  3. axis:    yes    0.000000    0.000000   10.820500    48     0.2254

  Lengths:  10.820500  10.820500  10.820500
  Angles:   90.000000  90.000000  90.000000

Effective grid spacing dv^(1/3) = 0.2254

     iter     time        total  log10-change:  magmom
                         energy  eigst   dens
iter:   1 22:44:11  -895.102077                  +128.4417
iter:   2 22:45:29  -864.359007  -0.40  -1.31    +95.2820
iter:   3 22:46:47  -844.521749  -0.95  -1.29    +66.6211
iter:   4 22:48:04  -833.163638  -1.27  -1.37    +57.9589
iter:   5 22:49:23  -826.003850  -1.85  -1.40    +52.4342
iter:   6 22:50:40  -826.893599  -1.99  -1.47    +50.2275
iter:   7 22:51:58  -827.795224  -1.66  -1.50    +48.8569
iter:   8 22:53:16  -824.306421  -1.75  -1.53    +47.9593
iter:   9 22:54:34  -829.328964  -1.82  -1.66    +48.6261
iter:  10 22:55:52  -822.654897  -1.99  -1.64    +48.1780
iter:  11 22:57:09  -823.650123  -2.34  -1.83    +48.7940
iter:  12 22:58:27  -822.688960  -2.45  -1.83    +49.6387
iter:  13 22:59:45  -823.148829  -2.57  -1.89    +50.6954
iter:  14 23:01:04  -823.669124  -2.53  -1.94    +51.7381
iter:  15 23:02:22  -824.584870  -2.50  -1.95    +52.3456
iter:  16 23:03:40  -824.722494  -2.42  -1.96    +54.1454
iter:  17 23:04:58  -824.295559  -2.70  -1.98    +54.6492
iter:  18 23:06:17  -824.704386  -2.67  -2.09    +55.6149
iter:  19 23:07:35  -824.431397  -2.86  -2.12    +56.4090
iter:  20 23:08:53  -824.404494  -3.08  -2.18    +57.3414
iter:  21 23:10:11  -824.616718  -3.24  -2.23    +58.1823
iter:  22 23:11:30  -824.821856  -3.24  -2.25    +58.7146
iter:  23 23:12:48  -824.797962  -3.43  -2.25    +59.4396
iter:  24 23:14:06  -824.989759  -3.36  -2.30    +60.0829
iter:  25 23:15:24  -825.105712  -3.29  -2.31    +60.4028
iter:  26 23:16:42  -825.245223  -3.16  -2.34    +60.4564
iter:  27 23:18:00  -825.265040  -3.23  -2.38    +60.6261
iter:  28 23:19:18  -825.361364  -3.19  -2.41    +60.8607
iter:  29 23:20:37  -825.370879  -3.34  -2.44    +60.7442
iter:  30 23:21:55  -825.273791  -3.56  -2.47    +60.8372
iter:  31 23:23:13  -825.296950  -3.74  -2.57    +60.9835
iter:  32 23:24:31  -825.279699c -4.10  -2.60    +61.0991
iter:  33 23:25:50  -825.335244c -4.14  -2.67    +61.1052
iter:  34 23:27:08  -825.345194c -4.61  -2.68    +61.1341
iter:  35 23:28:26  -825.436743  -3.94  -2.70    +61.1737
iter:  36 23:29:45  -825.481936  -3.95  -2.67    +61.1403
iter:  37 23:31:03  -825.469706c -3.89  -2.71    +61.0753
iter:  38 23:32:21  -825.533715c -3.87  -2.90    +60.8990
iter:  39 23:33:39  -825.495582c -4.12  -2.80    +60.8977
iter:  40 23:34:57  -825.541742c -4.18  -3.06    +60.7625
iter:  41 23:36:15  -825.537000c -4.68  -2.98    +60.7491
iter:  42 23:37:33  -825.566400c -4.48  -3.14    +60.6713
iter:  43 23:38:52  -825.592900c -4.60  -3.10    +60.5701
iter:  44 23:40:10  -825.695566  -3.74  -3.11    +60.1804
iter:  45 23:41:29  -825.730361  -3.92  -2.92    +60.0114
iter:  46 23:42:47  -825.758864c -4.16  -2.94    +59.8261
iter:  47 23:44:05  -825.767797c -4.46  -2.92    +59.7662
iter:  48 23:45:23  -825.806412c -4.05  -2.94    +59.5640
iter:  49 23:46:42  -825.859603c -3.77  -2.88    +59.4701
iter:  50 23:48:00  -825.824105c -4.26  -2.75    +59.5586
iter:  51 23:49:18  -825.817692c -4.66  -2.83    +59.5413
iter:  52 23:50:36  -825.823089c -4.91  -2.89    +59.5510
iter:  53 23:51:54  -825.816437c -3.91  -2.88    +59.5712
iter:  54 23:53:12  -825.805932c -4.60  -2.86    +59.5060
iter:  55 23:54:31  -825.807127c -4.61  -2.95    +59.4082
iter:  56 23:55:49  -825.811172c -4.62  -2.95    +59.3516
iter:  57 23:57:09  -825.807508c -4.78  -2.96    +59.3345
iter:  58 23:58:29  -825.811895c -4.77  -3.00    +59.3232
iter:  59 23:59:49  -825.818646c -4.54  -3.00    +59.2945
iter:  60 00:01:09  -825.820433c -4.41  -3.05    +59.3323
iter:  61 00:02:29  -825.834961c -4.27  -3.01    +59.3519
iter:  62 00:03:49  -825.816395c -4.52  -2.99    +59.3705
iter:  63 00:05:09  -825.820819c -4.65  -3.13    +59.3817
iter:  64 00:06:29  -825.816805c -4.79  -3.14    +59.4098
iter:  65 00:07:49  -825.812276c -5.24  -3.23    +59.4621
iter:  66 00:09:09  -825.815950c -5.45  -3.32    +59.4957
iter:  67 00:10:29  -825.818465c -5.52  -3.35    +59.5474
iter:  68 00:11:49  -825.821252c -5.52  -3.36    +59.5858
iter:  69 00:13:09  -825.823653c -5.54  -3.37    +59.6319
iter:  70 00:14:29  -825.826958c -5.19  -3.39    +59.6594
iter:  71 00:15:49  -825.829171c -5.20  -3.47    +59.6939
iter:  72 00:17:09  -825.827235c -5.31  -3.51    +59.7165
iter:  73 00:18:29  -825.831337c -5.39  -3.59    +59.7544
iter:  74 00:19:49  -825.831657c -5.61  -3.62    +59.7875
iter:  75 00:21:09  -825.833216c -5.65  -3.69    +59.8267
iter:  76 00:22:29  -825.834599c -5.91  -3.77    +59.8677
iter:  77 00:23:50  -825.837321c -5.67  -3.82    +59.9273
iter:  78 00:25:10  -825.842545c -5.15  -3.81    +60.0508
iter:  79 00:26:30  -825.847380c -5.14  -3.67    +60.1607
iter:  80 00:27:50  -825.854067c -4.81  -3.60    +60.3483
iter:  81 00:29:10  -825.864271c -4.34  -3.51    +60.6638
iter:  82 00:30:31  -825.870163c -4.55  -3.36    +60.8452
iter:  83 00:31:51  -825.867684c -5.47  -3.29    +60.7724
iter:  84 00:33:11  -825.867926c -5.50  -3.35    +60.8429
iter:  85 00:34:31  -825.870950c -5.60  -3.34    +60.8683
iter:  86 00:35:51  -825.878391c -4.65  -3.30    +60.8660
iter:  87 00:37:10  -825.867222c -4.57  -3.13    +60.8745
iter:  88 00:38:30  -825.866464c -4.76  -3.28    +60.8124
iter:  89 00:39:50  -825.862716c -5.29  -3.22    +60.7777
iter:  90 00:41:11  -825.860171c -5.57  -3.41    +60.7601
iter:  91 00:42:30  -825.860126c -5.36  -3.52    +60.7164
iter:  92 00:43:50  -825.862680c -5.38  -3.49    +60.7137
iter:  93 00:45:10  -825.862102c -5.42  -3.48    +60.7024
iter:  94 00:46:30  -825.864458c -5.06  -3.50    +60.6933
iter:  95 00:47:51  -825.859251c -5.52  -3.47    +60.6886
iter:  96 00:49:11  -825.861114c -5.73  -3.77    +60.6681
iter:  97 00:50:31  -825.860433c -6.01  -3.71    +60.6706
iter:  98 00:51:51  -825.859627c -6.15  -3.85    +60.6651
iter:  99 00:53:11  -825.859699c -6.37  -3.89    +60.6630
iter: 100 00:54:31  -825.859661c -6.54  -3.98    +60.6598
iter: 101 00:55:51  -825.860378c -6.35  -4.01c   +60.6556
iter: 102 00:57:11  -825.859677c -6.46  -3.97    +60.6563
iter: 103 00:58:31  -825.859658c -6.45  -4.00c   +60.6495
iter: 104 00:59:52  -825.860290c -6.49  -4.06c   +60.6498
iter: 105 01:01:12  -825.860081c -6.48  -4.04c   +60.6517
iter: 106 01:02:33  -825.859967c -6.63  -4.05c   +60.6525
iter: 107 01:03:53  -825.859674c -6.90  -4.18c   +60.6529
iter: 108 01:05:13  -825.859861c -7.10  -4.21c   +60.6495
iter: 109 01:06:34  -825.859888c -6.90  -4.26c   +60.6503
iter: 110 01:07:54  -825.859656c -7.04  -4.20c   +60.6482
iter: 111 01:09:14  -825.859831c -6.96  -4.26c   +60.6471
iter: 112 01:10:35  -825.859935c -6.79  -4.31c   +60.6469
iter: 113 01:11:55  -825.860244c -6.74  -4.24c   +60.6467
iter: 114 01:13:16  -825.859790c -7.05  -4.25c   +60.6480
iter: 115 01:14:37  -825.859793c -6.98  -4.44c   +60.6470
iter: 116 01:15:57  -825.859937c -7.35  -4.33c   +60.6474
iter: 117 01:17:18  -825.859875c -7.59c -4.52c   +60.6482

Converged after 117 iterations.

Dipole moment: (28.369750, -4.067760, -9.534948) |e|*Ang

Total magnetic moment: (0.000000, 0.000000, 60.648202)
Local magnetic moments:
   0 Co ( 0.000000,  0.000000,  1.268211)
   1 Co ( 0.000000,  0.000000,  1.395386)
   2 Co ( 0.000000,  0.000000,  1.294883)
   3 Al ( 0.000000,  0.000000, -0.042974)
   4 Fe ( 0.000000,  0.000000,  2.439223)
   5 Fe ( 0.000000,  0.000000,  2.407687)
   6 Co ( 0.000000,  0.000000,  0.768602)
   7 Cr ( 0.000000,  0.000000, -2.484518)
   8 Fe ( 0.000000,  0.000000,  2.249477)
   9 Al ( 0.000000,  0.000000, -0.009358)
  10 Ni ( 0.000000,  0.000000,  0.207055)
  11 Ni ( 0.000000,  0.000000,  0.121927)
  12 Ni ( 0.000000,  0.000000,  0.237599)
  13 Al ( 0.000000,  0.000000, -0.026841)
  14 Fe ( 0.000000,  0.000000,  2.328214)
  15 Co ( 0.000000,  0.000000,  0.863997)
  16 Co ( 0.000000,  0.000000,  1.259021)
  17 Fe ( 0.000000,  0.000000,  2.261536)
  18 Ni ( 0.000000,  0.000000,  0.232025)
  19 Fe ( 0.000000,  0.000000,  2.127371)
  20 Ni ( 0.000000,  0.000000,  0.112296)
  21 Fe ( 0.000000,  0.000000,  2.224512)
  22 Al ( 0.000000,  0.000000, -0.031760)
  23 Fe ( 0.000000,  0.000000,  2.019366)
  24 Co ( 0.000000,  0.000000,  0.266876)
  25 Fe ( 0.000000,  0.000000,  2.069962)
  26 Cr ( 0.000000,  0.000000, -1.873240)
  27 Ni ( 0.000000,  0.000000,  0.100660)
  28 Al ( 0.000000,  0.000000, -0.013822)
  29 Al ( 0.000000,  0.000000, -0.018747)
  30 Ni ( 0.000000,  0.000000,  0.271445)
  31 Cr ( 0.000000,  0.000000,  1.668328)
  32 Co ( 0.000000,  0.000000,  0.912806)
  33 Cr ( 0.000000,  0.000000, -1.195607)
  34 Cr ( 0.000000,  0.000000, -1.645063)
  35 Co ( 0.000000,  0.000000,  1.012297)
  36 Cr ( 0.000000,  0.000000, -1.619723)
  37 Al ( 0.000000,  0.000000, -0.025688)
  38 Ni ( 0.000000,  0.000000,  0.133825)
  39 Fe ( 0.000000,  0.000000,  2.235762)
  40 Al ( 0.000000,  0.000000, -0.031891)
  41 Cr ( 0.000000,  0.000000, -2.054348)
  42 Al ( 0.000000,  0.000000, -0.031252)
  43 Co ( 0.000000,  0.000000,  0.361190)
  44 Al ( 0.000000,  0.000000, -0.015201)
  45 Co ( 0.000000,  0.000000,  0.904545)
  46 Co ( 0.000000,  0.000000,  0.859398)
  47 Ni ( 0.000000,  0.000000,  0.238832)
  48 Ni ( 0.000000,  0.000000,  0.361546)
  49 Ni ( 0.000000,  0.000000,  0.308166)
  50 Co ( 0.000000,  0.000000,  1.091077)
  51 Fe ( 0.000000,  0.000000,  2.234811)
  52 Co ( 0.000000,  0.000000,  1.250182)
  53 Cr ( 0.000000,  0.000000,  1.408696)
  54 Cr ( 0.000000,  0.000000, -1.468737)
  55 Cr ( 0.000000,  0.000000, -1.719252)
  56 Cr ( 0.000000,  0.000000,  1.146311)
  57 Fe ( 0.000000,  0.000000,  2.182592)
  58 Co ( 0.000000,  0.000000,  1.102667)
  59 Co ( 0.000000,  0.000000,  1.038242)
[...]
  93 Ni ( 0.000000,  0.000000,  0.289613)
  94 Cr ( 0.000000,  0.000000,  1.236843)
  95 Al ( 0.000000,  0.000000, -0.016258)
  96 Cr ( 0.000000,  0.000000,  0.767917)
  97 Cr ( 0.000000,  0.000000,  0.423957)
  98 Fe ( 0.000000,  0.000000,  1.787391)
  99 Co ( 0.000000,  0.000000,  0.997992)
 100 Co ( 0.000000,  0.000000,  0.570749)
 101 Cr ( 0.000000,  0.000000, -2.261020)
 102 Al ( 0.000000,  0.000000, -0.021183)
 103 Fe ( 0.000000,  0.000000,  2.131596)
 104 Fe ( 0.000000,  0.000000,  2.406187)
 105 Ni ( 0.000000,  0.000000,  0.274235)
 106 Cr ( 0.000000,  0.000000, -1.383365)
 107 Co ( 0.000000,  0.000000,  1.004835)

Energy contributions relative to reference atoms: (reference = -3382523.201499)

Kinetic:       +223.667132
Potential:     -231.222458
External:        +0.000000
XC:            -849.455532
Entropy (-ST):   -4.229777
Local:          +33.265872
Free energy:   -827.974764
Extrapolated:  -825.859875

Spin contamination: 28.410184 electrons
Showing only first 2 kpts
                      Up                     Down
 Kpt  Band  Eigenvalues  Occupancy  Eigenvalues  Occupancy
  0   470      9.13135    0.99588     10.05878    0.02219
  0   471      9.14732    0.99518     10.07332    0.01925
  0   472      9.16069    0.99449     10.07742    0.01849
  0   473      9.17140    0.99387     10.09294    0.01587

  1   470      9.13612    0.99568     10.05858    0.02224
  1   471      9.14677    0.99520     10.06099    0.02172
  1   472      9.15742    0.99466     10.09086    0.01620
  1   473      9.17069    0.99391     10.09658    0.01531

Fermi level: 9.68023

No gap

Forces in eV/Ang:
  0 Co    0.19022   -0.46476    0.29490
  1 Co    0.48738   -0.33260    0.08430
  2 Co    0.07566   -0.11747   -0.55639
  3 Al    0.15784   -0.38562   -0.28428
  4 Fe    0.25708   -0.13632   -0.76123
  5 Fe    0.34369    0.52021   -0.08991
  6 Co    0.20502    0.01334   -0.68198
  7 Cr   -1.05548   -0.98856   -0.77863
  8 Fe   -0.58914    0.44190   -0.42586
  9 Al   -0.55063   -0.57704   -1.02471
 10 Ni   -0.25361   -0.17916   -0.39710
 11 Ni   -0.17705   -0.34170   -0.40381
 12 Ni   -0.30326    0.60849    0.07135
 13 Al    0.76046   -0.17751   -0.28046
 14 Fe    0.46156    0.33651    0.61136
 15 Co   -0.15362    0.05769   -0.01272
 16 Co    0.23872    0.15128    0.26370
 17 Fe   -0.43069   -0.81779    0.81040
 18 Ni   -0.48328   -0.32508   -0.05877
 19 Fe    0.29551   -0.42008    0.19621
 20 Ni   -0.03901   -0.03108   -0.37071
 21 Fe   -0.06417    0.85229    0.18915
 22 Al    0.54466   -0.14726   -0.45452
 23 Fe   -0.38127    0.78037   -0.70216
 24 Co    0.39652   -0.11252   -0.16582
 25 Fe    0.30929    0.01693   -0.70696
 26 Cr   -0.62043    0.04365    0.04058
 27 Ni    0.74150    0.50981   -0.22551
 28 Al   -1.03858    0.18732    0.16609
 29 Al   -0.50981    0.53448   -0.93643
 30 Ni   -0.18596    0.13632    0.46374
 31 Cr    0.68731    1.11390   -0.52742
 32 Co    0.44012   -0.23310    0.17682
 33 Cr    0.16230   -0.05791   -0.44289
 34 Cr   -0.55463    0.43104   -0.08518
 35 Co   -0.15418    0.00939    0.20720
 36 Cr    0.01663   -0.59037   -0.76425
 37 Al   -0.31308    0.15444   -0.09196
 38 Ni    0.34325    0.02380    0.15263
 39 Fe    0.34658    0.52214   -0.18612
 40 Al   -0.33850    0.83461   -0.40235
 41 Cr   -0.49831    1.46278    0.06070
 42 Al    0.23851    0.14736    0.59925
 43 Co   -0.48980    0.55270    0.30767
 44 Al    0.71673    0.06396    0.07252
 45 Co    0.14105    0.55529    0.62467
 46 Co   -0.13377   -0.40549   -0.04721
 47 Ni   -0.12955   -0.21275    0.06016
 48 Ni    0.53556    0.37585   -0.00210
 49 Ni    0.31238    0.15079   -0.39438
 50 Co    0.52682    0.28634   -0.30484
 51 Fe    1.04874   -0.08602    0.37864
 52 Co   -0.11552   -0.08898    0.30054
 53 Cr    0.14103   -0.89981   -0.33533
 54 Cr    0.15208   -0.07912    0.25662
 55 Cr    0.11083   -0.47206   -0.24150
 56 Cr   -0.97002    0.27953    1.34480
 57 Fe    0.14474    0.29849   -0.03920
 58 Co   -0.59053    0.21930    0.24586
 59 Co   -0.43087    0.46728    0.50053
[...]
 93 Ni    0.39918   -0.14520   -0.15574
 94 Cr    0.34234    0.22875    0.53095
 95 Al   -1.23367   -0.06798   -0.86946
 96 Cr   -0.06820    0.28031    0.75093
 97 Cr    0.32114    0.07381    0.47180
 98 Fe    0.22389    0.08483   -0.22865
 99 Co    0.21542   -0.12225    0.33511
100 Co   -0.20642    0.52151   -0.00692
101 Cr   -0.52417    1.08199    0.09333
102 Al    1.19035    0.04454   -1.40253
103 Fe   -0.26277   -0.35917    0.72547
104 Fe   -0.03334   -0.19474   -0.60162
105 Ni   -0.03495    0.11048    0.04445
106 Cr   -0.68826    0.61577    0.44642
107 Co   -0.37362   -0.22728   -0.19856

Date: Sat Apr 15 01:17:35 2023