User:   c.zeng@d0114
Date:   Sat Apr 15 18:42:47 2023
Arch:   x86_64
Pid:    32943
CWD:    /home/c.zeng/projects/hea-corrosion/hea-mlp/data-curation/bulk-mcmc/dft-jobs/73
Python: 3.8.1
gpaw:   /home/c.zeng/usr/installs/gpaw/source/gpaw-22.8.0/gpaw
_gpaw:  /home/c.zeng/usr/installs/gpaw/source/gpaw-22.8.0/
        _gpaw.cpython-38-x86_64-linux-gnu.so
ase:    /home/c.zeng/.local/lib/python3.8/site-packages/ase-3.22.1-py3.8.egg/ase (version 3.22.1)
numpy:  /shared/centos7/python/3.8.1/lib/python3.8/site-packages/numpy (version 1.17.4)
scipy:  /shared/centos7/python/3.8.1/lib/python3.8/site-packages/scipy (version 1.4.1)
units:  Angstrom and eV
cores: 30
OpenMP: False
OMP_NUM_THREADS: 1

Input parameters:
  convergence: {energy: 0.0001}
  kpts: [2 2 2]
  maxiter: 666
  mode: {ecut: 350.0,
         name: pw}
  occupations: {fixmagmom: False,
                name: fermi-dirac,
                width: 0.1}
  spinpol: True
  xc: PBE

System changes: positions, numbers, cell, pbc, initial_charges, initial_magmoms

Initialize ...

species:
  Cr:
    name: Chromium
    id: 33f258bda2ca9f93018e70263a35547b
    Z: 24.0
    valence: 6
    core: 18
    charge: 0.0
    file: /home/c.zeng/usr/data/gpaw-setups-0.9.20000/Cr.PBE.gz
    compensation charges: {type: gauss,
                           rc: 0.35,
                           lmax: 2}
    cutoffs: {filter: 2.14,
              core: 3.04}
    valence states:
      #              energy  rcut
      - 4s(1.00)    -4.007   1.164
      - 4p(0.00)    -0.989   1.217
      - 3d(5.00)    -2.913   1.111
      -  s          23.205   1.164
      -  p          26.223   1.217
      -  d          24.299   1.111

    # Using partial waves for Cr as LCAO basis

  Ni:
    name: Nickel
    id: 0d9f38a9d6e76a2886f07bb4381f212b
    Z: 28.0
    valence: 16
    core: 12
    charge: 0.0
    file: /home/c.zeng/usr/data/gpaw-setups-0.9.20000/Ni.PBE.gz
    compensation charges: {type: gauss,
                           rc: 0.36,
                           lmax: 2}
    cutoffs: {filter: 2.14,
              core: 1.98}
    valence states:
      #              energy  rcut
      - 4s(2.00)    -5.642   1.164
      - 3p(6.00)   -71.394   1.207
      - 4p(0.00)    -1.226   1.207
      - 3d(8.00)    -8.875   1.138
      -  s          21.570   1.164
      -  d          18.337   1.138

[...]

  Fe:
    name: Iron
    id: 37abbd8d6c3c35915a9b583b742da910
    Z: 26.0
    valence: 8
    core: 18
    charge: 0.0
    file: /home/c.zeng/usr/data/gpaw-setups-0.9.20000/Fe.PBE.gz
    compensation charges: {type: gauss,
                           rc: 0.33,
                           lmax: 2}
    cutoffs: {filter: 2.06,
              core: 2.67}
    valence states:
      #              energy  rcut
      - 4s(2.00)    -5.291   1.164
      - 4p(0.00)    -1.326   1.058
      - 3d(6.00)    -7.505   1.058
      -  s          21.920   1.164
      -  p          25.885   1.058
      -  d          19.706   1.058

[...]

  Co:
    name: Cobalt
    id: 339d20d5b0b93d2de9531a1bee871d91
    Z: 27.0
    valence: 9
    core: 18
    charge: 0.0
    file: /home/c.zeng/usr/data/gpaw-setups-0.9.20000/Co.PBE.gz
    compensation charges: {type: gauss,
                           rc: 0.32,
                           lmax: 2}
    cutoffs: {filter: 1.87,
              core: 2.55}
    valence states:
      #              energy  rcut
      - 4s(2.00)    -5.469   1.005
      - 4p(0.00)    -1.277   1.058
      - 3d(7.00)    -8.205   1.005
      -  s          21.742   1.005
      -  p          25.934   1.058
      -  d          19.007   1.005

[...]

  Al:
    name: Aluminium
    id: 0292cae29f5d6237e50f6abdd43a7bdd
    Z: 13.0
    valence: 3
    core: 10
    charge: 0.0
    file: /home/c.zeng/usr/data/gpaw-setups-0.9.20000/Al.PBE.gz
    compensation charges: {type: gauss,
                           rc: 0.34,
                           lmax: 2}
    cutoffs: {filter: 1.91,
              core: 2.36}
    valence states:
      #              energy  rcut
      - 3s(2.00)    -7.753   1.085
      - 3p(1.00)    -2.712   1.085
      -  s          19.459   1.085
      -  p          24.499   1.085
      -  d           0.000   1.085

    # Using partial waves for Al as LCAO basis

Reference energy: -3699400.456887  # eV

Spin-polarized calculation.
Magnetic moment: 143.500000

Convergence criteria:
 Maximum [total energy] change in last 3 cyles: 0.0001 eV / electron
 Maximum integral of absolute [dens]ity change: 0.0001 electrons / valence electron
 Maximum integral of absolute [eigenst]ate change: 4e-08 eV^2 / valence electron
 Maximum number of scf [iter]ations: 666
 (Square brackets indicate name in SCF output, whereas a 'c' in
 the SCF output indicates the quantity has converged.)

Symmetries present (total): 1

  ( 1  0  0)
  ( 0  1  0)
  ( 0  0  1)

8 k-points: 2 x 2 x 2 Monkhorst-Pack grid
4 k-points in the irreducible part of the Brillouin zone
       k-points in crystal coordinates                weights
   0:     0.25000000   -0.25000000   -0.25000000          2/8
   1:     0.25000000   -0.25000000    0.25000000          2/8
   2:     0.25000000    0.25000000   -0.25000000          2/8
   3:     0.25000000    0.25000000    0.25000000          2/8

Wave functions: Plane wave expansion
  Cutoff energy: 350.000 eV
  Number of coefficients (min, max): 18052, 18052
  Pulay-stress correction: 0.000000 eV/Ang^3 (de/decut=0.000000)
  Using FFTW library
  ScaLapack parameters: grid=1x1, blocksize=None
  Wavefunction extrapolation:
    Improved wavefunction reuse through dual PAW basis

Occupation numbers: Fermi-Dirac:
  width: 0.1000  # eV

Eigensolver
   Davidson(niter=2)

Densities:
  Coarse grid: 48*48*48 grid
  Fine grid: 96*96*96 grid
  Total Charge: 0.000000

Density mixing:
  Method: difference
  Backend: pulay
  Linear mixing parameter: 0.05
  old densities: 5
  Damping of long wavelength oscillations: 50

Hamiltonian:
  XC and Coulomb potentials evaluated on a 96*96*96 grid
  Using the PBE Exchange-Correlation functional
  External potential:
    NoExternalPotential

XC parameters: PBE with 2 nearest neighbor stencil

Total number of cores used: 30
Parallelization over k-points: 2
Domain decomposition: 5 x 3 x 1

Number of atoms: 108
Number of atomic orbitals: 1025
Number of bands in calculation: 703
Number of valence electrons: 1020
Bands to converge: occupied

... initialized

Initializing position-dependent things.

Density initialized from atomic densities
Creating initial wave functions:
  703 bands from LCAO basis set

        Cr------------------------.
       /|  Co                Co   |
      Cr|   Cr         Cr         |
     / Fe      Fe       Al        |
    /   CCo      Ni       Fe      |
   /e   | CoNi     CoAl    NiCr   |
  /  FeCr  CrCo     NiCrCo        |
 *    FeFe  FeCoNi     CoAl       |
 |     CoFeNi  CoFe Ni  CrFeNi    |
 | Fe   CrNiNiCo NiCrCrFe  Ni     |
 |   CoCr  CrAlCr   CrNiNi   Fe   |
 |    FeNi  FeFeCoCr CoFeNi   Cr  |
 |     NiFeFe  Cr NiCr  CoFeFe    |
 |      .-CoNiCo-FeCrNiCo--CoCr---.
 |   NiCo    CoAl   CrNiFe       /
 |    / Ni    CrFe       Cr     /
 |   /            Ni           /
 |Ni/      Co       Co        /
 |/            Cr           /
 *----------------Ni-------*

Positions:
   0 Cr     0.005316   -0.016350   10.639749    ( 0.0000,  0.0000,  0.0000)
   1 Ni    10.672340    1.801276    1.786848    ( 0.0000,  0.0000,  0.0000)
   2 Fe     1.795727   10.625972    1.782259    ( 0.0000,  0.0000,  0.0000)
   3 Cr     1.780787    1.796175   10.644605    ( 0.0000,  0.0000,  2.1000)
   4 Fe     3.523539   -0.014558    0.017268    ( 0.0000,  0.0000,  2.0000)
   5 Co     3.522568    1.781672    1.746648    ( 0.0000,  0.0000,  0.0000)
   6 Co     5.320952   10.642342    1.763136    ( 0.0000,  0.0000,  1.5000)
   7 Cr     5.342082    1.828767    0.007462    ( 0.0000,  0.0000,  2.0000)
   8 Ni     7.144895    0.019195    0.012033    ( 0.0000,  0.0000,  0.0000)
   9 Co     7.143497    1.798064    1.764939    ( 0.0000,  0.0000,  2.1000)
  10 Cr     8.891362   10.651627    1.788353    ( 0.0000,  0.0000,  1.5000)
  11 Co     8.888779    1.804777   10.642609    ( 0.0000,  0.0000,  2.0000)
  12 Fe     0.008694    3.581540   10.650250    ( 0.0000,  0.0000,  2.1000)
  13 Ni     0.018979    5.332745    1.789751    ( 0.0000,  0.0000,  2.1000)
  14 Ni     1.778129    3.600941    1.760019    ( 0.0000,  0.0000,  2.0000)
  15 Co     1.790423    5.343267   -0.017766    ( 0.0000,  0.0000,  2.0000)
  16 Ni     3.542802    3.589864   -0.015614    ( 0.0000,  0.0000,  2.0000)
  17 Co     3.526837    5.358538    1.765793    ( 0.0000,  0.0000,  2.0000)
  18 Fe     5.336650    3.606501    1.755815    ( 0.0000,  0.0000,  0.0000)
  19 Ni     5.300399    5.323642   -0.012797    ( 0.0000,  0.0000,  2.1000)
  20 Al     7.122858    3.584816   10.659524    ( 0.0000,  0.0000,  2.0000)
  21 Ni     7.120500    5.315168    1.805502    ( 0.0000,  0.0000,  1.5000)
  22 Cr     8.892034    3.590952    1.773146    ( 0.0000,  0.0000,  2.1000)
  23 Fe     8.925340    5.301487   -0.003100    ( 0.0000,  0.0000,  0.0000)
  24 Cr     0.023055    7.096680   -0.007939    ( 0.0000,  0.0000,  0.0000)
  25 Ni     0.019141    8.871245    1.787510    ( 0.0000,  0.0000,  1.5000)
  26 Co     1.784372    7.104567    1.776443    ( 0.0000,  0.0000,  2.0000)
  27 Co     1.779944    8.867628   10.659406    ( 0.0000,  0.0000,  1.5000)
  28 Cr     3.547785    7.097897    0.009215    ( 0.0000,  0.0000,  2.1000)
  29 Cr     3.541137    8.858109    1.788225    ( 0.0000,  0.0000,  2.1000)
  30 Cr     5.295105    7.099391    1.787894    ( 0.0000,  0.0000,  2.1000)
  31 Cr     5.303685    8.873828    0.029898    ( 0.0000,  0.0000,  0.0000)
  32 Cr     7.106883    7.088719   10.645159    ( 0.0000,  0.0000,  0.0000)
  33 Co     7.111055    8.901137    1.809472    ( 0.0000,  0.0000,  0.0000)
  34 Co     8.939384    7.093404    1.799238    ( 0.0000,  0.0000,  0.0000)
  35 Co     8.919972    8.915853   10.664881    ( 0.0000,  0.0000,  0.0000)
  36 Cr    10.679704   10.658873    3.584517    ( 0.0000,  0.0000,  2.0000)
  37 Fe    10.670921    1.796367    5.340289    ( 0.0000,  0.0000,  2.1000)
  38 Fe     1.770350   10.649001    5.343491    ( 0.0000,  0.0000,  0.0000)
  39 Co     1.791800    1.784671    3.584891    ( 0.0000,  0.0000,  2.0000)
  40 Ni     3.529718   10.626388    3.565234    ( 0.0000,  0.0000,  2.1000)
  41 Fe     3.535716    1.793465    5.367289    ( 0.0000,  0.0000,  1.5000)
  42 Co     5.311497    0.001574    5.366254    ( 0.0000,  0.0000,  1.5000)
  43 Al     5.332627    1.768055    3.580793    ( 0.0000,  0.0000,  0.0000)
  44 Ni     7.136966   10.673941    3.563804    ( 0.0000,  0.0000,  2.0000)
  45 Cr     7.136774    1.794126    5.358944    ( 0.0000,  0.0000,  2.1000)
  46 Co     8.925938   10.673621    5.347589    ( 0.0000,  0.0000,  2.0000)
  47 Fe     8.883827    1.779111    3.582404    ( 0.0000,  0.0000,  1.5000)
  48 Cr    -0.010038    3.572341    3.580996    ( 0.0000,  0.0000,  2.0000)
  49 Co    10.685573    5.328935    5.338550    ( 0.0000,  0.0000,  2.0000)
  50 Ni     1.784180    3.582949    5.348357    ( 0.0000,  0.0000,  1.5000)
  51 Fe     1.766326    5.339510    3.565255    ( 0.0000,  0.0000,  1.5000)
  52 Ni     3.522387    3.605007    3.574059    ( 0.0000,  0.0000,  0.0000)
  53 Al     3.543581    5.347343    5.347962    ( 0.0000,  0.0000,  2.1000)
  54 Co     5.333950    3.591678    5.360630    ( 0.0000,  0.0000,  2.0000)
  55 Ni     5.336458    5.346308    3.560132    ( 0.0000,  0.0000,  0.0000)
  56 Ni     7.143102    3.570089    3.572138    ( 0.0000,  0.0000,  2.1000)
  57 Ni     7.120265    5.347471    5.345689    ( 0.0000,  0.0000,  2.0000)
  58 Ni     8.888299    3.570665    5.342018    ( 0.0000,  0.0000,  1.5000)
  59 Fe     8.904573    5.339084    3.577453    ( 0.0000,  0.0000,  2.0000)
[...]
  93 Cr     7.108740    5.307762    8.854395    ( 0.0000,  0.0000,  1.5000)
  94 Al     8.907593    3.561296    8.890348    ( 0.0000,  0.0000,  2.1000)
  95 Fe     8.917806    5.336309    7.100224    ( 0.0000,  0.0000,  0.0000)
  96 Fe     0.016270    7.102027    7.111664    ( 0.0000,  0.0000,  2.0000)
  97 Fe     0.000822    8.895150    8.883817    ( 0.0000,  0.0000,  1.5000)
  98 Co     1.771182    7.105090    8.888608    ( 0.0000,  0.0000,  1.5000)
  99 Cr     1.775184    8.850318    7.108494    ( 0.0000,  0.0000,  2.0000)
 100 Co     3.530401    7.086478    7.104972    ( 0.0000,  0.0000,  1.5000)
 101 Fe     3.524841    8.851001    8.894798    ( 0.0000,  0.0000,  0.0000)
 102 Co     5.310654    7.102827    8.871128    ( 0.0000,  0.0000,  0.0000)
 103 Ni     5.290613    8.850286    7.104876    ( 0.0000,  0.0000,  0.0000)
 104 Co     7.129016    7.083330    7.142750    ( 0.0000,  0.0000,  2.1000)
 105 Al     7.143241    8.903186    8.854384    ( 0.0000,  0.0000,  2.0000)
 106 Ni     8.926504    7.115858    8.862313    ( 0.0000,  0.0000,  0.0000)
 107 Cr     8.932896    8.877648    7.127479    ( 0.0000,  0.0000,  1.5000)

Unit cell:
           periodic     x           y           z      points  spacing
  1. axis:    yes   10.671700    0.000000    0.000000    48     0.2223
  2. axis:    yes    0.000000   10.671700    0.000000    48     0.2223
  3. axis:    yes    0.000000    0.000000   10.671700    48     0.2223

  Lengths:  10.671700  10.671700  10.671700
  Angles:   90.000000  90.000000  90.000000

Effective grid spacing dv^(1/3) = 0.2223

     iter     time        total  log10-change:  magmom
                         energy  eigst   dens
iter:   1 18:48:59  -939.788457                  +143.1538
iter:   2 18:51:51  -904.096879  -0.54  -1.35    +107.4123
iter:   3 18:54:43  -903.441510  -0.93  -1.36    +76.2640
iter:   4 18:57:35  -877.119775  -1.37  -1.36    +65.8501
iter:   5 19:00:27  -873.623556  -1.93  -1.47    +59.1485
iter:   6 19:03:20  -878.490987  -1.84  -1.51    +55.8046
iter:   7 19:06:12  -873.576321  -1.64  -1.52    +54.4188
iter:   8 19:09:05  -868.874422  -1.76  -1.61    +53.3857
iter:   9 19:11:58  -874.154019  -1.92  -1.79    +53.1481
iter:  10 19:14:50  -868.917189  -2.16  -1.74    +53.1059
iter:  11 19:17:42  -868.841129  -2.69  -1.90    +53.2904
iter:  12 19:20:35  -869.351596  -2.71  -1.94    +53.9009
iter:  13 19:23:27  -870.268781  -2.70  -1.98    +54.4468
iter:  14 19:26:20  -870.157137  -2.66  -2.00    +54.6779
iter:  15 19:29:12  -870.733058  -2.76  -2.12    +55.0835
iter:  16 19:32:06  -870.752426  -2.77  -2.12    +55.3856
iter:  17 19:34:58  -870.193134  -3.09  -2.16    +55.7945
iter:  18 19:37:51  -870.401094  -3.26  -2.29    +56.2311
iter:  19 19:40:43  -870.325617  -3.39  -2.32    +56.4438
iter:  20 19:43:37  -870.553430  -3.25  -2.39    +56.8323
iter:  21 19:46:29  -870.450995  -3.36  -2.40    +56.8969
iter:  22 19:49:22  -870.468905  -3.49  -2.47    +57.0304
iter:  23 19:52:14  -870.610199  -3.51  -2.54    +57.2528
iter:  24 19:55:05  -870.576216  -3.77  -2.52    +57.3811
iter:  25 19:57:58  -870.677041c -3.71  -2.60    +57.4790
iter:  26 20:00:50  -870.693375  -3.95  -2.59    +57.5141
iter:  27 20:03:42  -870.787632  -3.77  -2.64    +57.5173
iter:  28 20:06:35  -870.789997c -4.00  -2.64    +57.5453
iter:  29 20:09:28  -870.884960c -3.85  -2.67    +57.4409
iter:  30 20:12:21  -870.886860c -3.94  -2.66    +57.3967
iter:  31 20:15:13  -870.949546c -3.85  -2.69    +57.3727
iter:  32 20:18:06  -870.932456c -4.07  -2.67    +57.3142
iter:  33 20:20:58  -870.967943c -4.14  -2.78    +57.2241
iter:  34 20:23:51  -870.990261c -4.36  -2.77    +57.1022
iter:  35 20:26:44  -871.014584c -4.57  -2.80    +57.0494
iter:  36 20:29:36  -871.107668  -3.94  -2.83    +56.8026
iter:  37 20:32:24  -871.316266  -3.32  -2.79    +56.3160
iter:  38 20:35:16  -871.328885  -4.09  -2.64    +56.2611
iter:  39 20:38:09  -871.334574c -4.13  -2.65    +56.1264
iter:  40 20:41:01  -871.280508c -4.24  -2.70    +56.1045
iter:  41 20:43:54  -871.279590c -4.08  -2.85    +56.1019
iter:  42 20:46:47  -871.269155c -3.93  -2.92    +56.0356
iter:  43 20:49:39  -871.259454c -4.64  -3.01    +55.9573
iter:  44 20:52:31  -871.269330c -4.83  -3.15    +55.9207
iter:  45 20:55:24  -871.279772c -4.80  -3.17    +55.8718
iter:  46 20:58:16  -871.290149c -4.88  -3.17    +55.8553
iter:  47 21:01:07  -871.289592c -5.63  -3.15    +55.8498
iter:  48 21:04:00  -871.306372c -4.75  -3.18    +55.8225
iter:  49 21:06:52  -871.297678c -4.96  -3.13    +55.8237
iter:  50 21:09:45  -871.308547c -4.84  -3.25    +55.8384
iter:  51 21:12:38  -871.305249c -4.96  -3.30    +55.8244
iter:  52 21:15:31  -871.312396c -5.01  -3.50    +55.8527
iter:  53 21:18:23  -871.314813c -5.50  -3.54    +55.8637
iter:  54 21:21:16  -871.321189c -5.33  -3.64    +55.8780
iter:  55 21:24:08  -871.328161c -5.31  -3.55    +55.8813
iter:  56 21:27:01  -871.333754c -5.69  -3.59    +55.8876
iter:  57 21:29:54  -871.326001c -5.55  -3.50    +55.8862
iter:  58 21:32:46  -871.372370c -4.02  -3.55    +55.9197
iter:  59 21:35:39  -871.396173c -4.22  -3.28    +55.9583
iter:  60 21:38:32  -871.406600c -4.69  -3.18    +55.9929
iter:  61 21:41:25  -871.412376c -5.16  -3.15    +55.9682
iter:  62 21:44:17  -871.418679c -5.06  -3.12    +55.9230
iter:  63 21:47:11  -871.420616c -4.68  -3.09    +55.8371
iter:  64 21:50:04  -871.414372c -5.03  -3.03    +55.8826
iter:  65 21:52:56  -871.431264c -4.65  -3.03    +55.8166
iter:  66 21:55:49  -871.430006c -4.64  -2.93    +55.8382
iter:  67 21:58:41  -871.470309c -3.79  -2.91    +55.7885
iter:  68 22:01:34  -871.450296c -3.79  -2.77    +55.7777
iter:  69 22:04:25  -871.384528c -4.28  -2.83    +55.7683
iter:  70 22:07:17  -871.381516c -4.54  -3.07    +55.7685
iter:  71 22:10:10  -871.377134c -4.81  -3.13    +55.7485
iter:  72 22:13:03  -871.377390c -4.93  -3.19    +55.7432
iter:  73 22:15:55  -871.377972c -5.05  -3.21    +55.7726
iter:  74 22:18:47  -871.381140c -4.77  -3.23    +55.7573
iter:  75 22:21:40  -871.376870c -5.04  -3.18    +55.7554
iter:  76 22:24:33  -871.380269c -4.77  -3.30    +55.7622
iter:  77 22:27:25  -871.375402c -5.02  -3.21    +55.7712
iter:  78 22:30:17  -871.375554c -5.13  -3.36    +55.7982
iter:  79 22:33:09  -871.372840c -5.30  -3.37    +55.7864
iter:  80 22:36:02  -871.373328c -5.60  -3.42    +55.8065
iter:  81 22:38:55  -871.371331c -5.65  -3.50    +55.8165
iter:  82 22:41:47  -871.373252c -5.78  -3.53    +55.8219
iter:  83 22:44:40  -871.372278c -5.68  -3.53    +55.8281
iter:  84 22:47:33  -871.372655c -5.73  -3.55    +55.8322
iter:  85 22:50:24  -871.374064c -5.50  -3.57    +55.8544
iter:  86 22:53:16  -871.372377c -5.71  -3.51    +55.8513
iter:  87 22:56:08  -871.373130c -5.79  -3.60    +55.8527
iter:  88 22:59:01  -871.371778c -6.01  -3.65    +55.8565
iter:  89 23:01:53  -871.372445c -6.12  -3.68    +55.8610
iter:  90 23:04:46  -871.372338c -6.29  -3.73    +55.8696
iter:  91 23:07:38  -871.372433c -6.15  -3.75    +55.8690
iter:  92 23:10:31  -871.372702c -6.17  -3.70    +55.8791
iter:  93 23:13:24  -871.372093c -6.11  -3.76    +55.8841
iter:  94 23:16:17  -871.373215c -6.16  -3.75    +55.8858
iter:  95 23:19:10  -871.372434c -6.10  -3.77    +55.8871
iter:  96 23:22:02  -871.372321c -6.31  -3.78    +55.8889
iter:  97 23:24:55  -871.372616c -6.39  -3.85    +55.9018
iter:  98 23:27:48  -871.372365c -6.48  -3.84    +55.9026
iter:  99 23:30:40  -871.372823c -6.53  -3.88    +55.9071
iter: 100 23:33:32  -871.372306c -6.65  -3.90    +55.9112
iter: 101 23:36:25  -871.372994c -6.44  -3.92    +55.9141
iter: 102 23:39:17  -871.373003c -6.39  -3.91    +55.9201
iter: 103 23:42:08  -871.372909c -6.47  -3.91    +55.9182
iter: 104 23:44:59  -871.373154c -6.36  -3.91    +55.9266
iter: 105 23:47:51  -871.372656c -6.48  -3.95    +55.9282
iter: 106 23:50:44  -871.373181c -6.73  -3.98    +55.9300
iter: 107 23:53:37  -871.372861c -6.68  -4.04c   +55.9307
iter: 108 23:56:29  -871.372915c -6.83  -4.04c   +55.9329
iter: 109 23:59:22  -871.373050c -7.02  -4.08c   +55.9406
iter: 110 00:02:14  -871.373080c -6.76  -4.11c   +55.9430
iter: 111 00:05:07  -871.373566c -6.63  -4.06c   +55.9466
iter: 112 00:07:59  -871.373014c -6.75  -4.06c   +55.9502
iter: 113 00:10:52  -871.373524c -6.67  -4.14c   +55.9537
iter: 114 00:13:42  -871.373538c -6.63  -4.12c   +55.9578
iter: 115 00:16:33  -871.373406c -6.98  -4.10c   +55.9565
iter: 116 00:19:25  -871.373551c -6.99  -4.21c   +55.9627
iter: 117 00:22:18  -871.373445c -7.49c -4.25c   +55.9632

Converged after 117 iterations.

Dipole moment: (-10.468747, 8.166394, 8.669827) |e|*Ang

Total magnetic moment: (0.000000, 0.000000, 55.963227)
Local magnetic moments:
   0 Cr ( 0.000000,  0.000000,  0.094832)
   1 Ni ( 0.000000,  0.000000,  0.094625)
   2 Fe ( 0.000000,  0.000000,  1.840069)
   3 Cr ( 0.000000,  0.000000, -1.578843)
   4 Fe ( 0.000000,  0.000000,  1.979836)
   5 Co ( 0.000000,  0.000000,  1.167771)
   6 Co ( 0.000000,  0.000000,  0.919207)
   7 Cr ( 0.000000,  0.000000, -1.908701)
   8 Ni ( 0.000000,  0.000000,  0.257245)
   9 Co ( 0.000000,  0.000000,  1.092687)
  10 Cr ( 0.000000,  0.000000, -1.268906)
  11 Co ( 0.000000,  0.000000,  0.849008)
  12 Fe ( 0.000000,  0.000000,  2.271847)
  13 Ni ( 0.000000,  0.000000,  0.249621)
  14 Ni ( 0.000000,  0.000000,  0.385050)
  15 Co ( 0.000000,  0.000000,  1.288249)
  16 Ni ( 0.000000,  0.000000,  0.328967)
  17 Co ( 0.000000,  0.000000,  0.941334)
  18 Fe ( 0.000000,  0.000000,  2.437013)
  19 Ni ( 0.000000,  0.000000,  0.172215)
  20 Al ( 0.000000,  0.000000, -0.016963)
  21 Ni ( 0.000000,  0.000000,  0.234305)
  22 Cr ( 0.000000,  0.000000, -1.651478)
  23 Fe ( 0.000000,  0.000000,  1.806493)
  24 Cr ( 0.000000,  0.000000, -1.675812)
  25 Ni ( 0.000000,  0.000000,  0.208328)
  26 Co ( 0.000000,  0.000000,  1.074903)
  27 Co ( 0.000000,  0.000000,  0.538835)
  28 Cr ( 0.000000,  0.000000,  0.020374)
  29 Cr ( 0.000000,  0.000000, -0.183618)
  30 Cr ( 0.000000,  0.000000, -0.955240)
  31 Cr ( 0.000000,  0.000000, -0.585995)
  32 Cr ( 0.000000,  0.000000,  1.186949)
  33 Co ( 0.000000,  0.000000,  0.731738)
  34 Co ( 0.000000,  0.000000,  1.093883)
  35 Co ( 0.000000,  0.000000,  0.991044)
  36 Cr ( 0.000000,  0.000000, -1.132051)
  37 Fe ( 0.000000,  0.000000,  2.154126)
  38 Fe ( 0.000000,  0.000000,  1.737138)
  39 Co ( 0.000000,  0.000000,  1.399256)
  40 Ni ( 0.000000,  0.000000,  0.192327)
  41 Fe ( 0.000000,  0.000000,  2.018681)
  42 Co ( 0.000000,  0.000000,  0.548573)
  43 Al ( 0.000000,  0.000000, -0.029418)
  44 Ni ( 0.000000,  0.000000,  0.236114)
  45 Cr ( 0.000000,  0.000000,  0.202960)
  46 Co ( 0.000000,  0.000000,  0.892985)
  47 Fe ( 0.000000,  0.000000,  2.051983)
  48 Cr ( 0.000000,  0.000000, -1.628722)
  49 Co ( 0.000000,  0.000000,  1.273881)
  50 Ni ( 0.000000,  0.000000,  0.336124)
  51 Fe ( 0.000000,  0.000000,  2.410399)
  52 Ni ( 0.000000,  0.000000,  0.451162)
  53 Al ( 0.000000,  0.000000, -0.035498)
  54 Co ( 0.000000,  0.000000,  0.998480)
  55 Ni ( 0.000000,  0.000000,  0.206670)
  56 Ni ( 0.000000,  0.000000,  0.301603)
  57 Ni ( 0.000000,  0.000000,  0.288043)
  58 Ni ( 0.000000,  0.000000,  0.209994)
  59 Fe ( 0.000000,  0.000000,  2.308845)
[...]
  93 Cr ( 0.000000,  0.000000, -0.933137)
  94 Al ( 0.000000,  0.000000, -0.032580)
  95 Fe ( 0.000000,  0.000000,  2.053960)
  96 Fe ( 0.000000,  0.000000,  2.178753)
  97 Fe ( 0.000000,  0.000000,  1.772221)
  98 Co ( 0.000000,  0.000000,  0.881206)
  99 Cr ( 0.000000,  0.000000, -1.169265)
 100 Co ( 0.000000,  0.000000,  1.031620)
 101 Fe ( 0.000000,  0.000000, -1.529137)
 102 Co ( 0.000000,  0.000000,  0.601883)
 103 Ni ( 0.000000,  0.000000,  0.093331)
 104 Co ( 0.000000,  0.000000,  1.025100)
 105 Al ( 0.000000,  0.000000, -0.020079)
 106 Ni ( 0.000000,  0.000000,  0.196725)
 107 Cr ( 0.000000,  0.000000, -1.079966)

Energy contributions relative to reference atoms: (reference = -3699400.456887)

Kinetic:       +110.221254
Potential:     -167.072533
External:        +0.000000
XC:            -850.084977
Entropy (-ST):   -4.503944
Local:          +37.814783
Free energy:   -873.625417
Extrapolated:  -871.373445

Spin contamination: 29.099027 electrons
Showing only first 2 kpts
                      Up                     Down
 Kpt  Band  Eigenvalues  Occupancy  Eigenvalues  Occupancy
  0   508      9.67841    0.99109     10.49906    0.02947
  0   509      9.69504    0.98950     10.51412    0.02545
  0   510      9.71123    0.98768     10.52268    0.02342
  0   511      9.72021    0.98653     10.52958    0.02189

  1   508      9.69084    0.98993     10.49091    0.03189
  1   509      9.70182    0.98877     10.50663    0.02738
  1   510      9.71537    0.98716     10.52164    0.02365
  1   511      9.71920    0.98667     10.52873    0.02207

Fermi level: 10.14961

No gap

Forces in eV/Ang:
  0 Cr   -0.00171    0.13438    0.30452
  1 Ni   -0.02658   -0.22454   -0.09763
  2 Fe   -0.38100    0.29767   -0.02314
  3 Cr   -0.02657   -0.01556    0.22025
  4 Fe    0.51593    0.24156   -0.18863
  5 Co   -0.07579    0.10235    0.20704
  6 Co    0.10425   -0.12688   -0.21384
  7 Cr   -0.76182   -1.24857    0.16356
  8 Ni   -0.38417    0.03685    0.18326
  9 Co    0.05449   -0.08383   -0.05686
 10 Cr   -0.10597    0.27678   -0.32289
 11 Co    0.51950   -0.48545    0.78248
 12 Fe    0.24466   -0.32409    0.65931
 13 Ni    0.06112    0.09640   -0.09817
 14 Ni   -0.03021   -0.39029    0.21469
 15 Co   -0.04960    0.15145    0.16143
 16 Ni   -0.00648   -0.29828    0.12726
 17 Co    0.11339    0.15047    0.11914
 18 Fe   -0.58618   -0.25140    0.41476
 19 Ni    0.22512    0.49951    0.00708
 20 Al   -0.61798   -0.01934    0.38939
 21 Ni   -0.01169    0.48564   -0.33794
 22 Cr    0.50884   -0.50441    0.24813
 23 Fe   -0.15843    0.73219    0.36292
 24 Cr   -0.20321    0.08420   -0.10289
 25 Ni    0.01207    0.23289   -0.29302
 26 Co   -0.09736   -0.05866   -0.24017
 27 Co    0.06394    0.02509    0.11282
 28 Cr   -0.18641   -0.06099   -0.25736
 29 Cr    0.07740    0.35748   -0.28030
 30 Cr    0.09463   -0.54294    0.24273
 31 Cr    0.03156    0.34944    0.19059
 32 Cr   -0.06398   -0.13956    0.85182
 33 Co   -0.06308    0.04874   -0.38169
 34 Co   -0.25173    0.14627   -0.37566
 35 Co    0.01895   -0.35622    0.36310
 36 Cr    0.00602    0.45105   -0.08972
 37 Fe   -0.05240   -0.23807   -0.06180
 38 Fe   -0.06073    0.00420   -0.01088
 39 Co   -0.03815    0.08335   -0.20339
 40 Ni    0.18478    0.21363    0.02503
 41 Fe   -0.32325    0.15189   -0.01947
 42 Co    0.13279   -0.47329    0.08211
 43 Al   -0.28067   -0.06466   -0.53324
 44 Ni   -0.17210   -0.16362    0.09789
 45 Cr    0.39451   -0.40768    0.85625
 46 Co   -0.11549   -0.16715   -0.04466
 47 Fe    0.10306    0.05146   -0.16781
 48 Cr    0.52277   -0.36180    0.08637
 49 Co    0.01865   -0.02497   -0.05611
 50 Ni   -0.08951   -0.27327   -0.08064
 51 Fe   -0.19881    0.02458   -0.55230
 52 Ni    0.24147   -0.44465   -0.40481
 53 Al   -0.27811   -0.77254   -0.26605
 54 Co    0.12046   -0.34110    0.00780
 55 Ni    0.02248   -0.01982   -0.10097
 56 Ni   -0.32968   -0.15106   -0.02290
 57 Ni    0.00292    0.03750    0.10506
 58 Ni    0.15282   -0.04501    0.17566
 59 Fe   -0.02274   -0.18685   -0.19389
[...]
 93 Cr   -0.34597    1.36136   -0.56156
 94 Al    0.87436   -0.70056   -0.41470
 95 Fe   -0.37556    0.19161   -0.20848
 96 Fe   -0.04617    0.29511   -0.15168
 97 Fe   -0.07598   -0.30974    0.13916
 98 Co    0.08721    0.11057    0.16300
 99 Cr   -0.09572    0.12630    0.11876
100 Co    0.09505    0.30107    0.34356
101 Fe    0.24312    0.42573    0.05524
102 Co   -0.04158   -0.10026    0.17576
103 Ni    0.08482    0.28714   -0.02144
104 Co    0.02798   -0.21760   -0.32181
105 Al   -0.70978   -0.24333    0.46740
106 Ni   -0.06722   -0.28486    0.32882
107 Cr    0.60032    0.06402   -1.00776

Date: Sun Apr 16 00:22:41 2023