User:   c.zeng@d0141
Date:   Sat Apr  8 02:35:30 2023
Arch:   x86_64
Pid:    87480
CWD:    /home/c.zeng/projects/hea-corrosion/hea-mlp/data-curation/volume/dft-jobs/123
Python: 3.8.1
gpaw:   /home/c.zeng/usr/installs/gpaw/source/gpaw-22.8.0/gpaw
_gpaw:  /home/c.zeng/usr/installs/gpaw/source/gpaw-22.8.0/
        _gpaw.cpython-38-x86_64-linux-gnu.so
ase:    /home/c.zeng/.local/lib/python3.8/site-packages/ase-3.22.1-py3.8.egg/ase (version 3.22.1)
numpy:  /shared/centos7/python/3.8.1/lib/python3.8/site-packages/numpy (version 1.17.4)
scipy:  /shared/centos7/python/3.8.1/lib/python3.8/site-packages/scipy (version 1.4.1)
units:  Angstrom and eV
cores: 64
OpenMP: False
OMP_NUM_THREADS: 1

Input parameters:
  convergence: {energy: 0.0001}
  kpts: [2 2 2]
  maxiter: 666
  mode: {ecut: 350.0,
         name: pw}
  occupations: {fixmagmom: False,
                name: fermi-dirac,
                width: 0.1}
  spinpol: True
  xc: PBE

System changes: positions, numbers, cell, pbc, initial_charges, initial_magmoms

Initialize ...

species:
  Al:
    name: Aluminium
    id: 0292cae29f5d6237e50f6abdd43a7bdd
    Z: 13.0
    valence: 3
    core: 10
    charge: 0.0
    file: /home/c.zeng/usr/data/gpaw-setups-0.9.20000/Al.PBE.gz
    compensation charges: {type: gauss,
                           rc: 0.34,
                           lmax: 2}
    cutoffs: {filter: 1.91,
              core: 2.36}
    valence states:
      #              energy  rcut
      - 3s(2.00)    -7.753   1.085
      - 3p(1.00)    -2.712   1.085
      -  s          19.459   1.085
      -  p          24.499   1.085
      -  d           0.000   1.085

    # Using partial waves for Al as LCAO basis

  Fe:
    name: Iron
    id: 37abbd8d6c3c35915a9b583b742da910
    Z: 26.0
    valence: 8
    core: 18
    charge: 0.0
    file: /home/c.zeng/usr/data/gpaw-setups-0.9.20000/Fe.PBE.gz
    compensation charges: {type: gauss,
                           rc: 0.33,
                           lmax: 2}
    cutoffs: {filter: 2.06,
              core: 2.67}
    valence states:
      #              energy  rcut
      - 4s(2.00)    -5.291   1.164
      - 4p(0.00)    -1.326   1.058
      - 3d(6.00)    -7.505   1.058
      -  s          21.920   1.164
      -  p          25.885   1.058
      -  d          19.706   1.058

[...]

  Cr:
    name: Chromium
    id: 33f258bda2ca9f93018e70263a35547b
    Z: 24.0
    valence: 6
    core: 18
    charge: 0.0
    file: /home/c.zeng/usr/data/gpaw-setups-0.9.20000/Cr.PBE.gz
    compensation charges: {type: gauss,
                           rc: 0.35,
                           lmax: 2}
    cutoffs: {filter: 2.14,
              core: 3.04}
    valence states:
      #              energy  rcut
      - 4s(1.00)    -4.007   1.164
      - 4p(0.00)    -0.989   1.217
      - 3d(5.00)    -2.913   1.111
      -  s          23.205   1.164
      -  p          26.223   1.217
      -  d          24.299   1.111

[...]

  Ni:
    name: Nickel
    id: 0d9f38a9d6e76a2886f07bb4381f212b
    Z: 28.0
    valence: 16
    core: 12
    charge: 0.0
    file: /home/c.zeng/usr/data/gpaw-setups-0.9.20000/Ni.PBE.gz
    compensation charges: {type: gauss,
                           rc: 0.36,
                           lmax: 2}
    cutoffs: {filter: 2.14,
              core: 1.98}
    valence states:
      #              energy  rcut
      - 4s(2.00)    -5.642   1.164
      - 3p(6.00)   -71.394   1.207
      - 4p(0.00)    -1.226   1.207
      - 3d(8.00)    -8.875   1.138
      -  s          21.570   1.164
      -  d          18.337   1.138

[...]

  Co:
    name: Cobalt
    id: 339d20d5b0b93d2de9531a1bee871d91
    Z: 27.0
    valence: 9
    core: 18
    charge: 0.0
    file: /home/c.zeng/usr/data/gpaw-setups-0.9.20000/Co.PBE.gz
    compensation charges: {type: gauss,
                           rc: 0.32,
                           lmax: 2}
    cutoffs: {filter: 1.87,
              core: 2.55}
    valence states:
      #              energy  rcut
      - 4s(2.00)    -5.469   1.005
      - 4p(0.00)    -1.277   1.058
      - 3d(7.00)    -8.205   1.005
      -  s          21.742   1.005
      -  p          25.934   1.058
      -  d          19.007   1.005

    # Using partial waves for Co as LCAO basis

Reference energy: -3235165.067515  # eV

Spin-polarized calculation.
Magnetic moment: 121.100000

Convergence criteria:
 Maximum [total energy] change in last 3 cyles: 0.0001 eV / electron
 Maximum integral of absolute [dens]ity change: 0.0001 electrons / valence electron
 Maximum integral of absolute [eigenst]ate change: 4e-08 eV^2 / valence electron
 Maximum number of scf [iter]ations: 666
 (Square brackets indicate name in SCF output, whereas a 'c' in
 the SCF output indicates the quantity has converged.)

Symmetries present (total): 1

  ( 1  0  0)
  ( 0  1  0)
  ( 0  0  1)

8 k-points: 2 x 2 x 2 Monkhorst-Pack grid
4 k-points in the irreducible part of the Brillouin zone
       k-points in crystal coordinates                weights
   0:     0.25000000   -0.25000000   -0.25000000          2/8
   1:     0.25000000   -0.25000000    0.25000000          2/8
   2:     0.25000000    0.25000000   -0.25000000          2/8
   3:     0.25000000    0.25000000    0.25000000          2/8

Wave functions: Plane wave expansion
  Cutoff energy: 350.000 eV
  Number of coefficients (min, max): 20098, 20098
  Pulay-stress correction: 0.000000 eV/Ang^3 (de/decut=0.000000)
  Using FFTW library
  ScaLapack parameters: grid=1x1, blocksize=None
  Wavefunction extrapolation:
    Improved wavefunction reuse through dual PAW basis

Occupation numbers: Fermi-Dirac:
  width: 0.1000  # eV

Eigensolver
   Davidson(niter=2)

Densities:
  Coarse grid: 48*48*48 grid
  Fine grid: 96*96*96 grid
  Total Charge: 0.000000

Density mixing:
  Method: difference
  Backend: pulay
  Linear mixing parameter: 0.05
  old densities: 5
  Damping of long wavelength oscillations: 50

Hamiltonian:
  XC and Coulomb potentials evaluated on a 96*96*96 grid
  Using the PBE Exchange-Correlation functional
  External potential:
    NoExternalPotential

XC parameters: PBE with 2 nearest neighbor stencil

Total number of cores used: 64
Parallelization over k-points: 4
Domain decomposition: 4 x 2 x 2

Number of atoms: 108
Number of atomic orbitals: 933
Number of bands in calculation: 624
Number of valence electrons: 912
Bands to converge: occupied

... initialized

Initializing position-dependent things.

Density initialized from atomic densities
Creating initial wave functions:
  624 bands from LCAO basis set

        .--------Ni----------------.
       /|  Cr       Ni             |
      / |    Cr       Co           |
     / Al                Ni        |
    /   |       Co                 |
   /    | Fe     CoAlCr     Al     |
  /     |  Co AlNi  FeCo Fe  CrCr  |
 *    AlCr  Cr FeCoFe CrCoNi       |
 |     CrAlAl   NiNiFe   NiFeAl    |
 |      | FeCr   AlCoCrNi AlFeCr   |
 |      |  Fe NiCr  Cr CrFe        |
 |     Co                    CrFe  |
 |    CoAl  Cr AlNiNi AlNiNiCo     |
 |     AlCoAl   NiCoCo   CrCrCo    |
 | Fe   .-NiCo-----NiAl-Cr--Fe-----.
 |     Ni     AlAl    Co Ni  NiCo /
 Fe   / Cr     FeFe     CoAl     Ni
 |   /   Co       Fe       FeFe /
 |  /      Al       Co         /
 | /        Fe          Ni    /e
 |/    Cr                    /
 *--------------------------Al

Positions:
   0 Al    11.056389    0.000173    0.000143    ( 0.0000,  0.0000,  0.0000)
   1 Fe    11.056478    1.842754    1.842776    ( 0.0000,  0.0000,  2.0000)
   2 Cr     1.842721   11.056489    1.842798    ( 0.0000,  0.0000,  0.0000)
   3 Cr     1.842709    1.842820    0.000040    ( 0.0000,  0.0000,  0.0000)
   4 Ni     3.685541   11.056434   11.056456    ( 0.0000,  0.0000,  1.5000)
   5 Al     3.685364    1.842942    1.842577    ( 0.0000,  0.0000,  0.0000)
   6 Al     5.528361   11.056356    1.842422    ( 0.0000,  0.0000,  0.0000)
   7 Ni     5.528327    1.842776   11.056467    ( 0.0000,  0.0000,  1.5000)
   8 Fe     7.371037    0.000018   11.056467    ( 0.0000,  0.0000,  2.0000)
   9 Co     7.371037    1.842732    1.842665    ( 0.0000,  0.0000,  2.1000)
  10 Ni     9.213746    0.000060    1.842709    ( 0.0000,  0.0000,  1.5000)
  11 Fe     9.213724    1.842754   11.056467    ( 0.0000,  0.0000,  2.0000)
  12 Fe    11.056489    3.685496    0.000052    ( 0.0000,  0.0000,  2.0000)
  13 Co    11.056489    5.528261    1.842732    ( 0.0000,  0.0000,  2.1000)
  14 Cr     1.842676    3.685496    1.842732    ( 0.0000,  0.0000,  0.0000)
  15 Co     1.842721    5.528261   11.056500    ( 0.0000,  0.0000,  2.1000)
  16 Fe     3.685529    3.685529    0.000007    ( 0.0000,  0.0000,  2.0000)
  17 Al     3.685574    5.528150    1.842610    ( 0.0000,  0.0000,  0.0000)
  18 Fe     5.528250    3.685529    1.842709    ( 0.0000,  0.0000,  2.0000)
  19 Fe     5.528272    5.528239    0.000032    ( 0.0000,  0.0000,  2.0000)
  20 Cr     7.370959    3.685496   11.056456    ( 0.0000,  0.0000,  0.0000)
  21 Co     7.370971    5.528316    1.842687    ( 0.0000,  0.0000,  2.1000)
  22 Al     9.213912    3.685474    1.842588    ( 0.0000,  0.0000,  0.0000)
  23 Fe     9.213746    5.528261    0.000008    ( 0.0000,  0.0000,  2.0000)
  24 Ni    -0.000001    7.370904    0.000060    ( 0.0000,  0.0000,  1.5000)
  25 Al     0.000001    9.213669    1.842920    ( 0.0000,  0.0000,  0.0000)
  26 Ni     1.842709    7.371015    1.842743    ( 0.0000,  0.0000,  1.5000)
  27 Cr     1.842875    9.213669   11.056489    ( 0.0000,  0.0000,  0.0000)
  28 Fe     3.685496    7.371004    0.000007    ( 0.0000,  0.0000,  2.0000)
  29 Ni     3.685474    9.213713    1.842687    ( 0.0000,  0.0000,  1.5000)
  30 Ni     5.528316    7.370982    1.842687    ( 0.0000,  0.0000,  1.5000)
  31 Ni     5.528239    9.213746   11.056478    ( 0.0000,  0.0000,  1.5000)
  32 Co     7.371015    7.370982    0.000056    ( 0.0000,  0.0000,  2.1000)
  33 Cr     7.371037    9.213691    1.842676    ( 0.0000,  0.0000,  0.0000)
  34 Fe     9.213735    7.370948    1.842732    ( 0.0000,  0.0000,  2.0000)
  35 Ni     9.213658    9.213746    0.000038    ( 0.0000,  0.0000,  1.5000)
  36 Fe     0.000018    0.000045    3.685485    ( 0.0000,  0.0000,  2.0000)
  37 Co    11.056467    1.842743    5.528239    ( 0.0000,  0.0000,  2.1000)
  38 Cr     1.842676   11.056456    5.528272    ( 0.0000,  0.0000,  0.0000)
  39 Ni     1.842621    1.842754    3.685496    ( 0.0000,  0.0000,  1.5000)
  40 Al     3.685231   11.056235    3.685585    ( 0.0000,  0.0000,  0.0000)
  41 Al     3.685496    1.842765    5.528416    ( 0.0000,  0.0000,  0.0000)
  42 Cr     5.528283   11.056423    5.528383    ( 0.0000,  0.0000,  0.0000)
  43 Al     5.528338    1.843008    3.685574    ( 0.0000,  0.0000,  0.0000)
  44 Al     7.371214   11.056434    3.685563    ( 0.0000,  0.0000,  0.0000)
  45 Co     7.371059    1.842754    5.528338    ( 0.0000,  0.0000,  2.1000)
  46 Cr     9.213779    0.000047    5.528294    ( 0.0000,  0.0000,  0.0000)
  47 Ni     9.213857    1.842721    3.685529    ( 0.0000,  0.0000,  1.5000)
  48 Fe    11.056500    3.685474    3.685496    ( 0.0000,  0.0000,  2.0000)
  49 Fe    11.056445    5.528261    5.528195    ( 0.0000,  0.0000,  2.0000)
  50 Al     1.842632    3.685529    5.528106    ( 0.0000,  0.0000,  0.0000)
[...]
[...]
  93 Co     7.371004    5.528217    9.213768    ( 0.0000,  0.0000,  2.1000)
  94 Ni     9.213702    3.685485    9.213768    ( 0.0000,  0.0000,  1.5000)
  95 Fe     9.213735    5.528239    7.370971    ( 0.0000,  0.0000,  2.0000)
  96 Al     0.000022    7.370971    7.370727    ( 0.0000,  0.0000,  0.0000)
  97 Al     0.000146    9.213813    9.213724    ( 0.0000,  0.0000,  0.0000)
  98 Fe     1.842820    7.371037    9.213757    ( 0.0000,  0.0000,  2.0000)
  99 Co     1.842831    9.213724    7.370971    ( 0.0000,  0.0000,  2.1000)
 100 Fe     3.685496    7.371081    7.370959    ( 0.0000,  0.0000,  2.0000)
 101 Co     3.685496    9.213746    9.213724    ( 0.0000,  0.0000,  2.1000)
 102 Al     5.528272    7.371103    9.213735    ( 0.0000,  0.0000,  0.0000)
 103 Fe     5.528239    9.213757    7.370982    ( 0.0000,  0.0000,  2.0000)
 104 Co     7.371004    7.371015    7.370926    ( 0.0000,  0.0000,  2.1000)
 105 Ni     7.370959    9.213835    9.213757    ( 0.0000,  0.0000,  1.5000)
 106 Al     9.213547    7.370849    9.213857    ( 0.0000,  0.0000,  0.0000)
 107 Cr     9.213669    9.213791    7.370937    ( 0.0000,  0.0000,  0.0000)

Unit cell:
           periodic     x           y           z      points  spacing
  1. axis:    yes   11.056500    0.000000    0.000000    48     0.2303
  2. axis:    yes    0.000000   11.056500    0.000000    48     0.2303
  3. axis:    yes    0.000000    0.000000   11.056500    48     0.2303

  Lengths:  11.056500  11.056500  11.056500
  Angles:   90.000000  90.000000  90.000000

Effective grid spacing dv^(1/3) = 0.2303

     iter     time        total  log10-change:  magmom
                         energy  eigst   dens
iter:   1 02:37:15  -978.564161                  +121.3857
iter:   2 02:38:04  -855.777792  -0.15  -1.16    +66.2031
iter:   3 02:38:53  -844.186938  -0.79  -1.19    +60.5417
iter:   4 02:39:42  -825.233751  -1.19  -1.25    +56.6938
iter:   5 02:40:32  -813.321526  -1.55  -1.29    +55.8518
iter:   6 02:41:21  -810.460258  -1.36  -1.36    +57.8293
iter:   7 02:42:11  -809.572278  -1.37  -1.44    +58.2431
iter:   8 02:43:00  -805.866298  -1.66  -1.51    +59.5793
iter:   9 02:43:49  -802.299435  -1.95  -1.61    +61.0283
iter:  10 02:44:39  -802.492303  -2.38  -1.74    +62.0647
iter:  11 02:45:28  -802.984771  -2.44  -1.76    +63.3240
iter:  12 02:46:17  -803.605324  -2.38  -1.80    +64.8115
iter:  13 02:47:07  -803.294684  -2.46  -1.82    +65.0310
iter:  14 02:47:56  -803.054993  -2.56  -1.89    +65.2074
iter:  15 02:48:45  -803.436729  -2.75  -1.99    +65.5031
iter:  16 02:49:35  -803.299710  -2.96  -2.00    +65.3758
iter:  17 02:50:25  -803.422202  -3.00  -2.07    +65.3355
iter:  18 02:51:14  -803.610851  -3.00  -2.12    +65.1603
iter:  19 02:52:03  -803.514818  -3.10  -2.16    +64.7674
iter:  20 02:52:52  -803.602445  -3.21  -2.25    +64.4439
iter:  21 02:53:41  -803.730419  -3.27  -2.30    +63.9781
iter:  22 02:54:31  -803.719179  -3.37  -2.33    +63.5334
iter:  23 02:55:20  -803.827590  -3.45  -2.39    +63.0283
iter:  24 02:56:09  -803.926148  -3.55  -2.43    +62.4597
iter:  25 02:56:58  -803.986051  -3.67  -2.44    +61.9345
iter:  26 02:57:48  -804.085682  -3.63  -2.48    +61.3558
iter:  27 02:58:37  -804.214049  -3.58  -2.51    +60.5658
iter:  28 02:59:26  -804.243327  -3.84  -2.51    +60.2221
iter:  29 03:00:15  -804.332324  -3.71  -2.56    +59.7423
iter:  30 03:01:05  -804.381336  -3.89  -2.59    +59.3847
iter:  31 03:01:54  -804.416140c -3.93  -2.61    +59.0777
iter:  32 03:02:43  -804.463124c -3.93  -2.66    +58.8951
iter:  33 03:03:32  -804.493909c -4.12  -2.69    +58.6933
iter:  34 03:04:22  -804.521308c -4.19  -2.73    +58.5586
iter:  35 03:05:11  -804.559538c -4.24  -2.76    +58.4674
iter:  36 03:06:00  -804.586432c -4.30  -2.78    +58.3950
iter:  37 03:06:50  -804.607611c -4.37  -2.81    +58.3164
iter:  38 03:07:39  -804.633630c -4.43  -2.84    +58.2825
iter:  39 03:08:29  -804.660422c -4.41  -2.87    +58.2811
iter:  40 03:09:19  -804.685653c -4.36  -2.90    +58.2358
iter:  41 03:10:08  -804.709707c -4.45  -2.94    +58.2662
iter:  42 03:10:57  -804.727880c -4.50  -2.97    +58.3107
iter:  43 03:11:45  -804.737363c -4.62  -2.98    +58.3085
iter:  44 03:12:35  -804.749342c -4.67  -3.02    +58.3538
iter:  45 03:13:24  -804.762765c -4.69  -3.08    +58.4206
iter:  46 03:14:13  -804.770136c -4.77  -3.11    +58.4572
iter:  47 03:15:03  -804.781817c -4.85  -3.15    +58.5235
iter:  48 03:15:52  -804.784048c -5.23  -3.20    +58.5391
iter:  49 03:16:41  -804.796613c -4.85  -3.20    +58.6131
iter:  50 03:17:31  -804.797132c -5.29  -3.24    +58.6202
iter:  51 03:18:21  -804.810744c -4.92  -3.29    +58.7352
iter:  52 03:19:10  -804.808813c -5.47  -3.32    +58.7285
iter:  53 03:19:59  -804.822721c -5.08  -3.36    +58.8288
iter:  54 03:20:48  -804.803977c -4.98  -3.38    +58.6687
iter:  55 03:21:38  -804.777516c -4.30  -3.38    +58.3236
iter:  56 03:22:28  -804.764155c -4.39  -3.27    +58.0616
iter:  57 03:23:17  -804.761529c -4.12  -3.18    +57.6928
iter:  58 03:24:06  -804.763857c -4.41  -3.04    +57.5511
iter:  59 03:24:56  -804.759106c -4.72  -3.02    +57.5440
iter:  60 03:25:46  -804.765189c -5.26  -3.05    +57.5991
iter:  61 03:26:35  -804.762237c -5.26  -3.06    +57.6316
iter:  62 03:27:25  -804.752454c -4.89  -3.12    +57.6473
iter:  63 03:28:15  -804.751329c -4.54  -3.24    +57.6518
iter:  64 03:29:03  -804.749323c -4.86  -3.16    +57.6641
iter:  65 03:29:53  -804.761073c -4.80  -3.43    +57.6935
iter:  66 03:30:42  -804.766957c -4.96  -3.44    +57.7208
iter:  67 03:31:32  -804.775796c -4.68  -3.45    +57.7851
iter:  68 03:32:21  -804.799179c -4.39  -3.41    +57.8926
iter:  69 03:33:11  -804.762655c -4.13  -3.19    +57.6986
iter:  70 03:34:01  -804.740279c -3.71  -3.63    +57.4559
iter:  71 03:34:50  -804.746745c -4.92  -3.12    +57.5615
iter:  72 03:35:39  -804.747352c -5.95  -3.30    +57.5603
iter:  73 03:36:28  -804.751215c -5.46  -3.31    +57.5780
iter:  74 03:37:18  -804.763953c -4.50  -3.38    +57.6231
iter:  75 03:38:07  -804.744855c -4.33  -3.53    +57.5610
iter:  76 03:38:57  -804.770804c -4.12  -3.29    +57.6382
iter:  77 03:39:46  -804.746295c -4.36  -3.48    +57.5759
iter:  78 03:40:35  -804.749665c -5.68  -3.44    +57.5815
iter:  79 03:41:24  -804.751570c -5.72  -3.57    +57.5784
iter:  80 03:42:14  -804.754716c -5.23  -3.54    +57.6154
iter:  81 03:43:03  -804.758334c -5.51  -3.84    +57.6127
iter:  82 03:43:53  -804.761436c -5.64  -3.84    +57.6443
iter:  83 03:44:42  -804.773618c -4.91  -3.88    +57.6896
iter:  84 03:45:32  -804.725369c -3.59  -3.57    +57.4569
iter:  85 03:46:21  -804.719104c -4.20  -3.21    +57.4059
iter:  86 03:47:11  -804.738526c -4.11  -3.10    +57.5270
iter:  87 03:48:01  -804.729186c -4.93  -3.46    +57.4783
iter:  88 03:48:50  -804.725124c -4.28  -3.26    +57.4363
iter:  89 03:49:39  -804.729843c -4.68  -3.09    +57.4929
iter:  90 03:50:28  -804.735570c -5.03  -3.24    +57.5427
[...]
iter: 124 04:18:45  -804.785587c -4.60  -3.20    +57.7069
iter: 125 04:19:35  -804.774989c -4.90  -3.19    +57.6426
iter: 126 04:20:25  -804.776441c -5.25  -3.47    +57.5969
iter: 127 04:21:15  -804.777943c -5.19  -3.49    +57.5769
iter: 128 04:22:04  -804.782020c -5.08  -3.57    +57.5576
iter: 129 04:22:53  -804.778876c -5.23  -3.45    +57.5554
iter: 130 04:23:42  -804.777475c -5.30  -3.55    +57.5246
iter: 131 04:24:31  -804.778769c -5.43  -3.49    +57.5211
iter: 132 04:25:21  -804.778557c -5.71  -3.62    +57.5127
iter: 133 04:26:10  -804.778854c -5.72  -3.77    +57.4981
iter: 134 04:26:59  -804.778247c -5.96  -3.71    +57.4835
iter: 135 04:27:49  -804.778671c -5.89  -3.95    +57.4689
iter: 136 04:28:38  -804.778803c -6.37  -3.91    +57.4717
iter: 137 04:29:28  -804.778443c -6.07  -4.00    +57.4637
iter: 138 04:30:19  -804.778345c -6.27  -3.91    +57.4641
iter: 139 04:31:09  -804.778565c -6.39  -4.04c   +57.4632
iter: 140 04:31:59  -804.778734c -6.58  -4.15c   +57.4584
iter: 141 04:32:48  -804.778781c -7.04  -4.14c   +57.4544
iter: 142 04:33:38  -804.779605c -5.90  -4.13c   +57.4376
iter: 143 04:34:27  -804.778621c -5.73  -3.91    +57.4600
iter: 144 04:35:16  -804.778246c -6.10  -4.13c   +57.4557
iter: 145 04:36:04  -804.779180c -6.04  -4.17c   +57.4496
iter: 146 04:36:53  -804.779059c -6.70  -3.96    +57.4458
iter: 147 04:37:43  -804.779254c -6.44  -4.09c   +57.4411
iter: 148 04:38:32  -804.779275c -6.96  -4.01c   +57.4379
iter: 149 04:39:21  -804.780414c -6.18  -4.04c   +57.4257
iter: 150 04:40:12  -804.779506c -5.87  -3.82    +57.4525
iter: 151 04:41:01  -804.779927c -5.86  -3.80    +57.4241
iter: 152 04:41:51  -804.779402c -6.04  -3.85    +57.4242
iter: 153 04:42:40  -804.779913c -6.34  -3.87    +57.4265
iter: 154 04:43:29  -804.779342c -6.63  -3.88    +57.4259
iter: 155 04:44:18  -804.779975c -5.65  -3.95    +57.4282
iter: 156 04:45:08  -804.779968c -5.39  -3.66    +57.4310
iter: 157 04:45:57  -804.779010c -5.72  -3.64    +57.4393
iter: 158 04:46:47  -804.778955c -6.30  -3.90    +57.4475
iter: 159 04:47:37  -804.778589c -6.53  -3.94    +57.4516
iter: 160 04:48:27  -804.779006c -6.59  -4.05c   +57.4613
iter: 161 04:49:17  -804.778609c -6.53  -4.09c   +57.4662
iter: 162 04:50:07  -804.778641c -6.79  -4.14c   +57.4716
iter: 163 04:50:56  -804.778530c -6.51  -4.18c   +57.4802
iter: 164 04:51:47  -804.778683c -6.78  -4.21c   +57.4867
iter: 165 04:52:37  -804.778784c -6.70  -4.29c   +57.4996
iter: 166 04:53:26  -804.778640c -7.44c -4.35c   +57.4944

Converged after 166 iterations.

Dipole moment: (0.209702, -0.476902, 0.070611) |e|*Ang

Total magnetic moment: (0.000000, 0.000000, 57.494388)
Local magnetic moments:
   0 Al ( 0.000000,  0.000000, -0.005743)
   1 Fe ( 0.000000,  0.000000,  2.265888)
   2 Cr ( 0.000000,  0.000000, -2.222763)
   3 Cr ( 0.000000,  0.000000,  1.784803)
   4 Ni ( 0.000000,  0.000000,  0.095523)
   5 Al ( 0.000000,  0.000000, -0.008904)
   6 Al ( 0.000000,  0.000000, -0.013694)
   7 Ni ( 0.000000,  0.000000,  0.351134)
   8 Fe ( 0.000000,  0.000000,  2.606041)
   9 Co ( 0.000000,  0.000000,  0.930319)
  10 Ni ( 0.000000,  0.000000,  0.291481)
  11 Fe ( 0.000000,  0.000000,  2.287710)
  12 Fe ( 0.000000,  0.000000,  2.276488)
  13 Co ( 0.000000,  0.000000,  1.456655)
  14 Cr ( 0.000000,  0.000000, -2.320269)
  15 Co ( 0.000000,  0.000000,  1.126986)
  16 Fe ( 0.000000,  0.000000,  2.223189)
  17 Al ( 0.000000,  0.000000, -0.038576)
  18 Fe ( 0.000000,  0.000000,  2.385773)
  19 Fe ( 0.000000,  0.000000,  2.387842)
  20 Cr ( 0.000000,  0.000000, -2.456121)
  21 Co ( 0.000000,  0.000000,  1.211624)
  22 Al ( 0.000000,  0.000000, -0.034001)
  23 Fe ( 0.000000,  0.000000,  2.434241)
  24 Ni ( 0.000000,  0.000000,  0.115734)
  25 Al ( 0.000000,  0.000000, -0.022358)
  26 Ni ( 0.000000,  0.000000,  0.337053)
  27 Cr ( 0.000000,  0.000000, -0.375881)
  28 Fe ( 0.000000,  0.000000,  2.485557)
  29 Ni ( 0.000000,  0.000000,  0.255600)
  30 Ni ( 0.000000,  0.000000,  0.351726)
  31 Ni ( 0.000000,  0.000000,  0.325453)
  32 Co ( 0.000000,  0.000000,  1.473101)
  33 Cr ( 0.000000,  0.000000, -2.425895)
  34 Fe ( 0.000000,  0.000000,  2.469125)
  35 Ni ( 0.000000,  0.000000,  0.189336)
  36 Fe ( 0.000000,  0.000000,  2.155198)
  37 Co ( 0.000000,  0.000000,  1.152863)
  38 Cr ( 0.000000,  0.000000, -2.322094)
  39 Ni ( 0.000000,  0.000000,  0.002372)
  40 Al ( 0.000000,  0.000000,  0.007760)
  41 Al ( 0.000000,  0.000000, -0.002723)
  42 Cr ( 0.000000,  0.000000, -2.129512)
  43 Al ( 0.000000,  0.000000, -0.001555)
  44 Al ( 0.000000,  0.000000, -0.004521)
  45 Co ( 0.000000,  0.000000,  0.339540)
  46 Cr ( 0.000000,  0.000000, -2.223702)
  47 Ni ( 0.000000,  0.000000,  0.249613)
  48 Fe ( 0.000000,  0.000000,  2.451711)
  49 Fe ( 0.000000,  0.000000,  2.227051)
  50 Al ( 0.000000,  0.000000, -0.030146)
  51 Co ( 0.000000,  0.000000,  1.315841)
  52 Co ( 0.000000,  0.000000,  1.062646)
  53 Ni ( 0.000000,  0.000000,  0.418070)
  54 Ni ( 0.000000,  0.000000,  0.145574)
  55 Co ( 0.000000,  0.000000,  1.293159)
  56 Al ( 0.000000,  0.000000, -0.007938)
  57 Cr ( 0.000000,  0.000000, -2.231278)
  58 Ni ( 0.000000,  0.000000,  0.094409)
  59 Cr ( 0.000000,  0.000000, -2.159470)
[...]
  93 Co ( 0.000000,  0.000000,  1.477212)
  94 Ni ( 0.000000,  0.000000,  0.261013)
  95 Fe ( 0.000000,  0.000000,  2.247584)
  96 Al ( 0.000000,  0.000000, -0.032131)
  97 Al ( 0.000000,  0.000000, -0.018215)
  98 Fe ( 0.000000,  0.000000,  2.125847)
  99 Co ( 0.000000,  0.000000,  1.206070)
 100 Fe ( 0.000000,  0.000000,  2.455469)
 101 Co ( 0.000000,  0.000000,  1.461705)
 102 Al ( 0.000000,  0.000000, -0.051152)
 103 Fe ( 0.000000,  0.000000,  2.646705)
 104 Co ( 0.000000,  0.000000,  1.366944)
 105 Ni ( 0.000000,  0.000000,  0.409884)
 106 Al ( 0.000000,  0.000000, -0.029848)
 107 Cr ( 0.000000,  0.000000,  1.901867)

Energy contributions relative to reference atoms: (reference = -3235165.067515)

Kinetic:       +105.293113
Potential:     -126.443098
External:        +0.000000
XC:            -812.223514
Entropy (-ST):   -4.016932
Local:          +30.603325
Free energy:   -806.787106
Extrapolated:  -804.778640

Spin contamination: 38.762896 electrons
Showing only first 2 kpts
                      Up                     Down
 Kpt  Band  Eigenvalues  Occupancy  Eigenvalues  Occupancy
  0   454      8.32004    0.99770      9.27509    0.02994
  0   455      8.33206    0.99741      9.28582    0.02698
  0   456      8.34381    0.99708      9.29835    0.02387
  0   457      8.36148    0.99652      9.31303    0.02068

  1   454      8.32795    0.99751      9.25590    0.03605
  1   455      8.33415    0.99735      9.28508    0.02717
  1   456      8.34094    0.99717      9.29510    0.02464
  1   457      8.36418    0.99643      9.31283    0.02072

Fermi level: 8.92727

No gap

Forces in eV/Ang:
  0 Al   -0.93646    0.15296    0.40569
  1 Fe    0.01170    0.06369    0.46164
  2 Cr   -0.15201   -0.04493   -0.16064
  3 Cr   -0.03092   -0.07936   -0.25319
  4 Ni   -0.15608   -0.34380   -0.22254
  5 Al   -0.35571    0.88935   -0.75076
  6 Al   -0.01330   -0.55583   -1.83931
  7 Ni    0.16402    0.08378   -0.07527
  8 Fe    0.36549   -0.05130   -0.26111
  9 Co   -0.02485   -0.07947   -0.12595
 10 Ni   -0.12470    0.10862   -0.01655
 11 Fe   -0.41533    0.19789    0.12389
 12 Fe    0.02317    0.41772    0.03186
 13 Co    0.56117    0.16760   -0.07425
 14 Cr   -0.88856   -0.04979   -0.03763
 15 Co   -0.26709   -0.02956   -0.05790
 16 Fe    0.23605    0.42987    0.01582
 17 Al    0.11306   -0.05735   -0.19434
 18 Fe    0.18350    0.24694   -0.09541
 19 Fe    0.53079   -0.10843    0.04298
 20 Cr   -0.50591   -0.03384   -0.39828
 21 Co   -0.27340    0.38035    0.06033
 22 Al    0.48684   -0.30287   -0.29264
 23 Fe   -0.23787   -0.03451   -0.09715
 24 Ni    0.28457   -0.12110   -0.01131
 25 Al   -0.34660   -0.85543    0.19644
 26 Ni   -0.11043   -0.18103   -0.05209
 27 Cr    1.00550   -0.36448   -0.20695
 28 Fe   -0.35860    0.52101    0.03700
 29 Ni   -0.08833   -0.06321   -0.13377
 30 Ni    0.13579   -0.23580   -0.22709
 31 Ni   -0.03647    0.03890   -0.04803
 32 Co   -0.06937   -0.13617    0.46122
 33 Cr    0.29360   -0.62405   -0.44165
 34 Fe   -0.36973   -0.65287   -0.23422
 35 Ni    0.02388    0.09232   -0.02772
 36 Fe    0.20267    0.70821    0.41316
 37 Co   -0.04015   -0.32920    0.08931
 38 Cr   -0.80559   -0.15081    0.73165
 39 Ni   -0.14938   -0.13574    0.01319
 40 Al   -0.76871   -1.17219    0.35115
 41 Al   -0.26544    0.34074    0.46740
 42 Cr    0.41118   -0.49970    0.86812
 43 Al    0.64309    1.29965    0.57851
 44 Al    1.15062    0.35650    0.28495
 45 Co    0.03239   -0.25052    0.19845
 46 Cr    0.07119    0.39236    0.41277
 47 Ni    0.33641   -0.04117   -0.11653
 48 Fe   -0.05693    0.11105    0.04725
 49 Fe   -0.22526   -0.18886   -0.35318
 50 Al   -0.18229   -0.14851   -1.08044
 51 Co   -0.40554    0.04132    0.14475
 52 Co    0.16355    0.40408   -0.09208
 53 Ni    0.21095   -0.12874    0.00820
 54 Ni    0.02130    0.15024   -0.01943
 55 Co    0.04210   -0.07332    0.01138
 56 Al   -0.11461   -0.11177    0.41490
 57 Cr   -0.56400    0.98165    0.32317
 58 Ni   -0.03411    0.01980    0.19389
 59 Cr    0.83089    1.00901    0.08628
[...]
 93 Co    0.06569   -0.40335   -0.04135
 94 Ni   -0.04787    0.17971   -0.11758
 95 Fe   -0.23395   -0.42526   -0.08857
 96 Al    0.22022   -0.10464   -0.73241
 97 Al    0.12067    0.42692    0.01244
 98 Fe    0.13161    0.15041    0.36206
 99 Co    0.28227    0.02335   -0.18662
100 Fe   -0.06103    0.42181   -0.41858
101 Co   -0.23520    0.50223   -0.08578
102 Al    0.92962    0.56146    0.05386
103 Fe    0.17931    0.42060   -0.35857
104 Co   -0.13341   -0.06137   -0.59030
105 Ni   -0.15725    0.20653    0.05874
106 Al   -1.32009   -0.07428    0.82739
107 Cr   -0.46586    0.74721   -0.58478

Date: Sat Apr  8 04:53:39 2023