User:   c.zeng@d0120
Date:   Sat Apr 15 04:14:56 2023
Arch:   x86_64
Pid:    43362
CWD:    /home/c.zeng/projects/hea-corrosion/hea-mlp/data-curation/bulk-mcmc/dft-jobs/213
Python: 3.8.1
gpaw:   /home/c.zeng/usr/installs/gpaw/source/gpaw-22.8.0/gpaw
_gpaw:  /home/c.zeng/usr/installs/gpaw/source/gpaw-22.8.0/
        _gpaw.cpython-38-x86_64-linux-gnu.so
ase:    /home/c.zeng/.local/lib/python3.8/site-packages/ase-3.22.1-py3.8.egg/ase (version 3.22.1)
numpy:  /shared/centos7/python/3.8.1/lib/python3.8/site-packages/numpy (version 1.17.4)
scipy:  /shared/centos7/python/3.8.1/lib/python3.8/site-packages/scipy (version 1.4.1)
units:  Angstrom and eV
cores: 30
OpenMP: False
OMP_NUM_THREADS: 1

Input parameters:
  convergence: {energy: 0.0001}
  kpts: [2 2 2]
  maxiter: 666
  mode: {ecut: 350.0,
         name: pw}
  occupations: {fixmagmom: False,
                name: fermi-dirac,
                width: 0.1}
  spinpol: True
  xc: PBE

System changes: positions, numbers, cell, pbc, initial_charges, initial_magmoms

Initialize ...

species:
  Cr:
    name: Chromium
    id: 33f258bda2ca9f93018e70263a35547b
    Z: 24.0
    valence: 6
    core: 18
    charge: 0.0
    file: /home/c.zeng/usr/data/gpaw-setups-0.9.20000/Cr.PBE.gz
    compensation charges: {type: gauss,
                           rc: 0.35,
                           lmax: 2}
    cutoffs: {filter: 2.14,
              core: 3.04}
    valence states:
      #              energy  rcut
      - 4s(1.00)    -4.007   1.164
      - 4p(0.00)    -0.989   1.217
      - 3d(5.00)    -2.913   1.111
      -  s          23.205   1.164
      -  p          26.223   1.217
      -  d          24.299   1.111

    # Using partial waves for Cr as LCAO basis

  Al:
    name: Aluminium
    id: 0292cae29f5d6237e50f6abdd43a7bdd
    Z: 13.0
    valence: 3
    core: 10
    charge: 0.0
    file: /home/c.zeng/usr/data/gpaw-setups-0.9.20000/Al.PBE.gz
    compensation charges: {type: gauss,
                           rc: 0.34,
                           lmax: 2}
    cutoffs: {filter: 1.91,
              core: 2.36}
    valence states:
      #              energy  rcut
      - 3s(2.00)    -7.753   1.085
      - 3p(1.00)    -2.712   1.085
      -  s          19.459   1.085
      -  p          24.499   1.085
      -  d           0.000   1.085

[...]

  Ni:
    name: Nickel
    id: 0d9f38a9d6e76a2886f07bb4381f212b
    Z: 28.0
    valence: 16
    core: 12
    charge: 0.0
    file: /home/c.zeng/usr/data/gpaw-setups-0.9.20000/Ni.PBE.gz
    compensation charges: {type: gauss,
                           rc: 0.36,
                           lmax: 2}
    cutoffs: {filter: 2.14,
              core: 1.98}
    valence states:
      #              energy  rcut
      - 4s(2.00)    -5.642   1.164
      - 3p(6.00)   -71.394   1.207
      - 4p(0.00)    -1.226   1.207
      - 3d(8.00)    -8.875   1.138
      -  s          21.570   1.164
      -  d          18.337   1.138

[...]

  Co:
    name: Cobalt
    id: 339d20d5b0b93d2de9531a1bee871d91
    Z: 27.0
    valence: 9
    core: 18
    charge: 0.0
    file: /home/c.zeng/usr/data/gpaw-setups-0.9.20000/Co.PBE.gz
    compensation charges: {type: gauss,
                           rc: 0.32,
                           lmax: 2}
    cutoffs: {filter: 1.87,
              core: 2.55}
    valence states:
      #              energy  rcut
      - 4s(2.00)    -5.469   1.005
      - 4p(0.00)    -1.277   1.058
      - 3d(7.00)    -8.205   1.005
      -  s          21.742   1.005
      -  p          25.934   1.058
      -  d          19.007   1.005

[...]

  Fe:
    name: Iron
    id: 37abbd8d6c3c35915a9b583b742da910
    Z: 26.0
    valence: 8
    core: 18
    charge: 0.0
    file: /home/c.zeng/usr/data/gpaw-setups-0.9.20000/Fe.PBE.gz
    compensation charges: {type: gauss,
                           rc: 0.33,
                           lmax: 2}
    cutoffs: {filter: 2.06,
              core: 2.67}
    valence states:
      #              energy  rcut
      - 4s(2.00)    -5.291   1.164
      - 4p(0.00)    -1.326   1.058
      - 3d(6.00)    -7.505   1.058
      -  s          21.920   1.164
      -  p          25.885   1.058
      -  d          19.706   1.058

    # Using partial waves for Fe as LCAO basis

Reference energy: -3235165.067515  # eV

Spin-polarized calculation.
Magnetic moment: 121.100000

Convergence criteria:
 Maximum [total energy] change in last 3 cyles: 0.0001 eV / electron
 Maximum integral of absolute [dens]ity change: 0.0001 electrons / valence electron
 Maximum integral of absolute [eigenst]ate change: 4e-08 eV^2 / valence electron
 Maximum number of scf [iter]ations: 666
 (Square brackets indicate name in SCF output, whereas a 'c' in
 the SCF output indicates the quantity has converged.)

Symmetries present (total): 1

  ( 1  0  0)
  ( 0  1  0)
  ( 0  0  1)

8 k-points: 2 x 2 x 2 Monkhorst-Pack grid
4 k-points in the irreducible part of the Brillouin zone
       k-points in crystal coordinates                weights
   0:     0.25000000   -0.25000000   -0.25000000          2/8
   1:     0.25000000   -0.25000000    0.25000000          2/8
   2:     0.25000000    0.25000000   -0.25000000          2/8
   3:     0.25000000    0.25000000    0.25000000          2/8

Wave functions: Plane wave expansion
  Cutoff energy: 350.000 eV
  Number of coefficients (min, max): 19084, 19084
  Pulay-stress correction: 0.000000 eV/Ang^3 (de/decut=0.000000)
  Using FFTW library
  ScaLapack parameters: grid=1x1, blocksize=None
  Wavefunction extrapolation:
    Improved wavefunction reuse through dual PAW basis

Occupation numbers: Fermi-Dirac:
  width: 0.1000  # eV

Eigensolver
   Davidson(niter=2)

Densities:
  Coarse grid: 48*48*48 grid
  Fine grid: 96*96*96 grid
  Total Charge: 0.000000

Density mixing:
  Method: difference
  Backend: pulay
  Linear mixing parameter: 0.05
  old densities: 5
  Damping of long wavelength oscillations: 50

Hamiltonian:
  XC and Coulomb potentials evaluated on a 96*96*96 grid
  Using the PBE Exchange-Correlation functional
  External potential:
    NoExternalPotential

XC parameters: PBE with 2 nearest neighbor stencil

Total number of cores used: 30
Parallelization over k-points: 2
Domain decomposition: 5 x 3 x 1

Number of atoms: 108
Number of atomic orbitals: 933
Number of bands in calculation: 624
Number of valence electrons: 912
Bands to converge: occupied

... initialized

Initializing position-dependent things.

Density initialized from atomic densities
Creating initial wave functions:
  624 bands from LCAO basis set

        .--------Al----------------.
       /|           Fe             |
      / |    FeFe     Ni           |
     / Cr       Ni       Al        |
    /   |Fe      CrCo       Fe     |
   /    | NiNi      ACo            |
  /    Co  FeiAlAl    Co Fe  CoAl  |
 *      Fe     AlCoAl   CrFe     Cr|
 |      |FeNi   NiFeFe   AlNiCr   Co
 |      | CoCr   AlCoCoAl NiCrFe   |
 |     Fe  Al CoCo  CrCr Ni  CrCr  |
 |      Cr  Ni CrNiCo CoNiCoAl   Fe|
 |      |NiCo   CoAlAl   CoNiFe   Fe
 |      .-FeCr-----NiNi-Al--CrFe---.
 |     Al  Cr CoNi    Al Co  Ni Cr/
 |    / Co              Ni       Cr
 |   /           Ali      CrFe  /
 |  /      Cr       Fe     CrAl/
 | /                   Fe     /i
 *--------------------------Cr

Positions:
   0 Cr    10.797848    0.093654    0.085777    ( 0.0000,  0.0000,  0.0000)
   1 Al    10.831824    1.844742    1.870716    ( 0.0000,  0.0000,  2.0000)
   2 Ni     1.786803   10.847372    1.827335    ( 0.0000,  0.0000,  0.0000)
   3 Co     1.769614    1.870531   -0.031264    ( 0.0000,  0.0000,  0.0000)
   4 Al     3.620857   10.822050   10.833629    ( 0.0000,  0.0000,  1.5000)
   5 Cr     3.571246    1.883176    1.708402    ( 0.0000,  0.0000,  0.0000)
   6 Co     5.521103   10.788063    1.666217    ( 0.0000,  0.0000,  0.0000)
   7 Al     5.520831    1.813973   10.830911    ( 0.0000,  0.0000,  1.5000)
   8 Al     7.330846    0.011025   10.815657    ( 0.0000,  0.0000,  2.0000)
   9 Fe     7.282018    1.809483    1.793250    ( 0.0000,  0.0000,  2.1000)
  10 Fe     9.029996    0.022005    1.811918    ( 0.0000,  0.0000,  1.5000)
  11 Fe     9.007196    1.868639   10.825714    ( 0.0000,  0.0000,  2.0000)
  12 Ni    10.861310    3.649723    0.014171    ( 0.0000,  0.0000,  2.0000)
  13 Cr    10.867442    5.463468    1.819235    ( 0.0000,  0.0000,  2.1000)
  14 Co     1.756088    3.650267    1.845949    ( 0.0000,  0.0000,  0.0000)
  15 Fe     1.790358    5.439092   10.869084    ( 0.0000,  0.0000,  2.1000)
  16 Ni     3.687842    3.622792   -0.049287    ( 0.0000,  0.0000,  2.0000)
  17 Co     3.667347    5.391145    1.745368    ( 0.0000,  0.0000,  0.0000)
  18 Al     5.497977    3.634415    1.792370    ( 0.0000,  0.0000,  2.0000)
  19 Ni     5.524908    5.448029    0.002551    ( 0.0000,  0.0000,  2.0000)
  20 Co     7.223340    3.611877   10.834270    ( 0.0000,  0.0000,  0.0000)
  21 Al     7.217762    5.474830    1.807776    ( 0.0000,  0.0000,  2.1000)
  22 Cr     9.073442    3.654344    1.775148    ( 0.0000,  0.0000,  0.0000)
  23 Cr     9.008740    5.418608    0.007692    ( 0.0000,  0.0000,  2.0000)
  24 Cr    10.859190    7.178720    0.014480    ( 0.0000,  0.0000,  1.5000)
  25 Fe    -0.018106    8.970948    1.875391    ( 0.0000,  0.0000,  0.0000)
  26 Fe     1.817615    7.224025    1.802546    ( 0.0000,  0.0000,  1.5000)
  27 Cr     1.880729    8.993464   10.874031    ( 0.0000,  0.0000,  0.0000)
  28 Fe     3.684428    7.260447   -0.001356    ( 0.0000,  0.0000,  2.0000)
  29 Co     3.612616    9.025636    1.761807    ( 0.0000,  0.0000,  1.5000)
  30 Ni     5.481440    7.275114    1.811211    ( 0.0000,  0.0000,  1.5000)
  31 Fe     5.461261    9.048153   10.833988    ( 0.0000,  0.0000,  1.5000)
  32 Ni     7.245704    7.257881    0.056891    ( 0.0000,  0.0000,  2.1000)
  33 Co     7.301969    9.004609    1.790315    ( 0.0000,  0.0000,  0.0000)
  34 Cr     9.029343    7.181775    1.815549    ( 0.0000,  0.0000,  2.0000)
  35 Ni     9.030561    9.042010    0.020232    ( 0.0000,  0.0000,  1.5000)
  36 Fe    -0.031046    0.001947    3.645701    ( 0.0000,  0.0000,  2.0000)
  37 Fe    10.825910    1.804351    5.434602    ( 0.0000,  0.0000,  2.1000)
  38 Ni     1.743552   10.849296    5.484376    ( 0.0000,  0.0000,  0.0000)
  39 Al     1.769755    1.791891    3.636068    ( 0.0000,  0.0000,  1.5000)
  40 Al     3.516667   10.719828    3.663227    ( 0.0000,  0.0000,  0.0000)
  41 Co     3.644244    1.785205    5.586728    ( 0.0000,  0.0000,  0.0000)
  42 Al     5.484778   10.815439    5.504022    ( 0.0000,  0.0000,  0.0000)
  43 Ni     5.457934    1.842230    3.658769    ( 0.0000,  0.0000,  0.0000)
  44 Ni     7.360615   10.815439    3.672229    ( 0.0000,  0.0000,  0.0000)
  45 Al     7.266884    1.811614    5.485528    ( 0.0000,  0.0000,  2.1000)
  46 Al     9.077986    0.023590    5.491921    ( 0.0000,  0.0000,  0.0000)
  47 Co     9.066788    1.824226    3.671175    ( 0.0000,  0.0000,  1.5000)
  48 Fe    -0.047135    3.649615    3.617291    ( 0.0000,  0.0000,  2.0000)
  49 Cr    10.809264    5.435993    5.379805    ( 0.0000,  0.0000,  2.0000)
  50 Cr     1.752316    3.624989    5.344676    ( 0.0000,  0.0000,  0.0000)
  51 Ni     1.805786    5.472046    3.619389    ( 0.0000,  0.0000,  2.1000)
[...]
  2. axis:    yes    0.000000   10.872400    0.000000    48     0.2265
  3. axis:    yes    0.000000    0.000000   10.872400    48     0.2265

  Lengths:  10.872400  10.872400  10.872400
  Angles:   90.000000  90.000000  90.000000

Effective grid spacing dv^(1/3) = 0.2265

     iter     time        total  log10-change:  magmom
                         energy  eigst   dens
iter:   1 04:19:25  -937.432724                  +120.1438
iter:   2 04:21:34  -845.068572  -0.27  -1.24    +79.4116
iter:   3 04:23:44  -839.591843  -0.71  -1.27    +47.2122
iter:   4 04:25:54  -819.705937  -1.14  -1.28    +42.7745
iter:   5 04:28:04  -812.110506  -1.68  -1.35    +41.2466
iter:   6 04:30:14  -813.579499  -1.67  -1.41    +40.1118
iter:   7 04:32:24  -809.886061  -1.44  -1.44    +39.1228
iter:   8 04:34:34  -804.002460  -1.64  -1.52    +39.2763
iter:   9 04:36:44  -804.865087  -2.02  -1.68    +40.1482
iter:  10 04:38:54  -805.173874  -2.13  -1.73    +40.6677
iter:  11 04:41:04  -803.375583  -2.38  -1.74    +41.2651
iter:  12 04:43:14  -803.365511  -2.58  -1.83    +42.3858
iter:  13 04:45:24  -805.001538  -2.45  -1.89    +43.5343
iter:  14 04:47:33  -804.578342  -2.43  -1.87    +43.8427
iter:  15 04:49:43  -804.396248  -2.60  -1.92    +44.7555
iter:  16 04:51:53  -805.772294  -2.50  -1.99    +45.8360
iter:  17 04:54:03  -804.724306  -2.60  -1.95    +46.3589
iter:  18 04:56:13  -804.290389  -2.87  -2.06    +46.7913
iter:  19 04:58:23  -804.720844  -2.91  -2.12    +47.6252
iter:  20 05:00:34  -804.700305  -2.91  -2.13    +48.0975
iter:  21 05:02:44  -804.665933c -3.08  -2.16    +48.6028
iter:  22 05:04:55  -804.964719  -3.06  -2.21    +48.9374
iter:  23 05:07:05  -804.978454  -3.02  -2.23    +49.3833
iter:  24 05:09:15  -804.996511c -3.15  -2.25    +49.7224
iter:  25 05:11:25  -805.041565c -3.30  -2.32    +49.9286
iter:  26 05:13:35  -805.199247  -3.27  -2.36    +50.0923
iter:  27 05:15:45  -805.165882  -3.46  -2.36    +50.1909
iter:  28 05:17:55  -805.303289  -3.47  -2.42    +50.4678
iter:  29 05:20:05  -805.383817  -3.57  -2.43    +50.4602
iter:  30 05:22:16  -805.406500  -3.71  -2.45    +50.5173
iter:  31 05:24:26  -805.462774c -3.82  -2.48    +50.5170
iter:  32 05:26:36  -805.535312  -3.78  -2.51    +50.5454
iter:  33 05:28:47  -805.589292  -3.93  -2.51    +50.5379
iter:  34 05:30:57  -805.671659  -3.84  -2.54    +50.5002
iter:  35 05:33:07  -805.725321  -3.67  -2.54    +50.5066
iter:  36 05:35:18  -805.781799  -3.53  -2.55    +50.3367
iter:  37 05:37:28  -805.798328c -3.63  -2.58    +50.3552
iter:  38 05:39:38  -805.859489c -3.54  -2.63    +50.3905
iter:  39 05:41:48  -805.814580c -3.76  -2.62    +50.3160
iter:  40 05:43:58  -805.803324c -3.89  -2.70    +50.2848
iter:  41 05:46:09  -805.815000c -4.35  -2.79    +50.2041
iter:  42 05:48:19  -805.827201c -4.76  -2.85    +50.2004
iter:  43 05:50:29  -805.887846c -4.01  -2.88    +50.0460
iter:  44 05:52:39  -805.969558  -3.61  -2.86    +49.8937
iter:  45 05:54:49  -806.037494  -3.51  -2.79    +49.8075
iter:  46 05:56:59  -806.026515c -4.24  -2.76    +49.8654
iter:  47 05:59:09  -806.013940c -4.20  -2.83    +49.8699
iter:  48 06:01:10  -806.037610c -4.49  -2.92    +49.8017
iter:  49 06:03:11  -806.067965c -3.81  -2.85    +49.7996
iter:  50 06:05:12  -805.997703c -4.01  -2.73    +49.8622
iter:  51 06:07:14  -806.013652c -4.21  -2.99    +49.7674
iter:  52 06:09:21  -805.997919c -4.65  -2.94    +49.7594
iter:  53 06:11:35  -806.003217c -4.87  -3.14    +49.7681
iter:  54 06:13:36  -806.004405c -5.03  -3.17    +49.7579
iter:  55 06:15:37  -806.014179c -4.82  -3.23    +49.7886
iter:  56 06:17:38  -806.017819c -4.83  -3.25    +49.7782
iter:  57 06:19:39  -806.018670c -4.64  -3.19    +49.8080
iter:  58 06:21:40  -806.022029c -5.02  -3.38    +49.8466
iter:  59 06:23:41  -806.026349c -5.31  -3.43    +49.8538
iter:  60 06:25:42  -806.032948c -5.21  -3.51    +49.8994
iter:  61 06:27:42  -806.028789c -5.98  -3.53    +49.8851
iter:  62 06:29:43  -806.018357c -5.02  -3.56    +49.8638
iter:  63 06:31:43  -806.028708c -5.25  -3.59    +49.8870
iter:  64 06:33:44  -806.021003c -5.19  -3.56    +49.8589
iter:  65 06:35:44  -806.027828c -5.27  -3.58    +49.9057
iter:  66 06:37:44  -806.024769c -5.96  -3.59    +49.9053
iter:  67 06:39:45  -806.026608c -5.77  -3.71    +49.9522
iter:  68 06:41:44  -806.032229c -5.42  -3.71    +49.9238
iter:  69 06:43:45  -806.033934c -5.85  -3.74    +49.9540
iter:  70 06:45:45  -806.042213c -5.27  -3.74    +49.9615
iter:  71 06:47:45  -806.040025c -6.42  -3.73    +49.9508
iter:  72 06:49:45  -806.047034c -5.44  -3.70    +49.9744
iter:  73 06:51:45  -806.055744c -5.18  -3.63    +50.0170
iter:  74 06:53:45  -806.059248c -5.48  -3.58    +50.0385
iter:  75 06:55:45  -806.067238c -5.15  -3.62    +50.0644
iter:  76 06:57:46  -806.070230c -5.55  -3.51    +50.0675
iter:  77 06:59:46  -806.074781c -5.38  -3.45    +50.0723
iter:  78 07:01:47  -806.078289c -5.20  -3.39    +50.0600
iter:  79 07:04:04  -806.084121c -5.05  -3.43    +50.0803
iter:  80 07:06:41  -806.092107c -4.83  -3.50    +50.0914
iter:  81 07:08:42  -806.090127c -5.19  -3.34    +50.0970
iter:  82 07:10:42  -806.092777c -5.31  -3.49    +50.0740
iter:  83 07:12:43  -806.098488c -5.23  -3.62    +50.0596
iter:  84 07:14:43  -806.097108c -5.80  -3.46    +50.0627
iter:  85 07:16:44  -806.100477c -5.44  -3.48    +50.0361
iter:  86 07:18:44  -806.105768c -5.20  -3.51    +50.0101
iter:  87 07:20:45  -806.115812c -4.67  -3.46    +49.9561
iter:  88 07:22:45  -806.125736c -4.33  -3.33    +49.8755
iter:  89 07:24:46  -806.122100c -5.50  -3.19    +49.9110
iter:  90 07:26:47  -806.122555c -5.38  -3.26    +49.8887
iter:  91 07:28:47  -806.122405c -5.68  -3.25    +49.8789
iter:  92 07:30:48  -806.133565c -4.56  -3.26    +49.8716
iter:  93 07:32:49  -806.118921c -5.02  -3.08    +49.8717
iter:  94 07:34:49  -806.122994c -4.78  -3.33    +49.8624
iter:  95 07:36:50  -806.117976c -5.06  -3.19    +49.8530
iter:  96 07:38:50  -806.117696c -5.22  -3.35    +49.7816
iter:  97 07:40:51  -806.120476c -5.13  -3.39    +49.7742
iter:  98 07:42:51  -806.122290c -4.78  -3.35    +49.7607
iter:  99 07:44:52  -806.117732c -4.94  -3.28    +49.7248
iter: 100 07:46:53  -806.119629c -5.15  -3.38    +49.6746
iter: 101 07:48:54  -806.117923c -5.23  -3.42    +49.6789
iter: 102 07:50:54  -806.117385c -5.45  -3.50    +49.6668
iter: 103 07:52:54  -806.116231c -5.76  -3.55    +49.6268
iter: 104 07:54:55  -806.117252c -5.89  -3.65    +49.5899
iter: 105 07:56:56  -806.118071c -5.62  -3.67    +49.5754
iter: 106 07:58:56  -806.117181c -5.95  -3.61    +49.5557
iter: 107 08:00:56  -806.118793c -5.57  -3.70    +49.5185
iter: 108 08:02:56  -806.118732c -5.60  -3.62    +49.5030
iter: 109 08:04:56  -806.119216c -5.70  -3.68    +49.4968
iter: 110 08:06:56  -806.118393c -5.96  -3.76    +49.4819
iter: 111 08:08:56  -806.118726c -5.97  -3.85    +49.4523
iter: 112 08:10:56  -806.118971c -6.33  -3.82    +49.4293
iter: 113 08:12:56  -806.119613c -6.29  -3.96    +49.4015
iter: 114 08:15:14  -806.114557c -4.52  -3.91    +49.6817
iter: 115 08:17:48  -806.115804c -5.94  -4.04c   +49.6195
iter: 116 08:19:48  -806.115828c -6.64  -4.06c   +49.6210
iter: 117 08:21:49  -806.115994c -6.38  -4.11c   +49.5970
iter: 118 08:23:48  -806.116529c -6.58  -4.12c   +49.5955
iter: 119 08:25:49  -806.116502c -6.29  -4.07c   +49.5746
iter: 120 08:27:50  -806.116734c -6.46  -4.16c   +49.5540
iter: 121 08:29:50  -806.116989c -6.71  -4.35c   +49.5412
iter: 122 08:31:50  -806.117063c -6.91  -4.36c   +49.5356
iter: 123 08:33:50  -806.117558c -6.39  -4.40c   +49.5089
iter: 124 08:35:51  -806.116363c -5.86  -4.43c   +49.5841
iter: 125 08:37:51  -806.113845c -4.88  -4.53c   +49.7822
iter: 126 08:39:51  -806.112864c -5.19  -4.21c   +49.8845
iter: 127 08:41:50  -806.112295c -5.36  -4.09c   +49.9609
iter: 128 08:43:50  -806.111255c -4.46  -4.00c   +50.2682
iter: 129 08:46:08  -806.111463c -5.20  -3.74    +50.3216
iter: 130 08:48:46  -806.111772c -5.73  -3.70    +50.3417
iter: 131 08:50:46  -806.111818c -6.13  -3.68    +50.3203
iter: 132 08:52:46  -806.111703c -6.10  -3.65    +50.3380
iter: 133 08:54:46  -806.112314c -5.55  -3.67    +50.3384
iter: 134 08:56:46  -806.113375c -5.20  -3.59    +50.3375
iter: 135 08:58:46  -806.112958c -5.29  -3.52    +50.3317
iter: 136 09:00:46  -806.111139c -5.74  -3.60    +50.3113
iter: 137 09:02:46  -806.111641c -5.98  -3.78    +50.3049
iter: 138 09:04:46  -806.110961c -6.00  -3.82    +50.2880
iter: 139 09:06:46  -806.111361c -5.99  -3.83    +50.2687
iter: 140 09:08:46  -806.111574c -5.99  -3.89    +50.2574
iter: 141 09:10:46  -806.111256c -5.97  -3.88    +50.2555
iter: 142 09:12:46  -806.111656c -5.95  -3.93    +50.2385
iter: 143 09:14:46  -806.110966c -6.17  -3.86    +50.2180
iter: 144 09:16:46  -806.111505c -6.36  -4.05c   +50.2032
iter: 145 09:18:45  -806.111297c -6.67  -4.12c   +50.1959
iter: 146 09:21:26  -806.111314c -6.67  -4.25c   +50.1768
iter: 147 09:23:41  -806.111422c -6.91  -4.26c   +50.1646
iter: 148 09:25:41  -806.111505c -6.73  -4.32c   +50.1506
iter: 149 09:27:41  -806.111549c -6.95  -4.27c   +50.1448
iter: 150 09:29:41  -806.111444c -6.67  -4.36c   +50.1259
iter: 151 09:31:41  -806.111693c -6.91  -4.33c   +50.1248
iter: 152 09:33:41  -806.111812c -6.70  -4.32c   +50.1086
iter: 153 09:35:41  -806.111762c -6.87  -4.42c   +50.1030
iter: 154 09:37:41  -806.111814c -6.91  -4.43c   +50.0882
iter: 155 09:39:40  -806.111836c -6.89  -4.54c   +50.0741
iter: 156 09:41:40  -806.111857c -7.90c -4.56c   +50.0765

Converged after 156 iterations.

Dipole moment: (29.749515, 16.503783, 7.694607) |e|*Ang

Total magnetic moment: (0.000000, 0.000000, 50.076503)
Local magnetic moments:
   0 Cr ( 0.000000,  0.000000, -2.012043)
   1 Al ( 0.000000,  0.000000, -0.029051)
   2 Ni ( 0.000000,  0.000000,  0.050433)
   3 Co ( 0.000000,  0.000000,  0.836587)
   4 Al ( 0.000000,  0.000000, -0.022542)
   5 Cr ( 0.000000,  0.000000, -2.361531)
   6 Co ( 0.000000,  0.000000,  1.024410)
   7 Al ( 0.000000,  0.000000, -0.021061)
   8 Al ( 0.000000,  0.000000, -0.047016)
   9 Fe ( 0.000000,  0.000000,  2.288750)
  10 Fe ( 0.000000,  0.000000,  2.263522)
  11 Fe ( 0.000000,  0.000000,  1.901544)
  12 Ni ( 0.000000,  0.000000,  0.116710)
  13 Cr ( 0.000000,  0.000000, -1.151696)
  14 Co ( 0.000000,  0.000000,  0.667455)
  15 Fe ( 0.000000,  0.000000,  2.051382)
  16 Ni ( 0.000000,  0.000000,  0.151606)
  17 Co ( 0.000000,  0.000000,  1.232067)
  18 Al ( 0.000000,  0.000000, -0.024973)
  19 Ni ( 0.000000,  0.000000,  0.392403)
  20 Co ( 0.000000,  0.000000,  0.948919)
  21 Al ( 0.000000,  0.000000, -0.003939)
  22 Cr ( 0.000000,  0.000000, -1.739549)
  23 Cr ( 0.000000,  0.000000, -0.558328)
  24 Cr ( 0.000000,  0.000000, -0.702054)
  25 Fe ( 0.000000,  0.000000,  2.045412)
  26 Fe ( 0.000000,  0.000000,  2.029875)
  27 Cr ( 0.000000,  0.000000, -1.772233)
  28 Fe ( 0.000000,  0.000000,  2.417586)
  29 Co ( 0.000000,  0.000000,  0.940523)
  30 Ni ( 0.000000,  0.000000,  0.182284)
  31 Fe ( 0.000000,  0.000000,  2.391430)
  32 Ni ( 0.000000,  0.000000,  0.379556)
  33 Co ( 0.000000,  0.000000,  1.199575)
  34 Cr ( 0.000000,  0.000000,  0.320144)
  35 Ni ( 0.000000,  0.000000,  0.101105)
  36 Fe ( 0.000000,  0.000000,  2.257734)
  37 Fe ( 0.000000,  0.000000,  2.093745)
  38 Ni ( 0.000000,  0.000000,  0.296455)
  39 Al ( 0.000000,  0.000000, -0.024851)
  40 Al ( 0.000000,  0.000000, -0.006602)
  41 Co ( 0.000000,  0.000000,  0.724240)
  42 Al ( 0.000000,  0.000000, -0.012317)
  43 Ni ( 0.000000,  0.000000, -0.001242)
  44 Ni ( 0.000000,  0.000000,  0.091775)
  45 Al ( 0.000000,  0.000000, -0.023031)
  46 Al ( 0.000000,  0.000000, -0.027158)
  47 Co ( 0.000000,  0.000000,  0.986941)
  48 Fe ( 0.000000,  0.000000,  1.828316)
  49 Cr ( 0.000000,  0.000000, -1.405658)
  50 Cr ( 0.000000,  0.000000, -1.969444)
  51 Ni ( 0.000000,  0.000000,  0.167596)
  52 Cr ( 0.000000,  0.000000,  1.917864)
  53 Co ( 0.000000,  0.000000,  0.672606)
  54 Ni ( 0.000000,  0.000000,  0.138768)
  55 Al ( 0.000000,  0.000000, -0.016697)
  56 Ni ( 0.000000,  0.000000,  0.031039)
  57 Cr ( 0.000000,  0.000000, -1.493539)
  58 Co ( 0.000000,  0.000000,  1.134485)
  59 Ni ( 0.000000,  0.000000, -0.012372)
[...]
  93 Co ( 0.000000,  0.000000,  1.376627)
  94 Fe ( 0.000000,  0.000000,  2.214359)
  95 Ni ( 0.000000,  0.000000,  0.213978)
  96 Cr ( 0.000000,  0.000000, -1.959341)
  97 Cr ( 0.000000,  0.000000,  1.586094)
  98 Ni ( 0.000000,  0.000000,  0.190366)
  99 Fe ( 0.000000,  0.000000,  2.156546)
 100 Al ( 0.000000,  0.000000, -0.032112)
 101 Ni ( 0.000000,  0.000000,  0.174585)
 102 Co ( 0.000000,  0.000000,  0.848082)
 103 Al ( 0.000000,  0.000000,  0.001568)
 104 Cr ( 0.000000,  0.000000,  0.087400)
 105 Al ( 0.000000,  0.000000, -0.023839)
 106 Fe ( 0.000000,  0.000000,  2.207729)
 107 Co ( 0.000000,  0.000000,  0.754701)

Energy contributions relative to reference atoms: (reference = -3235165.067515)

Kinetic:       +234.909179
Potential:     -228.021699
External:        +0.000000
XC:            -842.251713
Entropy (-ST):   -3.969839
Local:          +31.237296
Free energy:   -808.096777
Extrapolated:  -806.111857

Spin contamination: 30.078657 electrons
Showing only first 2 kpts
                      Up                     Down
 Kpt  Band  Eigenvalues  Occupancy  Eigenvalues  Occupancy
  0   454      9.04002    0.99330      9.87818    0.03286
  0   455      9.05256    0.99242      9.88172    0.03175
  0   456      9.06094    0.99176      9.89726    0.02731
  0   457      9.08710    0.98932      9.90765    0.02468

  1   454      9.03698    0.99350      9.85130    0.04256
  1   455      9.05350    0.99235      9.87483    0.03394
  1   456      9.06638    0.99130      9.89036    0.02920
  1   457      9.08016    0.99003      9.90055    0.02645

Fermi level: 9.53997

No gap

Forces in eV/Ang:
  0 Cr    0.25566   -1.13885   -0.40522
  1 Al    0.13084    0.20393   -0.73332
  2 Ni    0.00093    0.04630   -0.08457
  3 Co    0.22063   -0.15127   -0.11289
  4 Al   -0.15461    0.29087    0.00410
  5 Cr   -0.04109   -0.21150    0.83958
  6 Co   -0.25946    0.35669    0.89317
  7 Al   -0.64126    0.27848   -0.65153
  8 Al   -0.55580   -0.15618    1.93855
  9 Fe    0.29969   -0.16219    0.89182
 10 Fe    0.07775   -0.42326    0.37073
 11 Fe    0.48320    0.39468    0.15647
 12 Ni   -0.08480   -0.30112   -0.07085
 13 Cr    0.42787    0.08669    0.21690
 14 Co    0.30703    0.18307   -0.36032
 15 Fe    0.25667   -0.14140    0.57576
 16 Ni   -0.44185   -0.14882    0.30310
 17 Co   -0.42492    0.43018    0.26881
 18 Al   -0.38097   -0.47603   -0.05669
 19 Ni   -0.26950    0.11510   -0.35001
 20 Co    0.49902    0.20422    0.01158
 21 Al    0.43355    0.23968   -0.05859
 22 Cr   -0.87346   -0.21585    0.20937
 23 Cr   -0.09275    0.21690   -0.17106
 24 Cr    0.11650    0.93469    0.13763
 25 Fe   -0.28649    0.35798   -1.03915
 26 Fe   -0.02905   -0.30350   -0.03313
 27 Cr   -0.81488   -0.45324    0.16920
 28 Fe   -0.14737    0.04010    0.43840
 29 Co    0.23344   -0.12010    0.42511
 30 Ni   -0.61094    0.15687    0.10048
 31 Fe   -0.01762   -0.43581    0.58237
 32 Ni   -0.03274    0.03643   -0.46622
 33 Co   -0.15158    0.24360    0.57567
 34 Cr    0.63004    0.52278   -0.28218
 35 Ni    0.23523   -0.00538   -0.27549
 36 Fe   -0.36637   -0.21259   -0.22348
 37 Fe    0.24938    0.68651   -0.23110
 38 Ni    0.76774    0.09135   -0.18955
 39 Al    0.63496   -0.09954    0.48160
 40 Al    1.42129    1.19029   -0.43217
 41 Co   -0.08583    0.27831   -0.42086
 42 Al   -0.79447    1.77004   -1.12521
 43 Ni   -0.17898   -0.58639   -0.16081
 44 Ni   -0.75268    0.13936    0.01519
 45 Al   -0.33442    1.28715   -0.70322
 46 Al   -0.28949   -0.30415   -0.77460
 47 Co   -0.27096    0.31281   -0.29949
 48 Fe   -0.06392    0.51505    0.30688
 49 Cr   -0.12132    0.00333    0.09196
 50 Cr    0.54786    0.33242    0.87131
 51 Ni    0.31985   -0.20768    0.07900
 52 Cr   -0.77479   -0.40080    0.22439
 53 Co   -0.58649    0.12555    0.38258
 54 Ni   -0.15069   -0.53771   -0.10834
 55 Al   -0.38545    0.69174    0.77289
 56 Ni    0.23783   -0.29602   -0.81531
 57 Cr    0.58559   -0.19683    0.75336
 58 Co    0.12666    0.30452   -0.21856
 59 Ni   -0.27920   -0.64914   -0.04817
[...]
 93 Co   -0.11077    0.39918   -0.00741
 94 Fe   -0.24813   -0.24796    0.08699
 95 Ni    0.04698    0.00971    0.10734
 96 Cr    0.05552    0.62561    0.63545
 97 Cr   -0.47451   -0.79676    0.77146
 98 Ni   -0.29379   -0.05973   -0.07330
 99 Fe   -0.47259   -0.11106   -0.08774
100 Al   -0.58358   -0.61006   -0.27263
101 Ni    0.24263   -0.37997    0.15784
102 Co   -0.09436   -0.61963    0.06660
103 Al   -0.48614   -0.64038    1.09254
104 Cr    0.53715   -1.26012    0.86535
105 Al    0.03763   -1.80107   -0.16966
106 Fe    0.68805    0.12047   -0.41198
107 Co    0.54038   -0.75200    0.38855

Date: Sat Apr 15 09:42:01 2023