User:   c.zeng@d0080
Date:   Fri Apr 14 01:17:46 2023
Arch:   x86_64
Pid:    42181
CWD:    /home/c.zeng/projects/hea-corrosion/hea-mlp/data-curation/bulk-md/dft-jobs/78
Python: 3.8.1
gpaw:   /home/c.zeng/usr/installs/gpaw/source/gpaw-22.8.0/gpaw
_gpaw:  /home/c.zeng/usr/installs/gpaw/source/gpaw-22.8.0/
        _gpaw.cpython-38-x86_64-linux-gnu.so
ase:    /home/c.zeng/.local/lib/python3.8/site-packages/ase-3.22.1-py3.8.egg/ase (version 3.22.1)
numpy:  /shared/centos7/python/3.8.1/lib/python3.8/site-packages/numpy (version 1.17.4)
scipy:  /shared/centos7/python/3.8.1/lib/python3.8/site-packages/scipy (version 1.4.1)
units:  Angstrom and eV
cores: 30
OpenMP: False
OMP_NUM_THREADS: 1

Input parameters:
  convergence: {energy: 0.0001}
  kpts: [2 2 2]
  maxiter: 666
  mode: {ecut: 350.0,
         name: pw}
  occupations: {fixmagmom: False,
                name: fermi-dirac,
                width: 0.1}
  spinpol: True
  xc: PBE

System changes: positions, numbers, cell, pbc, initial_charges, initial_magmoms

Initialize ...

species:
  Fe:
    name: Iron
    id: 37abbd8d6c3c35915a9b583b742da910
    Z: 26.0
    valence: 8
    core: 18
    charge: 0.0
    file: /home/c.zeng/usr/data/gpaw-setups-0.9.20000/Fe.PBE.gz
    compensation charges: {type: gauss,
                           rc: 0.33,
                           lmax: 2}
    cutoffs: {filter: 2.06,
              core: 2.67}
    valence states:
      #              energy  rcut
      - 4s(2.00)    -5.291   1.164
      - 4p(0.00)    -1.326   1.058
      - 3d(6.00)    -7.505   1.058
      -  s          21.920   1.164
      -  p          25.885   1.058
      -  d          19.706   1.058

    # Using partial waves for Fe as LCAO basis

  Cr:
    name: Chromium
    id: 33f258bda2ca9f93018e70263a35547b
    Z: 24.0
    valence: 6
    core: 18
    charge: 0.0
    file: /home/c.zeng/usr/data/gpaw-setups-0.9.20000/Cr.PBE.gz
    compensation charges: {type: gauss,
                           rc: 0.35,
                           lmax: 2}
    cutoffs: {filter: 2.14,
              core: 3.04}
    valence states:
      #              energy  rcut
      - 4s(1.00)    -4.007   1.164
      - 4p(0.00)    -0.989   1.217
      - 3d(5.00)    -2.913   1.111
      -  s          23.205   1.164
      -  p          26.223   1.217
      -  d          24.299   1.111

[...]

  Ni:
    name: Nickel
    id: 0d9f38a9d6e76a2886f07bb4381f212b
    Z: 28.0
    valence: 16
    core: 12
    charge: 0.0
    file: /home/c.zeng/usr/data/gpaw-setups-0.9.20000/Ni.PBE.gz
    compensation charges: {type: gauss,
                           rc: 0.36,
                           lmax: 2}
    cutoffs: {filter: 2.14,
              core: 1.98}
    valence states:
      #              energy  rcut
      - 4s(2.00)    -5.642   1.164
      - 3p(6.00)   -71.394   1.207
      - 4p(0.00)    -1.226   1.207
      - 3d(8.00)    -8.875   1.138
      -  s          21.570   1.164
      -  d          18.337   1.138

[...]

  Al:
    name: Aluminium
    id: 0292cae29f5d6237e50f6abdd43a7bdd
    Z: 13.0
    valence: 3
    core: 10
    charge: 0.0
    file: /home/c.zeng/usr/data/gpaw-setups-0.9.20000/Al.PBE.gz
    compensation charges: {type: gauss,
                           rc: 0.34,
                           lmax: 2}
    cutoffs: {filter: 1.91,
              core: 2.36}
    valence states:
      #              energy  rcut
      - 3s(2.00)    -7.753   1.085
      - 3p(1.00)    -2.712   1.085
      -  s          19.459   1.085
      -  p          24.499   1.085
      -  d           0.000   1.085

[...]

  Co:
    name: Cobalt
    id: 339d20d5b0b93d2de9531a1bee871d91
    Z: 27.0
    valence: 9
    core: 18
    charge: 0.0
    file: /home/c.zeng/usr/data/gpaw-setups-0.9.20000/Co.PBE.gz
    compensation charges: {type: gauss,
                           rc: 0.32,
                           lmax: 2}
    cutoffs: {filter: 1.87,
              core: 2.55}
    valence states:
      #              energy  rcut
      - 4s(2.00)    -5.469   1.005
      - 4p(0.00)    -1.277   1.058
      - 3d(7.00)    -8.205   1.005
      -  s          21.742   1.005
      -  p          25.934   1.058
      -  d          19.007   1.005

    # Using partial waves for Co as LCAO basis

Reference energy: -3382523.201499  # eV

Spin-polarized calculation.
Magnetic moment: 128.800000

Convergence criteria:
 Maximum [total energy] change in last 3 cyles: 0.0001 eV / electron
 Maximum integral of absolute [dens]ity change: 0.0001 electrons / valence electron
 Maximum integral of absolute [eigenst]ate change: 4e-08 eV^2 / valence electron
 Maximum number of scf [iter]ations: 666
 (Square brackets indicate name in SCF output, whereas a 'c' in
 the SCF output indicates the quantity has converged.)

Symmetries present (total): 1

  ( 1  0  0)
  ( 0  1  0)
  ( 0  0  1)

8 k-points: 2 x 2 x 2 Monkhorst-Pack grid
4 k-points in the irreducible part of the Brillouin zone
       k-points in crystal coordinates                weights
   0:     0.25000000   -0.25000000   -0.25000000          2/8
   1:     0.25000000   -0.25000000    0.25000000          2/8
   2:     0.25000000    0.25000000   -0.25000000          2/8
   3:     0.25000000    0.25000000    0.25000000          2/8

Wave functions: Plane wave expansion
  Cutoff energy: 350.000 eV
  Number of coefficients (min, max): 18865, 18865
  Pulay-stress correction: 0.000000 eV/Ang^3 (de/decut=0.000000)
  Using FFTW library
  ScaLapack parameters: grid=1x1, blocksize=None
  Wavefunction extrapolation:
    Improved wavefunction reuse through dual PAW basis

Occupation numbers: Fermi-Dirac:
  width: 0.1000  # eV

Eigensolver
   Davidson(niter=2)

Densities:
  Coarse grid: 48*48*48 grid
  Fine grid: 96*96*96 grid
  Total Charge: 0.000000

Density mixing:
  Method: difference
  Backend: pulay
  Linear mixing parameter: 0.05
  old densities: 5
  Damping of long wavelength oscillations: 50

Hamiltonian:
  XC and Coulomb potentials evaluated on a 96*96*96 grid
  Using the PBE Exchange-Correlation functional
  External potential:
    NoExternalPotential

XC parameters: PBE with 2 nearest neighbor stencil

Total number of cores used: 30
Parallelization over k-points: 2
Domain decomposition: 5 x 3 x 1

Number of atoms: 108
Number of atomic orbitals: 961
Number of bands in calculation: 649
Number of valence electrons: 945
Bands to converge: occupied

... initialized

Initializing position-dependent things.

Density initialized from atomic densities
Creating initial wave functions:
  649 bands from LCAO basis set

        .--------------------------Fe
       /|                     Ni   |
     /  |      Al       Nii      Fe|
    /   FCr      FeCr     Co       |
   /    | Coi       CCr     Co     |
  /   Cr|   CFe       CrlCo   FFe  |
 *     Co     Cr Ni   Fe FFe    Ni |
 |      |CrFe    Co Al     CrCo   Co
 | Ni Co| AlNiCr  FAl ANi  Cr      Ni
 |     Co  NiFeFe    NNiNi    CCr  |
 |    FeCoFe   AlFe   NiAlCo       |
 |      |Al     CrFeCo    CCo     Cr
 |  Ni  .-CAlAl-------Ni--AlCCo----.
 |     /   Al       FeeCoNi     Cr/
 |    NCr    CrrNio    Fe Co     /
 |   / Fe          CrCo    Al   /
 |Cr/       Fe          Ni     /
 | /iNi         Al            /
 *--------Al----------------*

Positions:
   0 Fe    10.684028   10.630699   10.619329    ( 0.0000,  0.0000,  2.0000)
   1 Cr    10.928182    1.815203    1.667011    ( 0.0000,  0.0000,  0.0000)
   2 Ni     1.679594    0.201012    1.578559    ( 0.0000,  0.0000,  1.5000)
   3 Cr     1.552084    2.006938   10.650445    ( 0.0000,  0.0000,  0.0000)
   4 Al     3.519834    0.024358    0.194055    ( 0.0000,  0.0000,  0.0000)
   5 Fe     3.773328    1.715264    1.961939    ( 0.0000,  0.0000,  2.0000)
   6 Ni     5.539023   10.612822    1.763802    ( 0.0000,  0.0000,  1.5000)
   7 Al     5.630143    1.901519    0.397295    ( 0.0000,  0.0000,  0.0000)
   8 Al     7.422074   10.605118    0.228164    ( 0.0000,  0.0000,  0.0000)
   9 Co     7.310364    2.282080    2.086357    ( 0.0000,  0.0000,  2.1000)
  10 Ni     9.071344    0.336391    2.015949    ( 0.0000,  0.0000,  1.5000)
  11 Co     8.999906    1.651601   -0.173355    ( 0.0000,  0.0000,  2.1000)
  12 Ni     0.074884    3.419046   10.876621    ( 0.0000,  0.0000,  1.5000)
  13 Cr    10.813895    5.448201    2.040721    ( 0.0000,  0.0000,  0.0000)
  14 Fe     1.575129    3.658438    1.698962    ( 0.0000,  0.0000,  2.0000)
  15 Cr     1.644607    5.308454   10.736834    ( 0.0000,  0.0000,  0.0000)
  16 Co     3.698269    3.447515   11.071984    ( 0.0000,  0.0000,  2.1000)
  17 Cr     3.561776    5.197629    1.697103    ( 0.0000,  0.0000,  0.0000)
  18 Co     5.517559    3.999613    1.686477    ( 0.0000,  0.0000,  2.1000)
  19 Fe     5.184846    5.334561   -0.093232    ( 0.0000,  0.0000,  2.0000)
  20 Cr     7.256752    3.597569   -0.081010    ( 0.0000,  0.0000,  0.0000)
  21 Fe     7.297901    5.458507    1.526987    ( 0.0000,  0.0000,  2.0000)
  22 Co     9.003319    3.645058    1.985568    ( 0.0000,  0.0000,  2.1000)
  23 Al     9.116343    5.418401   10.853580    ( 0.0000,  0.0000,  0.0000)
  24 Ni    11.034218    7.112799   10.821460    ( 0.0000,  0.0000,  1.5000)
  25 Cr    10.813897    9.096479    1.705170    ( 0.0000,  0.0000,  0.0000)
  26 Cr     1.643749    7.065048    1.773973    ( 0.0000,  0.0000,  0.0000)
  27 Al     1.542146    9.009126    0.028680    ( 0.0000,  0.0000,  0.0000)
  28 Cr     3.441837    7.000488    0.268928    ( 0.0000,  0.0000,  0.0000)
  29 Cr     3.812383    8.961798    1.781461    ( 0.0000,  0.0000,  0.0000)
  30 Fe     5.614809    7.190983    1.515457    ( 0.0000,  0.0000,  2.0000)
  31 Fe     5.484608    9.006145    0.046424    ( 0.0000,  0.0000,  2.0000)
  32 Ni     7.440792    7.257426   -0.209645    ( 0.0000,  0.0000,  1.5000)
  33 Cr     7.572977    8.729817    1.736239    ( 0.0000,  0.0000,  0.0000)
  34 Co     9.137839    7.035341    1.971713    ( 0.0000,  0.0000,  2.1000)
  35 Ni     9.156278    8.813440   10.707136    ( 0.0000,  0.0000,  1.5000)
  36 Ni    -0.017358   10.797297    3.453085    ( 0.0000,  0.0000,  1.5000)
  37 Co    10.698768    1.397277    5.416355    ( 0.0000,  0.0000,  2.1000)
  38 Co     1.803395   10.678001    5.533830    ( 0.0000,  0.0000,  2.1000)
  39 Cr     1.791057    1.597869    3.423708    ( 0.0000,  0.0000,  0.0000)
  40 Fe     3.931319   10.759488    3.621853    ( 0.0000,  0.0000,  2.0000)
  41 Al     3.619975    1.655049    5.046580    ( 0.0000,  0.0000,  0.0000)
  42 Fe     5.750163   10.731780    5.341684    ( 0.0000,  0.0000,  2.0000)
  43 Ni     5.495386    2.031902    3.370389    ( 0.0000,  0.0000,  1.5000)
  44 Cr     7.347312    0.182963    3.406080    ( 0.0000,  0.0000,  0.0000)
  45 Co     7.263273    1.879081    5.576475    ( 0.0000,  0.0000,  2.1000)
  46 Co     8.747565   10.898492    5.233684    ( 0.0000,  0.0000,  2.1000)
  47 Ni     8.978662    2.074352    3.698467    ( 0.0000,  0.0000,  1.5000)
  48 Ni    11.112441    3.501482    3.628803    ( 0.0000,  0.0000,  1.5000)
  49 Cr    10.697995    5.217111    5.594238    ( 0.0000,  0.0000,  0.0000)
  50 Co     1.782807    3.801045    5.427697    ( 0.0000,  0.0000,  2.1000)
  51 Al     1.781807    5.469827    3.430447    ( 0.0000,  0.0000,  0.0000)
  52 Al     3.733119    3.763964    3.477568    ( 0.0000,  0.0000,  0.0000)
  53 Fe     3.552184    5.468616    5.535269    ( 0.0000,  0.0000,  2.0000)
  54 Fe     5.578298    3.648945    5.160459    ( 0.0000,  0.0000,  2.0000)
  55 Fe     5.322924    5.595755    3.431816    ( 0.0000,  0.0000,  2.0000)
  56 Ni     7.379052    3.832317    3.608596    ( 0.0000,  0.0000,  1.5000)
  57 Ni     6.920044    5.401384    5.483285    ( 0.0000,  0.0000,  1.5000)
  58 Co     9.094067    3.579723    5.422186    ( 0.0000,  0.0000,  2.1000)
  59 Co     8.947186    5.724530    3.798663    ( 0.0000,  0.0000,  2.1000)
[...]
  93 Cr     7.135902    5.525788    8.934933    ( 0.0000,  0.0000,  0.0000)
  94 Fe     9.176017    3.526810    9.029334    ( 0.0000,  0.0000,  2.0000)
  95 Cr     8.949937    5.228368    7.331695    ( 0.0000,  0.0000,  0.0000)
  96 Ni    10.768803    7.075317    7.243401    ( 0.0000,  0.0000,  1.5000)
  97 Fe    10.668210    8.913133    8.986467    ( 0.0000,  0.0000,  2.0000)
  98 Co     1.810347    7.111021    9.032281    ( 0.0000,  0.0000,  2.1000)
  99 Ni     1.821113    9.034318    7.492149    ( 0.0000,  0.0000,  1.5000)
 100 Cr     3.530835    7.129644    7.231557    ( 0.0000,  0.0000,  0.0000)
 101 Al     3.370988    8.836746    9.269617    ( 0.0000,  0.0000,  0.0000)
 102 Cr     5.232824    7.017703    9.218671    ( 0.0000,  0.0000,  0.0000)
 103 Co     5.387276    9.214279    7.565552    ( 0.0000,  0.0000,  2.1000)
 104 Al     7.051273    7.454759    7.467054    ( 0.0000,  0.0000,  0.0000)
 105 Ni     7.335436    9.059727    9.072075    ( 0.0000,  0.0000,  1.5000)
 106 Co     9.033552    7.314457    8.947303    ( 0.0000,  0.0000,  2.1000)
 107 Fe     9.199725    9.067628    7.141608    ( 0.0000,  0.0000,  2.0000)

Unit cell:
           periodic     x           y           z      points  spacing
  1. axis:    yes   10.820500    0.000000    0.000000    48     0.2254
  2. axis:    yes    0.000000   10.820500    0.000000    48     0.2254
  3. axis:    yes    0.000000    0.000000   10.820500    48     0.2254

  Lengths:  10.820500  10.820500  10.820500
  Angles:   90.000000  90.000000  90.000000

Effective grid spacing dv^(1/3) = 0.2254

     iter     time        total  log10-change:  magmom
                         energy  eigst   dens
iter:   1 01:22:41  -969.972263                  +129.0867
iter:   2 01:24:52  -858.558624  -0.23  -1.18    +72.1606
iter:   3 01:27:03  -845.691795  -0.88  -1.22    +61.8032
iter:   4 01:29:14  -832.501198  -1.27  -1.29    +57.9779
iter:   5 01:31:25  -822.948940  -1.53  -1.29    +56.0652
iter:   6 01:33:37  -819.844499  -1.32  -1.36    +56.2105
iter:   7 01:35:48  -819.221887  -1.29  -1.44    +55.3178
iter:   8 01:37:59  -809.146858  -1.69  -1.52    +56.0486
iter:   9 01:40:11  -808.877638  -1.94  -1.68    +57.0293
iter:  10 01:42:23  -806.682618  -2.37  -1.73    +57.4198
iter:  11 01:44:34  -807.139550  -2.51  -1.81    +58.7091
iter:  12 01:46:45  -808.889816  -2.29  -1.84    +59.8238
iter:  13 01:49:13  -807.912187  -2.34  -1.84    +59.9851
iter:  14 01:52:14  -807.802956  -2.52  -1.94    +60.0367
iter:  15 01:54:30  -807.606246  -2.63  -1.98    +60.6339
iter:  16 01:56:41  -807.412992  -2.80  -2.03    +61.0787
iter:  17 01:58:52  -807.140537  -3.15  -2.07    +61.1426
iter:  18 02:01:05  -808.104480  -2.76  -2.16    +61.4168
iter:  19 02:03:16  -807.579998  -2.90  -2.09    +61.6855
iter:  20 02:05:28  -807.718179  -2.88  -2.18    +61.4112
iter:  21 02:07:39  -807.184627  -3.04  -2.21    +61.2637
iter:  22 02:09:50  -807.435217  -3.02  -2.42    +61.4126
iter:  23 02:12:03  -807.203922  -3.42  -2.39    +61.4864
iter:  24 02:14:14  -807.224655  -3.71  -2.50    +61.4297
iter:  25 02:16:25  -807.283355c -3.64  -2.57    +61.5068
iter:  26 02:18:37  -807.254859c -3.83  -2.56    +61.5617
iter:  27 02:20:48  -807.292813c -3.87  -2.66    +61.4497
iter:  28 02:22:59  -807.293600c -4.16  -2.69    +61.4656
iter:  29 02:25:12  -807.317207c -4.10  -2.74    +61.4504
iter:  30 02:27:23  -807.336471c -4.23  -2.78    +61.3757
iter:  31 02:29:34  -807.344923c -4.29  -2.81    +61.3438
iter:  32 02:31:45  -807.363452c -4.41  -2.86    +61.3651
iter:  33 02:33:56  -807.382886c -4.38  -2.90    +61.2583
iter:  34 02:36:09  -807.393084c -4.46  -2.91    +61.2997
iter:  35 02:38:20  -807.408898c -4.56  -2.95    +61.2597
iter:  36 02:40:32  -807.418369c -4.53  -2.97    +61.1553
iter:  37 02:42:44  -807.427094c -4.69  -3.02    +61.1458
iter:  38 02:44:57  -807.439036c -4.63  -3.04    +61.1452
iter:  39 02:47:09  -807.450486c -4.66  -3.09    +61.0783
iter:  40 02:49:22  -807.459157c -4.75  -3.12    +61.1072
iter:  41 02:51:35  -807.467022c -4.82  -3.15    +61.0648
iter:  42 02:53:47  -807.478069c -4.68  -3.17    +60.9340
iter:  43 02:55:59  -807.481728c -4.95  -3.21    +60.9479
iter:  44 02:58:11  -807.487860c -5.02  -3.24    +60.9399
iter:  45 03:00:23  -807.493310c -4.99  -3.29    +60.8903
iter:  46 03:02:35  -807.498110c -5.08  -3.31    +60.9125
iter:  47 03:04:47  -807.500917c -5.26  -3.34    +60.8851
iter:  48 03:07:36  -807.504823c -5.14  -3.38    +60.8375
iter:  49 03:10:18  -807.506957c -5.35  -3.42    +60.8265
iter:  50 03:12:30  -807.510262c -5.41  -3.45    +60.8118
iter:  51 03:14:43  -807.513703c -5.20  -3.48    +60.7712
iter:  52 03:16:55  -807.516273c -5.35  -3.48    +60.7846
iter:  53 03:19:07  -807.517365c -5.58  -3.53    +60.7603
iter:  54 03:21:19  -807.519752c -5.53  -3.58    +60.7250
iter:  55 03:23:30  -807.522314c -5.43  -3.60    +60.6995
iter:  56 03:25:44  -807.524252c -5.60  -3.61    +60.6762
iter:  57 03:27:56  -807.526198c -5.55  -3.66    +60.6320
iter:  58 03:30:08  -807.529897c -5.29  -3.68    +60.5956
iter:  59 03:32:21  -807.535199c -4.98  -3.69    +60.5105
iter:  60 03:34:33  -807.548246c -3.98  -3.61    +60.2289
iter:  61 03:36:45  -807.545616c -5.31  -3.42    +60.3202
iter:  62 03:38:57  -807.545662c -5.64  -3.49    +60.3156
iter:  63 03:41:10  -807.546030c -6.00  -3.53    +60.3261
iter:  64 03:43:22  -807.546865c -5.71  -3.51    +60.3228
iter:  65 03:45:34  -807.543791c -5.45  -3.47    +60.3251
iter:  66 03:47:46  -807.544185c -5.66  -3.65    +60.3156
iter:  67 03:49:58  -807.543456c -5.62  -3.64    +60.3009
iter:  68 03:52:11  -807.543524c -5.91  -3.61    +60.2985
iter:  69 03:54:23  -807.543041c -6.34  -3.68    +60.2754
iter:  70 03:56:22  -807.543619c -5.92  -3.74    +60.2657
iter:  71 03:58:01  -807.543439c -6.14  -3.69    +60.2687
iter:  72 04:00:21  -807.542879c -6.30  -3.77    +60.2561
iter:  73 04:02:42  -807.542820c -6.62  -3.89    +60.2580
iter:  74 04:05:02  -807.542936c -6.70  -3.93    +60.2643
iter:  75 04:07:22  -807.542872c -6.71  -3.94    +60.2668
iter:  76 04:09:42  -807.542959c -6.53  -3.99    +60.2735
iter:  77 04:12:02  -807.543062c -6.40  -4.00c   +60.2771
iter:  78 04:14:23  -807.542695c -6.66  -4.03c   +60.2730
iter:  79 04:16:43  -807.542885c -6.90  -4.23c   +60.2752
iter:  80 04:19:03  -807.542706c -6.92  -4.28c   +60.2783
iter:  81 04:21:22  -807.542767c -7.26  -4.28c   +60.2787
iter:  82 04:23:42  -807.542797c -7.20  -4.34c   +60.2813
iter:  83 04:26:02  -807.542870c -7.03  -4.37c   +60.2844
iter:  84 04:28:22  -807.542787c -7.32  -4.34c   +60.2820
iter:  85 04:30:42  -807.542907c -7.42c -4.45c   +60.2832

Converged after 85 iterations.

Dipole moment: (6.924168, 1.669190, -0.383065) |e|*Ang

Total magnetic moment: (0.000000, 0.000000, 60.283154)
Local magnetic moments:
   0 Fe ( 0.000000,  0.000000,  1.955636)
   1 Cr ( 0.000000,  0.000000,  0.948763)
   2 Ni ( 0.000000,  0.000000, -0.002985)
   3 Cr ( 0.000000,  0.000000, -0.994344)
   4 Al ( 0.000000,  0.000000, -0.008530)
   5 Fe ( 0.000000,  0.000000,  2.118295)
   6 Ni ( 0.000000,  0.000000,  0.042789)
   7 Al ( 0.000000,  0.000000, -0.020317)
   8 Al ( 0.000000,  0.000000, -0.018440)
   9 Co ( 0.000000,  0.000000,  1.195002)
  10 Ni ( 0.000000,  0.000000,  0.007875)
  11 Co ( 0.000000,  0.000000,  1.131762)
  12 Ni ( 0.000000,  0.000000,  0.077203)
  13 Cr ( 0.000000,  0.000000, -0.565394)
  14 Fe ( 0.000000,  0.000000,  0.676793)
  15 Cr ( 0.000000,  0.000000, -1.310063)
  16 Co ( 0.000000,  0.000000,  0.895647)
  17 Cr ( 0.000000,  0.000000, -0.265157)
  18 Co ( 0.000000,  0.000000,  0.932736)
  19 Fe ( 0.000000,  0.000000,  1.799709)
  20 Cr ( 0.000000,  0.000000, -2.158730)
  21 Fe ( 0.000000,  0.000000,  2.272734)
  22 Co ( 0.000000,  0.000000,  1.342306)
  23 Al ( 0.000000,  0.000000, -0.027846)
  24 Ni ( 0.000000,  0.000000,  0.027327)
  25 Cr ( 0.000000,  0.000000, -1.384888)
  26 Cr ( 0.000000,  0.000000, -0.044148)
  27 Al ( 0.000000,  0.000000, -0.018841)
  28 Cr ( 0.000000,  0.000000,  0.345831)
  29 Cr ( 0.000000,  0.000000, -1.440546)
  30 Fe ( 0.000000,  0.000000,  2.074619)
  31 Fe ( 0.000000,  0.000000,  2.008055)
  32 Ni ( 0.000000,  0.000000,  0.235303)
  33 Cr ( 0.000000,  0.000000, -1.690596)
  34 Co ( 0.000000,  0.000000,  0.567779)
  35 Ni ( 0.000000,  0.000000,  0.183293)
  36 Ni ( 0.000000,  0.000000,  0.173370)
  37 Co ( 0.000000,  0.000000,  1.742681)
  38 Co ( 0.000000,  0.000000,  1.361155)
  39 Cr ( 0.000000,  0.000000, -1.849862)
  40 Fe ( 0.000000,  0.000000,  1.883391)
  41 Al ( 0.000000,  0.000000, -0.033870)
  42 Fe ( 0.000000,  0.000000,  2.365320)
  43 Ni ( 0.000000,  0.000000,  0.468508)
  44 Cr ( 0.000000,  0.000000, -1.524130)
  45 Co ( 0.000000,  0.000000,  1.464727)
  46 Co ( 0.000000,  0.000000,  1.286593)
  47 Ni ( 0.000000,  0.000000,  0.470128)
  48 Ni ( 0.000000,  0.000000,  0.200454)
  49 Cr ( 0.000000,  0.000000,  1.283229)
  50 Co ( 0.000000,  0.000000,  0.986669)
  51 Al ( 0.000000,  0.000000, -0.019220)
  52 Al ( 0.000000,  0.000000, -0.031059)
  53 Fe ( 0.000000,  0.000000,  2.016730)
  54 Fe ( 0.000000,  0.000000,  2.529575)
  55 Fe ( 0.000000,  0.000000,  2.038313)
  56 Ni ( 0.000000,  0.000000,  0.565635)
  57 Ni ( 0.000000,  0.000000,  0.267206)
  58 Co ( 0.000000,  0.000000,  0.990365)
  59 Co ( 0.000000,  0.000000,  0.257254)
[...]
  93 Cr ( 0.000000,  0.000000,  1.760105)
  94 Fe ( 0.000000,  0.000000,  2.085228)
  95 Cr ( 0.000000,  0.000000, -1.189778)
  96 Ni ( 0.000000,  0.000000,  0.255053)
  97 Fe ( 0.000000,  0.000000,  2.196198)
  98 Co ( 0.000000,  0.000000,  0.278073)
  99 Ni ( 0.000000,  0.000000,  0.365807)
 100 Cr ( 0.000000,  0.000000,  0.907932)
 101 Al ( 0.000000,  0.000000, -0.012379)
 102 Cr ( 0.000000,  0.000000, -1.440190)
 103 Co ( 0.000000,  0.000000,  1.033511)
 104 Al ( 0.000000,  0.000000, -0.022208)
 105 Ni ( 0.000000,  0.000000,  0.334107)
 106 Co ( 0.000000,  0.000000,  1.096441)
 107 Fe ( 0.000000,  0.000000,  2.292078)

Energy contributions relative to reference atoms: (reference = -3382523.201499)

Kinetic:       +471.693581
Potential:     -430.593556
External:        +0.000000
XC:            -879.619975
Entropy (-ST):   -4.171449
Local:          +33.062767
Free energy:   -809.628631
Extrapolated:  -807.542907

Spin contamination: 25.900670 electrons
Showing only first 2 kpts
                      Up                     Down
 Kpt  Band  Eigenvalues  Occupancy  Eigenvalues  Occupancy
  0   470      9.16244    0.99645     10.10059    0.02309
  0   471      9.17376    0.99602     10.10912    0.02124
  0   472      9.19740    0.99497     10.12042    0.01902
  0   473      9.21517    0.99400     10.12638    0.01794

  1   470      9.16184    0.99647     10.08601    0.02662
  1   471      9.17555    0.99595     10.10571    0.02196
  1   472      9.19876    0.99490     10.11475    0.02010
  1   473      9.20181    0.99474     10.13322    0.01677

Fermi level: 9.72609

No gap

Forces in eV/Ang:
  0 Fe   -0.56665    1.89175    0.92723
  1 Cr   -1.21428    0.05116    1.05282
  2 Ni    0.62436   -1.83665    0.22388
  3 Cr    2.69965   -2.05554    0.57935
  4 Al    0.75698    0.64639   -0.25747
  5 Fe   -2.10589    0.56855   -0.12608
  6 Ni    0.31156    1.48962    0.35524
  7 Al   -0.95954   -0.65520   -0.42081
  8 Al    0.51717    1.26732   -0.84143
  9 Co    0.23375   -2.69880   -2.62294
 10 Ni   -0.08881   -0.55111   -2.17139
 11 Co    0.33739    1.43052    1.46628
 12 Ni   -3.96088    3.10124   -1.76058
 13 Cr   -1.15953   -1.00651   -1.60801
 14 Fe    2.32881    0.01457    0.84918
 15 Cr    0.40973   -1.22179   -0.38784
 16 Co   -1.37361   -0.18197   -1.31352
 17 Cr   -0.32038    2.33974   -1.50621
 18 Co    0.81969   -1.59081    1.77989
 19 Fe    0.99021   -0.17806   -0.68648
 20 Cr    1.16182    1.64915    0.10030
 21 Fe   -0.26139    0.20185    1.44278
 22 Co    1.95879    1.07013   -1.61922
 23 Al    1.00190    0.15729   -0.98389
 24 Ni   -2.49806   -0.06291   -0.50703
 25 Cr   -2.44995   -0.16003    1.60204
 26 Cr   -0.15622    1.67177   -0.59293
 27 Al    1.65324   -0.27655   -0.18629
 28 Cr   -0.29663    0.51912    0.20523
 29 Cr   -0.25404    1.54711   -1.62581
 30 Fe   -0.43018   -0.15769    1.31541
 31 Fe   -0.24582   -0.45120   -1.41963
 32 Ni   -1.30419   -0.72230    0.93589
 33 Cr   -0.84990    0.39903    0.91408
 34 Co    0.09875    1.27473   -1.23010
 35 Ni   -0.15162    0.49005    1.29186
 36 Ni    1.09639    1.03845    0.16267
 37 Co    0.73803    1.39843    0.24018
 38 Co    0.26442    0.20509   -1.25669
 39 Cr   -0.21772    0.88394    0.49784
 40 Fe   -1.02665   -1.15775   -1.46511
 41 Al    0.32129    1.15088    2.69607
 42 Fe   -0.34811    0.98069    0.71460
 43 Ni    0.27519   -0.80413    1.27502
 44 Cr   -1.21172   -0.24327    0.79404
 45 Co   -0.87139   -0.43866   -1.27795
 46 Co    0.59609   -0.73320    0.61259
 47 Ni    1.01316   -1.26076    0.27660
 48 Ni   -1.83533   -0.03821    0.56131
 49 Cr    0.34569    1.26687   -1.31710
 50 Co    0.40969   -0.99351   -0.50851
 51 Al    0.83114   -1.54134    3.74377
 52 Al   -0.88845   -1.56402    1.30381
 53 Fe   -0.15881   -0.51106   -1.31152
 54 Fe   -1.83210   -0.87117    1.14864
 55 Fe    0.91063   -0.17338    0.34691
 56 Ni   -1.00193    1.44634    1.27184
 57 Ni    0.98781    1.45218    0.19881
 58 Co    0.14941    0.40611   -0.03691
 59 Co    1.08862   -2.25446    0.62622
[...]
 93 Cr    0.12527   -1.74972    0.48439
 94 Fe   -0.79111   -0.20085   -0.19641
 95 Cr    1.69278    2.75989    0.02683
 96 Ni    0.35648    0.52440   -0.39840
 97 Fe    1.60694    0.08182   -0.75539
 98 Co   -0.82279   -0.14109    0.27145
 99 Ni   -0.17541   -0.16595   -1.11596
100 Cr    0.40737    0.63125    1.03737
101 Al    2.10756    1.01037   -1.31667
102 Cr    0.37179    0.62162   -0.34358
103 Co   -0.66549   -0.04390   -0.63227
104 Al   -0.19598   -1.63809    0.43581
105 Ni   -0.61771    0.92427    0.35793
106 Co    0.52596   -1.45329   -0.81439
107 Fe   -0.56333   -0.21188   -0.46503

Date: Fri Apr 14 04:31:03 2023