User:   c.zeng@d0024
Date:   Sat Apr 15 17:12:57 2023
Arch:   x86_64
Pid:    95087
CWD:    /home/c.zeng/projects/hea-corrosion/hea-mlp/data-curation/bulk-mcmc/dft-jobs/61
Python: 3.8.1
gpaw:   /home/c.zeng/usr/installs/gpaw/source/gpaw-22.8.0/gpaw
_gpaw:  /home/c.zeng/usr/installs/gpaw/source/gpaw-22.8.0/
        _gpaw.cpython-38-x86_64-linux-gnu.so
ase:    /home/c.zeng/.local/lib/python3.8/site-packages/ase-3.22.1-py3.8.egg/ase (version 3.22.1)
numpy:  /shared/centos7/python/3.8.1/lib/python3.8/site-packages/numpy (version 1.17.4)
scipy:  /shared/centos7/python/3.8.1/lib/python3.8/site-packages/scipy (version 1.4.1)
units:  Angstrom and eV
cores: 30
OpenMP: False
OMP_NUM_THREADS: 1

Input parameters:
  convergence: {energy: 0.0001}
  kpts: [2 2 2]
  maxiter: 666
  mode: {ecut: 350.0,
         name: pw}
  occupations: {fixmagmom: False,
                name: fermi-dirac,
                width: 0.1}
  spinpol: True
  xc: PBE

System changes: positions, numbers, cell, pbc, initial_charges, initial_magmoms

Initialize ...

species:
  Ni:
    name: Nickel
    id: 0d9f38a9d6e76a2886f07bb4381f212b
    Z: 28.0
    valence: 16
    core: 12
    charge: 0.0
    file: /home/c.zeng/usr/data/gpaw-setups-0.9.20000/Ni.PBE.gz
    compensation charges: {type: gauss,
                           rc: 0.36,
                           lmax: 2}
    cutoffs: {filter: 2.14,
              core: 1.98}
    valence states:
      #              energy  rcut
      - 4s(2.00)    -5.642   1.164
      - 3p(6.00)   -71.394   1.207
      - 4p(0.00)    -1.226   1.207
      - 3d(8.00)    -8.875   1.138
      -  s          21.570   1.164
      -  d          18.337   1.138

    # Using partial waves for Ni as LCAO basis

  Cr:
    name: Chromium
    id: 33f258bda2ca9f93018e70263a35547b
    Z: 24.0
    valence: 6
    core: 18
    charge: 0.0
    file: /home/c.zeng/usr/data/gpaw-setups-0.9.20000/Cr.PBE.gz
    compensation charges: {type: gauss,
                           rc: 0.35,
                           lmax: 2}
    cutoffs: {filter: 2.14,
              core: 3.04}
    valence states:
      #              energy  rcut
      - 4s(1.00)    -4.007   1.164
      - 4p(0.00)    -0.989   1.217
      - 3d(5.00)    -2.913   1.111
      -  s          23.205   1.164
      -  p          26.223   1.217
      -  d          24.299   1.111

[...]

  Fe:
    name: Iron
    id: 37abbd8d6c3c35915a9b583b742da910
    Z: 26.0
    valence: 8
    core: 18
    charge: 0.0
    file: /home/c.zeng/usr/data/gpaw-setups-0.9.20000/Fe.PBE.gz
    compensation charges: {type: gauss,
                           rc: 0.33,
                           lmax: 2}
    cutoffs: {filter: 2.06,
              core: 2.67}
    valence states:
      #              energy  rcut
      - 4s(2.00)    -5.291   1.164
      - 4p(0.00)    -1.326   1.058
      - 3d(6.00)    -7.505   1.058
      -  s          21.920   1.164
      -  p          25.885   1.058
      -  d          19.706   1.058

[...]

  Co:
    name: Cobalt
    id: 339d20d5b0b93d2de9531a1bee871d91
    Z: 27.0
    valence: 9
    core: 18
    charge: 0.0
    file: /home/c.zeng/usr/data/gpaw-setups-0.9.20000/Co.PBE.gz
    compensation charges: {type: gauss,
                           rc: 0.32,
                           lmax: 2}
    cutoffs: {filter: 1.87,
              core: 2.55}
    valence states:
      #              energy  rcut
      - 4s(2.00)    -5.469   1.005
      - 4p(0.00)    -1.277   1.058
      - 3d(7.00)    -8.205   1.005
      -  s          21.742   1.005
      -  p          25.934   1.058
      -  d          19.007   1.005

[...]

  Al:
    name: Aluminium
    id: 0292cae29f5d6237e50f6abdd43a7bdd
    Z: 13.0
    valence: 3
    core: 10
    charge: 0.0
    file: /home/c.zeng/usr/data/gpaw-setups-0.9.20000/Al.PBE.gz
    compensation charges: {type: gauss,
                           rc: 0.34,
                           lmax: 2}
    cutoffs: {filter: 1.91,
              core: 2.36}
    valence states:
      #              energy  rcut
      - 3s(2.00)    -7.753   1.085
      - 3p(1.00)    -2.712   1.085
      -  s          19.459   1.085
      -  p          24.499   1.085
      -  d           0.000   1.085

    # Using partial waves for Al as LCAO basis

Reference energy: -3699400.456887  # eV

Spin-polarized calculation.
Magnetic moment: 143.500000

Convergence criteria:
 Maximum [total energy] change in last 3 cyles: 0.0001 eV / electron
 Maximum integral of absolute [dens]ity change: 0.0001 electrons / valence electron
 Maximum integral of absolute [eigenst]ate change: 4e-08 eV^2 / valence electron
 Maximum number of scf [iter]ations: 666
 (Square brackets indicate name in SCF output, whereas a 'c' in
 the SCF output indicates the quantity has converged.)

Symmetries present (total): 1

  ( 1  0  0)
  ( 0  1  0)
  ( 0  0  1)

8 k-points: 2 x 2 x 2 Monkhorst-Pack grid
4 k-points in the irreducible part of the Brillouin zone
       k-points in crystal coordinates                weights
   0:     0.25000000   -0.25000000   -0.25000000          2/8
   1:     0.25000000   -0.25000000    0.25000000          2/8
   2:     0.25000000    0.25000000   -0.25000000          2/8
   3:     0.25000000    0.25000000    0.25000000          2/8

Wave functions: Plane wave expansion
  Cutoff energy: 350.000 eV
  Number of coefficients (min, max): 18052, 18052
  Pulay-stress correction: 0.000000 eV/Ang^3 (de/decut=0.000000)
  Using FFTW library
  ScaLapack parameters: grid=1x1, blocksize=None
  Wavefunction extrapolation:
    Improved wavefunction reuse through dual PAW basis

Occupation numbers: Fermi-Dirac:
  width: 0.1000  # eV

Eigensolver
   Davidson(niter=2)

Densities:
  Coarse grid: 48*48*48 grid
  Fine grid: 96*96*96 grid
  Total Charge: 0.000000

Density mixing:
  Method: difference
  Backend: pulay
  Linear mixing parameter: 0.05
  old densities: 5
  Damping of long wavelength oscillations: 50

Hamiltonian:
  XC and Coulomb potentials evaluated on a 96*96*96 grid
  Using the PBE Exchange-Correlation functional
  External potential:
    NoExternalPotential

XC parameters: PBE with 2 nearest neighbor stencil

Total number of cores used: 30
Parallelization over k-points: 2
Domain decomposition: 5 x 3 x 1

Number of atoms: 108
Number of atomic orbitals: 1025
Number of bands in calculation: 703
Number of valence electrons: 1020
Bands to converge: occupied

... initialized

Initializing position-dependent things.

Density initialized from atomic densities
Creating initial wave functions:
  703 bands from LCAO basis set

        Ni------------------------.
       /|  Co                Co   |
      Cr|   Cr         Cr         |
     / Fe      Fe       Al        |
    /   CCo      Ni       Fe      |
   /e   | CoCr     CoAl    NiCr   |
  /  FeNi  NiCo     NiNiCo        |
 *    FeFe  FeCoCr     CoAl       |
 |     CoFeCr  CoFe Cr  NiFeNi    |
 | Fe   CrNiNiCo NiCrNiFe  Ni     |
 |   CoCr  CrAlCr   NiNiNi   Fe   |
 |    FeNi  FeFeCoNi CoFeCr   Cr  |
 |     CrFeFe  Cr NiCr  CoFeFe    |
 |      .-CoNiCo-FeNiCrCo--CoCr---.
 |   CrCo    CoAl   CrCrFe       /
 |    / Ni    NiFe       Cr     /
 |   /            Cr           /
 |Cr/      Co       Co        /
 |/            Ni           /
 *----------------Ni-------*

Positions:
   0 Ni     0.005316   -0.016350   10.639749    ( 0.0000,  0.0000,  0.0000)
   1 Cr    10.672340    1.801276    1.786848    ( 0.0000,  0.0000,  0.0000)
   2 Fe     1.795727   10.625972    1.782259    ( 0.0000,  0.0000,  0.0000)
   3 Ni     1.780787    1.796175   10.644605    ( 0.0000,  0.0000,  2.1000)
   4 Fe     3.523539   -0.014558    0.017268    ( 0.0000,  0.0000,  2.0000)
   5 Co     3.522568    1.781672    1.746648    ( 0.0000,  0.0000,  0.0000)
   6 Co     5.320952   10.642342    1.763136    ( 0.0000,  0.0000,  1.5000)
   7 Ni     5.342082    1.828767    0.007462    ( 0.0000,  0.0000,  2.0000)
   8 Ni     7.144895    0.019195    0.012033    ( 0.0000,  0.0000,  0.0000)
   9 Co     7.143497    1.798064    1.764939    ( 0.0000,  0.0000,  2.1000)
  10 Cr     8.891362   10.651627    1.788353    ( 0.0000,  0.0000,  1.5000)
  11 Co     8.888779    1.804777   10.642609    ( 0.0000,  0.0000,  2.0000)
  12 Fe     0.008694    3.581540   10.650250    ( 0.0000,  0.0000,  2.1000)
  13 Cr     0.018979    5.332745    1.789751    ( 0.0000,  0.0000,  2.1000)
  14 Ni     1.778129    3.600941    1.760019    ( 0.0000,  0.0000,  2.0000)
  15 Co     1.790423    5.343267   -0.017766    ( 0.0000,  0.0000,  2.0000)
  16 Cr     3.542802    3.589864   -0.015614    ( 0.0000,  0.0000,  2.0000)
  17 Co     3.526837    5.358538    1.765793    ( 0.0000,  0.0000,  2.0000)
  18 Fe     5.336650    3.606501    1.755815    ( 0.0000,  0.0000,  0.0000)
  19 Ni     5.300399    5.323642   -0.012797    ( 0.0000,  0.0000,  2.1000)
  20 Al     7.122858    3.584816   10.659524    ( 0.0000,  0.0000,  2.0000)
  21 Cr     7.120500    5.315168    1.805502    ( 0.0000,  0.0000,  1.5000)
  22 Cr     8.892034    3.590952    1.773146    ( 0.0000,  0.0000,  2.1000)
  23 Fe     8.925340    5.301487   -0.003100    ( 0.0000,  0.0000,  0.0000)
  24 Cr     0.023055    7.096680   -0.007939    ( 0.0000,  0.0000,  0.0000)
  25 Cr     0.019141    8.871245    1.787510    ( 0.0000,  0.0000,  1.5000)
  26 Co     1.784372    7.104567    1.776443    ( 0.0000,  0.0000,  2.0000)
  27 Co     1.779944    8.867628   10.659406    ( 0.0000,  0.0000,  1.5000)
  28 Ni     3.547785    7.097897    0.009215    ( 0.0000,  0.0000,  2.1000)
  29 Cr     3.541137    8.858109    1.788225    ( 0.0000,  0.0000,  2.1000)
  30 Ni     5.295105    7.099391    1.787894    ( 0.0000,  0.0000,  2.1000)
  31 Cr     5.303685    8.873828    0.029898    ( 0.0000,  0.0000,  0.0000)
  32 Cr     7.106883    7.088719   10.645159    ( 0.0000,  0.0000,  0.0000)
  33 Co     7.111055    8.901137    1.809472    ( 0.0000,  0.0000,  0.0000)
  34 Co     8.939384    7.093404    1.799238    ( 0.0000,  0.0000,  0.0000)
  35 Co     8.919972    8.915853   10.664881    ( 0.0000,  0.0000,  0.0000)
  36 Cr    10.679704   10.658873    3.584517    ( 0.0000,  0.0000,  2.0000)
  37 Fe    10.670921    1.796367    5.340289    ( 0.0000,  0.0000,  2.1000)
  38 Fe     1.770350   10.649001    5.343491    ( 0.0000,  0.0000,  0.0000)
  39 Co     1.791800    1.784671    3.584891    ( 0.0000,  0.0000,  2.0000)
  40 Ni     3.529718   10.626388    3.565234    ( 0.0000,  0.0000,  2.1000)
  41 Fe     3.535716    1.793465    5.367289    ( 0.0000,  0.0000,  1.5000)
  42 Co     5.311497    0.001574    5.366254    ( 0.0000,  0.0000,  1.5000)
  43 Al     5.332627    1.768055    3.580793    ( 0.0000,  0.0000,  0.0000)
  44 Cr     7.136966   10.673941    3.563804    ( 0.0000,  0.0000,  2.0000)
  45 Cr     7.136774    1.794126    5.358944    ( 0.0000,  0.0000,  2.1000)
  46 Co     8.925938   10.673621    5.347589    ( 0.0000,  0.0000,  2.0000)
  47 Fe     8.883827    1.779111    3.582404    ( 0.0000,  0.0000,  1.5000)
  48 Cr    -0.010038    3.572341    3.580996    ( 0.0000,  0.0000,  2.0000)
  49 Co    10.685573    5.328935    5.338550    ( 0.0000,  0.0000,  2.0000)
  50 Ni     1.784180    3.582949    5.348357    ( 0.0000,  0.0000,  1.5000)
  51 Fe     1.766326    5.339510    3.565255    ( 0.0000,  0.0000,  1.5000)
  52 Ni     3.522387    3.605007    3.574059    ( 0.0000,  0.0000,  0.0000)
  53 Al     3.543581    5.347343    5.347962    ( 0.0000,  0.0000,  2.1000)
  54 Co     5.333950    3.591678    5.360630    ( 0.0000,  0.0000,  2.0000)
  55 Ni     5.336458    5.346308    3.560132    ( 0.0000,  0.0000,  0.0000)
  56 Cr     7.143102    3.570089    3.572138    ( 0.0000,  0.0000,  2.1000)
  57 Ni     7.120265    5.347471    5.345689    ( 0.0000,  0.0000,  2.0000)
  58 Cr     8.888299    3.570665    5.342018    ( 0.0000,  0.0000,  1.5000)
  59 Fe     8.904573    5.339084    3.577453    ( 0.0000,  0.0000,  2.0000)
[...]
  93 Ni     7.108740    5.307762    8.854395    ( 0.0000,  0.0000,  1.5000)
  94 Al     8.907593    3.561296    8.890348    ( 0.0000,  0.0000,  2.1000)
  95 Fe     8.917806    5.336309    7.100224    ( 0.0000,  0.0000,  0.0000)
  96 Fe     0.016270    7.102027    7.111664    ( 0.0000,  0.0000,  2.0000)
  97 Fe     0.000822    8.895150    8.883817    ( 0.0000,  0.0000,  1.5000)
  98 Co     1.771182    7.105090    8.888608    ( 0.0000,  0.0000,  1.5000)
  99 Ni     1.775184    8.850318    7.108494    ( 0.0000,  0.0000,  2.0000)
 100 Co     3.530401    7.086478    7.104972    ( 0.0000,  0.0000,  1.5000)
 101 Fe     3.524841    8.851001    8.894798    ( 0.0000,  0.0000,  0.0000)
 102 Co     5.310654    7.102827    8.871128    ( 0.0000,  0.0000,  0.0000)
 103 Ni     5.290613    8.850286    7.104876    ( 0.0000,  0.0000,  0.0000)
 104 Co     7.129016    7.083330    7.142750    ( 0.0000,  0.0000,  2.1000)
 105 Al     7.143241    8.903186    8.854384    ( 0.0000,  0.0000,  2.0000)
 106 Ni     8.926504    7.115858    8.862313    ( 0.0000,  0.0000,  0.0000)
 107 Cr     8.932896    8.877648    7.127479    ( 0.0000,  0.0000,  1.5000)

Unit cell:
           periodic     x           y           z      points  spacing
  1. axis:    yes   10.671700    0.000000    0.000000    48     0.2223
  2. axis:    yes    0.000000   10.671700    0.000000    48     0.2223
  3. axis:    yes    0.000000    0.000000   10.671700    48     0.2223

  Lengths:  10.671700  10.671700  10.671700
  Angles:   90.000000  90.000000  90.000000

Effective grid spacing dv^(1/3) = 0.2223

     iter     time        total  log10-change:  magmom
                         energy  eigst   dens
iter:   1 17:19:05  -935.917676                  +143.1411
iter:   2 17:21:54  -961.920787  -0.47  -1.33    +108.3236
iter:   3 17:24:42  -893.889891  -0.89  -1.26    +79.4967
iter:   4 17:27:31  -873.629451  -1.47  -1.39    +66.7786
iter:   5 17:30:20  -872.289809  -1.95  -1.48    +58.8171
iter:   6 17:33:08  -873.762157  -2.03  -1.51    +55.1485
iter:   7 17:35:57  -871.686412  -1.80  -1.53    +54.1408
iter:   8 17:38:46  -869.648041  -1.75  -1.59    +53.5264
iter:   9 17:41:35  -871.984940  -1.82  -1.72    +53.1316
iter:  10 17:44:24  -869.309419  -2.08  -1.77    +52.9761
iter:  11 17:47:10  -869.160733  -2.37  -1.84    +53.3803
iter:  12 17:49:57  -867.617979  -2.67  -1.87    +53.5972
iter:  13 17:52:45  -868.317410  -2.85  -1.97    +54.3988
iter:  14 17:55:34  -869.754607  -2.60  -1.98    +55.0075
iter:  15 17:58:23  -869.864323  -2.56  -1.97    +55.4492
iter:  16 18:01:12  -871.914409  -2.35  -2.00    +56.1423
iter:  17 18:04:01  -870.014194  -2.51  -1.96    +56.3216
iter:  18 18:06:50  -870.139141  -2.63  -2.10    +56.9347
iter:  19 18:09:39  -869.115028  -2.95  -2.11    +57.0754
iter:  20 18:12:28  -869.437986  -3.09  -2.24    +57.6687
iter:  21 18:15:16  -869.230327  -3.29  -2.25    +58.3442
iter:  22 18:18:05  -869.387390  -3.44  -2.34    +58.7731
iter:  23 18:20:55  -869.385847  -3.68  -2.34    +59.2100
iter:  24 18:23:43  -870.118254  -3.09  -2.40    +59.8112
iter:  25 18:26:31  -869.791862  -3.24  -2.31    +59.9892
iter:  26 18:29:20  -869.988218  -3.23  -2.42    +60.3448
iter:  27 18:32:09  -870.067496  -3.24  -2.44    +60.5402
iter:  28 18:34:56  -870.289672  -3.21  -2.43    +60.9649
iter:  29 18:37:45  -869.973178  -3.47  -2.42    +61.1599
iter:  30 18:40:32  -870.029364  -3.85  -2.59    +61.4929
iter:  31 18:43:19  -870.053220c -4.04  -2.61    +61.6506
iter:  32 18:46:07  -870.104162c -4.32  -2.64    +61.9919
iter:  33 18:48:55  -870.261892  -3.62  -2.66    +62.7245
iter:  34 18:51:44  -870.320268  -3.77  -2.63    +63.0745
iter:  35 18:54:33  -870.370704  -4.01  -2.69    +63.0553
iter:  36 18:57:22  -870.402814c -3.80  -2.67    +63.1384
iter:  37 19:00:11  -870.359984c -4.03  -2.78    +62.9886
iter:  38 19:03:00  -870.362529c -4.41  -2.95    +62.9987
iter:  39 19:05:49  -870.374895c -4.62  -3.12    +63.0464
iter:  40 19:08:38  -870.393436c -4.70  -3.16    +63.0646
iter:  41 19:11:27  -870.402280c -4.89  -3.16    +63.0776
iter:  42 19:14:15  -870.418061c -4.83  -3.21    +63.1102
iter:  43 19:17:04  -870.463905c -4.07  -3.22    +63.2454
iter:  44 19:19:52  -870.542077  -3.52  -3.13    +63.4737
iter:  45 19:22:41  -870.531640c -4.47  -2.94    +63.4242
iter:  46 19:25:29  -870.532153c -4.89  -3.01    +63.5023
iter:  47 19:28:16  -870.536331c -5.09  -3.03    +63.5788
iter:  48 19:31:05  -870.533279c -4.97  -3.02    +63.6297
iter:  49 19:33:55  -870.532574c -4.25  -3.02    +63.6171
iter:  50 19:36:47  -870.524653c -4.60  -2.98    +63.5726
iter:  51 19:39:38  -870.517426c -5.06  -3.06    +63.5494
iter:  52 19:42:29  -870.529140c -4.68  -3.12    +63.5122
iter:  53 19:45:21  -870.516875c -4.86  -3.07    +63.4837
iter:  54 19:48:13  -870.521818c -4.80  -3.18    +63.4392
iter:  55 19:51:04  -870.514868c -4.85  -3.19    +63.4286
iter:  56 19:53:56  -870.522231c -4.88  -3.31    +63.4375
iter:  57 19:56:48  -870.516159c -5.07  -3.23    +63.4070
iter:  58 19:59:39  -870.514251c -5.34  -3.35    +63.3433
iter:  59 20:02:30  -870.514413c -5.40  -3.41    +63.3437
iter:  60 20:05:21  -870.513188c -5.70  -3.42    +63.3186
iter:  61 20:08:13  -870.514277c -5.77  -3.50    +63.2868
iter:  62 20:11:04  -870.513725c -5.65  -3.51    +63.2603
iter:  63 20:13:55  -870.513674c -5.66  -3.50    +63.2537
iter:  64 20:16:46  -870.514721c -5.69  -3.53    +63.2504
iter:  65 20:19:35  -870.514729c -5.55  -3.53    +63.2140
iter:  66 20:22:24  -870.513775c -5.69  -3.55    +63.2033
iter:  67 20:25:15  -870.513122c -6.00  -3.61    +63.1897
iter:  68 20:28:06  -870.513682c -6.14  -3.66    +63.1865
iter:  69 20:30:57  -870.513495c -6.33  -3.69    +63.1657
iter:  70 20:33:48  -870.513280c -6.39  -3.72    +63.1484
iter:  71 20:36:40  -870.513663c -6.31  -3.74    +63.1441
iter:  72 20:39:31  -870.514080c -5.99  -3.73    +63.1322
iter:  73 20:42:23  -870.514482c -6.01  -3.71    +63.1222
iter:  74 20:45:14  -870.513963c -5.93  -3.73    +63.1046
iter:  75 20:48:05  -870.513896c -5.99  -3.73    +63.1119
iter:  76 20:50:56  -870.514156c -6.22  -3.78    +63.1118
iter:  77 20:53:46  -870.513870c -6.61  -3.82    +63.0916
iter:  78 20:56:37  -870.513863c -6.63  -3.91    +63.0823
iter:  79 20:59:28  -870.513769c -6.96  -3.91    +63.0744
iter:  80 21:02:17  -870.514163c -6.82  -3.94    +63.0692
iter:  81 21:05:06  -870.514304c -6.38  -3.94    +63.0618
iter:  82 21:07:57  -870.514242c -6.09  -3.90    +63.0546
iter:  83 21:10:49  -870.514193c -6.24  -3.83    +63.0641
iter:  84 21:13:40  -870.514538c -6.14  -3.97    +63.0590
iter:  85 21:16:32  -870.514533c -6.34  -3.91    +63.0545
iter:  86 21:19:23  -870.514092c -6.79  -4.01c   +63.0420
iter:  87 21:22:14  -870.514179c -7.17  -4.16c   +63.0441
iter:  88 21:25:06  -870.514242c -7.65c -4.22c   +63.0403

Converged after 88 iterations.

Dipole moment: (-10.784421, 8.142113, 8.474204) |e|*Ang

Total magnetic moment: (0.000000, 0.000000, 63.040265)
Local magnetic moments:
   0 Ni ( 0.000000,  0.000000,  0.157897)
   1 Cr ( 0.000000,  0.000000,  1.040291)
   2 Fe ( 0.000000,  0.000000, -1.676280)
   3 Ni ( 0.000000,  0.000000,  0.225568)
   4 Fe ( 0.000000,  0.000000,  2.080136)
   5 Co ( 0.000000,  0.000000,  1.393257)
   6 Co ( 0.000000,  0.000000,  1.124496)
   7 Ni ( 0.000000,  0.000000,  0.171789)
   8 Ni ( 0.000000,  0.000000,  0.238035)
   9 Co ( 0.000000,  0.000000,  0.860699)
  10 Cr ( 0.000000,  0.000000, -0.407518)
  11 Co ( 0.000000,  0.000000,  0.701462)
  12 Fe ( 0.000000,  0.000000,  1.898023)
  13 Cr ( 0.000000,  0.000000, -0.601336)
  14 Ni ( 0.000000,  0.000000,  0.242386)
  15 Co ( 0.000000,  0.000000,  1.165203)
  16 Cr ( 0.000000,  0.000000, -1.441888)
  17 Co ( 0.000000,  0.000000,  1.417762)
  18 Fe ( 0.000000,  0.000000,  2.151224)
  19 Ni ( 0.000000,  0.000000,  0.131180)
  20 Al ( 0.000000,  0.000000, -0.016140)
  21 Cr ( 0.000000,  0.000000, -1.276643)
  22 Cr ( 0.000000,  0.000000, -0.089555)
  23 Fe ( 0.000000,  0.000000,  1.419090)
  24 Cr ( 0.000000,  0.000000, -1.467775)
  25 Cr ( 0.000000,  0.000000,  0.279724)
  26 Co ( 0.000000,  0.000000,  0.814141)
  27 Co ( 0.000000,  0.000000,  0.888432)
  28 Ni ( 0.000000,  0.000000,  0.369283)
  29 Cr ( 0.000000,  0.000000,  0.785237)
  30 Ni ( 0.000000,  0.000000,  0.228411)
  31 Cr ( 0.000000,  0.000000, -1.681069)
  32 Cr ( 0.000000,  0.000000,  1.276749)
  33 Co ( 0.000000,  0.000000,  1.076232)
  34 Co ( 0.000000,  0.000000,  0.464921)
  35 Co ( 0.000000,  0.000000,  0.595195)
  36 Cr ( 0.000000,  0.000000, -0.507788)
  37 Fe ( 0.000000,  0.000000,  2.040106)
  38 Fe ( 0.000000,  0.000000,  2.005617)
  39 Co ( 0.000000,  0.000000,  1.226001)
  40 Ni ( 0.000000,  0.000000,  0.324682)
  41 Fe ( 0.000000,  0.000000,  2.198568)
  42 Co ( 0.000000,  0.000000,  1.086177)
  43 Al ( 0.000000,  0.000000, -0.034937)
  44 Cr ( 0.000000,  0.000000, -0.654854)
  45 Cr ( 0.000000,  0.000000,  0.913120)
  46 Co ( 0.000000,  0.000000,  0.757793)
  47 Fe ( 0.000000,  0.000000, -1.071004)
  48 Cr ( 0.000000,  0.000000, -0.631821)
  49 Co ( 0.000000,  0.000000,  1.154798)
  50 Ni ( 0.000000,  0.000000,  0.320917)
  51 Fe ( 0.000000,  0.000000,  2.159930)
  52 Ni ( 0.000000,  0.000000,  0.439097)
  53 Al ( 0.000000,  0.000000, -0.036836)
  54 Co ( 0.000000,  0.000000,  0.912244)
  55 Ni ( 0.000000,  0.000000,  0.219020)
  56 Cr ( 0.000000,  0.000000, -0.331470)
  57 Ni ( 0.000000,  0.000000,  0.260880)
  58 Cr ( 0.000000,  0.000000, -1.191954)
  59 Fe ( 0.000000,  0.000000,  1.695512)
[...]
  93 Ni ( 0.000000,  0.000000,  0.222398)
  94 Al ( 0.000000,  0.000000, -0.038320)
  95 Fe ( 0.000000,  0.000000,  2.287883)
  96 Fe ( 0.000000,  0.000000,  2.335663)
  97 Fe ( 0.000000,  0.000000,  2.270207)
  98 Co ( 0.000000,  0.000000,  1.343514)
  99 Ni ( 0.000000,  0.000000,  0.478857)
 100 Co ( 0.000000,  0.000000,  1.273237)
 101 Fe ( 0.000000,  0.000000,  2.360637)
 102 Co ( 0.000000,  0.000000,  1.235470)
 103 Ni ( 0.000000,  0.000000,  0.425916)
 104 Co ( 0.000000,  0.000000,  1.316878)
 105 Al ( 0.000000,  0.000000, -0.018053)
 106 Ni ( 0.000000,  0.000000,  0.288173)
 107 Cr ( 0.000000,  0.000000, -1.905442)

Energy contributions relative to reference atoms: (reference = -3699400.456887)

Kinetic:       +143.824959
Potential:     -194.502803
External:        +0.000000
XC:            -855.499570
Entropy (-ST):   -4.525962
Local:          +37.926152
Free energy:   -872.777223
Extrapolated:  -870.514242

Spin contamination: 28.155212 electrons
Showing only first 2 kpts
                      Up                     Down
 Kpt  Band  Eigenvalues  Occupancy  Eigenvalues  Occupancy
  0   508      9.64137    0.99365     10.52483    0.02227
  0   509      9.65007    0.99308     10.53147    0.02087
  0   510      9.68214    0.99048     10.54760    0.01782
  0   511      9.69060    0.98965     10.55191    0.01708

  1   508      9.64342    0.99352     10.51391    0.02478
  1   509      9.65416    0.99279     10.53775    0.01963
  1   510      9.66471    0.99199     10.55075    0.01728
  1   511      9.68181    0.99051     10.56291    0.01533

Fermi level: 10.14665

No gap

Forces in eV/Ang:
  0 Ni    0.07235    0.17687    0.52229
  1 Cr    0.03060   -0.18592   -0.03348
  2 Fe   -0.32627    0.08561   -0.15790
  3 Ni   -0.16817   -0.14639    0.35040
  4 Fe    0.35213    0.43780   -0.14895
  5 Co    0.00448   -0.12340    0.03368
  6 Co    0.15321    0.28559   -0.05016
  7 Ni   -0.11121   -0.68413    0.10995
  8 Ni   -0.32362   -0.06073   -0.00391
  9 Co   -0.01761   -0.27662    0.20743
 10 Cr   -0.25418    0.38469   -0.46969
 11 Co    0.12312   -0.27074    0.51506
 12 Fe    0.19883   -0.00248    0.60798
 13 Cr   -0.10065    0.15357   -0.07927
 14 Ni    0.02542   -0.38651    0.17802
 15 Co   -0.12071    0.13592    0.05839
 16 Cr   -0.26816   -0.44633    0.14773
 17 Co    0.19412   -0.02897    0.17557
 18 Fe   -0.42754   -0.24651    0.40248
 19 Ni    0.24160    0.30114   -0.10401
 20 Al   -0.64619   -0.11609    0.45131
 21 Cr    0.09155    0.86406    0.32378
 22 Cr    0.49174   -0.68391    0.22772
 23 Fe    0.32714    0.98332    0.28325
 24 Cr   -0.52239    0.03053    0.08937
 25 Cr    0.05056    0.35072   -0.39557
 26 Co   -0.17095   -0.09022   -0.27752
 27 Co    0.06998    0.04817    0.29497
 28 Ni   -0.12574    0.09609   -0.21317
 29 Cr   -0.31951    0.28903   -0.12792
 30 Ni    0.28199   -0.12225    0.00118
 31 Cr   -0.08678    0.30954    0.27721
 32 Cr    0.55434   -0.34527    0.66004
 33 Co    0.19091   -0.00628   -0.29153
 34 Co   -0.06364    0.19430   -0.45398
 35 Co   -0.15912   -0.39645    0.56788
 36 Cr   -0.33606    0.35582    0.13832
 37 Fe   -0.17194   -0.23361   -0.25227
 38 Fe   -0.06677   -0.04846   -0.05691
 39 Co   -0.02070    0.01349   -0.38580
 40 Ni    0.21560    0.33346    0.04709
 41 Fe   -0.15735    0.07759    0.33174
 42 Co    0.05940   -0.39157   -0.10901
 43 Al   -0.95674    0.14095   -0.55312
 44 Cr    0.50228   -0.59491    0.01235
 45 Cr    0.48488   -0.08961    0.28879
 46 Co   -0.06580   -0.10165   -0.21370
 47 Fe   -0.01963   -0.14766   -0.17458
 48 Cr    0.23884   -0.18683   -0.14961
 49 Co   -0.00029    0.05560   -0.04363
 50 Ni   -0.20098   -0.25236   -0.06864
 51 Fe   -0.27823   -0.01271   -0.41399
 52 Ni    0.28864   -0.39924   -0.37129
 53 Al   -0.40177   -0.87649   -0.24758
 54 Co    0.28361   -0.28610   -0.22133
 55 Ni   -0.05118   -0.19206   -0.20453
 56 Cr    0.17426    0.12176    0.22159
 57 Ni   -0.05374    0.07183    0.01577
 58 Cr    0.30970    0.01964    0.03016
 59 Fe    0.01499    0.06169    0.04642
[...]
 93 Ni    0.08256    0.56691    0.35960
 94 Al    0.46529    0.09178   -0.74797
 95 Fe   -0.33466    0.43442   -0.24105
 96 Fe   -0.01376    0.22500   -0.28334
 97 Fe    0.13145   -0.10159    0.26819
 98 Co    0.14963   -0.11772    0.27368
 99 Ni   -0.03805    0.20403   -0.09417
100 Co    0.10591    0.43282    0.20599
101 Fe    0.21762    0.13617   -0.24205
102 Co    0.00876   -0.19163   -0.04101
103 Ni    0.12815    0.35855   -0.01638
104 Co   -0.19369   -0.11794   -0.28448
105 Al   -0.78520    0.14747    0.31069
106 Ni   -0.25093   -0.40495    0.48177
107 Cr    0.55536    0.09675   -1.12818

Date: Sat Apr 15 21:25:29 2023