User:   c.zeng@d0038
Date:   Fri Apr 14 23:36:30 2023
Arch:   x86_64
Pid:    27701
CWD:    /home/c.zeng/projects/hea-corrosion/hea-mlp/data-curation/bulk-mcmc/dft-jobs/183
Python: 3.8.1
gpaw:   /home/c.zeng/usr/installs/gpaw/source/gpaw-22.8.0/gpaw
_gpaw:  /home/c.zeng/usr/installs/gpaw/source/gpaw-22.8.0/
        _gpaw.cpython-38-x86_64-linux-gnu.so
ase:    /home/c.zeng/.local/lib/python3.8/site-packages/ase-3.22.1-py3.8.egg/ase (version 3.22.1)
numpy:  /shared/centos7/python/3.8.1/lib/python3.8/site-packages/numpy (version 1.17.4)
scipy:  /shared/centos7/python/3.8.1/lib/python3.8/site-packages/scipy (version 1.4.1)
units:  Angstrom and eV
cores: 30
OpenMP: False
OMP_NUM_THREADS: 1

Input parameters:
  convergence: {energy: 0.0001}
  kpts: [2 2 2]
  maxiter: 666
  mode: {ecut: 350.0,
         name: pw}
  occupations: {fixmagmom: False,
                name: fermi-dirac,
                width: 0.1}
  spinpol: True
  xc: PBE

System changes: positions, numbers, cell, pbc, initial_charges, initial_magmoms

Initialize ...

species:
  Co:
    name: Cobalt
    id: 339d20d5b0b93d2de9531a1bee871d91
    Z: 27.0
    valence: 9
    core: 18
    charge: 0.0
    file: /home/c.zeng/usr/data/gpaw-setups-0.9.20000/Co.PBE.gz
    compensation charges: {type: gauss,
                           rc: 0.32,
                           lmax: 2}
    cutoffs: {filter: 1.87,
              core: 2.55}
    valence states:
      #              energy  rcut
      - 4s(2.00)    -5.469   1.005
      - 4p(0.00)    -1.277   1.058
      - 3d(7.00)    -8.205   1.005
      -  s          21.742   1.005
      -  p          25.934   1.058
      -  d          19.007   1.005

    # Using partial waves for Co as LCAO basis

  Fe:
    name: Iron
    id: 37abbd8d6c3c35915a9b583b742da910
    Z: 26.0
    valence: 8
    core: 18
    charge: 0.0
    file: /home/c.zeng/usr/data/gpaw-setups-0.9.20000/Fe.PBE.gz
    compensation charges: {type: gauss,
                           rc: 0.33,
                           lmax: 2}
    cutoffs: {filter: 2.06,
              core: 2.67}
    valence states:
      #              energy  rcut
      - 4s(2.00)    -5.291   1.164
      - 4p(0.00)    -1.326   1.058
      - 3d(6.00)    -7.505   1.058
      -  s          21.920   1.164
      -  p          25.885   1.058
      -  d          19.706   1.058

[...]

  Al:
    name: Aluminium
    id: 0292cae29f5d6237e50f6abdd43a7bdd
    Z: 13.0
    valence: 3
    core: 10
    charge: 0.0
    file: /home/c.zeng/usr/data/gpaw-setups-0.9.20000/Al.PBE.gz
    compensation charges: {type: gauss,
                           rc: 0.34,
                           lmax: 2}
    cutoffs: {filter: 1.91,
              core: 2.36}
    valence states:
      #              energy  rcut
      - 3s(2.00)    -7.753   1.085
      - 3p(1.00)    -2.712   1.085
      -  s          19.459   1.085
      -  p          24.499   1.085
      -  d           0.000   1.085

[...]

  Cr:
    name: Chromium
    id: 33f258bda2ca9f93018e70263a35547b
    Z: 24.0
    valence: 6
    core: 18
    charge: 0.0
    file: /home/c.zeng/usr/data/gpaw-setups-0.9.20000/Cr.PBE.gz
    compensation charges: {type: gauss,
                           rc: 0.35,
                           lmax: 2}
    cutoffs: {filter: 2.14,
              core: 3.04}
    valence states:
      #              energy  rcut
      - 4s(1.00)    -4.007   1.164
      - 4p(0.00)    -0.989   1.217
      - 3d(5.00)    -2.913   1.111
      -  s          23.205   1.164
      -  p          26.223   1.217
      -  d          24.299   1.111

[...]

  Ni:
    name: Nickel
    id: 0d9f38a9d6e76a2886f07bb4381f212b
    Z: 28.0
    valence: 16
    core: 12
    charge: 0.0
    file: /home/c.zeng/usr/data/gpaw-setups-0.9.20000/Ni.PBE.gz
    compensation charges: {type: gauss,
                           rc: 0.36,
                           lmax: 2}
    cutoffs: {filter: 2.14,
              core: 1.98}
    valence states:
      #              energy  rcut
      - 4s(2.00)    -5.642   1.164
      - 3p(6.00)   -71.394   1.207
      - 4p(0.00)    -1.226   1.207
      - 3d(8.00)    -8.875   1.138
      -  s          21.570   1.164
      -  d          18.337   1.138

    # Using partial waves for Ni as LCAO basis

Reference energy: -3382523.201499  # eV

Spin-polarized calculation.
Magnetic moment: 128.800000

Convergence criteria:
 Maximum [total energy] change in last 3 cyles: 0.0001 eV / electron
 Maximum integral of absolute [dens]ity change: 0.0001 electrons / valence electron
 Maximum integral of absolute [eigenst]ate change: 4e-08 eV^2 / valence electron
 Maximum number of scf [iter]ations: 666
 (Square brackets indicate name in SCF output, whereas a 'c' in
 the SCF output indicates the quantity has converged.)

Symmetries present (total): 1

  ( 1  0  0)
  ( 0  1  0)
  ( 0  0  1)

8 k-points: 2 x 2 x 2 Monkhorst-Pack grid
4 k-points in the irreducible part of the Brillouin zone
       k-points in crystal coordinates                weights
   0:     0.25000000   -0.25000000   -0.25000000          2/8
   1:     0.25000000   -0.25000000    0.25000000          2/8
   2:     0.25000000    0.25000000   -0.25000000          2/8
   3:     0.25000000    0.25000000    0.25000000          2/8

Wave functions: Plane wave expansion
  Cutoff energy: 350.000 eV
  Number of coefficients (min, max): 18865, 18865
  Pulay-stress correction: 0.000000 eV/Ang^3 (de/decut=0.000000)
  Using FFTW library
  ScaLapack parameters: grid=1x1, blocksize=None
  Wavefunction extrapolation:
    Improved wavefunction reuse through dual PAW basis

Occupation numbers: Fermi-Dirac:
  width: 0.1000  # eV

Eigensolver
   Davidson(niter=2)

Densities:
  Coarse grid: 48*48*48 grid
  Fine grid: 96*96*96 grid
  Total Charge: 0.000000

Density mixing:
  Method: difference
  Backend: pulay
  Linear mixing parameter: 0.05
  old densities: 5
  Damping of long wavelength oscillations: 50

Hamiltonian:
  XC and Coulomb potentials evaluated on a 96*96*96 grid
  Using the PBE Exchange-Correlation functional
  External potential:
    NoExternalPotential

XC parameters: PBE with 2 nearest neighbor stencil

Total number of cores used: 30
Parallelization over k-points: 2
Domain decomposition: 5 x 3 x 1

Number of atoms: 108
Number of atomic orbitals: 961
Number of bands in calculation: 649
Number of valence electrons: 945
Bands to converge: occupied

... initialized

Initializing position-dependent things.

Density initialized from atomic densities
Creating initial wave functions:
  649 bands from LCAO basis set

       /|                     Co   |
      / |            Co Co     CrFe|
     /  |       Cr       Ni       Cr
    /   |Co       Fel     CFer     |
   /i   | Coo        Co      Fe    |
  /  CrAl   NCr       Ni           |
 *      Ni     FeCo   AlFeCrCo   Cr|
 |      |FeNi   CrNiAl   NiAlNi   Co
 | CrFe | AlNi   AlAlCo     Ni     |
 |     Co  FeCr Cr  Fe FeNi  CrNi  |
 |      FeNi   AlCr   FeCoFeNi  Co |
 |Al    |FeCr   AlCrCo   CrFe     Co
 |      .-CrCo-----NiCr-CoFeCrNi---.
 |     /   Ni Fe    Cr CoNi    Al /
 |    Co       AFei       Al     /
 |   /  Fe         Al       Cr  /
 |  /      Fe       Al       Co/
 | / Fe     Co       Ni Ni    /
 |/             Cr       Ni  /
 *--------Fe----------------*

Positions:
   0 Co    10.764147   10.861293   10.805330    ( 0.0000,  0.0000,  2.0000)
   1 Co    10.786221    1.792513    1.813624    ( 0.0000,  0.0000,  0.0000)
   2 Fe     1.744156    0.036560    1.851269    ( 0.0000,  0.0000,  1.5000)
   3 Al     1.736571    1.831142   10.798805    ( 0.0000,  0.0000,  0.0000)
   4 Fe     3.575126    0.057318    0.061759    ( 0.0000,  0.0000,  0.0000)
   5 Fe     3.594289    1.817617    1.845577    ( 0.0000,  0.0000,  2.0000)
   6 Fe     5.429813   10.817005    1.865054    ( 0.0000,  0.0000,  1.5000)
   7 Cr     5.429608    1.929425    0.057134    ( 0.0000,  0.0000,  0.0000)
   8 Fe     7.316909   10.723332    0.087382    ( 0.0000,  0.0000,  0.0000)
   9 Al     7.263142    1.825786    1.869404    ( 0.0000,  0.0000,  2.1000)
  10 Ni     9.063554    0.025226    1.863474    ( 0.0000,  0.0000,  1.5000)
  11 Ni     9.049217    1.829703    0.033106    ( 0.0000,  0.0000,  2.1000)
  12 Ni     0.004792    3.558981   10.794801    ( 0.0000,  0.0000,  1.5000)
  13 Al    10.759710    5.390697    1.778165    ( 0.0000,  0.0000,  0.0000)
  14 Fe     1.733585    3.561849    1.761112    ( 0.0000,  0.0000,  2.0000)
  15 Co     1.776899    5.391834   10.795505    ( 0.0000,  0.0000,  0.0000)
  16 Co     3.565452    3.619360   10.832619    ( 0.0000,  0.0000,  2.1000)
  17 Fe     3.633221    5.394614    1.719551    ( 0.0000,  0.0000,  0.0000)
  18 Ni     5.471624    3.659114    1.836033    ( 0.0000,  0.0000,  2.1000)
  19 Fe     5.440212    5.373060   -0.002773    ( 0.0000,  0.0000,  2.0000)
  20 Ni     7.258997    3.609080    0.031294    ( 0.0000,  0.0000,  0.0000)
  21 Co     7.268941    5.378362    1.785274    ( 0.0000,  0.0000,  2.0000)
  22 Al     9.030724    3.577636    1.833728    ( 0.0000,  0.0000,  2.1000)
  23 Fe     9.040420    5.372281   10.801110    ( 0.0000,  0.0000,  0.0000)
  24 Fe    10.791663    7.196206   10.792486    ( 0.0000,  0.0000,  1.5000)
  25 Co    10.758434    9.040387    1.848239    ( 0.0000,  0.0000,  0.0000)
  26 Cr     1.690487    7.202493    1.786032    ( 0.0000,  0.0000,  0.0000)
  27 Ni     1.652691    8.981047    0.027217    ( 0.0000,  0.0000,  0.0000)
  28 Al     3.631241    7.164437    0.034633    ( 0.0000,  0.0000,  0.0000)
  29 Al     3.625452    9.063759    1.801678    ( 0.0000,  0.0000,  0.0000)
  30 Ni     5.490852    7.187095    1.746342    ( 0.0000,  0.0000,  2.0000)
  31 Cr     5.426935    8.989152    0.009861    ( 0.0000,  0.0000,  2.0000)
  32 Co     7.229122    7.237075   -0.008698    ( 0.0000,  0.0000,  1.5000)
  33 Cr     7.249194    8.995850    1.810713    ( 0.0000,  0.0000,  0.0000)
  34 Cr     9.052073    7.204300    1.764218    ( 0.0000,  0.0000,  2.1000)
  35 Co     9.092553    8.989639   10.808760    ( 0.0000,  0.0000,  1.5000)
  36 Cr    -0.000975   10.826235    3.639789    ( 0.0000,  0.0000,  1.5000)
  37 Al    10.822772    1.771770    5.422044    ( 0.0000,  0.0000,  2.1000)
  38 Ni     1.754263   10.802084    5.428872    ( 0.0000,  0.0000,  2.1000)
  39 Co     1.741873    1.774270    3.610801    ( 0.0000,  0.0000,  0.0000)
  40 Al     3.591183   10.794152    3.612143    ( 0.0000,  0.0000,  2.0000)
  41 Cr     3.593088    1.736744    5.455177    ( 0.0000,  0.0000,  0.0000)
  42 Al     5.437150   10.794563    5.400804    ( 0.0000,  0.0000,  2.0000)
  43 Fe     5.451931    1.783251    3.601387    ( 0.0000,  0.0000,  1.5000)
  44 Al     7.226222    0.007781    3.626209    ( 0.0000,  0.0000,  0.0000)
  45 Co     7.236069    1.766512    5.381392    ( 0.0000,  0.0000,  2.1000)
  46 Co     9.034587   10.848850    5.403844    ( 0.0000,  0.0000,  2.1000)
  47 Ni     9.031558    1.804946    3.616730    ( 0.0000,  0.0000,  1.5000)
  48 Ni    10.773885    3.543973    3.617867    ( 0.0000,  0.0000,  1.5000)
  49 Ni    10.772186    5.358409    5.454917    ( 0.0000,  0.0000,  0.0000)
  50 Fe     1.757531    3.575678    5.428937    ( 0.0000,  0.0000,  2.1000)
  51 Fe     1.621766    5.386986    3.572550    ( 0.0000,  0.0000,  0.0000)
  52 Co     3.634303    3.633188    3.540792    ( 0.0000,  0.0000,  0.0000)
  53 Cr     3.550606    5.397969    5.404753    ( 0.0000,  0.0000,  2.0000)
  54 Cr     5.402221    3.610887    5.370193    ( 0.0000,  0.0000,  2.0000)
  55 Cr     5.460241    5.433590    3.575613    ( 0.0000,  0.0000,  2.0000)
  56 Cr     7.250157    3.615183    3.623169    ( 0.0000,  0.0000,  1.5000)
  57 Fe     7.248707    5.410715    5.362099    ( 0.0000,  0.0000,  1.5000)
  58 Fe     9.058230    3.565236    5.380082    ( 0.0000,  0.0000,  2.1000)
  59 Fe     9.074071    5.365323    3.589008    ( 0.0000,  0.0000,  2.1000)
[...]
  93 Ni     7.211073    5.388295    9.040181    ( 0.0000,  0.0000,  0.0000)
  94 Cr     9.095052    3.598119    8.980636    ( 0.0000,  0.0000,  2.0000)
  95 Al     9.078205    5.402416    7.227759    ( 0.0000,  0.0000,  0.0000)
  96 Cr    10.763411    7.244682    7.260285    ( 0.0000,  0.0000,  1.5000)
  97 Cr    10.795093    9.034566    8.977574    ( 0.0000,  0.0000,  2.0000)
  98 Co     1.740045    7.178947    8.984662    ( 0.0000,  0.0000,  2.1000)
  99 Co     1.734429    9.080207    7.236696    ( 0.0000,  0.0000,  1.5000)
 100 Fe     3.580482    7.154277    7.248285    ( 0.0000,  0.0000,  0.0000)
 101 Cr     3.612835    8.970898    8.958086    ( 0.0000,  0.0000,  0.0000)
 102 Al     5.410943    7.155878    9.067049    ( 0.0000,  0.0000,  0.0000)
 103 Co     5.466441    9.064062    7.220963    ( 0.0000,  0.0000,  2.1000)
 104 Fe     7.307203    7.271549    7.289738    ( 0.0000,  0.0000,  0.0000)
 105 Ni     7.271073    9.044683    9.027879    ( 0.0000,  0.0000,  1.5000)
 106 Cr     9.081743    7.219805    9.041166    ( 0.0000,  0.0000,  2.1000)
 107 Fe     9.063684    9.083009    7.213865    ( 0.0000,  0.0000,  2.0000)

Unit cell:
           periodic     x           y           z      points  spacing
  1. axis:    yes   10.820500    0.000000    0.000000    48     0.2254
  2. axis:    yes    0.000000   10.820500    0.000000    48     0.2254
  3. axis:    yes    0.000000    0.000000   10.820500    48     0.2254

  Lengths:  10.820500  10.820500  10.820500
  Angles:   90.000000  90.000000  90.000000

Effective grid spacing dv^(1/3) = 0.2254

     iter     time        total  log10-change:  magmom
                         energy  eigst   dens
iter:   1 23:41:22  -895.919826                  +128.4417
iter:   2 23:43:33  -865.947253  -0.40  -1.31    +96.1444
iter:   3 23:45:45  -845.401330  -0.94  -1.29    +67.1450
iter:   4 23:47:57  -832.679764  -1.26  -1.37    +56.8204
iter:   5 23:50:08  -825.851526  -1.84  -1.40    +52.4383
iter:   6 23:52:20  -826.466204  -2.01  -1.47    +50.5595
iter:   7 23:54:31  -825.378492  -1.68  -1.50    +49.3078
iter:   8 23:56:42  -823.549428  -1.76  -1.55    +49.2663
iter:   9 23:58:55  -826.631824  -1.85  -1.69    +50.0332
iter:  10 00:01:06  -822.999497  -2.10  -1.70    +49.8409
iter:  11 00:03:18  -824.078109  -2.29  -1.81    +50.7425
iter:  12 00:05:29  -822.707288  -2.43  -1.81    +51.5944
iter:  13 00:08:41  -822.840273  -2.66  -1.89    +52.7358
iter:  14 00:11:03  -823.905743  -2.51  -1.95    +53.7615
iter:  15 00:13:14  -824.438841  -2.50  -1.96    +54.4611
iter:  16 00:15:25  -825.027523  -2.43  -1.97    +55.9739
iter:  17 00:17:37  -823.946321  -2.71  -1.96    +56.3392
iter:  18 00:19:49  -824.721381  -2.64  -2.12    +57.2660
iter:  19 00:22:01  -823.974498  -2.90  -2.09    +57.7523
iter:  20 00:24:12  -824.168746  -3.18  -2.20    +58.7921
iter:  21 00:26:24  -824.545968  -3.11  -2.25    +59.5408
iter:  22 00:28:36  -824.746733  -3.12  -2.24    +59.7509
iter:  23 00:30:48  -824.645335  -3.24  -2.24    +60.3380
iter:  24 00:33:00  -824.849396  -3.32  -2.31    +60.6185
iter:  25 00:35:11  -824.863950  -3.31  -2.31    +60.7266
iter:  26 00:37:23  -824.993510  -3.32  -2.39    +60.5235
iter:  27 00:39:36  -825.061258  -3.31  -2.37    +60.6215
iter:  28 00:41:49  -825.150466  -3.27  -2.42    +60.6735
iter:  29 00:44:00  -825.216688  -3.27  -2.44    +60.4584
iter:  30 00:46:12  -825.125336c -3.45  -2.42    +60.3818
iter:  31 00:48:25  -825.089839  -3.69  -2.50    +60.3190
iter:  32 00:50:37  -825.127946c -3.74  -2.59    +60.3368
iter:  33 00:52:49  -825.125981c -4.14  -2.61    +60.1968
iter:  34 00:55:01  -825.170920c -4.05  -2.66    +60.0004
iter:  35 00:57:14  -825.281852  -3.70  -2.67    +59.8805
iter:  36 00:59:25  -825.226651  -3.89  -2.60    +59.7537
iter:  37 01:01:36  -825.241372c -3.99  -2.74    +59.5622
iter:  38 01:03:49  -825.312636c -3.74  -2.79    +59.4261
iter:  39 01:06:01  -825.257644c -4.06  -2.70    +59.3362
iter:  40 01:08:13  -825.268679c -4.15  -2.87    +59.1683
iter:  41 01:10:24  -825.273114c -4.49  -2.87    +59.1139
iter:  42 01:13:09  -825.280926c -4.63  -2.91    +59.0305
iter:  43 01:15:58  -825.302765c -4.64  -2.98    +58.8993
iter:  44 01:18:10  -825.321986c -4.69  -2.98    +58.7711
iter:  45 01:20:22  -825.383934c -3.87  -2.98    +58.2975
iter:  46 01:22:34  -825.439444  -3.95  -2.93    +57.9130
iter:  47 01:24:46  -825.422902c -5.05  -2.83    +58.0654
iter:  48 01:26:58  -825.466167c -4.23  -2.85    +57.7943
iter:  49 01:29:10  -825.454140c -4.55  -2.82    +57.8289
iter:  50 01:31:22  -825.458214c -4.27  -2.87    +57.7546
iter:  51 01:33:35  -825.436828c -4.57  -2.92    +57.7204
iter:  52 01:35:47  -825.460549c -4.22  -3.09    +57.5934
iter:  53 01:37:59  -825.442157c -4.48  -2.95    +57.5296
iter:  54 01:40:12  -825.442485c -4.86  -3.07    +57.3536
iter:  55 01:42:24  -825.448131c -5.22  -3.17    +57.1914
iter:  56 01:44:34  -825.467161c -4.59  -3.18    +56.8280
iter:  57 01:46:46  -825.465573c -5.45  -3.10    +56.8715
iter:  58 01:48:58  -825.472873c -4.90  -3.11    +56.7690
iter:  59 01:51:10  -825.470856c -4.83  -3.09    +56.7198
iter:  60 01:53:22  -825.468738c -5.04  -3.12    +56.6235
iter:  61 01:55:34  -825.473772c -4.80  -3.19    +56.5501
iter:  62 01:57:45  -825.470523c -5.14  -3.16    +56.5125
iter:  63 01:59:57  -825.472914c -5.41  -3.22    +56.4550
iter:  64 02:02:09  -825.478567c -5.18  -3.25    +56.3932
iter:  65 02:05:16  -825.476921c -4.93  -3.24    +56.3678
iter:  66 02:07:40  -825.485133c -4.86  -3.32    +56.3220
iter:  67 02:09:52  -825.478359c -5.09  -3.23    +56.2883
iter:  68 02:12:04  -825.479912c -5.49  -3.44    +56.2481
iter:  69 02:14:16  -825.480290c -5.60  -3.50    +56.2241
iter:  70 02:16:28  -825.481145c -5.83  -3.51    +56.1963
iter:  71 02:18:39  -825.484237c -5.65  -3.58    +56.1574
iter:  72 02:20:51  -825.484206c -5.69  -3.55    +56.1448
iter:  73 02:23:03  -825.485648c -5.55  -3.59    +56.1137
iter:  74 02:25:15  -825.485413c -5.71  -3.59    +56.0953
iter:  75 02:27:28  -825.487599c -5.63  -3.64    +56.0601
iter:  76 02:29:39  -825.487649c -5.78  -3.67    +56.0419
iter:  77 02:31:51  -825.488045c -6.07  -3.72    +56.0192
iter:  78 02:34:03  -825.489269c -6.09  -3.77    +55.9865
iter:  79 02:36:15  -825.490464c -6.08  -3.81    +55.9544
iter:  80 02:38:26  -825.492643c -5.70  -3.80    +55.9019
iter:  81 02:40:38  -825.495362c -5.49  -3.72    +55.8390
iter:  82 02:42:49  -825.495999c -5.95  -3.67    +55.8189
iter:  83 02:45:01  -825.497445c -5.95  -3.67    +55.7876
iter:  84 02:47:13  -825.498970c -5.81  -3.62    +55.7515
iter:  85 02:49:24  -825.499975c -5.65  -3.60    +55.7312
iter:  86 02:51:54  -825.498556c -6.00  -3.57    +55.7248
iter:  87 02:54:56  -825.498548c -5.89  -3.75    +55.7033
iter:  88 02:57:07  -825.498893c -5.65  -3.88    +55.6918
iter:  89 02:59:20  -825.498353c -6.21  -3.74    +55.6895
iter:  90 03:01:32  -825.498538c -6.56  -4.02c   +55.6804
iter:  91 03:03:44  -825.498987c -6.31  -4.04c   +55.6635
iter:  92 03:05:56  -825.499027c -6.63  -4.02c   +55.6584
iter:  93 03:08:08  -825.499311c -6.62  -4.06c   +55.6515
iter:  94 03:10:21  -825.499424c -6.41  -4.10c   +55.6489
iter:  95 03:12:34  -825.499289c -6.55  -4.07c   +55.6482
iter:  96 03:14:45  -825.499555c -6.76  -4.12c   +55.6461
iter:  97 03:16:56  -825.499527c -6.89  -4.23c   +55.6474
iter:  98 03:19:07  -825.499599c -7.04  -4.29c   +55.6472
iter:  99 03:21:19  -825.499604c -7.27  -4.28c   +55.6477
iter: 100 03:23:31  -825.499765c -7.16  -4.33c   +55.6481
iter: 101 03:25:43  -825.499776c -6.94  -4.38c   +55.6504
iter: 102 03:27:54  -825.499855c -7.28  -4.33c   +55.6509
iter: 103 03:30:06  -825.499848c -7.36  -4.48c   +55.6527
iter: 104 03:32:18  -825.499959c -7.47c -4.46c   +55.6532

Converged after 104 iterations.

Dipole moment: (29.754329, -3.438325, -9.837371) |e|*Ang

Total magnetic moment: (0.000000, 0.000000, 55.653246)
Local magnetic moments:
   0 Co ( 0.000000,  0.000000,  1.228636)
   1 Co ( 0.000000,  0.000000,  1.362021)
   2 Fe ( 0.000000,  0.000000,  2.327378)
   3 Al ( 0.000000,  0.000000, -0.050183)
   4 Fe ( 0.000000,  0.000000,  2.369615)
   5 Fe ( 0.000000,  0.000000,  2.396229)
   6 Fe ( 0.000000,  0.000000,  1.926631)
   7 Cr ( 0.000000,  0.000000, -2.416389)
   8 Fe ( 0.000000,  0.000000,  2.217370)
   9 Al ( 0.000000,  0.000000, -0.013637)
  10 Ni ( 0.000000,  0.000000,  0.166269)
  11 Ni ( 0.000000,  0.000000,  0.155294)
  12 Ni ( 0.000000,  0.000000,  0.233658)
  13 Al ( 0.000000,  0.000000, -0.034186)
  14 Fe ( 0.000000,  0.000000,  2.326908)
  15 Co ( 0.000000,  0.000000,  0.674325)
  16 Co ( 0.000000,  0.000000,  1.219876)
  17 Fe ( 0.000000,  0.000000,  2.227310)
  18 Ni ( 0.000000,  0.000000,  0.245275)
  19 Fe ( 0.000000,  0.000000,  2.316247)
  20 Ni ( 0.000000,  0.000000,  0.111600)
  21 Co ( 0.000000,  0.000000,  1.181890)
  22 Al ( 0.000000,  0.000000, -0.022047)
  23 Fe ( 0.000000,  0.000000,  2.088540)
  24 Fe ( 0.000000,  0.000000,  1.657184)
  25 Co ( 0.000000,  0.000000,  1.033639)
  26 Cr ( 0.000000,  0.000000, -1.874511)
  27 Ni ( 0.000000,  0.000000,  0.123761)
  28 Al ( 0.000000,  0.000000, -0.015488)
  29 Al ( 0.000000,  0.000000, -0.026349)
  30 Ni ( 0.000000,  0.000000,  0.335573)
  31 Cr ( 0.000000,  0.000000,  1.709862)
  32 Co ( 0.000000,  0.000000,  0.942921)
  33 Cr ( 0.000000,  0.000000, -1.442259)
  34 Cr ( 0.000000,  0.000000, -1.661265)
  35 Co ( 0.000000,  0.000000,  0.991037)
  36 Cr ( 0.000000,  0.000000, -1.559301)
  37 Al ( 0.000000,  0.000000, -0.027857)
  38 Ni ( 0.000000,  0.000000,  0.119314)
  39 Co ( 0.000000,  0.000000,  1.090060)
  40 Al ( 0.000000,  0.000000, -0.041367)
  41 Cr ( 0.000000,  0.000000, -2.050171)
  42 Al ( 0.000000,  0.000000, -0.023933)
  43 Fe ( 0.000000,  0.000000,  1.855430)
  44 Al ( 0.000000,  0.000000, -0.028111)
  45 Co ( 0.000000,  0.000000,  0.681042)
  46 Co ( 0.000000,  0.000000,  0.940806)
  47 Ni ( 0.000000,  0.000000,  0.127021)
  48 Ni ( 0.000000,  0.000000,  0.378976)
  49 Ni ( 0.000000,  0.000000,  0.229406)
  50 Fe ( 0.000000,  0.000000,  2.312819)
  51 Fe ( 0.000000,  0.000000,  2.310973)
  52 Co ( 0.000000,  0.000000,  1.004792)
  53 Cr ( 0.000000,  0.000000, -1.576831)
  54 Cr ( 0.000000,  0.000000, -1.369535)
  55 Cr ( 0.000000,  0.000000,  1.229802)
  56 Cr ( 0.000000,  0.000000, -1.640256)
  57 Fe ( 0.000000,  0.000000,  2.179626)
  58 Fe ( 0.000000,  0.000000,  2.223948)
  59 Fe ( 0.000000,  0.000000,  2.180174)
[...]
  93 Ni ( 0.000000,  0.000000,  0.319390)
  94 Cr ( 0.000000,  0.000000,  1.460249)
  95 Al ( 0.000000,  0.000000, -0.018284)
  96 Cr ( 0.000000,  0.000000,  0.867247)
  97 Cr ( 0.000000,  0.000000, -0.498859)
  98 Co ( 0.000000,  0.000000,  0.500890)
  99 Co ( 0.000000,  0.000000,  0.698209)
 100 Fe ( 0.000000,  0.000000, -1.737165)
 101 Cr ( 0.000000,  0.000000, -2.060500)
 102 Al ( 0.000000,  0.000000, -0.012135)
 103 Co ( 0.000000,  0.000000,  1.108316)
 104 Fe ( 0.000000,  0.000000,  2.442747)
 105 Ni ( 0.000000,  0.000000,  0.273788)
 106 Cr ( 0.000000,  0.000000, -1.228398)
 107 Fe ( 0.000000,  0.000000,  2.063147)

Energy contributions relative to reference atoms: (reference = -3382523.201499)

Kinetic:       +222.199148
Potential:     -230.209572
External:        +0.000000
XC:            -848.769556
Entropy (-ST):   -4.153471
Local:          +33.356756
Free energy:   -827.576694
Extrapolated:  -825.499959

Spin contamination: 31.139019 electrons
Showing only first 2 kpts
                      Up                     Down
 Kpt  Band  Eigenvalues  Occupancy  Eigenvalues  Occupancy
  0   470      9.17741    0.99360     10.02789    0.03049
  0   471      9.18855    0.99285     10.04823    0.02502
  0   472      9.20007    0.99199     10.06164    0.02195
  0   473      9.21814    0.99042     10.07795    0.01870

  1   470      9.17987    0.99344     10.04217    0.02654
  1   471      9.19473    0.99240     10.05559    0.02328
  1   472      9.19989    0.99200     10.06392    0.02146
  1   473      9.22060    0.99018     10.06655    0.02092

Fermi level: 9.68194

No gap

Forces in eV/Ang:
  0 Co    0.08331   -0.51146    0.19961
  1 Co    0.49936   -0.30110    0.12474
  2 Fe   -0.36494   -0.17665   -0.59766
  3 Al    0.14734   -0.10570   -0.21951
  4 Fe    0.39422   -0.09630   -0.76052
  5 Fe    0.15704    0.68700   -0.14479
  6 Fe    0.24435    0.35890   -0.73622
  7 Cr   -1.13969   -0.85899   -0.92135
  8 Fe   -0.52203    0.47658   -0.47493
  9 Al   -0.23914   -0.51942   -1.24257
 10 Ni   -0.16771   -0.22454   -0.37915
 11 Ni   -0.16469   -0.35829   -0.40419
 12 Ni   -0.25565    0.61138    0.04996
 13 Al    0.97382   -0.21696   -0.33523
 14 Fe    0.49412    0.17133    0.76568
 15 Co   -0.22018   -0.02526   -0.11319
 16 Co    0.42903    0.05045    0.18634
 17 Fe   -0.52144   -0.79417    0.62548
 18 Ni   -0.44565   -0.22665   -0.00357
 19 Fe    0.55562   -0.57285    0.38084
 20 Ni   -0.11716   -0.09098   -0.40576
 21 Co   -0.00893    0.54780    0.04589
 22 Al    0.47637   -0.25766   -0.70479
 23 Fe   -0.58671    0.74543   -0.44371
 24 Fe    0.46353    0.11680   -0.17606
 25 Co    0.30717   -0.11052   -0.37218
 26 Cr   -0.68016    0.05239    0.15200
 27 Ni    0.70924    0.44709   -0.24288
 28 Al   -1.16760    0.10212   -0.05091
 29 Al   -0.54216    0.28263   -0.96246
 30 Ni   -0.10779    0.06855    0.45673
 31 Cr    0.63440    0.96387   -0.56140
 32 Co    0.52017   -0.12137    0.17047
 33 Cr   -0.03104    0.05468   -0.54110
 34 Cr   -0.49366    0.34395   -0.13853
 35 Co   -0.12076    0.02399    0.14104
 36 Cr    0.11483   -0.60992   -0.83712
 37 Al    0.06601   -0.21275   -0.07950
 38 Ni    0.30095   -0.00304    0.14315
 39 Co    0.35308    0.51716   -0.22100
 40 Al   -0.65096    0.89549   -0.17846
 41 Cr   -0.65650    1.20980    0.08985
 42 Al    0.41887   -0.18446    1.09755
 43 Fe   -0.52850    0.68561    0.21636
 44 Al    1.02188   -0.08173    0.21549
 45 Co    0.03294    0.51842    0.44212
 46 Co   -0.15290   -0.29236    0.05083
 47 Ni   -0.06878   -0.17286    0.04331
 48 Ni    0.53753    0.29011   -0.13184
 49 Ni    0.31093    0.32242   -0.39979
 50 Fe    0.84255    0.22903   -0.38089
 51 Fe    1.16487    0.00494    0.35298
 52 Co   -0.25060   -0.09007    0.32287
 53 Cr   -0.33274   -0.68979   -0.08298
 54 Cr    0.11898    0.26934    0.16571
 55 Cr   -0.06651   -0.68111    0.04745
 56 Cr   -0.68476    0.54692    1.08749
 57 Fe    0.10391    0.11435    0.23073
 58 Fe   -0.73407    0.00210    0.32283
 59 Fe   -0.54832    0.79687    0.66377
[...]
 93 Ni    0.27138   -0.22210   -0.24344
 94 Cr    0.21040    0.22509    0.32198
 95 Al   -1.33602   -0.05760   -0.78142
 96 Cr    0.22423    0.33834    0.78774
 97 Cr    0.47667   -0.07788    0.42692
 98 Co   -0.13657    0.46821   -0.00987
 99 Co    0.16931   -0.34387    0.31354
100 Fe   -0.60881    0.26197   -0.12751
101 Cr   -0.38622    1.03704    0.23489
102 Al    1.20244    0.16729   -1.30565
103 Co   -0.07139   -0.30830    0.42206
104 Fe   -0.13553   -0.08495   -0.46979
105 Ni   -0.06154    0.18579    0.05335
106 Cr   -0.82144    0.47417    0.45230
107 Fe   -0.39892    0.21994   -0.27056

Date: Sat Apr 15 03:32:41 2023