User:   c.zeng@d0139
Date:   Sat Apr  8 16:06:30 2023
Arch:   x86_64
Pid:    81101
CWD:    /home/c.zeng/projects/hea-corrosion/hea-mlp/data-curation/volume/dft-jobs/90
Python: 3.8.1
gpaw:   /home/c.zeng/usr/installs/gpaw/source/gpaw-22.8.0/gpaw
_gpaw:  /home/c.zeng/usr/installs/gpaw/source/gpaw-22.8.0/
        _gpaw.cpython-38-x86_64-linux-gnu.so
ase:    /home/c.zeng/.local/lib/python3.8/site-packages/ase-3.22.1-py3.8.egg/ase (version 3.22.1)
numpy:  /shared/centos7/python/3.8.1/lib/python3.8/site-packages/numpy (version 1.17.4)
scipy:  /shared/centos7/python/3.8.1/lib/python3.8/site-packages/scipy (version 1.4.1)
units:  Angstrom and eV
cores: 64
OpenMP: False
OMP_NUM_THREADS: 1

Input parameters:
  convergence: {energy: 0.0001}
  kpts: [2 2 2]
  maxiter: 666
  mode: {ecut: 350.0,
         name: pw}
  occupations: {fixmagmom: False,
                name: fermi-dirac,
                width: 0.1}
  spinpol: True
  xc: PBE

System changes: positions, numbers, cell, pbc, initial_charges, initial_magmoms

Initialize ...

species:
  Fe:
    name: Iron
    id: 37abbd8d6c3c35915a9b583b742da910
    Z: 26.0
    valence: 8
    core: 18
    charge: 0.0
    file: /home/c.zeng/usr/data/gpaw-setups-0.9.20000/Fe.PBE.gz
    compensation charges: {type: gauss,
                           rc: 0.33,
                           lmax: 2}
    cutoffs: {filter: 2.06,
              core: 2.67}
    valence states:
      #              energy  rcut
      - 4s(2.00)    -5.291   1.164
      - 4p(0.00)    -1.326   1.058
      - 3d(6.00)    -7.505   1.058
      -  s          21.920   1.164
      -  p          25.885   1.058
      -  d          19.706   1.058

    # Using partial waves for Fe as LCAO basis

  Cr:
    name: Chromium
    id: 33f258bda2ca9f93018e70263a35547b
    Z: 24.0
    valence: 6
    core: 18
    charge: 0.0
    file: /home/c.zeng/usr/data/gpaw-setups-0.9.20000/Cr.PBE.gz
    compensation charges: {type: gauss,
                           rc: 0.35,
                           lmax: 2}
    cutoffs: {filter: 2.14,
              core: 3.04}
    valence states:
      #              energy  rcut
      - 4s(1.00)    -4.007   1.164
      - 4p(0.00)    -0.989   1.217
      - 3d(5.00)    -2.913   1.111
      -  s          23.205   1.164
      -  p          26.223   1.217
      -  d          24.299   1.111

[...]

  Ni:
    name: Nickel
    id: 0d9f38a9d6e76a2886f07bb4381f212b
    Z: 28.0
    valence: 16
    core: 12
    charge: 0.0
    file: /home/c.zeng/usr/data/gpaw-setups-0.9.20000/Ni.PBE.gz
    compensation charges: {type: gauss,
                           rc: 0.36,
                           lmax: 2}
    cutoffs: {filter: 2.14,
              core: 1.98}
    valence states:
      #              energy  rcut
      - 4s(2.00)    -5.642   1.164
      - 3p(6.00)   -71.394   1.207
      - 4p(0.00)    -1.226   1.207
      - 3d(8.00)    -8.875   1.138
      -  s          21.570   1.164
      -  d          18.337   1.138

[...]

  Al:
    name: Aluminium
    id: 0292cae29f5d6237e50f6abdd43a7bdd
    Z: 13.0
    valence: 3
    core: 10
    charge: 0.0
    file: /home/c.zeng/usr/data/gpaw-setups-0.9.20000/Al.PBE.gz
    compensation charges: {type: gauss,
                           rc: 0.34,
                           lmax: 2}
    cutoffs: {filter: 1.91,
              core: 2.36}
    valence states:
      #              energy  rcut
      - 3s(2.00)    -7.753   1.085
      - 3p(1.00)    -2.712   1.085
      -  s          19.459   1.085
      -  p          24.499   1.085
      -  d           0.000   1.085

[...]

  Co:
    name: Cobalt
    id: 339d20d5b0b93d2de9531a1bee871d91
    Z: 27.0
    valence: 9
    core: 18
    charge: 0.0
    file: /home/c.zeng/usr/data/gpaw-setups-0.9.20000/Co.PBE.gz
    compensation charges: {type: gauss,
                           rc: 0.32,
                           lmax: 2}
    cutoffs: {filter: 1.87,
              core: 2.55}
    valence states:
      #              energy  rcut
      - 4s(2.00)    -5.469   1.005
      - 4p(0.00)    -1.277   1.058
      - 3d(7.00)    -8.205   1.005
      -  s          21.742   1.005
      -  p          25.934   1.058
      -  d          19.007   1.005

    # Using partial waves for Co as LCAO basis

Reference energy: -3382523.201499  # eV

Spin-polarized calculation.
Magnetic moment: 128.800000

Convergence criteria:
 Maximum [total energy] change in last 3 cyles: 0.0001 eV / electron
 Maximum integral of absolute [dens]ity change: 0.0001 electrons / valence electron
 Maximum integral of absolute [eigenst]ate change: 4e-08 eV^2 / valence electron
 Maximum number of scf [iter]ations: 666
 (Square brackets indicate name in SCF output, whereas a 'c' in
 the SCF output indicates the quantity has converged.)

Symmetries present (total): 1

  ( 1  0  0)
  ( 0  1  0)
  ( 0  0  1)

8 k-points: 2 x 2 x 2 Monkhorst-Pack grid
4 k-points in the irreducible part of the Brillouin zone
       k-points in crystal coordinates                weights
   0:     0.25000000   -0.25000000   -0.25000000          2/8
   1:     0.25000000   -0.25000000    0.25000000          2/8
   2:     0.25000000    0.25000000   -0.25000000          2/8
   3:     0.25000000    0.25000000    0.25000000          2/8

Wave functions: Plane wave expansion
  Cutoff energy: 350.000 eV
  Number of coefficients (min, max): 24387, 24387
  Pulay-stress correction: 0.000000 eV/Ang^3 (de/decut=0.000000)
  Using FFTW library
  ScaLapack parameters: grid=1x1, blocksize=None
  Wavefunction extrapolation:
    Improved wavefunction reuse through dual PAW basis

Occupation numbers: Fermi-Dirac:
  width: 0.1000  # eV

Eigensolver
   Davidson(niter=2)

Densities:
  Coarse grid: 54*54*54 grid
  Fine grid: 108*108*108 grid
  Total Charge: 0.000000

Density mixing:
  Method: difference
  Backend: pulay
  Linear mixing parameter: 0.05
  old densities: 5
  Damping of long wavelength oscillations: 50

Hamiltonian:
  XC and Coulomb potentials evaluated on a 108*108*108 grid
  Using the PBE Exchange-Correlation functional
  External potential:
    NoExternalPotential

XC parameters: PBE with 2 nearest neighbor stencil

Total number of cores used: 64
Parallelization over k-points: 4
Domain decomposition: 4 x 2 x 2

Number of atoms: 108
Number of atomic orbitals: 961
Number of bands in calculation: 649
Number of valence electrons: 945
Bands to converge: occupied

... initialized

Initializing position-dependent things.

Density initialized from atomic densities
Creating initial wave functions:
  649 bands from LCAO basis set

        .----------------------------Fe
       /|                      Ni    |
      / |             Cr        Ni Ni|
    /   |Cr      Al       Ni Al     Fe
   /i   | Co        Cr     Co Co     Fe
  /  FeCr   NiFe     Co Cr     Fe    |
 *      Co   CoCr Ni  Fe Al Fe  Co Ni|
 |      |Cr Fe   CrCo Al  Fe CrCo   Co
 |    CoNiAl Ni     Al Al  Cr CrNi   |
 |      |                      Cr    |
 |     Co   NiFe Fe  Ni NiNi     Cr  |
 |      Co Fe  Al Fe  Ni Al Co     Fe|
 |      |Al Al   CrFeCo   Cr CoCo   Cr
 |      .-Cr-Al-----Fe-Ni--Al-CoNi---.
 |     Cr   AlCr Ni  Fe FeNi     Cr /
 |    / Fe Fe  Cr Co     NiCo      /
 |   /      Fe     Fe Co          /
 |  /                          Cr/
 | /  Ni     Co        CrNi     /
 |/              Al       Co   /
 *---------Al-----------------*

Positions:
   0 Fe    -0.000004   -0.000002   -0.000004    ( 0.0000,  0.0000,  2.0000)
   1 Cr    -0.000001    1.964254    1.964242    ( 0.0000,  0.0000,  0.0000)
   2 Ni     1.964254    0.000008    1.964266    ( 0.0000,  0.0000,  1.5000)
   3 Cr     1.964254    1.964254   -0.000001    ( 0.0000,  0.0000,  0.0000)
   4 Al     3.928496    0.000022    0.000019    ( 0.0000,  0.0000,  0.0000)
   5 Fe     3.928496    1.964254    1.964254    ( 0.0000,  0.0000,  2.0000)
   6 Ni     5.892738   -0.000002    1.964266    ( 0.0000,  0.0000,  1.5000)
   7 Al     5.892715    1.964277    0.000019    ( 0.0000,  0.0000,  0.0000)
   8 Al     7.857016   -0.000039    0.000016    ( 0.0000,  0.0000,  0.0000)
   9 Co     7.857004    1.964254    1.964254    ( 0.0000,  0.0000,  2.1000)
  10 Ni     9.821258    0.000005    1.964242    ( 0.0000,  0.0000,  1.5000)
  11 Co     9.821258    1.964254    0.000001    ( 0.0000,  0.0000,  2.1000)
  12 Ni     0.000001    3.928496   -0.000007    ( 0.0000,  0.0000,  1.5000)
  13 Cr    -0.000004    5.892750    1.964254    ( 0.0000,  0.0000,  0.0000)
  14 Fe     1.964254    3.928496    1.964242    ( 0.0000,  0.0000,  2.0000)
  15 Cr     1.964254    5.892738   -0.000009    ( 0.0000,  0.0000,  0.0000)
  16 Co     3.928496    3.928496    0.000000    ( 0.0000,  0.0000,  2.1000)
  17 Cr     3.928520    5.892738    1.964242    ( 0.0000,  0.0000,  0.0000)
  18 Co     5.892750    3.928508    1.964254    ( 0.0000,  0.0000,  2.1000)
  19 Fe     5.892750    5.892750    0.000007    ( 0.0000,  0.0000,  2.0000)
  20 Cr     7.857004    3.928508    0.000013    ( 0.0000,  0.0000,  0.0000)
  21 Fe     7.856992    5.892750    1.964254    ( 0.0000,  0.0000,  2.0000)
  22 Co     9.821246    3.928496    1.964254    ( 0.0000,  0.0000,  2.1000)
  23 Al     9.821246    5.892750   -0.000004    ( 0.0000,  0.0000,  0.0000)
  24 Ni    -0.000006    7.857004   -0.000010    ( 0.0000,  0.0000,  1.5000)
  25 Cr    -0.000007    9.821246    1.964254    ( 0.0000,  0.0000,  0.0000)
  26 Cr     1.964242    7.857004    1.964254    ( 0.0000,  0.0000,  0.0000)
  27 Al     1.964207    9.821246    0.000004    ( 0.0000,  0.0000,  0.0000)
  28 Cr     3.928520    7.856992    0.000003    ( 0.0000,  0.0000,  0.0000)
  29 Cr     3.928520    9.821258    1.964254    ( 0.0000,  0.0000,  0.0000)
  30 Fe     5.892762    7.856992    1.964242    ( 0.0000,  0.0000,  2.0000)
  31 Fe     5.892750    9.821246    0.000006    ( 0.0000,  0.0000,  2.0000)
  32 Ni     7.856992    7.857004    0.000011    ( 0.0000,  0.0000,  1.5000)
  33 Cr     7.856992    9.821246    1.964242    ( 0.0000,  0.0000,  0.0000)
  34 Co     9.821258    7.856992    1.964254    ( 0.0000,  0.0000,  2.1000)
  35 Ni     9.821258    9.821246   -0.000007    ( 0.0000,  0.0000,  1.5000)
  36 Ni     0.000003   -0.000004    3.928508    ( 0.0000,  0.0000,  1.5000)
  37 Co    -0.000002    1.964242    5.892750    ( 0.0000,  0.0000,  2.1000)
  38 Co     1.964242   -0.000005    5.892750    ( 0.0000,  0.0000,  2.1000)
  39 Cr     1.964242    1.964242    3.928484    ( 0.0000,  0.0000,  0.0000)
  40 Fe     3.928508    0.000001    3.928496    ( 0.0000,  0.0000,  2.0000)
  41 Al     3.928520    1.964230    5.892774    ( 0.0000,  0.0000,  0.0000)
  42 Fe     5.892750   -0.000002    5.892750    ( 0.0000,  0.0000,  2.0000)
  43 Ni     5.892750    1.964242    3.928496    ( 0.0000,  0.0000,  1.5000)
  44 Cr     7.856992   -0.000000    3.928508    ( 0.0000,  0.0000,  0.0000)
  45 Co     7.856992    1.964242    5.892750    ( 0.0000,  0.0000,  2.1000)
  46 Co     9.821246   -0.000002    5.892750    ( 0.0000,  0.0000,  2.1000)
  47 Ni     9.821246    1.964254    3.928508    ( 0.0000,  0.0000,  1.5000)
  48 Ni    -0.000004    3.928496    3.928496    ( 0.0000,  0.0000,  1.5000)
  49 Cr    -0.000010    5.892750    5.892750    ( 0.0000,  0.0000,  0.0000)
  50 Co     1.964242    3.928496    5.892762    ( 0.0000,  0.0000,  2.1000)
  51 Al     1.964230    5.892738    3.928496    ( 0.0000,  0.0000,  0.0000)
  52 Al     3.928520    3.928508    3.928484    ( 0.0000,  0.0000,  0.0000)
  53 Fe     3.928508    5.892738    5.892750    ( 0.0000,  0.0000,  2.0000)
  54 Fe     5.892750    3.928508    5.892750    ( 0.0000,  0.0000,  2.0000)
  55 Fe     5.892750    5.892750    3.928496    ( 0.0000,  0.0000,  2.0000)
  56 Ni     7.856992    3.928508    3.928496    ( 0.0000,  0.0000,  1.5000)
  57 Ni     7.856992    5.892738    5.892738    ( 0.0000,  0.0000,  1.5000)
  58 Co     9.821258    3.928496    5.892738    ( 0.0000,  0.0000,  2.1000)
  59 Co     9.821258    5.892750    3.928496    ( 0.0000,  0.0000,  2.1000)
[...]
  93 Cr     7.856992    5.892750    9.821258    ( 0.0000,  0.0000,  0.0000)
  94 Fe     9.821258    3.928496    9.821246    ( 0.0000,  0.0000,  2.0000)
  95 Cr     9.821258    5.892750    7.857004    ( 0.0000,  0.0000,  0.0000)
  96 Ni    -0.000006    7.857016    7.857016    ( 0.0000,  0.0000,  1.5000)
  97 Fe    -0.000003    9.821246    9.821246    ( 0.0000,  0.0000,  2.0000)
  98 Co     1.964242    7.856992    9.821246    ( 0.0000,  0.0000,  2.1000)
  99 Ni     1.964242    9.821270    7.857004    ( 0.0000,  0.0000,  1.5000)
 100 Cr     3.928496    7.856992    7.857004    ( 0.0000,  0.0000,  0.0000)
 101 Al     3.928520    9.821246    9.821223    ( 0.0000,  0.0000,  0.0000)
 102 Cr     5.892750    7.856992    9.821270    ( 0.0000,  0.0000,  0.0000)
 103 Co     5.892762    9.821270    7.856992    ( 0.0000,  0.0000,  2.1000)
 104 Al     7.857016    7.857027    7.857016    ( 0.0000,  0.0000,  0.0000)
 105 Ni     7.857004    9.821246    9.821246    ( 0.0000,  0.0000,  1.5000)
 106 Co     9.821258    7.857004    9.821246    ( 0.0000,  0.0000,  2.1000)
 107 Fe     9.821258    9.821258    7.857004    ( 0.0000,  0.0000,  2.0000)

Unit cell:
           periodic     x           y           z      points  spacing
  1. axis:    yes   11.785500    0.000000    0.000000    54     0.2183
  2. axis:    yes    0.000000   11.785500    0.000000    54     0.2183
  3. axis:    yes    0.000000    0.000000   11.785500    54     0.2183

  Lengths:  11.785500  11.785500  11.785500
  Angles:   90.000000  90.000000  90.000000

Effective grid spacing dv^(1/3) = 0.2182

     iter     time        total  log10-change:  magmom
                         energy  eigst   dens
iter:   1 16:10:01 -1008.439379                  +129.0864
iter:   2 16:11:44  -871.406053  -0.00  -1.15    +68.8402
iter:   3 16:13:30  -877.644830  -0.49  -1.07    +72.6844
iter:   4 16:15:18  -802.783541  -1.10  -1.16    +67.4214
iter:   5 16:17:02  -792.890864  -1.65  -1.30    +68.9473
iter:   6 16:18:46  -798.211073  -1.61  -1.34    +77.4849
iter:   7 16:20:33  -798.625821  -1.27  -1.32    +81.1813
iter:   8 16:22:22  -793.338668  -1.38  -1.38    +85.5985
iter:   9 16:24:09  -790.886935  -1.38  -1.43    +86.5422
iter:  10 16:25:52  -790.265623  -1.68  -1.58    +87.8465
iter:  11 16:27:38  -791.502778  -1.70  -1.62    +88.7432
iter:  12 16:29:25  -785.088303  -2.05  -1.59    +88.2393
iter:  13 16:31:11  -785.076661  -2.17  -1.78    +89.0486
iter:  14 16:32:55  -784.697965  -2.47  -1.82    +88.6191
iter:  15 16:34:42  -786.426485  -2.47  -1.87    +88.0426
iter:  16 16:36:28  -787.619138  -2.59  -1.90    +87.4711
iter:  17 16:38:10  -788.060727  -2.50  -1.85    +85.8403
iter:  18 16:39:56  -788.907239  -2.56  -1.92    +86.0034
iter:  19 16:41:45  -789.336318  -2.56  -1.95    +84.4450
iter:  20 16:43:31  -789.770466  -2.68  -1.98    +84.4618
iter:  21 16:45:18  -789.882711  -2.90  -1.99    +84.2743
iter:  22 16:47:03  -790.558600  -2.89  -2.06    +83.6432
iter:  23 16:48:51  -790.472475  -3.22  -2.04    +83.5767
iter:  24 16:50:40  -790.863543  -3.15  -2.08    +82.9621
iter:  25 16:52:26  -790.994206  -3.42  -2.09    +83.1845
iter:  26 16:54:11  -791.405557  -3.18  -2.10    +82.5453
iter:  27 16:55:57  -791.379597  -3.03  -2.11    +82.5146
iter:  28 16:57:46  -791.987612  -2.75  -2.18    +82.1538
iter:  29 16:59:36  -791.755343  -3.03  -2.21    +81.6679
iter:  30 17:01:23  -791.973646  -3.19  -2.32    +81.4431
iter:  31 17:03:06  -792.198734  -3.45  -2.37    +81.2364
iter:  32 17:04:52  -792.407463  -3.53  -2.40    +81.1158
iter:  33 17:06:41  -792.614125  -3.69  -2.44    +80.7301
iter:  34 17:08:29  -792.904944  -3.48  -2.47    +79.8133
iter:  35 17:10:16  -793.229076  -3.25  -2.47    +78.7987
iter:  36 17:12:02  -793.515757  -3.21  -2.41    +78.1318
iter:  37 17:13:46  -793.354991  -3.77  -2.36    +78.5408
iter:  38 17:15:34  -793.423217  -3.84  -2.46    +78.4225
iter:  39 17:17:23  -793.387293c -4.18  -2.45    +78.4585
iter:  40 17:19:08  -793.320643  -3.94  -2.47    +78.3959
iter:  41 17:20:53  -793.326140c -3.70  -2.46    +78.2956
iter:  42 17:22:39  -793.275161c -3.79  -2.48    +78.1090
iter:  43 17:24:28  -793.307595c -3.55  -2.51    +77.9524
iter:  44 17:26:17  -793.308086c -3.56  -2.50    +77.8854
iter:  45 17:28:04  -793.166019  -3.49  -2.55    +77.9388
iter:  46 17:29:49  -793.248382  -3.67  -2.79    +78.0186
iter:  47 17:31:34  -793.166192c -4.03  -2.67    +77.9464
iter:  48 17:33:23  -793.169096c -4.42  -2.91    +77.9235
iter:  49 17:35:12  -793.173035c -4.59  -2.96    +78.0071
iter:  50 17:36:58  -793.172449c -4.44  -3.01    +78.0046
iter:  51 17:38:44  -793.169996c -4.64  -3.10    +78.0167
iter:  52 17:40:30  -793.171517c -4.65  -3.16    +78.0361
iter:  53 17:42:18  -793.168526c -4.89  -3.25    +78.0637
iter:  54 17:44:07  -793.168741c -5.24  -3.34    +78.0601
iter:  55 17:45:52  -793.170552c -5.29  -3.36    +78.0540
iter:  56 17:47:37  -793.169585c -5.34  -3.37    +78.0517
iter:  57 17:49:24  -793.169611c -5.29  -3.43    +78.0494
iter:  58 17:51:12  -793.170474c -5.30  -3.51    +78.0341
iter:  59 17:53:00  -793.169384c -5.60  -3.57    +78.0418
iter:  60 17:54:46  -793.168929c -5.75  -3.61    +78.0575
iter:  61 17:56:32  -793.169189c -6.15  -3.79    +78.0569
iter:  62 17:58:18  -793.168724c -6.39  -3.75    +78.0573
iter:  63 18:00:08  -793.169193c -6.32  -3.84    +78.0564
iter:  64 18:01:57  -793.169180c -6.40  -3.84    +78.0557
iter:  65 18:03:44  -793.168725c -6.53  -3.87    +78.0560
iter:  66 18:05:32  -793.168806c -6.53  -3.95    +78.0536
iter:  67 18:07:16  -793.168893c -6.67  -4.02c   +78.0510
iter:  68 18:09:03  -793.168791c -6.67  -4.01c   +78.0484
iter:  69 18:10:53  -793.168590c -6.64  -4.10c   +78.0474
iter:  70 18:12:39  -793.169356c -6.48  -4.13c   +78.0487
iter:  71 18:14:25  -793.168716c -6.53  -4.05c   +78.0492
iter:  72 18:16:12  -793.168942c -6.59  -4.17c   +78.0526
iter:  73 18:18:00  -793.168747c -6.53  -4.28c   +78.0511
iter:  74 18:19:48  -793.168642c -6.84  -4.16c   +78.0501
iter:  75 18:21:35  -793.168800c -7.12  -4.35c   +78.0500
iter:  76 18:23:18  -793.168627c -7.23  -4.45c   +78.0512
iter:  77 18:25:05  -793.168869c -7.26  -4.46c   +78.0498
iter:  78 18:26:54  -793.168678c -7.59c -4.42c   +78.0497

Converged after 78 iterations.

Dipole moment: (-0.416473, -0.073616, 0.269630) |e|*Ang

Total magnetic moment: (0.000000, 0.000000, 78.049653)
Local magnetic moments:
   0 Fe ( 0.000000,  0.000000,  2.892040)
   1 Cr ( 0.000000,  0.000000,  2.978079)
   2 Ni ( 0.000000,  0.000000,  0.126066)
   3 Cr ( 0.000000,  0.000000, -3.085987)
   4 Al ( 0.000000,  0.000000, -0.005971)
   5 Fe ( 0.000000,  0.000000,  2.768451)
   6 Ni ( 0.000000,  0.000000,  0.313371)
   7 Al ( 0.000000,  0.000000, -0.011262)
   8 Al ( 0.000000,  0.000000, -0.022636)
   9 Co ( 0.000000,  0.000000,  1.759623)
  10 Ni ( 0.000000,  0.000000,  0.290516)
  11 Co ( 0.000000,  0.000000,  1.653523)
  12 Ni ( 0.000000,  0.000000,  0.444582)
  13 Cr ( 0.000000,  0.000000,  2.726864)
  14 Fe ( 0.000000,  0.000000,  2.609771)
  15 Cr ( 0.000000,  0.000000, -3.000527)
  16 Co ( 0.000000,  0.000000,  1.579835)
  17 Cr ( 0.000000,  0.000000, -2.843184)
  18 Co ( 0.000000,  0.000000,  1.608936)
  19 Fe ( 0.000000,  0.000000,  2.807601)
  20 Cr ( 0.000000,  0.000000, -3.079287)
  21 Fe ( 0.000000,  0.000000,  2.884299)
  22 Co ( 0.000000,  0.000000,  1.690889)
  23 Al ( 0.000000,  0.000000, -0.040572)
  24 Ni ( 0.000000,  0.000000,  0.368951)
  25 Cr ( 0.000000,  0.000000, -3.078995)
  26 Cr ( 0.000000,  0.000000,  2.632442)
  27 Al ( 0.000000,  0.000000, -0.009796)
  28 Cr ( 0.000000,  0.000000, -2.905928)
  29 Cr ( 0.000000,  0.000000, -3.031119)
  30 Fe ( 0.000000,  0.000000,  2.625100)
  31 Fe ( 0.000000,  0.000000,  2.556005)
  32 Ni ( 0.000000,  0.000000,  0.538489)
  33 Cr ( 0.000000,  0.000000,  2.928092)
  34 Co ( 0.000000,  0.000000,  1.530991)
  35 Ni ( 0.000000,  0.000000,  0.558469)
  36 Ni ( 0.000000,  0.000000,  0.332282)
  37 Co ( 0.000000,  0.000000,  1.935920)
  38 Co ( 0.000000,  0.000000,  1.702572)
  39 Cr ( 0.000000,  0.000000, -3.054657)
  40 Fe ( 0.000000,  0.000000,  2.879166)
  41 Al ( 0.000000,  0.000000, -0.036213)
  42 Fe ( 0.000000,  0.000000,  2.885865)
  43 Ni ( 0.000000,  0.000000,  0.527429)
  44 Cr ( 0.000000,  0.000000, -3.077183)
  45 Co ( 0.000000,  0.000000,  1.862106)
  46 Co ( 0.000000,  0.000000,  1.804870)
  47 Ni ( 0.000000,  0.000000,  0.653027)
  48 Ni ( 0.000000,  0.000000,  0.508119)
  49 Cr ( 0.000000,  0.000000,  2.887181)
  50 Co ( 0.000000,  0.000000,  1.499316)
  51 Al ( 0.000000,  0.000000, -0.043463)
  52 Al ( 0.000000,  0.000000, -0.027432)
  53 Fe ( 0.000000,  0.000000,  2.600976)
  54 Fe ( 0.000000,  0.000000,  2.877781)
  55 Fe ( 0.000000,  0.000000,  2.675679)
  56 Ni ( 0.000000,  0.000000,  0.733051)
  57 Ni ( 0.000000,  0.000000,  0.190275)
  58 Co ( 0.000000,  0.000000,  1.800258)
  59 Co ( 0.000000,  0.000000,  1.755051)
[...]
  93 Cr ( 0.000000,  0.000000,  2.888908)
  94 Fe ( 0.000000,  0.000000,  2.747185)
  95 Cr ( 0.000000,  0.000000, -2.945130)
  96 Ni ( 0.000000,  0.000000,  0.453399)
  97 Fe ( 0.000000,  0.000000,  2.988599)
  98 Co ( 0.000000,  0.000000,  1.378527)
  99 Ni ( 0.000000,  0.000000,  0.533764)
 100 Cr ( 0.000000,  0.000000,  2.819904)
 101 Al ( 0.000000,  0.000000, -0.011088)
 102 Cr ( 0.000000,  0.000000, -2.972842)
 103 Co ( 0.000000,  0.000000,  1.413229)
 104 Al ( 0.000000,  0.000000, -0.017262)
 105 Ni ( 0.000000,  0.000000,  0.449159)
 106 Co ( 0.000000,  0.000000,  1.650339)
 107 Fe ( 0.000000,  0.000000,  2.931242)

Energy contributions relative to reference atoms: (reference = -3382523.201499)

Kinetic:       -262.898386
Potential:     +155.865027
External:        +0.000000
XC:            -713.652931
Entropy (-ST):   -4.513979
Local:          +29.774603
Free energy:   -795.425667
Extrapolated:  -793.168678

Spin contamination: 58.876110 electrons
Showing only first 2 kpts
                      Up                     Down
 Kpt  Band  Eigenvalues  Occupancy  Eigenvalues  Occupancy
  0   470      6.00471    0.99974      7.18880    0.02673
  0   471      6.01332    0.99971      7.19447    0.02530
  0   472      6.02819    0.99967      7.20381    0.02309
  0   473      6.04872    0.99959      7.21296    0.02111

  1   470      6.01613    0.99971      7.18339    0.02817
  1   471      6.03054    0.99966      7.19845    0.02433
  1   472      6.04308    0.99962      7.20596    0.02261
  1   473      6.05823    0.99955      7.21018    0.02170

Fermi level: 6.82931

No gap

Forces in eV/Ang:
  0 Fe   -0.34233    0.09227   -0.46940
  1 Cr   -0.27592   -0.06155    0.21721
  2 Ni    0.08228   -0.06862   -0.07251
  3 Cr   -0.33740    0.40247    0.04555
  4 Al   -0.15831    0.19535    0.44411
  5 Fe   -0.02983    0.34066    0.00785
  6 Ni   -0.05329    0.21702   -0.10646
  7 Al   -0.41327    0.72511    0.58287
  8 Al    0.82448   -0.54087    0.38451
  9 Co    0.27054    0.36908    0.18457
 10 Ni    0.06324    0.15840   -0.03725
 11 Co    0.08266    0.09911    0.07221
 12 Ni    0.02457   -0.11718   -0.14607
 13 Cr   -0.34267   -0.23499   -0.04753
 14 Fe    0.32222   -0.09520   -0.23284
 15 Cr   -0.79458   -0.43888   -0.44799
 16 Co   -0.00600    0.16929   -0.06337
 17 Cr    0.36254   -0.23738    0.00068
 18 Co    0.16813   -0.09010    0.16286
 19 Fe   -0.37141   -0.08562    0.46281
 20 Cr    0.10414    0.28089    0.25496
 21 Fe    0.09457   -0.09184    0.13937
 22 Co   -0.32190   -0.14517    0.16411
 23 Al    0.27752    0.44791    0.03439
 24 Ni   -0.13399    0.11102   -0.08185
 25 Cr    0.02018   -0.01309   -0.14888
 26 Cr    0.43875    0.14690   -0.42325
 27 Al   -0.77953   -0.10598   -0.11561
 28 Cr    0.13135   -0.13434   -0.10375
 29 Cr    0.33927    0.43037    0.72157
 30 Fe   -0.11402   -0.21194   -0.20010
 31 Fe   -0.02573   -0.43147   -0.02251
 32 Ni   -0.01186    0.11339    0.04303
 33 Cr    0.45033    0.13300    0.12903
 34 Co    0.11120   -0.09061   -0.02759
 35 Ni    0.08610   -0.13067   -0.07195
 36 Ni   -0.07392   -0.04279    0.21464
 37 Co   -0.06688    0.08762    0.08225
 38 Co   -0.18570   -0.04357    0.15070
 39 Cr   -0.64089   -0.18005   -0.28273
 40 Fe    0.04447   -0.20978   -0.17367
 41 Al   -0.02753   -0.11565    0.55644
 42 Fe    0.21734    0.03801    0.09056
 43 Ni   -0.00804    0.07268   -0.01795
 44 Cr   -0.39659    0.46403    0.06851
 45 Co   -0.00356    0.05570    0.04739
 46 Co    0.09373   -0.00145    0.07159
 47 Ni   -0.07521    0.04795    0.08662
 48 Ni   -0.02970   -0.04971    0.07374
 49 Cr   -0.18056   -0.45637    0.26923
 50 Co    0.04078   -0.24445    0.08657
 51 Al   -0.83278   -0.59504    0.02659
 52 Al    0.55675   -0.07273   -0.05191
 53 Fe    0.21409   -0.46687    0.01628
 54 Fe    0.30864    0.06295   -0.02324
 55 Fe    0.16612   -0.38475   -0.21877
 56 Ni    0.05594   -0.10866   -0.05290
 57 Ni    0.06776    0.08861   -0.12554
 58 Co    0.01800   -0.26765   -0.28334
 59 Co   -0.20327   -0.26098   -0.04775
[...]
 93 Cr   -0.09882    0.20110   -0.01984
 94 Fe    0.81456   -0.61177    0.03234
 95 Cr    0.50221   -0.36065    0.39682
 96 Ni   -0.04016    0.18302    0.23227
 97 Fe   -0.10374   -0.21607   -0.16876
 98 Co   -0.24796   -0.11394    0.05050
 99 Ni   -0.12383    0.10242    0.03468
100 Cr   -0.08307    0.25260    0.20195
101 Al   -0.29897   -0.14718   -0.85488
102 Cr    0.50563   -0.12215   -0.16724
103 Co    0.45147    0.43813   -0.01515
104 Al    0.00457    0.20908    0.38010
105 Ni    0.08312   -0.00928   -0.00577
106 Co    0.24001    0.37791    0.06201
107 Fe    0.04989    0.18920    0.05234

Date: Sat Apr  8 18:27:24 2023