User:   c.zeng@d0047
Date:   Fri Apr 14 00:10:13 2023
Arch:   x86_64
Pid:    132507
CWD:    /home/c.zeng/projects/hea-corrosion/hea-mlp/data-curation/bulk-md/dft-jobs/61
Python: 3.8.1
gpaw:   /home/c.zeng/usr/installs/gpaw/source/gpaw-22.8.0/gpaw
_gpaw:  /home/c.zeng/usr/installs/gpaw/source/gpaw-22.8.0/
        _gpaw.cpython-38-x86_64-linux-gnu.so
ase:    /home/c.zeng/.local/lib/python3.8/site-packages/ase-3.22.1-py3.8.egg/ase (version 3.22.1)
numpy:  /shared/centos7/python/3.8.1/lib/python3.8/site-packages/numpy (version 1.17.4)
scipy:  /shared/centos7/python/3.8.1/lib/python3.8/site-packages/scipy (version 1.4.1)
units:  Angstrom and eV
cores: 30
OpenMP: False
OMP_NUM_THREADS: 1

Input parameters:
  convergence: {energy: 0.0001}
  kpts: [2 2 2]
  maxiter: 666
  mode: {ecut: 350.0,
         name: pw}
  occupations: {fixmagmom: False,
                name: fermi-dirac,
                width: 0.1}
  spinpol: True
  xc: PBE

System changes: positions, numbers, cell, pbc, initial_charges, initial_magmoms

Initialize ...

species:
  Fe:
    name: Iron
    id: 37abbd8d6c3c35915a9b583b742da910
    Z: 26.0
    valence: 8
    core: 18
    charge: 0.0
    file: /home/c.zeng/usr/data/gpaw-setups-0.9.20000/Fe.PBE.gz
    compensation charges: {type: gauss,
                           rc: 0.33,
                           lmax: 2}
    cutoffs: {filter: 2.06,
              core: 2.67}
    valence states:
      #              energy  rcut
      - 4s(2.00)    -5.291   1.164
      - 4p(0.00)    -1.326   1.058
      - 3d(6.00)    -7.505   1.058
      -  s          21.920   1.164
      -  p          25.885   1.058
      -  d          19.706   1.058

    # Using partial waves for Fe as LCAO basis

  Cr:
    name: Chromium
    id: 33f258bda2ca9f93018e70263a35547b
    Z: 24.0
    valence: 6
    core: 18
    charge: 0.0
    file: /home/c.zeng/usr/data/gpaw-setups-0.9.20000/Cr.PBE.gz
    compensation charges: {type: gauss,
                           rc: 0.35,
                           lmax: 2}
    cutoffs: {filter: 2.14,
              core: 3.04}
    valence states:
      #              energy  rcut
      - 4s(1.00)    -4.007   1.164
      - 4p(0.00)    -0.989   1.217
      - 3d(5.00)    -2.913   1.111
      -  s          23.205   1.164
      -  p          26.223   1.217
      -  d          24.299   1.111

[...]

  Ni:
    name: Nickel
    id: 0d9f38a9d6e76a2886f07bb4381f212b
    Z: 28.0
    valence: 16
    core: 12
    charge: 0.0
    file: /home/c.zeng/usr/data/gpaw-setups-0.9.20000/Ni.PBE.gz
    compensation charges: {type: gauss,
                           rc: 0.36,
                           lmax: 2}
    cutoffs: {filter: 2.14,
              core: 1.98}
    valence states:
      #              energy  rcut
      - 4s(2.00)    -5.642   1.164
      - 3p(6.00)   -71.394   1.207
      - 4p(0.00)    -1.226   1.207
      - 3d(8.00)    -8.875   1.138
      -  s          21.570   1.164
      -  d          18.337   1.138

[...]

  Al:
    name: Aluminium
    id: 0292cae29f5d6237e50f6abdd43a7bdd
    Z: 13.0
    valence: 3
    core: 10
    charge: 0.0
    file: /home/c.zeng/usr/data/gpaw-setups-0.9.20000/Al.PBE.gz
    compensation charges: {type: gauss,
                           rc: 0.34,
                           lmax: 2}
    cutoffs: {filter: 1.91,
              core: 2.36}
    valence states:
      #              energy  rcut
      - 3s(2.00)    -7.753   1.085
      - 3p(1.00)    -2.712   1.085
      -  s          19.459   1.085
      -  p          24.499   1.085
      -  d           0.000   1.085

[...]

  Co:
    name: Cobalt
    id: 339d20d5b0b93d2de9531a1bee871d91
    Z: 27.0
    valence: 9
    core: 18
    charge: 0.0
    file: /home/c.zeng/usr/data/gpaw-setups-0.9.20000/Co.PBE.gz
    compensation charges: {type: gauss,
                           rc: 0.32,
                           lmax: 2}
    cutoffs: {filter: 1.87,
              core: 2.55}
    valence states:
      #              energy  rcut
      - 4s(2.00)    -5.469   1.005
      - 4p(0.00)    -1.277   1.058
      - 3d(7.00)    -8.205   1.005
      -  s          21.742   1.005
      -  p          25.934   1.058
      -  d          19.007   1.005

    # Using partial waves for Co as LCAO basis

Reference energy: -3382523.201499  # eV

Spin-polarized calculation.
Magnetic moment: 128.800000

Convergence criteria:
 Maximum [total energy] change in last 3 cyles: 0.0001 eV / electron
 Maximum integral of absolute [dens]ity change: 0.0001 electrons / valence electron
 Maximum integral of absolute [eigenst]ate change: 4e-08 eV^2 / valence electron
 Maximum number of scf [iter]ations: 666
 (Square brackets indicate name in SCF output, whereas a 'c' in
 the SCF output indicates the quantity has converged.)

Symmetries present (total): 1

  ( 1  0  0)
  ( 0  1  0)
  ( 0  0  1)

8 k-points: 2 x 2 x 2 Monkhorst-Pack grid
4 k-points in the irreducible part of the Brillouin zone
       k-points in crystal coordinates                weights
   0:     0.25000000   -0.25000000   -0.25000000          2/8
   1:     0.25000000   -0.25000000    0.25000000          2/8
   2:     0.25000000    0.25000000   -0.25000000          2/8
   3:     0.25000000    0.25000000    0.25000000          2/8

Wave functions: Plane wave expansion
  Cutoff energy: 350.000 eV
  Number of coefficients (min, max): 18865, 18865
  Pulay-stress correction: 0.000000 eV/Ang^3 (de/decut=0.000000)
  Using FFTW library
  ScaLapack parameters: grid=1x1, blocksize=None
  Wavefunction extrapolation:
    Improved wavefunction reuse through dual PAW basis

Occupation numbers: Fermi-Dirac:
  width: 0.1000  # eV

Eigensolver
   Davidson(niter=2)

Densities:
  Coarse grid: 48*48*48 grid
  Fine grid: 96*96*96 grid
  Total Charge: 0.000000

Density mixing:
  Method: difference
  Backend: pulay
  Linear mixing parameter: 0.05
  old densities: 5
  Damping of long wavelength oscillations: 50

Hamiltonian:
  XC and Coulomb potentials evaluated on a 96*96*96 grid
  Using the PBE Exchange-Correlation functional
  External potential:
    NoExternalPotential

XC parameters: PBE with 2 nearest neighbor stencil

Total number of cores used: 30
Parallelization over k-points: 2
Domain decomposition: 5 x 3 x 1

Number of atoms: 108
Number of atomic orbitals: 961
Number of bands in calculation: 649
Number of valence electrons: 945
Bands to converge: occupied

... initialized

Initializing position-dependent things.

Density initialized from atomic densities
Creating initial wave functions:
  649 bands from LCAO basis set

       /|           Fe             |
      / |   Co          Ni     Ni  |
     / Fe       Al       Ni        |
    /   |Cr       Fe       AlCo    |
   /    | CoiCo    CrCCr      Ni   |
  /     |     FeAl    CrAl     Fe  |
 *      CoAlCoCr Ni  Fe   Fe   CNi |
 |Co    |CrFe   CrCoAl   FeCr    Co|
 |  Ni  | AlNiCrFe AlAl   CrCr     Ni
 |     Co  NiFeFe   Ni NiNi  CrCr  |
 Fe    CoFe    AlFe CoiAl Co  NiFe |
 |Co   CrAl     CrFe Co Cr Co      |
 |      FeCAll------FeNi----CoNi---.
 |     /   Al CNi             NCr /
 |    Cr       CrCo    FeNi      Ni
 |   / Fe           Co   Co     /
 |  /      Fe                Cr/
 | /  Ni                      /
 |/    Cr                Co  /
 *-----------------Al-------*

Positions:
   0 Fe    10.916576   10.695009   10.941756    ( 0.0000,  0.0000,  2.0000)
   1 Cr    10.783300    1.749768    1.628982    ( 0.0000,  0.0000,  0.0000)
   2 Ni     1.898091    0.014358    1.756426    ( 0.0000,  0.0000,  1.5000)
   3 Cr     1.734890    1.898043   10.939029    ( 0.0000,  0.0000,  0.0000)
   4 Al     3.673486    0.129871   -0.127099    ( 0.0000,  0.0000,  0.0000)
   5 Fe     3.733619    1.733936    1.790141    ( 0.0000,  0.0000,  2.0000)
   6 Ni     5.353384   10.733433    1.974137    ( 0.0000,  0.0000,  1.5000)
   7 Al     5.434310    2.160598   -0.048947    ( 0.0000,  0.0000,  0.0000)
   8 Al     7.214635   10.926485    0.131749    ( 0.0000,  0.0000,  0.0000)
   9 Co     7.095013    1.866933    1.994813    ( 0.0000,  0.0000,  2.1000)
  10 Ni     8.992490   -0.084765    1.725497    ( 0.0000,  0.0000,  1.5000)
  11 Co     9.026247    1.849235    0.131718    ( 0.0000,  0.0000,  2.1000)
  12 Ni    -0.208001    3.578765   10.735058    ( 0.0000,  0.0000,  1.5000)
  13 Cr    10.517894    5.391957    1.879118    ( 0.0000,  0.0000,  0.0000)
  14 Fe     1.540938    3.525197    1.731445    ( 0.0000,  0.0000,  2.0000)
  15 Cr     1.884089    5.411492   10.818684    ( 0.0000,  0.0000,  0.0000)
  16 Co     3.649818    3.757976   10.747785    ( 0.0000,  0.0000,  2.1000)
  17 Cr     3.653233    5.376507    1.736573    ( 0.0000,  0.0000,  0.0000)
  18 Co     5.391887    3.738304    1.880480    ( 0.0000,  0.0000,  2.1000)
  19 Fe     5.561519    5.317581   -0.116975    ( 0.0000,  0.0000,  2.0000)
  20 Cr     7.305384    3.703523   -0.149341    ( 0.0000,  0.0000,  0.0000)
  21 Fe     7.349998    5.277869    1.721170    ( 0.0000,  0.0000,  2.0000)
  22 Co     8.913168    3.428530    1.889829    ( 0.0000,  0.0000,  2.1000)
  23 Al     9.058408    5.415742   10.752889    ( 0.0000,  0.0000,  0.0000)
  24 Ni    10.809486    7.112672   10.955723    ( 0.0000,  0.0000,  1.5000)
  25 Cr    10.852732    8.800667    1.938964    ( 0.0000,  0.0000,  0.0000)
  26 Cr     1.907551    7.205794    1.887286    ( 0.0000,  0.0000,  0.0000)
  27 Al     1.727183    8.812102    0.102393    ( 0.0000,  0.0000,  0.0000)
  28 Cr     3.671212    7.285320    0.036195    ( 0.0000,  0.0000,  0.0000)
  29 Cr     3.600449    9.075453    1.691339    ( 0.0000,  0.0000,  0.0000)
  30 Fe     5.550108    7.223336    1.720747    ( 0.0000,  0.0000,  2.0000)
  31 Fe     5.431901    9.127189   -0.056191    ( 0.0000,  0.0000,  2.0000)
  32 Ni     7.279905    7.275523   -0.062576    ( 0.0000,  0.0000,  1.5000)
  33 Cr     7.075468    8.964465    1.663063    ( 0.0000,  0.0000,  0.0000)
  34 Co     8.940156    7.279312    1.775542    ( 0.0000,  0.0000,  2.1000)
  35 Ni     9.235829    8.880096   10.829481    ( 0.0000,  0.0000,  1.5000)
  36 Ni    -0.160144   10.755385    3.522374    ( 0.0000,  0.0000,  1.5000)
  37 Co    10.890894    1.794494    5.424886    ( 0.0000,  0.0000,  2.1000)
  38 Co     1.695254   10.642923    5.374389    ( 0.0000,  0.0000,  2.1000)
  39 Cr     1.668701    1.646244    3.638546    ( 0.0000,  0.0000,  0.0000)
  40 Fe     3.428348   10.708749    3.580801    ( 0.0000,  0.0000,  2.0000)
  41 Al     3.428727    1.710153    5.290599    ( 0.0000,  0.0000,  0.0000)
  42 Fe     5.326258   10.771810    5.347990    ( 0.0000,  0.0000,  2.0000)
  43 Ni     5.355460    1.729040    3.771783    ( 0.0000,  0.0000,  1.5000)
  44 Cr     7.131120   -0.121848    3.535289    ( 0.0000,  0.0000,  0.0000)
  45 Co     7.444730    1.788170    5.392009    ( 0.0000,  0.0000,  2.1000)
  46 Co     9.076071   10.707130    5.300751    ( 0.0000,  0.0000,  2.1000)
  47 Ni     9.101155    1.751881    3.509519    ( 0.0000,  0.0000,  1.5000)
  48 Ni    10.720543    3.603359    3.544986    ( 0.0000,  0.0000,  1.5000)
  49 Cr    10.680082    5.599295    5.287099    ( 0.0000,  0.0000,  0.0000)
  50 Co     1.572620    3.718660    5.265667    ( 0.0000,  0.0000,  2.1000)
  51 Al     1.675999    5.413814    3.544900    ( 0.0000,  0.0000,  0.0000)
[...]
iter: 188 07:20:40  -818.586922c -5.36  -3.83    +65.7285
iter: 189 07:22:49  -818.582458c -5.59  -4.02c   +65.7080
iter: 190 07:24:58  -818.582279c -6.49  -3.81    +65.7112
iter: 191 07:27:05  -818.585008c -5.91  -3.82    +65.7243
iter: 192 07:29:14  -818.589072c -5.35  -3.92    +65.7429
iter: 193 07:31:23  -818.582657c -5.20  -3.96    +65.6933
iter: 194 07:33:30  -818.581086c -5.87  -3.79    +65.6843
iter: 195 07:35:38  -818.583934c -6.01  -3.80    +65.7057
iter: 196 07:37:48  -818.582927c -6.71  -3.79    +65.6973
iter: 197 07:39:56  -818.584709c -6.19  -3.80    +65.7024
iter: 198 07:42:04  -818.585755c -5.25  -3.77    +65.7190
iter: 199 07:44:12  -818.586456c -5.45  -3.46    +65.6760
iter: 200 07:46:20  -818.590632c -5.37  -3.82    +65.6659
iter: 201 07:48:27  -818.586105c -5.46  -3.80    +65.6994
iter: 202 07:50:35  -818.587798c -5.90  -3.80    +65.7463
iter: 203 07:52:43  -818.591265c -5.70  -4.03c   +65.7759
iter: 204 07:54:51  -818.608755c -4.54  -4.06c   +65.8998
iter: 205 07:56:59  -818.560964c -3.52  -3.61    +65.4382
iter: 206 07:59:08  -818.560022c -4.51  -3.33    +65.4026
iter: 207 08:01:18  -818.559628c -5.33  -3.29    +65.3762
iter: 208 08:04:21  -818.560166c -5.58  -3.29    +65.3385
iter: 209 08:06:34  -818.562926c -5.44  -3.31    +65.3361
iter: 210 08:08:42  -818.562359c -5.32  -3.34    +65.3526
iter: 211 08:10:50  -818.562419c -4.76  -3.32    +65.3362
iter: 212 08:12:58  -818.569045c -4.68  -3.10    +65.3759
iter: 213 08:15:07  -818.567002c -4.91  -3.22    +65.4306
iter: 214 08:17:15  -818.572384c -4.58  -3.41    +65.4580
iter: 215 08:19:23  -818.583988c -4.57  -3.27    +65.4870
iter: 216 08:21:32  -818.576701c -4.82  -3.19    +65.6126
iter: 217 08:23:41  -818.590845c -4.77  -3.61    +65.7378
iter: 218 08:25:49  -818.594784c -5.33  -3.61    +65.7756
iter: 219 08:27:57  -818.623874c -4.61  -3.63    +65.9572
iter: 220 08:30:05  -818.567299c -3.99  -3.34    +65.5169
iter: 221 08:32:14  -818.552210c -4.29  -3.50    +65.3363
iter: 222 08:34:23  -818.565489c -4.96  -3.39    +65.4810
iter: 223 08:36:31  -818.586093c -4.45  -3.62    +65.6984
iter: 224 08:38:39  -818.529084c -3.54  -3.66    +64.9212
iter: 225 08:40:47  -818.645470  -3.17  -3.15    +66.2622
iter: 226 08:42:55  -818.615785  -4.87  -3.21    +65.9742
iter: 227 08:45:03  -818.609315c -5.56  -3.42    +65.8874
iter: 228 08:47:11  -818.619593c -5.24  -3.49    +65.9871
iter: 229 08:49:19  -818.628860c -5.25  -3.37    +66.0382
iter: 230 08:51:27  -818.624168c -6.05  -3.25    +66.0278
iter: 231 08:53:35  -818.640399c -5.25  -3.33    +66.0333
iter: 232 08:55:55  -818.629449c -5.09  -3.21    +66.0305
iter: 233 08:58:53  -818.638753c -4.41  -3.22    +66.1367
iter: 234 09:01:02  -818.612246c -4.68  -3.08    +66.1319
iter: 235 09:03:11  -818.641313c -4.31  -3.16    +66.1309
iter: 236 09:05:19  -818.609343c -4.53  -2.94    +66.1317
iter: 237 09:07:27  -818.615731c -4.22  -3.15    +65.9944
iter: 238 09:09:36  -818.595347c -4.83  -3.11    +65.9782
iter: 239 09:11:44  -818.606261c -4.86  -3.47    +65.9032
iter: 240 09:13:53  -818.600732c -5.02  -3.30    +65.9931
iter: 241 09:16:01  -818.601230c -5.18  -3.42    +65.9572
iter: 242 09:18:09  -818.603254c -5.35  -3.48    +65.8644
iter: 243 09:20:18  -818.606215c -5.32  -3.59    +65.7942
iter: 244 09:22:26  -818.611949c -4.88  -3.65    +65.6324
iter: 245 09:24:34  -818.614669c -5.02  -3.58    +65.5212
iter: 246 09:26:58  -818.620609c -4.95  -3.49    +65.4174
iter: 247 09:29:49  -818.616365c -5.54  -3.39    +65.5105
iter: 248 09:31:57  -818.622179c -5.11  -3.46    +65.3869
iter: 249 09:34:06  -818.619223c -6.12  -3.40    +65.4096
iter: 250 09:36:14  -818.620570c -5.83  -3.42    +65.3969
iter: 251 09:38:22  -818.620844c -5.71  -3.44    +65.3566
iter: 252 09:40:31  -818.632727c -4.57  -3.40    +65.3276
iter: 253 09:42:39  -818.619972c -4.82  -3.16    +65.3232
iter: 254 09:44:47  -818.625593c -4.71  -3.42    +65.2668
iter: 255 09:46:55  -818.618417c -5.24  -3.28    +65.2760
iter: 256 09:49:03  -818.621022c -5.46  -3.60    +65.2685
iter: 257 09:51:10  -818.626117c -5.40  -3.74    +65.3137
iter: 258 09:53:19  -818.628119c -5.48  -3.67    +65.3299
iter: 259 09:55:27  -818.634046c -5.27  -3.73    +65.3607
iter: 260 09:57:34  -818.614387c -4.33  -3.63    +65.2685
iter: 261 09:59:42  -818.610311c -4.84  -3.68    +65.2465
iter: 262 10:01:50  -818.610697c -6.02  -3.61    +65.2537
iter: 263 10:03:58  -818.610529c -6.60  -3.66    +65.2524
iter: 264 10:06:05  -818.612605c -6.02  -3.67    +65.2674
iter: 265 10:08:13  -818.612064c -5.44  -3.70    +65.2652
iter: 266 10:10:51  -818.612634c -5.57  -3.65    +65.2692
iter: 267 10:13:34  -818.617588c -5.36  -3.84    +65.3062
iter: 268 10:15:42  -818.615934c -6.06  -3.84    +65.3018
iter: 269 10:17:50  -818.622318c -5.32  -4.04c   +65.3283
iter: 270 10:19:59  -818.620762c -6.15  -3.98    +65.3331
iter: 271 10:22:08  -818.621055c -5.12  -4.11c   +65.3807
iter: 272 10:24:16  -818.625388c -4.88  -3.73    +65.3296
iter: 273 10:26:26  -818.628335c -5.61  -3.86    +65.3731
iter: 274 10:28:33  -818.636457c -5.04  -3.76    +65.4397
iter: 275 10:30:41  -818.628477c -5.22  -3.53    +65.3610
iter: 276 10:32:50  -818.636547c -5.36  -3.77    +65.4027
iter: 277 10:34:58  -818.625819c -4.93  -3.65    +65.3067
iter: 278 10:37:06  -818.633503c -5.19  -3.73    +65.3682
iter: 279 10:39:14  -818.639251c -5.31  -3.70    +65.3847
iter: 280 10:41:22  -818.637853c -5.68  -3.54    +65.3865
iter: 281 10:43:30  -818.641279c -5.22  -3.51    +65.4104
iter: 282 10:45:37  -818.639823c -5.51  -3.41    +65.4084
iter: 283 10:47:45  -818.645217c -5.38  -3.56    +65.4107
iter: 284 10:49:53  -818.642070c -4.60  -3.36    +65.4277
iter: 285 10:52:38  -818.638590c -5.05  -3.40    +65.4241
iter: 286 10:55:13  -818.644443c -5.08  -3.51    +65.3977
iter: 287 10:57:21  -818.640898c -5.65  -3.44    +65.3547
iter: 288 10:59:30  -818.643173c -5.61  -3.81    +65.2756
iter: 289 11:01:39  -818.647517c -5.17  -3.86    +65.1650
iter: 290 11:03:48  -818.653117c -4.99  -3.79    +65.0251
iter: 291 11:05:56  -818.651938c -6.22  -3.64    +65.0588
iter: 292 11:08:04  -818.653559c -5.73  -3.68    +65.0168
iter: 293 11:10:13  -818.655806c -5.81  -3.66    +64.9903
iter: 294 11:12:21  -818.655876c -6.54  -3.63    +64.9878
iter: 295 11:14:29  -818.658015c -5.53  -3.62    +64.9575
iter: 296 11:16:37  -818.657701c -5.76  -3.57    +64.9511
iter: 297 11:18:45  -818.664095c -5.08  -3.50    +64.9162
iter: 298 11:21:24  -818.663349c -5.07  -3.40    +64.9172
iter: 299 11:24:05  -818.662256c -5.41  -3.44    +64.9397
iter: 300 11:26:13  -818.664792c -5.67  -3.68    +64.9439
iter: 301 11:28:21  -818.669586c -5.31  -3.68    +64.9366
iter: 302 11:30:30  -818.666173c -5.66  -3.59    +64.9398
iter: 303 11:32:38  -818.675221c -5.04  -3.56    +64.9431
iter: 304 11:34:46  -818.669287c -5.55  -3.49    +64.9285
iter: 305 11:36:54  -818.672658c -5.87  -3.58    +64.9572
iter: 306 11:39:02  -818.675010c -5.08  -3.58    +64.9602
iter: 307 11:41:10  -818.673434c -5.30  -3.35    +64.9444
iter: 308 11:43:18  -818.672946c -5.41  -3.54    +64.9577
iter: 309 11:45:27  -818.675785c -5.29  -3.61    +64.9320
iter: 310 11:47:34  -818.675204c -5.56  -3.53    +64.8942
iter: 311 11:49:43  -818.675748c -5.64  -3.64    +64.8877
iter: 312 11:51:50  -818.676992c -5.85  -3.74    +64.8658
iter: 313 11:54:10  -818.678697c -5.46  -3.84    +64.8299
iter: 314 11:57:07  -818.678842c -5.89  -3.73    +64.8152
iter: 315 11:59:16  -818.679934c -5.77  -3.91    +64.7932
iter: 316 12:01:24  -818.680659c -5.96  -3.90    +64.7869
iter: 317 12:03:33  -818.681302c -6.08  -4.01c   +64.7652
iter: 318 12:05:42  -818.682636c -5.86  -4.18c   +64.7493
iter: 319 12:07:51  -818.683207c -6.31  -4.11c   +64.7389
iter: 320 12:09:59  -818.684618c -5.92  -4.22c   +64.7226
iter: 321 12:12:07  -818.685966c -5.86  -4.11c   +64.7052
iter: 322 12:14:15  -818.688488c -5.34  -4.04c   +64.6721
iter: 323 12:16:25  -818.692095c -4.99  -3.98    +64.6286
iter: 324 12:18:33  -818.698667c -4.52  -3.82    +64.5830
iter: 325 12:20:41  -818.698583c -5.72  -3.54    +64.6205
iter: 326 12:22:49  -818.701726c -5.16  -3.51    +64.5916
iter: 327 12:24:57  -818.701079c -5.74  -3.43    +64.6247
iter: 328 12:27:05  -818.700862c -6.03  -3.47    +64.6451
iter: 329 12:29:12  -818.700998c -6.11  -3.50    +64.6733
iter: 330 12:31:21  -818.701963c -6.13  -3.51    +64.7029
iter: 331 12:33:29  -818.703913c -4.95  -3.48    +64.6819
iter: 332 12:35:37  -818.709255c -4.96  -3.35    +64.7268
iter: 333 12:37:45  -818.701220c -5.51  -3.29    +64.7208
iter: 334 12:39:53  -818.699223c -5.13  -3.53    +64.7452
iter: 335 12:42:01  -818.702015c -4.95  -3.49    +64.7841
iter: 336 12:44:09  -818.697596c -5.62  -3.42    +64.7565
iter: 337 12:46:54  -818.697656c -5.99  -3.83    +64.7748
iter: 338 12:49:29  -818.697324c -6.22  -3.88    +64.7731
iter: 339 12:51:37  -818.697935c -6.36  -3.91    +64.7818
iter: 340 12:53:45  -818.698049c -6.42  -3.89    +64.7887
iter: 341 12:55:54  -818.697579c -6.26  -3.92    +64.7936
iter: 342 12:58:03  -818.697889c -6.24  -3.89    +64.7951
iter: 343 13:00:11  -818.698110c -6.28  -4.10c   +64.8070
iter: 344 13:02:19  -818.698048c -6.55  -4.07c   +64.8175
iter: 345 13:04:28  -818.697852c -6.82  -4.24c   +64.8192
iter: 346 13:06:36  -818.697812c -6.98  -4.27c   +64.8205
iter: 347 13:08:43  -818.697989c -7.23  -4.33c   +64.8325
iter: 348 13:10:51  -818.697941c -7.35  -4.40c   +64.8417
iter: 349 13:12:59  -818.697985c -7.44c -4.44c   +64.8480

Converged after 349 iterations.

Dipole moment: (24.843182, 39.030432, -0.015417) |e|*Ang

Total magnetic moment: (0.000000, 0.000000, 64.848028)
Local magnetic moments:
   0 Fe ( 0.000000,  0.000000,  2.163454)
   1 Cr ( 0.000000,  0.000000,  0.777981)
   2 Ni ( 0.000000,  0.000000,  0.114172)
   3 Cr ( 0.000000,  0.000000, -1.486904)
   4 Al ( 0.000000,  0.000000, -0.023511)
   5 Fe ( 0.000000,  0.000000,  2.333749)
   6 Ni ( 0.000000,  0.000000,  0.208724)
   7 Al ( 0.000000,  0.000000, -0.019847)
   8 Al ( 0.000000,  0.000000, -0.013061)
   9 Co ( 0.000000,  0.000000,  1.495175)
  10 Ni ( 0.000000,  0.000000,  0.175632)
  11 Co ( 0.000000,  0.000000,  0.932612)
  12 Ni ( 0.000000,  0.000000,  0.362581)
  13 Cr ( 0.000000,  0.000000,  1.520517)
  14 Fe ( 0.000000,  0.000000,  1.543917)
  15 Cr ( 0.000000,  0.000000, -1.966476)
  16 Co ( 0.000000,  0.000000,  0.733290)
  17 Cr ( 0.000000,  0.000000,  0.970025)
  18 Co ( 0.000000,  0.000000,  1.156749)
  19 Fe ( 0.000000,  0.000000,  1.818884)
  20 Cr ( 0.000000,  0.000000, -1.636013)
  21 Fe ( 0.000000,  0.000000,  2.421315)
  22 Co ( 0.000000,  0.000000,  1.206307)
  23 Al ( 0.000000,  0.000000, -0.026574)
  24 Ni ( 0.000000,  0.000000,  0.135298)
  25 Cr ( 0.000000,  0.000000,  0.839984)
  26 Cr ( 0.000000,  0.000000, -1.219054)
  27 Al ( 0.000000,  0.000000, -0.026517)
  28 Cr ( 0.000000,  0.000000, -0.019395)
  29 Cr ( 0.000000,  0.000000,  0.880212)
  30 Fe ( 0.000000,  0.000000,  1.779503)
  31 Fe ( 0.000000,  0.000000,  1.549176)
  32 Ni ( 0.000000,  0.000000,  0.284083)
  33 Cr ( 0.000000,  0.000000,  0.311620)
  34 Co ( 0.000000,  0.000000,  0.777351)
  35 Ni ( 0.000000,  0.000000,  0.381800)
  36 Ni ( 0.000000,  0.000000,  0.220814)
  37 Co ( 0.000000,  0.000000,  1.537479)
  38 Co ( 0.000000,  0.000000,  1.187346)
  39 Cr ( 0.000000,  0.000000, -1.983485)
  40 Fe ( 0.000000,  0.000000,  1.902511)
  41 Al ( 0.000000,  0.000000, -0.033680)
  42 Fe ( 0.000000,  0.000000,  2.261179)
  43 Ni ( 0.000000,  0.000000,  0.432545)
  44 Cr ( 0.000000,  0.000000, -1.466506)
  45 Co ( 0.000000,  0.000000,  1.619301)
  46 Co ( 0.000000,  0.000000,  1.346443)
  47 Ni ( 0.000000,  0.000000,  0.497653)
  48 Ni ( 0.000000,  0.000000,  0.295062)
  49 Cr ( 0.000000,  0.000000,  0.926739)
  50 Co ( 0.000000,  0.000000,  0.882425)
  51 Al ( 0.000000,  0.000000, -0.019568)
  52 Al ( 0.000000,  0.000000, -0.038567)
  53 Fe ( 0.000000,  0.000000,  1.920488)
  54 Fe ( 0.000000,  0.000000,  2.270492)
  55 Fe ( 0.000000,  0.000000,  2.157724)
  56 Ni ( 0.000000,  0.000000,  0.601397)
  57 Ni ( 0.000000,  0.000000,  0.081248)
  58 Co ( 0.000000,  0.000000,  1.257548)
  59 Co ( 0.000000,  0.000000,  0.782006)
[...]
  93 Cr ( 0.000000,  0.000000,  1.369365)
  94 Fe ( 0.000000,  0.000000,  1.972619)
  95 Cr ( 0.000000,  0.000000, -1.140620)
  96 Ni ( 0.000000,  0.000000,  0.186526)
  97 Fe ( 0.000000,  0.000000,  2.294263)
  98 Co ( 0.000000,  0.000000,  0.285258)
  99 Ni ( 0.000000,  0.000000,  0.335986)
 100 Cr ( 0.000000,  0.000000,  0.883226)
 101 Al ( 0.000000,  0.000000, -0.008925)
 102 Cr ( 0.000000,  0.000000, -1.448481)
 103 Co ( 0.000000,  0.000000,  0.789474)
 104 Al ( 0.000000,  0.000000, -0.016582)
 105 Ni ( 0.000000,  0.000000,  0.305252)
 106 Co ( 0.000000,  0.000000,  0.928281)
 107 Fe ( 0.000000,  0.000000,  2.119972)

Energy contributions relative to reference atoms: (reference = -3382523.201499)

Kinetic:       +310.728747
Potential:     -302.776543
External:        +0.000000
XC:            -857.807492
Entropy (-ST):   -4.180056
Local:          +33.247332
Free energy:   -820.788013
Extrapolated:  -818.697985

Spin contamination: 24.492602 electrons
Showing only first 2 kpts
                      Up                     Down
 Kpt  Band  Eigenvalues  Occupancy  Eigenvalues  Occupancy
  0   470      9.12372    0.99674     10.09137    0.01880
  0   471      9.13810    0.99623     10.11223    0.01531
  0   472      9.14652    0.99590     10.12199    0.01391
  0   473      9.15957    0.99533     10.13332    0.01244

  1   470      9.13597    0.99631     10.09834    0.01755
  1   471      9.14813    0.99584     10.11071    0.01554
  1   472      9.15742    0.99543     10.12277    0.01380
  1   473      9.16811    0.99492     10.13487    0.01225

Fermi level: 9.69586

No gap

Forces in eV/Ang:
  0 Fe   -0.58835    0.55055   -0.88253
  1 Cr   -0.06439   -0.10078    0.77400
  2 Ni   -0.67380   -0.22854   -0.19932
  3 Cr    0.09132    0.25787   -0.40887
  4 Al   -0.38268   -0.30314    0.92929
  5 Fe   -0.75079    0.98304    0.32968
  6 Ni    0.13046    0.89323   -0.78865
  7 Al   -0.44617   -0.71982    0.46223
  8 Al    0.20791   -0.06135   -0.07624
  9 Co    0.15717   -0.11423   -0.52506
 10 Ni    0.08420   -0.03621    0.40899
 11 Co   -0.35668   -0.95382   -0.75414
 12 Ni    1.78707    0.55162    0.99578
 13 Cr    1.14456   -0.01987    0.37971
 14 Fe    1.70375    0.61809    0.04400
 15 Cr   -0.73146   -0.16809   -0.24829
 16 Co   -0.61979    0.06045    0.43375
 17 Cr   -0.43056   -0.04244   -0.55510
 18 Co    0.81717   -0.73114   -0.16352
 19 Fe   -1.18354    0.31328    0.89340
 20 Cr    0.15519   -0.01595    0.76398
 21 Fe   -0.64644    0.52587    0.71903
 22 Co    0.29373    0.93849   -0.83315
 23 Al   -0.35725    0.58289   -0.21823
 24 Ni    0.75815   -0.27905   -0.32115
 25 Cr   -0.98253    0.62540   -0.05490
 26 Cr   -1.42311   -0.39336   -0.93499
 27 Al   -0.64063    1.05363   -1.48576
 28 Cr    0.85303   -1.23897    0.56040
 29 Cr    0.51874   -0.50929    0.48553
 30 Fe   -0.38887   -0.49153   -0.63409
 31 Fe   -0.25825   -0.36374   -0.11365
 32 Ni   -0.32586   -0.34302   -0.53598
 33 Cr    0.32536   -0.17596    0.61314
 34 Co    0.00557   -0.15591    0.68396
 35 Ni   -0.91503    0.75560    0.31605
 36 Ni    1.12140   -0.10291   -0.15108
 37 Co   -0.51205   -0.04325   -0.03019
 38 Co   -0.42846    0.41674    0.08236
 39 Cr   -0.98514    0.53415   -1.39858
 40 Fe    0.66238    0.59589    0.08111
 41 Al    0.23404   -0.03957    1.79446
 42 Fe    0.46731    0.29680    0.58319
 43 Ni    0.46280    0.25400   -0.74762
 44 Cr    0.55487    0.61286    0.24545
 45 Co   -0.55912   -0.72551    0.19623
 46 Co   -0.45616    1.01060    0.70047
 47 Ni   -0.55086   -0.38490    0.80786
 48 Ni    0.41654   -0.57889    0.13638
 49 Cr   -0.49848   -1.33243    1.02923
 50 Co    0.96485   -0.48483    0.43621
 51 Al    0.20174   -0.78391   -0.27397
 52 Al   -1.10003    0.34808   -0.91161
 53 Fe   -0.33379    0.17265   -0.33332
 54 Fe   -0.40290    0.14800    0.23521
 55 Fe    0.98891    0.35961    0.01486
 56 Ni   -0.91767    0.06320   -0.48426
 57 Ni   -0.70404    0.03749   -0.35193
 58 Co    0.27441   -0.72212    0.57301
 59 Co   -0.83221    1.49595   -0.55522
[...]
 93 Cr    0.71702   -0.47410   -0.42331
 94 Fe   -0.38813    0.51519   -1.08673
 95 Cr    0.33190   -0.99525    0.13073
 96 Ni    1.83109    0.11526   -0.78520
 97 Fe    0.33465    0.47812    0.56732
 98 Co   -0.76820   -1.03324    0.71020
 99 Ni    0.15699   -0.38678   -0.59744
100 Cr   -1.08958    0.83054    1.09070
101 Al    0.48599    0.65480   -1.23756
102 Cr    0.06713    0.20480    0.69901
103 Co   -0.27722   -0.33410    1.04860
104 Al   -1.22537    0.64877   -0.45260
105 Ni   -0.15841   -0.54651   -0.88631
106 Co   -1.72745    0.52382   -0.13047
107 Fe   -0.05636    1.55341   -0.40175

Date: Fri Apr 14 13:13:21 2023