User:   c.zeng@d0148
Date:   Sat Apr  8 08:09:57 2023
Arch:   x86_64
Pid:    34883
CWD:    /home/c.zeng/projects/hea-corrosion/hea-mlp/data-curation/volume/dft-jobs/31
Python: 3.8.1
gpaw:   /home/c.zeng/usr/installs/gpaw/source/gpaw-22.8.0/gpaw
_gpaw:  /home/c.zeng/usr/installs/gpaw/source/gpaw-22.8.0/
        _gpaw.cpython-38-x86_64-linux-gnu.so
ase:    /home/c.zeng/.local/lib/python3.8/site-packages/ase-3.22.1-py3.8.egg/ase (version 3.22.1)
numpy:  /shared/centos7/python/3.8.1/lib/python3.8/site-packages/numpy (version 1.17.4)
scipy:  /shared/centos7/python/3.8.1/lib/python3.8/site-packages/scipy (version 1.4.1)
units:  Angstrom and eV
cores: 64
OpenMP: False
OMP_NUM_THREADS: 1

Input parameters:
  convergence: {energy: 0.0001}
  kpts: [2 2 2]
  maxiter: 666
  mode: {ecut: 350.0,
         name: pw}
  occupations: {fixmagmom: False,
                name: fermi-dirac,
                width: 0.1}
  spinpol: True
  xc: PBE

System changes: positions, numbers, cell, pbc, initial_charges, initial_magmoms

Initialize ...

species:
  Cr:
    name: Chromium
    id: 33f258bda2ca9f93018e70263a35547b
    Z: 24.0
    valence: 6
    core: 18
    charge: 0.0
    file: /home/c.zeng/usr/data/gpaw-setups-0.9.20000/Cr.PBE.gz
    compensation charges: {type: gauss,
                           rc: 0.35,
                           lmax: 2}
    cutoffs: {filter: 2.14,
              core: 3.04}
    valence states:
      #              energy  rcut
      - 4s(1.00)    -4.007   1.164
      - 4p(0.00)    -0.989   1.217
      - 3d(5.00)    -2.913   1.111
      -  s          23.205   1.164
      -  p          26.223   1.217
      -  d          24.299   1.111

    # Using partial waves for Cr as LCAO basis

  Al:
    name: Aluminium
    id: 0292cae29f5d6237e50f6abdd43a7bdd
    Z: 13.0
    valence: 3
    core: 10
    charge: 0.0
    file: /home/c.zeng/usr/data/gpaw-setups-0.9.20000/Al.PBE.gz
    compensation charges: {type: gauss,
                           rc: 0.34,
                           lmax: 2}
    cutoffs: {filter: 1.91,
              core: 2.36}
    valence states:
      #              energy  rcut
      - 3s(2.00)    -7.753   1.085
      - 3p(1.00)    -2.712   1.085
      -  s          19.459   1.085
      -  p          24.499   1.085
      -  d           0.000   1.085

[...]

  Co:
    name: Cobalt
    id: 339d20d5b0b93d2de9531a1bee871d91
    Z: 27.0
    valence: 9
    core: 18
    charge: 0.0
    file: /home/c.zeng/usr/data/gpaw-setups-0.9.20000/Co.PBE.gz
    compensation charges: {type: gauss,
                           rc: 0.32,
                           lmax: 2}
    cutoffs: {filter: 1.87,
              core: 2.55}
    valence states:
      #              energy  rcut
      - 4s(2.00)    -5.469   1.005
      - 4p(0.00)    -1.277   1.058
      - 3d(7.00)    -8.205   1.005
      -  s          21.742   1.005
      -  p          25.934   1.058
      -  d          19.007   1.005

[...]

  Fe:
    name: Iron
    id: 37abbd8d6c3c35915a9b583b742da910
    Z: 26.0
    valence: 8
    core: 18
    charge: 0.0
    file: /home/c.zeng/usr/data/gpaw-setups-0.9.20000/Fe.PBE.gz
    compensation charges: {type: gauss,
                           rc: 0.33,
                           lmax: 2}
    cutoffs: {filter: 2.06,
              core: 2.67}
    valence states:
      #              energy  rcut
      - 4s(2.00)    -5.291   1.164
      - 4p(0.00)    -1.326   1.058
      - 3d(6.00)    -7.505   1.058
      -  s          21.920   1.164
      -  p          25.885   1.058
      -  d          19.706   1.058

[...]

  Ni:
    name: Nickel
    id: 0d9f38a9d6e76a2886f07bb4381f212b
    Z: 28.0
    valence: 16
    core: 12
    charge: 0.0
    file: /home/c.zeng/usr/data/gpaw-setups-0.9.20000/Ni.PBE.gz
    compensation charges: {type: gauss,
                           rc: 0.36,
                           lmax: 2}
    cutoffs: {filter: 2.14,
              core: 1.98}
    valence states:
      #              energy  rcut
      - 4s(2.00)    -5.642   1.164
      - 3p(6.00)   -71.394   1.207
      - 4p(0.00)    -1.226   1.207
      - 3d(8.00)    -8.875   1.138
      -  s          21.570   1.164
      -  d          18.337   1.138

    # Using partial waves for Ni as LCAO basis

Reference energy: -3699400.456887  # eV

Spin-polarized calculation.
Magnetic moment: 143.500000

Convergence criteria:
 Maximum [total energy] change in last 3 cyles: 0.0001 eV / electron
 Maximum integral of absolute [dens]ity change: 0.0001 electrons / valence electron
 Maximum integral of absolute [eigenst]ate change: 4e-08 eV^2 / valence electron
 Maximum number of scf [iter]ations: 666
 (Square brackets indicate name in SCF output, whereas a 'c' in
 the SCF output indicates the quantity has converged.)

Symmetries present (total): 1

  ( 1  0  0)
  ( 0  1  0)
  ( 0  0  1)

8 k-points: 2 x 2 x 2 Monkhorst-Pack grid
4 k-points in the irreducible part of the Brillouin zone
       k-points in crystal coordinates                weights
   0:     0.25000000   -0.25000000   -0.25000000          2/8
   1:     0.25000000   -0.25000000    0.25000000          2/8
   2:     0.25000000    0.25000000   -0.25000000          2/8
   3:     0.25000000    0.25000000    0.25000000          2/8

Wave functions: Plane wave expansion
  Cutoff energy: 350.000 eV
  Number of coefficients (min, max): 22145, 22145
  Pulay-stress correction: 0.000000 eV/Ang^3 (de/decut=0.000000)
  Using FFTW library
  ScaLapack parameters: grid=1x1, blocksize=None
  Wavefunction extrapolation:
    Improved wavefunction reuse through dual PAW basis

Occupation numbers: Fermi-Dirac:
  width: 0.1000  # eV

Eigensolver
   Davidson(niter=2)

Densities:
  Coarse grid: 50*50*50 grid
  Fine grid: 100*100*100 grid
  Total Charge: 0.000000

Density mixing:
  Method: difference
  Backend: pulay
  Linear mixing parameter: 0.05
  old densities: 5
  Damping of long wavelength oscillations: 50

Hamiltonian:
  XC and Coulomb potentials evaluated on a 100*100*100 grid
  Using the PBE Exchange-Correlation functional
  External potential:
    NoExternalPotential

XC parameters: PBE with 2 nearest neighbor stencil

Total number of cores used: 64
Parallelization over k-points: 4
Domain decomposition: 4 x 2 x 2

Number of atoms: 108
Number of atomic orbitals: 1025
Number of bands in calculation: 703
Number of valence electrons: 1020
Bands to converge: occupied

... initialized

Initializing position-dependent things.

Density initialized from atomic densities
Creating initial wave functions:
  703 bands from LCAO basis set

       /|                     Cr    |
      / |    Fe         Al          |
     /  |       Cr                  |
    /  Ni                 Fe        |
   /o   CrNi     Cr CrFe     Cr     |
  /  NiCo  Fe Co     CrNiFe   Ni    |
 Cr   FeCo   CrNiNi     Co Co       |
 |     NiCoCr   CoNi Co   AlCrFe    |
 | Ni   | Fe CoAlCo NiNiCo FeNi     |
 |     Cr   NiCo     Fe   Cr  Fe    |
 |   Fe |       Co     Fe           |
 |    CrNi   CrCoFe CrNiNi Ni  Ni   |
 |Co   NiNiNi   Co CrCo  Cr Fe      |
 | Fe   .-Fe-CrNi---CoCoFe---Cr-----.
 |   CoFe   NiFeAl   CrNiNi        /
 |    CrFe     CoCr        CoFe   /
 |   /   Fe                   Al /
 |  /      Cr     Co Co     Cr  /
 | /         Fe                /
 |/             Fe            /
 *--------Fe--------Cr-------*

Positions:
   0 Cr     0.000008    0.000008   11.420966    ( 0.0000,  0.0000,  0.0000)
   1 Al    -0.000000    1.903527    1.903527    ( 0.0000,  0.0000,  0.0000)
   2 Cr     1.903515   11.420989    1.903504    ( 0.0000,  0.0000,  0.0000)
   3 Co     1.903515    1.903515   11.420977    ( 0.0000,  0.0000,  2.1000)
   4 Fe     3.806996    0.000007    0.000001    ( 0.0000,  0.0000,  2.0000)
   5 Cr     3.806985    1.903504    1.903470    ( 0.0000,  0.0000,  0.0000)
   6 Ni     5.710500   11.420989    1.903504    ( 0.0000,  0.0000,  1.5000)
   7 Fe     5.710500    1.903504    0.000004    ( 0.0000,  0.0000,  2.0000)
   8 Cr     7.614004    0.000027   11.421000    ( 0.0000,  0.0000,  0.0000)
   9 Co     7.614015    1.903504    1.903481    ( 0.0000,  0.0000,  2.1000)
  10 Ni     9.517496   11.420989    1.903527    ( 0.0000,  0.0000,  1.5000)
  11 Fe     9.517485    1.903515   11.420989    ( 0.0000,  0.0000,  2.0000)
  12 Co     0.000008    3.806996   11.420989    ( 0.0000,  0.0000,  2.1000)
  13 Co     0.000021    5.710477    1.903515    ( 0.0000,  0.0000,  2.1000)
  14 Fe     1.903504    3.807019    1.903492    ( 0.0000,  0.0000,  2.0000)
  15 Fe     1.903515    5.710489    0.000014    ( 0.0000,  0.0000,  2.0000)
  16 Fe     3.806996    3.807008    0.000005    ( 0.0000,  0.0000,  2.0000)
  17 Fe     3.806973    5.710511    1.903481    ( 0.0000,  0.0000,  2.0000)
  18 Cr     5.710500    3.807019    1.903458    ( 0.0000,  0.0000,  0.0000)
  19 Co     5.710477    5.710477    0.000003    ( 0.0000,  0.0000,  2.1000)
  20 Fe     7.613992    3.806996   11.420989    ( 0.0000,  0.0000,  2.0000)
  21 Ni     7.614004    5.710477    1.903515    ( 0.0000,  0.0000,  1.5000)
  22 Co     9.517496    3.807008    1.903504    ( 0.0000,  0.0000,  2.1000)
  23 Cr     9.517508    5.710454    0.000007    ( 0.0000,  0.0000,  0.0000)
  24 Cr     0.000031    7.613992    0.000004    ( 0.0000,  0.0000,  0.0000)
  25 Ni     0.000003    9.517496    1.903527    ( 0.0000,  0.0000,  1.5000)
  26 Fe     1.903515    7.613992    1.903492    ( 0.0000,  0.0000,  2.0000)
  27 Ni     1.903515    9.517496   11.421000    ( 0.0000,  0.0000,  1.5000)
  28 Co     3.806985    7.613981    0.000018    ( 0.0000,  0.0000,  2.1000)
  29 Co     3.806996    9.517485    1.903504    ( 0.0000,  0.0000,  2.1000)
  30 Co     5.710477    7.613992    1.903515    ( 0.0000,  0.0000,  2.1000)
  31 Cr     5.710477    9.517508    0.000015    ( 0.0000,  0.0000,  0.0000)
  32 Al     7.613970    7.613992   11.420977    ( 0.0000,  0.0000,  0.0000)
  33 Cr     7.613992    9.517519    1.903538    ( 0.0000,  0.0000,  0.0000)
  34 Cr     9.517508    7.613992    1.903538    ( 0.0000,  0.0000,  0.0000)
  35 Cr     9.517508    9.517519   11.420989    ( 0.0000,  0.0000,  0.0000)
  36 Fe    11.420989   11.421000    3.807008    ( 0.0000,  0.0000,  2.0000)
  37 Co    11.421000    1.903504    5.710477    ( 0.0000,  0.0000,  2.1000)
  38 Cr     1.903492   11.420989    5.710489    ( 0.0000,  0.0000,  0.0000)
  39 Fe     1.903492    1.903504    3.807008    ( 0.0000,  0.0000,  2.0000)
  40 Co     3.806996   11.420989    3.806996    ( 0.0000,  0.0000,  2.1000)
  41 Ni     3.806996    1.903515    5.710500    ( 0.0000,  0.0000,  1.5000)
  42 Ni     5.710500    0.000002    5.710477    ( 0.0000,  0.0000,  1.5000)
  43 Al     5.710523    1.903470    3.807019    ( 0.0000,  0.0000,  0.0000)
  44 Fe     7.614015   11.420989    3.807008    ( 0.0000,  0.0000,  2.0000)
  45 Co     7.614004    1.903504    5.710500    ( 0.0000,  0.0000,  2.1000)
  46 Fe     9.517508   11.421000    5.710477    ( 0.0000,  0.0000,  2.0000)
  47 Ni     9.517496    1.903481    3.807019    ( 0.0000,  0.0000,  1.5000)
  48 Fe     0.000004    3.807008    3.807008    ( 0.0000,  0.0000,  2.0000)
  49 Fe     0.000000    5.710500    5.710500    ( 0.0000,  0.0000,  2.0000)
  50 Ni     1.903492    3.807008    5.710489    ( 0.0000,  0.0000,  1.5000)
  51 Ni     1.903492    5.710500    3.806985    ( 0.0000,  0.0000,  1.5000)
  52 Cr     3.806973    3.807008    3.807008    ( 0.0000,  0.0000,  0.0000)
  53 Co     3.806996    5.710500    5.710511    ( 0.0000,  0.0000,  2.1000)
  54 Fe     5.710511    3.807008    5.710511    ( 0.0000,  0.0000,  2.0000)
  55 Cr     5.710511    5.710511    3.807008    ( 0.0000,  0.0000,  0.0000)
  56 Co     7.614015    3.807008    3.807008    ( 0.0000,  0.0000,  2.1000)
  57 Fe     7.614004    5.710500    5.710500    ( 0.0000,  0.0000,  2.0000)
  58 Ni     9.517496    3.807019    5.710477    ( 0.0000,  0.0000,  1.5000)
  59 Fe     9.517496    5.710489    3.807008    ( 0.0000,  0.0000,  2.0000)
[...]
  93 Ni     7.613992    5.710477    9.517496    ( 0.0000,  0.0000,  1.5000)
  94 Co     9.517496    3.806985    9.517519    ( 0.0000,  0.0000,  2.1000)
  95 Cr     9.517508    5.710511    7.613981    ( 0.0000,  0.0000,  0.0000)
  96 Fe     0.000020    7.614004    7.613992    ( 0.0000,  0.0000,  2.0000)
  97 Ni     0.000012    9.517508    9.517473    ( 0.0000,  0.0000,  1.5000)
  98 Ni     1.903492    7.614004    9.517485    ( 0.0000,  0.0000,  1.5000)
  99 Fe     1.903492    9.517485    7.614004    ( 0.0000,  0.0000,  2.0000)
 100 Ni     3.806973    7.613992    7.613981    ( 0.0000,  0.0000,  1.5000)
 101 Cr     3.806962    9.517508    9.517508    ( 0.0000,  0.0000,  0.0000)
 102 Cr     5.710500    7.613992    9.517496    ( 0.0000,  0.0000,  0.0000)
 103 Cr     5.710500    9.517485    7.613992    ( 0.0000,  0.0000,  0.0000)
 104 Co     7.614004    7.613992    7.614004    ( 0.0000,  0.0000,  2.1000)
 105 Fe     7.614015    9.517496    9.517485    ( 0.0000,  0.0000,  2.0000)
 106 Cr     9.517508    7.614015    9.517473    ( 0.0000,  0.0000,  0.0000)
 107 Ni     9.517508    9.517496    7.614004    ( 0.0000,  0.0000,  1.5000)

Unit cell:
           periodic     x           y           z      points  spacing
  1. axis:    yes   11.421000    0.000000    0.000000    50     0.2284
  2. axis:    yes    0.000000   11.421000    0.000000    50     0.2284
  3. axis:    yes    0.000000    0.000000   11.421000    50     0.2284

  Lengths:  11.421000  11.421000  11.421000
  Angles:   90.000000  90.000000  90.000000

Effective grid spacing dv^(1/3) = 0.2284

     iter     time        total  log10-change:  magmom
                         energy  eigst   dens
iter:   1 08:12:44 -1076.734715                  +143.7778
iter:   2 08:14:08  -931.463807  -0.07  -1.17    +80.3025
iter:   3 08:15:30  -926.337301  -0.64  -1.13    +81.9747
iter:   4 08:16:54  -869.554269  -1.17  -1.22    +77.5846
iter:   5 08:18:20  -859.843180  -1.74  -1.33    +79.4512
iter:   6 08:19:43  -868.329719  -1.44  -1.37    +85.6077
iter:   7 08:21:07  -858.362944  -1.21  -1.34    +89.0746
iter:   8 08:22:30  -853.512441  -1.48  -1.46    +93.1240
iter:   9 08:23:56  -847.261263  -1.44  -1.55    +93.5158
iter:  10 08:25:19  -845.541658  -2.03  -1.72    +93.1049
iter:  11 08:26:43  -844.280879  -2.29  -1.77    +94.1496
iter:  12 08:28:04  -845.120237  -2.54  -1.84    +95.0508
iter:  13 08:29:29  -845.856618  -2.60  -1.86    +95.0376
iter:  14 08:30:53  -845.749941  -2.51  -1.85    +94.4052
iter:  15 08:32:18  -846.474349  -2.63  -2.00    +92.4878
iter:  16 08:33:42  -847.630014  -2.49  -1.98    +92.2038
iter:  17 08:35:06  -846.727548  -2.69  -1.99    +91.8321
iter:  18 08:36:29  -847.375498  -2.88  -2.18    +90.1404
iter:  19 08:37:53  -847.447528  -3.02  -2.15    +89.1079
iter:  20 08:39:17  -847.573160  -3.22  -2.22    +88.2308
iter:  21 08:40:42  -847.966926  -3.31  -2.26    +86.9886
iter:  22 08:42:07  -848.236249  -3.36  -2.28    +85.7105
iter:  23 08:43:31  -848.484849  -3.41  -2.30    +84.5700
iter:  24 08:44:55  -848.773684  -3.61  -2.30    +83.7216
iter:  25 08:46:20  -849.577228  -3.06  -2.31    +81.5103
iter:  26 08:47:40  -850.006182  -3.35  -2.26    +80.8509
iter:  27 08:49:03  -850.322740  -3.37  -2.22    +80.1136
iter:  28 08:50:27  -851.012228  -2.86  -2.21    +78.8549
iter:  29 08:51:52  -851.258067  -3.30  -2.17    +78.6519
iter:  30 08:53:16  -851.600807  -3.37  -2.13    +78.2468
iter:  31 08:54:41  -851.698264  -3.13  -2.09    +78.3492
iter:  32 08:56:06  -851.717990  -3.25  -2.07    +77.9437
iter:  33 08:57:31  -851.985575  -2.68  -2.08    +77.6560
iter:  34 08:58:55  -851.141324  -2.94  -2.03    +76.9747
iter:  35 09:00:20  -850.996212  -2.99  -2.14    +76.0685
iter:  36 09:01:45  -850.846464  -3.52  -2.18    +75.8088
iter:  37 09:03:10  -851.190226  -3.06  -2.23    +75.6079
iter:  38 09:04:26  -850.819469  -2.82  -2.21    +75.6461
iter:  39 09:05:50  -850.767278  -3.08  -2.34    +75.9394
iter:  40 09:07:14  -850.761980c -3.26  -2.41    +76.4860
iter:  41 09:08:39  -850.641920  -3.54  -2.42    +76.7199
iter:  42 09:10:02  -850.676528  -3.96  -2.55    +77.1148
iter:  43 09:11:26  -850.685698c -3.97  -2.55    +77.3166
iter:  44 09:12:51  -850.681284c -3.99  -2.59    +77.5599
iter:  45 09:14:13  -850.691978c -3.95  -2.67    +77.6917
iter:  46 09:15:38  -850.669884c -3.99  -2.72    +77.7855
iter:  47 09:17:00  -850.653006c -4.47  -2.83    +77.8531
iter:  48 09:18:24  -850.660388c -4.53  -2.95    +77.9379
iter:  49 09:19:48  -850.657476c -4.62  -2.96    +77.9227
iter:  50 09:21:09  -850.657796c -4.71  -3.00    +77.9340
iter:  51 09:22:33  -850.651074c -4.72  -3.04    +77.9889
iter:  52 09:23:58  -850.650839c -4.98  -3.16    +77.9797
iter:  53 09:25:22  -850.650837c -5.01  -3.20    +77.9714
iter:  54 09:26:46  -850.651736c -5.05  -3.24    +77.9722
iter:  55 09:28:11  -850.650657c -5.07  -3.26    +77.9631
iter:  56 09:29:36  -850.649667c -5.26  -3.30    +77.9593
iter:  57 09:30:58  -850.649323c -5.53  -3.38    +77.9584
iter:  58 09:32:23  -850.649615c -5.60  -3.42    +77.9514
iter:  59 09:33:48  -850.649483c -5.74  -3.45    +77.9501
iter:  60 09:35:13  -850.650125c -5.64  -3.49    +77.9433
iter:  61 09:36:38  -850.649769c -5.75  -3.51    +77.9357
iter:  62 09:38:03  -850.649635c -5.95  -3.55    +77.9351
iter:  63 09:39:28  -850.649547c -6.11  -3.62    +77.9309
iter:  64 09:40:54  -850.649806c -6.15  -3.65    +77.9217
iter:  65 09:42:15  -850.649628c -6.13  -3.68    +77.9207
iter:  66 09:43:36  -850.650196c -5.88  -3.72    +77.9151
iter:  67 09:45:01  -850.649825c -6.05  -3.69    +77.9101
iter:  68 09:46:26  -850.649902c -6.16  -3.75    +77.9092
iter:  69 09:47:52  -850.649720c -6.26  -3.79    +77.9075
iter:  70 09:49:16  -850.649833c -6.35  -3.84    +77.9028
iter:  71 09:50:41  -850.649792c -6.46  -3.88    +77.9040
iter:  72 09:52:07  -850.649760c -6.51  -3.90    +77.9024
iter:  73 09:53:33  -850.649788c -6.55  -3.94    +77.9010
iter:  74 09:54:58  -850.649757c -6.65  -3.97    +77.9041
iter:  75 09:56:23  -850.649630c -6.89  -4.03c   +77.9041
iter:  76 09:57:45  -850.649620c -6.98  -4.09c   +77.9039
iter:  77 09:59:11  -850.649614c -7.10  -4.14c   +77.9050
iter:  78 10:00:35  -850.649551c -7.01  -4.16c   +77.9068
iter:  79 10:02:00  -850.649517c -7.02  -4.16c   +77.9063
iter:  80 10:03:26  -850.649481c -7.19  -4.23c   +77.9076
iter:  81 10:04:50  -850.649433c -7.19  -4.28c   +77.9092
iter:  82 10:06:15  -850.649406c -7.28  -4.30c   +77.9092
iter:  83 10:07:40  -850.649442c -7.07  -4.36c   +77.9102
iter:  84 10:09:05  -850.649382c -7.29  -4.35c   +77.9106
iter:  85 10:10:30  -850.649359c -7.36  -4.41c   +77.9100
iter:  86 10:11:55  -850.649369c -7.47c -4.47c   +77.9104

Converged after 86 iterations.

Dipole moment: (0.135166, -0.209916, 0.005799) |e|*Ang

Total magnetic moment: (0.000000, 0.000000, 77.910423)
Local magnetic moments:
   0 Cr ( 0.000000,  0.000000, -2.630045)
   1 Al ( 0.000000,  0.000000, -0.034399)
   2 Cr ( 0.000000,  0.000000, -2.625798)
   3 Co ( 0.000000,  0.000000,  1.367697)
   4 Fe ( 0.000000,  0.000000,  2.515418)
   5 Cr ( 0.000000,  0.000000, -2.562122)
   6 Ni ( 0.000000,  0.000000,  0.303929)
   7 Fe ( 0.000000,  0.000000,  2.612937)
   8 Cr ( 0.000000,  0.000000, -2.570795)
   9 Co ( 0.000000,  0.000000,  1.564212)
  10 Ni ( 0.000000,  0.000000,  0.321130)
  11 Fe ( 0.000000,  0.000000,  2.778676)
  12 Co ( 0.000000,  0.000000,  1.732179)
  13 Co ( 0.000000,  0.000000,  1.554300)
  14 Fe ( 0.000000,  0.000000,  2.650505)
  15 Fe ( 0.000000,  0.000000,  2.872873)
  16 Fe ( 0.000000,  0.000000,  2.713414)
  17 Fe ( 0.000000,  0.000000,  2.690949)
  18 Cr ( 0.000000,  0.000000, -2.167173)
  19 Co ( 0.000000,  0.000000,  1.659683)
  20 Fe ( 0.000000,  0.000000,  2.847693)
  21 Ni ( 0.000000,  0.000000,  0.344264)
  22 Co ( 0.000000,  0.000000,  1.680077)
  23 Cr ( 0.000000,  0.000000, -2.638561)
  24 Cr ( 0.000000,  0.000000, -2.631264)
  25 Ni ( 0.000000,  0.000000,  0.217788)
  26 Fe ( 0.000000,  0.000000,  2.843477)
  27 Ni ( 0.000000,  0.000000,  0.416193)
  28 Co ( 0.000000,  0.000000,  1.652791)
  29 Co ( 0.000000,  0.000000,  1.654572)
  30 Co ( 0.000000,  0.000000,  1.623714)
  31 Cr ( 0.000000,  0.000000,  2.364232)
  32 Al ( 0.000000,  0.000000, -0.024431)
  33 Cr ( 0.000000,  0.000000, -2.626605)
  34 Cr ( 0.000000,  0.000000,  2.577443)
  35 Cr ( 0.000000,  0.000000,  2.392079)
  36 Fe ( 0.000000,  0.000000,  2.797327)
  37 Co ( 0.000000,  0.000000,  1.410652)
  38 Cr ( 0.000000,  0.000000, -2.538622)
  39 Fe ( 0.000000,  0.000000,  2.588293)
  40 Co ( 0.000000,  0.000000,  1.514339)
  41 Ni ( 0.000000,  0.000000,  0.236757)
  42 Ni ( 0.000000,  0.000000,  0.363413)
  43 Al ( 0.000000,  0.000000, -0.013610)
  44 Fe ( 0.000000,  0.000000,  2.749431)
  45 Co ( 0.000000,  0.000000,  1.601996)
  46 Fe ( 0.000000,  0.000000,  2.627308)
  47 Ni ( 0.000000,  0.000000,  0.640047)
  48 Fe ( 0.000000,  0.000000,  2.853296)
  49 Fe ( 0.000000,  0.000000,  2.818696)
  50 Ni ( 0.000000,  0.000000,  0.559063)
  51 Ni ( 0.000000,  0.000000,  0.535494)
  52 Cr ( 0.000000,  0.000000, -2.301650)
  53 Co ( 0.000000,  0.000000,  1.717890)
  54 Fe ( 0.000000,  0.000000,  2.748744)
  55 Cr ( 0.000000,  0.000000, -2.657531)
  56 Co ( 0.000000,  0.000000,  1.637723)
  57 Fe ( 0.000000,  0.000000,  2.868868)
  58 Ni ( 0.000000,  0.000000,  0.530279)
  59 Fe ( 0.000000,  0.000000,  2.820110)
[...]
  93 Ni ( 0.000000,  0.000000,  0.291651)
  94 Co ( 0.000000,  0.000000,  1.687104)
  95 Cr ( 0.000000,  0.000000, -2.873454)
  96 Fe ( 0.000000,  0.000000,  2.871731)
  97 Ni ( 0.000000,  0.000000,  0.373354)
  98 Ni ( 0.000000,  0.000000,  0.555243)
  99 Fe ( 0.000000,  0.000000,  2.711884)
 100 Ni ( 0.000000,  0.000000,  0.562350)
 101 Cr ( 0.000000,  0.000000, -2.590003)
 102 Cr ( 0.000000,  0.000000, -2.658028)
 103 Cr ( 0.000000,  0.000000,  2.435216)
 104 Co ( 0.000000,  0.000000,  1.538126)
 105 Fe ( 0.000000,  0.000000,  2.337049)
 106 Cr ( 0.000000,  0.000000,  2.463283)
 107 Ni ( 0.000000,  0.000000,  0.295265)

Energy contributions relative to reference atoms: (reference = -3699400.456887)

Kinetic:       -272.086192
Potential:     +140.590699
External:        +0.000000
XC:            -751.606097
Entropy (-ST):   -4.747036
Local:          +34.825738
Free energy:   -853.022887
Extrapolated:  -850.649369

Spin contamination: 62.004581 electrons
Showing only first 2 kpts
                      Up                     Down
 Kpt  Band  Eigenvalues  Occupancy  Eigenvalues  Occupancy
  0   508      6.92805    0.99963      8.07361    0.02756
  0   509      6.94259    0.99957      8.07734    0.02658
  0   510      6.96146    0.99948      8.08740    0.02410
  0   511      6.97811    0.99938      8.10161    0.02097

  1   508      6.92600    0.99963      8.07292    0.02775
  1   509      6.93666    0.99959      8.08829    0.02389
  1   510      6.94469    0.99956      8.09226    0.02298
  1   511      6.96347    0.99947      8.10103    0.02109

Fermi level: 7.71727

No gap

Forces in eV/Ang:
  0 Cr   -0.26501   -0.38578   -0.70726
  1 Al   -0.34461    0.40466    0.11379
  2 Cr    0.36348   -0.76977    0.31812
  3 Co    0.20098    0.04846   -0.06632
  4 Fe   -0.35524    0.17906    0.32217
  5 Cr   -0.24189   -0.21779   -0.61746
  6 Ni   -0.08397    0.05830    0.01132
  7 Fe    0.24421    0.06675    0.15054
  8 Cr    0.34669    0.26517   -0.01828
  9 Co    0.29218    0.06957   -0.02812
 10 Ni   -0.09667   -0.01621    0.14215
 11 Fe   -0.32515   -0.00088   -0.09340
 12 Co   -0.01276    0.16292   -0.21323
 13 Co    0.18012   -0.41106    0.08794
 14 Fe    0.00546    0.23257   -0.15117
 15 Fe   -0.05081    0.00549   -0.37750
 16 Fe    0.14009    0.13996   -0.26729
 17 Fe    0.13986    0.09844    0.18351
 18 Cr    0.38832    0.29031   -0.47617
 19 Co   -0.44078   -0.06072    0.05658
 20 Fe   -0.07210    0.16433   -0.05098
 21 Ni   -0.05823   -0.09209    0.19400
 22 Co   -0.09137    0.10087    0.07953
 23 Cr    0.08026   -0.65959   -0.08916
 24 Cr    0.38026    0.52713   -0.10149
 25 Ni    0.02039    0.12711    0.00910
 26 Fe    0.01721    0.13732    0.22742
 27 Ni    0.08635   -0.04246    0.03479
 28 Co   -0.12244   -0.28408    0.12034
 29 Co   -0.14266   -0.01155    0.20299
 30 Co   -0.17078   -0.21572    0.22529
 31 Cr   -0.29289   -0.00802    0.49197
 32 Al   -0.40599   -0.57460    0.05125
 33 Cr    0.01347   -0.06014    0.63686
 34 Cr    0.12345   -0.45853    0.01531
 35 Cr    0.25208    0.92234    0.14711
 36 Fe   -0.07059   -0.14097    0.24997
 37 Co    0.00835   -0.03231    0.00578
 38 Cr    0.35959   -0.27460   -0.72634
 39 Fe    0.30733   -0.01006    0.30919
 40 Co   -0.12409   -0.38845    0.05265
 41 Ni    0.03059    0.08091    0.02218
 42 Ni   -0.04572    0.11505   -0.01384
 43 Al    0.23455   -0.45129    0.26129
 44 Fe    0.25869    0.34023   -0.21380
 45 Co    0.06205    0.17620   -0.08612
 46 Fe    0.21231    0.20028    0.03393
 47 Ni   -0.14581    0.00171    0.06577
 48 Fe   -0.12048    0.07634    0.23622
 49 Fe    0.13935   -0.27966    0.13182
 50 Ni    0.01634    0.10586    0.02314
 51 Ni    0.18953   -0.05711    0.03182
 52 Cr   -0.80474    0.37424    0.44555
 53 Co   -0.08706    0.02809    0.04024
 54 Fe   -0.07808   -0.03739    0.39226
 55 Cr    0.35351    0.54037    0.09122
 56 Co    0.19976    0.00557    0.04282
 57 Fe    0.03490    0.16222    0.17635
 58 Ni   -0.04684   -0.09365   -0.14184
 59 Fe   -0.10975   -0.29744    0.02085
[...]
 93 Ni   -0.13591   -0.05678   -0.04630
 94 Co    0.04655   -0.15966    0.12218
 95 Cr    0.02273   -0.17368    0.12141
 96 Fe    0.27733    0.04274   -0.22536
 97 Ni    0.01272   -0.01004   -0.12471
 98 Ni    0.09620   -0.11373   -0.14158
 99 Fe    0.05873   -0.22975   -0.07738
100 Ni   -0.08400   -0.12281   -0.05285
101 Cr   -0.71357    0.08787   -0.00850
102 Cr    0.28571   -0.38081   -0.42847
103 Cr   -0.36433   -0.39725   -0.19977
104 Co   -0.10184   -0.14153    0.15438
105 Fe    0.51271    0.04059   -0.56768
106 Cr    0.11602   -0.27713   -0.14867
107 Ni    0.01505    0.09648    0.13502

Date: Sat Apr  8 10:12:22 2023