User:   c.zeng@d0054
Date:   Sat Apr 15 23:37:35 2023
Arch:   x86_64
Pid:    219315
CWD:    /home/c.zeng/projects/hea-corrosion/hea-mlp/data-curation/bulk-mcmc/dft-jobs/96
Python: 3.8.1
gpaw:   /home/c.zeng/usr/installs/gpaw/source/gpaw-22.8.0/gpaw
_gpaw:  /home/c.zeng/usr/installs/gpaw/source/gpaw-22.8.0/
        _gpaw.cpython-38-x86_64-linux-gnu.so
ase:    /home/c.zeng/.local/lib/python3.8/site-packages/ase-3.22.1-py3.8.egg/ase (version 3.22.1)
numpy:  /home/c.zeng/.local/lib/python3.8/site-packages/numpy (version 1.24.2)
scipy:  /home/c.zeng/.local/lib/python3.8/site-packages/scipy (version 1.10.1)
units:  Angstrom and eV
cores: 30
OpenMP: False
OMP_NUM_THREADS: 1

Input parameters:
  convergence: {energy: 0.0001}
  kpts: [2 2 2]
  maxiter: 666
  mode: {ecut: 350.0,
         name: pw}
  occupations: {fixmagmom: False,
                name: fermi-dirac,
                width: 0.1}
  spinpol: True
  xc: PBE

System changes: positions, numbers, cell, pbc, initial_charges, initial_magmoms

Initialize ...

species:
  Ni:
    name: Nickel
    id: 0d9f38a9d6e76a2886f07bb4381f212b
    Z: 28.0
    valence: 16
    core: 12
    charge: 0.0
    file: /home/c.zeng/usr/data/gpaw-setups-0.9.20000/Ni.PBE.gz
    compensation charges: {type: gauss,
                           rc: 0.36,
                           lmax: 2}
    cutoffs: {filter: 2.14,
              core: 1.98}
    valence states:
      #              energy  rcut
      - 4s(2.00)    -5.642   1.164
      - 3p(6.00)   -71.394   1.207
      - 4p(0.00)    -1.226   1.207
      - 3d(8.00)    -8.875   1.138
      -  s          21.570   1.164
      -  d          18.337   1.138

    # Using partial waves for Ni as LCAO basis

  Cr:
    name: Chromium
    id: 33f258bda2ca9f93018e70263a35547b
    Z: 24.0
    valence: 6
    core: 18
    charge: 0.0
    file: /home/c.zeng/usr/data/gpaw-setups-0.9.20000/Cr.PBE.gz
    compensation charges: {type: gauss,
                           rc: 0.35,
                           lmax: 2}
    cutoffs: {filter: 2.14,
              core: 3.04}
    valence states:
      #              energy  rcut
      - 4s(1.00)    -4.007   1.164
      - 4p(0.00)    -0.989   1.217
      - 3d(5.00)    -2.913   1.111
      -  s          23.205   1.164
      -  p          26.223   1.217
      -  d          24.299   1.111

[...]

  Fe:
    name: Iron
    id: 37abbd8d6c3c35915a9b583b742da910
    Z: 26.0
    valence: 8
    core: 18
    charge: 0.0
    file: /home/c.zeng/usr/data/gpaw-setups-0.9.20000/Fe.PBE.gz
    compensation charges: {type: gauss,
                           rc: 0.33,
                           lmax: 2}
    cutoffs: {filter: 2.06,
              core: 2.67}
    valence states:
      #              energy  rcut
      - 4s(2.00)    -5.291   1.164
      - 4p(0.00)    -1.326   1.058
      - 3d(6.00)    -7.505   1.058
      -  s          21.920   1.164
      -  p          25.885   1.058
      -  d          19.706   1.058

[...]

  Co:
    name: Cobalt
    id: 339d20d5b0b93d2de9531a1bee871d91
    Z: 27.0
    valence: 9
    core: 18
    charge: 0.0
    file: /home/c.zeng/usr/data/gpaw-setups-0.9.20000/Co.PBE.gz
    compensation charges: {type: gauss,
                           rc: 0.32,
                           lmax: 2}
    cutoffs: {filter: 1.87,
              core: 2.55}
    valence states:
      #              energy  rcut
      - 4s(2.00)    -5.469   1.005
      - 4p(0.00)    -1.277   1.058
      - 3d(7.00)    -8.205   1.005
      -  s          21.742   1.005
      -  p          25.934   1.058
      -  d          19.007   1.005

[...]

  Al:
    name: Aluminium
    id: 0292cae29f5d6237e50f6abdd43a7bdd
    Z: 13.0
    valence: 3
    core: 10
    charge: 0.0
    file: /home/c.zeng/usr/data/gpaw-setups-0.9.20000/Al.PBE.gz
    compensation charges: {type: gauss,
                           rc: 0.34,
                           lmax: 2}
    cutoffs: {filter: 1.91,
              core: 2.36}
    valence states:
      #              energy  rcut
      - 3s(2.00)    -7.753   1.085
      - 3p(1.00)    -2.712   1.085
      -  s          19.459   1.085
      -  p          24.499   1.085
      -  d           0.000   1.085

    # Using partial waves for Al as LCAO basis

Reference energy: -3699400.456887  # eV

Spin-polarized calculation.
Magnetic moment: 143.500000

Convergence criteria:
 Maximum [total energy] change in last 3 cyles: 0.0001 eV / electron
 Maximum integral of absolute [dens]ity change: 0.0001 electrons / valence electron
 Maximum integral of absolute [eigenst]ate change: 4e-08 eV^2 / valence electron
 Maximum number of scf [iter]ations: 666
 (Square brackets indicate name in SCF output, whereas a 'c' in
 the SCF output indicates the quantity has converged.)

Symmetries present (total): 1

  ( 1  0  0)
  ( 0  1  0)
  ( 0  0  1)

8 k-points: 2 x 2 x 2 Monkhorst-Pack grid
4 k-points in the irreducible part of the Brillouin zone
       k-points in crystal coordinates                weights
   0:     0.25000000   -0.25000000   -0.25000000          2/8
   1:     0.25000000   -0.25000000    0.25000000          2/8
   2:     0.25000000    0.25000000   -0.25000000          2/8
   3:     0.25000000    0.25000000    0.25000000          2/8

Wave functions: Plane wave expansion
  Cutoff energy: 350.000 eV
  Number of coefficients (min, max): 18052, 18052
  Pulay-stress correction: 0.000000 eV/Ang^3 (de/decut=0.000000)
  Using FFTW library
  ScaLapack parameters: grid=1x1, blocksize=None
  Wavefunction extrapolation:
    Improved wavefunction reuse through dual PAW basis

Occupation numbers: Fermi-Dirac:
  width: 0.1000  # eV

Eigensolver
   Davidson(niter=2)

Densities:
  Coarse grid: 48*48*48 grid
  Fine grid: 96*96*96 grid
  Total Charge: 0.000000

Density mixing:
  Method: difference
  Backend: pulay
  Linear mixing parameter: 0.05
  old densities: 5
  Damping of long wavelength oscillations: 50

Hamiltonian:
  XC and Coulomb potentials evaluated on a 96*96*96 grid
  Using the PBE Exchange-Correlation functional
  External potential:
    NoExternalPotential

XC parameters: PBE with 2 nearest neighbor stencil

Total number of cores used: 30
Parallelization over k-points: 2
Domain decomposition: 5 x 3 x 1

Number of atoms: 108
Number of atomic orbitals: 1025
Number of bands in calculation: 703
Number of valence electrons: 1020
Bands to converge: occupied

... initialized

Initializing position-dependent things.

Density initialized from atomic densities
Creating initial wave functions:
  703 bands from LCAO basis set

        Ni------------------------.
       /|  Co                Co   |
      Cr|   Ni         Ni         |
     / Fe      Fe       Al        |
    /   CCo      Cr       Fe      |
   /e   | CoNi     CoAl    NiNi   |
  /  FeCr  CrCo     NiNiCo        |
 *    FeFe  FeCoCr     CoAl       |
 |     CoFeNi  CoFe Ni  CrFeNi    |
 | Fe   NiNiNiCo NiCrCrFe  Cr     |
 |   CoCr  CrAlCr   CrNiCr   Fe   |
 |    FeNi  FeFeCoCr CoFeNi   Cr  |
 |     CrFeFe  Cr NiCr  CoFeFe    |
 |      .-CoNiCo-FeCrNiCo--CoCr---.
 |   CrCo    CoAl   NiNiFe       /
 |    / Ni    CrFe       Ni     /
 |   /            Ni           /
 |Cr/      Co       Co        /
 |/            Cr           /
 *----------------Cr-------*

Positions:
   0 Ni     0.005316   -0.016350   10.639749    ( 0.0000,  0.0000,  0.0000)
   1 Cr    10.672340    1.801276    1.786848    ( 0.0000,  0.0000,  0.0000)
   2 Fe     1.795727   10.625972    1.782259    ( 0.0000,  0.0000,  0.0000)
   3 Cr     1.780787    1.796175   10.644605    ( 0.0000,  0.0000,  2.1000)
   4 Fe     3.523539   -0.014558    0.017268    ( 0.0000,  0.0000,  2.0000)
   5 Co     3.522568    1.781672    1.746648    ( 0.0000,  0.0000,  0.0000)
   6 Co     5.320952   10.642342    1.763136    ( 0.0000,  0.0000,  1.5000)
   7 Cr     5.342082    1.828767    0.007462    ( 0.0000,  0.0000,  2.0000)
   8 Cr     7.144895    0.019195    0.012033    ( 0.0000,  0.0000,  0.0000)
   9 Co     7.143497    1.798064    1.764939    ( 0.0000,  0.0000,  2.1000)
  10 Cr     8.891362   10.651627    1.788353    ( 0.0000,  0.0000,  1.5000)
  11 Co     8.888779    1.804777   10.642609    ( 0.0000,  0.0000,  2.0000)
  12 Fe     0.008694    3.581540   10.650250    ( 0.0000,  0.0000,  2.1000)
  13 Cr     0.018979    5.332745    1.789751    ( 0.0000,  0.0000,  2.1000)
  14 Ni     1.778129    3.600941    1.760019    ( 0.0000,  0.0000,  2.0000)
  15 Co     1.790423    5.343267   -0.017766    ( 0.0000,  0.0000,  2.0000)
  16 Ni     3.542802    3.589864   -0.015614    ( 0.0000,  0.0000,  2.0000)
  17 Co     3.526837    5.358538    1.765793    ( 0.0000,  0.0000,  2.0000)
  18 Fe     5.336650    3.606501    1.755815    ( 0.0000,  0.0000,  0.0000)
  19 Cr     5.300399    5.323642   -0.012797    ( 0.0000,  0.0000,  2.1000)
  20 Al     7.122858    3.584816   10.659524    ( 0.0000,  0.0000,  2.0000)
  21 Ni     7.120500    5.315168    1.805502    ( 0.0000,  0.0000,  1.5000)
  22 Ni     8.892034    3.590952    1.773146    ( 0.0000,  0.0000,  2.1000)
  23 Fe     8.925340    5.301487   -0.003100    ( 0.0000,  0.0000,  0.0000)
  24 Cr     0.023055    7.096680   -0.007939    ( 0.0000,  0.0000,  0.0000)
  25 Cr     0.019141    8.871245    1.787510    ( 0.0000,  0.0000,  1.5000)
  26 Co     1.784372    7.104567    1.776443    ( 0.0000,  0.0000,  2.0000)
  27 Co     1.779944    8.867628   10.659406    ( 0.0000,  0.0000,  1.5000)
  28 Cr     3.547785    7.097897    0.009215    ( 0.0000,  0.0000,  2.1000)
  29 Cr     3.541137    8.858109    1.788225    ( 0.0000,  0.0000,  2.1000)
  30 Cr     5.295105    7.099391    1.787894    ( 0.0000,  0.0000,  2.1000)
  31 Ni     5.303685    8.873828    0.029898    ( 0.0000,  0.0000,  0.0000)
  32 Ni     7.106883    7.088719   10.645159    ( 0.0000,  0.0000,  0.0000)
  33 Co     7.111055    8.901137    1.809472    ( 0.0000,  0.0000,  0.0000)
  34 Co     8.939384    7.093404    1.799238    ( 0.0000,  0.0000,  0.0000)
  35 Co     8.919972    8.915853   10.664881    ( 0.0000,  0.0000,  0.0000)
  36 Ni    10.679704   10.658873    3.584517    ( 0.0000,  0.0000,  2.0000)
  37 Fe    10.670921    1.796367    5.340289    ( 0.0000,  0.0000,  2.1000)
  38 Fe     1.770350   10.649001    5.343491    ( 0.0000,  0.0000,  0.0000)
  39 Co     1.791800    1.784671    3.584891    ( 0.0000,  0.0000,  2.0000)
  40 Ni     3.529718   10.626388    3.565234    ( 0.0000,  0.0000,  2.1000)
  41 Fe     3.535716    1.793465    5.367289    ( 0.0000,  0.0000,  1.5000)
  42 Co     5.311497    0.001574    5.366254    ( 0.0000,  0.0000,  1.5000)
  43 Al     5.332627    1.768055    3.580793    ( 0.0000,  0.0000,  0.0000)
  44 Ni     7.136966   10.673941    3.563804    ( 0.0000,  0.0000,  2.0000)
  45 Cr     7.136774    1.794126    5.358944    ( 0.0000,  0.0000,  2.1000)
  46 Co     8.925938   10.673621    5.347589    ( 0.0000,  0.0000,  2.0000)
  47 Fe     8.883827    1.779111    3.582404    ( 0.0000,  0.0000,  1.5000)
  48 Cr    -0.010038    3.572341    3.580996    ( 0.0000,  0.0000,  2.0000)
  49 Co    10.685573    5.328935    5.338550    ( 0.0000,  0.0000,  2.0000)
  50 Ni     1.784180    3.582949    5.348357    ( 0.0000,  0.0000,  1.5000)
  51 Fe     1.766326    5.339510    3.565255    ( 0.0000,  0.0000,  1.5000)
[...]
iter: 414 16:48:02  -871.240739c -6.04  -3.85    +64.6521
iter: 415 16:49:48  -871.241203c -6.08  -3.80    +64.6246
iter: 416 16:51:33  -871.241729c -6.21  -3.91    +64.5966
iter: 417 16:53:19  -871.242382c -5.94  -3.95    +64.5630
iter: 418 16:55:04  -871.242006c -6.40  -4.02c   +64.5735
iter: 419 16:56:50  -871.243460c -5.84  -4.01c   +64.5145
iter: 420 16:58:35  -871.243583c -6.20  -3.96    +64.5098
iter: 421 17:00:21  -871.244569c -6.00  -4.04c   +64.4751
iter: 422 17:02:06  -871.245180c -6.25  -4.30c   +64.4449
iter: 423 17:03:52  -871.247603c -5.61  -4.49c   +64.3647
iter: 424 17:05:37  -871.242405c -5.09  -4.32c   +64.5498
iter: 425 17:07:23  -871.231057c -4.11  -4.25c   +65.0335
iter: 426 17:09:08  -871.244748c -4.18  -3.70    +64.4556
iter: 427 17:10:54  -871.242167c -6.01  -4.53c   +64.5457
iter: 428 17:12:39  -871.240435c -5.76  -4.28c   +64.6237
iter: 429 17:14:25  -871.240431c -6.47  -4.19c   +64.6233
iter: 430 17:16:10  -871.241430c -5.52  -4.19c   +64.5941
iter: 431 17:17:56  -871.243778c -5.13  -4.15c   +64.5362
iter: 432 17:19:41  -871.243700c -6.09  -4.05c   +64.5405
iter: 433 17:21:27  -871.245575c -5.37  -3.91    +64.5115
iter: 434 17:23:12  -871.245032c -5.76  -3.79    +64.5065
iter: 435 17:24:58  -871.246106c -5.65  -3.91    +64.4855
iter: 436 17:26:43  -871.246225c -5.91  -3.91    +64.4706
iter: 437 17:28:29  -871.246866c -5.92  -3.95    +64.4580
iter: 438 17:30:14  -871.247829c -6.08  -4.05c   +64.4313
iter: 439 17:32:00  -871.249087c -6.08  -4.18c   +64.4106
iter: 440 17:33:46  -871.249139c -6.26  -4.01c   +64.3972
iter: 441 17:35:31  -871.250104c -6.10  -4.19c   +64.3649
iter: 442 17:37:17  -871.249599c -6.65  -4.16c   +64.3844
iter: 443 17:39:03  -871.250622c -6.23  -4.14c   +64.3591
iter: 444 17:40:48  -871.250582c -7.12  -4.19c   +64.3588
iter: 445 17:42:34  -871.251714c -6.13  -4.19c   +64.3133
iter: 446 17:44:19  -871.251668c -6.59  -4.04c   +64.3251
iter: 447 17:46:05  -871.252988c -6.01  -4.21c   +64.2980
iter: 448 17:47:50  -871.251546c -6.20  -4.15c   +64.3165
iter: 449 17:49:36  -871.249697c -5.54  -4.24c   +64.3310
iter: 450 17:51:22  -871.251669c -5.89  -4.10c   +64.2833
iter: 451 17:53:07  -871.248863c -5.64  -4.30c   +64.3138
iter: 452 17:54:53  -871.249849c -6.63  -4.21c   +64.2830
iter: 453 17:56:38  -871.250144c -6.84  -4.33c   +64.2745
iter: 454 17:58:24  -871.250181c -7.04  -4.39c   +64.2667
iter: 455 18:00:09  -871.251444c -6.17  -4.39c   +64.2432
iter: 456 18:01:55  -871.246892c -5.15  -4.47c   +64.3119
iter: 457 18:03:40  -871.239934c -4.53  -4.16c   +64.3848
iter: 458 18:05:26  -871.241120c -5.87  -3.75    +64.3409
iter: 459 18:07:11  -871.244125c -5.26  -3.81    +64.2425
iter: 460 18:08:57  -871.244890c -5.99  -4.00c   +64.2284
iter: 461 18:10:42  -871.237353c -4.54  -4.04c   +64.3779
iter: 462 18:12:28  -871.235915c -5.15  -3.68    +64.4182
iter: 463 18:14:13  -871.237703c -5.75  -3.60    +64.3803
iter: 464 18:15:59  -871.237338c -6.09  -3.71    +64.3768
iter: 465 18:17:44  -871.238730c -5.97  -3.69    +64.3688
iter: 466 18:19:29  -871.241379c -5.24  -3.64    +64.3707
iter: 467 18:21:15  -871.240160c -5.45  -3.49    +64.3839
iter: 468 18:23:00  -871.242150c -5.32  -3.58    +64.3796
iter: 469 18:24:46  -871.240501c -5.62  -3.59    +64.3824
iter: 470 18:26:31  -871.241529c -5.73  -3.78    +64.3906
iter: 471 18:28:17  -871.243698c -5.56  -4.09c   +64.3827
iter: 472 18:30:02  -871.245956c -5.54  -4.26c   +64.3683
iter: 473 18:31:48  -871.245624c -6.35  -4.21c   +64.3693
iter: 474 18:33:33  -871.246634c -6.16  -4.34c   +64.3429
iter: 475 18:35:18  -871.246390c -6.80  -4.38c   +64.3545
iter: 476 18:37:04  -871.247461c -6.22  -4.41c   +64.3393
iter: 477 18:38:48  -871.245510c -5.97  -4.43c   +64.3555
iter: 478 18:40:33  -871.233115c -4.12  -4.52c   +64.4551
iter: 479 18:42:18  -871.239254c -5.03  -3.66    +64.3942
iter: 480 18:44:03  -871.242571c -5.13  -3.95    +64.3588
iter: 481 18:45:47  -871.240136c -5.90  -4.15c   +64.3803
iter: 482 18:47:32  -871.239011c -6.09  -4.00    +64.3846
iter: 483 18:49:17  -871.240308c -6.27  -3.94    +64.3714
iter: 484 18:51:01  -871.240678c -6.51  -3.98    +64.3667
iter: 485 18:52:46  -871.240890c -6.42  -3.96    +64.3662
iter: 486 18:54:31  -871.242804c -5.66  -3.94    +64.3560
iter: 487 18:56:15  -871.242114c -5.96  -3.70    +64.3600
iter: 488 18:58:00  -871.243533c -5.73  -3.96    +64.3387
iter: 489 18:59:45  -871.242601c -6.16  -3.86    +64.3404
iter: 490 19:01:30  -871.243823c -6.04  -4.05c   +64.3407
iter: 491 19:03:14  -871.245600c -5.87  -4.58c   +64.3355
iter: 492 19:04:59  -871.247943c -5.56  -4.54c   +64.3222
iter: 493 19:06:44  -871.248883c -6.08  -4.29c   +64.3134
iter: 494 19:08:29  -871.247375c -6.25  -4.32c   +64.3385
iter: 495 19:10:13  -871.244514c -5.53  -4.41c   +64.3903
iter: 496 19:11:58  -871.239761c -4.94  -4.52c   +64.5035
iter: 497 19:13:43  -871.231561c -4.35  -4.14c   +64.7334
iter: 498 19:15:28  -871.233585c -5.61  -3.73    +64.6835
iter: 499 19:17:13  -871.241147c -4.55  -3.80    +64.5003
iter: 500 19:18:57  -871.242921c -5.30  -4.22c   +64.4744
iter: 501 19:20:42  -871.235147c -4.68  -4.39c   +64.6198
iter: 502 19:22:27  -871.228197c -4.42  -3.88    +64.7699
iter: 503 19:24:12  -871.242179c -4.15  -3.62    +64.4954
iter: 504 19:25:57  -871.212488c -3.52  -4.33c   +65.0273
iter: 505 19:27:41  -871.270530c -3.08  -3.35    +64.1430
iter: 506 19:29:26  -871.268169c -4.35  -3.59    +64.1599
iter: 507 19:31:11  -871.270932c -4.87  -3.64    +64.1196
iter: 508 19:32:56  -871.268585c -5.40  -3.60    +64.1548
iter: 509 19:34:41  -871.263589c -5.23  -3.63    +64.2321
iter: 510 19:36:26  -871.272801c -4.89  -3.66    +64.0938
iter: 511 19:38:10  -871.269109c -5.16  -3.54    +64.1690
iter: 512 19:39:55  -871.271595c -5.13  -3.48    +64.0903
iter: 513 19:41:40  -871.272661c -5.33  -3.54    +64.0802
iter: 514 19:43:25  -871.271320c -5.46  -3.46    +64.0044
iter: 515 19:45:10  -871.271979c -5.54  -3.69    +63.9470
iter: 516 19:46:54  -871.273644c -5.75  -3.68    +63.9246
iter: 517 19:48:39  -871.274461c -5.64  -3.64    +63.8509
iter: 518 19:50:24  -871.275264c -5.84  -3.68    +63.8067
iter: 519 19:52:09  -871.277089c -5.77  -3.76    +63.7501
iter: 520 19:53:54  -871.277098c -6.18  -3.72    +63.7236
iter: 521 19:55:39  -871.279583c -5.71  -3.80    +63.6409
iter: 522 19:57:23  -871.277958c -6.26  -3.67    +63.7038
iter: 523 19:59:08  -871.278832c -6.06  -3.72    +63.6649
iter: 524 20:00:53  -871.279924c -5.94  -3.68    +63.6095
iter: 525 20:02:38  -871.282031c -5.77  -3.69    +63.5464
iter: 526 20:04:23  -871.281931c -6.09  -3.67    +63.5188
iter: 527 20:06:08  -871.285331c -5.53  -3.72    +63.4439
iter: 528 20:07:53  -871.285174c -6.14  -3.63    +63.4263
iter: 529 20:09:38  -871.288199c -5.47  -3.74    +63.3312
iter: 530 20:11:22  -871.288351c -5.56  -3.66    +63.3267
iter: 531 20:13:07  -871.289048c -5.66  -3.83    +63.2703
iter: 532 20:14:52  -871.290447c -5.84  -3.96    +63.2234
iter: 533 20:16:37  -871.291824c -5.98  -4.07c   +63.1711
iter: 534 20:18:22  -871.301008c -4.69  -4.11c   +62.8483
iter: 535 20:20:07  -871.312534c -4.33  -3.88    +62.4407
iter: 536 20:21:52  -871.316168c -4.78  -3.60    +62.3390
iter: 537 20:23:37  -871.319026c -4.99  -3.52    +62.2893
iter: 538 20:25:22  -871.318509c -5.71  -3.47    +62.3196
iter: 539 20:27:07  -871.318311c -5.79  -3.49    +62.3320
iter: 540 20:28:51  -871.320026c -5.76  -3.52    +62.3308
iter: 541 20:30:36  -871.320995c -5.40  -3.45    +62.3344
iter: 542 20:32:21  -871.316192c -5.02  -3.38    +62.3474
iter: 543 20:34:06  -871.323348c -5.10  -3.59    +62.3330
iter: 544 20:35:50  -871.317665c -5.32  -3.37    +62.3309
iter: 545 20:37:36  -871.317272c -5.50  -3.61    +62.3597
iter: 546 20:39:21  -871.317371c -5.75  -3.66    +62.3744
iter: 547 20:41:06  -871.317731c -6.04  -3.70    +62.3754
iter: 548 20:42:52  -871.318218c -6.20  -3.83    +62.3870
iter: 549 20:44:37  -871.318504c -6.46  -3.89    +62.3992
iter: 550 20:46:22  -871.319169c -6.43  -3.88    +62.4103
iter: 551 20:48:07  -871.320295c -6.05  -3.92    +62.4246
iter: 552 20:49:51  -871.320995c -5.78  -3.86    +62.4424
iter: 553 20:51:36  -871.321422c -5.96  -3.86    +62.4688
iter: 554 20:53:21  -871.323126c -5.98  -4.00c   +62.4941
iter: 555 20:55:06  -871.323063c -6.56  -4.07c   +62.4942
iter: 556 20:56:51  -871.325143c -5.94  -4.13c   +62.5442
iter: 557 20:58:36  -871.320887c -5.55  -4.13c   +62.4611
iter: 558 21:00:20  -871.312793c -4.51  -4.22c   +62.2433
iter: 559 21:02:05  -871.311702c -4.99  -4.06c   +62.1773
iter: 560 21:03:50  -871.311960c -5.14  -3.98    +62.1335
iter: 561 21:05:35  -871.312315c -6.14  -3.91    +62.1484
iter: 562 21:07:20  -871.312245c -6.48  -3.90    +62.1588
iter: 563 21:09:05  -871.312699c -6.58  -3.94    +62.1655
iter: 564 21:10:50  -871.313635c -5.93  -3.86    +62.1635
iter: 565 21:12:35  -871.312079c -5.76  -3.68    +62.1751
iter: 566 21:14:20  -871.312320c -6.29  -3.91    +62.1660
iter: 567 21:16:05  -871.311811c -6.50  -3.94    +62.1645
iter: 568 21:17:49  -871.311876c -6.42  -4.04c   +62.1582
iter: 569 21:19:34  -871.311852c -6.14  -3.93    +62.1595
iter: 570 21:21:19  -871.312154c -6.07  -3.95    +62.1595
iter: 571 21:23:04  -871.311473c -6.39  -3.93    +62.1561
iter: 572 21:24:49  -871.311262c -6.68  -4.35c   +62.1555
iter: 573 21:26:34  -871.311523c -6.68  -4.21c   +62.1541
iter: 574 21:28:19  -871.311469c -7.03  -4.22c   +62.1545
iter: 575 21:30:04  -871.311337c -7.43c -4.39c   +62.1523

Converged after 575 iterations.

Dipole moment: (-10.694406, 7.478817, 8.384495) |e|*Ang

Total magnetic moment: (0.000000, 0.000000, 62.152283)
Local magnetic moments:
   0 Ni ( 0.000000,  0.000000,  0.270268)
   1 Cr ( 0.000000,  0.000000,  1.377428)
   2 Fe ( 0.000000,  0.000000, -0.235909)
   3 Cr ( 0.000000,  0.000000, -1.810767)
   4 Fe ( 0.000000,  0.000000,  2.216542)
   5 Co ( 0.000000,  0.000000,  1.238383)
   6 Co ( 0.000000,  0.000000,  0.844989)
   7 Cr ( 0.000000,  0.000000, -1.768313)
   8 Cr ( 0.000000,  0.000000, -1.122168)
   9 Co ( 0.000000,  0.000000,  1.005244)
  10 Cr ( 0.000000,  0.000000, -1.373650)
  11 Co ( 0.000000,  0.000000,  0.785862)
  12 Fe ( 0.000000,  0.000000,  2.108531)
  13 Cr ( 0.000000,  0.000000, -0.878292)
  14 Ni ( 0.000000,  0.000000,  0.269688)
  15 Co ( 0.000000,  0.000000,  1.191793)
  16 Ni ( 0.000000,  0.000000,  0.181617)
  17 Co ( 0.000000,  0.000000,  0.789400)
  18 Fe ( 0.000000,  0.000000,  2.244592)
  19 Cr ( 0.000000,  0.000000, -1.287556)
  20 Al ( 0.000000,  0.000000, -0.020935)
  21 Ni ( 0.000000,  0.000000,  0.266464)
  22 Ni ( 0.000000,  0.000000,  0.176120)
  23 Fe ( 0.000000,  0.000000,  2.121187)
  24 Cr ( 0.000000,  0.000000, -1.510826)
  25 Cr ( 0.000000,  0.000000,  0.663194)
  26 Co ( 0.000000,  0.000000,  0.582094)
  27 Co ( 0.000000,  0.000000,  0.726186)
  28 Cr ( 0.000000,  0.000000, -0.721910)
  29 Cr ( 0.000000,  0.000000,  0.435257)
  30 Cr ( 0.000000,  0.000000, -0.341444)
  31 Ni ( 0.000000,  0.000000,  0.213222)
  32 Ni ( 0.000000,  0.000000,  0.268674)
  33 Co ( 0.000000,  0.000000,  1.141956)
  34 Co ( 0.000000,  0.000000,  0.659643)
  35 Co ( 0.000000,  0.000000,  0.915579)
  36 Ni ( 0.000000,  0.000000,  0.184416)
  37 Fe ( 0.000000,  0.000000,  2.202251)
  38 Fe ( 0.000000,  0.000000,  2.123818)
  39 Co ( 0.000000,  0.000000,  1.421480)
  40 Ni ( 0.000000,  0.000000,  0.223854)
  41 Fe ( 0.000000,  0.000000,  2.193702)
  42 Co ( 0.000000,  0.000000,  0.711633)
  43 Al ( 0.000000,  0.000000, -0.033452)
  44 Ni ( 0.000000,  0.000000,  0.218720)
  45 Cr ( 0.000000,  0.000000,  0.560394)
  46 Co ( 0.000000,  0.000000,  1.032064)
  47 Fe ( 0.000000,  0.000000,  2.139339)
  48 Cr ( 0.000000,  0.000000, -1.464847)
  49 Co ( 0.000000,  0.000000,  1.157503)
  50 Ni ( 0.000000,  0.000000,  0.322103)
  51 Fe ( 0.000000,  0.000000,  2.227748)
  52 Ni ( 0.000000,  0.000000,  0.364219)
  53 Al ( 0.000000,  0.000000, -0.036115)
  54 Co ( 0.000000,  0.000000,  0.970234)
  55 Ni ( 0.000000,  0.000000,  0.141957)
  56 Ni ( 0.000000,  0.000000,  0.331497)
  57 Ni ( 0.000000,  0.000000,  0.307621)
  58 Ni ( 0.000000,  0.000000,  0.279086)
  59 Fe ( 0.000000,  0.000000,  2.247822)
[...]
  93 Ni ( 0.000000,  0.000000,  0.240227)
  94 Al ( 0.000000,  0.000000, -0.035862)
  95 Fe ( 0.000000,  0.000000,  2.049376)
  96 Fe ( 0.000000,  0.000000,  2.210304)
  97 Fe ( 0.000000,  0.000000,  2.266302)
  98 Co ( 0.000000,  0.000000,  1.126108)
  99 Cr ( 0.000000,  0.000000, -1.949848)
 100 Co ( 0.000000,  0.000000,  1.175719)
 101 Fe ( 0.000000,  0.000000,  2.229983)
 102 Co ( 0.000000,  0.000000,  1.213140)
 103 Ni ( 0.000000,  0.000000,  0.333784)
 104 Co ( 0.000000,  0.000000,  1.232864)
 105 Al ( 0.000000,  0.000000, -0.026981)
 106 Ni ( 0.000000,  0.000000,  0.325645)
 107 Ni ( 0.000000,  0.000000,  0.312002)

Energy contributions relative to reference atoms: (reference = -3699400.456887)

Kinetic:       +140.789320
Potential:     -191.744480
External:        +0.000000
XC:            -855.905979
Entropy (-ST):   -4.530140
Local:          +37.814872
Free energy:   -873.576407
Extrapolated:  -871.311337

Spin contamination: 29.035991 electrons
Showing only first 2 kpts
                      Up                     Down
 Kpt  Band  Eigenvalues  Occupancy  Eigenvalues  Occupancy
  0   508      9.65659    0.99256     10.50803    0.02604
  0   509      9.66616    0.99181     10.51979    0.02322
  0   510      9.67168    0.99135     10.52683    0.02168
  0   511      9.68059    0.99056     10.54731    0.01773

  1   508      9.65056    0.99299     10.50603    0.02656
  1   509      9.65519    0.99266     10.51704    0.02385
  1   510      9.66871    0.99160     10.53171    0.02067
  1   511      9.68828    0.98981     10.53499    0.02001

Fermi level: 10.14587

No gap

Forces in eV/Ang:
  0 Ni    0.02381    0.07693    0.45152
  1 Cr    0.07084   -0.51125   -0.05006
  2 Fe   -0.38655   -0.12556    0.30715
  3 Cr   -0.07522    0.00005    0.34131
  4 Fe    0.39590    0.43397   -0.16052
  5 Co   -0.12112    0.00270    0.09665
  6 Co    0.21608   -0.09877   -0.17217
  7 Cr   -0.92444   -0.64340    0.03853
  8 Cr   -0.15349    0.35253    0.22718
  9 Co    0.01090   -0.26537   -0.05390
 10 Cr    0.22519    0.29516    0.08535
 11 Co    0.32698   -0.55241    0.57011
 12 Fe    0.25739   -0.07906    0.54565
 13 Cr   -0.03353    0.17957   -0.15965
 14 Ni    0.07522   -0.34670    0.16035
 15 Co   -0.01786    0.18831    0.15111
 16 Ni   -0.01944   -0.17195    0.22863
 17 Co    0.18691    0.17003    0.10220
 18 Fe   -0.50944   -0.14612    0.23079
 19 Cr   -0.06449    0.60076    0.05753
 20 Al    0.45977   -0.24775    0.85844
 21 Ni   -0.03963    0.48940   -0.25288
 22 Ni    0.24827   -0.48829    0.20770
 23 Fe   -0.06194    1.30709    0.26177
 24 Cr   -0.01416   -0.10466    0.01974
 25 Cr    0.15930    0.30816   -0.45850
 26 Co   -0.07566   -0.08093   -0.40574
 27 Co   -0.02217   -0.03976    0.29115
 28 Cr   -0.67763   -0.15313   -0.21052
 29 Cr    0.13130    0.32658   -0.17573
 30 Cr    0.20757   -0.13519   -0.04546
 31 Ni    0.38589    0.15454   -0.09727
 32 Ni    0.16495    0.07827    0.40879
 33 Co    0.05315   -0.16488   -0.32735
 34 Co   -0.23716    0.23014   -0.32426
 35 Co   -0.24035   -0.31485    0.44840
 36 Ni    0.00901    0.15566   -0.24673
 37 Fe    0.04124   -0.11770   -0.01463
 38 Fe   -0.01651    0.01380   -0.23901
 39 Co    0.04599    0.04681   -0.25910
 40 Ni    0.05415    0.27351   -0.00933
 41 Fe   -0.14117    0.17644    0.04833
 42 Co   -0.06213   -0.46399   -0.03476
 43 Al   -0.21226   -0.05571   -0.61067
 44 Ni   -0.15295   -0.30898    0.08204
 45 Cr    0.51978   -0.28992    0.58318
 46 Co    0.10416   -0.15693    0.02727
 47 Fe   -0.17665    0.07816   -0.04089
 48 Cr    0.24543   -0.13317   -0.09528
 49 Co    0.11896   -0.10578   -0.00628
 50 Ni   -0.21110   -0.25591   -0.10980
 51 Fe   -0.30486    0.08816   -0.50418
 52 Ni    0.13833   -0.50031   -0.41542
 53 Al   -0.29995   -0.79153   -0.28015
 54 Co    0.28157   -0.35133   -0.03553
 55 Ni    0.06023    0.02629   -0.13638
 56 Ni   -0.30249   -0.08280   -0.05112
 57 Ni   -0.09221    0.05989    0.10245
 58 Ni    0.21324    0.06788    0.08484
 59 Fe   -0.00246   -0.02020   -0.10506
[...]
 93 Ni    0.24715    0.57576    0.40797
 94 Al    0.48516    0.04858   -0.09845
 95 Fe   -0.28081    0.24171   -0.21313
 96 Fe   -0.10544    0.18271   -0.18351
 97 Fe    0.21303   -0.09706    0.32180
 98 Co    0.11457   -0.13288    0.28120
 99 Cr    0.03522    0.02749   -0.11470
100 Co    0.16209    0.33359    0.37030
101 Fe    0.35073    0.14174   -0.05179
102 Co   -0.13815   -0.28772    0.14411
103 Ni    0.21419    0.26614   -0.05453
104 Co   -0.15339   -0.24201   -0.52162
105 Al   -0.48837   -1.00140    0.38258
106 Ni   -0.00693   -0.34713    0.29959
107 Ni   -0.14725    0.19868   -0.38360

Date: Sun Apr 16 21:30:26 2023