User:   c.zeng@d0114
Date:   Sat Apr 15 12:48:55 2023
Arch:   x86_64
Pid:    9117
CWD:    /home/c.zeng/projects/hea-corrosion/hea-mlp/data-curation/bulk-mcmc/dft-jobs/37
Python: 3.8.1
gpaw:   /home/c.zeng/usr/installs/gpaw/source/gpaw-22.8.0/gpaw
_gpaw:  /home/c.zeng/usr/installs/gpaw/source/gpaw-22.8.0/
        _gpaw.cpython-38-x86_64-linux-gnu.so
ase:    /home/c.zeng/.local/lib/python3.8/site-packages/ase-3.22.1-py3.8.egg/ase (version 3.22.1)
numpy:  /shared/centos7/python/3.8.1/lib/python3.8/site-packages/numpy (version 1.17.4)
scipy:  /shared/centos7/python/3.8.1/lib/python3.8/site-packages/scipy (version 1.4.1)
units:  Angstrom and eV
cores: 30
OpenMP: False
OMP_NUM_THREADS: 1

Input parameters:
  convergence: {energy: 0.0001}
  kpts: [2 2 2]
  maxiter: 666
  mode: {ecut: 350.0,
         name: pw}
  occupations: {fixmagmom: False,
                name: fermi-dirac,
                width: 0.1}
  spinpol: True
  xc: PBE

System changes: positions, numbers, cell, pbc, initial_charges, initial_magmoms

Initialize ...

species:
  Co:
    name: Cobalt
    id: 339d20d5b0b93d2de9531a1bee871d91
    Z: 27.0
    valence: 9
    core: 18
    charge: 0.0
    file: /home/c.zeng/usr/data/gpaw-setups-0.9.20000/Co.PBE.gz
    compensation charges: {type: gauss,
                           rc: 0.32,
                           lmax: 2}
    cutoffs: {filter: 1.87,
              core: 2.55}
    valence states:
      #              energy  rcut
      - 4s(2.00)    -5.469   1.005
      - 4p(0.00)    -1.277   1.058
      - 3d(7.00)    -8.205   1.005
      -  s          21.742   1.005
      -  p          25.934   1.058
      -  d          19.007   1.005

    # Using partial waves for Co as LCAO basis

  Fe:
    name: Iron
    id: 37abbd8d6c3c35915a9b583b742da910
    Z: 26.0
    valence: 8
    core: 18
    charge: 0.0
    file: /home/c.zeng/usr/data/gpaw-setups-0.9.20000/Fe.PBE.gz
    compensation charges: {type: gauss,
                           rc: 0.33,
                           lmax: 2}
    cutoffs: {filter: 2.06,
              core: 2.67}
    valence states:
      #              energy  rcut
      - 4s(2.00)    -5.291   1.164
      - 4p(0.00)    -1.326   1.058
      - 3d(6.00)    -7.505   1.058
      -  s          21.920   1.164
      -  p          25.885   1.058
      -  d          19.706   1.058

[...]

  Cr:
    name: Chromium
    id: 33f258bda2ca9f93018e70263a35547b
    Z: 24.0
    valence: 6
    core: 18
    charge: 0.0
    file: /home/c.zeng/usr/data/gpaw-setups-0.9.20000/Cr.PBE.gz
    compensation charges: {type: gauss,
                           rc: 0.35,
                           lmax: 2}
    cutoffs: {filter: 2.14,
              core: 3.04}
    valence states:
      #              energy  rcut
      - 4s(1.00)    -4.007   1.164
      - 4p(0.00)    -0.989   1.217
      - 3d(5.00)    -2.913   1.111
      -  s          23.205   1.164
      -  p          26.223   1.217
      -  d          24.299   1.111

[...]

  Ni:
    name: Nickel
    id: 0d9f38a9d6e76a2886f07bb4381f212b
    Z: 28.0
    valence: 16
    core: 12
    charge: 0.0
    file: /home/c.zeng/usr/data/gpaw-setups-0.9.20000/Ni.PBE.gz
    compensation charges: {type: gauss,
                           rc: 0.36,
                           lmax: 2}
    cutoffs: {filter: 2.14,
              core: 1.98}
    valence states:
      #              energy  rcut
      - 4s(2.00)    -5.642   1.164
      - 3p(6.00)   -71.394   1.207
      - 4p(0.00)    -1.226   1.207
      - 3d(8.00)    -8.875   1.138
      -  s          21.570   1.164
      -  d          18.337   1.138

    # Using partial waves for Ni as LCAO basis

Reference energy: -3846758.590871  # eV

Spin-polarized calculation.
Magnetic moment: 151.200000

Convergence criteria:
 Maximum [total energy] change in last 3 cyles: 0.0001 eV / electron
 Maximum integral of absolute [dens]ity change: 0.0001 electrons / valence electron
 Maximum integral of absolute [eigenst]ate change: 4e-08 eV^2 / valence electron
 Maximum number of scf [iter]ations: 666
 (Square brackets indicate name in SCF output, whereas a 'c' in
 the SCF output indicates the quantity has converged.)

Symmetries present (total): 1

  ( 1  0  0)
  ( 0  1  0)
  ( 0  0  1)

8 k-points: 2 x 2 x 2 Monkhorst-Pack grid
4 k-points in the irreducible part of the Brillouin zone
       k-points in crystal coordinates                weights
   0:     0.25000000   -0.25000000   -0.25000000          2/8
   1:     0.25000000   -0.25000000    0.25000000          2/8
   2:     0.25000000    0.25000000   -0.25000000          2/8
   3:     0.25000000    0.25000000    0.25000000          2/8

Wave functions: Plane wave expansion
  Cutoff energy: 350.000 eV
  Number of coefficients (min, max): 17755, 17755
  Pulay-stress correction: 0.000000 eV/Ang^3 (de/decut=0.000000)
  Using FFTW library
  ScaLapack parameters: grid=1x1, blocksize=None
  Wavefunction extrapolation:
    Improved wavefunction reuse through dual PAW basis

Occupation numbers: Fermi-Dirac:
  width: 0.1000  # eV

Eigensolver
   Davidson(niter=2)

Densities:
  Coarse grid: 48*48*48 grid
  Fine grid: 96*96*96 grid
  Total Charge: 0.000000

Density mixing:
  Method: difference
  Backend: pulay
  Linear mixing parameter: 0.05
  old densities: 5
  Damping of long wavelength oscillations: 50

Hamiltonian:
  XC and Coulomb potentials evaluated on a 96*96*96 grid
  Using the PBE Exchange-Correlation functional
  External potential:
    NoExternalPotential

XC parameters: PBE with 2 nearest neighbor stencil

Total number of cores used: 30
Parallelization over k-points: 2
Domain decomposition: 5 x 3 x 1

Number of atoms: 108
Number of atomic orbitals: 1053
Number of bands in calculation: 727
Number of valence electrons: 1053
Bands to converge: occupied

... initialized

Initializing position-dependent things.

Density initialized from atomic densities
Creating initial wave functions:
  727 bands from LCAO basis set

       /|  Cr       Cr      Cr    |
      / |   CrFe     Ni           |
     /  |       Co      Fe       Fe
    /   |Ni      CFe       Co     Ni
   /    | Co       Ni       NFe   |
  /  CCo|  FeCr     CoCr          |
 *    CrCr    FeNi   FeCrCo       |
 |      |CoNi   FeFeCr  CoCrFe   Ni
 |      | CrCo     CoNiFeNiNiNi   |
 |    Co|  CoFeCr   CoNiFe   CrCo |
 |      Cr    CrCrCr CrNiCr     Ni|
 |      |FeFe  CoFeNi   FeNiFe   Ni
 |      .-FeCo-----NiNiFe--NiCr---Co
 |   Cro     Fe       Ni         /
 |    NiCo     Coi     CNie     /
 |   /    Co               Ni  /
 |  /      Fe       Fe    CrFe/
 | / Fe     Ni       CrCr    /
 |/            Co       Cr  /
 *--------Co------Co-------*

Positions:
   0 Co    -0.012479   -0.003723   10.616104    ( 0.0000,  0.0000,  2.1000)
   1 Fe    -0.011321    1.761305    1.763386    ( 0.0000,  0.0000,  2.1000)
   2 Fe     1.758365    0.001326    1.769011    ( 0.0000,  0.0000,  2.0000)
   3 Co     1.752686    1.779222   10.610436    ( 0.0000,  0.0000,  2.0000)
   4 Co     3.541196    0.004726   10.616104    ( 0.0000,  0.0000,  0.0000)
   5 Fe     3.534711    1.782438    1.778999    ( 0.0000,  0.0000,  0.0000)
   6 Cr     5.305717   10.600629    1.767950    ( 0.0000,  0.0000,  2.1000)
   7 Co     5.324780    1.765604   10.614618    ( 0.0000,  0.0000,  0.0000)
   8 Co     7.089121    0.014598   10.619926    ( 0.0000,  0.0000,  2.0000)
   9 Fe     7.085279    1.771219    1.773543    ( 0.0000,  0.0000,  1.5000)
  10 Cr     8.850554    0.011470    1.768756    ( 0.0000,  0.0000,  1.5000)
  11 Cr     8.842381    1.777333   10.615680    ( 0.0000,  0.0000,  2.1000)
  12 Fe    10.590535    3.538203   -0.001956    ( 0.0000,  0.0000,  0.0000)
  13 Cr    10.624277    5.310674    1.769786    ( 0.0000,  0.0000,  2.0000)
  14 Co     1.761379    3.535623    1.784572    ( 0.0000,  0.0000,  0.0000)
  15 Ni     1.770200    5.301408   10.611753    ( 0.0000,  0.0000,  2.0000)
  16 Ni     3.556003    3.551407   10.618333    ( 0.0000,  0.0000,  1.5000)
  17 Fe     3.539370    5.311290    1.775199    ( 0.0000,  0.0000,  2.1000)
  18 Ni     5.320142    3.545059    1.779678    ( 0.0000,  0.0000,  1.5000)
  19 Fe     5.306980    5.314654   10.602720    ( 0.0000,  0.0000,  0.0000)
  20 Cr     7.081585    3.529127   10.614725    ( 0.0000,  0.0000,  2.1000)
  21 Ni     7.069241    5.303361    1.781271    ( 0.0000,  0.0000,  1.5000)
  22 Fe     8.841447    3.542671    1.781600    ( 0.0000,  0.0000,  2.1000)
  23 Cr     8.850893    5.290379    0.000220    ( 0.0000,  0.0000,  0.0000)
  24 Ni     0.005868    7.083411   10.614937    ( 0.0000,  0.0000,  2.0000)
  25 Ni    10.601043    8.849694    1.772960    ( 0.0000,  0.0000,  2.1000)
  26 Fe     1.773713    7.072329    1.777184    ( 0.0000,  0.0000,  0.0000)
  27 Cr     1.755520    8.842943   10.608324    ( 0.0000,  0.0000,  0.0000)
  28 Fe     3.544009    7.063116   10.610489    ( 0.0000,  0.0000,  2.0000)
  29 Co     3.542225    8.826820    1.785580    ( 0.0000,  0.0000,  0.0000)
  30 Ni     5.309835    7.081776    1.776600    ( 0.0000,  0.0000,  2.1000)
  31 Cr     5.331945    8.840321   10.604673    ( 0.0000,  0.0000,  2.1000)
  32 Co     7.068434    7.069028   10.623110    ( 0.0000,  0.0000,  0.0000)
  33 Fe     7.083750    8.846796    1.774509    ( 0.0000,  0.0000,  1.5000)
  34 Ni     8.841404    7.058180    1.777173    ( 0.0000,  0.0000,  1.5000)
  35 Cr     8.835524    8.853600   10.611753    ( 0.0000,  0.0000,  0.0000)
  36 Ni    -0.009351   10.618864    3.531070    ( 0.0000,  0.0000,  2.0000)
  37 Fe    10.602508    1.764818    5.300452    ( 0.0000,  0.0000,  1.5000)
  38 Cr     1.756720    0.001379    5.295867    ( 0.0000,  0.0000,  0.0000)
  39 Co     1.766506    1.767154    3.539222    ( 0.0000,  0.0000,  2.0000)
  40 Co     3.539742    0.013881    3.542873    ( 0.0000,  0.0000,  2.0000)
  41 Fe     3.548944    1.788658    5.306237    ( 0.0000,  0.0000,  2.1000)
  42 Fe     5.320174   -0.004685    5.301386    ( 0.0000,  0.0000,  0.0000)
  43 Co     5.316862    1.765551    3.538935    ( 0.0000,  0.0000,  2.0000)
  44 Ni     7.081086   -0.000289    3.531325    ( 0.0000,  0.0000,  2.0000)
  45 Ni     7.072902    1.777407    5.300537    ( 0.0000,  0.0000,  2.0000)
  46 Fe     8.840544    0.012372    5.307851    ( 0.0000,  0.0000,  1.5000)
  47 Ni     8.833592    1.767928    3.534318    ( 0.0000,  0.0000,  2.1000)
  48 Cr    -0.004066    3.525285    3.545951    ( 0.0000,  0.0000,  0.0000)
  49 Co    -0.001689    5.317934    5.307787    ( 0.0000,  0.0000,  1.5000)
  50 Cr     1.769043    3.555101    5.297279    ( 0.0000,  0.0000,  2.0000)
  51 Fe     1.773692    5.305929    3.538266    ( 0.0000,  0.0000,  2.1000)
  52 Co     3.542746    3.537364    3.547575    ( 0.0000,  0.0000,  2.1000)
  53 Fe     3.548477    5.306927    5.301153    ( 0.0000,  0.0000,  2.0000)
  54 Cr     5.316246    3.553031    5.303637    ( 0.0000,  0.0000,  2.0000)
  55 Fe     5.303286    5.303531    3.542385    ( 0.0000,  0.0000,  1.5000)
  56 Ni     7.074962    3.533023    3.537215    ( 0.0000,  0.0000,  1.5000)
  57 Ni     7.066046    5.306046    5.300081    ( 0.0000,  0.0000,  2.0000)
  58 Cr     8.834526    3.538160    5.294530    ( 0.0000,  0.0000,  2.1000)
  59 Ni     8.846255    5.300452    3.537672    ( 0.0000,  0.0000,  1.5000)
[...]
  93 Cr     7.071130    5.304220    8.839313    ( 0.0000,  0.0000,  1.5000)
  94 Co     8.837997    3.524669    8.843389    ( 0.0000,  0.0000,  1.5000)
  95 Cr     8.833772    5.299051    7.076862    ( 0.0000,  0.0000,  0.0000)
  96 Cr     0.012168    7.080333    7.083835    ( 0.0000,  0.0000,  1.5000)
  97 Fe    -0.017034    8.848707    8.843941    ( 0.0000,  0.0000,  2.1000)
  98 Co     1.777938    7.075503    8.840194    ( 0.0000,  0.0000,  2.0000)
  99 Fe     1.758800    8.840035    7.069803    ( 0.0000,  0.0000,  0.0000)
 100 Fe     3.549921    7.066194    7.070090    ( 0.0000,  0.0000,  2.1000)
 101 Co     3.553137    8.839111    8.836776    ( 0.0000,  0.0000,  0.0000)
 102 Ni     5.304189    7.079929    8.840215    ( 0.0000,  0.0000,  2.0000)
 103 Co     5.321946    8.832180    7.082997    ( 0.0000,  0.0000,  2.1000)
 104 Cr     7.057077    7.072149    7.064167    ( 0.0000,  0.0000,  1.5000)
 105 Fe     7.082402    8.855500    8.837487    ( 0.0000,  0.0000,  2.1000)
 106 Co     8.846786    7.077881    8.846732    ( 0.0000,  0.0000,  0.0000)
 107 Ni     8.839313    8.848272    7.075153    ( 0.0000,  0.0000,  0.0000)

Unit cell:
           periodic     x           y           z      points  spacing
  1. axis:    yes   10.614300    0.000000    0.000000    48     0.2211
  2. axis:    yes    0.000000   10.614300    0.000000    48     0.2211
  3. axis:    yes    0.000000    0.000000   10.614300    48     0.2211

  Lengths:  10.614300  10.614300  10.614300
  Angles:   90.000000  90.000000  90.000000

Effective grid spacing dv^(1/3) = 0.2211

     iter     time        total  log10-change:  magmom
                         energy  eigst   dens
iter:   1 12:55:22  -964.612682                  +151.1423
iter:   2 12:58:25  -926.849795  -0.59  -1.37    +115.1513
iter:   3 13:01:29  -925.362850  -0.95  -1.38    +82.5641
iter:   4 13:04:32  -898.363954  -1.32  -1.36    +71.1028
iter:   5 13:07:35  -892.771781  -1.90  -1.47    +64.1050
iter:   6 13:10:37  -895.818259  -1.90  -1.52    +59.6990
iter:   7 13:13:40  -906.767466  -1.52  -1.56    +57.1271
iter:   8 13:16:40  -891.150574  -1.65  -1.53    +55.4879
iter:   9 13:19:42  -893.808914  -1.91  -1.74    +54.1827
iter:  10 13:22:45  -887.918719  -2.14  -1.75    +53.4859
iter:  11 13:25:48  -888.426773  -2.50  -1.91    +53.0725
iter:  12 13:28:51  -887.527362  -2.75  -1.91    +53.3943
iter:  13 13:31:54  -888.920356  -2.71  -2.00    +53.8811
iter:  14 13:34:57  -890.152502  -2.61  -1.99    +54.2863
iter:  15 13:37:56  -889.903881  -2.60  -1.99    +54.5949
iter:  16 13:41:00  -890.855774  -2.57  -2.05    +55.1287
iter:  17 13:44:03  -889.859546  -2.74  -2.02    +55.3633
iter:  18 13:47:06  -889.809907  -2.89  -2.18    +55.7255
iter:  19 13:50:08  -889.889625c -2.94  -2.23    +56.4043
iter:  20 13:53:12  -890.121882  -3.08  -2.30    +56.7703
iter:  21 13:56:12  -889.972420  -3.20  -2.30    +57.3182
iter:  22 13:59:12  -890.400589  -3.15  -2.39    +57.7109
iter:  23 14:02:15  -890.091706  -3.38  -2.35    +58.1344
iter:  24 14:05:19  -890.294867  -3.47  -2.46    +58.6022
iter:  25 14:08:22  -890.226027  -3.90  -2.48    +58.7816
iter:  26 14:11:25  -890.454906  -3.60  -2.54    +59.2793
iter:  27 14:14:28  -890.555065  -3.58  -2.53    +59.4998
iter:  28 14:17:16  -890.657512  -3.53  -2.53    +59.6637
iter:  29 14:20:45  -890.652358c -3.52  -2.55    +59.6557
iter:  30 14:23:39  -890.839912  -3.44  -2.63    +59.8137
iter:  31 14:26:24  -890.676342  -3.60  -2.53    +59.7913
iter:  32 14:29:09  -890.717689  -3.88  -2.73    +59.7909
iter:  33 14:31:54  -890.699750c -4.14  -2.73    +59.8466
iter:  34 14:34:37  -890.721206c -4.34  -2.78    +59.8817
iter:  35 14:37:22  -890.753111c -4.48  -2.82    +59.9096
iter:  36 14:41:10  -890.836249  -4.06  -2.83    +59.8545
iter:  37 14:43:59  -890.867170  -4.20  -2.76    +59.6758
iter:  38 14:46:44  -890.896244c -4.31  -2.76    +59.4930
iter:  39 14:49:28  -890.916288c -4.55  -2.75    +59.3782
iter:  40 14:52:13  -890.950439c -4.44  -2.74    +59.2652
iter:  41 14:54:57  -890.961989c -4.41  -2.70    +59.2616
iter:  42 14:57:47  -890.969730c -4.64  -2.68    +59.3140
iter:  43 15:01:33  -890.998594c -4.17  -2.69    +59.3348
iter:  44 15:04:17  -890.944050c -4.45  -2.68    +59.3219
iter:  45 15:07:01  -891.129723  -3.57  -2.75    +59.3414
iter:  46 15:09:45  -890.964566  -3.83  -2.61    +59.3172
iter:  47 15:12:30  -890.998731  -3.94  -2.78    +59.3824
iter:  48 15:15:14  -890.955995c -4.06  -2.74    +59.2393
iter:  49 15:17:57  -890.946156c -4.16  -2.85    +59.1827
iter:  50 15:20:41  -890.932963c -4.22  -2.93    +59.2247
iter:  51 15:24:31  -890.919468c -4.68  -2.95    +59.1867
iter:  52 15:27:17  -890.938389c -4.41  -3.06    +59.1553
iter:  53 15:30:01  -890.924163c -4.62  -2.97    +59.1249
iter:  54 15:32:46  -890.919692c -4.73  -3.09    +59.1715
iter:  55 15:35:29  -890.916159c -4.98  -3.14    +59.1540
iter:  56 15:38:13  -890.923727c -4.70  -3.22    +59.1092
iter:  57 15:41:21  -890.914268c -5.22  -3.15    +59.0913
iter:  58 15:44:51  -890.917564c -5.12  -3.30    +59.0574
iter:  59 15:47:35  -890.916582c -5.27  -3.28    +59.0583
iter:  60 15:50:19  -890.917751c -5.32  -3.30    +59.0091
iter:  61 15:53:02  -890.917464c -5.53  -3.34    +58.9753
iter:  62 15:55:47  -890.921917c -5.28  -3.39    +58.9603
iter:  63 15:58:31  -890.918705c -5.51  -3.35    +58.9356
iter:  64 16:01:16  -890.921992c -5.57  -3.42    +58.8960
iter:  65 16:05:03  -890.922694c -5.60  -3.41    +58.8740
iter:  66 16:07:48  -890.923653c -5.50  -3.44    +58.8517
iter:  67 16:10:33  -890.924009c -5.63  -3.44    +58.8333
iter:  68 16:13:18  -890.926299c -5.60  -3.47    +58.7842
iter:  69 16:16:02  -890.928548c -5.42  -3.50    +58.7525
iter:  70 16:18:45  -890.928962c -5.60  -3.47    +58.7239
iter:  71 16:22:14  -890.930689c -5.49  -3.51    +58.7067
iter:  72 16:25:25  -890.933059c -5.42  -3.53    +58.6512
iter:  73 16:28:10  -890.934109c -5.40  -3.52    +58.6268
iter:  74 16:30:55  -890.933940c -5.71  -3.53    +58.6143
iter:  75 16:33:40  -890.935694c -5.43  -3.68    +58.5743
iter:  76 16:36:25  -890.936038c -5.88  -3.58    +58.5492
iter:  77 16:39:21  -890.937397c -5.81  -3.70    +58.4849
iter:  78 16:43:01  -890.938460c -5.92  -3.76    +58.4581
iter:  79 16:45:46  -890.940090c -5.76  -3.79    +58.3957
iter:  80 16:48:31  -890.942573c -5.71  -3.74    +58.3562
iter:  81 16:51:16  -890.942679c -5.81  -3.62    +58.3370
iter:  82 16:54:01  -890.944147c -5.66  -3.70    +58.2977
iter:  83 16:56:46  -890.947017c -5.51  -3.72    +58.2553
iter:  84 17:00:29  -890.946253c -5.46  -3.61    +58.2565
iter:  85 17:02:37  -890.945153c -5.85  -3.64    +58.2327
iter:  86 17:05:40  -890.945946c -6.24  -3.94    +58.1921
iter:  87 17:08:44  -890.950747c -5.15  -3.95    +58.0232
iter:  88 17:11:48  -890.950422c -5.75  -3.64    +58.0544
iter:  89 17:14:52  -890.951768c -5.59  -3.63    +58.0049
iter:  90 17:17:57  -890.950426c -5.92  -3.65    +58.0199
iter:  91 17:21:01  -890.950422c -6.07  -3.72    +58.0007
iter:  92 17:24:06  -890.950937c -5.66  -3.77    +57.9710
iter:  93 17:27:11  -890.950409c -6.04  -3.66    +57.9552
iter:  94 17:30:16  -890.951408c -5.92  -3.77    +57.9297
iter:  95 17:33:21  -890.952351c -5.75  -3.67    +57.9155
iter:  96 17:36:25  -890.951703c -5.59  -3.62    +57.9140
iter:  97 17:39:29  -890.950697c -6.08  -3.65    +57.9141
iter:  98 17:42:34  -890.951287c -6.17  -3.79    +57.8796
iter:  99 17:45:38  -890.950819c -6.43  -3.76    +57.8702
iter: 100 17:48:42  -890.950671c -6.19  -3.83    +57.8547
iter: 101 17:51:47  -890.950831c -6.29  -3.82    +57.8490
iter: 102 17:54:51  -890.952620c -5.62  -3.86    +57.8305
iter: 103 17:57:55  -890.952399c -5.61  -3.63    +57.8332
iter: 104 18:00:59  -890.950502c -5.98  -3.70    +57.8514
iter: 105 18:04:04  -890.951034c -6.25  -3.96    +57.8399
iter: 106 18:07:09  -890.951050c -6.33  -3.95    +57.8345
iter: 107 18:10:13  -890.950635c -6.86  -3.99    +57.8280
iter: 108 18:13:17  -890.950671c -7.22  -4.18c   +57.8248
iter: 109 18:16:22  -890.950676c -7.03  -4.18c   +57.8204
iter: 110 18:19:27  -890.950877c -7.00  -4.15c   +57.8126
iter: 111 18:22:31  -890.950730c -6.70  -4.17c   +57.8104
iter: 112 18:25:35  -890.950817c -6.53  -4.11c   +57.8079
iter: 113 18:28:39  -890.951045c -6.51  -4.09c   +57.8021
iter: 114 18:31:43  -890.950990c -6.75  -4.13c   +57.7942
iter: 115 18:34:47  -890.950992c -6.84  -4.19c   +57.7910
iter: 116 18:37:51  -890.950745c -7.01  -4.27c   +57.7905
iter: 117 18:40:56  -890.950827c -7.47c -4.36c   +57.7813

Converged after 117 iterations.

Dipole moment: (6.130931, -2.009612, 0.828794) |e|*Ang

Total magnetic moment: (0.000000, 0.000000, 57.781338)
Local magnetic moments:
   0 Co ( 0.000000,  0.000000,  0.647666)
   1 Fe ( 0.000000,  0.000000,  1.929707)
   2 Fe ( 0.000000,  0.000000,  2.380514)
   3 Co ( 0.000000,  0.000000,  1.188795)
   4 Co ( 0.000000,  0.000000,  0.925823)
   5 Fe ( 0.000000,  0.000000,  2.397756)
   6 Cr ( 0.000000,  0.000000, -1.533637)
   7 Co ( 0.000000,  0.000000,  1.148475)
   8 Co ( 0.000000,  0.000000,  0.227527)
   9 Fe ( 0.000000,  0.000000,  2.005121)
  10 Cr ( 0.000000,  0.000000, -0.015347)
  11 Cr ( 0.000000,  0.000000, -1.107383)
  12 Fe ( 0.000000,  0.000000,  1.753687)
  13 Cr ( 0.000000,  0.000000, -0.426772)
  14 Co ( 0.000000,  0.000000,  1.250458)
  15 Ni ( 0.000000,  0.000000,  0.279208)
  16 Ni ( 0.000000,  0.000000,  0.345818)
  17 Fe ( 0.000000,  0.000000,  2.231961)
  18 Ni ( 0.000000,  0.000000,  0.414518)
  19 Fe ( 0.000000,  0.000000,  2.184949)
  20 Cr ( 0.000000,  0.000000, -0.863678)
  21 Ni ( 0.000000,  0.000000,  0.272362)
  22 Fe ( 0.000000,  0.000000,  1.790604)
  23 Cr ( 0.000000,  0.000000, -0.759815)
  24 Ni ( 0.000000,  0.000000,  0.175219)
  25 Ni ( 0.000000,  0.000000,  0.143281)
  26 Fe ( 0.000000,  0.000000,  2.164404)
  27 Cr ( 0.000000,  0.000000, -1.586365)
  28 Fe ( 0.000000,  0.000000,  2.144311)
  29 Co ( 0.000000,  0.000000,  1.225844)
  30 Ni ( 0.000000,  0.000000,  0.330265)
  31 Cr ( 0.000000,  0.000000, -1.420953)
  32 Co ( 0.000000,  0.000000,  1.013820)
  33 Fe ( 0.000000,  0.000000,  2.006503)
  34 Ni ( 0.000000,  0.000000,  0.134348)
  35 Cr ( 0.000000,  0.000000, -1.331956)
  36 Ni ( 0.000000,  0.000000,  0.271824)
  37 Fe ( 0.000000,  0.000000,  1.907885)
  38 Cr ( 0.000000,  0.000000, -1.824904)
  39 Co ( 0.000000,  0.000000,  1.067144)
  40 Co ( 0.000000,  0.000000,  1.187433)
  41 Fe ( 0.000000,  0.000000,  2.007616)
  42 Fe ( 0.000000,  0.000000,  2.254157)
  43 Co ( 0.000000,  0.000000,  1.190372)
  44 Ni ( 0.000000,  0.000000,  0.294307)
  45 Ni ( 0.000000,  0.000000,  0.224630)
  46 Fe ( 0.000000,  0.000000,  2.424972)
  47 Ni ( 0.000000,  0.000000,  0.138300)
  48 Cr ( 0.000000,  0.000000, -0.977811)
  49 Co ( 0.000000,  0.000000,  0.474085)
  50 Cr ( 0.000000,  0.000000, -1.304596)
  51 Fe ( 0.000000,  0.000000,  1.720568)
  52 Co ( 0.000000,  0.000000,  1.054263)
  53 Fe ( 0.000000,  0.000000,  1.758716)
  54 Cr ( 0.000000,  0.000000, -1.719909)
  55 Fe ( 0.000000,  0.000000,  2.342375)
  56 Ni ( 0.000000,  0.000000,  0.329539)
  57 Ni ( 0.000000,  0.000000,  0.194977)
  58 Cr ( 0.000000,  0.000000, -1.432397)
  59 Ni ( 0.000000,  0.000000,  0.026797)
[...]
  93 Cr ( 0.000000,  0.000000, -0.054549)
  94 Co ( 0.000000,  0.000000,  0.133191)
  95 Cr ( 0.000000,  0.000000,  1.168571)
  96 Cr ( 0.000000,  0.000000, -0.990767)
  97 Fe ( 0.000000,  0.000000,  2.058228)
  98 Co ( 0.000000,  0.000000,  1.111185)
  99 Fe ( 0.000000,  0.000000,  2.050316)
 100 Fe ( 0.000000,  0.000000,  1.950613)
 101 Co ( 0.000000,  0.000000,  1.133859)
 102 Ni ( 0.000000,  0.000000,  0.229595)
 103 Co ( 0.000000,  0.000000,  1.324883)
 104 Cr ( 0.000000,  0.000000, -1.376308)
 105 Fe ( 0.000000,  0.000000,  2.065595)
 106 Co ( 0.000000,  0.000000,  0.659708)
 107 Ni ( 0.000000,  0.000000,  0.302058)

Energy contributions relative to reference atoms: (reference = -3846758.590871)

Kinetic:       +117.049601
Potential:     -184.537734
External:        +0.000000
XC:            -861.118519
Entropy (-ST):   -4.594475
Local:          +39.953062
Free energy:   -893.248064
Extrapolated:  -890.950827

Spin contamination: 33.786733 electrons
Showing only first 2 kpts
                      Up                     Down
 Kpt  Band  Eigenvalues  Occupancy  Eigenvalues  Occupancy
  0   524      9.87549    0.99147     10.67749    0.03683
  0   525      9.88088    0.99101     10.68080    0.03567
  0   526      9.89637    0.98951     10.70417    0.02845
  0   527      9.90353    0.98874     10.70928    0.02707

  1   524      9.86490    0.99232     10.68416    0.03453
  1   525      9.87267    0.99171     10.69968    0.02972
  1   526      9.89054    0.99010     10.70788    0.02744
  1   527      9.90954    0.98806     10.72686    0.02281

Fermi level: 10.35109

No gap

Forces in eV/Ang:
  0 Co    0.10543   -0.06556    0.09314
  1 Fe    0.18971    0.14488    0.11261
  2 Fe    0.12729   -0.30438   -0.07581
  3 Co    0.07495   -0.06292   -0.01606
  4 Co   -0.09645   -0.14626   -0.05046
  5 Fe    0.16916    0.08146    0.07924
  6 Cr    0.11990    0.34092    0.23722
  7 Co    0.03485    0.05763   -0.04651
  8 Co   -0.19062    0.00058    0.08343
  9 Fe   -0.32796   -0.18512   -0.14538
 10 Cr   -0.30857    0.11647   -0.20982
 11 Cr    0.27850   -0.16859   -0.12323
 12 Fe    0.11513    0.24373   -0.17392
 13 Cr   -0.03277   -0.17636    0.17466
 14 Co   -0.12141    0.07311   -0.13956
 15 Ni   -0.02025   -0.04322    0.08347
 16 Ni   -0.15074   -0.25673   -0.11982
 17 Fe   -0.24720   -0.42750   -0.01294
 18 Ni   -0.19174   -0.06698   -0.13378
 19 Fe    0.28761   -0.07332    0.11693
 20 Cr   -0.39396    0.06252   -0.03829
 21 Ni    0.11397    0.06014   -0.20774
 22 Fe    0.14021    0.07524    0.02266
 23 Cr    0.14796    0.17886   -0.63117
 24 Ni   -0.10955   -0.19890   -0.12592
 25 Ni    0.13687   -0.06300   -0.02384
 26 Fe   -0.10848    0.30771   -0.02120
 27 Cr    0.43803   -0.20063    0.12279
 28 Fe    0.00866    0.43150   -0.01448
 29 Co    0.05978    0.34297    0.08675
 30 Ni    0.04742    0.12013   -0.13694
 31 Cr   -0.28983   -0.17619   -0.27007
 32 Co    0.13407   -0.04280    0.05267
 33 Fe   -0.15270    0.00181    0.00323
 34 Ni   -0.10161    0.07955   -0.28134
 35 Cr    0.03773   -0.15772   -0.18693
 36 Ni    0.08305    0.04785   -0.04647
 37 Fe    0.41420    0.20713    0.12930
 38 Cr    0.32274   -0.12979    0.10149
 39 Co    0.16958    0.26612    0.07569
 40 Co    0.03170   -0.30411   -0.04353
 41 Fe   -0.43200   -0.14454   -0.24712
 42 Fe    0.08508   -0.25683   -0.20082
 43 Co   -0.18003    0.07005    0.05378
 44 Ni   -0.10784    0.10637    0.02613
 45 Ni    0.01170    0.04628   -0.08658
 46 Fe   -0.09676   -0.32426   -0.08742
 47 Ni    0.10217   -0.11264   -0.08862
 48 Cr   -0.00565   -0.07070   -0.50169
 49 Co    0.16744   -0.20346   -0.22106
 50 Cr    0.25528    0.10603    0.28722
 51 Fe   -0.11322   -0.23952    0.14071
 52 Co   -0.25452   -0.09190    0.02063
 53 Fe   -0.26808   -0.14611    0.33383
 54 Cr    0.00644   -0.03650   -0.07744
 55 Fe    0.04265   -0.11096    0.12956
 56 Ni    0.10038   -0.06337    0.00792
 57 Ni    0.02045    0.00611   -0.03015
 58 Cr   -0.24200    0.06791    0.23299
 59 Ni    0.16257    0.03221    0.11566
[...]
 93 Cr    0.05348   -0.04382    0.29719
 94 Co    0.12409    0.27195    0.21805
 95 Cr    0.47089   -0.04418    0.43415
 96 Cr   -0.08731   -0.16206    0.18879
 97 Fe    0.10132    0.06466    0.09989
 98 Co   -0.10617   -0.07514    0.06643
 99 Fe    0.13565    0.02137    0.09757
100 Fe   -0.25378   -0.04119    0.28492
101 Co   -0.19994    0.11801    0.08426
102 Ni    0.21372    0.06726    0.20275
103 Co   -0.23794    0.11275   -0.16931
104 Cr    0.41835    0.25230    0.02841
105 Fe   -0.00921   -0.22309    0.18487
106 Co   -0.13810   -0.05149    0.11181
107 Ni    0.06903   -0.19916   -0.12802

Date: Sat Apr 15 18:41:19 2023