User:   c.zeng@d0110
Date:   Mon Apr 17 04:05:21 2023
Arch:   x86_64
Pid:    253695
CWD:    /home/c.zeng/projects/hea-corrosion/hea-mlp/data-curation/bulk-mcmc/dft-jobs/196
Python: 3.8.1
gpaw:   /home/c.zeng/usr/installs/gpaw/source/gpaw-22.8.0/gpaw
_gpaw:  /home/c.zeng/usr/installs/gpaw/source/gpaw-22.8.0/
        _gpaw.cpython-38-x86_64-linux-gnu.so
ase:    /home/c.zeng/.local/lib/python3.8/site-packages/ase-3.22.1-py3.8.egg/ase (version 3.22.1)
numpy:  /home/c.zeng/.local/lib/python3.8/site-packages/numpy (version 1.24.2)
scipy:  /home/c.zeng/.local/lib/python3.8/site-packages/scipy (version 1.10.1)
units:  Angstrom and eV
cores: 30
OpenMP: False
OMP_NUM_THREADS: 1

Input parameters:
  convergence: {energy: 0.0001}
  kpts: [2 2 2]
  maxiter: 666
  mode: {ecut: 350.0,
         name: pw}
  occupations: {fixmagmom: False,
                name: fermi-dirac,
                width: 0.1}
  spinpol: True
  xc: PBE

System changes: positions, numbers, cell, pbc, initial_charges, initial_magmoms

Initialize ...

species:
  Fe:
    name: Iron
    id: 37abbd8d6c3c35915a9b583b742da910
    Z: 26.0
    valence: 8
    core: 18
    charge: 0.0
    file: /home/c.zeng/usr/data/gpaw-setups-0.9.20000/Fe.PBE.gz
    compensation charges: {type: gauss,
                           rc: 0.33,
                           lmax: 2}
    cutoffs: {filter: 2.06,
              core: 2.67}
    valence states:
      #              energy  rcut
      - 4s(2.00)    -5.291   1.164
      - 4p(0.00)    -1.326   1.058
      - 3d(6.00)    -7.505   1.058
      -  s          21.920   1.164
      -  p          25.885   1.058
      -  d          19.706   1.058

    # Using partial waves for Fe as LCAO basis

  Co:
    name: Cobalt
    id: 339d20d5b0b93d2de9531a1bee871d91
    Z: 27.0
    valence: 9
    core: 18
    charge: 0.0
    file: /home/c.zeng/usr/data/gpaw-setups-0.9.20000/Co.PBE.gz
    compensation charges: {type: gauss,
                           rc: 0.32,
                           lmax: 2}
    cutoffs: {filter: 1.87,
              core: 2.55}
    valence states:
      #              energy  rcut
      - 4s(2.00)    -5.469   1.005
      - 4p(0.00)    -1.277   1.058
      - 3d(7.00)    -8.205   1.005
      -  s          21.742   1.005
      -  p          25.934   1.058
      -  d          19.007   1.005

[...]

  Al:
    name: Aluminium
    id: 0292cae29f5d6237e50f6abdd43a7bdd
    Z: 13.0
    valence: 3
    core: 10
    charge: 0.0
    file: /home/c.zeng/usr/data/gpaw-setups-0.9.20000/Al.PBE.gz
    compensation charges: {type: gauss,
                           rc: 0.34,
                           lmax: 2}
    cutoffs: {filter: 1.91,
              core: 2.36}
    valence states:
      #              energy  rcut
      - 3s(2.00)    -7.753   1.085
      - 3p(1.00)    -2.712   1.085
      -  s          19.459   1.085
      -  p          24.499   1.085
      -  d           0.000   1.085

[...]

  Cr:
    name: Chromium
    id: 33f258bda2ca9f93018e70263a35547b
    Z: 24.0
    valence: 6
    core: 18
    charge: 0.0
    file: /home/c.zeng/usr/data/gpaw-setups-0.9.20000/Cr.PBE.gz
    compensation charges: {type: gauss,
                           rc: 0.35,
                           lmax: 2}
    cutoffs: {filter: 2.14,
              core: 3.04}
    valence states:
      #              energy  rcut
      - 4s(1.00)    -4.007   1.164
      - 4p(0.00)    -0.989   1.217
      - 3d(5.00)    -2.913   1.111
      -  s          23.205   1.164
      -  p          26.223   1.217
      -  d          24.299   1.111

[...]

  Ni:
    name: Nickel
    id: 0d9f38a9d6e76a2886f07bb4381f212b
    Z: 28.0
    valence: 16
    core: 12
    charge: 0.0
    file: /home/c.zeng/usr/data/gpaw-setups-0.9.20000/Ni.PBE.gz
    compensation charges: {type: gauss,
                           rc: 0.36,
                           lmax: 2}
    cutoffs: {filter: 2.14,
              core: 1.98}
    valence states:
      #              energy  rcut
      - 4s(2.00)    -5.642   1.164
      - 3p(6.00)   -71.394   1.207
      - 4p(0.00)    -1.226   1.207
      - 3d(8.00)    -8.875   1.138
      -  s          21.570   1.164
      -  d          18.337   1.138

    # Using partial waves for Ni as LCAO basis

Reference energy: -3382523.201499  # eV

Spin-polarized calculation.
Magnetic moment: 128.800000

Convergence criteria:
 Maximum [total energy] change in last 3 cyles: 0.0001 eV / electron
 Maximum integral of absolute [dens]ity change: 0.0001 electrons / valence electron
 Maximum integral of absolute [eigenst]ate change: 4e-08 eV^2 / valence electron
 Maximum number of scf [iter]ations: 666
 (Square brackets indicate name in SCF output, whereas a 'c' in
 the SCF output indicates the quantity has converged.)

Symmetries present (total): 1

  ( 1  0  0)
  ( 0  1  0)
  ( 0  0  1)

8 k-points: 2 x 2 x 2 Monkhorst-Pack grid
4 k-points in the irreducible part of the Brillouin zone
       k-points in crystal coordinates                weights
   0:     0.25000000   -0.25000000   -0.25000000          2/8
   1:     0.25000000   -0.25000000    0.25000000          2/8
   2:     0.25000000    0.25000000   -0.25000000          2/8
   3:     0.25000000    0.25000000    0.25000000          2/8

Wave functions: Plane wave expansion
  Cutoff energy: 350.000 eV
  Number of coefficients (min, max): 18865, 18865
  Pulay-stress correction: 0.000000 eV/Ang^3 (de/decut=0.000000)
  Using FFTW library
  ScaLapack parameters: grid=1x1, blocksize=None
  Wavefunction extrapolation:
    Improved wavefunction reuse through dual PAW basis

Occupation numbers: Fermi-Dirac:
  width: 0.1000  # eV

Eigensolver
   Davidson(niter=2)

Densities:
  Coarse grid: 48*48*48 grid
  Fine grid: 96*96*96 grid
  Total Charge: 0.000000

Density mixing:
  Method: difference
  Backend: pulay
  Linear mixing parameter: 0.05
  old densities: 5
  Damping of long wavelength oscillations: 50

Hamiltonian:
  XC and Coulomb potentials evaluated on a 96*96*96 grid
  Using the PBE Exchange-Correlation functional
  External potential:
    NoExternalPotential

XC parameters: PBE with 2 nearest neighbor stencil

Total number of cores used: 30
Parallelization over k-points: 2
Domain decomposition: 5 x 3 x 1

Number of atoms: 108
Number of atomic orbitals: 961
Number of bands in calculation: 649
Number of valence electrons: 945
Bands to converge: occupied

... initialized

Initializing position-dependent things.

Density initialized from atomic densities
Creating initial wave functions:
  649 bands from LCAO basis set

       /|                     Fe   |
      / |            Fe Co     CrCo|
     /  |       Cr       Ni       Cr
    /   |Fe       Fel     CFer     |
   /i   | Coo        Fe      Co    |
  /  CrAl   NCr       Ni           |
 *      Ni     CoFe   AlFeCrFe   Cr|
 |      |CoNi   CrNiAl   NiAlNi   Co
 | CrCo | AlNi   AlAlCo     Ni     |
 |     Fe  FeCr Cr  Fe FeNi  CrNi  |
 |      CoNi   AlCr   FeCoCoNi  Fe |
 |Al    |CoCr   AlCrFe   CrCo     Co
 |      .-CrCo-----NiCr-CoFeCrNi---.
 |     /   Ni Fe    Cr FeNi    Al /
 |    Co       AFei       Al     /
 |   /  Fe         Al       Cr  /
 |  /      Fe       Al       Co/
 | / Fe     Co       Ni Ni    /
 |/             Cr       Ni  /
 *--------Co----------------*

Positions:
   0 Fe    10.764147   10.861293   10.805330    ( 0.0000,  0.0000,  2.0000)
   1 Co    10.786221    1.792513    1.813624    ( 0.0000,  0.0000,  0.0000)
   2 Fe     1.744156    0.036560    1.851269    ( 0.0000,  0.0000,  1.5000)
   3 Al     1.736571    1.831142   10.798805    ( 0.0000,  0.0000,  0.0000)
   4 Co     3.575126    0.057318    0.061759    ( 0.0000,  0.0000,  0.0000)
   5 Fe     3.594289    1.817617    1.845577    ( 0.0000,  0.0000,  2.0000)
   6 Fe     5.429813   10.817005    1.865054    ( 0.0000,  0.0000,  1.5000)
   7 Cr     5.429608    1.929425    0.057134    ( 0.0000,  0.0000,  0.0000)
   8 Fe     7.316909   10.723332    0.087382    ( 0.0000,  0.0000,  0.0000)
   9 Al     7.263142    1.825786    1.869404    ( 0.0000,  0.0000,  2.1000)
  10 Ni     9.063554    0.025226    1.863474    ( 0.0000,  0.0000,  1.5000)
  11 Ni     9.049217    1.829703    0.033106    ( 0.0000,  0.0000,  2.1000)
  12 Ni     0.004792    3.558981   10.794801    ( 0.0000,  0.0000,  1.5000)
  13 Al    10.759710    5.390697    1.778165    ( 0.0000,  0.0000,  0.0000)
  14 Fe     1.733585    3.561849    1.761112    ( 0.0000,  0.0000,  2.0000)
  15 Fe     1.776899    5.391834   10.795505    ( 0.0000,  0.0000,  0.0000)
  16 Co     3.565452    3.619360   10.832619    ( 0.0000,  0.0000,  2.1000)
  17 Fe     3.633221    5.394614    1.719551    ( 0.0000,  0.0000,  0.0000)
  18 Ni     5.471624    3.659114    1.836033    ( 0.0000,  0.0000,  2.1000)
  19 Fe     5.440212    5.373060   -0.002773    ( 0.0000,  0.0000,  2.0000)
  20 Ni     7.258997    3.609080    0.031294    ( 0.0000,  0.0000,  0.0000)
  21 Fe     7.268941    5.378362    1.785274    ( 0.0000,  0.0000,  2.0000)
  22 Al     9.030724    3.577636    1.833728    ( 0.0000,  0.0000,  2.1000)
  23 Fe     9.040420    5.372281   10.801110    ( 0.0000,  0.0000,  0.0000)
  24 Co    10.791663    7.196206   10.792486    ( 0.0000,  0.0000,  1.5000)
  25 Co    10.758434    9.040387    1.848239    ( 0.0000,  0.0000,  0.0000)
  26 Cr     1.690487    7.202493    1.786032    ( 0.0000,  0.0000,  0.0000)
  27 Ni     1.652691    8.981047    0.027217    ( 0.0000,  0.0000,  0.0000)
  28 Al     3.631241    7.164437    0.034633    ( 0.0000,  0.0000,  0.0000)
  29 Al     3.625452    9.063759    1.801678    ( 0.0000,  0.0000,  0.0000)
  30 Ni     5.490852    7.187095    1.746342    ( 0.0000,  0.0000,  2.0000)
  31 Cr     5.426935    8.989152    0.009861    ( 0.0000,  0.0000,  2.0000)
  32 Co     7.229122    7.237075   -0.008698    ( 0.0000,  0.0000,  1.5000)
  33 Cr     7.249194    8.995850    1.810713    ( 0.0000,  0.0000,  0.0000)
  34 Cr     9.052073    7.204300    1.764218    ( 0.0000,  0.0000,  2.1000)
  35 Fe     9.092553    8.989639   10.808760    ( 0.0000,  0.0000,  1.5000)
  36 Cr    -0.000975   10.826235    3.639789    ( 0.0000,  0.0000,  1.5000)
  37 Al    10.822772    1.771770    5.422044    ( 0.0000,  0.0000,  2.1000)
  38 Ni     1.754263   10.802084    5.428872    ( 0.0000,  0.0000,  2.1000)
  39 Co     1.741873    1.774270    3.610801    ( 0.0000,  0.0000,  0.0000)
  40 Al     3.591183   10.794152    3.612143    ( 0.0000,  0.0000,  2.0000)
  41 Cr     3.593088    1.736744    5.455177    ( 0.0000,  0.0000,  0.0000)
  42 Al     5.437150   10.794563    5.400804    ( 0.0000,  0.0000,  2.0000)
  43 Fe     5.451931    1.783251    3.601387    ( 0.0000,  0.0000,  1.5000)
  44 Al     7.226222    0.007781    3.626209    ( 0.0000,  0.0000,  0.0000)
  45 Fe     7.236069    1.766512    5.381392    ( 0.0000,  0.0000,  2.1000)
  46 Co     9.034587   10.848850    5.403844    ( 0.0000,  0.0000,  2.1000)
  47 Ni     9.031558    1.804946    3.616730    ( 0.0000,  0.0000,  1.5000)
  48 Ni    10.773885    3.543973    3.617867    ( 0.0000,  0.0000,  1.5000)
  49 Ni    10.772186    5.358409    5.454917    ( 0.0000,  0.0000,  0.0000)
  50 Co     1.757531    3.575678    5.428937    ( 0.0000,  0.0000,  2.1000)
  51 Co     1.621766    5.386986    3.572550    ( 0.0000,  0.0000,  0.0000)
[...]
iter:  83 05:52:10  -825.254978c -5.54  -3.72    +57.3058
iter:  84 05:53:26  -825.258722c -5.39  -3.67    +57.2813
iter:  85 05:54:43  -825.256292c -5.81  -3.62    +57.3447
iter:  86 05:55:59  -825.260395c -5.46  -3.62    +57.3143
iter:  87 05:57:16  -825.259350c -6.32  -3.58    +57.3646
[...]
iter:  90 06:01:06  -825.261210c -5.58  -3.42    +57.4559
iter:  91 06:02:22  -825.261222c -5.58  -3.64    +57.4981
iter:  92 06:03:39  -825.263959c -5.28  -3.62    +57.5386
iter:  93 06:04:56  -825.262343c -5.74  -3.48    +57.5732
iter:  94 06:06:12  -825.264049c -5.83  -3.73    +57.6559
iter:  95 06:07:29  -825.263898c -6.42  -3.73    +57.6411
iter:  96 06:08:45  -825.265395c -5.97  -3.74    +57.6914
iter:  97 06:10:02  -825.266149c -6.08  -3.75    +57.7249
iter:  98 06:11:19  -825.267120c -5.80  -3.76    +57.7708
iter:  99 06:12:36  -825.268427c -5.73  -3.74    +57.8247
iter: 100 06:13:52  -825.269564c -5.93  -3.80    +57.8410
iter: 101 06:15:09  -825.270983c -5.68  -3.87    +57.9103
iter: 102 06:16:26  -825.269680c -6.27  -3.78    +57.8796
iter: 103 06:17:43  -825.270700c -6.14  -3.99    +57.9329
iter: 104 06:18:59  -825.271249c -6.63  -3.98    +57.9462
iter: 105 06:20:16  -825.272771c -6.13  -4.03c   +58.0123
iter: 106 06:21:33  -825.265066c -4.68  -4.00    +57.6253
iter: 107 06:22:49  -825.264883c -5.44  -3.91    +57.5562
iter: 108 06:24:06  -825.266293c -5.94  -3.86    +57.5689
iter: 109 06:25:23  -825.267215c -6.07  -3.85    +57.6010
iter: 110 06:26:39  -825.267803c -6.41  -3.88    +57.6238
iter: 111 06:27:56  -825.269376c -5.38  -3.89    +57.6768
iter: 112 06:29:13  -825.266832c -5.59  -3.60    +57.6297
iter: 113 06:30:30  -825.268241c -5.82  -3.77    +57.6810
iter: 114 06:31:46  -825.268789c -6.05  -3.86    +57.7322
iter: 115 06:33:03  -825.269752c -6.19  -3.96    +57.7682
iter: 116 06:34:20  -825.271516c -5.79  -3.99    +57.8146
iter: 117 06:35:37  -825.272372c -5.87  -4.12c   +57.8804
iter: 118 06:36:54  -825.271614c -6.47  -4.14c   +57.8366
iter: 119 06:38:11  -825.271099c -6.24  -4.22c   +57.8138
iter: 120 06:39:28  -825.272375c -6.17  -4.16c   +57.8662
iter: 121 06:40:44  -825.271594c -6.74  -4.25c   +57.8360
iter: 122 06:42:00  -825.272536c -6.36  -4.32c   +57.8814
iter: 123 06:43:17  -825.271398c -6.29  -4.34c   +57.8224
iter: 124 06:44:33  -825.268230c -5.11  -4.50c   +57.6384
iter: 125 06:45:49  -825.268290c -5.94  -4.00    +57.6121
iter: 126 06:47:06  -825.269358c -6.11  -3.96    +57.6052
iter: 127 06:48:22  -825.269467c -6.73  -3.94    +57.6341
iter: 128 06:49:38  -825.270251c -6.17  -4.01c   +57.5863
iter: 129 06:50:55  -825.270449c -6.01  -3.89    +57.6721
iter: 130 06:52:11  -825.271666c -6.20  -4.02c   +57.6908
iter: 131 06:53:27  -825.270858c -6.29  -4.00    +57.6923
iter: 132 06:54:43  -825.272171c -6.02  -3.81    +57.7054
iter: 133 06:56:00  -825.272839c -6.26  -4.04c   +57.7214
iter: 134 06:57:16  -825.273021c -5.75  -4.01c   +57.7508
iter: 135 06:58:32  -825.272492c -6.35  -3.90    +57.7285
iter: 136 06:59:49  -825.272398c -6.62  -4.15c   +57.7374
iter: 137 07:01:05  -825.273133c -6.43  -4.15c   +57.7575
iter: 138 07:02:21  -825.274054c -6.23  -4.26c   +57.7853
iter: 139 07:03:38  -825.275062c -6.03  -4.23c   +57.8271
iter: 140 07:04:54  -825.276039c -6.27  -4.29c   +57.8501
iter: 141 07:06:10  -825.277008c -6.30  -4.25c   +57.8750
iter: 142 07:07:26  -825.276073c -6.50  -4.13c   +57.8435
iter: 143 07:08:43  -825.275873c -6.89  -4.13c   +57.8425
iter: 144 07:09:59  -825.276765c -6.33  -4.23c   +57.8740
iter: 145 07:11:16  -825.274961c -5.94  -4.19c   +57.8252
iter: 146 07:12:32  -825.267547c -4.46  -4.38c   +57.5775
iter: 147 07:13:48  -825.267461c -5.43  -3.89    +57.5494
iter: 148 07:15:05  -825.267406c -5.59  -3.85    +57.4903
iter: 149 07:16:21  -825.267951c -6.02  -3.82    +57.4748
iter: 150 07:17:38  -825.267153c -5.92  -3.82    +57.5234
iter: 151 07:18:54  -825.269209c -5.54  -3.80    +57.4804
iter: 152 07:20:11  -825.267509c -5.53  -3.58    +57.5379
iter: 153 07:21:27  -825.270990c -5.09  -3.73    +57.5294
iter: 154 07:22:43  -825.267782c -5.51  -3.49    +57.5428
iter: 155 07:24:00  -825.267985c -5.40  -3.75    +57.5717
iter: 156 07:25:16  -825.267076c -5.96  -3.59    +57.5616
iter: 157 07:26:33  -825.268243c -5.93  -4.04c   +57.5641
iter: 158 07:27:49  -825.267854c -6.42  -3.91    +57.5692
iter: 159 07:29:06  -825.268679c -6.22  -4.11c   +57.5863
iter: 160 07:30:22  -825.269336c -6.20  -4.24c   +57.5953
iter: 161 07:31:39  -825.269922c -6.56  -4.24c   +57.6004
iter: 162 07:32:55  -825.270626c -6.30  -4.24c   +57.6158
iter: 163 07:34:12  -825.270168c -7.24  -4.31c   +57.6061
iter: 164 07:35:28  -825.267631c -5.49  -4.42c   +57.5436
iter: 165 07:36:45  -825.268300c -6.89  -4.17c   +57.5617
iter: 166 07:38:01  -825.268475c -7.20  -4.24c   +57.5650
iter: 167 07:39:18  -825.269082c -6.58  -4.18c   +57.5787
iter: 168 07:40:34  -825.270008c -6.35  -4.27c   +57.5971
iter: 169 07:41:51  -825.269140c -6.41  -4.32c   +57.5804
iter: 170 07:43:07  -825.270513c -6.14  -4.18c   +57.6118
iter: 171 07:44:24  -825.270397c -7.09  -4.46c   +57.6130
iter: 172 07:45:41  -825.271430c -6.37  -4.56c   +57.6319
iter: 173 07:46:57  -825.268089c -5.37  -4.60c   +57.5677
iter: 174 07:48:14  -825.263152c -4.63  -4.29c   +57.4540
iter: 175 07:49:31  -825.263181c -5.62  -3.79    +57.4657
iter: 176 07:50:47  -825.263503c -6.24  -3.78    +57.4938
iter: 177 07:52:04  -825.263270c -6.65  -3.80    +57.4712
iter: 178 07:53:20  -825.263226c -6.94  -3.78    +57.4676
iter: 179 07:54:37  -825.263778c -6.28  -3.80    +57.4940
iter: 180 07:55:53  -825.265469c -5.27  -3.78    +57.4846
iter: 181 07:57:10  -825.263295c -5.26  -3.57    +57.5193
iter: 182 07:58:26  -825.263122c -5.81  -3.57    +57.5220
iter: 183 07:59:43  -825.264380c -5.76  -4.00    +57.5381
iter: 184 08:00:59  -825.263720c -6.31  -3.83    +57.5361
iter: 185 08:02:16  -825.264428c -6.28  -4.16c   +57.5647
iter: 186 08:03:33  -825.264508c -6.62  -4.09c   +57.5636
iter: 187 08:04:49  -825.265639c -6.16  -4.13c   +57.5876
iter: 188 08:06:06  -825.265580c -6.43  -4.16c   +57.6032
iter: 189 08:07:22  -825.265788c -6.83  -4.19c   +57.6098
iter: 190 08:08:39  -825.266489c -6.21  -4.40c   +57.6431
iter: 191 08:09:55  -825.265967c -6.26  -4.28c   +57.6198
iter: 192 08:11:12  -825.266852c -6.34  -4.31c   +57.6558
iter: 193 08:12:28  -825.265075c -5.79  -4.31c   +57.5678
iter: 194 08:13:45  -825.263412c -5.20  -4.43c   +57.4073
iter: 195 08:15:01  -825.263811c -6.41  -4.08c   +57.4145
iter: 196 08:16:18  -825.263137c -6.42  -4.13c   +57.4115
iter: 197 08:17:34  -825.263513c -6.89  -4.10c   +57.4225
iter: 198 08:18:51  -825.264196c -6.61  -4.17c   +57.4295
iter: 199 08:20:07  -825.263092c -6.44  -4.03c   +57.4281
iter: 200 08:21:24  -825.263737c -6.08  -4.13c   +57.4406
iter: 201 08:22:40  -825.263496c -6.56  -4.05c   +57.4439
iter: 202 08:23:56  -825.263872c -6.69  -4.35c   +57.4711
iter: 203 08:25:13  -825.263414c -6.21  -4.34c   +57.4187
iter: 204 08:26:30  -825.263961c -6.52  -4.22c   +57.4358
iter: 205 08:27:46  -825.264308c -6.84  -4.53c   +57.4397
iter: 206 08:29:03  -825.265340c -6.15  -4.60c   +57.4591
iter: 207 08:30:19  -825.259670c -4.67  -4.46c   +57.3362
iter: 208 08:31:36  -825.258980c -5.25  -3.95    +57.3091
iter: 209 08:32:52  -825.259083c -6.11  -3.82    +57.3161
iter: 210 08:34:09  -825.259399c -6.24  -3.81    +57.3350
iter: 211 08:35:25  -825.259407c -7.10  -3.83    +57.3318
iter: 212 08:36:42  -825.259486c -6.17  -3.84    +57.3424
iter: 213 08:37:58  -825.259405c -5.54  -3.71    +57.3405
iter: 214 08:39:15  -825.259644c -5.72  -3.59    +57.3493
iter: 215 08:40:32  -825.262072c -5.35  -3.76    +57.3578
iter: 216 08:41:48  -825.259094c -5.79  -3.58    +57.3718
iter: 217 08:43:05  -825.259804c -6.04  -4.08c   +57.3851
iter: 218 08:44:21  -825.259675c -6.50  -3.97    +57.3773
iter: 219 08:45:37  -825.260219c -6.31  -4.14c   +57.3830
iter: 220 08:46:54  -825.260445c -6.25  -4.24c   +57.3970
iter: 221 08:48:11  -825.260573c -6.84  -4.13c   +57.3941
iter: 222 08:49:27  -825.261159c -6.56  -4.36c   +57.4147
iter: 223 08:50:44  -825.260627c -6.66  -4.23c   +57.3948
iter: 224 08:52:00  -825.260883c -6.23  -4.35c   +57.3979
iter: 225 08:53:16  -825.260854c -6.18  -4.26c   +57.4012
iter: 226 08:54:33  -825.261321c -6.11  -4.49c   +57.4092
iter: 227 08:55:49  -825.261682c -6.51  -4.26c   +57.4195
iter: 228 08:57:06  -825.260239c -5.40  -4.31c   +57.3683
iter: 229 08:58:22  -825.260414c -6.73  -4.03c   +57.3531
iter: 230 08:59:38  -825.261102c -6.13  -4.05c   +57.3308
iter: 231 09:00:55  -825.261121c -6.02  -4.08c   +57.3298
iter: 232 09:02:11  -825.261420c -6.59  -4.03c   +57.3283
iter: 233 09:03:27  -825.261098c -6.21  -4.19c   +57.3307
iter: 234 09:04:43  -825.261182c -6.95  -4.19c   +57.3232
iter: 235 09:06:00  -825.261348c -6.69  -4.35c   +57.3167
iter: 236 09:07:16  -825.261810c -6.34  -4.43c   +57.3283
iter: 237 09:08:33  -825.261177c -6.42  -4.41c   +57.3145
iter: 238 09:09:49  -825.259848c -5.47  -4.47c   +57.2762
iter: 239 09:11:05  -825.260329c -6.69  -4.15c   +57.2823
iter: 240 09:12:22  -825.260564c -6.68  -4.29c   +57.2834
iter: 241 09:13:38  -825.261126c -6.21  -4.41c   +57.2906
iter: 242 09:14:54  -825.261243c -6.86  -4.53c   +57.2946
iter: 243 09:16:11  -825.260797c -6.44  -4.52c   +57.2838
iter: 244 09:17:27  -825.260159c -5.78  -4.39c   +57.2598
iter: 245 09:18:44  -825.260681c -6.45  -4.20c   +57.2671
iter: 246 09:20:00  -825.260603c -7.56c -4.36c   +57.2599

Converged after 246 iterations.

Dipole moment: (28.906232, -3.868207, -10.491251) |e|*Ang

Total magnetic moment: (0.000000, 0.000000, 57.259879)
Local magnetic moments:
   0 Fe ( 0.000000,  0.000000,  2.216850)
   1 Co ( 0.000000,  0.000000,  1.328958)
   2 Fe ( 0.000000,  0.000000,  2.325845)
   3 Al ( 0.000000,  0.000000, -0.046180)
   4 Co ( 0.000000,  0.000000,  1.359236)
   5 Fe ( 0.000000,  0.000000,  2.406626)
   6 Fe ( 0.000000,  0.000000,  1.929707)
   7 Cr ( 0.000000,  0.000000, -2.444226)
   8 Fe ( 0.000000,  0.000000,  2.150658)
   9 Al ( 0.000000,  0.000000, -0.013411)
  10 Ni ( 0.000000,  0.000000,  0.180553)
  11 Ni ( 0.000000,  0.000000,  0.127199)
  12 Ni ( 0.000000,  0.000000,  0.172030)
  13 Al ( 0.000000,  0.000000, -0.018142)
  14 Fe ( 0.000000,  0.000000,  2.329691)
  15 Fe ( 0.000000,  0.000000, -1.456437)
  16 Co ( 0.000000,  0.000000,  1.157912)
  17 Fe ( 0.000000,  0.000000,  2.253156)
  18 Ni ( 0.000000,  0.000000,  0.228912)
  19 Fe ( 0.000000,  0.000000,  2.211990)
  20 Ni ( 0.000000,  0.000000,  0.092180)
  21 Fe ( 0.000000,  0.000000,  2.206253)
  22 Al ( 0.000000,  0.000000, -0.026439)
  23 Fe ( 0.000000,  0.000000,  2.018849)
  24 Co ( 0.000000,  0.000000,  0.147300)
  25 Co ( 0.000000,  0.000000,  0.900705)
  26 Cr ( 0.000000,  0.000000, -0.339704)
  27 Ni ( 0.000000,  0.000000,  0.086008)
  28 Al ( 0.000000,  0.000000, -0.004849)
  29 Al ( 0.000000,  0.000000, -0.027503)
  30 Ni ( 0.000000,  0.000000,  0.288101)
  31 Cr ( 0.000000,  0.000000,  1.712614)
  32 Co ( 0.000000,  0.000000,  0.912084)
  33 Cr ( 0.000000,  0.000000, -1.384779)
  34 Cr ( 0.000000,  0.000000, -1.663423)
  35 Fe ( 0.000000,  0.000000,  1.894824)
  36 Cr ( 0.000000,  0.000000, -1.360132)
  37 Al ( 0.000000,  0.000000, -0.021726)
  38 Ni ( 0.000000,  0.000000,  0.100399)
  39 Co ( 0.000000,  0.000000,  1.157449)
  40 Al ( 0.000000,  0.000000, -0.037572)
  41 Cr ( 0.000000,  0.000000, -1.926934)
  42 Al ( 0.000000,  0.000000, -0.024178)
  43 Fe ( 0.000000,  0.000000,  1.832909)
  44 Al ( 0.000000,  0.000000, -0.030333)
  45 Fe ( 0.000000,  0.000000,  1.933071)
  46 Co ( 0.000000,  0.000000,  0.921001)
  47 Ni ( 0.000000,  0.000000,  0.160030)
  48 Ni ( 0.000000,  0.000000,  0.373101)
  49 Ni ( 0.000000,  0.000000,  0.262945)
  50 Co ( 0.000000,  0.000000,  1.164874)
  51 Co ( 0.000000,  0.000000,  1.199691)
  52 Co ( 0.000000,  0.000000,  1.213512)
  53 Cr ( 0.000000,  0.000000,  1.560604)
  54 Cr ( 0.000000,  0.000000, -0.734933)
  55 Cr ( 0.000000,  0.000000, -1.584388)
  56 Cr ( 0.000000,  0.000000, -1.011602)
  57 Fe ( 0.000000,  0.000000,  2.239623)
  58 Co ( 0.000000,  0.000000,  1.083041)
  59 Co ( 0.000000,  0.000000,  1.044977)
[...]
  93 Ni ( 0.000000,  0.000000,  0.301542)
  94 Cr ( 0.000000,  0.000000,  1.261399)
  95 Al ( 0.000000,  0.000000, -0.017409)
  96 Cr ( 0.000000,  0.000000,  1.147799)
  97 Cr ( 0.000000,  0.000000, -0.259690)
  98 Co ( 0.000000,  0.000000, -0.289200)
  99 Co ( 0.000000,  0.000000,  0.916660)
 100 Co ( 0.000000,  0.000000,  0.343142)
 101 Cr ( 0.000000,  0.000000, -2.233952)
 102 Al ( 0.000000,  0.000000, -0.023947)
 103 Fe ( 0.000000,  0.000000,  2.178732)
 104 Fe ( 0.000000,  0.000000,  2.417133)
 105 Ni ( 0.000000,  0.000000,  0.288378)
 106 Cr ( 0.000000,  0.000000, -1.470180)
 107 Co ( 0.000000,  0.000000,  1.027589)

Energy contributions relative to reference atoms: (reference = -3382523.201499)

Kinetic:       +191.803567
Potential:     -205.837389
External:        +0.000000
XC:            -842.395495
Entropy (-ST):   -4.321381
Local:          +33.329404
Free energy:   -827.421294
Extrapolated:  -825.260603

Spin contamination: 26.158465 electrons
Showing only first 2 kpts
                      Up                     Down
 Kpt  Band  Eigenvalues  Occupancy  Eigenvalues  Occupancy
  0   470      9.16918    0.99365     10.02072    0.03039
  0   471      9.18525    0.99255     10.02931    0.02796
  0   472      9.19843    0.99151     10.04848    0.02319
  0   473      9.20564    0.99088     10.05834    0.02106

  1   470      9.16609    0.99384     10.03223    0.02717
  1   471      9.17588    0.99321     10.03872    0.02551
  1   472      9.20053    0.99133     10.06204    0.02031
  1   473      9.20929    0.99054     10.07776    0.01741

Fermi level: 9.67443

No gap

Forces in eV/Ang:
  0 Fe   -0.01288   -0.51200    0.12482
  1 Co    0.57420   -0.32894    0.13703
  2 Fe   -0.16498   -0.13036   -0.55706
  3 Al    0.41228   -0.26043   -0.42425
  4 Co    0.05311   -0.30097   -0.53484
  5 Fe    0.14961    0.61567   -0.20279
  6 Fe    0.12331    0.31552   -0.76524
  7 Cr   -1.02745   -1.02495   -0.85411
  8 Fe   -0.39706    0.62501   -0.41054
  9 Al   -0.20947   -0.48004   -1.17746
 10 Ni   -0.15450   -0.15081   -0.28341
 11 Ni   -0.26504   -0.26511   -0.42254
 12 Ni   -0.29244    0.60222    0.03442
 13 Al    0.93227   -0.13363   -0.03440
 14 Fe    0.59353    0.26003    0.91620
 15 Fe   -0.13918    0.17533   -0.32475
 16 Co    0.28208    0.20078    0.14211
 17 Fe   -0.41407   -0.85484    0.94860
 18 Ni   -0.52904   -0.17179    0.04620
 19 Fe    0.32267   -0.37545    0.05422
 20 Ni   -0.07686   -0.08811   -0.38042
 21 Fe   -0.11560    0.61686    0.37590
 22 Al    0.62032   -0.18400   -0.46878
 23 Fe   -0.43393    0.80935   -0.66951
 24 Co    0.57237    0.00720   -0.07131
 25 Co    0.34574   -0.13179   -0.20183
 26 Cr   -0.75645    0.17760   -0.07622
 27 Ni    0.77117    0.33509   -0.25461
 28 Al   -1.13844    0.12972    0.09702
 29 Al   -0.60935    0.30704   -1.11965
 30 Ni   -0.12272    0.14117    0.49786
 31 Cr    0.52847    1.03387   -0.52401
 32 Co    0.48290   -0.22854    0.08339
 33 Cr    0.01664   -0.06315   -0.41091
 34 Cr   -0.45169    0.40782   -0.04267
 35 Fe   -0.24066   -0.24173    0.23355
 36 Cr    0.05024   -0.75943   -0.88149
 37 Al   -0.17239    0.17746   -0.26858
 38 Ni    0.31790   -0.13646    0.13607
 39 Co    0.32307    0.49314   -0.14524
 40 Al   -0.63485    0.90918   -0.09548
 41 Cr   -0.43880    1.53932    0.04074
 42 Al    0.20763   -0.08363    0.90254
 43 Fe   -0.49100    0.54750    0.24902
 44 Al    1.01016   -0.26171    0.06993
 45 Fe    0.35621    0.93534    0.58880
 46 Co   -0.11874   -0.44235    0.01146
 47 Ni   -0.07044   -0.12494    0.09348
 48 Ni    0.58284    0.38860   -0.02802
 49 Ni    0.36056    0.14726   -0.46631
 50 Co    0.59509    0.28765   -0.36828
 51 Co    0.93960    0.07973    0.24012
 52 Co   -0.29186   -0.03701    0.36459
 53 Cr    0.08941   -0.96264   -0.41884
 54 Cr   -0.03256    0.15299    0.33048
 55 Cr   -0.07962   -0.57609   -0.12840
 56 Cr   -0.76765    0.51145    1.28536
 57 Fe    0.20551   -0.11032   -0.10594
 58 Co   -0.62756    0.21763    0.15996
 59 Co   -0.41197    0.34017    0.50865
[...]
 93 Ni    0.35226   -0.14681   -0.18680
 94 Cr    0.18586    0.15797    0.45143
 95 Al   -1.32850   -0.18203   -0.86329
 96 Cr    0.20852    0.50524    0.80940
 97 Cr    0.57862   -0.05310    0.43136
 98 Co    0.10936    0.03459   -0.22138
 99 Co    0.35244   -0.19205    0.17178
100 Co   -0.41011    0.56172    0.03613
101 Cr   -0.57255    1.05044    0.18875
102 Al    1.10057    0.00098   -1.37788
103 Fe   -0.22648   -0.37672    0.42879
104 Fe    0.01483   -0.12178   -0.53672
105 Ni    0.05551    0.12768   -0.03506
106 Cr   -0.79656    0.36621    0.34139
107 Co   -0.39233   -0.13186   -0.11406

Date: Mon Apr 17 09:20:17 2023