User:   c.zeng@d0148
Date:   Sat Apr  8 10:12:57 2023
Arch:   x86_64
Pid:    61920
CWD:    /home/c.zeng/projects/hea-corrosion/hea-mlp/data-curation/volume/dft-jobs/5
Python: 3.8.1
gpaw:   /home/c.zeng/usr/installs/gpaw/source/gpaw-22.8.0/gpaw
_gpaw:  /home/c.zeng/usr/installs/gpaw/source/gpaw-22.8.0/
        _gpaw.cpython-38-x86_64-linux-gnu.so
ase:    /home/c.zeng/.local/lib/python3.8/site-packages/ase-3.22.1-py3.8.egg/ase (version 3.22.1)
numpy:  /shared/centos7/python/3.8.1/lib/python3.8/site-packages/numpy (version 1.17.4)
scipy:  /shared/centos7/python/3.8.1/lib/python3.8/site-packages/scipy (version 1.4.1)
units:  Angstrom and eV
cores: 64
OpenMP: False
OMP_NUM_THREADS: 1

Input parameters:
  convergence: {energy: 0.0001}
  kpts: [2 2 2]
  maxiter: 666
  mode: {ecut: 350.0,
         name: pw}
  occupations: {fixmagmom: False,
                name: fermi-dirac,
                width: 0.1}
  spinpol: True
  xc: PBE

System changes: positions, numbers, cell, pbc, initial_charges, initial_magmoms

Initialize ...

species:
  Co:
    name: Cobalt
    id: 339d20d5b0b93d2de9531a1bee871d91
    Z: 27.0
    valence: 9
    core: 18
    charge: 0.0
    file: /home/c.zeng/usr/data/gpaw-setups-0.9.20000/Co.PBE.gz
    compensation charges: {type: gauss,
                           rc: 0.32,
                           lmax: 2}
    cutoffs: {filter: 1.87,
              core: 2.55}
    valence states:
      #              energy  rcut
      - 4s(2.00)    -5.469   1.005
      - 4p(0.00)    -1.277   1.058
      - 3d(7.00)    -8.205   1.005
      -  s          21.742   1.005
      -  p          25.934   1.058
      -  d          19.007   1.005

    # Using partial waves for Co as LCAO basis

  Fe:
    name: Iron
    id: 37abbd8d6c3c35915a9b583b742da910
    Z: 26.0
    valence: 8
    core: 18
    charge: 0.0
    file: /home/c.zeng/usr/data/gpaw-setups-0.9.20000/Fe.PBE.gz
    compensation charges: {type: gauss,
                           rc: 0.33,
                           lmax: 2}
    cutoffs: {filter: 2.06,
              core: 2.67}
    valence states:
      #              energy  rcut
      - 4s(2.00)    -5.291   1.164
      - 4p(0.00)    -1.326   1.058
      - 3d(6.00)    -7.505   1.058
      -  s          21.920   1.164
      -  p          25.885   1.058
      -  d          19.706   1.058

[...]

  Cr:
    name: Chromium
    id: 33f258bda2ca9f93018e70263a35547b
    Z: 24.0
    valence: 6
    core: 18
    charge: 0.0
    file: /home/c.zeng/usr/data/gpaw-setups-0.9.20000/Cr.PBE.gz
    compensation charges: {type: gauss,
                           rc: 0.35,
                           lmax: 2}
    cutoffs: {filter: 2.14,
              core: 3.04}
    valence states:
      #              energy  rcut
      - 4s(1.00)    -4.007   1.164
      - 4p(0.00)    -0.989   1.217
      - 3d(5.00)    -2.913   1.111
      -  s          23.205   1.164
      -  p          26.223   1.217
      -  d          24.299   1.111

[...]

  Ni:
    name: Nickel
    id: 0d9f38a9d6e76a2886f07bb4381f212b
    Z: 28.0
    valence: 16
    core: 12
    charge: 0.0
    file: /home/c.zeng/usr/data/gpaw-setups-0.9.20000/Ni.PBE.gz
    compensation charges: {type: gauss,
                           rc: 0.36,
                           lmax: 2}
    cutoffs: {filter: 2.14,
              core: 1.98}
    valence states:
      #              energy  rcut
      - 4s(2.00)    -5.642   1.164
      - 3p(6.00)   -71.394   1.207
      - 4p(0.00)    -1.226   1.207
      - 3d(8.00)    -8.875   1.138
      -  s          21.570   1.164
      -  d          18.337   1.138

    # Using partial waves for Ni as LCAO basis

Reference energy: -3846758.590871  # eV

Spin-polarized calculation.
Magnetic moment: 151.200000

Convergence criteria:
 Maximum [total energy] change in last 3 cyles: 0.0001 eV / electron
 Maximum integral of absolute [dens]ity change: 0.0001 electrons / valence electron
 Maximum integral of absolute [eigenst]ate change: 4e-08 eV^2 / valence electron
 Maximum number of scf [iter]ations: 666
 (Square brackets indicate name in SCF output, whereas a 'c' in
 the SCF output indicates the quantity has converged.)

Symmetries present (total): 1

  ( 1  0  0)
  ( 0  1  0)
  ( 0  0  1)

8 k-points: 2 x 2 x 2 Monkhorst-Pack grid
4 k-points in the irreducible part of the Brillouin zone
       k-points in crystal coordinates                weights
   0:     0.25000000   -0.25000000   -0.25000000          2/8
   1:     0.25000000   -0.25000000    0.25000000          2/8
   2:     0.25000000    0.25000000   -0.25000000          2/8
   3:     0.25000000    0.25000000    0.25000000          2/8

Wave functions: Plane wave expansion
  Cutoff energy: 350.000 eV
  Number of coefficients (min, max): 22877, 22877
  Pulay-stress correction: 0.000000 eV/Ang^3 (de/decut=0.000000)
  Using FFTW library
  ScaLapack parameters: grid=1x1, blocksize=None
  Wavefunction extrapolation:
    Improved wavefunction reuse through dual PAW basis

Occupation numbers: Fermi-Dirac:
  width: 0.1000  # eV

Eigensolver
   Davidson(niter=2)

Densities:
  Coarse grid: 50*50*50 grid
  Fine grid: 100*100*100 grid
  Total Charge: 0.000000

Density mixing:
  Method: difference
  Backend: pulay
  Linear mixing parameter: 0.05
  old densities: 5
  Damping of long wavelength oscillations: 50

Hamiltonian:
  XC and Coulomb potentials evaluated on a 100*100*100 grid
  Using the PBE Exchange-Correlation functional
  External potential:
    NoExternalPotential

XC parameters: PBE with 2 nearest neighbor stencil

Total number of cores used: 64
Parallelization over k-points: 4
Domain decomposition: 4 x 2 x 2

Number of atoms: 108
Number of atomic orbitals: 1053
Number of bands in calculation: 727
Number of valence electrons: 1053
Bands to converge: occupied

... initialized

Initializing position-dependent things.

Density initialized from atomic densities
Creating initial wave functions:
  727 bands from LCAO basis set

       /|  Cr        Co             |
      / |      Fe                   |
    /  CoFe     CrCr     Co         |
   /    | Fe Ni     Fe       Cr     |
  /  Co |  Cr FeCr   CoNi     Cr    |
 *    NiCr     CoNi     Ni Ni       |
 |Co   FeNiCo   Ni CoFe   CoCr      |
 | Cr Fe| Fe CrFe   CoNiCo   Cr     |
 |   Ni |  Ni FeCr     Fe     Ni    |
 |     Cr            Ni  Ni         |
 Co   NiFeCr   FeFe Ni  Fe Co       |
 |Ni    |Co Co  Cr NiFe  Ni Ni     Co
 | Cr Cr.-Cr-CoCr---CoNiNi---Ni-----.
 |   FeFe     CoFe     NiCo   Cr   /
 Fe   FeCrFe     Ni Fe  Cr Co     /
 |   /     Cr        Ni     Cr   /
 |Co/                           /
 | /r Fe       Co     CoNi     /
 |/    Fe                Co   /
 Co-------Cr--------Fe-------*

Positions:
   0 Co     0.000009    0.000007    0.000001    ( 0.0000,  0.0000,  2.1000)
   1 Co     0.000008    1.923731    1.923754    ( 0.0000,  0.0000,  2.1000)
   2 Fe     1.923742    0.000012    1.923754    ( 0.0000,  0.0000,  2.0000)
   3 Fe     1.923742    1.923742   11.542500    ( 0.0000,  0.0000,  2.0000)
   4 Cr     3.847496    0.000009   11.542500    ( 0.0000,  0.0000,  0.0000)
   5 Cr     3.847485    1.923742    1.923765    ( 0.0000,  0.0000,  0.0000)
   6 Co     5.771262    0.000001    1.923754    ( 0.0000,  0.0000,  2.1000)
   7 Cr     5.771262    1.923742   11.542488    ( 0.0000,  0.0000,  0.0000)
   8 Fe     7.694992    0.000003   11.542500    ( 0.0000,  0.0000,  2.0000)
   9 Ni     7.695004    1.923742    1.923754    ( 0.0000,  0.0000,  1.5000)
  10 Ni     9.618758    0.000008    1.923754    ( 0.0000,  0.0000,  1.5000)
  11 Co     9.618746    1.923742   11.542500    ( 0.0000,  0.0000,  2.1000)
  12 Cr     0.000002    3.847508    0.000003    ( 0.0000,  0.0000,  0.0000)
  13 Fe    11.542500    5.771262    1.923742    ( 0.0000,  0.0000,  2.0000)
  14 Cr     1.923754    3.847508    1.923754    ( 0.0000,  0.0000,  0.0000)
  15 Fe     1.923754    5.771262   11.542488    ( 0.0000,  0.0000,  2.0000)
  16 Ni     3.847496    3.847508   11.542488    ( 0.0000,  0.0000,  1.5000)
  17 Co     3.847496    5.771262    1.923754    ( 0.0000,  0.0000,  2.1000)
  18 Ni     5.771250    3.847496    1.923765    ( 0.0000,  0.0000,  1.5000)
  19 Cr     5.771238    5.771262   11.542488    ( 0.0000,  0.0000,  0.0000)
  20 Co     7.695004    3.847496   11.542500    ( 0.0000,  0.0000,  2.1000)
  21 Ni     7.695004    5.771250    1.923765    ( 0.0000,  0.0000,  1.5000)
  22 Co     9.618746    3.847496    1.923754    ( 0.0000,  0.0000,  2.1000)
  23 Cr     9.618769    5.771250    0.000009    ( 0.0000,  0.0000,  0.0000)
  24 Fe     0.000011    7.694992    0.000000    ( 0.0000,  0.0000,  2.0000)
  25 Co    -0.000000    9.618758    1.923754    ( 0.0000,  0.0000,  2.1000)
  26 Cr     1.923742    7.694981    1.923742    ( 0.0000,  0.0000,  0.0000)
  27 Cr     1.923731    9.618746   11.542488    ( 0.0000,  0.0000,  0.0000)
  28 Fe     3.847496    7.694981   11.542488    ( 0.0000,  0.0000,  2.0000)
  29 Cr     3.847508    9.618746    1.923765    ( 0.0000,  0.0000,  0.0000)
  30 Co     5.771250    7.695004    1.923754    ( 0.0000,  0.0000,  2.1000)
  31 Co     5.771262    9.618746   11.542488    ( 0.0000,  0.0000,  2.1000)
  32 Cr     7.694981    7.695004    0.000000    ( 0.0000,  0.0000,  0.0000)
  33 Ni     7.694992    9.618758    1.923754    ( 0.0000,  0.0000,  1.5000)
  34 Ni     9.618758    7.694992    1.923754    ( 0.0000,  0.0000,  1.5000)
  35 Cr     9.618758    9.618758   11.542500    ( 0.0000,  0.0000,  0.0000)
  36 Fe     0.000006   11.542500    3.847496    ( 0.0000,  0.0000,  2.0000)
  37 Ni     0.000000    1.923742    5.771238    ( 0.0000,  0.0000,  1.5000)
  38 Cr     1.923742    0.000003    5.771227    ( 0.0000,  0.0000,  0.0000)
  39 Fe     1.923754    1.923742    3.847496    ( 0.0000,  0.0000,  2.0000)
  40 Fe     3.847496    0.000004    3.847496    ( 0.0000,  0.0000,  2.0000)
  41 Co     3.847496    1.923765    5.771227    ( 0.0000,  0.0000,  2.1000)
  42 Cr     5.771262    0.000009    5.771227    ( 0.0000,  0.0000,  0.0000)
  43 Fe     5.771250    1.923742    3.847508    ( 0.0000,  0.0000,  2.0000)
  44 Fe     7.694992    0.000004    3.847496    ( 0.0000,  0.0000,  2.0000)
  45 Fe     7.695004    1.923754    5.771238    ( 0.0000,  0.0000,  2.0000)
  46 Ni     9.618758    0.000005    5.771238    ( 0.0000,  0.0000,  1.5000)
  47 Co     9.618746    1.923742    3.847508    ( 0.0000,  0.0000,  2.1000)
  48 Cr     0.000005    3.847496    3.847508    ( 0.0000,  0.0000,  0.0000)
  49 Ni     0.000016    5.771250    5.771250    ( 0.0000,  0.0000,  1.5000)
  50 Fe     1.923754    3.847508    5.771238    ( 0.0000,  0.0000,  2.0000)
  51 Co     1.923754    5.771250    3.847508    ( 0.0000,  0.0000,  2.1000)
  52 Co     3.847508    3.847496    3.847519    ( 0.0000,  0.0000,  2.1000)
  53 Fe     3.847496    5.771250    5.771250    ( 0.0000,  0.0000,  2.0000)
  54 Fe     5.771250    3.847508    5.771238    ( 0.0000,  0.0000,  2.0000)
  55 Ni     5.771250    5.771250    3.847519    ( 0.0000,  0.0000,  1.5000)
  56 Ni     7.694992    3.847496    3.847519    ( 0.0000,  0.0000,  1.5000)
  57 Fe     7.694992    5.771250    5.771250    ( 0.0000,  0.0000,  2.0000)
  58 Co     9.618735    3.847496    5.771250    ( 0.0000,  0.0000,  2.1000)
  59 Ni     9.618746    5.771250    3.847496    ( 0.0000,  0.0000,  1.5000)
[...]
  93 Ni     7.694992    5.771250    9.618746    ( 0.0000,  0.0000,  1.5000)
  94 Ni     9.618735    3.847485    9.618758    ( 0.0000,  0.0000,  1.5000)
  95 Cr     9.618746    5.771238    7.694992    ( 0.0000,  0.0000,  0.0000)
  96 Ni     0.000019    7.695004    7.695004    ( 0.0000,  0.0000,  1.5000)
  97 Co     0.000008    9.618746    9.618746    ( 0.0000,  0.0000,  2.1000)
  98 Fe     1.923754    7.694992    9.618758    ( 0.0000,  0.0000,  2.0000)
  99 Cr     1.923731    9.618735    7.695004    ( 0.0000,  0.0000,  0.0000)
 100 Co     3.847496    7.694992    7.695004    ( 0.0000,  0.0000,  2.1000)
 101 Cr     3.847508    9.618735    9.618746    ( 0.0000,  0.0000,  0.0000)
 102 Fe     5.771238    7.695004    9.618746    ( 0.0000,  0.0000,  2.0000)
 103 Co     5.771262    9.618746    7.695004    ( 0.0000,  0.0000,  2.1000)
 104 Ni     7.694981    7.695004    7.694992    ( 0.0000,  0.0000,  1.5000)
 105 Co     7.694981    9.618758    9.618746    ( 0.0000,  0.0000,  2.1000)
 106 Cr     9.618758    7.695004    9.618758    ( 0.0000,  0.0000,  0.0000)
 107 Cr     9.618758    9.618758    7.694992    ( 0.0000,  0.0000,  0.0000)

Unit cell:
           periodic     x           y           z      points  spacing
  1. axis:    yes   11.542500    0.000000    0.000000    50     0.2308
  2. axis:    yes    0.000000   11.542500    0.000000    50     0.2308
  3. axis:    yes    0.000000    0.000000   11.542500    50     0.2308

  Lengths:  11.542500  11.542500  11.542500
  Angles:   90.000000  90.000000  90.000000

Effective grid spacing dv^(1/3) = 0.2309

     iter     time        total  log10-change:  magmom
                         energy  eigst   dens
iter:   1 10:15:56 -1111.607409                  +151.4733
iter:   2 10:17:31  -926.011720  -0.10  -1.17    +83.9376
iter:   3 10:18:58  -948.018230  -0.62  -1.15    +85.4521
iter:   4 10:20:29  -886.466454  -1.04  -1.21    +79.5645
iter:   5 10:21:57  -868.392878  -1.65  -1.28    +79.1414
iter:   6 10:23:28  -877.985542  -1.53  -1.35    +87.6116
iter:   7 10:25:00  -864.167289  -1.30  -1.34    +91.1344
iter:   8 10:26:34  -867.518847  -1.41  -1.48    +95.1179
iter:   9 10:28:03  -857.363874  -1.49  -1.52    +95.9952
iter:  10 10:29:31  -854.285089  -1.89  -1.66    +97.8147
iter:  11 10:31:05  -854.097912  -2.04  -1.75    +99.7176
iter:  12 10:32:30  -853.636024  -2.29  -1.78    +98.6986
iter:  13 10:34:05  -853.757704  -2.59  -1.85    +96.7901
iter:  14 10:35:38  -854.888176  -2.66  -1.90    +96.1071
iter:  15 10:37:12  -855.612766  -2.68  -1.93    +94.7310
iter:  16 10:38:45  -857.930234  -2.49  -2.01    +92.0450
iter:  17 10:40:19  -857.386405  -2.51  -1.93    +90.9737
iter:  18 10:41:54  -858.229051  -2.64  -2.03    +89.8680
iter:  19 10:43:28  -858.239091  -2.70  -2.05    +87.8654
iter:  20 10:45:03  -858.779282  -2.79  -2.10    +85.6119
iter:  21 10:46:36  -858.825716  -3.08  -2.13    +84.7892
iter:  22 10:48:10  -859.360722  -3.21  -2.20    +83.2313
iter:  23 10:49:44  -860.068833  -3.31  -2.19    +81.7269
iter:  24 10:51:19  -860.985196  -2.97  -2.16    +79.3933
iter:  25 10:52:52  -861.607019  -3.11  -2.12    +77.9349
iter:  26 10:54:24  -862.631663  -2.73  -2.08    +76.6342
iter:  27 10:55:58  -862.490911  -3.47  -2.01    +77.4102
iter:  28 10:57:32  -863.197766  -2.94  -2.01    +77.4439
iter:  29 10:59:06  -862.802026  -2.85  -1.98    +77.7455
iter:  30 11:00:41  -863.392979  -2.55  -2.00    +78.3805
iter:  31 11:02:13  -862.711911  -2.31  -1.99    +78.5928
iter:  32 11:03:48  -861.910610  -2.83  -2.02    +78.0913
iter:  33 11:05:22  -861.865038  -2.97  -2.12    +77.5139
iter:  34 11:06:57  -861.865442c -2.95  -2.17    +77.7621
iter:  35 11:08:26  -861.754001  -3.02  -2.17    +77.6386
iter:  36 11:09:59  -861.713701  -3.10  -2.23    +77.6570
iter:  37 11:11:34  -862.309154  -2.78  -2.25    +77.9274
iter:  38 11:13:08  -861.701865  -2.97  -2.18    +78.2423
iter:  39 11:14:31  -861.463307  -3.16  -2.29    +78.6688
iter:  40 11:16:05  -862.179882  -2.88  -2.39    +78.6199
iter:  41 11:17:37  -861.388578  -3.20  -2.24    +78.7755
iter:  42 11:19:07  -861.370566  -3.48  -2.45    +79.3295
iter:  43 11:20:38  -861.389580c -3.62  -2.47    +79.4246
iter:  44 11:22:09  -861.330040c -3.70  -2.49    +79.4837
iter:  45 11:23:39  -861.284506c -3.98  -2.52    +79.5106
iter:  46 11:25:11  -861.335566c -3.97  -2.56    +79.7237
iter:  47 11:26:40  -861.332432c -3.94  -2.57    +79.7289
iter:  48 11:28:11  -861.346415c -3.77  -2.59    +79.7408
iter:  49 11:29:46  -861.368000c -3.84  -2.57    +79.8411
iter:  50 11:31:19  -861.408658c -3.59  -2.63    +79.9399
iter:  51 11:32:51  -861.420946c -3.54  -2.61    +79.9551
iter:  52 11:34:23  -861.355089c -3.79  -2.60    +79.7674
iter:  53 11:35:54  -861.300544  -3.90  -2.73    +79.8566
iter:  54 11:37:27  -861.296028c -3.97  -2.82    +79.8596
iter:  55 11:39:02  -861.267756c -4.70  -2.81    +79.7948
iter:  56 11:40:33  -861.284646c -4.27  -2.98    +79.7190
iter:  57 11:41:59  -861.287826c -4.28  -2.89    +79.7478
iter:  58 11:43:34  -861.259314c -4.53  -2.96    +79.8425
iter:  59 11:45:07  -861.258129c -4.99  -3.25    +79.8281
iter:  60 11:46:43  -861.265481c -4.87  -3.32    +79.8189
iter:  61 11:48:15  -861.258814c -5.10  -3.26    +79.8228
iter:  62 11:49:49  -861.259122c -5.44  -3.39    +79.8572
iter:  63 11:51:23  -861.257107c -5.68  -3.45    +79.8596
iter:  64 11:52:58  -861.259535c -5.53  -3.57    +79.8582
iter:  65 11:54:32  -861.258333c -5.73  -3.52    +79.8709
iter:  66 11:56:06  -861.257396c -5.98  -3.66    +79.8824
iter:  67 11:57:40  -861.257685c -6.03  -3.69    +79.8863
iter:  68 11:59:14  -861.257750c -6.09  -3.73    +79.8852
iter:  69 12:00:47  -861.258466c -6.10  -3.77    +79.8896
iter:  70 12:02:23  -861.257631c -6.18  -3.79    +79.8969
iter:  71 12:03:57  -861.257621c -6.24  -3.84    +79.8960
iter:  72 12:05:31  -861.258254c -6.25  -3.88    +79.8998
iter:  73 12:07:01  -861.258036c -6.36  -3.88    +79.8972
iter:  74 12:08:33  -861.257871c -6.30  -3.94    +79.8984
iter:  75 12:10:07  -861.257732c -6.46  -3.96    +79.8973
iter:  76 12:11:38  -861.258082c -6.53  -3.96    +79.8966
iter:  77 12:13:13  -861.257927c -6.59  -4.03c   +79.8983
iter:  78 12:14:47  -861.257716c -6.66  -4.09c   +79.8931
iter:  79 12:16:21  -861.257855c -6.85  -4.07c   +79.8938
iter:  80 12:17:55  -861.258007c -6.70  -4.18c   +79.8927
iter:  81 12:19:29  -861.258159c -6.85  -4.11c   +79.8930
iter:  82 12:21:02  -861.257857c -6.87  -4.16c   +79.8911
iter:  83 12:22:36  -861.257994c -6.78  -4.25c   +79.8888
iter:  84 12:24:11  -861.258132c -7.02  -4.18c   +79.8922
iter:  85 12:25:45  -861.257987c -7.13  -4.28c   +79.8919
iter:  86 12:27:19  -861.257920c -7.02  -4.37c   +79.8927
iter:  87 12:28:53  -861.257933c -7.39  -4.28c   +79.8926
iter:  88 12:30:27  -861.258149c -7.37  -4.51c   +79.8930
iter:  89 12:32:01  -861.258064c -7.36  -4.45c   +79.8921
iter:  90 12:33:35  -861.258053c -7.60c -4.60c   +79.8896

Converged after 90 iterations.

Dipole moment: (-0.197879, 0.146796, -0.025590) |e|*Ang

Total magnetic moment: (0.000000, 0.000000, 79.889642)
Local magnetic moments:
   0 Co ( 0.000000,  0.000000,  1.784897)
   1 Co ( 0.000000,  0.000000,  1.597347)
   2 Fe ( 0.000000,  0.000000,  2.732180)
   3 Fe ( 0.000000,  0.000000,  2.684791)
   4 Cr ( 0.000000,  0.000000,  2.494991)
   5 Cr ( 0.000000,  0.000000, -2.860277)
   6 Co ( 0.000000,  0.000000,  1.553673)
   7 Cr ( 0.000000,  0.000000, -2.890670)
   8 Fe ( 0.000000,  0.000000,  2.891317)
   9 Ni ( 0.000000,  0.000000,  0.581379)
  10 Ni ( 0.000000,  0.000000,  0.665322)
  11 Co ( 0.000000,  0.000000,  1.876426)
  12 Cr ( 0.000000,  0.000000, -2.798622)
  13 Fe ( 0.000000,  0.000000,  2.668660)
  14 Cr ( 0.000000,  0.000000, -2.883974)
  15 Fe ( 0.000000,  0.000000,  2.711592)
  16 Ni ( 0.000000,  0.000000,  0.276718)
  17 Co ( 0.000000,  0.000000,  1.636030)
  18 Ni ( 0.000000,  0.000000,  0.454680)
  19 Cr ( 0.000000,  0.000000, -2.952016)
  20 Co ( 0.000000,  0.000000,  1.730407)
  21 Ni ( 0.000000,  0.000000,  0.510343)
  22 Co ( 0.000000,  0.000000,  1.708176)
  23 Cr ( 0.000000,  0.000000, -2.833364)
  24 Fe ( 0.000000,  0.000000,  2.739190)
  25 Co ( 0.000000,  0.000000,  1.657415)
  26 Cr ( 0.000000,  0.000000, -2.771239)
  27 Cr ( 0.000000,  0.000000, -2.744726)
  28 Fe ( 0.000000,  0.000000,  2.660083)
  29 Cr ( 0.000000,  0.000000, -2.738253)
  30 Co ( 0.000000,  0.000000,  1.699157)
  31 Co ( 0.000000,  0.000000,  1.523654)
  32 Cr ( 0.000000,  0.000000,  2.648395)
  33 Ni ( 0.000000,  0.000000,  0.586501)
  34 Ni ( 0.000000,  0.000000,  0.500269)
  35 Cr ( 0.000000,  0.000000, -2.923388)
  36 Fe ( 0.000000,  0.000000,  2.929903)
  37 Ni ( 0.000000,  0.000000,  0.451444)
  38 Cr ( 0.000000,  0.000000, -2.854485)
  39 Fe ( 0.000000,  0.000000,  2.672737)
  40 Fe ( 0.000000,  0.000000,  2.813144)
  41 Co ( 0.000000,  0.000000,  1.346646)
  42 Cr ( 0.000000,  0.000000, -2.883440)
  43 Fe ( 0.000000,  0.000000,  2.833520)
  44 Fe ( 0.000000,  0.000000,  2.957587)
  45 Fe ( 0.000000,  0.000000,  2.861035)
  46 Ni ( 0.000000,  0.000000,  0.588330)
  47 Co ( 0.000000,  0.000000,  1.867533)
  48 Cr ( 0.000000,  0.000000, -2.919651)
  49 Ni ( 0.000000,  0.000000,  0.338993)
  50 Fe ( 0.000000,  0.000000,  2.804214)
  51 Co ( 0.000000,  0.000000,  1.624095)
  52 Co ( 0.000000,  0.000000,  1.659478)
  53 Fe ( 0.000000,  0.000000,  2.884114)
  54 Fe ( 0.000000,  0.000000,  2.796546)
  55 Ni ( 0.000000,  0.000000,  0.703876)
  56 Ni ( 0.000000,  0.000000,  0.658525)
  57 Fe ( 0.000000,  0.000000,  2.882055)
  58 Co ( 0.000000,  0.000000,  1.709039)
  59 Ni ( 0.000000,  0.000000,  0.536850)
[...]
  93 Ni ( 0.000000,  0.000000,  0.329824)
  94 Ni ( 0.000000,  0.000000,  0.375808)
  95 Cr ( 0.000000,  0.000000, -2.877680)
  96 Ni ( 0.000000,  0.000000,  0.300336)
  97 Co ( 0.000000,  0.000000,  1.393432)
  98 Fe ( 0.000000,  0.000000,  2.725815)
  99 Cr ( 0.000000,  0.000000, -2.897020)
 100 Co ( 0.000000,  0.000000,  1.693563)
 101 Cr ( 0.000000,  0.000000, -2.825070)
 102 Fe ( 0.000000,  0.000000,  2.850725)
 103 Co ( 0.000000,  0.000000,  1.705296)
 104 Ni ( 0.000000,  0.000000,  0.349474)
 105 Co ( 0.000000,  0.000000,  1.614993)
 106 Cr ( 0.000000,  0.000000,  2.665210)
 107 Cr ( 0.000000,  0.000000, -2.920517)

Energy contributions relative to reference atoms: (reference = -3846758.590871)

Kinetic:       -340.174873
Potential:     +186.507439
External:        +0.000000
XC:            -741.066330
Entropy (-ST):   -4.871732
Local:          +35.911577
Free energy:   -863.693918
Extrapolated:  -861.258053

Spin contamination: 71.218858 electrons
Showing only first 2 kpts
                      Up                     Down
 Kpt  Band  Eigenvalues  Occupancy  Eigenvalues  Occupancy
  0   524      6.50667    0.99977      7.69029    0.03075
  0   525      6.51058    0.99976      7.69481    0.02943
  0   526      6.52064    0.99974      7.70315    0.02714
  0   527      6.53692    0.99969      7.71490    0.02421

  1   524      6.50297    0.99978      7.69203    0.03024
  1   525      6.50753    0.99977      7.69808    0.02851
  1   526      6.52809    0.99972      7.70126    0.02765
  1   527      6.54216    0.99967      7.71609    0.02393

Fermi level: 7.34524

No gap

Forces in eV/Ang:
  0 Co   -0.06329    0.03504    0.01109
  1 Co   -0.19754   -0.03234    0.02874
  2 Fe   -0.53373   -0.06866    0.10155
  3 Fe   -0.21489    0.07688    0.09230
  4 Cr    0.23107   -0.38185    0.14743
  5 Cr    0.12810   -0.29563    0.39712
  6 Co    0.23234   -0.13043    0.15337
  7 Cr    0.34581    0.18133   -0.31540
  8 Fe   -0.04021   -0.15758    0.27761
  9 Ni    0.15657    0.08528    0.03204
 10 Ni    0.04685    0.10608    0.01026
 11 Co    0.07061   -0.09465    0.08600
 12 Cr   -0.07005   -0.37737   -0.54475
 13 Fe   -0.12545    0.00572    0.27916
 14 Cr    0.44516    0.53774   -0.17505
 15 Fe    0.07903    0.09715    0.22387
 16 Ni   -0.14001   -0.05462   -0.05516
 17 Co    0.16979   -0.11045    0.20751
 18 Ni    0.01835    0.02205    0.09703
 19 Cr    0.12734   -0.18635    0.11063
 20 Co    0.15698   -0.09842    0.03391
 21 Ni    0.07467   -0.05672    0.18374
 22 Co   -0.11615   -0.29350   -0.04694
 23 Cr   -0.41289    0.34150   -0.12618
 24 Fe    0.16845    0.18826    0.20773
 25 Co   -0.04792    0.08455    0.17988
 26 Cr   -0.42625   -0.63320    0.40852
 27 Cr   -0.85864    0.37330   -0.14876
 28 Fe    0.06026    0.32065    0.43354
 29 Cr    0.79956    0.46685    0.23282
 30 Co   -0.20150    0.08263    0.15068
 31 Co    0.12920   -0.08058    0.18784
 32 Cr   -0.11228    0.04679    0.66354
 33 Ni   -0.12742    0.06873    0.13831
 34 Ni    0.09432    0.05962    0.09223
 35 Cr    0.13535   -0.07906    0.12754
 36 Fe   -0.33804    0.01837   -0.22873
 37 Ni   -0.14223   -0.08167   -0.00840
 38 Cr    0.10180    0.39514   -0.43430
 39 Fe    0.03328    0.20143    0.08250
 40 Fe    0.12315   -0.32906    0.08228
 41 Co    0.16458    0.37948   -0.45402
 42 Cr   -0.12489   -0.49631   -0.25932
 43 Fe    0.03020    0.37594   -0.14298
 44 Fe    0.19232   -0.27775   -0.35378
 45 Fe    0.39501    0.25453    0.16932
 46 Ni    0.03813   -0.02761   -0.06883
 47 Co   -0.09664    0.10591   -0.11025
 48 Cr   -0.50396    0.01369    0.39725
 49 Ni    0.06693   -0.00141    0.00027
 50 Fe   -0.00710    0.21139   -0.24695
 51 Co    0.20615   -0.05797    0.14210
 52 Co   -0.06518    0.11816   -0.01006
 53 Fe    0.16084    0.12994   -0.02064
 54 Fe   -0.05983    0.08130   -0.05539
 55 Ni   -0.04039   -0.06256   -0.11233
 56 Ni    0.03832   -0.04162    0.05837
 57 Fe   -0.26085   -0.18329    0.01728
 58 Co   -0.19431   -0.15048   -0.13079
 59 Ni   -0.07737   -0.03151   -0.04112
[...]
 93 Ni   -0.14201   -0.13501   -0.07840
 94 Ni   -0.04020   -0.07791    0.13063
 95 Cr   -0.27974   -0.01670    0.46073
 96 Ni    0.02519   -0.06794    0.01976
 97 Co    0.17557    0.20842   -0.03206
 98 Fe   -0.25794   -0.08085   -0.31665
 99 Cr   -0.38358   -0.32562    0.06004
100 Co    0.21760    0.10160   -0.03498
101 Cr    0.89320   -0.12483   -0.03916
102 Fe    0.06438    0.11718   -0.56529
103 Co    0.27214   -0.24611   -0.13465
104 Ni   -0.13582    0.16005   -0.09407
105 Co   -0.38398    0.36235   -0.31490
106 Cr    0.05886   -0.04218   -0.69436
107 Cr   -0.02783    0.45540    0.51315

Date: Sat Apr  8 12:34:04 2023