User:   c.zeng@d0022
Date:   Fri Apr 14 01:38:53 2023
Arch:   x86_64
Pid:    165146
CWD:    /home/c.zeng/projects/hea-corrosion/hea-mlp/data-curation/bulk-md/dft-jobs/83
Python: 3.8.1
gpaw:   /home/c.zeng/usr/installs/gpaw/source/gpaw-22.8.0/gpaw
_gpaw:  /home/c.zeng/usr/installs/gpaw/source/gpaw-22.8.0/
        _gpaw.cpython-38-x86_64-linux-gnu.so
ase:    /home/c.zeng/.local/lib/python3.8/site-packages/ase-3.22.1-py3.8.egg/ase (version 3.22.1)
numpy:  /shared/centos7/python/3.8.1/lib/python3.8/site-packages/numpy (version 1.17.4)
scipy:  /shared/centos7/python/3.8.1/lib/python3.8/site-packages/scipy (version 1.4.1)
units:  Angstrom and eV
cores: 30
OpenMP: False
OMP_NUM_THREADS: 1

Input parameters:
  convergence: {energy: 0.0001}
  kpts: [2 2 2]
  maxiter: 666
  mode: {ecut: 350.0,
         name: pw}
  occupations: {fixmagmom: False,
                name: fermi-dirac,
                width: 0.1}
  spinpol: True
  xc: PBE

System changes: positions, numbers, cell, pbc, initial_charges, initial_magmoms

Initialize ...

species:
  Al:
    name: Aluminium
    id: 0292cae29f5d6237e50f6abdd43a7bdd
    Z: 13.0
    valence: 3
    core: 10
    charge: 0.0
    file: /home/c.zeng/usr/data/gpaw-setups-0.9.20000/Al.PBE.gz
    compensation charges: {type: gauss,
                           rc: 0.34,
                           lmax: 2}
    cutoffs: {filter: 1.91,
              core: 2.36}
    valence states:
      #              energy  rcut
      - 3s(2.00)    -7.753   1.085
      - 3p(1.00)    -2.712   1.085
      -  s          19.459   1.085
      -  p          24.499   1.085
      -  d           0.000   1.085

    # Using partial waves for Al as LCAO basis

  Fe:
    name: Iron
    id: 37abbd8d6c3c35915a9b583b742da910
    Z: 26.0
    valence: 8
    core: 18
    charge: 0.0
    file: /home/c.zeng/usr/data/gpaw-setups-0.9.20000/Fe.PBE.gz
    compensation charges: {type: gauss,
                           rc: 0.33,
                           lmax: 2}
    cutoffs: {filter: 2.06,
              core: 2.67}
    valence states:
      #              energy  rcut
      - 4s(2.00)    -5.291   1.164
      - 4p(0.00)    -1.326   1.058
      - 3d(6.00)    -7.505   1.058
      -  s          21.920   1.164
      -  p          25.885   1.058
      -  d          19.706   1.058

[...]

  Cr:
    name: Chromium
    id: 33f258bda2ca9f93018e70263a35547b
    Z: 24.0
    valence: 6
    core: 18
    charge: 0.0
    file: /home/c.zeng/usr/data/gpaw-setups-0.9.20000/Cr.PBE.gz
    compensation charges: {type: gauss,
                           rc: 0.35,
                           lmax: 2}
    cutoffs: {filter: 2.14,
              core: 3.04}
    valence states:
      #              energy  rcut
      - 4s(1.00)    -4.007   1.164
      - 4p(0.00)    -0.989   1.217
      - 3d(5.00)    -2.913   1.111
      -  s          23.205   1.164
      -  p          26.223   1.217
      -  d          24.299   1.111

[...]

  Ni:
    name: Nickel
    id: 0d9f38a9d6e76a2886f07bb4381f212b
    Z: 28.0
    valence: 16
    core: 12
    charge: 0.0
    file: /home/c.zeng/usr/data/gpaw-setups-0.9.20000/Ni.PBE.gz
    compensation charges: {type: gauss,
                           rc: 0.36,
                           lmax: 2}
    cutoffs: {filter: 2.14,
              core: 1.98}
    valence states:
      #              energy  rcut
      - 4s(2.00)    -5.642   1.164
      - 3p(6.00)   -71.394   1.207
      - 4p(0.00)    -1.226   1.207
      - 3d(8.00)    -8.875   1.138
      -  s          21.570   1.164
      -  d          18.337   1.138

[...]

  Co:
    name: Cobalt
    id: 339d20d5b0b93d2de9531a1bee871d91
    Z: 27.0
    valence: 9
    core: 18
    charge: 0.0
    file: /home/c.zeng/usr/data/gpaw-setups-0.9.20000/Co.PBE.gz
    compensation charges: {type: gauss,
                           rc: 0.32,
                           lmax: 2}
    cutoffs: {filter: 1.87,
              core: 2.55}
    valence states:
      #              energy  rcut
      - 4s(2.00)    -5.469   1.005
      - 4p(0.00)    -1.277   1.058
      - 3d(7.00)    -8.205   1.005
      -  s          21.742   1.005
      -  p          25.934   1.058
      -  d          19.007   1.005

    # Using partial waves for Co as LCAO basis

Reference energy: -3235165.067515  # eV

Spin-polarized calculation.
Magnetic moment: 121.100000

Convergence criteria:
 Maximum [total energy] change in last 3 cyles: 0.0001 eV / electron
 Maximum integral of absolute [dens]ity change: 0.0001 electrons / valence electron
 Maximum integral of absolute [eigenst]ate change: 4e-08 eV^2 / valence electron
 Maximum number of scf [iter]ations: 666
 (Square brackets indicate name in SCF output, whereas a 'c' in
 the SCF output indicates the quantity has converged.)

Symmetries present (total): 1

  ( 1  0  0)
  ( 0  1  0)
  ( 0  0  1)

8 k-points: 2 x 2 x 2 Monkhorst-Pack grid
4 k-points in the irreducible part of the Brillouin zone
       k-points in crystal coordinates                weights
   0:     0.25000000   -0.25000000   -0.25000000          2/8
   1:     0.25000000   -0.25000000    0.25000000          2/8
   2:     0.25000000    0.25000000   -0.25000000          2/8
   3:     0.25000000    0.25000000    0.25000000          2/8

Wave functions: Plane wave expansion
  Cutoff energy: 350.000 eV
  Number of coefficients (min, max): 19084, 19084
  Pulay-stress correction: 0.000000 eV/Ang^3 (de/decut=0.000000)
  Using FFTW library
  ScaLapack parameters: grid=1x1, blocksize=None
  Wavefunction extrapolation:
    Improved wavefunction reuse through dual PAW basis

Occupation numbers: Fermi-Dirac:
  width: 0.1000  # eV

Eigensolver
   Davidson(niter=2)

Densities:
  Coarse grid: 48*48*48 grid
  Fine grid: 96*96*96 grid
  Total Charge: 0.000000

Density mixing:
  Method: difference
  Backend: pulay
  Linear mixing parameter: 0.05
  old densities: 5
  Damping of long wavelength oscillations: 50

Hamiltonian:
  XC and Coulomb potentials evaluated on a 96*96*96 grid
  Using the PBE Exchange-Correlation functional
  External potential:
    NoExternalPotential

XC parameters: PBE with 2 nearest neighbor stencil

Total number of cores used: 30
Parallelization over k-points: 2
Domain decomposition: 5 x 3 x 1

Number of atoms: 108
Number of atomic orbitals: 933
Number of bands in calculation: 624
Number of valence electrons: 912
Bands to converge: occupied

... initialized

Initializing position-dependent things.

Density initialized from atomic densities
Creating initial wave functions:
  624 bands from LCAO basis set

       /|   Cr      Ni             |
      / |   Cr Fe               Ni |
     /  |       Co       Ni      Al|
    /   | Fe     CFeAl     Fel     |
   /Fe  |    Fel     FCr          Co
  /    Cr  CorFe      Co     CrCr  |
 *      CrNi     CoFe CCo Ni    Al |
 |      |AlAl   NiNiFe   NFe Al   Cr
 |      | FeCr CoAlCoCr Ni Fe Cr   Fe
 |     Co  Fe NiCr  CrCr Fe  CrFe  |
 |      Al   CrAlNiNi ANi Ni   NCo |
 |Co    |CoAl   NiCo     CrCr     Al
 |  Fe  .-Ni-Co----NCol-Cr--Fe-----.
 |     /      AlAl    Co Ni  Ni Co/
 |    /Ni              Co Al     /
 |Fe /  Cro      Fe             /
 |  /      Al        Co        /
 |/             Ni       Fe  /
 *--------------------------Al

Positions:
   0 Al    10.850056    0.051283    0.112683    ( 0.0000,  0.0000,  0.0000)
   1 Fe    10.947000    1.711528    2.040168    ( 0.0000,  0.0000,  2.0000)
   2 Cr     1.932458   10.705020    1.900229    ( 0.0000,  0.0000,  0.0000)
   3 Cr     1.909613    1.757121   -0.071265    ( 0.0000,  0.0000,  0.0000)
   4 Ni     3.703342   10.979673   10.653378    ( 0.0000,  0.0000,  1.5000)
   5 Al     3.625255    1.802111    1.731692    ( 0.0000,  0.0000,  0.0000)
   6 Al     5.679782   10.757734    1.822856    ( 0.0000,  0.0000,  0.0000)
   7 Ni     5.541596    1.768512   10.963695    ( 0.0000,  0.0000,  1.5000)
   8 Fe     7.405168    0.064918   10.738439    ( 0.0000,  0.0000,  2.0000)
   9 Co     7.410594    1.748675    1.875372    ( 0.0000,  0.0000,  2.1000)
  10 Ni     9.157552   -0.000239    1.946054    ( 0.0000,  0.0000,  1.5000)
  11 Fe     9.133562    1.904846   10.902469    ( 0.0000,  0.0000,  2.0000)
  12 Fe    11.072287    3.778707   -0.013221    ( 0.0000,  0.0000,  2.0000)
  13 Co    10.857906    5.577165    1.717137    ( 0.0000,  0.0000,  2.1000)
  14 Cr     1.997505    3.671065    1.644206    ( 0.0000,  0.0000,  0.0000)
  15 Co     1.975924    5.454955   10.878535    ( 0.0000,  0.0000,  2.1000)
  16 Fe     3.762835    3.380570   -0.074333    ( 0.0000,  0.0000,  2.0000)
  17 Al     3.746111    5.511514    1.634079    ( 0.0000,  0.0000,  0.0000)
  18 Fe     5.443131    3.625748    1.798095    ( 0.0000,  0.0000,  2.0000)
  19 Fe     5.531064    5.206103   -0.034635    ( 0.0000,  0.0000,  2.0000)
  20 Cr     7.365048    3.701837   10.849020    ( 0.0000,  0.0000,  0.0000)
  21 Co     7.154026    5.414119    1.703484    ( 0.0000,  0.0000,  2.1000)
  22 Al     8.992751    3.634439    1.911589    ( 0.0000,  0.0000,  0.0000)
  23 Fe     9.183110    5.443836   -0.056611    ( 0.0000,  0.0000,  2.0000)
  24 Ni    10.688634    7.508776   -0.029645    ( 0.0000,  0.0000,  1.5000)
  25 Al    -0.031267    8.851887    1.818360    ( 0.0000,  0.0000,  0.0000)
  26 Ni     1.775466    7.332977    1.654045    ( 0.0000,  0.0000,  1.5000)
  27 Cr     1.943795    8.955660   10.794082    ( 0.0000,  0.0000,  0.0000)
  28 Fe     3.757077    7.481690   -0.078651    ( 0.0000,  0.0000,  2.0000)
  29 Ni     3.719931    8.868144    1.968670    ( 0.0000,  0.0000,  1.5000)
  30 Ni     5.485706    7.195422    1.757982    ( 0.0000,  0.0000,  1.5000)
  31 Ni     5.391504    9.173081   10.673607    ( 0.0000,  0.0000,  1.5000)
  32 Co     7.140865    7.217035    0.060768    ( 0.0000,  0.0000,  2.1000)
  33 Cr     7.201890    8.820339    1.886335    ( 0.0000,  0.0000,  0.0000)
  34 Fe     8.978044    7.135463    1.664089    ( 0.0000,  0.0000,  2.0000)
  35 Ni     8.880441    9.039251    0.195531    ( 0.0000,  0.0000,  1.5000)
  36 Fe    -0.056853   -0.151170    3.756364    ( 0.0000,  0.0000,  2.0000)
  37 Co    10.872963    1.909340    5.366925    ( 0.0000,  0.0000,  2.1000)
  38 Cr     1.624035   10.711277    5.610705    ( 0.0000,  0.0000,  0.0000)
  39 Ni     1.860974    1.662140    3.681961    ( 0.0000,  0.0000,  1.5000)
  40 Al     3.565723   10.697261    3.705274    ( 0.0000,  0.0000,  0.0000)
  41 Al     3.675799    1.804353    5.604495    ( 0.0000,  0.0000,  0.0000)
  42 Cr     5.530788   10.795138    5.374124    ( 0.0000,  0.0000,  0.0000)
  43 Al     5.420928    1.884463    3.595565    ( 0.0000,  0.0000,  0.0000)
  44 Al     7.522178   10.792936    3.601857    ( 0.0000,  0.0000,  0.0000)
  45 Co     7.258788    1.694077    5.336170    ( 0.0000,  0.0000,  2.1000)
  46 Cr     9.114425    0.174720    5.505015    ( 0.0000,  0.0000,  0.0000)
  47 Ni     9.095541    2.008930    3.669598    ( 0.0000,  0.0000,  1.5000)
  48 Fe     0.243966    3.727690    3.505730    ( 0.0000,  0.0000,  2.0000)
  49 Fe    10.624952    5.376012    5.324703    ( 0.0000,  0.0000,  2.0000)
  50 Al     1.747007    3.676186    5.419121    ( 0.0000,  0.0000,  0.0000)
  51 Co     1.690937    5.687746    3.821311    ( 0.0000,  0.0000,  2.1000)
  52 Co     3.724828    3.787590    3.666508    ( 0.0000,  0.0000,  2.1000)
  53 Ni     3.765174    5.426949    5.559678    ( 0.0000,  0.0000,  1.5000)
  54 Ni     5.304132    3.615912    5.612872    ( 0.0000,  0.0000,  1.5000)
  55 Co     5.475783    5.460861    3.553357    ( 0.0000,  0.0000,  2.1000)
  56 Al     7.190558    3.788553    3.944721    ( 0.0000,  0.0000,  0.0000)
  57 Cr     6.965959    5.651753    5.617304    ( 0.0000,  0.0000,  0.0000)
  58 Ni     9.117086    3.697928    5.489251    ( 0.0000,  0.0000,  1.5000)
  59 Cr     9.180767    5.531409    3.553861    ( 0.0000,  0.0000,  0.0000)
[...]
  93 Co     7.184821    5.270012    9.038115    ( 0.0000,  0.0000,  2.1000)
  94 Ni     9.009217    3.786703    8.978755    ( 0.0000,  0.0000,  1.5000)
  95 Fe     8.800974    5.344786    7.210422    ( 0.0000,  0.0000,  2.0000)
  96 Al    -0.357792    7.257332    7.174876    ( 0.0000,  0.0000,  0.0000)
  97 Al    -0.112536    8.976031    9.106195    ( 0.0000,  0.0000,  0.0000)
  98 Fe     1.694443    7.280918    9.072368    ( 0.0000,  0.0000,  2.0000)
  99 Co     1.873672    9.005423    7.265402    ( 0.0000,  0.0000,  2.1000)
 100 Fe     3.510732    7.382453    7.381696    ( 0.0000,  0.0000,  2.0000)
 101 Co     3.655176    9.056516    9.078779    ( 0.0000,  0.0000,  2.1000)
 102 Al     5.587799    7.344686    9.076340    ( 0.0000,  0.0000,  0.0000)
 103 Fe     5.579490    9.008766    7.345971    ( 0.0000,  0.0000,  2.0000)
 104 Co     7.123360    7.178431    7.241019    ( 0.0000,  0.0000,  2.1000)
 105 Ni     7.313708    9.066413    8.960291    ( 0.0000,  0.0000,  1.5000)
 106 Al     8.839181    7.181102    9.166577    ( 0.0000,  0.0000,  0.0000)
 107 Cr     8.776562    8.972591    7.105508    ( 0.0000,  0.0000,  0.0000)

Unit cell:
           periodic     x           y           z      points  spacing
  1. axis:    yes   10.872400    0.000000    0.000000    48     0.2265
  2. axis:    yes    0.000000   10.872400    0.000000    48     0.2265
  3. axis:    yes    0.000000    0.000000   10.872400    48     0.2265

  Lengths:  10.872400  10.872400  10.872400
  Angles:   90.000000  90.000000  90.000000

Effective grid spacing dv^(1/3) = 0.2265

     iter     time        total  log10-change:  magmom
                         energy  eigst   dens
iter:   1 01:42:55  -959.993230                  +121.3865
iter:   2 01:44:37  -847.970668  -0.20  -1.17    +65.3109
iter:   3 01:46:20  -834.460598  -0.86  -1.20    +55.4798
iter:   4 01:48:03  -820.813916  -1.26  -1.26    +51.7972
iter:   5 01:49:45  -811.105833  -1.52  -1.29    +49.4083
iter:   6 01:51:28  -806.977618  -1.34  -1.35    +49.5166
iter:   7 01:53:10  -808.845178  -1.29  -1.45    +48.7027
iter:   8 01:54:53  -799.167483  -1.66  -1.51    +48.1418
iter:   9 01:56:36  -797.994957  -2.08  -1.68    +49.1579
iter:  10 01:58:18  -797.679506  -2.40  -1.75    +50.1137
iter:  11 02:00:00  -798.041328  -2.47  -1.78    +50.7839
iter:  12 02:01:42  -799.141965  -2.33  -1.81    +51.9690
iter:  13 02:03:25  -798.119346  -2.42  -1.82    +52.2242
iter:  14 02:05:07  -798.046229  -2.55  -1.92    +52.4536
iter:  15 02:06:50  -797.870862  -2.81  -1.97    +52.7995
iter:  16 02:08:32  -798.174464  -2.82  -2.04    +53.1395
iter:  17 02:10:15  -797.948002  -2.96  -2.05    +53.2114
iter:  18 02:11:59  -798.002609  -2.91  -2.11    +53.2143
iter:  19 02:13:41  -798.102620  -3.00  -2.17    +53.4089
iter:  20 02:15:24  -797.964764  -3.05  -2.21    +53.1909
iter:  21 02:17:07  -797.890620  -3.29  -2.27    +53.0937
iter:  22 02:18:51  -797.904606c -3.30  -2.35    +52.9302
iter:  23 02:20:35  -797.996964  -3.38  -2.39    +52.7788
iter:  24 02:22:20  -797.930771  -3.55  -2.39    +52.5845
iter:  25 02:24:03  -798.035845  -3.54  -2.47    +52.2809
iter:  26 02:25:47  -798.014824  -3.63  -2.46    +52.2323
iter:  27 02:27:31  -798.053483c -3.70  -2.51    +51.8345
iter:  28 02:29:14  -798.081479c -3.77  -2.55    +51.6674
iter:  29 02:30:58  -798.118302c -3.79  -2.58    +51.4016
iter:  30 02:32:42  -798.174172  -3.79  -2.62    +51.1436
iter:  31 02:34:26  -798.185123c -3.99  -2.62    +50.9604
iter:  32 02:36:10  -798.235794c -3.91  -2.68    +50.6560
iter:  33 02:37:54  -798.249881c -4.08  -2.69    +50.6061
iter:  34 02:39:37  -798.268247c -4.22  -2.71    +50.3473
iter:  35 02:41:20  -798.314731c -4.12  -2.76    +50.1544
iter:  36 02:43:02  -798.327302c -4.50  -2.75    +50.0280
iter:  37 02:44:46  -798.366820c -4.23  -2.78    +49.8356
iter:  38 02:46:30  -798.407587c -4.20  -2.77    +49.7222
iter:  39 02:48:13  -798.482330  -3.72  -2.75    +49.6752
iter:  40 02:49:58  -798.564983  -3.58  -2.68    +49.8435
iter:  41 02:51:42  -798.531621c -4.06  -2.63    +49.8715
iter:  42 02:53:26  -798.518393c -4.19  -2.71    +50.1160
iter:  43 02:55:11  -798.523486c -4.53  -2.79    +50.2741
iter:  44 02:56:55  -798.663062  -3.42  -2.80    +50.4018
iter:  45 02:58:40  -798.467619  -3.83  -2.58    +50.4014
iter:  46 03:00:24  -798.472868  -4.63  -2.96    +50.2829
iter:  47 03:02:08  -798.479735c -4.68  -3.01    +50.2730
iter:  48 03:03:51  -798.483549c -4.60  -3.00    +50.2187
iter:  49 03:05:36  -798.480922c -4.59  -3.06    +50.2665
iter:  50 03:07:20  -798.490259c -4.53  -3.15    +50.2600
iter:  51 03:09:04  -798.483679c -4.77  -3.12    +50.2827
iter:  52 03:10:48  -798.483603c -4.95  -3.25    +50.3261
iter:  53 03:12:32  -798.487819c -4.99  -3.30    +50.3481
iter:  54 03:14:15  -798.486877c -5.20  -3.31    +50.3793
iter:  55 03:16:00  -798.488317c -5.27  -3.37    +50.4031
iter:  56 03:17:43  -798.489629c -5.38  -3.38    +50.4328
iter:  57 03:19:25  -798.490741c -5.36  -3.42    +50.4657
iter:  58 03:21:09  -798.492811c -5.53  -3.44    +50.5063
iter:  59 03:22:53  -798.492668c -5.65  -3.47    +50.5296
iter:  60 03:24:38  -798.494620c -5.54  -3.51    +50.5534
iter:  61 03:26:22  -798.495475c -5.80  -3.50    +50.5792
iter:  62 03:28:06  -798.496826c -5.72  -3.54    +50.6135
iter:  63 03:29:50  -798.498357c -5.60  -3.56    +50.6474
iter:  64 03:31:34  -798.498025c -5.79  -3.54    +50.6598
iter:  65 03:33:18  -798.499879c -5.76  -3.58    +50.6915
iter:  66 03:35:00  -798.501153c -5.61  -3.63    +50.7179
iter:  67 03:36:45  -798.501103c -5.72  -3.57    +50.7205
iter:  68 03:38:28  -798.501519c -5.82  -3.62    +50.7364
iter:  69 03:40:12  -798.502310c -5.81  -3.65    +50.7562
iter:  70 03:41:57  -798.503177c -5.98  -3.65    +50.7809
iter:  71 03:43:41  -798.503028c -6.13  -3.69    +50.7979
iter:  72 03:45:25  -798.503626c -6.24  -3.71    +50.8151
iter:  73 03:47:09  -798.504968c -5.87  -3.70    +50.8528
iter:  74 03:48:52  -798.504850c -5.95  -3.61    +50.8327
iter:  75 03:50:36  -798.506350c -5.54  -3.61    +50.8819
iter:  76 03:52:21  -798.507850c -5.40  -3.60    +50.8924
iter:  77 03:54:04  -798.505802c -5.51  -3.57    +50.9118
iter:  78 03:55:48  -798.505712c -5.97  -3.63    +50.9045
iter:  79 03:57:32  -798.506406c -5.66  -3.75    +50.9267
iter:  80 03:59:14  -798.506236c -5.98  -3.69    +50.9210
iter:  81 04:00:57  -798.505994c -6.20  -3.80    +50.9191
iter:  82 04:02:41  -798.505806c -6.07  -3.91    +50.9202
iter:  83 04:04:26  -798.507343c -5.82  -3.92    +50.9267
iter:  84 04:06:10  -798.506228c -6.27  -3.82    +50.9410
iter:  85 04:07:55  -798.506350c -6.41  -4.19c   +50.9459
iter:  86 04:09:39  -798.506288c -6.61  -4.09c   +50.9498
iter:  87 04:11:24  -798.506401c -6.83  -4.18c   +50.9593
iter:  88 04:13:09  -798.506547c -7.13  -4.31c   +50.9672
iter:  89 04:14:54  -798.506794c -6.83  -4.32c   +50.9785
iter:  90 04:16:41  -798.507082c -6.31  -4.28c   +51.0048
iter:  91 04:18:33  -798.507164c -6.68  -4.22c   +51.0155
iter:  92 04:20:32  -798.506998c -7.25  -4.12c   +50.9964
iter:  93 04:22:25  -798.507366c -6.47  -4.14c   +51.0427
iter:  94 04:24:19  -798.507620c -6.08  -4.07c   +51.0933
iter:  95 04:26:14  -798.507648c -7.02  -4.01c   +51.0765
iter:  96 04:28:08  -798.507793c -6.91  -4.11c   +51.0852
iter:  97 04:30:02  -798.507690c -6.94  -4.05c   +51.0865
iter:  98 04:31:57  -798.507830c -6.00  -4.13c   +51.0993
iter:  99 04:33:51  -798.507770c -6.50  -3.95    +51.0966
iter: 100 04:35:55  -798.508126c -6.36  -4.23c   +51.0931
iter: 101 04:38:03  -798.507674c -6.79  -4.11c   +51.0935
iter: 102 04:39:58  -798.507666c -6.90  -4.35c   +51.0951
iter: 103 04:41:53  -798.507701c -7.23  -4.34c   +51.0985
iter: 104 04:43:49  -798.507702c -7.59c -4.50c   +51.0984

Converged after 104 iterations.

Dipole moment: (49.346317, 34.572363, 25.945043) |e|*Ang

Total magnetic moment: (0.000000, 0.000000, 51.098353)
Local magnetic moments:
   0 Al ( 0.000000,  0.000000, -0.010429)
   1 Fe ( 0.000000,  0.000000,  2.358684)
   2 Cr ( 0.000000,  0.000000, -2.379743)
   3 Cr ( 0.000000,  0.000000,  1.675114)
   4 Ni ( 0.000000,  0.000000,  0.194206)
   5 Al ( 0.000000,  0.000000, -0.009691)
   6 Al ( 0.000000,  0.000000, -0.013607)
   7 Ni ( 0.000000,  0.000000,  0.349551)
   8 Fe ( 0.000000,  0.000000,  2.544843)
   9 Co ( 0.000000,  0.000000,  0.939862)
  10 Ni ( 0.000000,  0.000000,  0.290415)
  11 Fe ( 0.000000,  0.000000,  2.191942)
  12 Fe ( 0.000000,  0.000000,  2.279091)
  13 Co ( 0.000000,  0.000000,  1.378034)
  14 Cr ( 0.000000,  0.000000, -2.169890)
  15 Co ( 0.000000,  0.000000,  0.755915)
  16 Fe ( 0.000000,  0.000000,  1.939939)
  17 Al ( 0.000000,  0.000000, -0.028588)
  18 Fe ( 0.000000,  0.000000,  2.194702)
  19 Fe ( 0.000000,  0.000000,  2.024074)
  20 Cr ( 0.000000,  0.000000, -1.965465)
  21 Co ( 0.000000,  0.000000,  1.068790)
  22 Al ( 0.000000,  0.000000, -0.031439)
  23 Fe ( 0.000000,  0.000000,  1.932383)
  24 Ni ( 0.000000,  0.000000,  0.044926)
  25 Al ( 0.000000,  0.000000, -0.016837)
  26 Ni ( 0.000000,  0.000000,  0.251427)
  27 Cr ( 0.000000,  0.000000,  0.011154)
  28 Fe ( 0.000000,  0.000000,  2.072209)
  29 Ni ( 0.000000,  0.000000,  0.182250)
  30 Ni ( 0.000000,  0.000000,  0.267474)
  31 Ni ( 0.000000,  0.000000,  0.342209)
  32 Co ( 0.000000,  0.000000,  1.104911)
  33 Cr ( 0.000000,  0.000000, -1.612873)
  34 Fe ( 0.000000,  0.000000,  1.746649)
  35 Ni ( 0.000000,  0.000000,  0.252048)
  36 Fe ( 0.000000,  0.000000,  1.921775)
  37 Co ( 0.000000,  0.000000,  1.060799)
  38 Cr ( 0.000000,  0.000000, -1.683454)
  39 Ni ( 0.000000,  0.000000,  0.038202)
  40 Al ( 0.000000,  0.000000,  0.004626)
  41 Al ( 0.000000,  0.000000,  0.002595)
  42 Cr ( 0.000000,  0.000000, -1.762791)
  43 Al ( 0.000000,  0.000000, -0.004402)
  44 Al ( 0.000000,  0.000000, -0.005097)
  45 Co ( 0.000000,  0.000000,  0.111204)
  46 Cr ( 0.000000,  0.000000, -1.520014)
  47 Ni ( 0.000000,  0.000000,  0.195214)
  48 Fe ( 0.000000,  0.000000,  2.297146)
  49 Fe ( 0.000000,  0.000000,  1.918698)
  50 Al ( 0.000000,  0.000000, -0.030228)
  51 Co ( 0.000000,  0.000000,  1.383159)
  52 Co ( 0.000000,  0.000000,  1.220867)
  53 Ni ( 0.000000,  0.000000,  0.356542)
  54 Ni ( 0.000000,  0.000000,  0.114897)
  55 Co ( 0.000000,  0.000000,  1.039160)
  56 Al ( 0.000000,  0.000000, -0.006454)
  57 Cr ( 0.000000,  0.000000, -1.101143)
  58 Ni ( 0.000000,  0.000000,  0.268692)
  59 Cr ( 0.000000,  0.000000, -1.525905)
[...]
  93 Co ( 0.000000,  0.000000,  1.060707)
  94 Ni ( 0.000000,  0.000000,  0.153065)
  95 Fe ( 0.000000,  0.000000,  1.828560)
  96 Al ( 0.000000,  0.000000, -0.028692)
  97 Al ( 0.000000,  0.000000, -0.009432)
  98 Fe ( 0.000000,  0.000000,  1.771085)
  99 Co ( 0.000000,  0.000000,  1.013707)
 100 Fe ( 0.000000,  0.000000,  2.365184)
 101 Co ( 0.000000,  0.000000,  1.281975)
 102 Al ( 0.000000,  0.000000, -0.042645)
 103 Fe ( 0.000000,  0.000000,  2.452981)
 104 Co ( 0.000000,  0.000000,  0.812832)
 105 Ni ( 0.000000,  0.000000,  0.310225)
 106 Al ( 0.000000,  0.000000, -0.026474)
 107 Cr ( 0.000000,  0.000000,  0.980380)

Energy contributions relative to reference atoms: (reference = -3235165.067515)

Kinetic:       +366.606568
Potential:     -336.120233
External:        +0.000000
XC:            -858.247330
Entropy (-ST):   -4.002973
Local:          +31.254779
Free energy:   -800.509189
Extrapolated:  -798.507702

Spin contamination: 28.604405 electrons
Showing only first 2 kpts
                      Up                     Down
 Kpt  Band  Eigenvalues  Occupancy  Eigenvalues  Occupancy
  0   454      9.04079    0.99431      9.88409    0.03662
  0   455      9.04881    0.99384      9.90451    0.03006
  0   456      9.07096    0.99232      9.91666    0.02671
  0   457      9.08857    0.99085      9.92643    0.02428

  1   454      9.03364    0.99470      9.88016    0.03803
  1   455      9.05321    0.99356      9.89042    0.03445
  1   456      9.07758    0.99180      9.90399    0.03021
  1   457      9.09976    0.98978      9.92611    0.02436

Fermi level: 9.55709

No gap

Forces in eV/Ang:
  0 Al   -0.56165   -0.44577   -0.01630
  1 Fe    0.12614    0.63634   -0.82426
  2 Cr   -1.02069   -0.03797   -1.05284
  3 Cr   -1.51702   -0.23670    0.09649
  4 Ni   -0.36355   -0.35895    0.22683
  5 Al    0.28206   -0.60178    0.67733
  6 Al   -1.25739    0.60223   -1.68574
  7 Ni    0.57576   -0.13685   -0.47695
  8 Fe   -0.14792   -0.22857    0.88443
  9 Co   -0.80535    0.43226   -0.37134
 10 Ni   -0.05839   -0.08833   -0.89680
 11 Fe   -0.46504    0.18540    0.39975
 12 Fe   -0.90794   -0.35771    0.17721
 13 Co    0.75847   -0.39813    0.11956
 14 Cr   -1.50826   -0.07079    0.71279
 15 Co   -1.13736    0.23683    0.06506
 16 Fe   -0.08984    1.92882   -0.16244
 17 Al   -0.40701    0.08880    0.48828
 18 Fe    0.50435   -0.23584    0.34248
 19 Fe    0.14017    0.95184   -0.32345
 20 Cr   -0.70830   -0.85684   -0.42719
 21 Co    0.57755   -0.11808    0.66142
 22 Al    1.12043    0.13425   -0.58500
 23 Fe   -0.87420   -0.58362    0.34853
 24 Ni    1.29952   -2.04543   -0.30606
 25 Al    0.28971    0.70938    0.36738
 26 Ni    0.52898   -0.84288    0.87109
 27 Cr   -0.27055    0.84214    0.00258
 28 Fe   -0.74378   -1.11205    0.63022
 29 Ni   -0.86142    0.80343   -0.97467
 30 Ni   -0.55347   -0.41511   -0.23624
 31 Ni    1.25038    0.32950    1.22407
 32 Co    0.27103   -0.16022   -0.12171
 33 Cr    0.51141    0.56939   -0.59984
 34 Fe   -0.16026   -0.65619    0.76262
 35 Ni    0.27987    0.87163   -1.03528
 36 Fe    0.22910    0.65107    0.13868
 37 Co    0.19941   -0.63691    0.34654
 38 Cr    0.38354    0.62150   -0.08500
 39 Ni    0.44645    0.46949    0.24229
 40 Al   -0.03164    0.26114    0.38580
 41 Al   -1.23556   -0.11464   -0.16029
 42 Cr    0.11405   -0.20674    0.57348
 43 Al    0.66228    0.19670    0.87942
 44 Al   -0.64557    0.51702    0.50898
 45 Co   -0.25120    0.52035    0.17669
 46 Cr    0.62000   -0.63534   -0.46395
 47 Ni    0.41926   -0.67204    0.02564
 48 Fe   -0.88124   -0.34671   -0.31856
 49 Fe    1.15420    0.76545    1.22921
 50 Al    0.82208    0.02737   -0.27002
 51 Co    0.70879   -0.93027   -0.94012
 52 Co   -0.67475   -0.20955   -0.48026
 53 Ni   -1.22286    0.49499   -0.45447
 54 Ni    0.92583    0.00725   -0.56765
 55 Co   -0.77728   -0.41645    0.51101
 56 Al    0.29557   -0.48861   -0.75642
 57 Cr    0.58382   -0.73263   -0.66043
 58 Ni   -1.03174   -0.40227   -0.65075
 59 Cr   -1.09683   -0.14104    0.44563
[...]
 93 Co   -0.21790    0.52723    0.09460
 94 Ni    0.52760   -1.15993    0.71521
 95 Fe    0.55469    0.49947    0.00652
 96 Al    1.51210   -1.55654    0.28926
 97 Al   -0.46286    1.36693   -0.85399
 98 Fe    0.24851   -0.14168    0.27468
 99 Co   -0.68371    0.44161   -0.04844
100 Fe    0.85836   -0.78243   -0.55194
101 Co   -0.54000    0.72986   -0.71805
102 Al   -0.10183   -1.02065    0.37420
103 Fe   -0.51997    1.26557   -1.59677
104 Co    0.21544    0.56632    0.00685
105 Ni    0.13458    0.78594    1.16180
106 Al   -1.08553    0.39993   -0.14008
107 Cr    1.03456    0.59297    0.24584

Date: Fri Apr 14 04:44:12 2023