User:   c.zeng@d0098
Date:   Mon Apr 17 04:23:29 2023
Arch:   x86_64
Pid:    121797
CWD:    /home/c.zeng/projects/hea-corrosion/hea-mlp/data-curation/bulk-mcmc/dft-jobs/208
Python: 3.8.1
gpaw:   /home/c.zeng/usr/installs/gpaw/source/gpaw-22.8.0/gpaw
_gpaw:  /home/c.zeng/usr/installs/gpaw/source/gpaw-22.8.0/
        _gpaw.cpython-38-x86_64-linux-gnu.so
ase:    /home/c.zeng/.local/lib/python3.8/site-packages/ase-3.22.1-py3.8.egg/ase (version 3.22.1)
numpy:  /home/c.zeng/.local/lib/python3.8/site-packages/numpy (version 1.24.2)
scipy:  /home/c.zeng/.local/lib/python3.8/site-packages/scipy (version 1.10.1)
units:  Angstrom and eV
cores: 30
OpenMP: False
OMP_NUM_THREADS: 1

Input parameters:
  convergence: {energy: 0.0001}
  kpts: [2 2 2]
  maxiter: 666
  mode: {ecut: 350.0,
         name: pw}
  occupations: {fixmagmom: False,
                name: fermi-dirac,
                width: 0.1}
  spinpol: True
  xc: PBE

System changes: positions, numbers, cell, pbc, initial_charges, initial_magmoms

Initialize ...

species:
  Cr:
    name: Chromium
    id: 33f258bda2ca9f93018e70263a35547b
    Z: 24.0
    valence: 6
    core: 18
    charge: 0.0
    file: /home/c.zeng/usr/data/gpaw-setups-0.9.20000/Cr.PBE.gz
    compensation charges: {type: gauss,
                           rc: 0.35,
                           lmax: 2}
    cutoffs: {filter: 2.14,
              core: 3.04}
    valence states:
      #              energy  rcut
      - 4s(1.00)    -4.007   1.164
      - 4p(0.00)    -0.989   1.217
      - 3d(5.00)    -2.913   1.111
      -  s          23.205   1.164
      -  p          26.223   1.217
      -  d          24.299   1.111

    # Using partial waves for Cr as LCAO basis

  Al:
    name: Aluminium
    id: 0292cae29f5d6237e50f6abdd43a7bdd
    Z: 13.0
    valence: 3
    core: 10
    charge: 0.0
    file: /home/c.zeng/usr/data/gpaw-setups-0.9.20000/Al.PBE.gz
    compensation charges: {type: gauss,
                           rc: 0.34,
                           lmax: 2}
    cutoffs: {filter: 1.91,
              core: 2.36}
    valence states:
      #              energy  rcut
      - 3s(2.00)    -7.753   1.085
      - 3p(1.00)    -2.712   1.085
      -  s          19.459   1.085
      -  p          24.499   1.085
      -  d           0.000   1.085

[...]

  Ni:
    name: Nickel
    id: 0d9f38a9d6e76a2886f07bb4381f212b
    Z: 28.0
    valence: 16
    core: 12
    charge: 0.0
    file: /home/c.zeng/usr/data/gpaw-setups-0.9.20000/Ni.PBE.gz
    compensation charges: {type: gauss,
                           rc: 0.36,
                           lmax: 2}
    cutoffs: {filter: 2.14,
              core: 1.98}
    valence states:
      #              energy  rcut
      - 4s(2.00)    -5.642   1.164
      - 3p(6.00)   -71.394   1.207
      - 4p(0.00)    -1.226   1.207
      - 3d(8.00)    -8.875   1.138
      -  s          21.570   1.164
      -  d          18.337   1.138

[...]

  Co:
    name: Cobalt
    id: 339d20d5b0b93d2de9531a1bee871d91
    Z: 27.0
    valence: 9
    core: 18
    charge: 0.0
    file: /home/c.zeng/usr/data/gpaw-setups-0.9.20000/Co.PBE.gz
    compensation charges: {type: gauss,
                           rc: 0.32,
                           lmax: 2}
    cutoffs: {filter: 1.87,
              core: 2.55}
    valence states:
      #              energy  rcut
      - 4s(2.00)    -5.469   1.005
      - 4p(0.00)    -1.277   1.058
      - 3d(7.00)    -8.205   1.005
      -  s          21.742   1.005
      -  p          25.934   1.058
      -  d          19.007   1.005

[...]

  Fe:
    name: Iron
    id: 37abbd8d6c3c35915a9b583b742da910
    Z: 26.0
    valence: 8
    core: 18
    charge: 0.0
    file: /home/c.zeng/usr/data/gpaw-setups-0.9.20000/Fe.PBE.gz
    compensation charges: {type: gauss,
                           rc: 0.33,
                           lmax: 2}
    cutoffs: {filter: 2.06,
              core: 2.67}
    valence states:
      #              energy  rcut
      - 4s(2.00)    -5.291   1.164
      - 4p(0.00)    -1.326   1.058
      - 3d(6.00)    -7.505   1.058
      -  s          21.920   1.164
      -  p          25.885   1.058
      -  d          19.706   1.058

    # Using partial waves for Fe as LCAO basis

Reference energy: -3235165.067515  # eV

Spin-polarized calculation.
Magnetic moment: 121.100000

Convergence criteria:
 Maximum [total energy] change in last 3 cyles: 0.0001 eV / electron
 Maximum integral of absolute [dens]ity change: 0.0001 electrons / valence electron
 Maximum integral of absolute [eigenst]ate change: 4e-08 eV^2 / valence electron
 Maximum number of scf [iter]ations: 666
 (Square brackets indicate name in SCF output, whereas a 'c' in
 the SCF output indicates the quantity has converged.)

Symmetries present (total): 1

  ( 1  0  0)
  ( 0  1  0)
  ( 0  0  1)

8 k-points: 2 x 2 x 2 Monkhorst-Pack grid
4 k-points in the irreducible part of the Brillouin zone
       k-points in crystal coordinates                weights
   0:     0.25000000   -0.25000000   -0.25000000          2/8
   1:     0.25000000   -0.25000000    0.25000000          2/8
   2:     0.25000000    0.25000000   -0.25000000          2/8
   3:     0.25000000    0.25000000    0.25000000          2/8

Wave functions: Plane wave expansion
  Cutoff energy: 350.000 eV
  Number of coefficients (min, max): 19084, 19084
  Pulay-stress correction: 0.000000 eV/Ang^3 (de/decut=0.000000)
  Using FFTW library
  ScaLapack parameters: grid=1x1, blocksize=None
  Wavefunction extrapolation:
    Improved wavefunction reuse through dual PAW basis

Occupation numbers: Fermi-Dirac:
  width: 0.1000  # eV

Eigensolver
   Davidson(niter=2)

Densities:
  Coarse grid: 48*48*48 grid
  Fine grid: 96*96*96 grid
  Total Charge: 0.000000

Density mixing:
  Method: difference
  Backend: pulay
  Linear mixing parameter: 0.05
  old densities: 5
  Damping of long wavelength oscillations: 50

Hamiltonian:
  XC and Coulomb potentials evaluated on a 96*96*96 grid
  Using the PBE Exchange-Correlation functional
  External potential:
    NoExternalPotential

XC parameters: PBE with 2 nearest neighbor stencil

Total number of cores used: 30
Parallelization over k-points: 2
Domain decomposition: 5 x 3 x 1

Number of atoms: 108
Number of atomic orbitals: 933
Number of bands in calculation: 624
Number of valence electrons: 912
Bands to converge: occupied

... initialized

Initializing position-dependent things.

Density initialized from atomic densities
Creating initial wave functions:
  624 bands from LCAO basis set

        .--------Al----------------.
       /|           Fe             |
      / |    FeFe     Ni           |
     / Ni       Cr       Al        |
    /   |Fe      CrCo       Fe     |
   /    | NiNi      ACo            |
  /    Co  FerAlAl    Co Fe  CoAl  |
 *      Fe     AlCoAl   NiFe     Cr|
 |      |FeCr   NiFeFe   AlCrCr   Co
 |      | CoCr   AlCoCoAl NiNiFe   |
 |     Fe  Al CoCo  CrCr Ni  CrCr  |
 |      Cr  Ni CrNiCo CoNiCoAl   Fe|
 |      |NiCo   CoAlAl   CoNiFe   Fe
 |      .-FeNi-----NiNi-Al--CrFe---.
 |     Al  Cr CoCr    Al Co  Ni Ni/
 |    / Co              Cr       Cr
 |   /           Ali      NiFe  /
 |  /      Ni       Fe     CrAl/
 | /                   Fe     /r
 *--------------------------Cr

Positions:
   0 Cr    10.797848    0.093654    0.085777    ( 0.0000,  0.0000,  0.0000)
   1 Al    10.831824    1.844742    1.870716    ( 0.0000,  0.0000,  2.0000)
   2 Ni     1.786803   10.847372    1.827335    ( 0.0000,  0.0000,  0.0000)
   3 Co     1.769614    1.870531   -0.031264    ( 0.0000,  0.0000,  0.0000)
   4 Al     3.620857   10.822050   10.833629    ( 0.0000,  0.0000,  1.5000)
   5 Ni     3.571246    1.883176    1.708402    ( 0.0000,  0.0000,  0.0000)
   6 Co     5.521103   10.788063    1.666217    ( 0.0000,  0.0000,  0.0000)
   7 Al     5.520831    1.813973   10.830911    ( 0.0000,  0.0000,  1.5000)
   8 Al     7.330846    0.011025   10.815657    ( 0.0000,  0.0000,  2.0000)
   9 Fe     7.282018    1.809483    1.793250    ( 0.0000,  0.0000,  2.1000)
  10 Fe     9.029996    0.022005    1.811918    ( 0.0000,  0.0000,  1.5000)
  11 Fe     9.007196    1.868639   10.825714    ( 0.0000,  0.0000,  2.0000)
  12 Cr    10.861310    3.649723    0.014171    ( 0.0000,  0.0000,  2.0000)
  13 Ni    10.867442    5.463468    1.819235    ( 0.0000,  0.0000,  2.1000)
  14 Co     1.756088    3.650267    1.845949    ( 0.0000,  0.0000,  0.0000)
  15 Fe     1.790358    5.439092   10.869084    ( 0.0000,  0.0000,  2.1000)
  16 Ni     3.687842    3.622792   -0.049287    ( 0.0000,  0.0000,  2.0000)
  17 Co     3.667347    5.391145    1.745368    ( 0.0000,  0.0000,  0.0000)
  18 Al     5.497977    3.634415    1.792370    ( 0.0000,  0.0000,  2.0000)
  19 Ni     5.524908    5.448029    0.002551    ( 0.0000,  0.0000,  2.0000)
  20 Co     7.223340    3.611877   10.834270    ( 0.0000,  0.0000,  0.0000)
  21 Al     7.217762    5.474830    1.807776    ( 0.0000,  0.0000,  2.1000)
  22 Ni     9.073442    3.654344    1.775148    ( 0.0000,  0.0000,  0.0000)
  23 Cr     9.008740    5.418608    0.007692    ( 0.0000,  0.0000,  2.0000)
  24 Cr    10.859190    7.178720    0.014480    ( 0.0000,  0.0000,  1.5000)
  25 Fe    -0.018106    8.970948    1.875391    ( 0.0000,  0.0000,  0.0000)
  26 Fe     1.817615    7.224025    1.802546    ( 0.0000,  0.0000,  1.5000)
  27 Cr     1.880729    8.993464   10.874031    ( 0.0000,  0.0000,  0.0000)
  28 Fe     3.684428    7.260447   -0.001356    ( 0.0000,  0.0000,  2.0000)
  29 Co     3.612616    9.025636    1.761807    ( 0.0000,  0.0000,  1.5000)
  30 Ni     5.481440    7.275114    1.811211    ( 0.0000,  0.0000,  1.5000)
  31 Fe     5.461261    9.048153   10.833988    ( 0.0000,  0.0000,  1.5000)
  32 Cr     7.245704    7.257881    0.056891    ( 0.0000,  0.0000,  2.1000)
  33 Co     7.301969    9.004609    1.790315    ( 0.0000,  0.0000,  0.0000)
  34 Cr     9.029343    7.181775    1.815549    ( 0.0000,  0.0000,  2.0000)
  35 Ni     9.030561    9.042010    0.020232    ( 0.0000,  0.0000,  1.5000)
  36 Fe    -0.031046    0.001947    3.645701    ( 0.0000,  0.0000,  2.0000)
  37 Fe    10.825910    1.804351    5.434602    ( 0.0000,  0.0000,  2.1000)
  38 Cr     1.743552   10.849296    5.484376    ( 0.0000,  0.0000,  0.0000)
  39 Al     1.769755    1.791891    3.636068    ( 0.0000,  0.0000,  1.5000)
  40 Al     3.516667   10.719828    3.663227    ( 0.0000,  0.0000,  0.0000)
  41 Co     3.644244    1.785205    5.586728    ( 0.0000,  0.0000,  0.0000)
  42 Al     5.484778   10.815439    5.504022    ( 0.0000,  0.0000,  0.0000)
  43 Cr     5.457934    1.842230    3.658769    ( 0.0000,  0.0000,  0.0000)
  44 Ni     7.360615   10.815439    3.672229    ( 0.0000,  0.0000,  0.0000)
  45 Al     7.266884    1.811614    5.485528    ( 0.0000,  0.0000,  2.1000)
  46 Al     9.077986    0.023590    5.491921    ( 0.0000,  0.0000,  0.0000)
  47 Co     9.066788    1.824226    3.671175    ( 0.0000,  0.0000,  1.5000)
  48 Fe    -0.047135    3.649615    3.617291    ( 0.0000,  0.0000,  2.0000)
  49 Cr    10.809264    5.435993    5.379805    ( 0.0000,  0.0000,  2.0000)
  50 Cr     1.752316    3.624989    5.344676    ( 0.0000,  0.0000,  0.0000)
  51 Ni     1.805786    5.472046    3.619389    ( 0.0000,  0.0000,  2.1000)
  52 Ni     3.649408    3.633491    3.631251    ( 0.0000,  0.0000,  2.1000)
  53 Co     3.657628    5.433797    5.434015    ( 0.0000,  0.0000,  1.5000)
  54 Ni     5.413368    3.672642    5.480309    ( 0.0000,  0.0000,  1.5000)
  55 Al     5.413835    5.465588    3.639666    ( 0.0000,  0.0000,  2.1000)
  56 Ni     7.223449    3.731734    3.720829    ( 0.0000,  0.0000,  0.0000)
  57 Cr     7.220557    5.483180    5.485572    ( 0.0000,  0.0000,  0.0000)
  58 Co     9.069039    3.623673    5.469720    ( 0.0000,  0.0000,  1.5000)
  59 Ni     9.064766    5.503837    3.636731    ( 0.0000,  0.0000,  0.0000)
[...]
  93 Co     7.214631    5.385893    9.048577    ( 0.0000,  0.0000,  2.1000)
  94 Fe     8.994291    3.655975    9.039237    ( 0.0000,  0.0000,  1.5000)
  95 Cr     9.006577    5.423262    7.223296    ( 0.0000,  0.0000,  2.0000)
  96 Cr    -0.070637    7.291956    7.110419    ( 0.0000,  0.0000,  0.0000)
  97 Ni     0.073012    9.104570    9.068375    ( 0.0000,  0.0000,  0.0000)
  98 Ni     1.863247    7.257381    9.054785    ( 0.0000,  0.0000,  2.0000)
  99 Fe     1.858343    9.053708    7.225808    ( 0.0000,  0.0000,  2.1000)
 100 Al     3.683906    7.292456    7.235550    ( 0.0000,  0.0000,  2.0000)
 101 Cr     3.628218    9.069550    9.051262    ( 0.0000,  0.0000,  2.1000)
 102 Co     5.530605    7.331890    9.040129    ( 0.0000,  0.0000,  0.0000)
 103 Al     5.476232    9.097209    7.250467    ( 0.0000,  0.0000,  2.0000)
 104 Ni     7.256827    7.264242    7.208456    ( 0.0000,  0.0000,  2.1000)
 105 Al     7.272548    9.136437    9.056861    ( 0.0000,  0.0000,  1.5000)
 106 Fe     8.936493    7.190875    9.109767    ( 0.0000,  0.0000,  0.0000)
 107 Co     8.994682    9.112169    7.218480    ( 0.0000,  0.0000,  0.0000)

Unit cell:
           periodic     x           y           z      points  spacing
  1. axis:    yes   10.872400    0.000000    0.000000    48     0.2265
  2. axis:    yes    0.000000   10.872400    0.000000    48     0.2265
  3. axis:    yes    0.000000    0.000000   10.872400    48     0.2265

  Lengths:  10.872400  10.872400  10.872400
  Angles:   90.000000  90.000000  90.000000

Effective grid spacing dv^(1/3) = 0.2265

     iter     time        total  log10-change:  magmom
                         energy  eigst   dens
iter:   1 04:28:11  -939.185733                  +120.1376
iter:   2 04:30:19  -852.296595  -0.25  -1.24    +79.4498
iter:   3 04:32:28  -842.427853  -0.73  -1.24    +44.5134
iter:   4 04:34:36  -818.850909  -1.10  -1.28    +41.8171
iter:   5 04:36:45  -813.137013  -1.61  -1.35    +38.7933
iter:   6 04:38:53  -813.106953  -1.69  -1.40    +37.3107
iter:   7 04:41:02  -806.254713  -1.50  -1.43    +36.4834
iter:   8 04:43:10  -804.831794  -1.78  -1.53    +36.9413
iter:   9 04:45:19  -808.407905  -1.82  -1.63    +37.3458
iter:  10 04:47:28  -805.926862  -1.90  -1.61    +37.5496
iter:  11 04:49:36  -804.877712  -2.12  -1.70    +38.1752
iter:  12 04:51:45  -802.694407  -2.41  -1.73    +38.9482
iter:  13 04:53:54  -805.009626  -2.38  -1.87    +40.0479
iter:  14 04:56:03  -803.742095  -2.41  -1.82    +40.6237
iter:  15 04:58:10  -804.845521  -2.49  -1.90    +41.7868
iter:  16 05:00:18  -805.076925  -2.38  -1.90    +42.1176
iter:  17 05:02:27  -805.126496  -2.44  -1.92    +42.7672
iter:  18 05:04:35  -803.685501  -2.72  -1.94    +43.3852
iter:  19 05:06:43  -804.195929  -2.92  -2.06    +44.1265
iter:  20 05:08:52  -804.132533  -2.91  -2.06    +44.4313
iter:  21 05:11:00  -803.990053  -3.02  -2.09    +44.6943
iter:  22 05:13:09  -804.157083  -3.23  -2.14    +45.1711
iter:  23 05:15:18  -804.548107  -3.02  -2.17    +45.3811
iter:  24 05:17:27  -804.533418  -2.96  -2.16    +45.4792
iter:  25 05:19:36  -804.775827  -3.01  -2.20    +45.5976
iter:  26 05:21:44  -804.766178  -3.00  -2.22    +45.8549
iter:  27 05:23:52  -804.933299  -3.01  -2.26    +45.9337
iter:  28 05:26:01  -804.673618  -3.27  -2.24    +45.7120
iter:  29 05:28:10  -804.726811  -3.40  -2.35    +45.7245
iter:  30 05:30:18  -804.704860c -3.73  -2.37    +45.7365
iter:  31 05:32:27  -804.755225c -3.86  -2.40    +45.6460
iter:  32 05:34:36  -804.834777  -3.84  -2.43    +45.5106
iter:  33 05:36:43  -805.010077  -3.47  -2.44    +45.3742
iter:  34 05:38:52  -805.014738  -3.56  -2.39    +45.2919
iter:  35 05:41:01  -805.218609  -3.24  -2.48    +45.0109
iter:  36 05:43:09  -805.209806  -3.32  -2.39    +44.8262
iter:  37 05:45:15  -805.128380c -3.35  -2.47    +44.6566
iter:  38 05:47:24  -805.095470  -3.70  -2.53    +44.5298
iter:  39 05:49:32  -805.115735c -3.93  -2.60    +44.2415
iter:  40 05:51:41  -805.128882c -4.15  -2.65    +43.8983
iter:  41 05:53:50  -805.170129c -4.40  -2.70    +43.6645
iter:  42 05:55:58  -805.222830  -4.23  -2.71    +43.3144
iter:  43 05:58:07  -805.347054  -3.62  -2.74    +42.4408
iter:  44 06:00:16  -805.365741  -4.21  -2.69    +42.2657
iter:  45 06:02:24  -805.405088c -4.10  -2.71    +41.9031
iter:  46 06:04:32  -805.472876  -3.86  -2.69    +41.4964
iter:  47 06:06:42  -805.451352c -4.77  -2.62    +41.6308
iter:  48 06:08:50  -805.541706c -3.82  -2.63    +41.5015
iter:  49 06:10:59  -805.487066c -3.86  -2.57    +41.5487
iter:  50 06:13:08  -805.462797c -3.76  -2.68    +41.5291
iter:  51 06:15:16  -805.570647  -3.54  -2.84    +41.4676
iter:  52 06:17:24  -805.418940  -4.03  -2.68    +41.4533
iter:  53 06:19:32  -805.435950  -4.38  -3.11    +41.4386
iter:  54 06:21:39  -805.424761c -4.88  -3.01    +41.4448
iter:  55 06:23:47  -805.426336c -5.18  -3.19    +41.4136
iter:  56 06:25:55  -805.428691c -5.28  -3.23    +41.4171
iter:  57 06:28:03  -805.432171c -5.18  -3.22    +41.4182
iter:  58 06:30:12  -805.437272c -5.15  -3.24    +41.4045
iter:  59 06:32:20  -805.438781c -4.71  -3.25    +41.4067
iter:  60 06:34:28  -805.437068c -4.90  -3.21    +41.4083
iter:  61 06:36:37  -805.440874c -5.06  -3.31    +41.4157
iter:  62 06:38:46  -805.439360c -5.32  -3.33    +41.4081
iter:  63 06:40:55  -805.440747c -5.39  -3.44    +41.4098
iter:  64 06:43:03  -805.440398c -5.57  -3.41    +41.4222
iter:  65 06:45:12  -805.443126c -5.72  -3.47    +41.4271
iter:  66 06:47:20  -805.444383c -5.83  -3.50    +41.4344
iter:  67 06:49:28  -805.445369c -5.88  -3.50    +41.4379
iter:  68 06:51:37  -805.446518c -6.03  -3.53    +41.4434
iter:  69 06:53:46  -805.448669c -5.84  -3.53    +41.4479
iter:  70 06:55:54  -805.450791c -5.64  -3.56    +41.4440
iter:  71 06:58:02  -805.450350c -5.59  -3.57    +41.4493
iter:  72 07:00:11  -805.452589c -5.41  -3.57    +41.4495
iter:  73 07:02:18  -805.452725c -5.73  -3.62    +41.4514
iter:  74 07:04:27  -805.453192c -6.02  -3.89    +41.4532
iter:  75 07:06:35  -805.453578c -6.29  -3.91    +41.4572
iter:  76 07:08:44  -805.454596c -6.19  -3.98    +41.4648
iter:  77 07:10:53  -805.455821c -6.16  -3.99    +41.4671
iter:  78 07:13:02  -805.457635c -5.82  -4.01c   +41.4750
iter:  79 07:15:10  -805.462660c -4.98  -3.93    +41.5101
iter:  80 07:17:19  -805.463665c -5.50  -3.78    +41.5314
iter:  81 07:19:27  -805.464118c -5.88  -3.80    +41.5390
iter:  82 07:21:36  -805.464915c -6.04  -3.84    +41.5449
iter:  83 07:23:44  -805.467693c -5.28  -3.81    +41.5689
iter:  84 07:25:52  -805.466253c -5.79  -3.65    +41.5523
iter:  85 07:28:00  -805.466962c -6.07  -3.76    +41.5700
iter:  86 07:30:09  -805.467061c -6.93  -3.70    +41.5736
iter:  87 07:32:18  -805.466125c -5.69  -3.70    +41.5824
iter:  88 07:34:27  -805.466198c -6.01  -3.67    +41.5738
iter:  89 07:36:36  -805.465989c -6.09  -3.72    +41.5619
iter:  90 07:38:45  -805.468572c -5.48  -3.77    +41.5541
iter:  91 07:40:53  -805.466401c -6.01  -3.61    +41.5428
iter:  92 07:43:02  -805.466023c -6.41  -3.88    +41.5214
iter:  93 07:45:10  -805.466414c -6.49  -3.89    +41.5091
iter:  94 07:47:18  -805.466012c -6.40  -3.96    +41.5033
iter:  95 07:49:26  -805.466278c -6.57  -3.93    +41.4949
iter:  96 07:51:34  -805.466196c -6.57  -4.00    +41.4846
iter:  97 07:53:42  -805.466335c -7.02  -4.07c   +41.4803
iter:  98 07:55:50  -805.466100c -7.11  -4.10c   +41.4759
iter:  99 07:57:59  -805.466365c -6.95  -4.10c   +41.4707
iter: 100 08:00:08  -805.466051c -6.81  -4.17c   +41.4698
iter: 101 08:02:16  -805.466241c -7.06  -4.17c   +41.4665
iter: 102 08:04:25  -805.466241c -7.37  -4.35c   +41.4641
iter: 103 08:06:33  -805.466291c -7.46c -4.40c   +41.4608

Converged after 103 iterations.

Dipole moment: (30.474326, 16.674589, 6.978658) |e|*Ang

Total magnetic moment: (0.000000, 0.000000, 41.460773)
Local magnetic moments:
   0 Cr ( 0.000000,  0.000000, -2.153333)
   1 Al ( 0.000000,  0.000000, -0.033926)
   2 Ni ( 0.000000,  0.000000,  0.064716)
   3 Co ( 0.000000,  0.000000,  0.643899)
   4 Al ( 0.000000,  0.000000, -0.015999)
   5 Ni ( 0.000000,  0.000000,  0.060052)
   6 Co ( 0.000000,  0.000000,  1.106971)
   7 Al ( 0.000000,  0.000000, -0.027821)
   8 Al ( 0.000000,  0.000000, -0.044987)
   9 Fe ( 0.000000,  0.000000,  2.238230)
  10 Fe ( 0.000000,  0.000000,  2.238655)
  11 Fe ( 0.000000,  0.000000,  1.911130)
  12 Cr ( 0.000000,  0.000000,  1.198462)
  13 Ni ( 0.000000,  0.000000,  0.285253)
  14 Co ( 0.000000,  0.000000,  1.128155)
  15 Fe ( 0.000000,  0.000000,  2.102890)
  16 Ni ( 0.000000,  0.000000,  0.239180)
  17 Co ( 0.000000,  0.000000,  1.281549)
  18 Al ( 0.000000,  0.000000, -0.021563)
  19 Ni ( 0.000000,  0.000000,  0.250343)
  20 Co ( 0.000000,  0.000000,  1.025336)
  21 Al ( 0.000000,  0.000000, -0.003993)
  22 Ni ( 0.000000,  0.000000,  0.224922)
  23 Cr ( 0.000000,  0.000000, -1.034990)
  24 Cr ( 0.000000,  0.000000,  1.039571)
  25 Fe ( 0.000000,  0.000000,  2.035565)
  26 Fe ( 0.000000,  0.000000,  2.189303)
  27 Cr ( 0.000000,  0.000000, -1.692148)
  28 Fe ( 0.000000,  0.000000,  2.266820)
  29 Co ( 0.000000,  0.000000,  0.873756)
  30 Ni ( 0.000000,  0.000000,  0.040709)
  31 Fe ( 0.000000,  0.000000,  2.075928)
  32 Cr ( 0.000000,  0.000000, -0.960319)
  33 Co ( 0.000000,  0.000000,  0.960628)
  34 Cr ( 0.000000,  0.000000,  0.902218)
  35 Ni ( 0.000000,  0.000000, -0.056042)
  36 Fe ( 0.000000,  0.000000,  2.102750)
  37 Fe ( 0.000000,  0.000000,  1.889304)
  38 Cr ( 0.000000,  0.000000, -1.637747)
  39 Al ( 0.000000,  0.000000, -0.023538)
  40 Al ( 0.000000,  0.000000,  0.002447)
  41 Co ( 0.000000,  0.000000,  0.142667)
  42 Al ( 0.000000,  0.000000, -0.005024)
  43 Cr ( 0.000000,  0.000000, -2.450658)
  44 Ni ( 0.000000,  0.000000,  0.036008)
  45 Al ( 0.000000,  0.000000, -0.016921)
  46 Al ( 0.000000,  0.000000, -0.026409)
  47 Co ( 0.000000,  0.000000,  1.173210)
  48 Fe ( 0.000000,  0.000000,  2.153066)
  49 Cr ( 0.000000,  0.000000, -1.614719)
  50 Cr ( 0.000000,  0.000000, -2.072625)
  51 Ni ( 0.000000,  0.000000,  0.327028)
  52 Ni ( 0.000000,  0.000000,  0.197454)
  53 Co ( 0.000000,  0.000000,  0.953323)
  54 Ni ( 0.000000,  0.000000,  0.185931)
  55 Al ( 0.000000,  0.000000, -0.006151)
  56 Ni ( 0.000000,  0.000000, -0.023265)
  57 Cr ( 0.000000,  0.000000, -1.647087)
  58 Co ( 0.000000,  0.000000,  1.014092)
  59 Ni ( 0.000000,  0.000000,  0.177799)
[...]
  93 Co ( 0.000000,  0.000000,  1.199572)
  94 Fe ( 0.000000,  0.000000,  1.935858)
  95 Cr ( 0.000000,  0.000000,  1.357652)
  96 Cr ( 0.000000,  0.000000, -1.804958)
  97 Ni ( 0.000000,  0.000000,  0.074853)
  98 Ni ( 0.000000,  0.000000,  0.217947)
  99 Fe ( 0.000000,  0.000000,  1.996894)
 100 Al ( 0.000000,  0.000000, -0.030226)
 101 Cr ( 0.000000,  0.000000,  0.566110)
 102 Co ( 0.000000,  0.000000,  0.750051)
 103 Al ( 0.000000,  0.000000, -0.003517)
 104 Ni ( 0.000000,  0.000000,  0.127862)
 105 Al ( 0.000000,  0.000000, -0.004491)
 106 Fe ( 0.000000,  0.000000, -1.937500)
 107 Co ( 0.000000,  0.000000,  0.844449)

Energy contributions relative to reference atoms: (reference = -3235165.067515)

Kinetic:       +231.217205
Potential:     -225.091317
External:        +0.000000
XC:            -840.961375
Entropy (-ST):   -4.061631
Local:          +31.400012
Free energy:   -807.497106
Extrapolated:  -805.466291

Spin contamination: 33.607284 electrons
Showing only first 2 kpts
                      Up                     Down
 Kpt  Band  Eigenvalues  Occupancy  Eigenvalues  Occupancy
  0   454      9.10379    0.98559      9.78306    0.07127
  0   455      9.11916    0.98324      9.79457    0.06402
  0   456      9.13296    0.98080      9.81172    0.05448
  0   457      9.14907    0.97752      9.82459    0.04821

  1   454      9.10010    0.98611      9.77790    0.07476
  1   455      9.11160    0.98444      9.79486    0.06384
  1   456      9.12415    0.98239      9.80433    0.05841
  1   457      9.13276    0.98084      9.81927    0.05072

Fermi level: 9.52632

No gap

Forces in eV/Ang:
  0 Cr    0.44746   -0.82424   -0.39498
  1 Al   -0.39513    0.28186   -0.39739
  2 Ni   -0.07113   -0.04962   -0.12808
  3 Co   -0.05857    0.04694   -0.16875
  4 Al   -0.22674    0.68609    1.11084
  5 Ni    0.40603   -0.42968    0.51008
  6 Co   -0.12718    0.19435    1.01398
  7 Al   -0.65405    0.23451    0.09178
  8 Al   -0.62729   -0.24404    1.95760
  9 Fe    0.30332   -0.12090    0.79073
 10 Fe    0.04443   -0.48795    0.41037
 11 Fe    0.46578    0.28379   -0.03605
 12 Cr    0.12204   -0.28773    0.39139
 13 Ni    0.04272   -0.17850    0.09381
 14 Co    0.46731    0.00816   -0.43234
 15 Fe    0.33732   -0.15870    0.48100
 16 Ni   -0.47535   -0.10790    0.11349
 17 Co   -0.65328    0.48885    0.23763
 18 Al   -1.08285   -0.46292   -0.21608
 19 Ni   -0.25200    0.08700   -0.19157
 20 Co    0.47281    0.17710   -0.08741
 21 Al    0.74296   -0.45087    0.41754
 22 Ni   -0.45634   -0.09173    0.41537
 23 Cr    0.18386    0.14890   -0.13220
 24 Cr   -0.30260    0.82601   -0.21708
 25 Fe   -0.08621    0.69093   -0.78305
 26 Fe    0.33321   -0.32118    0.11920
 27 Cr   -0.77083   -0.39387    0.01468
 28 Fe   -0.05198   -0.05989    0.42075
 29 Co    0.26563   -0.08965    0.11051
 30 Ni   -0.51872    0.10022    0.03112
 31 Fe   -0.08924   -0.47901    0.49792
 32 Cr    0.10654    0.32816   -0.74238
 33 Co   -0.22365    0.32288    0.46329
 34 Cr    0.33265    0.41990   -0.31281
 35 Ni    0.45902    0.05514   -0.28686
 36 Fe   -0.26067   -0.16392   -0.14534
 37 Fe    0.22084    0.68162   -0.21301
 38 Cr    0.49364    0.23373    0.46598
 39 Al    1.30446    0.42306   -0.20863
 40 Al    1.43674    1.03076   -0.84792
 41 Co   -0.13330    0.07123   -0.59874
 42 Al   -0.82772    1.50696   -0.72394
 43 Cr   -0.51565   -0.29753   -0.44294
 44 Ni   -0.75558    0.30312   -0.01159
 45 Al    0.09350    1.29171   -0.22483
 46 Al   -0.23506   -0.33689   -0.75137
 47 Co   -0.19399    0.31920   -0.24345
 48 Fe   -0.15633    0.47581    0.43475
 49 Cr   -0.11908   -0.04320    0.05289
 50 Cr    0.50873    0.15382    1.03152
 51 Ni    0.24635   -0.20795    0.00779
 52 Ni   -0.09562   -0.10422   -0.02511
 53 Co   -0.70681    0.12784    0.31060
 54 Ni   -0.04526   -0.55030   -0.10928
 55 Al   -0.66845    0.10707    0.87108
 56 Ni    0.22321   -0.35216   -0.68246
 57 Cr    0.68019   -0.03845    0.45449
 58 Co    0.09678    0.15855   -0.42320
 59 Ni   -0.17391   -0.55392   -0.11848
[...]
 93 Co    0.02442    0.09932   -0.02910
 94 Fe   -0.33481   -0.45407   -0.02932
 95 Cr   -0.23174    0.36839    0.14130
 96 Cr    0.01153    0.61590    0.76658
 97 Ni   -0.53853   -0.29417    0.03084
 98 Ni   -0.39797   -0.13103   -0.19710
 99 Fe   -0.83467   -0.14259    0.21104
100 Al   -0.60906   -0.80748   -0.60136
101 Cr    0.04415   -0.36205    0.12091
102 Co   -0.32545   -0.65802    0.14200
103 Al   -0.06227   -0.91627    0.80450
104 Ni    0.01353   -0.08042    0.65960
105 Al    0.02940   -1.86051   -0.49881
106 Fe    0.93146    0.28453   -0.08549
107 Co    0.76833   -0.63544    0.11229

Date: Mon Apr 17 08:06:54 2023