User:   c.zeng@d0039
Date:   Fri Apr 14 04:15:05 2023
Arch:   x86_64
Pid:    161892
CWD:    /home/c.zeng/projects/hea-corrosion/hea-mlp/data-curation/bulk-md/dft-jobs/96
Python: 3.8.1
gpaw:   /home/c.zeng/usr/installs/gpaw/source/gpaw-22.8.0/gpaw
_gpaw:  /home/c.zeng/usr/installs/gpaw/source/gpaw-22.8.0/
        _gpaw.cpython-38-x86_64-linux-gnu.so
ase:    /home/c.zeng/.local/lib/python3.8/site-packages/ase-3.22.1-py3.8.egg/ase (version 3.22.1)
numpy:  /shared/centos7/python/3.8.1/lib/python3.8/site-packages/numpy (version 1.17.4)
scipy:  /shared/centos7/python/3.8.1/lib/python3.8/site-packages/scipy (version 1.4.1)
units:  Angstrom and eV
cores: 30
OpenMP: False
OMP_NUM_THREADS: 1

Input parameters:
  convergence: {energy: 0.0001}
  kpts: [2 2 2]
  maxiter: 666
  mode: {ecut: 350.0,
         name: pw}
  occupations: {fixmagmom: False,
                name: fermi-dirac,
                width: 0.1}
  spinpol: True
  xc: PBE

System changes: positions, numbers, cell, pbc, initial_charges, initial_magmoms

Initialize ...

species:
  Al:
    name: Aluminium
    id: 0292cae29f5d6237e50f6abdd43a7bdd
    Z: 13.0
    valence: 3
    core: 10
    charge: 0.0
    file: /home/c.zeng/usr/data/gpaw-setups-0.9.20000/Al.PBE.gz
    compensation charges: {type: gauss,
                           rc: 0.34,
                           lmax: 2}
    cutoffs: {filter: 1.91,
              core: 2.36}
    valence states:
      #              energy  rcut
      - 3s(2.00)    -7.753   1.085
      - 3p(1.00)    -2.712   1.085
      -  s          19.459   1.085
      -  p          24.499   1.085
      -  d           0.000   1.085

    # Using partial waves for Al as LCAO basis

  Fe:
    name: Iron
    id: 37abbd8d6c3c35915a9b583b742da910
    Z: 26.0
    valence: 8
    core: 18
    charge: 0.0
    file: /home/c.zeng/usr/data/gpaw-setups-0.9.20000/Fe.PBE.gz
    compensation charges: {type: gauss,
                           rc: 0.33,
                           lmax: 2}
    cutoffs: {filter: 2.06,
              core: 2.67}
    valence states:
      #              energy  rcut
      - 4s(2.00)    -5.291   1.164
      - 4p(0.00)    -1.326   1.058
      - 3d(6.00)    -7.505   1.058
      -  s          21.920   1.164
      -  p          25.885   1.058
      -  d          19.706   1.058

[...]

  Cr:
    name: Chromium
    id: 33f258bda2ca9f93018e70263a35547b
    Z: 24.0
    valence: 6
    core: 18
    charge: 0.0
    file: /home/c.zeng/usr/data/gpaw-setups-0.9.20000/Cr.PBE.gz
    compensation charges: {type: gauss,
                           rc: 0.35,
                           lmax: 2}
    cutoffs: {filter: 2.14,
              core: 3.04}
    valence states:
      #              energy  rcut
      - 4s(1.00)    -4.007   1.164
      - 4p(0.00)    -0.989   1.217
      - 3d(5.00)    -2.913   1.111
      -  s          23.205   1.164
      -  p          26.223   1.217
      -  d          24.299   1.111

[...]

  Ni:
    name: Nickel
    id: 0d9f38a9d6e76a2886f07bb4381f212b
    Z: 28.0
    valence: 16
    core: 12
    charge: 0.0
    file: /home/c.zeng/usr/data/gpaw-setups-0.9.20000/Ni.PBE.gz
    compensation charges: {type: gauss,
                           rc: 0.36,
                           lmax: 2}
    cutoffs: {filter: 2.14,
              core: 1.98}
    valence states:
      #              energy  rcut
      - 4s(2.00)    -5.642   1.164
      - 3p(6.00)   -71.394   1.207
      - 4p(0.00)    -1.226   1.207
      - 3d(8.00)    -8.875   1.138
      -  s          21.570   1.164
      -  d          18.337   1.138

[...]

  Co:
    name: Cobalt
    id: 339d20d5b0b93d2de9531a1bee871d91
    Z: 27.0
    valence: 9
    core: 18
    charge: 0.0
    file: /home/c.zeng/usr/data/gpaw-setups-0.9.20000/Co.PBE.gz
    compensation charges: {type: gauss,
                           rc: 0.32,
                           lmax: 2}
    cutoffs: {filter: 1.87,
              core: 2.55}
    valence states:
      #              energy  rcut
      - 4s(2.00)    -5.469   1.005
      - 4p(0.00)    -1.277   1.058
      - 3d(7.00)    -8.205   1.005
      -  s          21.742   1.005
      -  p          25.934   1.058
      -  d          19.007   1.005

    # Using partial waves for Co as LCAO basis

Reference energy: -3235165.067515  # eV

Spin-polarized calculation.
Magnetic moment: 121.100000

Convergence criteria:
 Maximum [total energy] change in last 3 cyles: 0.0001 eV / electron
 Maximum integral of absolute [dens]ity change: 0.0001 electrons / valence electron
 Maximum integral of absolute [eigenst]ate change: 4e-08 eV^2 / valence electron
 Maximum number of scf [iter]ations: 666
 (Square brackets indicate name in SCF output, whereas a 'c' in
 the SCF output indicates the quantity has converged.)

Symmetries present (total): 1

  ( 1  0  0)
  ( 0  1  0)
  ( 0  0  1)

8 k-points: 2 x 2 x 2 Monkhorst-Pack grid
4 k-points in the irreducible part of the Brillouin zone
       k-points in crystal coordinates                weights
   0:     0.25000000   -0.25000000   -0.25000000          2/8
   1:     0.25000000   -0.25000000    0.25000000          2/8
   2:     0.25000000    0.25000000   -0.25000000          2/8
   3:     0.25000000    0.25000000    0.25000000          2/8

Wave functions: Plane wave expansion
  Cutoff energy: 350.000 eV
  Number of coefficients (min, max): 19084, 19084
  Pulay-stress correction: 0.000000 eV/Ang^3 (de/decut=0.000000)
  Using FFTW library
  ScaLapack parameters: grid=1x1, blocksize=None
  Wavefunction extrapolation:
    Improved wavefunction reuse through dual PAW basis

Occupation numbers: Fermi-Dirac:
  width: 0.1000  # eV

Eigensolver
   Davidson(niter=2)

Densities:
  Coarse grid: 48*48*48 grid
  Fine grid: 96*96*96 grid
  Total Charge: 0.000000

Density mixing:
  Method: difference
  Backend: pulay
  Linear mixing parameter: 0.05
  old densities: 5
  Damping of long wavelength oscillations: 50

Hamiltonian:
  XC and Coulomb potentials evaluated on a 96*96*96 grid
  Using the PBE Exchange-Correlation functional
  External potential:
    NoExternalPotential

XC parameters: PBE with 2 nearest neighbor stencil

Total number of cores used: 30
Parallelization over k-points: 2
Domain decomposition: 5 x 3 x 1

Number of atoms: 108
Number of atomic orbitals: 933
Number of bands in calculation: 624
Number of valence electrons: 912
Bands to converge: occupied

... initialized

Initializing position-dependent things.

Density initialized from atomic densities
Creating initial wave functions:
  624 bands from LCAO basis set

       /|           Ni             |
      / |      Fe                  |
     / Al                Ni    Ni  |
    /   Co      Coo        Fe      |
   /    |  FFe      AlCr     CFe  Co
  /  Cr Cr Co Al      Co Fe        |
 *      | NiCr FeCo Fe  CoNi    Al |
 |Al    |AlAl     NFe    NiFe    Cr|
 |    CrFeFe CCo AlCoCr     FeCr   |
 |      |  Fe NiCr  Cr CrFe  CrFe  |
 |    Col   Cr AlNiNi   NNi    Ni  |
 |     Al CAl   NiCoCo  Cr CrCo    |
 |      .--NCo-Cr--Ni-Al----Fe-----.
 | Fe  /    Cr  Al     CrNi  Ni   /
 |   CNi     Al    Al CoCo       /
 |   / Cr        Fee      Al    /
 |  /      Al       Co       Fe/
 | /           Al             /
 |/   Cr       Ni            /
 Al-------------------------*

Positions:
   0 Al    10.902297    0.111797    0.201775    ( 0.0000,  0.0000,  0.0000)
   1 Fe    10.779878    1.727248    1.774992    ( 0.0000,  0.0000,  2.0000)
   2 Cr     1.805597   10.728916    2.046079    ( 0.0000,  0.0000,  0.0000)
   3 Cr     1.826509    1.465444    0.089775    ( 0.0000,  0.0000,  0.0000)
   4 Ni     3.610259   10.940688   10.771793    ( 0.0000,  0.0000,  1.5000)
   5 Al     3.482414    2.001759    1.747591    ( 0.0000,  0.0000,  0.0000)
   6 Al     5.574161   10.902133    1.751472    ( 0.0000,  0.0000,  0.0000)
   7 Ni     5.329666    1.879609   11.098560    ( 0.0000,  0.0000,  1.5000)
   8 Fe     7.432004    0.277891   10.823916    ( 0.0000,  0.0000,  2.0000)
   9 Co     7.188072    1.870574    1.823897    ( 0.0000,  0.0000,  2.1000)
  10 Ni     9.170940   -0.000010    1.889089    ( 0.0000,  0.0000,  1.5000)
  11 Fe     9.211015    1.753074   10.582714    ( 0.0000,  0.0000,  2.0000)
  12 Fe    10.856705    3.505071   -0.294083    ( 0.0000,  0.0000,  2.0000)
  13 Co    11.053842    5.394259    1.657212    ( 0.0000,  0.0000,  2.1000)
  14 Cr     1.514741    3.385194    1.778037    ( 0.0000,  0.0000,  0.0000)
  15 Co     1.487013    5.432870   10.806783    ( 0.0000,  0.0000,  2.1000)
  16 Fe     3.576970    3.608797   -0.000606    ( 0.0000,  0.0000,  2.0000)
  17 Al     3.402754    5.127512    1.549310    ( 0.0000,  0.0000,  0.0000)
  18 Fe     5.523487    3.493227    1.709150    ( 0.0000,  0.0000,  2.0000)
  19 Fe     5.360105    5.449094    0.099788    ( 0.0000,  0.0000,  2.0000)
  20 Cr     7.430693    3.435265   10.735735    ( 0.0000,  0.0000,  0.0000)
  21 Co     7.180084    5.187304    1.629768    ( 0.0000,  0.0000,  2.1000)
  22 Al     9.236267    3.498763    1.524781    ( 0.0000,  0.0000,  0.0000)
  23 Fe     9.111366    5.364853   -0.092947    ( 0.0000,  0.0000,  2.0000)
  24 Ni    10.924267    7.338480    0.039342    ( 0.0000,  0.0000,  1.5000)
  25 Al     0.047960    8.884458    2.004133    ( 0.0000,  0.0000,  0.0000)
  26 Ni     1.938314    7.427527    1.657934    ( 0.0000,  0.0000,  1.5000)
  27 Cr     1.878354    9.281800   10.919397    ( 0.0000,  0.0000,  0.0000)
  28 Fe     3.817982    7.441382   -0.046037    ( 0.0000,  0.0000,  2.0000)
  29 Ni     3.682234    9.125482    1.715887    ( 0.0000,  0.0000,  1.5000)
  30 Ni     5.404388    7.373418    1.930028    ( 0.0000,  0.0000,  1.5000)
  31 Ni     5.425048    9.124200   10.820232    ( 0.0000,  0.0000,  1.5000)
  32 Co     7.211964    7.227305    0.231160    ( 0.0000,  0.0000,  2.1000)
  33 Cr     7.002552    9.018402    2.029486    ( 0.0000,  0.0000,  0.0000)
  34 Fe     9.137726    7.089576    1.800778    ( 0.0000,  0.0000,  2.0000)
  35 Ni     8.933678    9.023532    0.313861    ( 0.0000,  0.0000,  1.5000)
  36 Fe     0.099197   -0.121053    3.571881    ( 0.0000,  0.0000,  2.0000)
  37 Co    10.824014    1.660532    5.401423    ( 0.0000,  0.0000,  2.1000)
  38 Cr     1.578795   10.573305    5.334549    ( 0.0000,  0.0000,  0.0000)
  39 Ni     1.812679    1.495414    3.550058    ( 0.0000,  0.0000,  1.5000)
  40 Al     3.590400   10.678214    3.614962    ( 0.0000,  0.0000,  0.0000)
  41 Al     3.648655    1.872338    5.520065    ( 0.0000,  0.0000,  0.0000)
  42 Cr     5.579698   10.887779    5.579427    ( 0.0000,  0.0000,  0.0000)
  43 Al     5.579152    2.099003    3.732636    ( 0.0000,  0.0000,  0.0000)
  44 Al     7.290593   11.146547    3.760494    ( 0.0000,  0.0000,  0.0000)
  45 Co     7.220713    2.063526    5.576299    ( 0.0000,  0.0000,  2.1000)
  46 Cr     9.008844    0.044054    5.262850    ( 0.0000,  0.0000,  0.0000)
  47 Ni     9.095966    1.932487    3.708450    ( 0.0000,  0.0000,  1.5000)
  48 Fe     0.076962    3.373606    3.525616    ( 0.0000,  0.0000,  2.0000)
  49 Fe    10.823888    5.290568    5.472639    ( 0.0000,  0.0000,  2.0000)
  50 Al     1.625489    3.535543    5.372753    ( 0.0000,  0.0000,  0.0000)
  51 Co     2.070176    5.327265    3.621857    ( 0.0000,  0.0000,  2.1000)
  52 Co     3.681575    3.646192    3.878324    ( 0.0000,  0.0000,  2.1000)
  53 Ni     3.693794    5.583390    5.383011    ( 0.0000,  0.0000,  1.5000)
  54 Ni     5.570125    3.921263    5.391799    ( 0.0000,  0.0000,  1.5000)
  55 Co     5.458451    5.254545    3.456583    ( 0.0000,  0.0000,  2.1000)
  56 Al     7.324833    3.769905    3.730941    ( 0.0000,  0.0000,  0.0000)
  57 Cr     7.260606    5.486186    5.443400    ( 0.0000,  0.0000,  0.0000)
  58 Ni     8.818367    3.622970    5.522020    ( 0.0000,  0.0000,  1.5000)
  59 Cr     9.295133    5.131581    3.548125    ( 0.0000,  0.0000,  0.0000)
[...]
  93 Co     6.984780    5.373531    9.186032    ( 0.0000,  0.0000,  2.1000)
  94 Ni     9.054724    3.578084    9.030770    ( 0.0000,  0.0000,  1.5000)
  95 Fe     8.856873    5.536766    7.455887    ( 0.0000,  0.0000,  2.0000)
  96 Al    -0.178962    7.091156    7.061019    ( 0.0000,  0.0000,  0.0000)
  97 Al     0.231427    9.191986    9.192951    ( 0.0000,  0.0000,  0.0000)
  98 Fe     2.029308    7.350044    8.956343    ( 0.0000,  0.0000,  2.0000)
  99 Co     1.665428    8.983496    7.265992    ( 0.0000,  0.0000,  2.1000)
 100 Fe     3.653464    7.365984    7.182995    ( 0.0000,  0.0000,  2.0000)
 101 Co     3.756676    9.124298    8.882732    ( 0.0000,  0.0000,  2.1000)
 102 Al     5.694354    7.436717    8.892847    ( 0.0000,  0.0000,  0.0000)
 103 Fe     5.611845    9.355214    7.421957    ( 0.0000,  0.0000,  2.0000)
 104 Co     7.172901    7.376641    7.107051    ( 0.0000,  0.0000,  2.1000)
 105 Ni     7.245417    9.348470    9.201464    ( 0.0000,  0.0000,  1.5000)
 106 Al     8.733272    7.281406    9.140413    ( 0.0000,  0.0000,  0.0000)
 107 Cr     8.899264    9.178382    7.306704    ( 0.0000,  0.0000,  0.0000)

Unit cell:
           periodic     x           y           z      points  spacing
  1. axis:    yes   10.872400    0.000000    0.000000    48     0.2265
  2. axis:    yes    0.000000   10.872400    0.000000    48     0.2265
  3. axis:    yes    0.000000    0.000000   10.872400    48     0.2265

  Lengths:  10.872400  10.872400  10.872400
  Angles:   90.000000  90.000000  90.000000

Effective grid spacing dv^(1/3) = 0.2265

     iter     time        total  log10-change:  magmom
                         energy  eigst   dens
iter:   1 04:19:32  -958.617854                  +121.3864
iter:   2 04:21:28  -839.343839  -0.20  -1.16    +65.1111
iter:   3 04:23:25  -825.829740  -0.86  -1.21    +55.1174
iter:   4 04:25:20  -816.894359  -1.24  -1.26    +51.6755
iter:   5 04:27:16  -805.858104  -1.53  -1.28    +49.5697
iter:   6 04:29:12  -805.532372  -1.32  -1.35    +49.5070
iter:   7 04:31:06  -804.318721  -1.24  -1.42    +48.0919
iter:   8 04:33:05  -793.692963  -1.65  -1.49    +47.9381
iter:   9 04:35:43  -792.108867  -2.07  -1.66    +49.0183
iter:  10 04:37:54  -792.848349  -2.28  -1.73    +50.2096
iter:  11 04:39:50  -793.059102  -2.37  -1.75    +50.8438
iter:  12 04:41:45  -792.765317  -2.31  -1.78    +51.9766
iter:  13 04:43:42  -793.568646  -2.34  -1.83    +52.6657
iter:  14 04:45:37  -792.659325  -2.37  -1.85    +52.5230
iter:  15 04:47:33  -792.674458  -2.59  -1.95    +53.2179
iter:  16 04:49:28  -792.687839c -2.65  -1.97    +53.7033
iter:  17 04:51:24  -792.514589  -2.88  -2.00    +53.9239
iter:  18 04:53:19  -793.077398  -2.71  -2.06    +53.9305
iter:  19 04:55:14  -792.616675  -2.81  -2.04    +54.2051
iter:  20 04:57:10  -792.651731  -2.93  -2.14    +54.4036
iter:  21 04:59:05  -792.697088c -2.86  -2.16    +54.1424
iter:  22 05:01:01  -792.626938c -3.01  -2.21    +54.1146
iter:  23 05:02:56  -792.684471c -3.03  -2.28    +54.1802
iter:  24 05:05:10  -792.575340  -3.19  -2.26    +54.2347
iter:  25 05:07:42  -792.629426  -3.28  -2.36    +53.9143
iter:  26 05:09:38  -792.557491c -3.38  -2.37    +53.8538
iter:  27 05:11:34  -792.568750c -3.64  -2.43    +53.9948
iter:  28 05:13:29  -792.589835c -3.71  -2.47    +53.8501
iter:  29 05:15:25  -792.669472  -3.67  -2.50    +53.7678
iter:  30 05:17:21  -792.665923c -3.74  -2.50    +53.6836
iter:  31 05:19:17  -792.706406c -3.68  -2.54    +53.7676
iter:  32 05:21:12  -792.757939  -3.65  -2.54    +53.5881
iter:  33 05:23:08  -792.736803c -3.78  -2.56    +53.3366
iter:  34 05:25:03  -792.754599c -3.80  -2.62    +53.3117
iter:  35 05:26:59  -792.784843c -3.80  -2.64    +53.2997
iter:  36 05:29:03  -792.767170c -3.97  -2.65    +53.2649
iter:  37 05:31:31  -792.781328c -4.12  -2.70    +53.0796
iter:  38 05:33:30  -792.778948c -4.41  -2.72    +53.0775
iter:  39 05:35:25  -792.795315c -4.38  -2.76    +53.1004
iter:  40 05:37:22  -792.812728c -4.47  -2.78    +53.0600
iter:  41 05:39:19  -792.814913c -4.58  -2.78    +53.0391
iter:  42 05:41:15  -792.846142c -4.19  -2.84    +52.9274
iter:  43 05:43:11  -792.854008c -3.88  -2.80    +52.9792
iter:  44 05:45:10  -792.849069c -4.15  -2.89    +52.8716
iter:  45 05:47:06  -792.863584c -4.18  -2.98    +52.8340
iter:  46 05:49:03  -792.840017c -4.60  -2.95    +52.9009
iter:  47 05:51:20  -792.847751c -4.76  -3.21    +52.9047
iter:  48 05:53:20  -792.848714c -5.12  -3.18    +52.9095
iter:  49 05:55:17  -792.853473c -5.18  -3.24    +52.8921
iter:  50 05:57:14  -792.859317c -5.00  -3.31    +52.9228
iter:  51 05:59:11  -792.862250c -5.25  -3.26    +52.9077
iter:  52 06:01:11  -792.868889c -5.18  -3.35    +52.8841
iter:  53 06:03:12  -792.872424c -5.09  -3.35    +52.8932
iter:  54 06:05:09  -792.874803c -5.10  -3.37    +52.9091
iter:  55 06:07:09  -792.877697c -5.30  -3.47    +52.9286
iter:  56 06:09:09  -792.883003c -5.23  -3.52    +52.9340
iter:  57 06:11:39  -792.884238c -5.38  -3.53    +52.9615
iter:  58 06:13:36  -792.887030c -5.53  -3.60    +52.9994
iter:  59 06:15:34  -792.891517c -5.48  -3.62    +53.0273
iter:  60 06:17:31  -792.900684c -5.02  -3.64    +53.0909
iter:  61 06:19:28  -792.893005c -5.47  -3.60    +53.0256
iter:  62 06:21:07  -792.925888c -4.18  -3.61    +53.2878
iter:  63 06:22:56  -792.901947c -4.59  -3.36    +53.0890
iter:  64 06:25:03  -792.909237c -5.37  -3.47    +53.2096
iter:  65 06:27:09  -792.908192c -5.77  -3.46    +53.2008
iter:  66 06:29:16  -792.912872c -5.34  -3.43    +53.2771
iter:  67 06:31:23  -792.914337c -5.88  -3.50    +53.2996
iter:  68 06:33:30  -792.920241c -5.01  -3.55    +53.3782
iter:  69 06:35:37  -792.926421c -5.02  -3.51    +53.4219
iter:  70 06:37:44  -792.925715c -5.47  -3.44    +53.4567
iter:  71 06:39:50  -792.930872c -5.26  -3.62    +53.4942
iter:  72 06:41:58  -792.932961c -5.45  -3.51    +53.5359
iter:  73 06:44:06  -792.935660c -5.76  -3.59    +53.5671
iter:  74 06:46:12  -792.946179c -5.05  -3.60    +53.6711
iter:  75 06:48:20  -792.938096c -5.57  -3.47    +53.5597
iter:  76 06:50:28  -792.931665c -5.20  -3.53    +53.4496
iter:  77 06:52:36  -792.941435c -5.11  -3.51    +53.5972
iter:  78 06:54:43  -792.944993c -5.27  -3.50    +53.6942
iter:  79 06:56:51  -792.944861c -6.02  -3.57    +53.6950
iter:  80 06:58:59  -792.948408c -5.09  -3.62    +53.7755
iter:  81 07:01:06  -792.950426c -5.40  -3.51    +53.7861
iter:  82 07:03:13  -792.952778c -5.55  -3.64    +53.8208
iter:  83 07:05:21  -792.958319c -5.26  -3.74    +53.9315
iter:  84 07:07:29  -792.959401c -5.86  -3.74    +53.9406
iter:  85 07:09:37  -792.964649c -5.26  -3.74    +54.0149
iter:  86 07:11:44  -792.965582c -5.95  -3.68    +54.0310
iter:  87 07:13:51  -792.968195c -5.86  -3.64    +54.0546
iter:  88 07:15:58  -792.973089c -5.43  -3.58    +54.1175
iter:  89 07:18:05  -792.971599c -5.87  -3.50    +54.1179
iter:  90 07:20:13  -792.973645c -5.54  -3.60    +54.1857
iter:  91 07:22:20  -792.978366c -5.33  -3.61    +54.2812
iter:  92 07:24:27  -792.981397c -5.36  -3.56    +54.3888
iter:  93 07:26:35  -792.987132c -5.00  -3.57    +54.5191
iter:  94 07:28:42  -792.986845c -5.66  -3.45    +54.4805
iter:  95 07:30:50  -792.988151c -5.78  -3.47    +54.5054
iter:  96 07:32:58  -792.989142c -5.40  -3.46    +54.5177
iter:  97 07:35:06  -792.989293c -5.60  -3.43    +54.5102
iter:  98 07:37:14  -792.990988c -5.10  -3.47    +54.5191
iter:  99 07:39:22  -792.987670c -5.57  -3.37    +54.5316
iter: 100 07:41:29  -792.988053c -6.27  -3.55    +54.5327
iter: 101 07:43:37  -792.988299c -6.34  -3.60    +54.5453
iter: 102 07:45:45  -792.988306c -5.49  -3.60    +54.5500
iter: 103 07:47:52  -792.988219c -5.65  -3.61    +54.5507
iter: 104 07:50:00  -792.988024c -5.59  -3.73    +54.5516
iter: 105 07:52:08  -792.987732c -5.91  -3.72    +54.5539
iter: 106 07:54:15  -792.987691c -6.46  -3.85    +54.5566
iter: 107 07:56:21  -792.987630c -6.47  -3.96    +54.5551
iter: 108 07:58:29  -792.987507c -6.52  -3.92    +54.5585
iter: 109 08:00:36  -792.987580c -6.50  -4.07c   +54.5606
iter: 110 08:02:44  -792.987475c -6.85  -4.18c   +54.5613
iter: 111 08:04:51  -792.987451c -6.87  -4.19c   +54.5635
iter: 112 08:06:58  -792.987767c -6.82  -4.26c   +54.5645
iter: 113 08:09:01  -792.987533c -6.94  -4.25c   +54.5651
iter: 114 08:11:04  -792.987585c -7.00  -4.34c   +54.5681
iter: 115 08:13:13  -792.987640c -7.41c -4.55c   +54.5697

Converged after 115 iterations.

Dipole moment: (-3.443772, -3.717500, 0.264858) |e|*Ang

Total magnetic moment: (0.000000, 0.000000, 54.569677)
Local magnetic moments:
   0 Al ( 0.000000,  0.000000, -0.009606)
   1 Fe ( 0.000000,  0.000000,  1.508334)
   2 Cr ( 0.000000,  0.000000, -1.339275)
   3 Cr ( 0.000000,  0.000000,  0.835611)
   4 Ni ( 0.000000,  0.000000,  0.195742)
   5 Al ( 0.000000,  0.000000, -0.012443)
   6 Al ( 0.000000,  0.000000, -0.016788)
   7 Ni ( 0.000000,  0.000000,  0.282895)
   8 Fe ( 0.000000,  0.000000,  2.445877)
   9 Co ( 0.000000,  0.000000,  0.648041)
  10 Ni ( 0.000000,  0.000000,  0.272828)
  11 Fe ( 0.000000,  0.000000,  1.816437)
  12 Fe ( 0.000000,  0.000000,  1.810876)
  13 Co ( 0.000000,  0.000000,  1.403722)
  14 Cr ( 0.000000,  0.000000, -1.642927)
  15 Co ( 0.000000,  0.000000,  0.965765)
  16 Fe ( 0.000000,  0.000000,  1.113470)
  17 Al ( 0.000000,  0.000000, -0.035746)
  18 Fe ( 0.000000,  0.000000,  2.116270)
  19 Fe ( 0.000000,  0.000000,  2.188031)
  20 Cr ( 0.000000,  0.000000, -2.021814)
  21 Co ( 0.000000,  0.000000,  1.240322)
  22 Al ( 0.000000,  0.000000, -0.029906)
  23 Fe ( 0.000000,  0.000000,  2.176561)
  24 Ni ( 0.000000,  0.000000,  0.279801)
  25 Al ( 0.000000,  0.000000, -0.028986)
  26 Ni ( 0.000000,  0.000000,  0.369090)
  27 Cr ( 0.000000,  0.000000,  1.180629)
  28 Fe ( 0.000000,  0.000000,  2.451940)
  29 Ni ( 0.000000,  0.000000,  0.199561)
  30 Ni ( 0.000000,  0.000000,  0.215812)
  31 Ni ( 0.000000,  0.000000,  0.349845)
  32 Co ( 0.000000,  0.000000,  1.317422)
  33 Cr ( 0.000000,  0.000000, -2.047439)
  34 Fe ( 0.000000,  0.000000,  2.531092)
  35 Ni ( 0.000000,  0.000000,  0.316680)
  36 Fe ( 0.000000,  0.000000,  1.128330)
  37 Co ( 0.000000,  0.000000,  0.899167)
  38 Cr ( 0.000000,  0.000000, -0.935497)
  39 Ni ( 0.000000,  0.000000, -0.064313)
  40 Al ( 0.000000,  0.000000,  0.000748)
  41 Al ( 0.000000,  0.000000, -0.006147)
  42 Cr ( 0.000000,  0.000000, -1.646619)
  43 Al ( 0.000000,  0.000000, -0.006671)
  44 Al ( 0.000000,  0.000000, -0.010997)
  45 Co ( 0.000000,  0.000000,  0.018265)
  46 Cr ( 0.000000,  0.000000, -1.508947)
  47 Ni ( 0.000000,  0.000000,  0.125889)
  48 Fe ( 0.000000,  0.000000,  1.872582)
  49 Fe ( 0.000000,  0.000000,  1.983963)
  50 Al ( 0.000000,  0.000000, -0.033086)
  51 Co ( 0.000000,  0.000000,  1.198415)
  52 Co ( 0.000000,  0.000000,  1.015076)
  53 Ni ( 0.000000,  0.000000,  0.371691)
  54 Ni ( 0.000000,  0.000000,  0.096057)
  55 Co ( 0.000000,  0.000000,  1.250865)
  56 Al ( 0.000000,  0.000000, -0.010537)
  57 Cr ( 0.000000,  0.000000, -1.858193)
  58 Ni ( 0.000000,  0.000000, -0.067230)
  59 Cr ( 0.000000,  0.000000, -2.164391)
[...]
  93 Co ( 0.000000,  0.000000,  1.247733)
  94 Ni ( 0.000000,  0.000000,  0.042674)
  95 Fe ( 0.000000,  0.000000,  2.179118)
  96 Al ( 0.000000,  0.000000, -0.037468)
  97 Al ( 0.000000,  0.000000, -0.025922)
  98 Fe ( 0.000000,  0.000000,  2.185326)
  99 Co ( 0.000000,  0.000000,  1.231747)
 100 Fe ( 0.000000,  0.000000,  2.194848)
 101 Co ( 0.000000,  0.000000,  1.345863)
 102 Al ( 0.000000,  0.000000, -0.044850)
 103 Fe ( 0.000000,  0.000000,  2.273628)
 104 Co ( 0.000000,  0.000000,  1.111542)
 105 Ni ( 0.000000,  0.000000,  0.330209)
 106 Al ( 0.000000,  0.000000, -0.036242)
 107 Cr ( 0.000000,  0.000000,  1.868688)

Energy contributions relative to reference atoms: (reference = -3235165.067515)

Kinetic:       +448.166934
Potential:     -400.766607
External:        +0.000000
XC:            -869.551913
Entropy (-ST):   -3.953631
Local:          +31.140762
Free energy:   -794.964455
Extrapolated:  -792.987640

Spin contamination: 28.297299 electrons
Showing only first 2 kpts
                      Up                     Down
 Kpt  Band  Eigenvalues  Occupancy  Eigenvalues  Occupancy
  0   454      9.02918    0.99545      9.91277    0.03086
  0   455      9.04704    0.99457      9.93331    0.02527
  0   456      9.06406    0.99357      9.94392    0.02279
  0   457      9.08067    0.99242      9.95641    0.02017

  1   454      9.02368    0.99570      9.92037    0.02866
  1   455      9.04237    0.99482      9.93969    0.02375
  1   456      9.05977    0.99384      9.94755    0.02199
  1   457      9.07525    0.99281      9.95375    0.02070

Fermi level: 9.56807

No gap

Forces in eV/Ang:
  0 Al   -2.36945   -2.82621   -0.43485
  1 Fe    0.78870    0.46962    1.19216
  2 Cr   -0.21830   -0.53433   -2.36364
  3 Cr   -0.62971    2.55852   -0.58552
  4 Ni    1.98858   -0.93302    1.51587
  5 Al    1.23633   -0.80643    1.55855
  6 Al   -1.20588    0.24543   -0.56647
  7 Ni    0.53307   -0.92519   -2.12259
  8 Fe   -0.29469   -1.29383    0.73919
  9 Co    1.21946   -0.15414    0.37565
 10 Ni   -1.50811    0.41936   -0.14345
 11 Fe   -1.02620    0.39682    1.25463
 12 Fe    1.04898    0.31343    0.55014
 13 Co   -0.84240    0.40794    1.51267
 14 Cr   -0.52904    1.00483   -0.60142
 15 Co    2.12862    0.47216   -0.58486
 16 Fe    0.09485   -0.31099   -1.69922
 17 Al    0.08532    2.12825    2.17620
 18 Fe   -0.33296    1.88689    1.15388
 19 Fe    0.72368    0.02590   -0.29465
 20 Cr   -1.83684    0.13916   -0.43293
 21 Co    0.69001    0.57103    0.29725
 22 Al   -0.22989    0.23147    1.43450
 23 Fe   -0.44976    0.41135    0.01043
 24 Ni   -0.21006    0.24328   -0.60587
 25 Al   -1.16838   -0.37485   -1.15519
 26 Ni   -0.15684   -1.73824   -0.14147
 27 Cr    0.80622   -0.65955    0.52999
 28 Fe   -0.84044   -0.87210   -0.20112
 29 Ni    0.44203    0.15840    0.90767
 30 Ni   -0.12685   -1.61062   -0.88894
 31 Ni    0.56643    0.29840    0.38192
 32 Co   -0.15294   -0.11917   -0.03018
 33 Cr    1.97899   -0.22243   -0.62655
 34 Fe    0.15439   -0.52587   -0.35094
 35 Ni    0.49136    0.39903   -0.86837
 36 Fe   -0.96151    0.82297    0.51337
 37 Co    0.26137    0.15491   -0.16519
 38 Cr    0.14151    0.44163    1.01225
 39 Ni    0.51548    2.25002    1.26901
 40 Al    0.81600    0.08486    1.52114
 41 Al   -0.16657   -1.11275    0.05116
 42 Cr   -1.24677    0.13316   -0.46503
 43 Al   -1.47662   -0.81218    0.23722
 44 Al   -0.66189   -0.69674   -1.55942
 45 Co   -0.88279   -1.99423    0.02906
 46 Cr    1.27083   -0.39236    1.80956
 47 Ni   -0.36452   -0.23973   -0.82315
 48 Fe   -0.32829    1.16478    0.42056
 49 Fe   -0.44976   -0.12663   -0.47710
 50 Al    0.91337   -0.47717    0.05842
 51 Co   -1.85162    0.06632   -0.21938
 52 Co   -0.61685   -0.28639   -1.21902
 53 Ni   -0.63384   -0.70296    0.21078
 54 Ni   -0.63535   -1.49996    0.95567
 55 Co   -0.30589    1.10119   -0.44995
 56 Al    0.25722   -0.77036   -1.70894
 57 Cr    0.53761    2.13760    0.51045
 58 Ni    2.29404    1.26370    0.52484
 59 Cr    0.97709    1.64990    0.21724
[...]
 93 Co    1.01584   -0.02525    0.02916
 94 Ni   -0.38745    0.41168   -0.53862
 95 Fe   -0.44378   -0.77240   -1.20299
 96 Al    0.44254    1.49999    0.64982
 97 Al   -2.32497   -1.23972   -1.13080
 98 Fe   -0.94474   -0.11169    0.98303
 99 Co    0.46849    0.76844   -0.30182
100 Fe    0.76784   -0.53100    0.47761
101 Co   -0.70747   -0.23565    0.90708
102 Al   -0.31792   -0.35245    1.51010
103 Fe   -0.24269   -0.49231   -1.46219
104 Co    0.91445   -0.23065   -0.38607
105 Ni    0.59831   -0.33367   -0.15241
106 Al    0.09015    0.61768    0.88402
107 Cr    0.35798   -1.20757   -1.57307

Date: Fri Apr 14 08:13:33 2023