User:   c.zeng@d0068
Date:   Mon Apr 17 02:38:44 2023
Arch:   x86_64
Pid:    172961
CWD:    /home/c.zeng/projects/hea-corrosion/hea-mlp/data-curation/bulk-mcmc/dft-jobs/131
Python: 3.8.1
gpaw:   /home/c.zeng/usr/installs/gpaw/source/gpaw-22.8.0/gpaw
_gpaw:  /home/c.zeng/usr/installs/gpaw/source/gpaw-22.8.0/
        _gpaw.cpython-38-x86_64-linux-gnu.so
ase:    /home/c.zeng/.local/lib/python3.8/site-packages/ase-3.22.1-py3.8.egg/ase (version 3.22.1)
numpy:  /home/c.zeng/.local/lib/python3.8/site-packages/numpy (version 1.24.2)
scipy:  /home/c.zeng/.local/lib/python3.8/site-packages/scipy (version 1.10.1)
units:  Angstrom and eV
cores: 30
OpenMP: False
OMP_NUM_THREADS: 1

Input parameters:
  convergence: {energy: 0.0001}
  kpts: [2 2 2]
  maxiter: 666
  mode: {ecut: 350.0,
         name: pw}
  occupations: {fixmagmom: False,
                name: fermi-dirac,
                width: 0.1}
  spinpol: True
  xc: PBE

System changes: positions, numbers, cell, pbc, initial_charges, initial_magmoms

Initialize ...

species:
  Co:
    name: Cobalt
    id: 339d20d5b0b93d2de9531a1bee871d91
    Z: 27.0
    valence: 9
    core: 18
    charge: 0.0
    file: /home/c.zeng/usr/data/gpaw-setups-0.9.20000/Co.PBE.gz
    compensation charges: {type: gauss,
                           rc: 0.32,
                           lmax: 2}
    cutoffs: {filter: 1.87,
              core: 2.55}
    valence states:
      #              energy  rcut
      - 4s(2.00)    -5.469   1.005
      - 4p(0.00)    -1.277   1.058
      - 3d(7.00)    -8.205   1.005
      -  s          21.742   1.005
      -  p          25.934   1.058
      -  d          19.007   1.005

    # Using partial waves for Co as LCAO basis

  Fe:
    name: Iron
    id: 37abbd8d6c3c35915a9b583b742da910
    Z: 26.0
    valence: 8
    core: 18
    charge: 0.0
    file: /home/c.zeng/usr/data/gpaw-setups-0.9.20000/Fe.PBE.gz
    compensation charges: {type: gauss,
                           rc: 0.33,
                           lmax: 2}
    cutoffs: {filter: 2.06,
              core: 2.67}
    valence states:
      #              energy  rcut
      - 4s(2.00)    -5.291   1.164
      - 4p(0.00)    -1.326   1.058
      - 3d(6.00)    -7.505   1.058
      -  s          21.920   1.164
      -  p          25.885   1.058
      -  d          19.706   1.058

[...]

  Ni:
    name: Nickel
    id: 0d9f38a9d6e76a2886f07bb4381f212b
    Z: 28.0
    valence: 16
    core: 12
    charge: 0.0
    file: /home/c.zeng/usr/data/gpaw-setups-0.9.20000/Ni.PBE.gz
    compensation charges: {type: gauss,
                           rc: 0.36,
                           lmax: 2}
    cutoffs: {filter: 2.14,
              core: 1.98}
    valence states:
      #              energy  rcut
      - 4s(2.00)    -5.642   1.164
      - 3p(6.00)   -71.394   1.207
      - 4p(0.00)    -1.226   1.207
      - 3d(8.00)    -8.875   1.138
      -  s          21.570   1.164
      -  d          18.337   1.138

[...]

  Al:
    name: Aluminium
    id: 0292cae29f5d6237e50f6abdd43a7bdd
    Z: 13.0
    valence: 3
    core: 10
    charge: 0.0
    file: /home/c.zeng/usr/data/gpaw-setups-0.9.20000/Al.PBE.gz
    compensation charges: {type: gauss,
                           rc: 0.34,
                           lmax: 2}
    cutoffs: {filter: 1.91,
              core: 2.36}
    valence states:
      #              energy  rcut
      - 3s(2.00)    -7.753   1.085
      - 3p(1.00)    -2.712   1.085
      -  s          19.459   1.085
      -  p          24.499   1.085
      -  d           0.000   1.085

[...]

  Cr:
    name: Chromium
    id: 33f258bda2ca9f93018e70263a35547b
    Z: 24.0
    valence: 6
    core: 18
    charge: 0.0
    file: /home/c.zeng/usr/data/gpaw-setups-0.9.20000/Cr.PBE.gz
    compensation charges: {type: gauss,
                           rc: 0.35,
                           lmax: 2}
    cutoffs: {filter: 2.14,
              core: 3.04}
    valence states:
      #              energy  rcut
      - 4s(1.00)    -4.007   1.164
      - 4p(0.00)    -0.989   1.217
      - 3d(5.00)    -2.913   1.111
      -  s          23.205   1.164
      -  p          26.223   1.217
      -  d          24.299   1.111

    # Using partial waves for Cr as LCAO basis

Reference energy: -3548577.034362  # eV

Spin-polarized calculation.
Magnetic moment: 136.400000

Convergence criteria:
 Maximum [total energy] change in last 3 cyles: 0.0001 eV / electron
 Maximum integral of absolute [dens]ity change: 0.0001 electrons / valence electron
 Maximum integral of absolute [eigenst]ate change: 4e-08 eV^2 / valence electron
 Maximum number of scf [iter]ations: 666
 (Square brackets indicate name in SCF output, whereas a 'c' in
 the SCF output indicates the quantity has converged.)

Symmetries present (total): 1

  ( 1  0  0)
  ( 0  1  0)
  ( 0  0  1)

8 k-points: 2 x 2 x 2 Monkhorst-Pack grid
4 k-points in the irreducible part of the Brillouin zone
       k-points in crystal coordinates                weights
   0:     0.25000000   -0.25000000   -0.25000000          2/8
   1:     0.25000000   -0.25000000    0.25000000          2/8
   2:     0.25000000    0.25000000   -0.25000000          2/8
   3:     0.25000000    0.25000000    0.25000000          2/8

Wave functions: Plane wave expansion
  Cutoff energy: 350.000 eV
  Number of coefficients (min, max): 18331, 18331
  Pulay-stress correction: 0.000000 eV/Ang^3 (de/decut=0.000000)
  Using FFTW library
  ScaLapack parameters: grid=1x1, blocksize=None
  Wavefunction extrapolation:
    Improved wavefunction reuse through dual PAW basis

Occupation numbers: Fermi-Dirac:
  width: 0.1000  # eV

Eigensolver
   Davidson(niter=2)

Densities:
  Coarse grid: 48*48*48 grid
  Fine grid: 96*96*96 grid
  Total Charge: 0.000000

Density mixing:
  Method: difference
  Backend: pulay
  Linear mixing parameter: 0.05
  old densities: 5
  Damping of long wavelength oscillations: 50

Hamiltonian:
  XC and Coulomb potentials evaluated on a 96*96*96 grid
  Using the PBE Exchange-Correlation functional
  External potential:
    NoExternalPotential

XC parameters: PBE with 2 nearest neighbor stencil

Total number of cores used: 30
Parallelization over k-points: 2
Domain decomposition: 5 x 3 x 1

Number of atoms: 108
Number of atomic orbitals: 994
Number of bands in calculation: 674
Number of valence electrons: 980
Bands to converge: occupied

... initialized

Initializing position-dependent things.

Density initialized from atomic densities
Creating initial wave functions:
  674 bands from LCAO basis set

        Co-------Co---------------.
       /|  Co       Fe            |
      / |   NiCr     CrCo     CrCo|
     / Al       CAl     Ni        |
    /   CCo      Ni      FAl      |
   /    | CoCo     Co      CoCo   |
  /   Co|  NiFeAl   NiNi    CrCr  |
 *      Cr  CrCoNi   CoAlNi   FeNi|
 |Fe   NiNiCr   CrNCr   FeCr      |
 | Fe   | NiNi   NiNiCr    Cr     |
 |     Co  CoFeNi   FeNiAl  NiAl  |
 |      Fe    FeNi   FeAlFe   AlCr|
 |Cr    |CoNi   NFeFe   FeFe     Fe
 |      .-FeCr-----FeCr--FeCoNi---.
 |     Cr    CoCr     FeCo  Cr Fe/
 |    / Al      Co       Cr     /
 Cr  /            Cr           /
 |  /      Ni      Cr       Fe/
 | / Co              Fe      /
 |/                     Co  /

Positions:
   0 Co    10.732479   -0.010418   10.721263    ( 0.0000,  0.0000,  2.1000)
   1 Fe    10.706231    1.787006    1.816653    ( 0.0000,  0.0000,  1.5000)
   2 Co     1.827923    0.046024    1.820803    ( 0.0000,  0.0000,  0.0000)
   3 Co     1.781666    1.794790   10.668295    ( 0.0000,  0.0000,  0.0000)
   4 Co     3.605675   -0.024615   10.696977    ( 0.0000,  0.0000,  0.0000)
   5 Ni     3.626284    1.755611    1.827590    ( 0.0000,  0.0000,  2.0000)
   6 Fe     5.347186   -0.032870    1.798425    ( 0.0000,  0.0000,  2.0000)
   7 Al     5.383406    1.755353   -0.004078    ( 0.0000,  0.0000,  2.0000)
   8 Fe     7.108694   -0.021619    0.052076    ( 0.0000,  0.0000,  0.0000)
   9 Cr     7.129131    1.783639    1.838109    ( 0.0000,  0.0000,  2.0000)
  10 Al     8.928414   -0.004386    1.840918    ( 0.0000,  0.0000,  2.0000)
  11 Co     8.945645    1.852509    0.063651    ( 0.0000,  0.0000,  0.0000)
  12 Co    10.721403    3.615743   10.707625    ( 0.0000,  0.0000,  2.1000)
  13 Fe    10.714905    5.407607    1.816064    ( 0.0000,  0.0000,  2.0000)
  14 Al     1.786931    3.537020    1.885127    ( 0.0000,  0.0000,  0.0000)
  15 Co     1.774396    5.426328   10.657058    ( 0.0000,  0.0000,  0.0000)
  16 Co     3.564340    3.564490   10.690115    ( 0.0000,  0.0000,  0.0000)
  17 Co     3.570334    5.434059    1.813919    ( 0.0000,  0.0000,  0.0000)
  18 Co     5.350145    3.574934    1.808708    ( 0.0000,  0.0000,  0.0000)
  19 Al     5.345084    5.410577   10.703464    ( 0.0000,  0.0000,  2.1000)
  20 Fe     7.157695    3.624514    0.002553    ( 0.0000,  0.0000,  2.1000)
  21 Fe     7.157792    5.380200    1.803904    ( 0.0000,  0.0000,  0.0000)
  22 Cr     8.944980    3.620622    1.842988    ( 0.0000,  0.0000,  0.0000)
  23 Al     8.940316    5.370571   -0.005231    ( 0.0000,  0.0000,  0.0000)
  24 Co    10.674578    7.138041   10.683446    ( 0.0000,  0.0000,  2.0000)
  25 Fe    10.668413    8.869012    1.800001    ( 0.0000,  0.0000,  0.0000)
  26 Fe     1.807904    7.157309    1.806960    ( 0.0000,  0.0000,  1.5000)
  27 Co     1.808086    8.895217   10.689064    ( 0.0000,  0.0000,  0.0000)
  28 Cr     3.612462    7.185391   10.698339    ( 0.0000,  0.0000,  2.0000)
  29 Ni     3.598277    8.905404    1.808097    ( 0.0000,  0.0000,  1.5000)
  30 Fe     5.362229    7.149643    1.778835    ( 0.0000,  0.0000,  2.1000)
  31 Fe     5.368084    8.904170   10.708750    ( 0.0000,  0.0000,  2.0000)
  32 Co     7.127640    7.124156   10.700741    ( 0.0000,  0.0000,  2.0000)
  33 Fe     7.139982    8.914904    1.783157    ( 0.0000,  0.0000,  0.0000)
  34 Co     8.884516    7.107975    1.798232    ( 0.0000,  0.0000,  2.0000)
  35 Cr     8.895410    8.880302    0.005476    ( 0.0000,  0.0000,  0.0000)
  36 Cr    10.737840    0.006469    3.587908    ( 0.0000,  0.0000,  1.5000)
  37 Cr     0.009110    1.816214    5.359506    ( 0.0000,  0.0000,  1.5000)
  38 Cr     1.833434   -0.010553    5.335488    ( 0.0000,  0.0000,  2.1000)
  39 Cr     1.814369    1.777409    3.664755    ( 0.0000,  0.0000,  1.5000)
  40 Ni     3.608002   -0.027958    3.615958    ( 0.0000,  0.0000,  2.1000)
  41 Ni     3.597397    1.774364    5.368180    ( 0.0000,  0.0000,  1.5000)
  42 Co     5.355185   -0.018813    5.365682    ( 0.0000,  0.0000,  2.1000)
  43 Cr     5.354005    1.762698    3.609396    ( 0.0000,  0.0000,  1.5000)
  44 Cr     7.096449    0.004839    3.553950    ( 0.0000,  0.0000,  0.0000)
  45 Fe     7.124574    1.817747    5.354692    ( 0.0000,  0.0000,  2.1000)
  46 Fe     8.888698   10.712332    5.289714    ( 0.0000,  0.0000,  0.0000)
  47 Co     8.931727    1.815495    3.558979    ( 0.0000,  0.0000,  1.5000)
  48 Ni    10.700248    3.599864    3.631730    ( 0.0000,  0.0000,  0.0000)
  49 Al    -0.007893    5.382698    5.388017    ( 0.0000,  0.0000,  2.0000)
  50 Fe     1.794265    3.594073    5.365264    ( 0.0000,  0.0000,  2.0000)
  51 Co     1.782020    5.398675    3.628600    ( 0.0000,  0.0000,  1.5000)
[...]
iter: 337 10:36:48  -851.607282c -4.15  -4.44c   +64.2050
iter: 338 10:38:11  -851.620772c -4.06  -3.70    +64.1863
iter: 339 10:39:34  -851.614434c -5.01  -4.42c   +64.1977
iter: 340 10:40:57  -851.598443c -3.64  -4.15c   +64.2230
iter: 341 10:42:21  -851.626655c -3.38  -3.42    +64.1998
iter: 342 10:43:44  -851.642809c -3.66  -3.92    +64.2081
iter: 343 10:45:06  -851.625284c -4.20  -3.53    +64.2044
iter: 344 10:46:29  -851.618769c -4.40  -4.03c   +64.2078
iter: 345 10:47:52  -851.624076c -5.16  -4.90c   +64.2102
iter: 346 10:49:15  -851.598415c -3.35  -4.12c   +64.1898
iter: 347 10:50:38  -851.636516c -3.21  -3.42    +64.2294
iter: 348 10:52:01  -851.660125c -3.46  -3.62    +64.2551
iter: 349 10:53:25  -851.641224c -4.30  -3.33    +64.2346
iter: 350 10:54:48  -851.650422c -4.76  -3.55    +64.2439
iter: 351 10:56:10  -851.630598c -4.01  -3.43    +64.2286
iter: 352 10:57:34  -851.583611c -2.84  -3.79    +64.1924
iter: 353 10:58:57  -851.644177c -2.90  -3.23    +64.2499
iter: 354 11:00:20  -851.670913c -3.34  -3.48    +64.2760
iter: 355 11:01:42  -851.661329c -4.59  -3.25    +64.2622
iter: 356 11:03:05  -851.673631c -4.34  -3.32    +64.2717
iter: 357 11:04:28  -851.669322c -5.27  -3.23    +64.2622
iter: 358 11:05:50  -851.678504c -4.60  -3.26    +64.2587
iter: 359 11:07:13  -851.675839c -5.37  -3.20    +64.2791
iter: 360 11:08:36  -851.676795c -5.17  -3.23    +64.2872
iter: 361 11:10:00  -851.691847c -4.43  -3.21    +64.2756
iter: 362 11:11:22  -851.686552c -4.32  -3.01    +64.2649
iter: 363 11:12:45  -851.667746c -4.73  -3.05    +64.2357
iter: 364 11:14:07  -851.666905c -5.12  -3.30    +64.0972
iter: 365 11:15:29  -851.672780c -4.86  -3.33    +64.0084
iter: 366 11:16:51  -851.666620c -5.18  -3.28    +63.9786
iter: 367 11:18:12  -851.667094c -5.42  -3.40    +63.9061
iter: 368 11:19:34  -851.669199c -5.24  -3.42    +63.8755
iter: 369 11:20:55  -851.668815c -5.16  -3.38    +63.8138
iter: 370 11:22:17  -851.670118c -5.15  -3.41    +63.8122
iter: 371 11:23:38  -851.666849c -5.33  -3.39    +63.7784
iter: 372 11:24:59  -851.671274c -5.14  -3.65    +63.7131
iter: 373 11:26:20  -851.667275c -5.53  -3.42    +63.7060
iter: 374 11:27:40  -851.667666c -5.76  -3.70    +63.6531
iter: 375 11:29:01  -851.668483c -6.01  -3.76    +63.6212
iter: 376 11:30:22  -851.668608c -6.09  -3.79    +63.5827
iter: 377 11:31:42  -851.669283c -6.09  -3.83    +63.5397
iter: 378 11:33:03  -851.670242c -6.02  -3.87    +63.4905
iter: 379 11:34:24  -851.668721c -5.97  -3.87    +63.5710
iter: 380 11:35:44  -851.669020c -6.49  -3.84    +63.5582
iter: 381 11:37:05  -851.669919c -6.36  -3.82    +63.5230
iter: 382 11:38:25  -851.670364c -6.36  -3.82    +63.4878
iter: 383 11:39:46  -851.671134c -6.14  -3.80    +63.4548
iter: 384 11:41:07  -851.671973c -5.98  -3.74    +63.4095
iter: 385 11:42:27  -851.672100c -5.83  -3.81    +63.3816
iter: 386 11:43:48  -851.673319c -5.82  -3.85    +63.3531
iter: 387 11:45:09  -851.673551c -5.92  -3.77    +63.3416
iter: 388 11:46:29  -851.674457c -5.89  -3.96    +63.3126
iter: 389 11:47:50  -851.674704c -6.24  -3.91    +63.2974
iter: 390 11:49:11  -851.675878c -5.99  -4.09c   +63.2623
iter: 391 11:50:31  -851.676439c -6.28  -4.06c   +63.2535
iter: 392 11:51:52  -851.677106c -6.12  -4.07c   +63.2361
iter: 393 11:53:12  -851.678915c -5.78  -4.16c   +63.2019
iter: 394 11:54:33  -851.677930c -6.51  -4.06c   +63.2102
iter: 395 11:55:54  -851.678447c -6.47  -4.30c   +63.1854
iter: 396 11:57:14  -851.678934c -6.63  -4.22c   +63.1807
iter: 397 11:58:35  -851.680046c -6.13  -4.34c   +63.1463
iter: 398 12:00:02  -851.680804c -6.36  -4.44c   +63.1320
iter: 399 12:01:30  -851.681203c -6.52  -4.26c   +63.1208
iter: 400 12:02:58  -851.682621c -6.06  -4.42c   +63.0837
iter: 401 12:04:26  -851.679072c -5.48  -4.31c   +63.1706
iter: 402 12:05:54  -851.675557c -5.22  -4.43c   +63.2558
iter: 403 12:07:21  -851.676506c -6.47  -4.34c   +63.2234
iter: 404 12:08:49  -851.677137c -6.72  -4.36c   +63.2065
iter: 405 12:10:16  -851.677205c -7.27  -4.49c   +63.2071
iter: 406 12:11:44  -851.678128c -6.36  -4.48c   +63.1715
iter: 407 12:13:12  -851.678714c -6.64  -4.47c   +63.1598
iter: 408 12:14:40  -851.679389c -6.51  -4.71c   +63.1380
iter: 409 12:16:08  -851.679660c -6.93  -4.54c   +63.1326
iter: 410 12:17:35  -851.680828c -6.25  -4.72c   +63.0986
iter: 411 12:19:03  -851.676681c -5.32  -4.62c   +63.2181
iter: 412 12:20:31  -851.663379c -3.92  -4.57c   +63.7380
iter: 413 12:21:59  -851.663083c -4.79  -3.73    +63.7632
iter: 414 12:23:26  -851.662286c -5.00  -3.70    +63.8009
iter: 415 12:24:53  -851.662042c -5.26  -3.64    +63.8160
iter: 416 12:26:21  -851.662169c -5.47  -3.60    +63.8157
iter: 417 12:27:49  -851.663230c -5.39  -3.58    +63.8078
iter: 418 12:29:16  -851.663208c -6.02  -3.51    +63.8070
iter: 419 12:30:44  -851.662762c -5.45  -3.54    +63.8042
iter: 420 12:32:12  -851.663698c -5.46  -3.48    +63.7940
iter: 421 12:33:39  -851.663458c -5.26  -3.47    +63.7869
iter: 422 12:35:07  -851.661806c -5.40  -3.53    +63.7914
iter: 423 12:36:35  -851.661443c -5.76  -3.53    +63.7727
iter: 424 12:38:02  -851.661549c -5.86  -3.71    +63.7445
iter: 425 12:39:30  -851.662319c -5.81  -3.71    +63.7308
iter: 426 12:40:58  -851.661754c -5.66  -3.66    +63.7298
iter: 427 12:42:25  -851.661457c -5.84  -3.77    +63.7071
iter: 428 12:43:53  -851.663205c -5.69  -3.83    +63.6882
iter: 429 12:45:21  -851.661901c -5.86  -3.71    +63.6807
iter: 430 12:46:49  -851.662112c -6.02  -3.84    +63.6707
iter: 431 12:48:16  -851.662234c -6.20  -3.94    +63.6596
iter: 432 12:49:44  -851.662261c -6.46  -4.03c   +63.6384
iter: 433 12:51:11  -851.662867c -6.29  -4.22c   +63.6213
iter: 434 12:52:39  -851.662304c -6.71  -4.20c   +63.6384
iter: 435 12:54:07  -851.662866c -6.55  -4.19c   +63.6254
iter: 436 12:55:34  -851.662894c -6.58  -4.17c   +63.6177
iter: 437 12:57:02  -851.663164c -6.39  -4.14c   +63.5984
iter: 438 12:58:30  -851.663442c -6.44  -4.22c   +63.5904
iter: 439 12:59:58  -851.663543c -6.75  -4.25c   +63.5791
iter: 440 13:01:26  -851.664280c -6.20  -4.43c   +63.5583
iter: 441 13:02:55  -851.663481c -6.45  -4.36c   +63.5806
iter: 442 13:04:22  -851.661167c -5.17  -4.49c   +63.6625
iter: 443 13:05:51  -851.661435c -6.58  -4.25c   +63.6475
iter: 444 13:07:19  -851.662047c -6.33  -4.30c   +63.6212
iter: 445 13:08:47  -851.662110c -7.04  -4.36c   +63.6179
iter: 446 13:10:15  -851.662450c -6.68  -4.38c   +63.6039
iter: 447 13:11:44  -851.662677c -6.70  -4.41c   +63.5911
iter: 448 13:13:11  -851.662778c -7.38  -4.55c   +63.5870
iter: 449 13:14:39  -851.663056c -6.74  -4.59c   +63.5793
iter: 450 13:16:06  -851.663703c -6.20  -4.59c   +63.5614
iter: 451 13:17:34  -851.662828c -6.24  -4.62c   +63.5853
iter: 452 13:19:02  -851.660475c -5.09  -4.66c   +63.6543
iter: 453 13:20:30  -851.660436c -6.07  -4.13c   +63.6603
iter: 454 13:21:58  -851.660732c -6.78  -4.11c   +63.6486
iter: 455 13:23:25  -851.661611c -5.90  -4.19c   +63.6225
iter: 456 13:24:53  -851.662619c -5.73  -4.33c   +63.5956
iter: 457 13:26:21  -851.661979c -6.29  -4.54c   +63.6164
iter: 458 13:27:48  -851.663121c -5.77  -4.25c   +63.5804
iter: 459 13:29:15  -851.662421c -6.60  -4.82c   +63.5929
iter: 460 13:30:43  -851.662730c -7.07  -4.56c   +63.5823
iter: 461 13:32:11  -851.662117c -6.37  -4.76c   +63.6064
iter: 462 13:33:38  -851.660290c -5.20  -4.53c   +63.6959
iter: 463 13:35:06  -851.659585c -5.47  -4.09c   +63.7431
iter: 464 13:36:34  -851.658813c -5.28  -3.97    +63.8212
iter: 465 13:38:02  -851.658430c -5.15  -3.83    +63.9167
iter: 466 13:39:29  -851.658691c -6.16  -3.72    +63.8890
iter: 467 13:40:57  -851.659150c -6.31  -3.77    +63.9005
iter: 468 13:42:25  -851.658815c -6.48  -3.71    +63.8842
iter: 469 13:43:53  -851.658990c -6.50  -3.78    +63.8796
iter: 470 13:45:21  -851.660503c -5.82  -3.81    +63.8829
iter: 471 13:46:48  -851.659749c -5.41  -3.66    +63.8765
iter: 472 13:48:15  -851.659536c -5.96  -3.70    +63.8561
iter: 473 13:49:41  -851.659331c -5.95  -3.89    +63.8455
iter: 474 13:51:08  -851.659697c -6.07  -3.97    +63.8362
iter: 475 13:52:35  -851.659625c -6.39  -3.95    +63.8333
iter: 476 13:54:02  -851.660108c -6.21  -4.17c   +63.8290
iter: 477 13:55:30  -851.660256c -6.30  -4.09c   +63.8270
iter: 478 13:56:56  -851.660179c -6.42  -4.09c   +63.8164
iter: 479 13:58:23  -851.660737c -6.42  -4.18c   +63.8103
iter: 480 13:59:51  -851.660758c -6.53  -4.16c   +63.8120
iter: 481 14:01:18  -851.660895c -6.50  -4.33c   +63.8045
iter: 482 14:02:45  -851.660972c -6.80  -4.29c   +63.7998
iter: 483 14:04:11  -851.661396c -6.41  -4.46c   +63.7895
iter: 484 14:05:38  -851.661387c -7.22  -4.43c   +63.7914
iter: 485 14:07:05  -851.661517c -6.72  -4.42c   +63.7816
iter: 486 14:08:32  -851.661679c -6.97  -4.48c   +63.7769
iter: 487 14:09:59  -851.662217c -6.25  -4.55c   +63.7651
iter: 488 14:11:27  -851.661793c -6.87  -4.43c   +63.7733
iter: 489 14:12:54  -851.661619c -6.83  -4.63c   +63.7786
iter: 490 14:14:21  -851.662316c -6.10  -4.59c   +63.7585
iter: 491 14:15:48  -851.663478c -5.50  -4.53c   +63.7260
iter: 492 14:17:15  -851.664206c -5.75  -4.32c   +63.7042
iter: 493 14:18:43  -851.661520c -4.97  -4.15c   +63.7884
iter: 494 14:20:07  -851.660620c -5.39  -4.68c   +63.8195
iter: 495 14:21:31  -851.662859c -5.17  -4.47c   +63.7486
iter: 496 14:22:56  -851.662163c -6.60  -4.47c   +63.7671
iter: 497 14:24:21  -851.662541c -6.67  -4.81c   +63.7549
iter: 498 14:25:45  -851.662348c -7.43c -4.64c   +63.7610

Converged after 498 iterations.

Dipole moment: (-1.732405, 13.267609, 14.381834) |e|*Ang

Total magnetic moment: (0.000000, 0.000000, 63.761043)
Local magnetic moments:
   0 Co ( 0.000000,  0.000000,  1.121785)
   1 Fe ( 0.000000,  0.000000,  2.217626)
   2 Co ( 0.000000,  0.000000,  1.442556)
   3 Co ( 0.000000,  0.000000,  1.285920)
   4 Co ( 0.000000,  0.000000,  1.261391)
   5 Ni ( 0.000000,  0.000000,  0.211715)
   6 Fe ( 0.000000,  0.000000,  1.974434)
   7 Al ( 0.000000,  0.000000, -0.018101)
   8 Fe ( 0.000000,  0.000000, -1.531537)
   9 Cr ( 0.000000,  0.000000,  0.898896)
  10 Al ( 0.000000,  0.000000, -0.015104)
  11 Co ( 0.000000,  0.000000,  1.038901)
  12 Co ( 0.000000,  0.000000,  1.064547)
  13 Fe ( 0.000000,  0.000000,  2.249877)
  14 Al ( 0.000000,  0.000000, -0.030481)
  15 Co ( 0.000000,  0.000000,  1.247442)
  16 Co ( 0.000000,  0.000000,  1.299675)
  17 Co ( 0.000000,  0.000000,  1.132620)
  18 Co ( 0.000000,  0.000000,  1.082960)
  19 Al ( 0.000000,  0.000000, -0.041441)
  20 Fe ( 0.000000,  0.000000,  2.217185)
  21 Fe ( 0.000000,  0.000000,  2.055745)
  22 Cr ( 0.000000,  0.000000, -1.211111)
  23 Al ( 0.000000,  0.000000, -0.034792)
  24 Co ( 0.000000,  0.000000,  1.027016)
  25 Fe ( 0.000000,  0.000000,  2.232083)
  26 Fe ( 0.000000,  0.000000,  2.267360)
  27 Co ( 0.000000,  0.000000,  1.456223)
  28 Cr ( 0.000000,  0.000000, -2.089610)
  29 Ni ( 0.000000,  0.000000,  0.498857)
  30 Fe ( 0.000000,  0.000000,  1.985631)
  31 Fe ( 0.000000,  0.000000,  2.118521)
  32 Co ( 0.000000,  0.000000,  1.149828)
  33 Fe ( 0.000000,  0.000000,  1.809868)
  34 Co ( 0.000000,  0.000000,  1.151512)
  35 Cr ( 0.000000,  0.000000, -1.523915)
  36 Cr ( 0.000000,  0.000000, -1.599747)
  37 Cr ( 0.000000,  0.000000, -0.180702)
  38 Cr ( 0.000000,  0.000000,  0.785604)
  39 Cr ( 0.000000,  0.000000,  0.355088)
  40 Ni ( 0.000000,  0.000000,  0.287660)
  41 Ni ( 0.000000,  0.000000,  0.189178)
  42 Co ( 0.000000,  0.000000,  1.032006)
  43 Cr ( 0.000000,  0.000000,  0.475532)
  44 Cr ( 0.000000,  0.000000, -1.406308)
  45 Fe ( 0.000000,  0.000000,  1.575377)
  46 Fe ( 0.000000,  0.000000,  2.052932)
  47 Co ( 0.000000,  0.000000,  0.400384)
  48 Ni ( 0.000000,  0.000000,  0.270435)
  49 Al ( 0.000000,  0.000000, -0.023820)
  50 Fe ( 0.000000,  0.000000,  2.109241)
  51 Co ( 0.000000,  0.000000,  1.012917)
  52 Cr ( 0.000000,  0.000000, -1.714010)
  53 Fe ( 0.000000,  0.000000,  2.360864)
  54 Ni ( 0.000000,  0.000000,  0.136598)
  55 Fe ( 0.000000,  0.000000,  2.199653)
  56 Cr ( 0.000000,  0.000000, -1.430780)
  57 Ni ( 0.000000,  0.000000,  0.121526)
  58 Fe ( 0.000000,  0.000000,  1.753272)
  59 Fe ( 0.000000,  0.000000,  1.598330)
[...]
  93 Ni ( 0.000000,  0.000000,  0.221802)
  94 Ni ( 0.000000,  0.000000,  0.147157)
  95 Cr ( 0.000000,  0.000000, -0.315583)
  96 Ni ( 0.000000,  0.000000,  0.064416)
  97 Al ( 0.000000,  0.000000, -0.016039)
  98 Co ( 0.000000,  0.000000,  1.227560)
  99 Ni ( 0.000000,  0.000000,  0.191547)
 100 Co ( 0.000000,  0.000000,  1.430873)
 101 Co ( 0.000000,  0.000000,  1.353993)
 102 Co ( 0.000000,  0.000000,  1.170520)
 103 Ni ( 0.000000,  0.000000,  0.321987)
 104 Al ( 0.000000,  0.000000, -0.017591)
 105 Ni ( 0.000000,  0.000000,  0.175960)
 106 Co ( 0.000000,  0.000000,  0.528982)
 107 Cr ( 0.000000,  0.000000, -0.986113)

Energy contributions relative to reference atoms: (reference = -3548577.034362)

Kinetic:       +183.055132
Potential:     -215.276384
External:        +0.000000
XC:            -853.123709
Entropy (-ST):   -4.546306
Local:          +35.955767
Free energy:   -853.935501
Extrapolated:  -851.662348

Spin contamination: 25.518406 electrons
Showing only first 2 kpts
                      Up                     Down
 Kpt  Band  Eigenvalues  Occupancy  Eigenvalues  Occupancy
  0   488      9.47313    0.99455     10.36095    0.02481
  0   489      9.48329    0.99397     10.37586    0.02145
  0   490      9.50380    0.99261     10.38695    0.01924
  0   491      9.52508    0.99087     10.39525    0.01773

  1   488      9.48424    0.99391     10.36913    0.02291
  1   489      9.48608    0.99380     10.38454    0.01970
  1   490      9.50023    0.99287     10.39055    0.01857
  1   491      9.50347    0.99263     10.40972    0.01538

Fermi level: 9.99381

No gap

Forces in eV/Ang:
  0 Co    0.03802    0.22946    0.07180
  1 Fe    0.12290   -0.01182   -0.34091
  2 Co   -0.13519   -0.44957   -0.15225
  3 Co    0.14278   -0.16060    0.30837
  4 Co   -0.42408   -0.13798    0.24896
  5 Ni   -0.44562    0.08664   -0.20722
  6 Fe   -0.20115   -0.51392    0.09779
  7 Al   -0.78708    0.77648    0.40283
  8 Fe    0.24738    0.24359   -0.51515
  9 Cr    0.06636    0.58240   -0.06236
 10 Al    0.27781   -0.04412   -0.78005
 11 Co    0.00707   -0.00001   -0.61083
 12 Co    0.09393   -0.40454    0.05926
 13 Fe    0.14515   -0.00969   -0.19626
 14 Al    0.00747    0.74432   -1.28621
 15 Co    0.13031   -0.30497    0.24380
 16 Co   -0.27497    0.22005    0.30940
 17 Co   -0.21173   -0.37091    0.04697
 18 Co   -0.01519    0.23271    0.13745
 19 Al    0.38033   -1.17539   -0.01437
 20 Fe    0.04177   -0.62490   -0.09757
 21 Fe   -0.15097   -0.47117    0.10430
 22 Cr    0.31986   -0.78655    0.10752
 23 Al   -0.25159    0.44978   -0.52250
 24 Co    0.44397   -0.00831    0.36451
 25 Fe    0.59504    0.08332   -0.27250
 26 Fe   -0.03657    0.04246   -0.44859
 27 Co    0.26576    0.25396    0.55598
 28 Cr   -1.14910    0.58172   -0.04344
 29 Ni   -0.43466    0.42212   -0.14780
 30 Fe   -0.25713    0.26557    0.00718
 31 Fe    0.02066    0.06250    0.08683
 32 Co    0.15272    0.60542    0.03815
 33 Fe    0.04213    0.07944   -0.30772
 34 Co    0.35784    0.28692   -0.02351
 35 Cr   -0.58738   -0.37623   -0.05977
 36 Cr    0.55122   -0.41218    0.74897
 37 Cr    0.19751   -0.05472   -0.07303
 38 Cr   -0.59505    0.31797    0.14443
 39 Cr    0.01781   -0.87007   -0.16791
 40 Ni   -0.11417    0.27535   -0.37740
 41 Ni   -0.14398   -0.07141    0.01991
 42 Co    0.17365   -0.03880    0.08477
 43 Cr   -0.09872    0.12089   -0.10018
 44 Cr   -0.31768    0.01631    0.78696
 45 Fe    0.07229   -0.14620   -0.22270
 46 Fe    0.38131   -0.36080    0.15927
 47 Co    0.10191    0.21392    0.41731
 48 Ni    0.04989   -0.22940   -0.33407
 49 Al    0.91816   -0.54017    0.17447
 50 Fe    0.25483   -0.51344    0.26534
 51 Co    0.34639    0.04152   -0.38272
 52 Cr    0.66844    0.10511   -0.04266
 53 Fe   -0.01949   -0.04688    0.14450
 54 Ni    0.17990    0.04949   -0.05986
 55 Fe   -0.34309   -0.99697   -0.55673
 56 Cr   -0.39418    0.01055    0.04979
 57 Ni   -0.16421   -0.24028   -0.16173
 58 Fe   -0.29305   -0.07148   -0.34835
 59 Fe   -0.33773   -0.46712   -0.23608
[...]
 93 Ni    0.05274   -0.31060   -0.19898
 94 Ni    0.11519   -0.22120    0.48848
 95 Cr    0.16753   -0.58976    0.52133
 96 Ni    0.11268   -0.00282    0.10884
 97 Al    0.69596   -0.28045    0.06945
 98 Co    0.44397   -0.58174    0.34901
 99 Ni   -0.31446    0.19766    0.14868
100 Co   -0.07509    0.06228    0.25457
101 Co   -0.04790   -0.10177    0.29345
102 Co   -0.54848    0.14784   -0.00444
103 Ni   -0.08819    0.19466    0.05528
104 Al   -1.26224   -0.16197    0.43133
105 Ni    0.32010    0.44961    0.17056
106 Co    0.26438    0.23938    0.02230
107 Cr    0.25129    0.79713   -0.06095

Date: Mon Apr 17 14:26:02 2023