User:   c.zeng@d0023
Date:   Fri Apr 14 01:11:41 2023
Arch:   x86_64
Pid:    187381
CWD:    /home/c.zeng/projects/hea-corrosion/hea-mlp/data-curation/bulk-md/dft-jobs/76
Python: 3.8.1
gpaw:   /home/c.zeng/usr/installs/gpaw/source/gpaw-22.8.0/gpaw
_gpaw:  /home/c.zeng/usr/installs/gpaw/source/gpaw-22.8.0/
        _gpaw.cpython-38-x86_64-linux-gnu.so
ase:    /home/c.zeng/.local/lib/python3.8/site-packages/ase-3.22.1-py3.8.egg/ase (version 3.22.1)
numpy:  /shared/centos7/python/3.8.1/lib/python3.8/site-packages/numpy (version 1.17.4)
scipy:  /shared/centos7/python/3.8.1/lib/python3.8/site-packages/scipy (version 1.4.1)
units:  Angstrom and eV
cores: 30
OpenMP: False
OMP_NUM_THREADS: 1

Input parameters:
  convergence: {energy: 0.0001}
  kpts: [2 2 2]
  maxiter: 666
  mode: {ecut: 350.0,
         name: pw}
  occupations: {fixmagmom: False,
                name: fermi-dirac,
                width: 0.1}
  spinpol: True
  xc: PBE

System changes: positions, numbers, cell, pbc, initial_charges, initial_magmoms

Initialize ...

species:
  Fe:
    name: Iron
    id: 37abbd8d6c3c35915a9b583b742da910
    Z: 26.0
    valence: 8
    core: 18
    charge: 0.0
    file: /home/c.zeng/usr/data/gpaw-setups-0.9.20000/Fe.PBE.gz
    compensation charges: {type: gauss,
                           rc: 0.33,
                           lmax: 2}
    cutoffs: {filter: 2.06,
              core: 2.67}
    valence states:
      #              energy  rcut
      - 4s(2.00)    -5.291   1.164
      - 4p(0.00)    -1.326   1.058
      - 3d(6.00)    -7.505   1.058
      -  s          21.920   1.164
      -  p          25.885   1.058
      -  d          19.706   1.058

    # Using partial waves for Fe as LCAO basis

  Cr:
    name: Chromium
    id: 33f258bda2ca9f93018e70263a35547b
    Z: 24.0
    valence: 6
    core: 18
    charge: 0.0
    file: /home/c.zeng/usr/data/gpaw-setups-0.9.20000/Cr.PBE.gz
    compensation charges: {type: gauss,
                           rc: 0.35,
                           lmax: 2}
    cutoffs: {filter: 2.14,
              core: 3.04}
    valence states:
      #              energy  rcut
      - 4s(1.00)    -4.007   1.164
      - 4p(0.00)    -0.989   1.217
      - 3d(5.00)    -2.913   1.111
      -  s          23.205   1.164
      -  p          26.223   1.217
      -  d          24.299   1.111

[...]

  Ni:
    name: Nickel
    id: 0d9f38a9d6e76a2886f07bb4381f212b
    Z: 28.0
    valence: 16
    core: 12
    charge: 0.0
    file: /home/c.zeng/usr/data/gpaw-setups-0.9.20000/Ni.PBE.gz
    compensation charges: {type: gauss,
                           rc: 0.36,
                           lmax: 2}
    cutoffs: {filter: 2.14,
              core: 1.98}
    valence states:
      #              energy  rcut
      - 4s(2.00)    -5.642   1.164
      - 3p(6.00)   -71.394   1.207
      - 4p(0.00)    -1.226   1.207
      - 3d(8.00)    -8.875   1.138
      -  s          21.570   1.164
      -  d          18.337   1.138

[...]

  Al:
    name: Aluminium
    id: 0292cae29f5d6237e50f6abdd43a7bdd
    Z: 13.0
    valence: 3
    core: 10
    charge: 0.0
    file: /home/c.zeng/usr/data/gpaw-setups-0.9.20000/Al.PBE.gz
    compensation charges: {type: gauss,
                           rc: 0.34,
                           lmax: 2}
    cutoffs: {filter: 1.91,
              core: 2.36}
    valence states:
      #              energy  rcut
      - 3s(2.00)    -7.753   1.085
      - 3p(1.00)    -2.712   1.085
      -  s          19.459   1.085
      -  p          24.499   1.085
      -  d           0.000   1.085

[...]

  Co:
    name: Cobalt
    id: 339d20d5b0b93d2de9531a1bee871d91
    Z: 27.0
    valence: 9
    core: 18
    charge: 0.0
    file: /home/c.zeng/usr/data/gpaw-setups-0.9.20000/Co.PBE.gz
    compensation charges: {type: gauss,
                           rc: 0.32,
                           lmax: 2}
    cutoffs: {filter: 1.87,
              core: 2.55}
    valence states:
      #              energy  rcut
      - 4s(2.00)    -5.469   1.005
      - 4p(0.00)    -1.277   1.058
      - 3d(7.00)    -8.205   1.005
      -  s          21.742   1.005
      -  p          25.934   1.058
      -  d          19.007   1.005

    # Using partial waves for Co as LCAO basis

Reference energy: -3382523.201499  # eV

Spin-polarized calculation.
Magnetic moment: 128.800000

Convergence criteria:
 Maximum [total energy] change in last 3 cyles: 0.0001 eV / electron
 Maximum integral of absolute [dens]ity change: 0.0001 electrons / valence electron
 Maximum integral of absolute [eigenst]ate change: 4e-08 eV^2 / valence electron
 Maximum number of scf [iter]ations: 666
 (Square brackets indicate name in SCF output, whereas a 'c' in
 the SCF output indicates the quantity has converged.)

Symmetries present (total): 1

  ( 1  0  0)
  ( 0  1  0)
  ( 0  0  1)

8 k-points: 2 x 2 x 2 Monkhorst-Pack grid
4 k-points in the irreducible part of the Brillouin zone
       k-points in crystal coordinates                weights
   0:     0.25000000   -0.25000000   -0.25000000          2/8
   1:     0.25000000   -0.25000000    0.25000000          2/8
   2:     0.25000000    0.25000000   -0.25000000          2/8
   3:     0.25000000    0.25000000    0.25000000          2/8

Wave functions: Plane wave expansion
  Cutoff energy: 350.000 eV
  Number of coefficients (min, max): 18865, 18865
  Pulay-stress correction: 0.000000 eV/Ang^3 (de/decut=0.000000)
  Using FFTW library
  ScaLapack parameters: grid=1x1, blocksize=None
  Wavefunction extrapolation:
    Improved wavefunction reuse through dual PAW basis

Occupation numbers: Fermi-Dirac:
  width: 0.1000  # eV

Eigensolver
   Davidson(niter=2)

Densities:
  Coarse grid: 48*48*48 grid
  Fine grid: 96*96*96 grid
  Total Charge: 0.000000

Density mixing:
  Method: difference
  Backend: pulay
  Linear mixing parameter: 0.05
  old densities: 5
  Damping of long wavelength oscillations: 50

Hamiltonian:
  XC and Coulomb potentials evaluated on a 96*96*96 grid
  Using the PBE Exchange-Correlation functional
  External potential:
    NoExternalPotential

XC parameters: PBE with 2 nearest neighbor stencil

Total number of cores used: 30
Parallelization over k-points: 2
Domain decomposition: 5 x 3 x 1

Number of atoms: 108
Number of atomic orbitals: 961
Number of bands in calculation: 649
Number of valence electrons: 945
Bands to converge: occupied

... initialized

Initializing position-dependent things.

Density initialized from atomic densities
Creating initial wave functions:
  649 bands from LCAO basis set

        .-----------------Al-------.
      / |             Cr       Ni  |
     / Fe      Al        Ni        |
    /   |        FFer      AlCo    |
   /Ni  |CoNCo       CrCr Co   Fe  |
  /    Cr     FeAl  Co  ACoe  Fe   |
 *      Co    CrCNi              Nio
 | Co   |CrFe     Co Al  Fe Cr     |
 | NiCo | Al Ni    Al  Al   Cr     |
 |     Co   NFe Fe  NiNi Ni  Cr    |
 |      Co  Ni AFe      AlCoFe CreCr
 | Co   Al Al   CrFe Co  CrCo      |
 |   Co .Cr---Fe-AlFeNi-Co--Co-----Fe
 |     /   AAl  Ni  Fe        Ni  /
 |    Cr     CrCr   CrFeNNiNi  CrNi
 |   /  FeFe     Co       Co    /
 | Cr    Cr Fe      Co         /
 | /                   Ni     /

Positions:
   0 Fe    10.754297   10.787069   11.036532    ( 0.0000,  0.0000,  2.0000)
   1 Cr    11.014282    1.844299    1.659622    ( 0.0000,  0.0000,  0.0000)
   2 Ni     1.603445   -0.045719    1.920352    ( 0.0000,  0.0000,  1.5000)
   3 Cr     1.931905    1.522300   10.721594    ( 0.0000,  0.0000,  0.0000)
   4 Al     3.708152   -0.149563    0.393197    ( 0.0000,  0.0000,  0.0000)
   5 Fe     3.859318    1.779749    1.499886    ( 0.0000,  0.0000,  2.0000)
   6 Ni     5.489924   10.770594    2.135397    ( 0.0000,  0.0000,  1.5000)
   7 Al     5.450445    1.965901   -0.103299    ( 0.0000,  0.0000,  0.0000)
   8 Al     7.457272   10.614172   -0.007672    ( 0.0000,  0.0000,  0.0000)
   9 Co     7.281011    1.735725    1.691939    ( 0.0000,  0.0000,  2.1000)
  10 Ni     8.978027    0.045165    1.977786    ( 0.0000,  0.0000,  1.5000)
  11 Co     9.172312    1.570351   -0.091881    ( 0.0000,  0.0000,  2.1000)
  12 Ni     0.179336    3.567074   10.622951    ( 0.0000,  0.0000,  1.5000)
  13 Cr    10.657566    5.020614    1.701215    ( 0.0000,  0.0000,  0.0000)
  14 Fe     1.931504    3.477102    1.428961    ( 0.0000,  0.0000,  2.0000)
  15 Cr     1.778760    5.382110   10.822030    ( 0.0000,  0.0000,  0.0000)
  16 Co     3.497920    3.443814   10.537101    ( 0.0000,  0.0000,  2.1000)
  17 Cr     3.419701    5.082695    1.484146    ( 0.0000,  0.0000,  0.0000)
  18 Co     5.495756    3.431937    1.782467    ( 0.0000,  0.0000,  2.1000)
  19 Fe     5.308886    5.232542   -0.085130    ( 0.0000,  0.0000,  2.0000)
  20 Cr     7.081099    3.434240   -0.074568    ( 0.0000,  0.0000,  0.0000)
  21 Fe     7.231400    5.055054    1.470596    ( 0.0000,  0.0000,  2.0000)
  22 Co     9.138442    3.349589    1.248782    ( 0.0000,  0.0000,  2.1000)
  23 Al     8.929290    5.394620   10.667651    ( 0.0000,  0.0000,  0.0000)
  24 Ni    10.736234    7.327091   10.841281    ( 0.0000,  0.0000,  1.5000)
  25 Cr    10.673461    9.131477    2.240675    ( 0.0000,  0.0000,  0.0000)
  26 Cr     1.502455    6.992012    1.977351    ( 0.0000,  0.0000,  0.0000)
  27 Al     1.683465    8.961554    0.283692    ( 0.0000,  0.0000,  0.0000)
  28 Cr     3.724372    7.119906    0.057013    ( 0.0000,  0.0000,  0.0000)
  29 Cr     3.509638    9.075278    1.880987    ( 0.0000,  0.0000,  0.0000)
  30 Fe     5.450103    7.181618    1.609899    ( 0.0000,  0.0000,  2.0000)
  31 Fe     5.337531    8.930197    0.150007    ( 0.0000,  0.0000,  2.0000)
  32 Ni     7.245860    7.193455    0.269208    ( 0.0000,  0.0000,  1.5000)
  33 Cr     7.258914    9.082076    2.094774    ( 0.0000,  0.0000,  0.0000)
  34 Co     9.148042    6.951437    1.702474    ( 0.0000,  0.0000,  2.1000)
  35 Ni     9.135169    8.912381   11.315907    ( 0.0000,  0.0000,  1.5000)
  36 Ni    -0.290829   10.963497    3.824216    ( 0.0000,  0.0000,  1.5000)
  37 Co    11.009764    2.059414    5.543775    ( 0.0000,  0.0000,  2.1000)
  38 Co     1.572041   11.124650    5.305379    ( 0.0000,  0.0000,  2.1000)
  39 Cr     1.647689    1.917197    3.382622    ( 0.0000,  0.0000,  0.0000)
  40 Fe     3.610692   11.037379    3.540365    ( 0.0000,  0.0000,  2.0000)
  41 Al     3.487775    1.794137    5.460242    ( 0.0000,  0.0000,  0.0000)
  42 Fe     5.353502   10.972326    5.447334    ( 0.0000,  0.0000,  2.0000)
  43 Ni     5.668826    2.002506    3.746855    ( 0.0000,  0.0000,  1.5000)
  44 Cr     7.568244    0.146908    3.774240    ( 0.0000,  0.0000,  0.0000)
  45 Co     7.362481    1.855357    5.600465    ( 0.0000,  0.0000,  2.1000)
  46 Co     9.005929   10.897579    5.593562    ( 0.0000,  0.0000,  2.1000)
  47 Ni     8.944471    2.085986    3.400702    ( 0.0000,  0.0000,  1.5000)
  48 Ni    10.665374    3.426432    3.429726    ( 0.0000,  0.0000,  1.5000)
  49 Cr    10.814510    5.115911    5.114237    ( 0.0000,  0.0000,  0.0000)
  50 Co     1.933582    3.654141    5.384944    ( 0.0000,  0.0000,  2.1000)
  51 Al     1.613470    5.265603    3.521703    ( 0.0000,  0.0000,  0.0000)
  52 Al     3.514265    3.482388    3.343847    ( 0.0000,  0.0000,  0.0000)
[...]
  2. axis:    yes    0.000000   10.820500    0.000000    48     0.2254
  3. axis:    yes    0.000000    0.000000   10.820500    48     0.2254

  Lengths:  10.820500  10.820500  10.820500
  Angles:   90.000000  90.000000  90.000000

Effective grid spacing dv^(1/3) = 0.2254

     iter     time        total  log10-change:  magmom
                         energy  eigst   dens
iter:   1 01:16:24  -970.159409                  +129.0867
iter:   2 01:18:29  -866.109680  -0.19  -1.18    +71.1361
iter:   3 01:20:36  -853.019431  -0.84  -1.19    +62.5774
iter:   4 01:22:43  -830.629051  -1.27  -1.26    +58.1433
iter:   5 01:24:50  -822.882003  -1.57  -1.30    +56.1847
iter:   6 01:26:58  -822.644302  -1.35  -1.34    +57.1524
iter:   7 01:29:04  -813.649956  -1.29  -1.40    +56.5895
iter:   8 01:31:13  -810.144527  -1.58  -1.53    +56.7749
iter:   9 01:33:21  -808.306286  -1.79  -1.64    +57.7499
iter:  10 01:35:30  -805.535428  -2.35  -1.70    +58.5298
iter:  11 01:37:39  -805.719354  -2.40  -1.78    +61.0126
iter:  12 01:39:48  -806.277635  -2.45  -1.85    +62.0712
iter:  13 01:41:57  -806.697650  -2.38  -1.90    +63.0095
iter:  14 01:44:06  -806.200399  -2.60  -1.92    +64.0499
iter:  15 01:46:14  -806.129253  -2.83  -2.01    +64.3200
iter:  16 01:48:23  -806.377407  -2.87  -2.07    +64.9529
iter:  17 01:50:32  -806.540666  -2.93  -2.10    +65.7035
iter:  18 01:52:40  -806.037917  -2.88  -2.11    +65.5862
iter:  19 01:54:49  -806.103047  -3.22  -2.30    +65.9627
iter:  20 01:56:57  -806.247455  -3.27  -2.35    +66.3105
iter:  21 01:59:05  -806.221059  -3.30  -2.38    +66.5108
iter:  22 02:01:13  -806.267928c -3.27  -2.42    +66.7201
iter:  23 02:03:21  -806.219438c -3.54  -2.48    +66.7927
iter:  24 02:05:30  -806.227377c -3.69  -2.54    +66.9179
iter:  25 02:07:38  -806.282411c -3.79  -2.60    +67.1569
iter:  26 02:09:46  -806.293403c -3.82  -2.62    +67.1068
iter:  27 02:11:51  -806.316810c -4.03  -2.67    +67.1674
iter:  28 02:14:00  -806.320677c -4.01  -2.68    +67.1856
iter:  29 02:16:08  -806.334918c -4.22  -2.74    +67.1568
iter:  30 02:18:17  -806.334621c -4.23  -2.76    +67.1406
iter:  31 02:20:27  -806.342088c -4.33  -2.82    +67.1622
iter:  32 02:22:35  -806.351607c -4.51  -2.86    +67.0844
iter:  33 02:24:45  -806.358872c -4.51  -2.89    +67.0688
iter:  34 02:26:54  -806.366190c -4.55  -2.91    +67.0107
iter:  35 02:29:02  -806.376913c -4.48  -2.96    +66.9088
iter:  36 02:31:11  -806.373419c -4.67  -2.97    +66.8825
iter:  37 02:33:20  -806.381720c -4.76  -3.05    +66.8296
iter:  38 02:35:28  -806.391354c -4.74  -3.08    +66.7273
iter:  39 02:37:37  -806.394880c -4.85  -3.10    +66.7020
iter:  40 02:39:46  -806.401572c -4.82  -3.13    +66.6402
iter:  41 02:41:54  -806.405128c -4.88  -3.15    +66.5558
iter:  42 02:44:02  -806.407009c -5.07  -3.20    +66.5086
iter:  43 02:46:11  -806.412731c -5.09  -3.25    +66.4449
iter:  44 02:48:19  -806.417695c -5.08  -3.27    +66.3665
iter:  45 02:50:27  -806.420074c -5.15  -3.29    +66.3145
iter:  46 02:52:36  -806.423285c -5.25  -3.33    +66.2630
iter:  47 02:54:44  -806.426567c -5.25  -3.35    +66.2068
iter:  48 02:56:52  -806.428135c -5.42  -3.40    +66.1541
iter:  49 02:59:01  -806.432143c -5.34  -3.43    +66.0955
iter:  50 03:01:09  -806.436211c -5.22  -3.46    +66.0148
iter:  51 03:03:18  -806.438228c -5.42  -3.47    +65.9630
iter:  52 03:05:27  -806.440398c -5.52  -3.52    +65.9177
iter:  53 03:07:36  -806.444290c -5.29  -3.53    +65.8472
iter:  54 03:09:45  -806.445568c -5.53  -3.55    +65.8072
iter:  55 03:11:53  -806.448079c -5.50  -3.57    +65.7743
iter:  56 03:14:02  -806.450932c -5.38  -3.61    +65.7228
iter:  57 03:16:12  -806.452105c -5.60  -3.61    +65.7135
iter:  58 03:18:21  -806.453309c -5.63  -3.66    +65.6981
iter:  59 03:20:29  -806.454454c -5.68  -3.67    +65.6894
iter:  60 03:22:38  -806.455243c -5.77  -3.74    +65.6833
iter:  61 03:24:47  -806.455958c -5.99  -3.72    +65.6831
iter:  62 03:26:55  -806.457357c -5.93  -3.81    +65.6844
iter:  63 03:29:04  -806.457133c -6.46  -3.82    +65.6769
iter:  64 03:31:12  -806.458226c -6.07  -3.87    +65.6597
iter:  65 03:33:20  -806.457995c -6.47  -3.89    +65.6777
iter:  66 03:35:27  -806.459174c -6.16  -3.92    +65.6841
iter:  67 03:37:35  -806.458836c -6.60  -3.95    +65.6732
iter:  68 03:39:44  -806.459853c -6.13  -3.98    +65.6634
iter:  69 03:41:50  -806.459130c -6.26  -4.03c   +65.6778
iter:  70 03:43:58  -806.458739c -5.62  -4.05c   +65.6989
iter:  71 03:46:08  -806.460134c -6.33  -3.92    +65.7097
iter:  72 03:48:16  -806.455400c -5.32  -3.92    +65.6450
iter:  73 03:50:22  -806.451775c -5.20  -3.91    +65.5513
iter:  74 03:52:27  -806.450492c -5.43  -3.86    +65.4625
iter:  75 03:54:32  -806.451352c -5.63  -3.77    +65.4013
iter:  76 03:56:36  -806.451321c -6.25  -3.68    +65.4067
iter:  77 03:58:39  -806.452438c -5.87  -3.77    +65.3937
iter:  78 04:00:43  -806.452997c -5.81  -3.70    +65.3915
iter:  79 04:02:47  -806.454719c -5.24  -3.61    +65.4012
iter:  80 04:04:50  -806.453034c -5.67  -3.59    +65.3923
iter:  81 04:06:53  -806.453865c -5.82  -3.88    +65.3956
iter:  82 04:08:56  -806.453464c -6.32  -3.82    +65.3890
iter:  83 04:10:58  -806.454467c -6.12  -4.03c   +65.3863
iter:  84 04:13:33  -806.455722c -5.99  -4.04c   +65.3834
iter:  85 04:15:47  -806.455684c -6.46  -4.00c   +65.3873
iter:  86 04:17:51  -806.456542c -6.22  -4.20c   +65.3998
iter:  87 04:19:54  -806.456985c -6.63  -4.23c   +65.4037
iter:  88 04:21:58  -806.457890c -6.27  -4.30c   +65.4132
iter:  89 04:24:02  -806.456758c -6.47  -4.27c   +65.3943
iter:  90 04:26:05  -806.454561c -5.63  -4.36c   +65.3364
iter:  91 04:28:08  -806.454771c -6.71  -4.22c   +65.3215
iter:  92 04:30:12  -806.455737c -6.49  -4.22c   +65.3188
iter:  93 04:32:15  -806.460281c -5.08  -4.27c   +65.3270
iter:  94 04:34:19  -806.459951c -6.28  -4.03c   +65.3391
iter:  95 04:36:22  -806.461185c -6.06  -4.04c   +65.3342
iter:  96 04:38:26  -806.461158c -6.51  -3.99    +65.3564
iter:  97 04:40:30  -806.462053c -6.24  -4.01c   +65.3566
iter:  98 04:42:33  -806.462202c -6.05  -3.96    +65.3743
iter:  99 04:44:37  -806.462248c -6.23  -3.82    +65.3650
iter: 100 04:46:40  -806.462855c -6.06  -3.96    +65.3771
iter: 101 04:48:43  -806.463027c -6.27  -3.83    +65.3786
iter: 102 04:50:46  -806.464223c -5.70  -3.89    +65.3915
iter: 103 04:52:50  -806.463452c -6.19  -3.74    +65.4112
iter: 104 04:55:18  -806.464211c -6.11  -4.12c   +65.4243
iter: 105 04:57:42  -806.463816c -6.66  -4.03c   +65.4219
iter: 106 04:59:46  -806.464403c -6.49  -4.10c   +65.4432
iter: 107 05:01:50  -806.463934c -6.76  -4.16c   +65.4193
iter: 108 05:03:54  -806.463180c -6.24  -4.22c   +65.3607
iter: 109 05:05:58  -806.463993c -6.35  -4.21c   +65.4013
iter: 110 05:08:02  -806.463087c -6.44  -4.29c   +65.3616
iter: 111 05:10:05  -806.463407c -7.05  -4.32c   +65.3655
iter: 112 05:12:09  -806.463785c -6.69  -4.42c   +65.3905
iter: 113 05:14:13  -806.463769c -7.22  -4.44c   +65.3887
iter: 114 05:16:16  -806.464500c -6.44  -4.48c   +65.4191
iter: 115 05:18:20  -806.462686c -5.61  -4.49c   +65.3367
iter: 116 05:20:23  -806.460936c -5.03  -4.33c   +65.1941
iter: 117 05:22:27  -806.461352c -6.38  -4.00c   +65.2199
iter: 118 05:24:31  -806.462386c -5.72  -4.07c   +65.2727
iter: 119 05:26:34  -806.462734c -6.18  -4.27c   +65.2855
iter: 120 05:28:37  -806.461130c -5.19  -4.33c   +65.2132
iter: 121 05:30:40  -806.461108c -6.09  -4.02c   +65.2124
iter: 122 05:32:43  -806.461272c -6.71  -3.96    +65.2229
iter: 123 05:34:46  -806.461402c -7.03  -4.05c   +65.2203
iter: 124 05:36:49  -806.461408c -6.52  -4.01c   +65.2302
iter: 125 05:38:52  -806.461415c -6.23  -4.07c   +65.2356
iter: 126 05:40:55  -806.461489c -6.40  -3.93    +65.2379
iter: 127 05:42:58  -806.461811c -6.02  -4.10c   +65.2339
iter: 128 05:45:01  -806.461677c -6.35  -3.91    +65.2448
iter: 129 05:47:14  -806.462007c -6.22  -4.18c   +65.2566
iter: 130 05:49:50  -806.462058c -6.59  -4.19c   +65.2544
iter: 131 05:51:54  -806.462490c -6.27  -4.48c   +65.2675
iter: 132 05:53:57  -806.463059c -5.95  -4.45c   +65.2816
iter: 133 05:56:01  -806.462673c -6.45  -4.32c   +65.2683
iter: 134 05:58:04  -806.462576c -7.26  -4.36c   +65.2694
iter: 135 06:00:08  -806.462891c -6.64  -4.38c   +65.2759
iter: 136 06:02:12  -806.463037c -6.97  -4.34c   +65.2800
iter: 137 06:04:16  -806.463225c -6.88  -4.35c   +65.2889
iter: 138 06:06:19  -806.463252c -6.84  -4.37c   +65.2805
iter: 139 06:08:22  -806.463692c -6.53  -4.28c   +65.2872
iter: 140 06:10:26  -806.463748c -6.55  -4.27c   +65.2909
iter: 141 06:12:30  -806.464068c -6.31  -4.12c   +65.2994
iter: 142 06:14:33  -806.464293c -6.62  -4.19c   +65.3105
iter: 143 06:16:37  -806.464575c -6.68  -4.39c   +65.3215
iter: 144 06:18:40  -806.464591c -7.08  -4.42c   +65.3238
iter: 145 06:20:44  -806.465027c -6.57  -4.42c   +65.3358
iter: 146 06:22:47  -806.464476c -6.63  -4.44c   +65.3168
iter: 147 06:24:50  -806.463864c -6.26  -4.40c   +65.2874
iter: 148 06:26:53  -806.464409c -6.67  -4.43c   +65.3093
iter: 149 06:28:56  -806.464108c -7.03  -4.50c   +65.2980
iter: 150 06:30:59  -806.464757c -6.47  -4.47c   +65.3181
iter: 151 06:33:02  -806.464385c -7.01  -4.44c   +65.3120
iter: 152 06:35:04  -806.464414c -7.24  -4.52c   +65.3056
iter: 153 06:37:07  -806.464764c -6.76  -4.45c   +65.3192
iter: 154 06:39:35  -806.464520c -6.97  -4.53c   +65.3066
iter: 155 06:42:00  -806.464791c -6.95  -4.49c   +65.3139
iter: 156 06:44:04  -806.464898c -7.41c -4.55c   +65.3194

Converged after 156 iterations.

Dipole moment: (16.882379, -27.457511, -8.950095) |e|*Ang

Total magnetic moment: (0.000000, 0.000000, 65.319418)
Local magnetic moments:
   0 Fe ( 0.000000,  0.000000,  2.025304)
   1 Cr ( 0.000000,  0.000000,  0.941159)
   2 Ni ( 0.000000,  0.000000,  0.019055)
   3 Cr ( 0.000000,  0.000000, -1.585260)
   4 Al ( 0.000000,  0.000000, -0.019299)
   5 Fe ( 0.000000,  0.000000,  1.794838)
   6 Ni ( 0.000000,  0.000000,  0.229874)
   7 Al ( 0.000000,  0.000000, -0.035319)
   8 Al ( 0.000000,  0.000000, -0.019570)
   9 Co ( 0.000000,  0.000000,  1.348325)
  10 Ni ( 0.000000,  0.000000,  0.137847)
  11 Co ( 0.000000,  0.000000,  1.322524)
  12 Ni ( 0.000000,  0.000000,  0.242253)
  13 Cr ( 0.000000,  0.000000,  0.844060)
  14 Fe ( 0.000000,  0.000000, -0.493738)
  15 Cr ( 0.000000,  0.000000, -0.779288)
  16 Co ( 0.000000,  0.000000,  0.868959)
  17 Cr ( 0.000000,  0.000000,  0.235077)
  18 Co ( 0.000000,  0.000000,  1.127761)
  19 Fe ( 0.000000,  0.000000,  1.709222)
  20 Cr ( 0.000000,  0.000000, -1.471023)
  21 Fe ( 0.000000,  0.000000,  2.132464)
  22 Co ( 0.000000,  0.000000,  0.876569)
  23 Al ( 0.000000,  0.000000, -0.030894)
  24 Ni ( 0.000000,  0.000000,  0.297770)
  25 Cr ( 0.000000,  0.000000, -1.136252)
  26 Cr ( 0.000000,  0.000000, -0.122182)
  27 Al ( 0.000000,  0.000000, -0.011165)
  28 Cr ( 0.000000,  0.000000, -0.218677)
  29 Cr ( 0.000000,  0.000000, -1.453939)
  30 Fe ( 0.000000,  0.000000,  1.751080)
  31 Fe ( 0.000000,  0.000000,  1.558106)
  32 Ni ( 0.000000,  0.000000,  0.382584)
  33 Cr ( 0.000000,  0.000000,  1.045688)
  34 Co ( 0.000000,  0.000000,  1.023848)
  35 Ni ( 0.000000,  0.000000,  0.285248)
  36 Ni ( 0.000000,  0.000000,  0.159345)
  37 Co ( 0.000000,  0.000000,  1.567840)
  38 Co ( 0.000000,  0.000000,  1.333637)
  39 Cr ( 0.000000,  0.000000, -1.481540)
  40 Fe ( 0.000000,  0.000000,  2.211903)
  41 Al ( 0.000000,  0.000000, -0.045928)
  42 Fe ( 0.000000,  0.000000,  2.179716)
  43 Ni ( 0.000000,  0.000000,  0.397772)
  44 Cr ( 0.000000,  0.000000, -0.882198)
  45 Co ( 0.000000,  0.000000,  1.316887)
  46 Co ( 0.000000,  0.000000,  1.269292)
  47 Ni ( 0.000000,  0.000000,  0.308407)
  48 Ni ( 0.000000,  0.000000,  0.138358)
  49 Cr ( 0.000000,  0.000000,  0.643265)
  50 Co ( 0.000000,  0.000000,  0.957753)
  51 Al ( 0.000000,  0.000000, -0.012914)
  52 Al ( 0.000000,  0.000000, -0.029237)
  53 Fe ( 0.000000,  0.000000,  2.084088)
  54 Fe ( 0.000000,  0.000000,  2.460467)
  55 Fe ( 0.000000,  0.000000,  2.325323)
  56 Ni ( 0.000000,  0.000000,  0.496848)
  57 Ni ( 0.000000,  0.000000,  0.265305)
  58 Co ( 0.000000,  0.000000,  0.585145)
  59 Co ( 0.000000,  0.000000,  0.701652)
[...]
  93 Cr ( 0.000000,  0.000000,  1.599558)
  94 Fe ( 0.000000,  0.000000,  1.476515)
  95 Cr ( 0.000000,  0.000000, -1.333177)
  96 Ni ( 0.000000,  0.000000,  0.204478)
  97 Fe ( 0.000000,  0.000000,  2.549906)
  98 Co ( 0.000000,  0.000000,  0.812948)
  99 Ni ( 0.000000,  0.000000,  0.457965)
 100 Cr ( 0.000000,  0.000000,  1.879523)
 101 Al ( 0.000000,  0.000000, -0.014573)
 102 Cr ( 0.000000,  0.000000, -0.665283)
 103 Co ( 0.000000,  0.000000,  1.077483)
 104 Al ( 0.000000,  0.000000, -0.029326)
 105 Ni ( 0.000000,  0.000000,  0.265593)
 106 Co ( 0.000000,  0.000000,  1.277068)
 107 Fe ( 0.000000,  0.000000,  2.509532)

Energy contributions relative to reference atoms: (reference = -3382523.201499)

Kinetic:       +476.618338
Potential:     -434.002437
External:        +0.000000
XC:            -880.067717
Entropy (-ST):   -4.255838
Local:          +33.114837
Free energy:   -808.592817
Extrapolated:  -806.464898

Spin contamination: 23.006787 electrons
Showing only first 2 kpts
                      Up                     Down
 Kpt  Band  Eigenvalues  Occupancy  Eigenvalues  Occupancy
  0   470      9.13183    0.99691     10.10147    0.01945
  0   471      9.15261    0.99620     10.11596    0.01687
  0   472      9.16111    0.99586     10.13291    0.01428
  0   473      9.17703    0.99515     10.14623    0.01252

  1   470      9.14120    0.99661     10.11000    0.01789
  1   471      9.15191    0.99622     10.11619    0.01683
  1   472      9.16528    0.99569     10.13411    0.01411
  1   473      9.18205    0.99490     10.14058    0.01324

Fermi level: 9.70946

No gap

Forces in eV/Ang:
  0 Fe    0.24259   -0.47375   -1.23075
  1 Cr   -0.75041   -0.04024   -0.08932
  2 Ni    1.10827    0.52393   -0.09047
  3 Cr   -0.67153    1.18782    0.18333
  4 Al    0.54821    1.08822   -3.12750
  5 Fe   -1.81575    1.19104    2.51401
  6 Ni    0.63794    0.46835   -0.69857
  7 Al   -1.04583   -2.41452   -1.19146
  8 Al   -0.87073    0.34828    0.68498
  9 Co   -0.41340    0.38430    0.40310
 10 Ni    0.56526    0.92836   -1.66006
 11 Co   -0.26012    0.49853   -0.21608
 12 Ni    0.16999   -0.87169   -0.52862
 13 Cr    0.59323    1.65806   -0.05011
 14 Fe   -0.93587   -0.70643    1.32136
 15 Cr    0.08592    0.72764   -0.41130
 16 Co    0.69860    0.89030   -0.11509
 17 Cr    1.36487    2.18071    0.40731
 18 Co   -0.32764    0.70318    0.23357
 19 Fe    0.39090   -0.80621    0.70828
 20 Cr    2.64325    2.38024   -0.62369
 21 Fe   -0.39770    0.72643    2.13679
 22 Co   -1.07882    0.60494    1.74671
 23 Al    0.75900    0.86279    1.96264
 24 Ni    1.58464   -0.80817    1.32064
 25 Cr    0.37399   -0.91063   -0.61708
 26 Cr   -0.22156    1.50504   -1.37921
 27 Al   -0.79821   -0.42184   -0.83189
 28 Cr   -1.84084    0.40574    0.53498
 29 Cr    1.33353   -1.97926    2.17730
 30 Fe   -0.84338   -0.57967    1.78640
 31 Fe    1.19009    0.88805   -0.50988
 32 Ni    0.58322    0.80111   -0.72040
 33 Cr   -0.35858    0.37316   -1.10483
 34 Co    0.35802    0.23816    1.94394
 35 Ni   -0.90844    0.97419   -1.74765
 36 Ni    1.50345    1.07785   -0.77743
 37 Co   -1.14742    0.25078   -1.14599
 38 Co    0.99071   -2.10687    0.16689
 39 Cr   -0.01006   -1.03624    0.59127
 40 Fe   -0.45183   -0.49983   -0.11608
 41 Al    1.04101   -0.11544   -0.65717
 42 Fe    0.77030   -1.41608   -0.95517
 43 Ni   -2.13979   -2.31259   -0.45894
 44 Cr   -2.19927    0.32011    0.45374
 45 Co   -0.35012    0.01069   -0.89007
 46 Co   -0.04963   -0.03446    0.34581
 47 Ni   -0.34639   -1.59115    0.48231
 48 Ni    1.27886    1.08954    0.49443
 49 Cr   -0.52294    0.83499    3.36719
 50 Co   -0.49624   -0.00201   -0.53008
 51 Al    1.39944   -0.73648   -0.67534
 52 Al    1.38721   -0.11344    1.15445
 53 Fe    0.39792   -0.61917    0.03701
 54 Fe    0.62027   -0.27247    0.36070
 55 Fe    0.11002   -0.25896   -0.90074
 56 Ni    0.64540    2.29383   -1.15005
 57 Ni    1.30214    0.69124    0.26443
 58 Co    0.03309   -0.93355   -0.55228
 59 Co   -0.87554   -0.23828   -0.63887
[...]
 93 Cr   -0.77758   -2.34743   -0.71477
 94 Fe    0.99513   -0.99892   -1.65375
 95 Cr    0.70948    2.67672    0.45481
 96 Ni   -0.99734   -1.02676    0.33027
 97 Fe    0.17311    0.61526   -0.09936
 98 Co    1.75143    0.43290    0.57553
 99 Ni    0.77335    0.72806    0.25444
100 Cr    2.00067   -1.09683    0.21423
101 Al    0.92260    0.33459    0.43125
102 Cr    0.07283    1.34904   -1.19402
103 Co   -0.24848    0.30869    0.61187
104 Al    0.25127   -0.67892   -1.08850
105 Ni   -0.68032    0.61838    0.42419
106 Co   -0.23732   -0.61630   -1.40791
107 Fe   -0.61075    0.98199    0.12980

Date: Fri Apr 14 06:44:27 2023