User:   c.zeng@d0054
Date:   Fri Apr 14 01:10:41 2023
Arch:   x86_64
Pid:    186982
CWD:    /home/c.zeng/projects/hea-corrosion/hea-mlp/data-curation/bulk-md/dft-jobs/75
Python: 3.8.1
gpaw:   /home/c.zeng/usr/installs/gpaw/source/gpaw-22.8.0/gpaw
_gpaw:  /home/c.zeng/usr/installs/gpaw/source/gpaw-22.8.0/
        _gpaw.cpython-38-x86_64-linux-gnu.so
ase:    /home/c.zeng/.local/lib/python3.8/site-packages/ase-3.22.1-py3.8.egg/ase (version 3.22.1)
numpy:  /shared/centos7/python/3.8.1/lib/python3.8/site-packages/numpy (version 1.17.4)
scipy:  /shared/centos7/python/3.8.1/lib/python3.8/site-packages/scipy (version 1.4.1)
units:  Angstrom and eV
cores: 30
OpenMP: False
OMP_NUM_THREADS: 1

Input parameters:
  convergence: {energy: 0.0001}
  kpts: [2 2 2]
  maxiter: 666
  mode: {ecut: 350.0,
         name: pw}
  occupations: {fixmagmom: False,
                name: fermi-dirac,
                width: 0.1}
  spinpol: True
  xc: PBE

System changes: positions, numbers, cell, pbc, initial_charges, initial_magmoms

Initialize ...

species:
  Fe:
    name: Iron
    id: 37abbd8d6c3c35915a9b583b742da910
    Z: 26.0
    valence: 8
    core: 18
    charge: 0.0
    file: /home/c.zeng/usr/data/gpaw-setups-0.9.20000/Fe.PBE.gz
    compensation charges: {type: gauss,
                           rc: 0.33,
                           lmax: 2}
    cutoffs: {filter: 2.06,
              core: 2.67}
    valence states:
      #              energy  rcut
      - 4s(2.00)    -5.291   1.164
      - 4p(0.00)    -1.326   1.058
      - 3d(6.00)    -7.505   1.058
      -  s          21.920   1.164
      -  p          25.885   1.058
      -  d          19.706   1.058

    # Using partial waves for Fe as LCAO basis

  Cr:
    name: Chromium
    id: 33f258bda2ca9f93018e70263a35547b
    Z: 24.0
    valence: 6
    core: 18
    charge: 0.0
    file: /home/c.zeng/usr/data/gpaw-setups-0.9.20000/Cr.PBE.gz
    compensation charges: {type: gauss,
                           rc: 0.35,
                           lmax: 2}
    cutoffs: {filter: 2.14,
              core: 3.04}
    valence states:
      #              energy  rcut
      - 4s(1.00)    -4.007   1.164
      - 4p(0.00)    -0.989   1.217
      - 3d(5.00)    -2.913   1.111
      -  s          23.205   1.164
      -  p          26.223   1.217
      -  d          24.299   1.111

[...]

  Ni:
    name: Nickel
    id: 0d9f38a9d6e76a2886f07bb4381f212b
    Z: 28.0
    valence: 16
    core: 12
    charge: 0.0
    file: /home/c.zeng/usr/data/gpaw-setups-0.9.20000/Ni.PBE.gz
    compensation charges: {type: gauss,
                           rc: 0.36,
                           lmax: 2}
    cutoffs: {filter: 2.14,
              core: 1.98}
    valence states:
      #              energy  rcut
      - 4s(2.00)    -5.642   1.164
      - 3p(6.00)   -71.394   1.207
      - 4p(0.00)    -1.226   1.207
      - 3d(8.00)    -8.875   1.138
      -  s          21.570   1.164
      -  d          18.337   1.138

[...]

  Al:
    name: Aluminium
    id: 0292cae29f5d6237e50f6abdd43a7bdd
    Z: 13.0
    valence: 3
    core: 10
    charge: 0.0
    file: /home/c.zeng/usr/data/gpaw-setups-0.9.20000/Al.PBE.gz
    compensation charges: {type: gauss,
                           rc: 0.34,
                           lmax: 2}
    cutoffs: {filter: 1.91,
              core: 2.36}
    valence states:
      #              energy  rcut
      - 3s(2.00)    -7.753   1.085
      - 3p(1.00)    -2.712   1.085
      -  s          19.459   1.085
      -  p          24.499   1.085
      -  d           0.000   1.085

[...]

  Co:
    name: Cobalt
    id: 339d20d5b0b93d2de9531a1bee871d91
    Z: 27.0
    valence: 9
    core: 18
    charge: 0.0
    file: /home/c.zeng/usr/data/gpaw-setups-0.9.20000/Co.PBE.gz
    compensation charges: {type: gauss,
                           rc: 0.32,
                           lmax: 2}
    cutoffs: {filter: 1.87,
              core: 2.55}
    valence states:
      #              energy  rcut
      - 4s(2.00)    -5.469   1.005
      - 4p(0.00)    -1.277   1.058
      - 3d(7.00)    -8.205   1.005
      -  s          21.742   1.005
      -  p          25.934   1.058
      -  d          19.007   1.005

    # Using partial waves for Co as LCAO basis

Reference energy: -3382523.201499  # eV

Spin-polarized calculation.
Magnetic moment: 128.800000

Convergence criteria:
 Maximum [total energy] change in last 3 cyles: 0.0001 eV / electron
 Maximum integral of absolute [dens]ity change: 0.0001 electrons / valence electron
 Maximum integral of absolute [eigenst]ate change: 4e-08 eV^2 / valence electron
 Maximum number of scf [iter]ations: 666
 (Square brackets indicate name in SCF output, whereas a 'c' in
 the SCF output indicates the quantity has converged.)

Symmetries present (total): 1

  ( 1  0  0)
  ( 0  1  0)
  ( 0  0  1)

8 k-points: 2 x 2 x 2 Monkhorst-Pack grid
4 k-points in the irreducible part of the Brillouin zone
       k-points in crystal coordinates                weights
   0:     0.25000000   -0.25000000   -0.25000000          2/8
   1:     0.25000000   -0.25000000    0.25000000          2/8
   2:     0.25000000    0.25000000   -0.25000000          2/8
   3:     0.25000000    0.25000000    0.25000000          2/8

Wave functions: Plane wave expansion
  Cutoff energy: 350.000 eV
  Number of coefficients (min, max): 18865, 18865
  Pulay-stress correction: 0.000000 eV/Ang^3 (de/decut=0.000000)
  Using FFTW library
  ScaLapack parameters: grid=1x1, blocksize=None
  Wavefunction extrapolation:
    Improved wavefunction reuse through dual PAW basis

Occupation numbers: Fermi-Dirac:
  width: 0.1000  # eV

Eigensolver
   Davidson(niter=2)

Densities:
  Coarse grid: 48*48*48 grid
  Fine grid: 96*96*96 grid
  Total Charge: 0.000000

Density mixing:
  Method: difference
  Backend: pulay
  Linear mixing parameter: 0.05
  old densities: 5
  Damping of long wavelength oscillations: 50

Hamiltonian:
  XC and Coulomb potentials evaluated on a 96*96*96 grid
  Using the PBE Exchange-Correlation functional
  External potential:
    NoExternalPotential

XC parameters: PBE with 2 nearest neighbor stencil

Total number of cores used: 30
Parallelization over k-points: 2
Domain decomposition: 5 x 3 x 1

Number of atoms: 108
Number of atomic orbitals: 961
Number of bands in calculation: 649
Number of valence electrons: 945
Bands to converge: occupied

... initialized

Initializing position-dependent things.

Density initialized from atomic densities
Creating initial wave functions:
  649 bands from LCAO basis set

       /|            Fe            |
      / |               Ni    Ni   |
     /  |       Al       Ni     NiFe
    /   |          Cr     Co       |
   /    |Co      Fe CoCrr   Coe    |
  /   Cr|  NioFeAl             Fe  |
 *    NiCoAl   CrNi   FeAFe        |
 |Co    |Cr Fe Cr CoAl     Cr     Co
 | NiCo | AlNi Cr  AlAl   CrCrCr   |
 |   CrCo  Ni        NNiNi         |
 |      Co  NFeFeFe    Al CFe NiFe |
 |Co   CAl Al   CrFe      CCo      |
 |      .Cr-Al------CoiCo-Al-CNi---.
 |     /   Al   Ni     FeNi   NCr /
 |    /Cr     Cr         Co Ni   /
 |   /  Fe Fe     Co       Al   /
 |  /       Fe       Co      Cr/
 | /         CoNi             /i
 |/                      Co  /
 *--------------------------Fe

Positions:
   0 Fe    10.820441   10.937023   10.917941    ( 0.0000,  0.0000,  2.0000)
   1 Cr    10.794738    1.606301    1.784538    ( 0.0000,  0.0000,  0.0000)
   2 Ni     1.728820   -0.108349    1.774768    ( 0.0000,  0.0000,  1.5000)
   3 Cr     1.702287    1.814382   10.692864    ( 0.0000,  0.0000,  0.0000)
   4 Al     3.552249    0.322044   -0.152485    ( 0.0000,  0.0000,  0.0000)
   5 Fe     3.774471    1.773459    1.863396    ( 0.0000,  0.0000,  2.0000)
   6 Ni     5.638603   10.960894    1.559245    ( 0.0000,  0.0000,  1.5000)
   7 Al     5.530152    1.959564   -0.052960    ( 0.0000,  0.0000,  0.0000)
   8 Al     7.428527   10.695588    0.055898    ( 0.0000,  0.0000,  0.0000)
   9 Co     7.433430    1.866637    1.778843    ( 0.0000,  0.0000,  2.1000)
  10 Ni     8.988949   -0.083636    1.767034    ( 0.0000,  0.0000,  1.5000)
  11 Co     9.115124    1.904305    0.080205    ( 0.0000,  0.0000,  2.1000)
  12 Ni    -0.021550    3.491674   10.925802    ( 0.0000,  0.0000,  1.5000)
  13 Cr    10.691118    5.368271    1.877549    ( 0.0000,  0.0000,  0.0000)
  14 Fe     1.999262    3.565803    1.804384    ( 0.0000,  0.0000,  2.0000)
  15 Cr     1.569630    5.453204   11.011026    ( 0.0000,  0.0000,  0.0000)
  16 Co     3.870987    3.587283   10.965158    ( 0.0000,  0.0000,  2.1000)
  17 Cr     3.740055    5.275824    1.710158    ( 0.0000,  0.0000,  0.0000)
  18 Co     5.702339    3.604799    1.634928    ( 0.0000,  0.0000,  2.1000)
  19 Fe     5.421828    5.482677    0.087380    ( 0.0000,  0.0000,  2.0000)
  20 Cr     7.293257    3.652678   -0.152665    ( 0.0000,  0.0000,  0.0000)
  21 Fe     7.454991    5.361341    1.929824    ( 0.0000,  0.0000,  2.0000)
  22 Co     8.861892    3.489973    2.077175    ( 0.0000,  0.0000,  2.1000)
  23 Al     9.078848    5.322879   11.014778    ( 0.0000,  0.0000,  0.0000)
  24 Ni    10.652118    7.369569   10.525429    ( 0.0000,  0.0000,  1.5000)
  25 Cr    11.006880    8.941687    1.976312    ( 0.0000,  0.0000,  0.0000)
  26 Cr     1.534869    7.101237    1.668745    ( 0.0000,  0.0000,  0.0000)
  27 Al     1.532109    8.858949    0.010511    ( 0.0000,  0.0000,  0.0000)
  28 Cr     3.540868    7.036422    0.002301    ( 0.0000,  0.0000,  0.0000)
  29 Cr     3.628189    9.263519    1.531393    ( 0.0000,  0.0000,  0.0000)
  30 Fe     5.797137    7.122329    1.629168    ( 0.0000,  0.0000,  2.0000)
  31 Fe     5.479138    9.375175   -0.215510    ( 0.0000,  0.0000,  2.0000)
  32 Ni     7.325548    7.113707   -0.046777    ( 0.0000,  0.0000,  1.5000)
  33 Cr     7.540432    8.902395    1.834734    ( 0.0000,  0.0000,  0.0000)
  34 Co     9.303143    7.389366    1.994603    ( 0.0000,  0.0000,  2.1000)
  35 Ni     9.255131    9.128675   10.852946    ( 0.0000,  0.0000,  1.5000)
  36 Ni    -0.057595   11.103918    3.776781    ( 0.0000,  0.0000,  1.5000)
  37 Co    10.916075    1.760043    5.497309    ( 0.0000,  0.0000,  2.1000)
  38 Co     1.780532   10.795552    5.485214    ( 0.0000,  0.0000,  2.1000)
  39 Cr     1.774083    1.837035    3.499410    ( 0.0000,  0.0000,  0.0000)
  40 Fe     3.845342   10.894170    3.451102    ( 0.0000,  0.0000,  2.0000)
  41 Al     3.699040    1.697374    5.374325    ( 0.0000,  0.0000,  0.0000)
  42 Fe     5.471813   10.655199    5.159891    ( 0.0000,  0.0000,  2.0000)
  43 Ni     5.424316    1.971438    3.680461    ( 0.0000,  0.0000,  1.5000)
  44 Cr     7.289885   -0.094359    3.583508    ( 0.0000,  0.0000,  0.0000)
  45 Co     7.144416    1.637706    5.175594    ( 0.0000,  0.0000,  2.1000)
  46 Co     8.953552   10.849896    5.521322    ( 0.0000,  0.0000,  2.1000)
  47 Ni     8.996932    1.728394    3.744289    ( 0.0000,  0.0000,  1.5000)
  48 Ni    10.731624    3.385397    3.871831    ( 0.0000,  0.0000,  1.5000)
  49 Cr    10.869418    5.319135    5.784423    ( 0.0000,  0.0000,  0.0000)
  50 Co     1.779659    3.577657    5.577672    ( 0.0000,  0.0000,  2.1000)
  51 Al     1.286598    5.463215    3.519918    ( 0.0000,  0.0000,  0.0000)
  52 Al     3.460971    3.435227    3.657441    ( 0.0000,  0.0000,  0.0000)
  53 Fe     3.602147    5.282835    4.965729    ( 0.0000,  0.0000,  2.0000)
  54 Fe     5.278544    3.619793    5.404184    ( 0.0000,  0.0000,  2.0000)
  55 Fe     5.394289    5.307350    3.610790    ( 0.0000,  0.0000,  2.0000)
  56 Ni     7.209252    3.552359    3.844070    ( 0.0000,  0.0000,  1.5000)
  57 Ni     7.140927    5.427689    5.373683    ( 0.0000,  0.0000,  1.5000)
  58 Co     9.196061    3.547102    5.440969    ( 0.0000,  0.0000,  2.1000)
  59 Co     9.126638    5.496960    3.826483    ( 0.0000,  0.0000,  2.1000)
[...]
  93 Cr     7.281909    5.645925    9.049473    ( 0.0000,  0.0000,  0.0000)
  94 Fe     8.888747    3.477451    8.772765    ( 0.0000,  0.0000,  2.0000)
  95 Cr     8.897485    5.351733    7.422075    ( 0.0000,  0.0000,  0.0000)
  96 Ni    10.859155    7.183951    7.240475    ( 0.0000,  0.0000,  1.5000)
  97 Fe    10.788769    9.198345    8.885240    ( 0.0000,  0.0000,  2.0000)
  98 Co     1.590959    6.937964    8.953829    ( 0.0000,  0.0000,  2.1000)
  99 Ni     1.752407    8.870146    6.876613    ( 0.0000,  0.0000,  1.5000)
 100 Cr     3.640367    7.194170    7.305555    ( 0.0000,  0.0000,  0.0000)
 101 Al     3.520407    9.035578    9.111700    ( 0.0000,  0.0000,  0.0000)
 102 Cr     5.315550    7.116104    9.255237    ( 0.0000,  0.0000,  0.0000)
 103 Co     5.437603    9.122165    7.666992    ( 0.0000,  0.0000,  2.1000)
 104 Al     7.197972    7.045969    7.222486    ( 0.0000,  0.0000,  0.0000)
 105 Ni     7.256377    8.887084    8.959971    ( 0.0000,  0.0000,  1.5000)
 106 Co     9.002836    7.331887    8.833084    ( 0.0000,  0.0000,  2.1000)
 107 Fe     8.974996    9.151746    7.180922    ( 0.0000,  0.0000,  2.0000)

Unit cell:
           periodic     x           y           z      points  spacing
  1. axis:    yes   10.820500    0.000000    0.000000    48     0.2254
  2. axis:    yes    0.000000   10.820500    0.000000    48     0.2254
  3. axis:    yes    0.000000    0.000000   10.820500    48     0.2254

  Lengths:  10.820500  10.820500  10.820500
  Angles:   90.000000  90.000000  90.000000

Effective grid spacing dv^(1/3) = 0.2254

     iter     time        total  log10-change:  magmom
                         energy  eigst   dens
iter:   1 01:15:25  -971.606839                  +129.0867
iter:   2 01:17:32  -872.123066  -0.19  -1.18    +71.8831
iter:   3 01:19:38  -857.243429  -0.82  -1.18    +61.1711
iter:   4 01:21:44  -828.877450  -1.29  -1.26    +56.9987
iter:   5 01:23:50  -823.432357  -1.60  -1.30    +55.3064
iter:   6 01:25:57  -826.914472  -1.33  -1.34    +56.2698
iter:   7 01:28:03  -817.380106  -1.27  -1.38    +55.3912
iter:   8 01:30:10  -813.452819  -1.56  -1.50    +55.6735
iter:   9 01:32:16  -811.161082  -1.69  -1.59    +56.2192
iter:  10 01:34:23  -806.565290  -2.23  -1.66    +56.1116
iter:  11 01:36:30  -806.258615  -2.37  -1.76    +58.9002
iter:  12 01:38:38  -807.125540  -2.44  -1.84    +60.9223
iter:  13 01:40:49  -807.417206  -2.39  -1.87    +61.9219
iter:  14 01:43:00  -807.478266  -2.47  -1.92    +63.6327
iter:  15 01:45:10  -807.935060  -2.58  -1.96    +64.4086
iter:  16 01:47:21  -806.876182  -2.79  -1.98    +64.8032
iter:  17 01:49:59  -807.420345  -2.93  -2.07    +66.0902
iter:  18 01:52:44  -806.806695  -3.06  -2.05    +66.3813
iter:  19 01:54:57  -807.032240  -2.99  -2.18    +67.0502
iter:  20 01:57:08  -807.181317  -2.95  -2.21    +67.3929
iter:  21 01:59:19  -806.833443  -3.17  -2.22    +67.9453
iter:  22 02:01:31  -806.804745  -3.35  -2.33    +68.3153
iter:  23 02:03:41  -806.856466c -3.47  -2.41    +68.5457
iter:  24 02:05:52  -806.799558c -3.54  -2.41    +68.7732
iter:  25 02:08:04  -806.822427c -3.57  -2.50    +68.9311
iter:  26 02:10:15  -806.841242c -3.73  -2.52    +69.1004
iter:  27 02:12:25  -806.815359c -3.94  -2.55    +69.1791
iter:  28 02:14:37  -806.845405c -3.95  -2.61    +69.2348
iter:  29 02:16:47  -806.859129c -4.16  -2.64    +69.2496
iter:  30 02:18:58  -806.862735c -4.07  -2.64    +69.1930
iter:  31 02:21:10  -806.880890c -4.23  -2.71    +69.1237
iter:  32 02:23:21  -806.901729c -4.29  -2.73    +69.1291
iter:  33 02:25:32  -806.912589c -4.37  -2.76    +69.0469
iter:  34 02:27:43  -806.941887c -4.39  -2.80    +68.9463
iter:  35 02:29:53  -806.951430c -4.46  -2.83    +68.9294
iter:  36 02:32:04  -806.976284c -4.37  -2.85    +68.7511
iter:  37 02:34:17  -806.997096c -4.51  -2.89    +68.6228
iter:  38 02:36:28  -807.026290c -4.51  -2.93    +68.5000
iter:  39 02:38:38  -807.066156c -4.28  -2.95    +68.2856
iter:  40 02:40:49  -807.109827c -4.20  -2.96    +68.0007
iter:  41 02:43:00  -807.194051  -3.37  -2.95    +67.1694
iter:  42 02:45:12  -807.189107c -4.57  -2.81    +67.4912
iter:  43 02:47:23  -807.195783c -4.39  -2.86    +67.4231
iter:  44 02:49:34  -807.194722c -4.93  -2.86    +67.4996
iter:  45 02:51:45  -807.201091c -5.11  -2.86    +67.5078
iter:  46 02:53:57  -807.215296c -4.62  -2.85    +67.5091
iter:  47 02:56:08  -807.203237c -4.29  -2.79    +67.5081
iter:  48 02:58:24  -807.204262c -5.13  -2.86    +67.5528
iter:  49 03:01:22  -807.224290c -4.55  -2.87    +67.5553
iter:  50 03:03:49  -807.212453c -4.46  -2.83    +67.5518
iter:  51 03:06:00  -807.218739c -4.51  -2.87    +67.4892
iter:  52 03:08:13  -807.213321c -4.66  -2.87    +67.3841
iter:  53 03:10:24  -807.222566c -4.45  -2.94    +67.3448
iter:  54 03:12:35  -807.218761c -4.37  -2.96    +67.3165
iter:  55 03:14:47  -807.226842c -4.66  -3.06    +67.2341
iter:  56 03:16:58  -807.226359c -4.85  -3.08    +67.2017
iter:  57 03:19:09  -807.232222c -5.01  -3.13    +67.1842
iter:  58 03:21:22  -807.237585c -5.12  -3.17    +67.1399
iter:  59 03:23:32  -807.243394c -5.08  -3.18    +67.0662
iter:  60 03:25:44  -807.247270c -5.15  -3.25    +67.0390
iter:  61 03:27:54  -807.253694c -5.00  -3.26    +66.9869
iter:  62 03:30:05  -807.259833c -5.07  -3.32    +66.9079
iter:  63 03:32:17  -807.262547c -5.28  -3.37    +66.8654
iter:  64 03:34:29  -807.270945c -5.12  -3.46    +66.8167
iter:  65 03:36:40  -807.277211c -5.14  -3.45    +66.7377
iter:  66 03:38:51  -807.287370c -4.95  -3.45    +66.6333
iter:  67 03:41:02  -807.320744c -3.83  -3.37    +66.2385
iter:  68 03:43:13  -807.318360c -5.07  -3.14    +66.3678
iter:  69 03:45:23  -807.321307c -5.18  -3.16    +66.3689
iter:  70 03:47:34  -807.319096c -5.27  -3.15    +66.4043
iter:  71 03:50:18  -807.331963c -4.95  -3.19    +66.4634
iter:  72 03:53:04  -807.324130c -4.45  -3.11    +66.4289
iter:  73 03:55:17  -807.317431c -4.92  -3.10    +66.5077
iter:  74 03:57:27  -807.318138c -5.10  -3.25    +66.5565
iter:  75 03:59:02  -807.316264c -5.57  -3.22    +66.5414
iter:  76 04:01:08  -807.323891c -4.67  -3.31    +66.5662
iter:  77 04:03:28  -807.316433c -4.95  -3.21    +66.5245
iter:  78 04:05:49  -807.320028c -4.83  -3.41    +66.5031
iter:  79 04:08:09  -807.314953c -5.10  -3.26    +66.5229
iter:  80 04:10:28  -807.313996c -5.62  -3.57    +66.5246
iter:  81 04:12:48  -807.314306c -5.85  -3.72    +66.5432
iter:  82 04:15:08  -807.314339c -6.20  -3.68    +66.5387
iter:  83 04:17:27  -807.314353c -6.02  -3.80    +66.5534
iter:  84 04:19:46  -807.314522c -6.00  -3.78    +66.5484
iter:  85 04:22:06  -807.314676c -6.16  -3.86    +66.5527
iter:  86 04:24:25  -807.314551c -6.32  -3.96    +66.5584
iter:  87 04:26:45  -807.314683c -6.39  -4.04c   +66.5658
iter:  88 04:29:05  -807.314825c -6.75  -4.03c   +66.5652
iter:  89 04:31:24  -807.314856c -6.62  -4.14c   +66.5705
iter:  90 04:33:44  -807.314911c -6.75  -4.19c   +66.5707
iter:  91 04:36:04  -807.315173c -6.75  -4.23c   +66.5746
iter:  92 04:38:24  -807.315174c -6.80  -4.28c   +66.5755
iter:  93 04:40:43  -807.315371c -6.80  -4.30c   +66.5792
iter:  94 04:43:02  -807.315492c -7.00  -4.30c   +66.5788
iter:  95 04:45:22  -807.315510c -7.11  -4.33c   +66.5815
iter:  96 04:47:42  -807.315602c -7.11  -4.42c   +66.5815
iter:  97 04:50:01  -807.315744c -7.35  -4.47c   +66.5838
iter:  98 04:52:21  -807.315771c -7.28  -4.52c   +66.5841
iter:  99 04:54:40  -807.315966c -7.03  -4.56c   +66.5868
iter: 100 04:57:00  -807.316025c -7.46c -4.52c   +66.5870

Converged after 100 iterations.

Dipole moment: (28.200120, -3.616883, -5.268803) |e|*Ang

Total magnetic moment: (0.000000, 0.000000, 66.587015)
Local magnetic moments:
   0 Fe ( 0.000000,  0.000000,  1.805665)
   1 Cr ( 0.000000,  0.000000,  0.859930)
   2 Ni ( 0.000000,  0.000000, -0.072991)
   3 Cr ( 0.000000,  0.000000, -1.957726)
   4 Al ( 0.000000,  0.000000, -0.020103)
   5 Fe ( 0.000000,  0.000000,  2.161630)
   6 Ni ( 0.000000,  0.000000,  0.173856)
   7 Al ( 0.000000,  0.000000, -0.023339)
   8 Al ( 0.000000,  0.000000, -0.016401)
   9 Co ( 0.000000,  0.000000,  1.512106)
  10 Ni ( 0.000000,  0.000000,  0.022617)
  11 Co ( 0.000000,  0.000000,  1.204389)
  12 Ni ( 0.000000,  0.000000,  0.167216)
  13 Cr ( 0.000000,  0.000000,  0.734346)
  14 Fe ( 0.000000,  0.000000,  1.691899)
  15 Cr ( 0.000000,  0.000000, -1.134884)
  16 Co ( 0.000000,  0.000000,  1.001662)
  17 Cr ( 0.000000,  0.000000, -1.068076)
  18 Co ( 0.000000,  0.000000,  1.082976)
  19 Fe ( 0.000000,  0.000000,  1.511550)
  20 Cr ( 0.000000,  0.000000, -1.858273)
  21 Fe ( 0.000000,  0.000000,  2.345932)
  22 Co ( 0.000000,  0.000000,  1.410297)
  23 Al ( 0.000000,  0.000000, -0.023617)
  24 Ni ( 0.000000,  0.000000,  0.260622)
  25 Cr ( 0.000000,  0.000000, -0.916295)
  26 Cr ( 0.000000,  0.000000,  0.785435)
  27 Al ( 0.000000,  0.000000, -0.014223)
  28 Cr ( 0.000000,  0.000000,  0.556072)
  29 Cr ( 0.000000,  0.000000, -2.377139)
  30 Fe ( 0.000000,  0.000000,  1.881601)
  31 Fe ( 0.000000,  0.000000,  1.647321)
  32 Ni ( 0.000000,  0.000000,  0.222103)
  33 Cr ( 0.000000,  0.000000, -1.823600)
  34 Co ( 0.000000,  0.000000,  0.770954)
  35 Ni ( 0.000000,  0.000000,  0.247934)
  36 Ni ( 0.000000,  0.000000,  0.191706)
  37 Co ( 0.000000,  0.000000,  1.509330)
  38 Co ( 0.000000,  0.000000,  1.299329)
  39 Cr ( 0.000000,  0.000000, -1.640694)
  40 Fe ( 0.000000,  0.000000,  2.291374)
  41 Al ( 0.000000,  0.000000, -0.039010)
  42 Fe ( 0.000000,  0.000000,  2.177867)
  43 Ni ( 0.000000,  0.000000,  0.445736)
  44 Cr ( 0.000000,  0.000000, -1.492237)
  45 Co ( 0.000000,  0.000000,  1.332960)
  46 Co ( 0.000000,  0.000000,  1.232593)
  47 Ni ( 0.000000,  0.000000,  0.362301)
  48 Ni ( 0.000000,  0.000000,  0.346627)
  49 Cr ( 0.000000,  0.000000,  1.655307)
  50 Co ( 0.000000,  0.000000,  1.065479)
  51 Al ( 0.000000,  0.000000, -0.023779)
  52 Al ( 0.000000,  0.000000, -0.032782)
  53 Fe ( 0.000000,  0.000000,  1.899573)
  54 Fe ( 0.000000,  0.000000,  2.141773)
  55 Fe ( 0.000000,  0.000000,  2.150796)
  56 Ni ( 0.000000,  0.000000,  0.553715)
  57 Ni ( 0.000000,  0.000000,  0.153514)
  58 Co ( 0.000000,  0.000000,  1.360101)
  59 Co ( 0.000000,  0.000000,  1.088739)
[...]
  93 Cr ( 0.000000,  0.000000,  1.224284)
  94 Fe ( 0.000000,  0.000000,  1.952936)
  95 Cr ( 0.000000,  0.000000, -1.000439)
  96 Ni ( 0.000000,  0.000000,  0.354134)
  97 Fe ( 0.000000,  0.000000,  2.441599)
  98 Co ( 0.000000,  0.000000,  0.785031)
  99 Ni ( 0.000000,  0.000000,  0.390176)
 100 Cr ( 0.000000,  0.000000,  1.249267)
 101 Al ( 0.000000,  0.000000, -0.017725)
 102 Cr ( 0.000000,  0.000000, -0.753996)
 103 Co ( 0.000000,  0.000000,  1.002269)
 104 Al ( 0.000000,  0.000000, -0.009854)
 105 Ni ( 0.000000,  0.000000,  0.402824)
 106 Co ( 0.000000,  0.000000,  0.995865)
 107 Fe ( 0.000000,  0.000000,  2.233579)

Energy contributions relative to reference atoms: (reference = -3382523.201499)

Kinetic:       +468.617983
Potential:     -427.676363
External:        +0.000000
XC:            -879.267627
Entropy (-ST):   -4.205823
Local:          +33.112894
Free energy:   -809.418937
Extrapolated:  -807.316025

Spin contamination: 25.126644 electrons
Showing only first 2 kpts
                      Up                     Down
 Kpt  Band  Eigenvalues  Occupancy  Eigenvalues  Occupancy
  0   470      9.13485    0.99705     10.10997    0.01927
  0   471      9.15622    0.99634     10.12501    0.01663
  0   472      9.16893    0.99585     10.13491    0.01508
  0   473      9.18465    0.99515     10.14719    0.01336

  1   470      9.12597    0.99730     10.11597    0.01817
  1   471      9.15212    0.99649     10.12429    0.01674
  1   472      9.16036    0.99619     10.14058    0.01426
  1   473      9.17560    0.99557     10.16260    0.01148

Fermi level: 9.71701

No gap

Forces in eV/Ang:
  0 Fe   -0.34053   -0.27384   -1.15748
  1 Cr    0.11139    1.49708    0.55373
  2 Ni    0.77209    0.93679    0.39113
  3 Cr   -0.19771    0.74451    0.84735
  4 Al    0.01068   -1.16391    0.35389
  5 Fe   -0.60192    0.43220   -0.57347
  6 Ni   -0.71011   -0.27285    1.42757
  7 Al    0.19858   -0.62648    0.86919
  8 Al    0.39607    0.98080   -0.72305
  9 Co   -1.09402   -0.71836    0.46758
 10 Ni    1.18979    1.09722    0.97342
 11 Co   -0.56052   -0.85896   -0.57647
 12 Ni    0.29166    0.60061   -0.23557
 13 Cr   -1.30197   -0.86844   -1.05691
 14 Fe   -1.76171   -0.30219   -1.01891
 15 Cr    0.29051   -0.18598   -0.99592
 16 Co   -1.96019    0.23599   -0.96306
 17 Cr   -0.30626    0.17145    0.43740
 18 Co    0.01395    0.20379    1.91206
 19 Fe    0.85769   -1.06898   -0.20509
 20 Cr    0.57520    0.85888    0.69195
 21 Fe   -0.82129    0.00763    0.09396
 22 Co    1.89027    0.89619   -0.76853
 23 Al    0.01298    0.74405   -1.56210
 24 Ni   -0.08592   -1.90477    1.33407
 25 Cr   -2.47365    0.53785   -0.31157
 26 Cr   -0.04247    0.04867    0.82444
 27 Al    1.14065    1.34256   -1.54676
 28 Cr    0.06187    0.93085    0.78753
 29 Cr    1.00043   -0.72399    0.48344
 30 Fe   -2.09778    0.84357   -0.04170
 31 Fe   -0.81113   -1.81867    0.51564
 32 Ni    1.04597    1.22141    0.40171
 33 Cr   -1.22402   -0.47319   -0.47384
 34 Co   -0.59496   -0.38552   -0.75365
 35 Ni   -0.79285   -0.76297   -0.10715
 36 Ni    0.62489   -2.22329   -0.84358
 37 Co   -0.16875   -0.13409    0.72402
 38 Co   -0.12767    0.34512   -0.97308
 39 Cr   -0.84932   -1.46443   -0.07773
 40 Fe   -1.45603   -1.04889   -0.04694
 41 Al   -1.66466   -0.86383   -0.33940
 42 Fe   -0.20882    0.65165    1.91655
 43 Ni    0.07919   -0.60973   -1.39120
 44 Cr   -0.15908    0.34000    0.16549
 45 Co    0.28847   -0.00393    2.17101
 46 Co   -0.23353   -0.26917   -0.39949
 47 Ni   -0.37071    0.30035   -0.65409
 48 Ni    1.09502    1.51119   -2.31468
 49 Cr   -1.62417   -1.23513   -0.65648
 50 Co   -0.38340   -0.17546   -1.78859
 51 Al    2.74611   -2.03838    1.60695
 52 Al    1.50751    1.42307   -1.00564
 53 Fe   -0.87262    1.73282    2.06150
 54 Fe    0.85562    0.58721   -0.31202
 55 Fe    0.74959   -0.12906   -1.40361
 56 Ni    0.46193    0.57509   -0.73987
 57 Ni   -0.11818   -0.10660    0.43746
 58 Co   -2.06010    0.30325    0.96575
 59 Co   -0.39776   -1.01577   -0.18891
[...]
 93 Cr   -0.35469   -2.53995    0.50344
 94 Fe    1.55831    1.05624    1.29291
 95 Cr    1.43117   -0.58770   -0.98602
 96 Ni   -0.96503    0.34933   -0.23225
 97 Fe    0.31233   -1.37795    0.07757
 98 Co    1.49678    1.03407    0.70670
 99 Ni   -0.11417    0.19255    3.32297
100 Cr   -1.17889    0.06756   -0.04479
101 Al   -0.93176   -0.25965   -0.47888
102 Cr    0.58219    0.89058    0.28343
103 Co   -0.78510   -0.92304   -2.37141
104 Al   -1.23044    2.25525   -0.41169
105 Ni    0.39312    0.00032    1.02895
106 Co    0.62731   -0.18002    0.56188
107 Fe   -0.22988   -1.68397   -0.91578

Date: Fri Apr 14 04:57:20 2023