User:   c.zeng@d0143
Date:   Fri Apr  7 21:13:25 2023
Arch:   x86_64
Pid:    100693
CWD:    /home/c.zeng/projects/hea-corrosion/hea-mlp/data-curation/volume/dft-jobs/1
Python: 3.8.1
gpaw:   /home/c.zeng/usr/installs/gpaw/source/gpaw-22.8.0/gpaw
_gpaw:  /home/c.zeng/usr/installs/gpaw/source/gpaw-22.8.0/
        _gpaw.cpython-38-x86_64-linux-gnu.so
ase:    /home/c.zeng/.local/lib/python3.8/site-packages/ase-3.22.1-py3.8.egg/ase (version 3.22.1)
numpy:  /shared/centos7/python/3.8.1/lib/python3.8/site-packages/numpy (version 1.17.4)
scipy:  /shared/centos7/python/3.8.1/lib/python3.8/site-packages/scipy (version 1.4.1)
units:  Angstrom and eV
cores: 64
OpenMP: False
OMP_NUM_THREADS: 1

Input parameters:
  convergence: {energy: 0.0001}
  kpts: [2 2 2]
  maxiter: 666
  mode: {ecut: 350.0,
         name: pw}
  occupations: {fixmagmom: False,
                name: fermi-dirac,
                width: 0.1}
  spinpol: True
  xc: PBE

System changes: positions, numbers, cell, pbc, initial_charges, initial_magmoms

Initialize ...

species:
  Co:
    name: Cobalt
    id: 339d20d5b0b93d2de9531a1bee871d91
    Z: 27.0
    valence: 9
    core: 18
    charge: 0.0
    file: /home/c.zeng/usr/data/gpaw-setups-0.9.20000/Co.PBE.gz
    compensation charges: {type: gauss,
                           rc: 0.32,
                           lmax: 2}
    cutoffs: {filter: 1.87,
              core: 2.55}
    valence states:
      #              energy  rcut
      - 4s(2.00)    -5.469   1.005
      - 4p(0.00)    -1.277   1.058
      - 3d(7.00)    -8.205   1.005
      -  s          21.742   1.005
      -  p          25.934   1.058
      -  d          19.007   1.005

    # Using partial waves for Co as LCAO basis

  Fe:
    name: Iron
    id: 37abbd8d6c3c35915a9b583b742da910
    Z: 26.0
    valence: 8
    core: 18
    charge: 0.0
    file: /home/c.zeng/usr/data/gpaw-setups-0.9.20000/Fe.PBE.gz
    compensation charges: {type: gauss,
                           rc: 0.33,
                           lmax: 2}
    cutoffs: {filter: 2.06,
              core: 2.67}
    valence states:
      #              energy  rcut
      - 4s(2.00)    -5.291   1.164
      - 4p(0.00)    -1.326   1.058
      - 3d(6.00)    -7.505   1.058
      -  s          21.920   1.164
      -  p          25.885   1.058
      -  d          19.706   1.058

[...]

  Cr:
    name: Chromium
    id: 33f258bda2ca9f93018e70263a35547b
    Z: 24.0
    valence: 6
    core: 18
    charge: 0.0
    file: /home/c.zeng/usr/data/gpaw-setups-0.9.20000/Cr.PBE.gz
    compensation charges: {type: gauss,
                           rc: 0.35,
                           lmax: 2}
    cutoffs: {filter: 2.14,
              core: 3.04}
    valence states:
      #              energy  rcut
      - 4s(1.00)    -4.007   1.164
      - 4p(0.00)    -0.989   1.217
      - 3d(5.00)    -2.913   1.111
      -  s          23.205   1.164
      -  p          26.223   1.217
      -  d          24.299   1.111

[...]

  Ni:
    name: Nickel
    id: 0d9f38a9d6e76a2886f07bb4381f212b
    Z: 28.0
    valence: 16
    core: 12
    charge: 0.0
    file: /home/c.zeng/usr/data/gpaw-setups-0.9.20000/Ni.PBE.gz
    compensation charges: {type: gauss,
                           rc: 0.36,
                           lmax: 2}
    cutoffs: {filter: 2.14,
              core: 1.98}
    valence states:
      #              energy  rcut
      - 4s(2.00)    -5.642   1.164
      - 3p(6.00)   -71.394   1.207
      - 4p(0.00)    -1.226   1.207
      - 3d(8.00)    -8.875   1.138
      -  s          21.570   1.164
      -  d          18.337   1.138

    # Using partial waves for Ni as LCAO basis

Reference energy: -3846758.590871  # eV

Spin-polarized calculation.
Magnetic moment: 151.200000

Convergence criteria:
 Maximum [total energy] change in last 3 cyles: 0.0001 eV / electron
 Maximum integral of absolute [dens]ity change: 0.0001 electrons / valence electron
 Maximum integral of absolute [eigenst]ate change: 4e-08 eV^2 / valence electron
 Maximum number of scf [iter]ations: 666
 (Square brackets indicate name in SCF output, whereas a 'c' in
 the SCF output indicates the quantity has converged.)

Symmetries present (total): 1

  ( 1  0  0)
  ( 0  1  0)
  ( 0  0  1)

8 k-points: 2 x 2 x 2 Monkhorst-Pack grid
4 k-points in the irreducible part of the Brillouin zone
       k-points in crystal coordinates                weights
   0:     0.25000000   -0.25000000   -0.25000000          2/8
   1:     0.25000000   -0.25000000    0.25000000          2/8
   2:     0.25000000    0.25000000   -0.25000000          2/8
   3:     0.25000000    0.25000000    0.25000000          2/8

Wave functions: Plane wave expansion
  Cutoff energy: 350.000 eV
  Number of coefficients (min, max): 25839, 25839
  Pulay-stress correction: 0.000000 eV/Ang^3 (de/decut=0.000000)
  Using FFTW library
  ScaLapack parameters: grid=1x1, blocksize=None
  Wavefunction extrapolation:
    Improved wavefunction reuse through dual PAW basis

Occupation numbers: Fermi-Dirac:
  width: 0.1000  # eV

Eigensolver
   Davidson(niter=2)

Densities:
  Coarse grid: 54*54*54 grid
  Fine grid: 108*108*108 grid
  Total Charge: 0.000000

Density mixing:
  Method: difference
  Backend: pulay
  Linear mixing parameter: 0.05
  old densities: 5
  Damping of long wavelength oscillations: 50

Hamiltonian:
  XC and Coulomb potentials evaluated on a 108*108*108 grid
  Using the PBE Exchange-Correlation functional
  External potential:
    NoExternalPotential

XC parameters: PBE with 2 nearest neighbor stencil

Total number of cores used: 64
Parallelization over k-points: 4
Domain decomposition: 4 x 2 x 2

Number of atoms: 108
Number of atomic orbitals: 1053
Number of bands in calculation: 727
Number of valence electrons: 1053
Bands to converge: occupied

... initialized

Initializing position-dependent things.

Density initialized from atomic densities
Creating initial wave functions:
  727 bands from LCAO basis set

       /|   Cr        Co        Cr    |
      / |       Fe                    |
     /  |              Fe             |
    /  Co Fe     Cr Cr     Co         |
   /    |  FeNi      FeCo      Cr     Co
  /  CoFe   CrFe Cr   Co NiCo   Cr    |
 *    NiCr Cr   CoNi Fe   NiNi        |
 |      | NiCo      CoFe     Cr Co    |
 |     Fe        Ni        Co         |
 |    FeFe FeCr      CoNi Co   CrCr   |
 |   NiCr   NiFe Cr   Ni FeNi   Ni    |
 |    NiFe Cr   FeFe Ni   FeCo        |
 |      |   Co        Fe        Ni    |
 |    Cr| Co    Crr Ni    NiiNi      Co
 | Cr   .--CrCo------CoNi------Ni-----.
 |     Fe     Co Fe      NiCo     Fe /
 |    FeCr Fe     Ni Fe   CrCo      /
 |Co /      Cr        Ni      Cr   /
 |  / Fe        Co        Ni      /
 | /                             /r
 Co----------------------------*

Positions:
   0 Co     0.000001    0.000001    0.000000    ( 0.0000,  0.0000,  2.1000)
   1 Co     0.000001    2.004754    2.004754    ( 0.0000,  0.0000,  2.1000)
   2 Fe     2.004754    0.000002    2.004754    ( 0.0000,  0.0000,  2.0000)
   3 Fe     2.004754    2.004754   -0.000000    ( 0.0000,  0.0000,  2.0000)
   4 Cr     4.009496    0.000001   -0.000001    ( 0.0000,  0.0000,  0.0000)
   5 Cr     4.009496    2.004754    2.004754    ( 0.0000,  0.0000,  0.0000)
   6 Co     6.014250    0.000000    2.004754    ( 0.0000,  0.0000,  2.1000)
   7 Cr     6.014250    2.004754   -0.000001    ( 0.0000,  0.0000,  0.0000)
   8 Fe     8.019004    0.000000   -0.000001    ( 0.0000,  0.0000,  2.0000)
   9 Ni     8.019004    2.004754    2.004754    ( 0.0000,  0.0000,  1.5000)
  10 Ni    10.023746    0.000001    2.004754    ( 0.0000,  0.0000,  1.5000)
  11 Co    10.023746    2.004754   -0.000000    ( 0.0000,  0.0000,  2.1000)
  12 Cr    -0.000000    4.009496    0.000000    ( 0.0000,  0.0000,  0.0000)
  13 Fe    -0.000000    6.014250    2.004754    ( 0.0000,  0.0000,  2.0000)
  14 Cr     2.004754    4.009496    2.004754    ( 0.0000,  0.0000,  0.0000)
  15 Fe     2.004754    6.014250   -0.000001    ( 0.0000,  0.0000,  2.0000)
  16 Ni     4.009496    4.009496   -0.000001    ( 0.0000,  0.0000,  1.5000)
  17 Co     4.009496    6.014250    2.004754    ( 0.0000,  0.0000,  2.1000)
  18 Ni     6.014250    4.009496    2.004754    ( 0.0000,  0.0000,  1.5000)
  19 Cr     6.014250    6.014250   -0.000001    ( 0.0000,  0.0000,  0.0000)
  20 Co     8.019004    4.009496   -0.000000    ( 0.0000,  0.0000,  2.1000)
  21 Ni     8.019004    6.014250    2.004754    ( 0.0000,  0.0000,  1.5000)
  22 Co    10.023746    4.009496    2.004754    ( 0.0000,  0.0000,  2.1000)
  23 Cr    10.023758    6.014250    0.000001    ( 0.0000,  0.0000,  0.0000)
  24 Fe     0.000002    8.019004    0.000000    ( 0.0000,  0.0000,  2.0000)
  25 Co    -0.000000   10.023746    2.004754    ( 0.0000,  0.0000,  2.1000)
  26 Cr     2.004754    8.018992    2.004754    ( 0.0000,  0.0000,  0.0000)
  27 Cr     2.004742   10.023746   -0.000001    ( 0.0000,  0.0000,  0.0000)
  28 Fe     4.009496    8.018992   -0.000001    ( 0.0000,  0.0000,  2.0000)
  29 Cr     4.009496   10.023746    2.004754    ( 0.0000,  0.0000,  0.0000)
  30 Co     6.014250    8.019004    2.004754    ( 0.0000,  0.0000,  2.1000)
  31 Co     6.014250   10.023746   -0.000001    ( 0.0000,  0.0000,  2.1000)
  32 Cr     8.018992    8.019004    0.000000    ( 0.0000,  0.0000,  0.0000)
  33 Ni     8.019004   10.023746    2.004754    ( 0.0000,  0.0000,  1.5000)
  34 Ni    10.023746    8.019004    2.004754    ( 0.0000,  0.0000,  1.5000)
  35 Cr    10.023746   10.023746   -0.000000    ( 0.0000,  0.0000,  0.0000)
  36 Fe     0.000001   -0.000001    4.009496    ( 0.0000,  0.0000,  2.0000)
  37 Ni    -0.000000    2.004754    6.014250    ( 0.0000,  0.0000,  1.5000)
  38 Cr     2.004754    0.000000    6.014250    ( 0.0000,  0.0000,  0.0000)
  39 Fe     2.004754    2.004754    4.009496    ( 0.0000,  0.0000,  2.0000)
  40 Fe     4.009496    0.000001    4.009496    ( 0.0000,  0.0000,  2.0000)
  41 Co     4.009496    2.004754    6.014250    ( 0.0000,  0.0000,  2.1000)
  42 Cr     6.014250    0.000001    6.014250    ( 0.0000,  0.0000,  0.0000)
  43 Fe     6.014250    2.004754    4.009496    ( 0.0000,  0.0000,  2.0000)
  44 Fe     8.019004    0.000001    4.009496    ( 0.0000,  0.0000,  2.0000)
  45 Fe     8.019004    2.004754    6.014250    ( 0.0000,  0.0000,  2.0000)
  46 Ni    10.023746    0.000001    6.014250    ( 0.0000,  0.0000,  1.5000)
  47 Co    10.023746    2.004754    4.009496    ( 0.0000,  0.0000,  2.1000)
  48 Cr     0.000000    4.009496    4.009496    ( 0.0000,  0.0000,  0.0000)
  49 Ni     0.000002    6.014250    6.014250    ( 0.0000,  0.0000,  1.5000)
  50 Fe     2.004754    4.009496    6.014250    ( 0.0000,  0.0000,  2.0000)
  51 Co     2.004754    6.014250    4.009496    ( 0.0000,  0.0000,  2.1000)
  52 Co     4.009496    4.009496    4.009508    ( 0.0000,  0.0000,  2.1000)
  53 Fe     4.009496    6.014250    6.014250    ( 0.0000,  0.0000,  2.0000)
  54 Fe     6.014250    4.009496    6.014250    ( 0.0000,  0.0000,  2.0000)
  55 Ni     6.014250    6.014250    4.009496    ( 0.0000,  0.0000,  1.5000)
  56 Ni     8.019004    4.009496    4.009496    ( 0.0000,  0.0000,  1.5000)
  57 Fe     8.019004    6.014250    6.014250    ( 0.0000,  0.0000,  2.0000)
  58 Co    10.023746    4.009496    6.014250    ( 0.0000,  0.0000,  2.1000)
  59 Ni    10.023746    6.014250    4.009496    ( 0.0000,  0.0000,  1.5000)
[...]
  93 Ni     8.019004    6.014250   10.023746    ( 0.0000,  0.0000,  1.5000)
  94 Ni    10.023746    4.009496   10.023746    ( 0.0000,  0.0000,  1.5000)
  95 Cr    10.023746    6.014250    8.019004    ( 0.0000,  0.0000,  0.0000)
  96 Ni     0.000003    8.019004    8.019004    ( 0.0000,  0.0000,  1.5000)
  97 Co     0.000001   10.023746   10.023746    ( 0.0000,  0.0000,  2.1000)
  98 Fe     2.004754    8.018992   10.023746    ( 0.0000,  0.0000,  2.0000)
  99 Cr     2.004742   10.023746    8.019004    ( 0.0000,  0.0000,  0.0000)
 100 Co     4.009496    8.019004    8.019004    ( 0.0000,  0.0000,  2.1000)
 101 Cr     4.009496   10.023746   10.023746    ( 0.0000,  0.0000,  0.0000)
 102 Fe     6.014250    8.019004   10.023746    ( 0.0000,  0.0000,  2.0000)
 103 Co     6.014250   10.023746    8.019004    ( 0.0000,  0.0000,  2.1000)
 104 Ni     8.018992    8.019004    8.019004    ( 0.0000,  0.0000,  1.5000)
 105 Co     8.018992   10.023746   10.023746    ( 0.0000,  0.0000,  2.1000)
 106 Cr    10.023746    8.019004   10.023746    ( 0.0000,  0.0000,  0.0000)
 107 Cr    10.023746   10.023746    8.019004    ( 0.0000,  0.0000,  0.0000)

Unit cell:
           periodic     x           y           z      points  spacing
  1. axis:    yes   12.028500    0.000000    0.000000    54     0.2228
  2. axis:    yes    0.000000   12.028500    0.000000    54     0.2228
  3. axis:    yes    0.000000    0.000000   12.028500    54     0.2228

  Lengths:  12.028500  12.028500  12.028500
  Angles:   90.000000  90.000000  90.000000

Effective grid spacing dv^(1/3) = 0.2228

     iter     time        total  log10-change:  magmom
                         energy  eigst   dens
iter:   1 21:16:29 -1103.558992                  +151.4726
iter:   2 21:17:44  -895.499167  +0.01  -1.15    +82.1587
iter:   3 21:19:01  -939.249426  -0.48  -1.09    +89.4796
iter:   4 21:20:18  -844.941208  -0.98  -1.15    +83.4334
iter:   5 21:21:35  -825.733386  -1.62  -1.28    +84.0581
iter:   6 21:22:52  -832.367164  -1.71  -1.35    +96.7319
iter:   7 21:24:09  -838.959847  -1.36  -1.33    +103.5515
iter:   8 21:25:25  -828.508049  -1.36  -1.35    +109.1747
iter:   9 21:26:43  -829.177329  -1.28  -1.45    +108.9577
iter:  10 21:28:00  -829.542547  -1.62  -1.58    +107.3514
iter:  11 21:29:17  -824.445174  -1.67  -1.59    +105.2985
iter:  12 21:30:34  -820.472701  -1.84  -1.60    +105.3947
iter:  13 21:31:51  -820.521422  -2.07  -1.75    +101.4374
iter:  14 21:33:08  -820.119580  -2.28  -1.79    +98.9004
iter:  15 21:34:25  -821.552887  -2.42  -1.86    +95.5300
iter:  16 21:35:42  -823.825944  -2.55  -1.90    +91.5431
iter:  17 21:36:59  -825.011579  -2.62  -1.91    +89.0436
iter:  18 21:38:16  -826.078469  -2.70  -1.91    +85.7712
iter:  19 21:39:34  -827.112030  -2.84  -1.97    +83.3953
iter:  20 21:40:52  -828.831622  -2.60  -2.00    +81.4613
iter:  21 21:42:09  -828.537130  -2.77  -1.97    +81.6197
iter:  22 21:43:26  -829.820312  -2.67  -2.06    +80.5527
iter:  23 21:44:44  -829.261317  -2.71  -2.01    +80.3935
iter:  24 21:46:01  -830.186939  -2.68  -2.12    +80.2455
iter:  25 21:47:18  -829.497294  -2.81  -2.06    +80.8299
iter:  26 21:48:35  -830.057767  -2.86  -2.17    +81.4499
iter:  27 21:49:52  -829.843430  -3.01  -2.16    +80.9728
iter:  28 21:51:10  -829.987112  -3.14  -2.20    +81.4561
iter:  29 21:52:28  -829.960901  -3.34  -2.22    +81.9762
iter:  30 21:53:45  -830.202651  -3.50  -2.29    +82.4406
iter:  31 21:55:04  -830.361900  -3.43  -2.30    +82.6558
iter:  32 21:56:25  -830.389785  -3.63  -2.31    +82.9017
iter:  33 21:57:46  -830.508363  -3.63  -2.36    +83.0755
iter:  34 21:59:04  -830.921686  -3.21  -2.39    +83.4156
iter:  35 22:00:21  -830.643802  -3.33  -2.33    +83.5070
iter:  36 22:01:40  -830.729187  -3.35  -2.51    +83.6706
iter:  37 22:02:59  -830.660078c -3.37  -2.47    +83.7291
iter:  38 22:04:21  -830.633593c -3.86  -2.62    +83.9864
iter:  39 22:05:44  -830.654053c -3.91  -2.72    +84.1826
iter:  40 22:07:06  -830.621541c -4.20  -2.71    +84.2194
iter:  41 22:08:27  -830.634040c -4.31  -2.83    +84.2880
iter:  42 22:09:51  -830.637905c -4.31  -2.83    +84.3582
iter:  43 22:11:12  -830.636832c -4.26  -2.90    +84.4169
iter:  44 22:12:31  -830.642868c -4.18  -2.91    +84.4078
iter:  45 22:13:55  -830.611238c -4.31  -2.89    +84.3870
iter:  46 22:15:22  -830.614784c -4.75  -3.17    +84.3612
iter:  47 22:16:48  -830.621923c -4.75  -3.17    +84.3713
iter:  48 22:18:17  -830.612708c -4.90  -3.12    +84.3768
iter:  49 22:19:41  -830.616571c -4.93  -3.28    +84.3769
iter:  50 22:21:05  -830.615985c -4.85  -3.23    +84.3645
iter:  51 22:22:31  -830.612480c -5.14  -3.24    +84.3565
iter:  52 22:23:55  -830.614133c -5.37  -3.38    +84.3541
iter:  53 22:25:20  -830.613719c -5.26  -3.36    +84.3511
iter:  54 22:26:55  -830.612796c -5.47  -3.33    +84.3566
iter:  55 22:28:27  -830.613545c -5.38  -3.44    +84.3401
iter:  56 22:29:57  -830.611680c -5.58  -3.40    +84.3436
iter:  57 22:31:28  -830.612254c -5.57  -3.66    +84.3523
iter:  58 22:32:54  -830.613148c -5.66  -3.66    +84.3506
iter:  59 22:34:22  -830.612466c -5.91  -3.67    +84.3485
iter:  60 22:35:49  -830.612455c -6.01  -3.85    +84.3505
iter:  61 22:37:19  -830.612572c -6.31  -3.79    +84.3529
iter:  62 22:38:48  -830.612518c -6.55  -3.90    +84.3507
iter:  63 22:40:26  -830.612586c -6.73  -3.93    +84.3537
iter:  64 22:41:53  -830.612635c -6.22  -3.95    +84.3559
iter:  65 22:43:22  -830.612447c -6.58  -3.90    +84.3543
iter:  66 22:45:00  -830.612849c -6.38  -4.06c   +84.3535
iter:  67 22:46:27  -830.612446c -6.53  -4.04c   +84.3537
iter:  68 22:47:53  -830.612633c -6.75  -4.20c   +84.3569
iter:  69 22:49:28  -830.612384c -6.86  -4.21c   +84.3544
iter:  70 22:51:02  -830.612360c -7.03  -4.26c   +84.3507
iter:  71 22:52:30  -830.612434c -7.32  -4.35c   +84.3507
iter:  72 22:54:07  -830.612393c -7.47c -4.38c   +84.3521

Converged after 72 iterations.

Dipole moment: (-0.194840, 0.169447, -0.050219) |e|*Ang

Total magnetic moment: (0.000000, 0.000000, 84.352073)
Local magnetic moments:
   0 Co ( 0.000000,  0.000000,  1.901937)
   1 Co ( 0.000000,  0.000000,  1.767806)
   2 Fe ( 0.000000,  0.000000,  2.935024)
   3 Fe ( 0.000000,  0.000000,  2.923523)
   4 Cr ( 0.000000,  0.000000,  2.977872)
   5 Cr ( 0.000000,  0.000000, -3.235251)
   6 Co ( 0.000000,  0.000000,  1.737724)
   7 Cr ( 0.000000,  0.000000, -3.245412)
   8 Fe ( 0.000000,  0.000000,  3.039660)
   9 Ni ( 0.000000,  0.000000,  0.640900)
  10 Ni ( 0.000000,  0.000000,  0.720541)
  11 Co ( 0.000000,  0.000000,  1.962570)
  12 Cr ( 0.000000,  0.000000, -3.199319)
  13 Fe ( 0.000000,  0.000000,  2.899634)
  14 Cr ( 0.000000,  0.000000, -3.258532)
  15 Fe ( 0.000000,  0.000000,  2.936171)
  16 Ni ( 0.000000,  0.000000,  0.378421)
  17 Co ( 0.000000,  0.000000,  1.792012)
  18 Ni ( 0.000000,  0.000000,  0.552785)
  19 Cr ( 0.000000,  0.000000, -3.268921)
  20 Co ( 0.000000,  0.000000,  1.867839)
  21 Ni ( 0.000000,  0.000000,  0.601235)
  22 Co ( 0.000000,  0.000000,  1.840060)
  23 Cr ( 0.000000,  0.000000, -3.208186)
  24 Fe ( 0.000000,  0.000000,  2.945457)
  25 Co ( 0.000000,  0.000000,  1.802514)
  26 Cr ( 0.000000,  0.000000, -3.210052)
  27 Cr ( 0.000000,  0.000000, -3.187344)
  28 Fe ( 0.000000,  0.000000,  2.854881)
  29 Cr ( 0.000000,  0.000000, -3.178141)
  30 Co ( 0.000000,  0.000000,  1.836783)
  31 Co ( 0.000000,  0.000000,  1.745437)
  32 Cr ( 0.000000,  0.000000,  3.042795)
  33 Ni ( 0.000000,  0.000000,  0.647769)
  34 Ni ( 0.000000,  0.000000,  0.589029)
  35 Cr ( 0.000000,  0.000000, -3.248431)
  36 Fe ( 0.000000,  0.000000,  3.080779)
  37 Ni ( 0.000000,  0.000000,  0.534140)
  38 Cr ( 0.000000,  0.000000, -3.229703)
  39 Fe ( 0.000000,  0.000000,  2.886357)
  40 Fe ( 0.000000,  0.000000,  2.983576)
  41 Co ( 0.000000,  0.000000,  1.594610)
  42 Cr ( 0.000000,  0.000000, -3.239606)
  43 Fe ( 0.000000,  0.000000,  3.000348)
  44 Fe ( 0.000000,  0.000000,  3.094971)
  45 Fe ( 0.000000,  0.000000,  3.025557)
  46 Ni ( 0.000000,  0.000000,  0.643207)
  47 Co ( 0.000000,  0.000000,  1.970079)
  48 Cr ( 0.000000,  0.000000, -3.263439)
  49 Ni ( 0.000000,  0.000000,  0.453528)
  50 Fe ( 0.000000,  0.000000,  3.002731)
  51 Co ( 0.000000,  0.000000,  1.786030)
  52 Co ( 0.000000,  0.000000,  1.822077)
  53 Fe ( 0.000000,  0.000000,  3.034529)
  54 Fe ( 0.000000,  0.000000,  2.974160)
  55 Ni ( 0.000000,  0.000000,  0.767532)
  56 Ni ( 0.000000,  0.000000,  0.725180)
  57 Fe ( 0.000000,  0.000000,  3.043281)
  58 Co ( 0.000000,  0.000000,  1.853981)
  59 Ni ( 0.000000,  0.000000,  0.620637)
[...]
  93 Ni ( 0.000000,  0.000000,  0.390639)
  94 Ni ( 0.000000,  0.000000,  0.493364)
  95 Cr ( 0.000000,  0.000000, -3.232218)
  96 Ni ( 0.000000,  0.000000,  0.391309)
  97 Co ( 0.000000,  0.000000,  1.607810)
  98 Fe ( 0.000000,  0.000000,  2.936741)
  99 Cr ( 0.000000,  0.000000, -3.261216)
 100 Co ( 0.000000,  0.000000,  1.825670)
 101 Cr ( 0.000000,  0.000000, -3.202525)
 102 Fe ( 0.000000,  0.000000,  3.013299)
 103 Co ( 0.000000,  0.000000,  1.850359)
 104 Ni ( 0.000000,  0.000000,  0.437378)
 105 Co ( 0.000000,  0.000000,  1.777510)
 106 Cr ( 0.000000,  0.000000,  3.042754)
 107 Cr ( 0.000000,  0.000000, -3.258681)

Energy contributions relative to reference atoms: (reference = -3846758.590871)

Kinetic:       -380.133702
Potential:     +220.405162
External:        +0.000000
XC:            -702.204491
Entropy (-ST):   -5.295313
Local:          +33.968295
Free energy:   -833.260050
Extrapolated:  -830.612393

Spin contamination: 82.131606 electrons
Showing only first 2 kpts
                      Up                     Down
 Kpt  Band  Eigenvalues  Occupancy  Eigenvalues  Occupancy
  0   524      5.20249    0.99989      6.43298    0.03956
  0   525      5.20561    0.99989      6.43495    0.03881
  0   526      5.22103    0.99987      6.44365    0.03569
  0   527      5.23726    0.99984      6.44995    0.03359

  1   524      5.19755    0.99990      6.43035    0.04057
  1   525      5.21214    0.99988      6.43588    0.03847
  1   526      5.21725    0.99987      6.43970    0.03708
  1   527      5.24001    0.99984      6.45360    0.03242

Fermi level: 6.11401

No gap

Forces in eV/Ang:
  0 Co   -0.04863    0.09849    0.04086
  1 Co   -0.16842   -0.11823    0.03186
  2 Fe   -0.54004   -0.01230    0.14515
  3 Fe   -0.23204   -0.02236    0.02485
  4 Cr    0.22178   -0.29034    0.14021
  5 Cr    0.09386   -0.27344    0.35033
  6 Co    0.24566   -0.10909    0.18646
  7 Cr    0.32663    0.17454   -0.28750
  8 Fe   -0.01537   -0.12345    0.22451
  9 Ni    0.13857    0.04559    0.03814
 10 Ni    0.05695    0.09768    0.02905
 11 Co    0.02101   -0.09538    0.05333
 12 Cr   -0.05047   -0.36365   -0.45359
 13 Fe   -0.14557    0.05856    0.28281
 14 Cr    0.39286    0.47568   -0.13090
 15 Fe    0.07806    0.15737    0.09166
 16 Ni   -0.16064   -0.00721   -0.10135
 17 Co    0.17293   -0.07529    0.18557
 18 Ni    0.00849    0.03528    0.11596
 19 Cr    0.11965   -0.18233    0.07289
 20 Co    0.18431   -0.10609    0.02550
 21 Ni    0.04896   -0.05205    0.18853
 22 Co   -0.12845   -0.27874   -0.00058
 23 Cr   -0.38043    0.31199   -0.08379
 24 Fe    0.11182    0.10258    0.12858
 25 Co   -0.05674    0.12188    0.18862
 26 Cr   -0.43218   -0.65807    0.45116
 27 Cr   -0.74260    0.36808   -0.25066
 28 Fe    0.06157    0.21153    0.32131
 29 Cr    0.77997    0.46332    0.29258
 30 Co   -0.17197    0.06317    0.15011
 31 Co    0.17455   -0.05227    0.11032
 32 Cr   -0.10325    0.00119    0.58028
 33 Ni   -0.11014    0.06333    0.13354
 34 Ni    0.12027    0.05037    0.10456
 35 Cr    0.09644   -0.04924    0.12208
 36 Fe   -0.31819    0.02347   -0.21787
 37 Ni   -0.12620   -0.07434   -0.04195
 38 Cr    0.06514    0.32612   -0.42548
 39 Fe    0.03698    0.08753    0.09210
 40 Fe    0.09823   -0.23858    0.08326
 41 Co    0.15842    0.38633   -0.58165
 42 Cr   -0.09017   -0.45443   -0.25837
 43 Fe    0.04420    0.31859   -0.09754
 44 Fe    0.17803   -0.21282   -0.34325
 45 Fe    0.39093    0.22500    0.08924
 46 Ni    0.03228   -0.01906   -0.09046
 47 Co   -0.10837    0.06713   -0.07378
 48 Cr   -0.44807    0.01811    0.36381
 49 Ni    0.10996   -0.00688   -0.04056
 50 Fe    0.04345    0.21821   -0.26490
 51 Co    0.23410    0.00327    0.18126
 52 Co   -0.05188    0.11805    0.07192
 53 Fe    0.12914    0.14880   -0.05270
 54 Fe    0.00639    0.11088   -0.10596
 55 Ni   -0.02711   -0.05416   -0.07785
 56 Ni    0.02111   -0.03846    0.07176
 57 Fe   -0.28559   -0.17653   -0.01430
 58 Co   -0.20217   -0.15626   -0.15440
 59 Ni   -0.09466   -0.01813   -0.04196
[...]
 93 Ni   -0.15045   -0.09363   -0.05526
 94 Ni   -0.05957   -0.10875    0.11547
 95 Cr   -0.29407   -0.01166    0.40369
 96 Ni    0.06588   -0.04732    0.00777
 97 Co    0.15283    0.19000   -0.00733
 98 Fe   -0.21883   -0.18806   -0.24862
 99 Cr   -0.35949   -0.34739    0.02443
100 Co    0.20818    0.00327   -0.06227
101 Cr    0.75600   -0.07976   -0.02477
102 Fe    0.06986    0.07521   -0.49884
103 Co    0.26606   -0.26664   -0.10224
104 Ni   -0.18585    0.13760   -0.08543
105 Co   -0.39994    0.36800   -0.23071
106 Cr    0.08224   -0.03637   -0.59526
107 Cr   -0.02481    0.40246    0.41051

Date: Fri Apr  7 22:54:27 2023