User:   c.zeng@d0148
Date:   Sat Apr  8 09:03:56 2023
Arch:   x86_64
Pid:    57129
CWD:    /home/c.zeng/projects/hea-corrosion/hea-mlp/data-curation/volume/dft-jobs/4
Python: 3.8.1
gpaw:   /home/c.zeng/usr/installs/gpaw/source/gpaw-22.8.0/gpaw
_gpaw:  /home/c.zeng/usr/installs/gpaw/source/gpaw-22.8.0/
        _gpaw.cpython-38-x86_64-linux-gnu.so
ase:    /home/c.zeng/.local/lib/python3.8/site-packages/ase-3.22.1-py3.8.egg/ase (version 3.22.1)
numpy:  /shared/centos7/python/3.8.1/lib/python3.8/site-packages/numpy (version 1.17.4)
scipy:  /shared/centos7/python/3.8.1/lib/python3.8/site-packages/scipy (version 1.4.1)
units:  Angstrom and eV
cores: 64
OpenMP: False
OMP_NUM_THREADS: 1

Input parameters:
  convergence: {energy: 0.0001}
  kpts: [2 2 2]
  maxiter: 666
  mode: {ecut: 350.0,
         name: pw}
  occupations: {fixmagmom: False,
                name: fermi-dirac,
                width: 0.1}
  spinpol: True
  xc: PBE

System changes: positions, numbers, cell, pbc, initial_charges, initial_magmoms

Initialize ...

species:
  Co:
    name: Cobalt
    id: 339d20d5b0b93d2de9531a1bee871d91
    Z: 27.0
    valence: 9
    core: 18
    charge: 0.0
    file: /home/c.zeng/usr/data/gpaw-setups-0.9.20000/Co.PBE.gz
    compensation charges: {type: gauss,
                           rc: 0.32,
                           lmax: 2}
    cutoffs: {filter: 1.87,
              core: 2.55}
    valence states:
      #              energy  rcut
      - 4s(2.00)    -5.469   1.005
      - 4p(0.00)    -1.277   1.058
      - 3d(7.00)    -8.205   1.005
      -  s          21.742   1.005
      -  p          25.934   1.058
      -  d          19.007   1.005

    # Using partial waves for Co as LCAO basis

  Fe:
    name: Iron
    id: 37abbd8d6c3c35915a9b583b742da910
    Z: 26.0
    valence: 8
    core: 18
    charge: 0.0
    file: /home/c.zeng/usr/data/gpaw-setups-0.9.20000/Fe.PBE.gz
    compensation charges: {type: gauss,
                           rc: 0.33,
                           lmax: 2}
    cutoffs: {filter: 2.06,
              core: 2.67}
    valence states:
      #              energy  rcut
      - 4s(2.00)    -5.291   1.164
      - 4p(0.00)    -1.326   1.058
      - 3d(6.00)    -7.505   1.058
      -  s          21.920   1.164
      -  p          25.885   1.058
      -  d          19.706   1.058

[...]

  Cr:
    name: Chromium
    id: 33f258bda2ca9f93018e70263a35547b
    Z: 24.0
    valence: 6
    core: 18
    charge: 0.0
    file: /home/c.zeng/usr/data/gpaw-setups-0.9.20000/Cr.PBE.gz
    compensation charges: {type: gauss,
                           rc: 0.35,
                           lmax: 2}
    cutoffs: {filter: 2.14,
              core: 3.04}
    valence states:
      #              energy  rcut
      - 4s(1.00)    -4.007   1.164
      - 4p(0.00)    -0.989   1.217
      - 3d(5.00)    -2.913   1.111
      -  s          23.205   1.164
      -  p          26.223   1.217
      -  d          24.299   1.111

[...]

  Ni:
    name: Nickel
    id: 0d9f38a9d6e76a2886f07bb4381f212b
    Z: 28.0
    valence: 16
    core: 12
    charge: 0.0
    file: /home/c.zeng/usr/data/gpaw-setups-0.9.20000/Ni.PBE.gz
    compensation charges: {type: gauss,
                           rc: 0.36,
                           lmax: 2}
    cutoffs: {filter: 2.14,
              core: 1.98}
    valence states:
      #              energy  rcut
      - 4s(2.00)    -5.642   1.164
      - 3p(6.00)   -71.394   1.207
      - 4p(0.00)    -1.226   1.207
      - 3d(8.00)    -8.875   1.138
      -  s          21.570   1.164
      -  d          18.337   1.138

    # Using partial waves for Ni as LCAO basis

Reference energy: -3846758.590871  # eV

Spin-polarized calculation.
Magnetic moment: 151.200000

Convergence criteria:
 Maximum [total energy] change in last 3 cyles: 0.0001 eV / electron
 Maximum integral of absolute [dens]ity change: 0.0001 electrons / valence electron
 Maximum integral of absolute [eigenst]ate change: 4e-08 eV^2 / valence electron
 Maximum number of scf [iter]ations: 666
 (Square brackets indicate name in SCF output, whereas a 'c' in
 the SCF output indicates the quantity has converged.)

Symmetries present (total): 1

  ( 1  0  0)
  ( 0  1  0)
  ( 0  0  1)

8 k-points: 2 x 2 x 2 Monkhorst-Pack grid
4 k-points in the irreducible part of the Brillouin zone
       k-points in crystal coordinates                weights
   0:     0.25000000   -0.25000000   -0.25000000          2/8
   1:     0.25000000   -0.25000000    0.25000000          2/8
   2:     0.25000000    0.25000000   -0.25000000          2/8
   3:     0.25000000    0.25000000    0.25000000          2/8

Wave functions: Plane wave expansion
  Cutoff energy: 350.000 eV
  Number of coefficients (min, max): 23559, 23559
  Pulay-stress correction: 0.000000 eV/Ang^3 (de/decut=0.000000)
  Using FFTW library
  ScaLapack parameters: grid=1x1, blocksize=None
  Wavefunction extrapolation:
    Improved wavefunction reuse through dual PAW basis

Occupation numbers: Fermi-Dirac:
  width: 0.1000  # eV

Eigensolver
   Davidson(niter=2)

Densities:
  Coarse grid: 54*54*54 grid
  Fine grid: 108*108*108 grid
  Total Charge: 0.000000

Density mixing:
  Method: difference
  Backend: pulay
  Linear mixing parameter: 0.05
  old densities: 5
  Damping of long wavelength oscillations: 50

Hamiltonian:
  XC and Coulomb potentials evaluated on a 108*108*108 grid
  Using the PBE Exchange-Correlation functional
  External potential:
    NoExternalPotential

XC parameters: PBE with 2 nearest neighbor stencil

Total number of cores used: 64
Parallelization over k-points: 4
Domain decomposition: 4 x 2 x 2

Number of atoms: 108
Number of atomic orbitals: 1053
Number of bands in calculation: 727
Number of valence electrons: 1053
Bands to converge: occupied

... initialized

Initializing position-dependent things.

Density initialized from atomic densities
Creating initial wave functions:
  727 bands from LCAO basis set

       /|   Cr       Co        Cr    |
      / |      Fe      Fe            |
     /  |Fe               Co         |
    /  Co        CrCr                |
   /    |  FeNi     Fe Co     Cr     Co
  /  CoFe   CrFe Cr  Co NiCo   Cr    |
 *    NiCr Cr  Co NiFe   NiNi        |
 |     FeNi Co  Ni Co Fe  Co CrCo    |
 |    FeFe FeCr     Co NiCo   CrCr   |
 |      |   Ni   Cr            Ni    |
 |   NiCr     Fe     Ni FeNi         |
 |    NiFe Cr  Fe FeNi   FeCo        |
 |Ni   CoCo Co   CrNi Fe  Ni Ni      |
 | Cr Cr.-Cr-Co-Cr--Co-NiNi---Ni-----.
 |     Fe     Co Fe     NiCo      Fe/
 |    FeCr Fe     NiFe   CrCo      /
 |Co /      Cr        Ni     Cr   /
 | /r Fe        Co       Ni     /
 Co---------------------------*

Positions:
   0 Co     0.000007    0.000006    0.000001    ( 0.0000,  0.0000,  2.1000)
   1 Co     0.000005    1.943992    1.944004    ( 0.0000,  0.0000,  2.1000)
   2 Fe     1.943992    0.000009    1.944004    ( 0.0000,  0.0000,  2.0000)
   3 Fe     1.943992    1.943992   -0.000002    ( 0.0000,  0.0000,  2.0000)
   4 Cr     3.887996    0.000007   -0.000004    ( 0.0000,  0.0000,  0.0000)
   5 Cr     3.887996    1.943992    1.944016    ( 0.0000,  0.0000,  0.0000)
   6 Co     5.832012    0.000001    1.944004    ( 0.0000,  0.0000,  2.1000)
   7 Cr     5.832012    1.943992   -0.000009    ( 0.0000,  0.0000,  0.0000)
   8 Fe     7.775992    0.000002   -0.000004    ( 0.0000,  0.0000,  2.0000)
   9 Ni     7.776004    1.943992    1.944004    ( 0.0000,  0.0000,  1.5000)
  10 Ni     9.720008    0.000006    1.944004    ( 0.0000,  0.0000,  1.5000)
  11 Co     9.719996    1.943992   -0.000003    ( 0.0000,  0.0000,  2.1000)
  12 Cr     0.000002    3.888008    0.000002    ( 0.0000,  0.0000,  0.0000)
  13 Fe    -0.000001    5.832012    1.943992    ( 0.0000,  0.0000,  2.0000)
  14 Cr     1.944004    3.888008    1.944004    ( 0.0000,  0.0000,  0.0000)
  15 Fe     1.944004    5.832012   -0.000005    ( 0.0000,  0.0000,  2.0000)
  16 Ni     3.887996    3.888008   -0.000007    ( 0.0000,  0.0000,  1.5000)
  17 Co     3.887996    5.832012    1.944004    ( 0.0000,  0.0000,  2.1000)
  18 Ni     5.832000    3.887996    1.944004    ( 0.0000,  0.0000,  1.5000)
  19 Cr     5.831988    5.832012   -0.000007    ( 0.0000,  0.0000,  0.0000)
  20 Co     7.776004    3.887996   -0.000003    ( 0.0000,  0.0000,  2.1000)
  21 Ni     7.776004    5.832000    1.944004    ( 0.0000,  0.0000,  1.5000)
  22 Co     9.719996    3.887996    1.944004    ( 0.0000,  0.0000,  2.1000)
  23 Cr     9.720008    5.832000    0.000007    ( 0.0000,  0.0000,  0.0000)
  24 Fe     0.000008    7.775992    0.000000    ( 0.0000,  0.0000,  2.0000)
  25 Co     0.000000    9.720008    1.944004    ( 0.0000,  0.0000,  2.1000)
  26 Cr     1.943992    7.775992    1.943992    ( 0.0000,  0.0000,  0.0000)
  27 Cr     1.943992    9.719996   -0.000005    ( 0.0000,  0.0000,  0.0000)
  28 Fe     3.887996    7.775992   -0.000007    ( 0.0000,  0.0000,  2.0000)
  29 Cr     3.888008    9.719996    1.944004    ( 0.0000,  0.0000,  0.0000)
  30 Co     5.832000    7.776004    1.944004    ( 0.0000,  0.0000,  2.1000)
  31 Co     5.832000    9.719996   -0.000006    ( 0.0000,  0.0000,  2.1000)
  32 Cr     7.775992    7.776004    0.000000    ( 0.0000,  0.0000,  0.0000)
  33 Ni     7.775992    9.720008    1.944004    ( 0.0000,  0.0000,  1.5000)
  34 Ni     9.720008    7.775992    1.944004    ( 0.0000,  0.0000,  1.5000)
  35 Cr     9.720008    9.720008   -0.000001    ( 0.0000,  0.0000,  0.0000)
  36 Fe     0.000005   -0.000003    3.887996    ( 0.0000,  0.0000,  2.0000)
  37 Ni     0.000000    1.943992    5.831988    ( 0.0000,  0.0000,  1.5000)
  38 Cr     1.943992    0.000002    5.831988    ( 0.0000,  0.0000,  0.0000)
  39 Fe     1.944004    1.943992    3.887996    ( 0.0000,  0.0000,  2.0000)
  40 Fe     3.887996    0.000003    3.887996    ( 0.0000,  0.0000,  2.0000)
  41 Co     3.887996    1.944016    5.831988    ( 0.0000,  0.0000,  2.1000)
  42 Cr     5.832000    0.000006    5.831988    ( 0.0000,  0.0000,  0.0000)
  43 Fe     5.832000    1.944004    3.888008    ( 0.0000,  0.0000,  2.0000)
  44 Fe     7.776004    0.000003    3.887996    ( 0.0000,  0.0000,  2.0000)
  45 Fe     7.776004    1.944004    5.832000    ( 0.0000,  0.0000,  2.0000)
  46 Ni     9.719996    0.000004    5.831988    ( 0.0000,  0.0000,  1.5000)
  47 Co     9.719996    1.943992    3.888008    ( 0.0000,  0.0000,  2.1000)
  48 Cr     0.000004    3.887996    3.888008    ( 0.0000,  0.0000,  0.0000)
  49 Ni     0.000012    5.832000    5.832000    ( 0.0000,  0.0000,  1.5000)
  50 Fe     1.944004    3.888008    5.831988    ( 0.0000,  0.0000,  2.0000)
  51 Co     1.944004    5.832000    3.888008    ( 0.0000,  0.0000,  2.1000)
  52 Co     3.888008    3.887996    3.888008    ( 0.0000,  0.0000,  2.1000)
  53 Fe     3.887996    5.832000    5.832000    ( 0.0000,  0.0000,  2.0000)
  54 Fe     5.832000    3.888008    5.831988    ( 0.0000,  0.0000,  2.0000)
  55 Ni     5.832000    5.832000    3.888008    ( 0.0000,  0.0000,  1.5000)
  56 Ni     7.775992    3.887996    3.888008    ( 0.0000,  0.0000,  1.5000)
  57 Fe     7.775992    5.832000    5.832000    ( 0.0000,  0.0000,  2.0000)
  58 Co     9.719996    3.887996    5.832000    ( 0.0000,  0.0000,  2.1000)
  59 Ni     9.719996    5.832000    3.887996    ( 0.0000,  0.0000,  1.5000)
[...]
  93 Ni     7.775992    5.832000    9.719996    ( 0.0000,  0.0000,  1.5000)
  94 Ni     9.719996    3.887996    9.720008    ( 0.0000,  0.0000,  1.5000)
  95 Cr     9.719996    5.832000    7.775992    ( 0.0000,  0.0000,  0.0000)
  96 Ni     0.000014    7.776004    7.776004    ( 0.0000,  0.0000,  1.5000)
  97 Co     0.000006    9.719996    9.719996    ( 0.0000,  0.0000,  2.1000)
  98 Fe     1.944004    7.775992    9.720008    ( 0.0000,  0.0000,  2.0000)
  99 Cr     1.943992    9.719996    7.776004    ( 0.0000,  0.0000,  0.0000)
 100 Co     3.887996    7.775992    7.776004    ( 0.0000,  0.0000,  2.1000)
 101 Cr     3.888008    9.719996    9.719996    ( 0.0000,  0.0000,  0.0000)
 102 Fe     5.831988    7.776004    9.719996    ( 0.0000,  0.0000,  2.0000)
 103 Co     5.832012    9.719996    7.776004    ( 0.0000,  0.0000,  2.1000)
 104 Ni     7.775981    7.776004    7.775992    ( 0.0000,  0.0000,  1.5000)
 105 Co     7.775992    9.720008    9.719996    ( 0.0000,  0.0000,  2.1000)
 106 Cr     9.720008    7.776004    9.720008    ( 0.0000,  0.0000,  0.0000)
 107 Cr     9.720008    9.720008    7.775992    ( 0.0000,  0.0000,  0.0000)

Unit cell:
           periodic     x           y           z      points  spacing
  1. axis:    yes   11.664000    0.000000    0.000000    54     0.2160
  2. axis:    yes    0.000000   11.664000    0.000000    54     0.2160
  3. axis:    yes    0.000000    0.000000   11.664000    54     0.2160

  Lengths:  11.664000  11.664000  11.664000
  Angles:   90.000000  90.000000  90.000000

Effective grid spacing dv^(1/3) = 0.2160

     iter     time        total  log10-change:  magmom
                         energy  eigst   dens
iter:   1 09:07:26 -1110.384397                  +151.4732
iter:   2 09:09:10  -918.746325  -0.07  -1.16    +83.5816
iter:   3 09:10:53  -946.397458  -0.59  -1.14    +86.6866
iter:   4 09:12:35  -876.186406  -1.02  -1.19    +80.6499
iter:   5 09:14:19  -858.119823  -1.65  -1.28    +80.6158
iter:   6 09:16:01  -867.948492  -1.57  -1.35    +90.2762
iter:   7 09:17:44  -857.658735  -1.31  -1.33    +94.6581
iter:   8 09:19:26  -860.442526  -1.37  -1.45    +99.3067
iter:   9 09:21:07  -851.296965  -1.43  -1.49    +99.8773
iter:  10 09:22:48  -847.844188  -1.79  -1.63    +100.8454
iter:  11 09:24:31  -846.825862  -1.94  -1.72    +102.2647
iter:  12 09:26:13  -845.718769  -2.12  -1.74    +101.0332
iter:  13 09:27:56  -845.492923  -2.50  -1.82    +98.1122
iter:  14 09:29:35  -846.548552  -2.59  -1.88    +96.8464
iter:  15 09:31:18  -847.797094  -2.70  -1.93    +95.4204
iter:  16 09:33:00  -850.173849  -2.48  -1.97    +92.1911
iter:  17 09:34:42  -850.465117  -2.47  -1.90    +90.4958
iter:  18 09:36:24  -850.356697  -2.61  -1.94    +89.7221
iter:  19 09:38:06  -851.457160  -2.64  -2.04    +87.5678
iter:  20 09:39:45  -851.460091  -2.75  -2.02    +85.1387
iter:  21 09:41:28  -851.937280  -2.98  -2.09    +83.6283
iter:  22 09:43:10  -852.563996  -3.04  -2.13    +82.4079
iter:  23 09:44:52  -852.926378  -3.43  -2.12    +81.2261
iter:  24 09:46:33  -854.188348  -2.62  -2.13    +77.8644
iter:  25 09:48:15  -854.722228  -3.06  -2.09    +77.5081
iter:  26 09:49:56  -855.044862  -3.41  -2.06    +77.8954
iter:  27 09:51:40  -855.268681  -2.97  -2.05    +77.6770
iter:  28 09:53:21  -855.006135  -2.77  -2.05    +78.4749
iter:  29 09:55:04  -854.608186  -2.95  -2.11    +78.8528
iter:  30 09:56:44  -857.110612  -2.24  -2.20    +79.4079
iter:  31 09:58:25  -854.322688  -2.58  -2.02    +79.6593
iter:  32 10:00:07  -854.109329  -3.39  -2.30    +79.2826
iter:  33 10:01:49  -854.176471  -3.52  -2.38    +79.5241
iter:  34 10:03:32  -854.173425c -3.69  -2.39    +79.7738
iter:  35 10:05:14  -854.226399c -3.67  -2.44    +80.1066
iter:  36 10:06:55  -854.354125  -3.63  -2.49    +80.2476
iter:  37 10:08:39  -854.272199  -3.59  -2.45    +80.3438
iter:  38 10:10:22  -854.390984  -3.45  -2.56    +80.5874
iter:  39 10:12:04  -854.342299  -3.54  -2.52    +80.6088
iter:  40 10:13:40  -854.263797  -3.73  -2.57    +80.4721
iter:  41 10:15:17  -854.285300c -3.75  -2.68    +80.5193
iter:  42 10:16:56  -854.272800c -3.91  -2.67    +80.6616
iter:  43 10:18:36  -854.221230c -4.16  -2.68    +80.8266
iter:  44 10:20:17  -854.234823c -4.50  -2.82    +80.8224
iter:  45 10:21:55  -854.242445c -4.35  -2.81    +80.8352
iter:  46 10:23:35  -854.243046c -4.32  -2.81    +80.9290
iter:  47 10:25:16  -854.271121c -4.11  -2.84    +80.9434
iter:  48 10:26:53  -854.224084c -4.22  -2.84    +80.9314
iter:  49 10:28:35  -854.236821c -4.42  -3.05    +81.0257
iter:  50 10:30:17  -854.230279c -4.48  -3.00    +81.0996
iter:  51 10:31:59  -854.225756c -4.72  -3.06    +81.0902
iter:  52 10:33:43  -854.225087c -4.73  -3.14    +81.1230
iter:  53 10:35:24  -854.220533c -5.11  -3.14    +81.1577
iter:  54 10:37:05  -854.221197c -5.16  -3.24    +81.1937
iter:  55 10:38:45  -854.219032c -5.33  -3.27    +81.1783
iter:  56 10:40:27  -854.220512c -5.49  -3.28    +81.1713
iter:  57 10:42:06  -854.221519c -5.20  -3.35    +81.1958
iter:  58 10:43:50  -854.223888c -4.96  -3.33    +81.1887
iter:  59 10:45:32  -854.219577c -5.26  -3.27    +81.1575
iter:  60 10:47:13  -854.220022c -5.23  -3.52    +81.1228
iter:  61 10:48:53  -854.221754c -5.28  -3.45    +81.1366
iter:  62 10:50:36  -854.218188c -5.65  -3.45    +81.1529
iter:  63 10:52:18  -854.218386c -5.89  -3.67    +81.1391
iter:  64 10:54:00  -854.218464c -6.03  -3.67    +81.1410
iter:  65 10:55:43  -854.218054c -6.49  -3.68    +81.1447
iter:  66 10:57:20  -854.218890c -6.20  -3.80    +81.1415
iter:  67 10:58:58  -854.218367c -6.17  -3.79    +81.1409
iter:  68 11:00:37  -854.218946c -6.31  -3.79    +81.1423
iter:  69 11:02:20  -854.218527c -6.09  -3.88    +81.1484
iter:  70 11:04:03  -854.218764c -6.03  -3.90    +81.1429
iter:  71 11:05:46  -854.218577c -6.27  -3.86    +81.1376
iter:  72 11:07:29  -854.218474c -6.61  -4.07c   +81.1401
iter:  73 11:09:12  -854.218860c -6.52  -4.17c   +81.1427
iter:  74 11:10:53  -854.218421c -7.03  -4.07c   +81.1409
iter:  75 11:12:36  -854.218518c -7.41c -4.31c   +81.1380

Converged after 75 iterations.

Dipole moment: (-0.202600, 0.152594, -0.028935) |e|*Ang

Total magnetic moment: (0.000000, 0.000000, 81.138022)
Local magnetic moments:
   0 Co ( 0.000000,  0.000000,  1.817689)
   1 Co ( 0.000000,  0.000000,  1.645486)
   2 Fe ( 0.000000,  0.000000,  2.791319)
   3 Fe ( 0.000000,  0.000000,  2.755577)
   4 Cr ( 0.000000,  0.000000,  2.641651)
   5 Cr ( 0.000000,  0.000000, -2.972522)
   6 Co ( 0.000000,  0.000000,  1.607999)
   7 Cr ( 0.000000,  0.000000, -2.995922)
   8 Fe ( 0.000000,  0.000000,  2.933302)
   9 Ni ( 0.000000,  0.000000,  0.596746)
  10 Ni ( 0.000000,  0.000000,  0.679511)
  11 Co ( 0.000000,  0.000000,  1.899571)
  12 Cr ( 0.000000,  0.000000, -2.918951)
  13 Fe ( 0.000000,  0.000000,  2.736229)
  14 Cr ( 0.000000,  0.000000, -2.996106)
  15 Fe ( 0.000000,  0.000000,  2.780501)
  16 Ni ( 0.000000,  0.000000,  0.302247)
  17 Co ( 0.000000,  0.000000,  1.682572)
  18 Ni ( 0.000000,  0.000000,  0.482088)
  19 Cr ( 0.000000,  0.000000, -3.042633)
  20 Co ( 0.000000,  0.000000,  1.770144)
  21 Ni ( 0.000000,  0.000000,  0.536210)
  22 Co ( 0.000000,  0.000000,  1.745440)
  23 Cr ( 0.000000,  0.000000, -2.944168)
  24 Fe ( 0.000000,  0.000000,  2.800763)
  25 Co ( 0.000000,  0.000000,  1.697942)
  26 Cr ( 0.000000,  0.000000, -2.900786)
  27 Cr ( 0.000000,  0.000000, -2.877523)
  28 Fe ( 0.000000,  0.000000,  2.715597)
  29 Cr ( 0.000000,  0.000000, -2.868712)
  30 Co ( 0.000000,  0.000000,  1.740431)
  31 Co ( 0.000000,  0.000000,  1.589228)
  32 Cr ( 0.000000,  0.000000,  2.762982)
  33 Ni ( 0.000000,  0.000000,  0.603135)
  34 Ni ( 0.000000,  0.000000,  0.524576)
  35 Cr ( 0.000000,  0.000000, -3.017516)
  36 Fe ( 0.000000,  0.000000,  2.972834)
  37 Ni ( 0.000000,  0.000000,  0.471977)
  38 Cr ( 0.000000,  0.000000, -2.968105)
  39 Fe ( 0.000000,  0.000000,  2.734508)
  40 Fe ( 0.000000,  0.000000,  2.862249)
  41 Co ( 0.000000,  0.000000,  1.418548)
  42 Cr ( 0.000000,  0.000000, -2.988642)
  43 Fe ( 0.000000,  0.000000,  2.882086)
  44 Fe ( 0.000000,  0.000000,  2.996356)
  45 Fe ( 0.000000,  0.000000,  2.908005)
  46 Ni ( 0.000000,  0.000000,  0.601100)
  47 Co ( 0.000000,  0.000000,  1.896002)
  48 Cr ( 0.000000,  0.000000, -3.020436)
  49 Ni ( 0.000000,  0.000000,  0.367367)
  50 Fe ( 0.000000,  0.000000,  2.864350)
  51 Co ( 0.000000,  0.000000,  1.670926)
  52 Co ( 0.000000,  0.000000,  1.708130)
  53 Fe ( 0.000000,  0.000000,  2.927628)
  54 Fe ( 0.000000,  0.000000,  2.847873)
  55 Ni ( 0.000000,  0.000000,  0.722814)
  56 Ni ( 0.000000,  0.000000,  0.676983)
  57 Fe ( 0.000000,  0.000000,  2.928832)
  58 Co ( 0.000000,  0.000000,  1.750972)
  59 Ni ( 0.000000,  0.000000,  0.560100)
[...]
  93 Ni ( 0.000000,  0.000000,  0.344092)
  94 Ni ( 0.000000,  0.000000,  0.407060)
  95 Cr ( 0.000000,  0.000000, -2.981109)
  96 Ni ( 0.000000,  0.000000,  0.322701)
  97 Co ( 0.000000,  0.000000,  1.452002)
  98 Fe ( 0.000000,  0.000000,  2.787795)
  99 Cr ( 0.000000,  0.000000, -3.006711)
 100 Co ( 0.000000,  0.000000,  1.731684)
 101 Cr ( 0.000000,  0.000000, -2.939097)
 102 Fe ( 0.000000,  0.000000,  2.898151)
 103 Co ( 0.000000,  0.000000,  1.747499)
 104 Ni ( 0.000000,  0.000000,  0.371061)
 105 Co ( 0.000000,  0.000000,  1.661225)
 106 Cr ( 0.000000,  0.000000,  2.774094)
 107 Cr ( 0.000000,  0.000000, -3.019708)

Energy contributions relative to reference atoms: (reference = -3846758.590871)

Kinetic:       -358.645122
Potential:     +201.371517
External:        +0.000000
XC:            -730.131416
Entropy (-ST):   -4.962320
Local:          +35.667663
Free energy:   -856.699678
Extrapolated:  -854.218518

Spin contamination: 74.412062 electrons
Showing only first 2 kpts
                      Up                     Down
 Kpt  Band  Eigenvalues  Occupancy  Eigenvalues  Occupancy
  0   524      6.15704    0.99982      7.35727    0.03293
  0   525      6.15999    0.99981      7.36280    0.03121
  0   526      6.17236    0.99979      7.36732    0.02988
  0   527      6.18912    0.99975      7.38154    0.02602

  1   524      6.15331    0.99983      7.35820    0.03264
  1   525      6.16355    0.99981      7.36547    0.03042
  1   526      6.17670    0.99978      7.36771    0.02976
  1   527      6.19417    0.99974      7.38482    0.02520

Fermi level: 7.01929

No gap

Forces in eV/Ang:
  0 Co   -0.06424    0.05476    0.02209
  1 Co   -0.19270   -0.05800    0.02861
  2 Fe   -0.54418   -0.05271    0.11811
  3 Fe   -0.22291    0.04952    0.07358
  4 Cr    0.23329   -0.35791    0.14886
  5 Cr    0.12038   -0.29282    0.38880
  6 Co    0.23941   -0.12178    0.16462
  7 Cr    0.34472    0.18294   -0.30894
  8 Fe   -0.03017   -0.14706    0.26624
  9 Ni    0.15364    0.07534    0.03415
 10 Ni    0.05143    0.10400    0.01575
 11 Co    0.05786   -0.09673    0.07807
 12 Cr   -0.06662   -0.37976   -0.52221
 13 Fe   -0.13540    0.01998    0.28580
 14 Cr    0.43401    0.52544   -0.16298
 15 Fe    0.07658    0.11603    0.18760
 16 Ni   -0.14819   -0.04281   -0.06858
 17 Co    0.17660   -0.10394    0.20325
 18 Ni    0.01673    0.02703    0.10311
 19 Cr    0.12962   -0.19022    0.10012
 20 Co    0.16769   -0.10038    0.03407
 21 Ni    0.06762   -0.05692    0.18735
 22 Co   -0.12157   -0.29192   -0.03371
 23 Cr   -0.41061    0.33787   -0.11652
 24 Fe    0.15016    0.16650    0.18662
 25 Co   -0.05190    0.09813    0.18267
 26 Cr   -0.43492   -0.64691    0.43056
 27 Cr   -0.83295    0.37353   -0.18016
 28 Fe    0.05527    0.29781    0.40873
 29 Cr    0.80183    0.47207    0.25519
 30 Co   -0.19310    0.07492    0.15238
 31 Co    0.14748   -0.07225    0.16740
 32 Cr   -0.10939    0.03442    0.64394
 33 Ni   -0.12019    0.06800    0.13874
 34 Ni    0.10412    0.05824    0.09716
 35 Cr    0.12338   -0.07065    0.12714
 36 Fe   -0.33652    0.01979   -0.22692
 37 Ni   -0.14322   -0.08070   -0.01713
 38 Cr    0.09118    0.37482   -0.43873
 39 Fe    0.03455    0.16729    0.08574
 40 Fe    0.11840   -0.30671    0.08352
 41 Co    0.16910    0.38226   -0.49805
 42 Cr   -0.11443   -0.49067   -0.26183
 43 Fe    0.03556    0.36396   -0.13123
 44 Fe    0.19072   -0.26101   -0.35595
 45 Fe    0.39991    0.24631    0.14739
 46 Ni    0.03705   -0.02594   -0.07506
 47 Co   -0.10047    0.09591   -0.09995
 48 Cr   -0.49500    0.01667    0.39263
 49 Ni    0.07637   -0.00321   -0.01073
 50 Fe    0.00853    0.21995   -0.25714
 51 Co    0.21349   -0.03822    0.15528
 52 Co   -0.06175    0.12137    0.01289
 53 Fe    0.15298    0.13713   -0.03058
 54 Fe   -0.03856    0.09111   -0.07285
 55 Ni   -0.03497   -0.06250   -0.10445
 56 Ni    0.03648   -0.04024    0.06105
 57 Fe   -0.27062   -0.18287    0.00739
 58 Co   -0.19523   -0.15260   -0.13941
 59 Ni   -0.08424   -0.02851   -0.04138
[...]
 93 Ni   -0.14575   -0.12264   -0.07062
 94 Ni   -0.04440   -0.08676    0.12858
 95 Cr   -0.28608   -0.01414    0.44812
 96 Ni    0.03442   -0.06413    0.01299
 97 Co    0.16908    0.20523   -0.02072
 98 Fe   -0.24802   -0.11448   -0.30086
 99 Cr   -0.38265   -0.33810    0.04794
100 Co    0.21608    0.07217   -0.04559
101 Cr    0.85956   -0.11395   -0.03710
102 Fe    0.06881    0.10287   -0.54913
103 Co    0.27440   -0.25162   -0.12887
104 Ni   -0.14742    0.15480   -0.09473
105 Co   -0.38915    0.36788   -0.29058
106 Cr    0.06507   -0.04044   -0.67202
107 Cr   -0.02679    0.44278    0.48719

Date: Sat Apr  8 11:13:01 2023