User:   c.zeng@d0059
Date:   Sat Apr 15 23:29:31 2023
Arch:   x86_64
Pid:    143705
CWD:    /home/c.zeng/projects/hea-corrosion/hea-mlp/data-curation/bulk-mcmc/dft-jobs/94
Python: 3.8.1
gpaw:   /home/c.zeng/usr/installs/gpaw/source/gpaw-22.8.0/gpaw
_gpaw:  /home/c.zeng/usr/installs/gpaw/source/gpaw-22.8.0/
        _gpaw.cpython-38-x86_64-linux-gnu.so
ase:    /home/c.zeng/.local/lib/python3.8/site-packages/ase-3.22.1-py3.8.egg/ase (version 3.22.1)
numpy:  /home/c.zeng/.local/lib/python3.8/site-packages/numpy (version 1.24.2)
scipy:  /home/c.zeng/.local/lib/python3.8/site-packages/scipy (version 1.10.1)
units:  Angstrom and eV
cores: 30
OpenMP: False
OMP_NUM_THREADS: 1

Input parameters:
  convergence: {energy: 0.0001}
  kpts: [2 2 2]
  maxiter: 666
  mode: {ecut: 350.0,
         name: pw}
  occupations: {fixmagmom: False,
                name: fermi-dirac,
                width: 0.1}
  spinpol: True
  xc: PBE

System changes: positions, numbers, cell, pbc, initial_charges, initial_magmoms

Initialize ...

species:
  Ni:
    name: Nickel
    id: 0d9f38a9d6e76a2886f07bb4381f212b
    Z: 28.0
    valence: 16
    core: 12
    charge: 0.0
    file: /home/c.zeng/usr/data/gpaw-setups-0.9.20000/Ni.PBE.gz
    compensation charges: {type: gauss,
                           rc: 0.36,
                           lmax: 2}
    cutoffs: {filter: 2.14,
              core: 1.98}
    valence states:
      #              energy  rcut
      - 4s(2.00)    -5.642   1.164
      - 3p(6.00)   -71.394   1.207
      - 4p(0.00)    -1.226   1.207
      - 3d(8.00)    -8.875   1.138
      -  s          21.570   1.164
      -  d          18.337   1.138

    # Using partial waves for Ni as LCAO basis

  Cr:
    name: Chromium
    id: 33f258bda2ca9f93018e70263a35547b
    Z: 24.0
    valence: 6
    core: 18
    charge: 0.0
    file: /home/c.zeng/usr/data/gpaw-setups-0.9.20000/Cr.PBE.gz
    compensation charges: {type: gauss,
                           rc: 0.35,
                           lmax: 2}
    cutoffs: {filter: 2.14,
              core: 3.04}
    valence states:
      #              energy  rcut
      - 4s(1.00)    -4.007   1.164
      - 4p(0.00)    -0.989   1.217
      - 3d(5.00)    -2.913   1.111
      -  s          23.205   1.164
      -  p          26.223   1.217
      -  d          24.299   1.111

[...]

  Fe:
    name: Iron
    id: 37abbd8d6c3c35915a9b583b742da910
    Z: 26.0
    valence: 8
    core: 18
    charge: 0.0
    file: /home/c.zeng/usr/data/gpaw-setups-0.9.20000/Fe.PBE.gz
    compensation charges: {type: gauss,
                           rc: 0.33,
                           lmax: 2}
    cutoffs: {filter: 2.06,
              core: 2.67}
    valence states:
      #              energy  rcut
      - 4s(2.00)    -5.291   1.164
      - 4p(0.00)    -1.326   1.058
      - 3d(6.00)    -7.505   1.058
      -  s          21.920   1.164
      -  p          25.885   1.058
      -  d          19.706   1.058

[...]

  Co:
    name: Cobalt
    id: 339d20d5b0b93d2de9531a1bee871d91
    Z: 27.0
    valence: 9
    core: 18
    charge: 0.0
    file: /home/c.zeng/usr/data/gpaw-setups-0.9.20000/Co.PBE.gz
    compensation charges: {type: gauss,
                           rc: 0.32,
                           lmax: 2}
    cutoffs: {filter: 1.87,
              core: 2.55}
    valence states:
      #              energy  rcut
      - 4s(2.00)    -5.469   1.005
      - 4p(0.00)    -1.277   1.058
      - 3d(7.00)    -8.205   1.005
      -  s          21.742   1.005
      -  p          25.934   1.058
      -  d          19.007   1.005

[...]

  Al:
    name: Aluminium
    id: 0292cae29f5d6237e50f6abdd43a7bdd
    Z: 13.0
    valence: 3
    core: 10
    charge: 0.0
    file: /home/c.zeng/usr/data/gpaw-setups-0.9.20000/Al.PBE.gz
    compensation charges: {type: gauss,
                           rc: 0.34,
                           lmax: 2}
    cutoffs: {filter: 1.91,
              core: 2.36}
    valence states:
      #              energy  rcut
      - 3s(2.00)    -7.753   1.085
      - 3p(1.00)    -2.712   1.085
      -  s          19.459   1.085
      -  p          24.499   1.085
      -  d           0.000   1.085

    # Using partial waves for Al as LCAO basis

Reference energy: -3699400.456887  # eV

Spin-polarized calculation.
Magnetic moment: 143.500000

Convergence criteria:
 Maximum [total energy] change in last 3 cyles: 0.0001 eV / electron
 Maximum integral of absolute [dens]ity change: 0.0001 electrons / valence electron
 Maximum integral of absolute [eigenst]ate change: 4e-08 eV^2 / valence electron
 Maximum number of scf [iter]ations: 666
 (Square brackets indicate name in SCF output, whereas a 'c' in
 the SCF output indicates the quantity has converged.)

Symmetries present (total): 1

  ( 1  0  0)
  ( 0  1  0)
  ( 0  0  1)

8 k-points: 2 x 2 x 2 Monkhorst-Pack grid
4 k-points in the irreducible part of the Brillouin zone
       k-points in crystal coordinates                weights
   0:     0.25000000   -0.25000000   -0.25000000          2/8
   1:     0.25000000   -0.25000000    0.25000000          2/8
   2:     0.25000000    0.25000000   -0.25000000          2/8
   3:     0.25000000    0.25000000    0.25000000          2/8

Wave functions: Plane wave expansion
  Cutoff energy: 350.000 eV
  Number of coefficients (min, max): 18052, 18052
  Pulay-stress correction: 0.000000 eV/Ang^3 (de/decut=0.000000)
  Using FFTW library
  ScaLapack parameters: grid=1x1, blocksize=None
  Wavefunction extrapolation:
    Improved wavefunction reuse through dual PAW basis

Occupation numbers: Fermi-Dirac:
  width: 0.1000  # eV

Eigensolver
   Davidson(niter=2)

Densities:
  Coarse grid: 48*48*48 grid
  Fine grid: 96*96*96 grid
  Total Charge: 0.000000

Density mixing:
  Method: difference
  Backend: pulay
  Linear mixing parameter: 0.05
  old densities: 5
  Damping of long wavelength oscillations: 50

Hamiltonian:
  XC and Coulomb potentials evaluated on a 96*96*96 grid
  Using the PBE Exchange-Correlation functional
  External potential:
    NoExternalPotential

XC parameters: PBE with 2 nearest neighbor stencil

Total number of cores used: 30
Parallelization over k-points: 2
Domain decomposition: 5 x 3 x 1

Number of atoms: 108
Number of atomic orbitals: 1025
Number of bands in calculation: 703
Number of valence electrons: 1020
Bands to converge: occupied

... initialized

Initializing position-dependent things.

Density initialized from atomic densities
Creating initial wave functions:
  703 bands from LCAO basis set

        Ni------------------------.
       /|  Co                Co   |
      Cr|   Cr         Ni         |
     / Fe      Fe       Al        |
    /   CCo      Cr       Fe      |
   /e   | CoNi     CoAl    CrNi   |
  /  FeCr  NiCo     NiNiCo        |
 *    FeFe  FeCoNi     CoAl       |
 |     CoFeCr  CoFe Ni  CrFeNi    |
 | Fe   NiCrNiCo CrNiNiFe  Cr     |
 |   CoCr  CrAlCr   NiCrCr   Fe   |
 |    FeNi  FeFeCoCr CoFeCr   Cr  |
 |     CrFeFe  Cr NiNi  CoFeFe    |
 |      .-CoNiCo-FeCrNiCo--CoNi---.
 |   CrCo    CoAl   CrNiFe       /
 |    / Ni    CrFe       Ni     /
 |   /            Cr           /
 |Cr/      Co       Co        /
 |/            Ni           /
 *----------------Ni-------*

Positions:
   0 Ni     0.005316   -0.016350   10.639749    ( 0.0000,  0.0000,  0.0000)
   1 Cr    10.672340    1.801276    1.786848    ( 0.0000,  0.0000,  0.0000)
   2 Fe     1.795727   10.625972    1.782259    ( 0.0000,  0.0000,  0.0000)
   3 Cr     1.780787    1.796175   10.644605    ( 0.0000,  0.0000,  2.1000)
   4 Fe     3.523539   -0.014558    0.017268    ( 0.0000,  0.0000,  2.0000)
   5 Co     3.522568    1.781672    1.746648    ( 0.0000,  0.0000,  0.0000)
   6 Co     5.320952   10.642342    1.763136    ( 0.0000,  0.0000,  1.5000)
   7 Ni     5.342082    1.828767    0.007462    ( 0.0000,  0.0000,  2.0000)
   8 Ni     7.144895    0.019195    0.012033    ( 0.0000,  0.0000,  0.0000)
   9 Co     7.143497    1.798064    1.764939    ( 0.0000,  0.0000,  2.1000)
  10 Cr     8.891362   10.651627    1.788353    ( 0.0000,  0.0000,  1.5000)
  11 Co     8.888779    1.804777   10.642609    ( 0.0000,  0.0000,  2.0000)
  12 Fe     0.008694    3.581540   10.650250    ( 0.0000,  0.0000,  2.1000)
  13 Cr     0.018979    5.332745    1.789751    ( 0.0000,  0.0000,  2.1000)
  14 Ni     1.778129    3.600941    1.760019    ( 0.0000,  0.0000,  2.0000)
  15 Co     1.790423    5.343267   -0.017766    ( 0.0000,  0.0000,  2.0000)
  16 Ni     3.542802    3.589864   -0.015614    ( 0.0000,  0.0000,  2.0000)
  17 Co     3.526837    5.358538    1.765793    ( 0.0000,  0.0000,  2.0000)
  18 Fe     5.336650    3.606501    1.755815    ( 0.0000,  0.0000,  0.0000)
  19 Cr     5.300399    5.323642   -0.012797    ( 0.0000,  0.0000,  2.1000)
  20 Al     7.122858    3.584816   10.659524    ( 0.0000,  0.0000,  2.0000)
  21 Ni     7.120500    5.315168    1.805502    ( 0.0000,  0.0000,  1.5000)
  22 Ni     8.892034    3.590952    1.773146    ( 0.0000,  0.0000,  2.1000)
  23 Fe     8.925340    5.301487   -0.003100    ( 0.0000,  0.0000,  0.0000)
  24 Cr     0.023055    7.096680   -0.007939    ( 0.0000,  0.0000,  0.0000)
  25 Cr     0.019141    8.871245    1.787510    ( 0.0000,  0.0000,  1.5000)
  26 Co     1.784372    7.104567    1.776443    ( 0.0000,  0.0000,  2.0000)
  27 Co     1.779944    8.867628   10.659406    ( 0.0000,  0.0000,  1.5000)
  28 Cr     3.547785    7.097897    0.009215    ( 0.0000,  0.0000,  2.1000)
  29 Cr     3.541137    8.858109    1.788225    ( 0.0000,  0.0000,  2.1000)
  30 Cr     5.295105    7.099391    1.787894    ( 0.0000,  0.0000,  2.1000)
  31 Cr     5.303685    8.873828    0.029898    ( 0.0000,  0.0000,  0.0000)
  32 Ni     7.106883    7.088719   10.645159    ( 0.0000,  0.0000,  0.0000)
  33 Co     7.111055    8.901137    1.809472    ( 0.0000,  0.0000,  0.0000)
  34 Co     8.939384    7.093404    1.799238    ( 0.0000,  0.0000,  0.0000)
  35 Co     8.919972    8.915853   10.664881    ( 0.0000,  0.0000,  0.0000)
  36 Ni    10.679704   10.658873    3.584517    ( 0.0000,  0.0000,  2.0000)
  37 Fe    10.670921    1.796367    5.340289    ( 0.0000,  0.0000,  2.1000)
  38 Fe     1.770350   10.649001    5.343491    ( 0.0000,  0.0000,  0.0000)
  39 Co     1.791800    1.784671    3.584891    ( 0.0000,  0.0000,  2.0000)
  40 Cr     3.529718   10.626388    3.565234    ( 0.0000,  0.0000,  2.1000)
  41 Fe     3.535716    1.793465    5.367289    ( 0.0000,  0.0000,  1.5000)
  42 Co     5.311497    0.001574    5.366254    ( 0.0000,  0.0000,  1.5000)
  43 Al     5.332627    1.768055    3.580793    ( 0.0000,  0.0000,  0.0000)
  44 Cr     7.136966   10.673941    3.563804    ( 0.0000,  0.0000,  2.0000)
  45 Ni     7.136774    1.794126    5.358944    ( 0.0000,  0.0000,  2.1000)
  46 Co     8.925938   10.673621    5.347589    ( 0.0000,  0.0000,  2.0000)
  47 Fe     8.883827    1.779111    3.582404    ( 0.0000,  0.0000,  1.5000)
  48 Ni    -0.010038    3.572341    3.580996    ( 0.0000,  0.0000,  2.0000)
  49 Co    10.685573    5.328935    5.338550    ( 0.0000,  0.0000,  2.0000)
  50 Ni     1.784180    3.582949    5.348357    ( 0.0000,  0.0000,  1.5000)
  51 Fe     1.766326    5.339510    3.565255    ( 0.0000,  0.0000,  1.5000)
[...]
iter: 109 04:36:49  -870.261964c -4.79  -3.99    +58.4830
iter: 110 04:39:36  -870.262668c -5.48  -3.79    +58.4790
iter: 111 04:42:23  -870.264038c -5.99  -3.75    +58.4811
iter: 112 04:45:10  -870.265947c -5.89  -3.78    +58.4828
iter: 113 04:47:58  -870.262424c -5.48  -3.78    +58.4845
iter: 114 04:50:45  -870.266966c -5.32  -3.74    +58.4907
iter: 115 04:53:32  -870.266519c -5.13  -3.51    +58.5015
iter: 116 04:56:16  -870.265758c -5.53  -3.49    +58.5005
iter: 117 04:59:04  -870.265009c -5.92  -3.71    +58.5108
iter: 118 05:01:52  -870.265722c -6.06  -3.86    +58.5143
iter: 119 05:04:39  -870.267671c -5.92  -4.00    +58.5113
iter: 120 05:07:26  -870.268964c -6.14  -4.08c   +58.5128
iter: 121 05:10:13  -870.270198c -6.03  -4.07c   +58.5074
iter: 122 05:13:01  -870.270337c -6.80  -4.15c   +58.5070
iter: 123 05:15:48  -870.272370c -6.05  -4.18c   +58.5010
iter: 124 05:18:36  -870.271099c -6.71  -4.09c   +58.4999
iter: 125 05:21:23  -870.272479c -6.34  -4.22c   +58.4938
iter: 126 05:24:11  -870.271797c -6.88  -4.27c   +58.4969
iter: 127 05:26:58  -870.273207c -6.35  -4.39c   +58.4807
iter: 128 05:29:46  -870.272448c -6.74  -4.29c   +58.5001
iter: 129 05:32:34  -870.272636c -5.99  -4.41c   +58.5611
iter: 130 05:35:21  -870.274364c -6.15  -4.13c   +58.5221
iter: 131 05:38:09  -870.270550c -5.33  -4.29c   +58.6259
iter: 132 05:40:56  -870.268658c -5.32  -4.06c   +58.7209
iter: 133 05:43:43  -870.267080c -5.01  -3.85    +58.8792
iter: 134 05:46:30  -870.265922c -4.78  -3.67    +59.1041
iter: 135 05:49:17  -870.266989c -5.87  -3.54    +59.0335
iter: 136 05:52:05  -870.267663c -6.26  -3.60    +59.0427
iter: 137 05:54:52  -870.269083c -6.01  -3.62    +59.0423
iter: 138 05:57:41  -870.269018c -5.67  -3.55    +59.0443
iter: 139 06:00:30  -870.274039c -5.05  -3.55    +59.0556
iter: 140 06:03:15  -870.270982c -4.89  -3.31    +59.0342
iter: 141 06:06:03  -870.267598c -5.52  -3.49    +59.0091
iter: 142 06:08:51  -870.268987c -5.67  -3.82    +58.9665
iter: 143 06:11:38  -870.268419c -5.99  -3.84    +58.9759
iter: 144 06:14:26  -870.268859c -5.92  -3.85    +58.9393
iter: 145 06:17:13  -870.270697c -5.86  -4.06c   +58.9106
iter: 146 06:20:00  -870.270090c -6.51  -4.05c   +58.9156
iter: 147 06:22:48  -870.270901c -6.28  -4.11c   +58.9040
iter: 148 06:25:35  -870.270368c -6.63  -4.09c   +58.9081
iter: 149 06:28:21  -870.269999c -6.36  -4.16c   +58.8890
iter: 150 06:31:08  -870.271515c -6.09  -4.14c   +58.8831
iter: 151 06:33:56  -870.270860c -6.57  -4.23c   +58.8767
iter: 152 06:36:44  -870.272022c -6.31  -4.28c   +58.8595
iter: 153 06:39:31  -870.271191c -6.68  -4.30c   +58.8765
iter: 154 06:42:18  -870.268142c -5.35  -4.31c   +58.9545
iter: 155 06:45:05  -870.269625c -6.40  -4.09c   +58.9263
iter: 156 06:47:52  -870.268016c -5.99  -4.21c   +58.9642
iter: 157 06:50:38  -870.265757c -5.47  -4.12c   +59.0230
iter: 158 06:53:25  -870.264242c -5.43  -3.97    +59.0876
iter: 159 06:56:13  -870.264178c -5.77  -3.88    +59.1294
iter: 160 06:58:59  -870.264747c -6.01  -3.84    +59.1585
iter: 161 07:01:46  -870.265186c -6.58  -3.85    +59.1516
iter: 162 07:04:33  -870.260026c -4.51  -3.88    +59.2527
iter: 163 07:07:21  -870.264850c -4.76  -3.54    +59.1658
iter: 164 07:10:08  -870.258334c -4.60  -3.77    +59.2595
iter: 165 07:12:56  -870.261614c -5.28  -3.57    +59.2122
iter: 166 07:15:45  -870.261556c -5.87  -3.66    +59.2140
iter: 167 07:18:34  -870.261594c -6.03  -3.76    +59.2184
iter: 168 07:21:23  -870.261949c -6.14  -3.84    +59.2133
iter: 169 07:24:12  -870.262538c -5.75  -3.68    +59.2384
iter: 170 07:27:01  -870.264914c -5.59  -3.94    +59.2570
iter: 171 07:29:51  -870.262613c -6.03  -3.76    +59.2429
iter: 172 07:32:40  -870.263520c -6.21  -3.99    +59.2473
iter: 173 07:35:29  -870.263635c -6.24  -3.97    +59.2533
iter: 174 07:38:18  -870.263821c -6.18  -3.96    +59.2458
iter: 175 07:41:07  -870.263932c -6.83  -4.17c   +59.2465
iter: 176 07:43:56  -870.265413c -5.86  -4.26c   +59.2496
iter: 177 07:46:45  -870.265546c -6.66  -4.21c   +59.2536
iter: 178 07:49:34  -870.266589c -6.13  -4.30c   +59.2591
iter: 179 07:52:24  -870.265094c -5.99  -4.20c   +59.2476
iter: 180 07:55:13  -870.259732c -4.67  -4.24c   +59.1938
iter: 181 07:58:01  -870.261349c -6.11  -3.85    +59.2065
iter: 182 08:00:45  -870.261464c -6.83  -3.97    +59.2026
iter: 183 08:03:34  -870.262339c -6.14  -4.03c   +59.2042
iter: 184 08:06:23  -870.263237c -6.09  -4.07c   +59.2070
iter: 185 08:09:13  -870.260730c -5.45  -4.27c   +59.1915
iter: 186 08:12:03  -870.257997c -5.01  -3.96    +59.1604
iter: 187 08:14:53  -870.260550c -5.45  -3.74    +59.1808
iter: 188 08:17:42  -870.258572c -5.72  -3.93    +59.1547
iter: 189 08:20:31  -870.258582c -6.18  -3.82    +59.1301
iter: 190 08:23:20  -870.259483c -5.92  -3.82    +59.0971
iter: 191 08:26:10  -870.258791c -6.02  -3.80    +59.1435
iter: 192 08:29:00  -870.259451c -5.78  -3.89    +59.1398
iter: 193 08:31:49  -870.260876c -5.43  -3.69    +59.1497
iter: 194 08:34:38  -870.260209c -5.59  -3.58    +59.1277
iter: 195 08:37:27  -870.261452c -5.56  -4.07c   +59.1039
iter: 196 08:40:17  -870.260120c -6.08  -3.93    +59.1252
iter: 197 08:43:06  -870.257931c -5.44  -4.23c   +59.1475
iter: 198 08:45:56  -870.260491c -5.57  -3.98    +59.1226
iter: 199 08:48:45  -870.262036c -5.61  -4.36c   +59.1141
iter: 200 08:51:35  -870.264339c -5.33  -4.28c   +59.1005
iter: 201 08:54:24  -870.261875c -5.67  -4.07c   +59.1145
iter: 202 08:57:14  -870.257967c -4.83  -4.46c   +59.1438
iter: 203 09:00:02  -870.258815c -6.31  -3.93    +59.1418
iter: 204 09:02:50  -870.258485c -6.87  -4.07c   +59.1436
iter: 205 09:05:40  -870.260575c -5.54  -4.06c   +59.1310
iter: 206 09:08:29  -870.256929c -5.11  -4.36c   +59.1535
iter: 207 09:11:19  -870.257763c -6.39  -3.90    +59.1518
iter: 208 09:14:09  -870.258633c -6.01  -3.89    +59.1469
iter: 209 09:17:00  -870.259415c -6.09  -4.06c   +59.1467
iter: 210 09:19:51  -870.259081c -6.84  -4.11c   +59.1470
iter: 211 09:22:42  -870.260384c -5.91  -4.08c   +59.1543
iter: 212 09:25:32  -870.260194c -6.66  -4.14c   +59.1413
iter: 213 09:28:22  -870.260756c -6.22  -4.26c   +59.1340
iter: 214 09:31:12  -870.260619c -6.68  -4.16c   +59.1338
iter: 215 09:34:02  -870.261369c -6.22  -4.19c   +59.1307
iter: 216 09:36:53  -870.262836c -5.73  -4.42c   +59.1197
iter: 217 09:39:42  -870.262799c -6.80  -4.24c   +59.1188
iter: 218 09:42:32  -870.263871c -6.01  -4.24c   +59.1146
iter: 219 09:45:22  -870.263985c -6.74  -4.07c   +59.1110
iter: 220 09:48:12  -870.264653c -6.37  -4.03c   +59.1079
iter: 221 09:50:58  -870.264733c -6.51  -3.98    +59.1046
iter: 222 09:53:47  -870.266174c -5.94  -4.04c   +59.0988
iter: 223 09:56:36  -870.263493c -5.47  -3.91    +59.1151
iter: 224 09:59:26  -870.263341c -5.72  -4.02c   +59.1292
iter: 225 10:02:15  -870.263655c -6.05  -3.84    +59.1134
iter: 226 10:05:05  -870.264106c -6.24  -4.09c   +59.1132
iter: 227 10:07:54  -870.264113c -6.62  -4.06c   +59.1138
iter: 228 10:10:43  -870.264784c -6.36  -4.28c   +59.1127
iter: 229 10:13:32  -870.265036c -6.81  -4.33c   +59.1095
iter: 230 10:16:22  -870.265400c -6.76  -4.35c   +59.1072
iter: 231 10:19:11  -870.265934c -6.49  -4.31c   +59.1000
iter: 232 10:22:01  -870.266287c -6.63  -4.34c   +59.0971
iter: 233 10:24:50  -870.266342c -7.24  -4.33c   +59.0980
iter: 234 10:27:40  -870.266985c -6.52  -4.37c   +59.0945
iter: 235 10:30:30  -870.265963c -6.40  -4.33c   +59.1054
iter: 236 10:33:19  -870.261572c -4.83  -4.40c   +59.1671
iter: 237 10:36:06  -870.259741c -5.05  -4.13c   +59.2005
iter: 238 10:38:56  -870.259241c -5.43  -3.98    +59.2180
iter: 239 10:41:46  -870.259266c -5.67  -3.92    +59.2330
iter: 240 10:44:35  -870.259649c -6.08  -3.87    +59.2397
iter: 241 10:47:25  -870.259660c -6.43  -3.87    +59.2327
iter: 242 10:50:14  -870.260074c -6.07  -3.80    +59.2448
iter: 243 10:53:03  -870.259991c -6.29  -3.83    +59.2387
iter: 244 10:55:52  -870.261022c -5.61  -3.82    +59.2440
iter: 245 10:58:41  -870.260068c -5.88  -3.65    +59.2412
iter: 246 11:01:30  -870.260266c -6.15  -4.01c   +59.2270
iter: 247 11:04:20  -870.260274c -6.61  -3.96    +59.2232
iter: 248 11:07:10  -870.260535c -6.34  -4.14c   +59.2189
iter: 249 11:10:00  -870.260842c -6.47  -4.09c   +59.2106
iter: 250 11:12:49  -870.261499c -6.34  -4.15c   +59.2043
iter: 251 11:15:39  -870.261182c -6.54  -4.06c   +59.2029
iter: 252 11:18:28  -870.261617c -6.56  -4.21c   +59.1995
iter: 253 11:21:17  -870.261880c -6.42  -4.36c   +59.1933
iter: 254 11:24:07  -870.261817c -7.19  -4.24c   +59.1955
iter: 255 11:26:56  -870.262042c -6.93  -4.48c   +59.1959
iter: 256 11:29:45  -870.261919c -7.31  -4.47c   +59.1894
iter: 257 11:32:32  -870.262333c -6.73  -4.45c   +59.1827
iter: 258 11:35:22  -870.262790c -6.51  -4.51c   +59.1727
iter: 259 11:38:12  -870.258878c -4.81  -4.41c   +59.2639
iter: 260 11:41:01  -870.257696c -5.30  -4.21c   +59.2976
iter: 261 11:43:51  -870.260689c -5.11  -4.11c   +59.2189
iter: 262 11:46:41  -870.257309c -5.02  -4.55c   +59.3129
iter: 263 11:49:30  -870.258137c -6.44  -4.06c   +59.2951
iter: 264 11:52:18  -870.259973c -5.38  -4.15c   +59.2595
iter: 265 11:55:08  -870.261343c -5.47  -4.47c   +59.2392
iter: 266 11:57:57  -870.259677c -5.72  -4.60c   +59.2665
iter: 267 12:00:46  -870.259843c -7.19  -4.40c   +59.2688
iter: 268 12:03:35  -870.259802c -7.08  -4.38c   +59.2641
iter: 269 12:06:24  -870.259883c -7.22  -4.39c   +59.2566
iter: 270 12:09:14  -870.260016c -7.46c -4.48c   +59.2642

Converged after 270 iterations.

Dipole moment: (-10.716682, 8.256121, 8.368363) |e|*Ang

Total magnetic moment: (0.000000, 0.000000, 59.264215)
Local magnetic moments:
   0 Ni ( 0.000000,  0.000000,  0.150998)
   1 Cr ( 0.000000,  0.000000, -1.519965)
   2 Fe ( 0.000000,  0.000000, -1.522900)
   3 Cr ( 0.000000,  0.000000,  0.682392)
   4 Fe ( 0.000000,  0.000000,  1.927207)
   5 Co ( 0.000000,  0.000000,  0.927834)
   6 Co ( 0.000000,  0.000000,  0.907066)
   7 Ni ( 0.000000,  0.000000,  0.353952)
   8 Ni ( 0.000000,  0.000000,  0.325272)
   9 Co ( 0.000000,  0.000000,  1.319709)
  10 Cr ( 0.000000,  0.000000,  0.321701)
  11 Co ( 0.000000,  0.000000,  1.049994)
  12 Fe ( 0.000000,  0.000000,  2.032058)
  13 Cr ( 0.000000,  0.000000, -1.609243)
  14 Ni ( 0.000000,  0.000000,  0.289032)
  15 Co ( 0.000000,  0.000000,  1.200092)
  16 Ni ( 0.000000,  0.000000,  0.338239)
  17 Co ( 0.000000,  0.000000,  1.125500)
  18 Fe ( 0.000000,  0.000000,  2.298492)
  19 Cr ( 0.000000,  0.000000,  0.913856)
  20 Al ( 0.000000,  0.000000, -0.034058)
  21 Ni ( 0.000000,  0.000000,  0.345046)
  22 Ni ( 0.000000,  0.000000,  0.280545)
  23 Fe ( 0.000000,  0.000000,  2.060112)
  24 Cr ( 0.000000,  0.000000, -1.220525)
  25 Cr ( 0.000000,  0.000000,  0.529329)
  26 Co ( 0.000000,  0.000000,  0.430069)
  27 Co ( 0.000000,  0.000000,  0.683797)
  28 Cr ( 0.000000,  0.000000, -0.723574)
  29 Cr ( 0.000000,  0.000000,  0.141377)
  30 Cr ( 0.000000,  0.000000, -1.177027)
  31 Cr ( 0.000000,  0.000000, -0.291337)
  32 Ni ( 0.000000,  0.000000,  0.144403)
  33 Co ( 0.000000,  0.000000,  1.031751)
  34 Co ( 0.000000,  0.000000,  0.653167)
  35 Co ( 0.000000,  0.000000,  0.653498)
  36 Ni ( 0.000000,  0.000000,  0.214393)
  37 Fe ( 0.000000,  0.000000,  2.121148)
  38 Fe ( 0.000000,  0.000000,  2.070002)
  39 Co ( 0.000000,  0.000000,  1.337657)
  40 Cr ( 0.000000,  0.000000, -0.417485)
  41 Fe ( 0.000000,  0.000000,  2.089360)
  42 Co ( 0.000000,  0.000000,  0.799839)
  43 Al ( 0.000000,  0.000000, -0.026013)
  44 Cr ( 0.000000,  0.000000,  0.351672)
  45 Ni ( 0.000000,  0.000000,  0.118085)
  46 Co ( 0.000000,  0.000000,  1.044569)
  47 Fe ( 0.000000,  0.000000,  2.212664)
  48 Ni ( 0.000000,  0.000000,  0.339863)
  49 Co ( 0.000000,  0.000000,  0.930467)
  50 Ni ( 0.000000,  0.000000,  0.393588)
  51 Fe ( 0.000000,  0.000000,  2.136488)
  52 Ni ( 0.000000,  0.000000,  0.369553)
  53 Al ( 0.000000,  0.000000, -0.036331)
  54 Co ( 0.000000,  0.000000,  1.009263)
  55 Ni ( 0.000000,  0.000000,  0.263557)
  56 Ni ( 0.000000,  0.000000,  0.239519)
  57 Cr ( 0.000000,  0.000000, -1.318808)
  58 Cr ( 0.000000,  0.000000, -1.348571)
  59 Fe ( 0.000000,  0.000000,  2.002020)
[...]
  93 Ni ( 0.000000,  0.000000,  0.288714)
  94 Al ( 0.000000,  0.000000, -0.037039)
  95 Fe ( 0.000000,  0.000000,  1.763947)
  96 Fe ( 0.000000,  0.000000,  1.892691)
  97 Fe ( 0.000000,  0.000000,  1.975283)
  98 Co ( 0.000000,  0.000000,  1.106978)
  99 Ni ( 0.000000,  0.000000,  0.343752)
 100 Co ( 0.000000,  0.000000,  1.299328)
 101 Fe ( 0.000000,  0.000000,  2.169846)
 102 Co ( 0.000000,  0.000000,  1.114152)
 103 Ni ( 0.000000,  0.000000,  0.347453)
 104 Co ( 0.000000,  0.000000,  0.488953)
 105 Al ( 0.000000,  0.000000, -0.018560)
 106 Cr ( 0.000000,  0.000000, -1.811613)
 107 Ni ( 0.000000,  0.000000,  0.197230)

Energy contributions relative to reference atoms: (reference = -3699400.456887)

Kinetic:        +91.998974
Potential:     -152.991464
External:        +0.000000
XC:            -844.847559
Entropy (-ST):   -4.730745
Local:          +37.945405
Free energy:   -872.625389
Extrapolated:  -870.260016

Spin contamination: 24.744669 electrons
Showing only first 2 kpts
                      Up                     Down
 Kpt  Band  Eigenvalues  Occupancy  Eigenvalues  Occupancy
  0   508      9.68972    0.98888     10.48380    0.03069
  0   509      9.69386    0.98842     10.49372    0.02787
  0   510      9.70735    0.98677     10.50704    0.02448
  0   511      9.72087    0.98488     10.52273    0.02100

  1   508      9.69567    0.98821     10.48691    0.02978
  1   509      9.69967    0.98774     10.50500    0.02497
  1   510      9.71735    0.98540     10.51284    0.02313
  1   511      9.72685    0.98397     10.52397    0.02075

Fermi level: 10.13854

No gap

Forces in eV/Ang:
  0 Ni   -0.04241    0.14977    0.44478
  1 Cr   -0.03817   -0.13048    0.00435
  2 Fe   -0.17371   -0.07123   -0.06734
  3 Cr    0.19233   -0.14807    0.21084
  4 Fe    0.28229    0.16503   -0.08447
  5 Co    0.12076   -0.10706    0.02259
  6 Co    0.12369    0.26462    0.01712
  7 Ni   -0.29882   -0.60892    0.11194
  8 Ni   -0.31401    0.07334    0.00898
  9 Co   -0.05868   -0.45532    0.19719
 10 Cr   -0.05235    0.14522   -0.46240
 11 Co    0.43825   -0.49731    0.65481
 12 Fe    0.24402   -0.19064    0.65983
 13 Cr   -0.07854    0.07649    0.01896
 14 Ni    0.14187   -0.47305    0.14014
 15 Co   -0.02534    0.08019    0.00747
 16 Ni    0.05234   -0.08347    0.10599
 17 Co    0.14661    0.04719    0.12016
 18 Fe   -0.55346   -0.06705    0.40915
 19 Cr   -0.29229    1.23094    0.00952
 20 Al   -0.40119   -0.56554    0.49234
 21 Ni    0.00661    0.35407   -0.24707
 22 Ni    0.28684   -0.48897    0.32928
 23 Fe    0.10195    1.20424    0.31346
 24 Cr    0.31606    0.12333    0.15442
 25 Cr   -0.00802    0.16812   -0.34797
 26 Co   -0.14978    0.10395   -0.27338
 27 Co   -0.02842    0.04270    0.19508
 28 Cr   -0.58612   -0.18719   -0.14835
 29 Cr   -0.13772    0.25514   -0.35697
 30 Cr    0.42534   -0.11177    0.09912
 31 Cr   -0.10960    0.16619    0.50538
 32 Ni    0.09171    0.01858    0.19816
 33 Co    0.00879   -0.01708   -0.44175
 34 Co   -0.12056    0.23607   -0.34885
 35 Co   -0.10022   -0.35999    0.36707
 36 Ni   -0.01598    0.09119   -0.26972
 37 Fe    0.09190   -0.11849    0.09149
 38 Fe    0.17342   -0.15260    0.18918
 39 Co    0.10130   -0.01259   -0.28097
 40 Cr   -0.43075   -0.17240   -0.29969
 41 Fe   -0.18862    0.06983    0.18560
 42 Co    0.14466   -0.34563    0.12130
 43 Al   -0.02343    0.80410   -0.16692
 44 Cr    0.42044   -0.95944    0.04968
 45 Ni   -0.13625   -0.16010    0.12209
 46 Co   -0.26526    0.02780    0.07025
 47 Fe    0.01193    0.16462   -0.30812
 48 Ni    0.23394   -0.07515   -0.19107
 49 Co   -0.19936    0.05423    0.15990
 50 Ni   -0.25546   -0.31335   -0.12910
 51 Fe   -0.19498    0.15922   -0.31913
 52 Ni    0.18987   -0.50611   -0.32636
 53 Al    0.74604   -0.88827   -0.32157
 54 Co    0.20058   -0.25252    0.04008
 55 Ni    0.04014   -0.13773   -0.19696
 56 Ni   -0.24999    0.00942   -0.17041
 57 Cr   -0.55090    0.04256    0.05693
 58 Cr    0.39488   -0.12776    0.06082
 59 Fe    0.06213   -0.00439    0.08574
[...]
 93 Ni    0.05220    0.48492    0.35289
 94 Al    0.16293    0.17256   -0.45780
 95 Fe    0.03828    0.42135   -0.44651
 96 Fe   -0.12704    0.11458   -0.21854
 97 Fe    0.23860   -0.27916    0.22583
 98 Co    0.15401   -0.07826    0.22212
 99 Ni    0.04877    0.23053   -0.03763
100 Co    0.03113    0.28370    0.33138
101 Fe    0.19020    0.29121   -0.22115
102 Co    0.07871   -0.15716    0.25559
103 Ni    0.27198    0.39081   -0.09759
104 Co   -0.01272    0.01490   -0.64155
105 Al   -0.62421   -0.22430    0.49755
106 Cr    0.16358   -1.09501   -0.20724
107 Ni   -0.22068    0.18020   -0.38529

Date: Sun Apr 16 12:09:37 2023