User:   c.zeng@d0007
Date:   Fri Apr 14 00:24:19 2023
Arch:   x86_64
Pid:    38155
CWD:    /home/c.zeng/projects/hea-corrosion/hea-mlp/data-curation/bulk-md/dft-jobs/63
Python: 3.8.1
gpaw:   /home/c.zeng/usr/installs/gpaw/source/gpaw-22.8.0/gpaw
_gpaw:  /home/c.zeng/usr/installs/gpaw/source/gpaw-22.8.0/
        _gpaw.cpython-38-x86_64-linux-gnu.so
ase:    /home/c.zeng/.local/lib/python3.8/site-packages/ase-3.22.1-py3.8.egg/ase (version 3.22.1)
numpy:  /shared/centos7/python/3.8.1/lib/python3.8/site-packages/numpy (version 1.17.4)
scipy:  /shared/centos7/python/3.8.1/lib/python3.8/site-packages/scipy (version 1.4.1)
units:  Angstrom and eV
cores: 30
OpenMP: False
OMP_NUM_THREADS: 1

Input parameters:
  convergence: {energy: 0.0001}
  kpts: [2 2 2]
  maxiter: 666
  mode: {ecut: 350.0,
         name: pw}
  occupations: {fixmagmom: False,
                name: fermi-dirac,
                width: 0.1}
  spinpol: True
  xc: PBE

System changes: positions, numbers, cell, pbc, initial_charges, initial_magmoms

Initialize ...

species:
  Fe:
    name: Iron
    id: 37abbd8d6c3c35915a9b583b742da910
    Z: 26.0
    valence: 8
    core: 18
    charge: 0.0
    file: /home/c.zeng/usr/data/gpaw-setups-0.9.20000/Fe.PBE.gz
    compensation charges: {type: gauss,
                           rc: 0.33,
                           lmax: 2}
    cutoffs: {filter: 2.06,
              core: 2.67}
    valence states:
      #              energy  rcut
      - 4s(2.00)    -5.291   1.164
      - 4p(0.00)    -1.326   1.058
      - 3d(6.00)    -7.505   1.058
      -  s          21.920   1.164
      -  p          25.885   1.058
      -  d          19.706   1.058

    # Using partial waves for Fe as LCAO basis

  Cr:
    name: Chromium
    id: 33f258bda2ca9f93018e70263a35547b
    Z: 24.0
    valence: 6
    core: 18
    charge: 0.0
    file: /home/c.zeng/usr/data/gpaw-setups-0.9.20000/Cr.PBE.gz
    compensation charges: {type: gauss,
                           rc: 0.35,
                           lmax: 2}
    cutoffs: {filter: 2.14,
              core: 3.04}
    valence states:
      #              energy  rcut
      - 4s(1.00)    -4.007   1.164
      - 4p(0.00)    -0.989   1.217
      - 3d(5.00)    -2.913   1.111
      -  s          23.205   1.164
      -  p          26.223   1.217
      -  d          24.299   1.111

[...]

  Ni:
    name: Nickel
    id: 0d9f38a9d6e76a2886f07bb4381f212b
    Z: 28.0
    valence: 16
    core: 12
    charge: 0.0
    file: /home/c.zeng/usr/data/gpaw-setups-0.9.20000/Ni.PBE.gz
    compensation charges: {type: gauss,
                           rc: 0.36,
                           lmax: 2}
    cutoffs: {filter: 2.14,
              core: 1.98}
    valence states:
      #              energy  rcut
      - 4s(2.00)    -5.642   1.164
      - 3p(6.00)   -71.394   1.207
      - 4p(0.00)    -1.226   1.207
      - 3d(8.00)    -8.875   1.138
      -  s          21.570   1.164
      -  d          18.337   1.138

[...]

  Al:
    name: Aluminium
    id: 0292cae29f5d6237e50f6abdd43a7bdd
    Z: 13.0
    valence: 3
    core: 10
    charge: 0.0
    file: /home/c.zeng/usr/data/gpaw-setups-0.9.20000/Al.PBE.gz
    compensation charges: {type: gauss,
                           rc: 0.34,
                           lmax: 2}
    cutoffs: {filter: 1.91,
              core: 2.36}
    valence states:
      #              energy  rcut
      - 3s(2.00)    -7.753   1.085
      - 3p(1.00)    -2.712   1.085
      -  s          19.459   1.085
      -  p          24.499   1.085
      -  d           0.000   1.085

[...]

  Co:
    name: Cobalt
    id: 339d20d5b0b93d2de9531a1bee871d91
    Z: 27.0
    valence: 9
    core: 18
    charge: 0.0
    file: /home/c.zeng/usr/data/gpaw-setups-0.9.20000/Co.PBE.gz
    compensation charges: {type: gauss,
                           rc: 0.32,
                           lmax: 2}
    cutoffs: {filter: 1.87,
              core: 2.55}
    valence states:
      #              energy  rcut
      - 4s(2.00)    -5.469   1.005
      - 4p(0.00)    -1.277   1.058
      - 3d(7.00)    -8.205   1.005
      -  s          21.742   1.005
      -  p          25.934   1.058
      -  d          19.007   1.005

    # Using partial waves for Co as LCAO basis

Reference energy: -3382523.201499  # eV

Spin-polarized calculation.
Magnetic moment: 128.800000

Convergence criteria:
 Maximum [total energy] change in last 3 cyles: 0.0001 eV / electron
 Maximum integral of absolute [dens]ity change: 0.0001 electrons / valence electron
 Maximum integral of absolute [eigenst]ate change: 4e-08 eV^2 / valence electron
 Maximum number of scf [iter]ations: 666
 (Square brackets indicate name in SCF output, whereas a 'c' in
 the SCF output indicates the quantity has converged.)

Symmetries present (total): 1

  ( 1  0  0)
  ( 0  1  0)
  ( 0  0  1)

8 k-points: 2 x 2 x 2 Monkhorst-Pack grid
4 k-points in the irreducible part of the Brillouin zone
       k-points in crystal coordinates                weights
   0:     0.25000000   -0.25000000   -0.25000000          2/8
   1:     0.25000000   -0.25000000    0.25000000          2/8
   2:     0.25000000    0.25000000   -0.25000000          2/8
   3:     0.25000000    0.25000000    0.25000000          2/8

Wave functions: Plane wave expansion
  Cutoff energy: 350.000 eV
  Number of coefficients (min, max): 18865, 18865
  Pulay-stress correction: 0.000000 eV/Ang^3 (de/decut=0.000000)
  Using FFTW library
  ScaLapack parameters: grid=1x1, blocksize=None
  Wavefunction extrapolation:
    Improved wavefunction reuse through dual PAW basis

Occupation numbers: Fermi-Dirac:
  width: 0.1000  # eV

Eigensolver
   Davidson(niter=2)

Densities:
  Coarse grid: 48*48*48 grid
  Fine grid: 96*96*96 grid
  Total Charge: 0.000000

Density mixing:
  Method: difference
  Backend: pulay
  Linear mixing parameter: 0.05
  old densities: 5
  Damping of long wavelength oscillations: 50

Hamiltonian:
  XC and Coulomb potentials evaluated on a 96*96*96 grid
  Using the PBE Exchange-Correlation functional
  External potential:
    NoExternalPotential

XC parameters: PBE with 2 nearest neighbor stencil

Total number of cores used: 30
Parallelization over k-points: 2
Domain decomposition: 5 x 3 x 1

Number of atoms: 108
Number of atomic orbitals: 961
Number of bands in calculation: 649
Number of valence electrons: 945
Bands to converge: occupied

... initialized

Initializing position-dependent things.

Density initialized from atomic densities
Creating initial wave functions:
  649 bands from LCAO basis set

        .-----------------Al-------.
       /|  Al       Fe        Ni   |
      / |      Cr      Ni       Ni |
     /  |       Al       Ni       Fe
    /   |Cr      FeFe              |
   /    | Coi      CrCr     CoNi   |
  /    Cr   CoFeAl     Cr     CFe  |
 *     Co      CrNi  Fe AlFe    Ni |
 |      |CrFe   CrCoAl   FCr Co  Co|
 | NiCo Ni  Ni Cr  AlAlNi CrCr     |
 |     Co  NiFe Fe   NiNNi   CrCr  |
 Fe     Co   NiAFe   Ni AlCo     Fe|
 |Co    Al Al   CrFCo    Cr Co   Cr|
 |  Ni  FeCr-----AlFCoi-----Co-----.
 |    Cr    AlCrNi     FeNi    Cr /
 |    /          Co       Co     /
 |Cr /  FeFe        Co     Al   /
 |  /      FeCo                /
 | /                    Ni    /
 |/                      Co  /

Positions:
   0 Fe    10.883745   10.646938   11.016505    ( 0.0000,  0.0000,  2.0000)
   1 Cr    10.884432    1.812981    1.937651    ( 0.0000,  0.0000,  0.0000)
   2 Ni     1.889008   -0.004907    1.731842    ( 0.0000,  0.0000,  1.5000)
   3 Cr     1.940478    2.058858   10.560271    ( 0.0000,  0.0000,  0.0000)
   4 Al     3.648767   -0.031771    0.108584    ( 0.0000,  0.0000,  0.0000)
   5 Fe     3.506157    1.817022    1.865919    ( 0.0000,  0.0000,  2.0000)
   6 Ni     5.348960   10.816166    1.979081    ( 0.0000,  0.0000,  1.5000)
   7 Al     5.463925    1.925440   -0.101578    ( 0.0000,  0.0000,  0.0000)
   8 Al     7.247702   10.641573   -0.023701    ( 0.0000,  0.0000,  0.0000)
   9 Co     7.381135    1.638286    2.149354    ( 0.0000,  0.0000,  2.1000)
  10 Ni     9.145212    0.039889    1.749259    ( 0.0000,  0.0000,  1.5000)
  11 Co     8.999734    1.878317    0.043717    ( 0.0000,  0.0000,  2.1000)
  12 Ni    -0.220408    3.611867   10.744220    ( 0.0000,  0.0000,  1.5000)
  13 Cr    10.707990    5.222242    1.787269    ( 0.0000,  0.0000,  0.0000)
  14 Fe     1.825455    3.661904    1.760128    ( 0.0000,  0.0000,  2.0000)
  15 Cr     1.949706    5.129458   10.675499    ( 0.0000,  0.0000,  0.0000)
  16 Co     3.927719    3.622653   11.020679    ( 0.0000,  0.0000,  2.1000)
  17 Cr     3.756801    5.433096    1.697119    ( 0.0000,  0.0000,  0.0000)
  18 Co     5.612004    3.633185    2.045523    ( 0.0000,  0.0000,  2.1000)
  19 Fe     5.638597    5.384316   -0.057561    ( 0.0000,  0.0000,  2.0000)
  20 Cr     7.191574    3.622964   -0.060514    ( 0.0000,  0.0000,  0.0000)
  21 Fe     7.336983    5.407962    1.880280    ( 0.0000,  0.0000,  2.0000)
  22 Co     9.107806    3.562789    1.993453    ( 0.0000,  0.0000,  2.1000)
  23 Al     9.117505    5.417223   10.944826    ( 0.0000,  0.0000,  0.0000)
  24 Ni    10.664950    7.153338   10.793591    ( 0.0000,  0.0000,  1.5000)
  25 Cr    10.621576    8.951197    1.745733    ( 0.0000,  0.0000,  0.0000)
  26 Cr     1.640912    7.336224    1.836133    ( 0.0000,  0.0000,  0.0000)
  27 Al     1.766356    8.889565   -0.005059    ( 0.0000,  0.0000,  0.0000)
  28 Cr     3.801923    7.227094   -0.104405    ( 0.0000,  0.0000,  0.0000)
  29 Cr     3.755481    9.124101    1.786139    ( 0.0000,  0.0000,  0.0000)
  30 Fe     5.483450    7.274076    1.889525    ( 0.0000,  0.0000,  2.0000)
  31 Fe     5.400703    9.091057   -0.023457    ( 0.0000,  0.0000,  2.0000)
  32 Ni     7.058898    7.183115   -0.108736    ( 0.0000,  0.0000,  1.5000)
  33 Cr     7.146889    8.871318    1.777918    ( 0.0000,  0.0000,  0.0000)
  34 Co     8.908595    7.279088    1.727002    ( 0.0000,  0.0000,  2.1000)
  35 Ni     9.121959    8.963946   10.720269    ( 0.0000,  0.0000,  1.5000)
  36 Ni     0.040534   10.603978    3.514038    ( 0.0000,  0.0000,  1.5000)
  37 Co    10.838903    1.458805    5.555965    ( 0.0000,  0.0000,  2.1000)
  38 Co     1.683427   10.769695    5.506317    ( 0.0000,  0.0000,  2.1000)
  39 Cr     1.739360    1.767937    3.853730    ( 0.0000,  0.0000,  0.0000)
  40 Fe     3.741482   10.957483    3.492924    ( 0.0000,  0.0000,  2.0000)
  41 Al     3.584171    1.693443    5.414153    ( 0.0000,  0.0000,  0.0000)
  42 Fe     5.372374   10.816937    5.287732    ( 0.0000,  0.0000,  2.0000)
  43 Ni     5.374767    1.745405    3.648393    ( 0.0000,  0.0000,  1.5000)
  44 Cr     7.173184   -0.065096    3.730297    ( 0.0000,  0.0000,  0.0000)
  45 Co     7.173519    1.696667    5.211501    ( 0.0000,  0.0000,  2.1000)
  46 Co     8.998769   10.788391    5.449026    ( 0.0000,  0.0000,  2.1000)
  47 Ni     9.160851    1.778935    3.948981    ( 0.0000,  0.0000,  1.5000)
  48 Ni    10.902417    3.588465    3.849976    ( 0.0000,  0.0000,  1.5000)
  49 Cr    10.764566    5.422077    5.629565    ( 0.0000,  0.0000,  0.0000)
  50 Co     1.902226    3.421783    5.420166    ( 0.0000,  0.0000,  2.1000)
  51 Al     1.356499    5.657437    3.673911    ( 0.0000,  0.0000,  0.0000)
  52 Al     3.638601    3.618367    3.358126    ( 0.0000,  0.0000,  0.0000)
  53 Fe     3.290510    5.450574    5.341056    ( 0.0000,  0.0000,  2.0000)
  54 Fe     5.165641    3.608601    5.321644    ( 0.0000,  0.0000,  2.0000)
  55 Fe     5.437251    5.473367    3.647291    ( 0.0000,  0.0000,  2.0000)
  56 Ni     7.009730    3.671185    3.714227    ( 0.0000,  0.0000,  1.5000)
  57 Ni     7.199465    5.489810    5.317135    ( 0.0000,  0.0000,  1.5000)
  58 Co     9.021036    3.737332    5.513334    ( 0.0000,  0.0000,  2.1000)
  59 Co     9.240897    5.373960    3.731084    ( 0.0000,  0.0000,  2.1000)
[...]
  93 Cr     7.394032    5.212610    8.890363    ( 0.0000,  0.0000,  0.0000)
  94 Fe     9.187323    3.637362    8.893842    ( 0.0000,  0.0000,  2.0000)
  95 Cr     8.781808    5.390267    7.029592    ( 0.0000,  0.0000,  0.0000)
  96 Ni    10.668315    7.326453    7.283474    ( 0.0000,  0.0000,  1.5000)
  97 Fe    10.793705    9.124964    9.081034    ( 0.0000,  0.0000,  2.0000)
  98 Co     1.760783    7.196601    8.956719    ( 0.0000,  0.0000,  2.1000)
  99 Ni     1.727761    9.123410    7.241897    ( 0.0000,  0.0000,  1.5000)
 100 Cr     3.646747    7.211430    7.259827    ( 0.0000,  0.0000,  0.0000)
 101 Al     3.752192    9.071260    8.879950    ( 0.0000,  0.0000,  0.0000)
 102 Cr     5.414513    6.983970    8.998156    ( 0.0000,  0.0000,  0.0000)
 103 Co     5.463084    9.073182    7.223191    ( 0.0000,  0.0000,  2.1000)
 104 Al     7.249126    7.344754    7.185612    ( 0.0000,  0.0000,  0.0000)
 105 Ni     7.123776    9.068215    8.881524    ( 0.0000,  0.0000,  1.5000)
 106 Co     8.864515    7.067501    9.024488    ( 0.0000,  0.0000,  2.1000)
 107 Fe     9.097224    8.979305    7.411040    ( 0.0000,  0.0000,  2.0000)

Unit cell:
           periodic     x           y           z      points  spacing
  1. axis:    yes   10.820500    0.000000    0.000000    48     0.2254
  2. axis:    yes    0.000000   10.820500    0.000000    48     0.2254
  3. axis:    yes    0.000000    0.000000   10.820500    48     0.2254

  Lengths:  10.820500  10.820500  10.820500
  Angles:   90.000000  90.000000  90.000000

Effective grid spacing dv^(1/3) = 0.2254

     iter     time        total  log10-change:  magmom
                         energy  eigst   dens
iter:   1 00:29:25  -986.146013                  +129.0866
iter:   2 00:31:43  -881.928793  -0.19  -1.17    +70.7411
iter:   3 00:34:03  -869.648285  -0.78  -1.18    +58.2664
iter:   4 00:36:23  -838.412360  -1.22  -1.25    +54.0618
iter:   5 00:38:43  -831.898125  -1.58  -1.30    +51.0918
iter:   6 00:41:04  -832.932960  -1.37  -1.33    +51.6035
iter:   7 00:43:23  -824.353366  -1.24  -1.38    +50.0928
iter:   8 00:45:43  -819.480131  -1.53  -1.50    +48.9748
iter:   9 00:48:02  -815.309593  -1.77  -1.59    +49.7961
iter:  10 00:50:21  -812.814043  -2.34  -1.71    +50.5350
iter:  11 00:52:40  -813.265057  -2.39  -1.78    +52.8893
iter:  12 00:54:59  -813.922354  -2.50  -1.84    +53.9905
iter:  13 00:57:17  -814.503078  -2.40  -1.86    +55.0078
iter:  14 00:59:33  -814.556155  -2.38  -1.89    +56.5765
iter:  15 01:01:50  -813.928990  -2.68  -1.94    +56.8487
iter:  16 01:04:08  -813.724002  -2.94  -2.01    +57.4865
iter:  17 01:06:27  -813.806635  -3.01  -2.07    +58.3360
iter:  18 01:08:48  -813.866455  -2.98  -2.12    +59.0932
iter:  19 01:11:08  -813.708686  -3.07  -2.16    +59.2613
iter:  20 01:13:29  -813.931916  -3.08  -2.28    +59.8599
iter:  21 01:15:50  -813.851885  -3.23  -2.26    +60.3369
iter:  22 01:18:11  -813.731602  -3.34  -2.31    +60.5845
iter:  23 01:20:33  -813.756589  -3.38  -2.44    +60.8586
iter:  24 01:22:54  -813.766308c -3.56  -2.47    +61.1168
iter:  25 01:25:16  -813.790119c -3.78  -2.52    +61.5189
iter:  26 01:27:37  -813.803021c -3.84  -2.55    +61.6251
iter:  27 01:29:59  -813.816262c -3.94  -2.60    +61.7947
iter:  28 01:32:20  -813.862929c -4.01  -2.66    +62.0146
iter:  29 01:34:42  -813.884426c -4.02  -2.67    +62.1126
iter:  30 01:37:04  -813.906763c -4.29  -2.73    +62.2143
iter:  31 01:39:25  -813.946407c -4.17  -2.76    +62.3777
iter:  32 01:41:46  -813.979880c -4.34  -2.80    +62.4421
iter:  33 01:44:07  -814.032026c -4.18  -2.84    +62.5453
iter:  34 01:46:28  -814.078835  -4.20  -2.87    +62.6489
iter:  35 01:48:49  -814.128158  -4.13  -2.89    +62.6614
iter:  36 01:51:10  -814.206772  -3.88  -2.93    +62.7923
iter:  37 01:53:30  -814.325368  -3.45  -2.91    +63.0744
iter:  38 01:55:51  -814.388292  -3.50  -2.79    +63.4410
iter:  39 01:58:12  -814.367290c -4.31  -2.73    +63.5074
iter:  40 02:00:33  -814.375045c -4.67  -2.77    +63.6195
iter:  41 02:02:54  -814.384142c -4.65  -2.76    +63.7668
iter:  42 02:05:08  -814.406863c -3.95  -2.75    +63.8918
iter:  43 02:07:18  -814.399914c -3.81  -2.65    +63.8198
iter:  44 02:09:27  -814.352587c -4.10  -2.67    +63.6286
iter:  45 02:11:36  -814.343817c -4.70  -2.77    +63.5400
iter:  46 02:13:44  -814.370131c -4.01  -2.81    +63.4279
iter:  47 02:15:53  -814.337909c -4.28  -2.77    +63.3654
iter:  48 02:18:00  -814.328982c -4.62  -2.90    +63.2615
iter:  49 02:20:10  -814.355677c -4.23  -2.96    +63.2194
iter:  50 02:22:18  -814.330020c -4.48  -2.87    +63.1415
iter:  51 02:24:26  -814.342011c -4.51  -3.03    +63.0792
iter:  52 02:26:33  -814.326451c -4.70  -2.98    +63.0386
iter:  53 02:28:41  -814.332299c -4.61  -3.11    +62.9820
iter:  54 02:30:49  -814.326062c -4.92  -3.06    +62.9589
iter:  55 02:32:57  -814.327227c -4.96  -3.17    +62.9066
iter:  56 02:35:05  -814.325311c -4.93  -3.19    +62.8789
iter:  57 02:37:13  -814.325052c -5.09  -3.19    +62.8431
iter:  58 02:39:20  -814.325322c -5.16  -3.23    +62.8282
iter:  59 02:42:24  -814.326221c -5.11  -3.26    +62.8044
iter:  60 02:44:45  -814.323464c -5.11  -3.28    +62.7800
iter:  61 02:46:53  -814.323002c -5.35  -3.29    +62.7610
iter:  62 02:49:01  -814.325446c -5.25  -3.36    +62.7525
iter:  63 02:51:09  -814.323464c -5.46  -3.34    +62.7397
iter:  64 02:53:18  -814.322336c -5.51  -3.41    +62.7179
iter:  65 02:55:26  -814.322458c -5.74  -3.42    +62.7100
iter:  66 02:57:34  -814.324241c -5.50  -3.46    +62.7049
iter:  67 02:59:42  -814.323321c -5.65  -3.46    +62.6995
iter:  68 03:01:51  -814.322766c -5.60  -3.49    +62.6863
iter:  69 03:03:59  -814.323278c -5.64  -3.50    +62.6802
iter:  70 03:06:08  -814.323998c -5.64  -3.52    +62.6787
iter:  71 03:08:16  -814.323444c -5.91  -3.55    +62.6742
iter:  72 03:10:24  -814.322829c -5.88  -3.61    +62.6643
iter:  73 03:12:32  -814.323024c -5.99  -3.62    +62.6608
iter:  74 03:14:40  -814.323688c -6.19  -3.65    +62.6608
iter:  75 03:16:48  -814.323468c -6.14  -3.67    +62.6585
iter:  76 03:18:56  -814.323330c -5.99  -3.70    +62.6555
iter:  77 03:21:04  -814.323386c -6.12  -3.66    +62.6535
iter:  78 03:23:13  -814.324247c -6.08  -3.73    +62.6556
iter:  79 03:25:21  -814.324142c -5.90  -3.75    +62.6548
iter:  80 03:27:29  -814.323509c -6.13  -3.72    +62.6511
iter:  81 03:29:37  -814.323833c -6.17  -3.80    +62.6498
iter:  82 03:31:45  -814.324303c -6.31  -3.81    +62.6508
iter:  83 03:33:53  -814.324145c -6.39  -3.84    +62.6516
iter:  84 03:36:01  -814.323916c -6.77  -3.88    +62.6492
iter:  85 03:38:08  -814.324247c -6.42  -3.93    +62.6492
iter:  86 03:40:15  -814.324539c -6.65  -3.90    +62.6495
iter:  87 03:42:41  -814.324534c -6.23  -3.95    +62.6488
iter:  88 03:45:36  -814.324200c -6.37  -3.89    +62.6478
iter:  89 03:47:44  -814.324537c -6.12  -3.97    +62.6470
iter:  90 03:49:53  -814.324751c -6.41  -3.91    +62.6503
iter:  91 03:52:00  -814.324800c -6.36  -4.08c   +62.6509
iter:  92 03:54:08  -814.324407c -6.74  -4.02c   +62.6497
iter:  93 03:56:16  -814.324523c -6.92  -4.22c   +62.6504
iter:  94 03:58:24  -814.324597c -7.60c -4.25c   +62.6514

Converged after 94 iterations.

Dipole moment: (40.427735, 6.245837, 17.431019) |e|*Ang

Total magnetic moment: (0.000000, 0.000000, 62.651403)
Local magnetic moments:
   0 Fe ( 0.000000,  0.000000,  2.140087)
   1 Cr ( 0.000000,  0.000000,  2.135647)
   2 Ni ( 0.000000,  0.000000,  0.151374)
   3 Cr ( 0.000000,  0.000000, -2.530892)
   4 Al ( 0.000000,  0.000000, -0.008160)
   5 Fe ( 0.000000,  0.000000,  2.162247)
   6 Ni ( 0.000000,  0.000000,  0.107599)
   7 Al ( 0.000000,  0.000000, -0.015222)
   8 Al ( 0.000000,  0.000000, -0.011080)
   9 Co ( 0.000000,  0.000000,  1.472600)
  10 Ni ( 0.000000,  0.000000,  0.246401)
  11 Co ( 0.000000,  0.000000,  1.312939)
  12 Ni ( 0.000000,  0.000000,  0.292144)
  13 Cr ( 0.000000,  0.000000,  0.877990)
  14 Fe ( 0.000000,  0.000000,  1.535573)
  15 Cr ( 0.000000,  0.000000, -2.124666)
  16 Co ( 0.000000,  0.000000,  0.674821)
  17 Cr ( 0.000000,  0.000000,  1.102707)
  18 Co ( 0.000000,  0.000000,  1.100750)
  19 Fe ( 0.000000,  0.000000,  1.753025)
  20 Cr ( 0.000000,  0.000000, -1.992267)
  21 Fe ( 0.000000,  0.000000,  2.502748)
  22 Co ( 0.000000,  0.000000,  1.092609)
  23 Al ( 0.000000,  0.000000, -0.021103)
  24 Ni ( 0.000000,  0.000000,  0.232448)
  25 Cr ( 0.000000,  0.000000, -1.094832)
  26 Cr ( 0.000000,  0.000000,  1.580041)
  27 Al ( 0.000000,  0.000000, -0.009134)
  28 Cr ( 0.000000,  0.000000, -1.300511)
  29 Cr ( 0.000000,  0.000000, -1.784010)
  30 Fe ( 0.000000,  0.000000,  1.649215)
  31 Fe ( 0.000000,  0.000000,  1.327965)
  32 Ni ( 0.000000,  0.000000,  0.345212)
  33 Cr ( 0.000000,  0.000000, -1.173840)
  34 Co ( 0.000000,  0.000000,  0.865364)
  35 Ni ( 0.000000,  0.000000,  0.302745)
  36 Ni ( 0.000000,  0.000000,  0.157733)
  37 Co ( 0.000000,  0.000000,  1.445293)
  38 Co ( 0.000000,  0.000000,  1.202386)
  39 Cr ( 0.000000,  0.000000, -1.910055)
  40 Fe ( 0.000000,  0.000000,  1.935871)
  41 Al ( 0.000000,  0.000000, -0.043564)
  42 Fe ( 0.000000,  0.000000,  1.782759)
  43 Ni ( 0.000000,  0.000000,  0.395816)
  44 Cr ( 0.000000,  0.000000, -1.020847)
  45 Co ( 0.000000,  0.000000,  1.209379)
  46 Co ( 0.000000,  0.000000,  1.341235)
  47 Ni ( 0.000000,  0.000000,  0.533257)
  48 Ni ( 0.000000,  0.000000,  0.261438)
  49 Cr ( 0.000000,  0.000000,  1.189140)
  50 Co ( 0.000000,  0.000000,  0.859005)
  51 Al ( 0.000000,  0.000000, -0.033755)
  52 Al ( 0.000000,  0.000000, -0.044263)
  53 Fe ( 0.000000,  0.000000,  1.981055)
  54 Fe ( 0.000000,  0.000000,  2.234450)
  55 Fe ( 0.000000,  0.000000,  2.157847)
  56 Ni ( 0.000000,  0.000000,  0.513966)
  57 Ni ( 0.000000,  0.000000,  0.138046)
  58 Co ( 0.000000,  0.000000,  0.988425)
  59 Co ( 0.000000,  0.000000,  0.904841)
[...]
  93 Cr ( 0.000000,  0.000000,  0.627534)
  94 Fe ( 0.000000,  0.000000,  2.128892)
  95 Cr ( 0.000000,  0.000000, -0.179366)
  96 Ni ( 0.000000,  0.000000,  0.290211)
  97 Fe ( 0.000000,  0.000000,  2.381780)
  98 Co ( 0.000000,  0.000000,  0.766365)
  99 Ni ( 0.000000,  0.000000,  0.310354)
 100 Cr ( 0.000000,  0.000000,  1.193408)
 101 Al ( 0.000000,  0.000000, -0.012502)
 102 Cr ( 0.000000,  0.000000,  0.049671)
 103 Co ( 0.000000,  0.000000,  0.519389)
 104 Al ( 0.000000,  0.000000, -0.022546)
 105 Ni ( 0.000000,  0.000000,  0.239892)
 106 Co ( 0.000000,  0.000000,  1.094668)
 107 Fe ( 0.000000,  0.000000,  2.354269)

Energy contributions relative to reference atoms: (reference = -3382523.201499)

Kinetic:       +375.738307
Potential:     -353.769137
External:        +0.000000
XC:            -867.348761
Entropy (-ST):   -4.273896
Local:          +33.191942
Free energy:   -816.461545
Extrapolated:  -814.324597

Spin contamination: 25.404228 electrons
Showing only first 2 kpts
                      Up                     Down
 Kpt  Band  Eigenvalues  Occupancy  Eigenvalues  Occupancy
  0   470      9.14866    0.99570     10.07471    0.02154
  0   471      9.15882    0.99524     10.08807    0.01890
  0   472      9.17602    0.99435     10.10524    0.01596
  0   473      9.18280    0.99396     10.11580    0.01439

  1   470      9.15402    0.99546     10.06872    0.02284
  1   471      9.17027    0.99467     10.08772    0.01896
  1   472      9.18417    0.99388     10.09518    0.01762
  1   473      9.19748    0.99301     10.11579    0.01439

Fermi level: 9.69310

No gap

Forces in eV/Ang:
  0 Fe   -0.31544    1.87389   -1.57806
  1 Cr    0.07282    0.23323   -0.15186
  2 Ni   -0.42863   -0.17054    0.44621
  3 Cr   -0.57639   -0.21283    0.93519
  4 Al   -0.15506    1.59287   -1.52230
  5 Fe    0.12740    0.12235   -1.01688
  6 Ni    2.01850    0.71441   -1.98705
  7 Al   -0.39696   -1.19523    1.15803
  8 Al    0.91830    1.03689    0.71033
  9 Co   -0.17291    1.08334   -0.99513
 10 Ni   -1.09029   -0.24846    0.57276
 11 Co   -0.18623   -0.33740    0.10709
 12 Ni    1.93660   -0.59658    0.52569
 13 Cr    1.01942    0.62625    1.08878
 14 Fe   -0.57331    0.16114   -0.18559
 15 Cr   -0.89723    0.72185    0.07591
 16 Co   -1.02072    0.62391   -0.59845
 17 Cr   -0.51138    0.50648   -1.01598
 18 Co   -0.59553   -0.30979   -2.31618
 19 Fe   -1.02015   -0.65880    0.63822
 20 Cr    1.50106    0.46836    1.03828
 21 Fe   -0.41163   -0.25815    0.11141
 22 Co   -0.75699   -0.51357   -0.19776
 23 Al   -2.00836    0.05862   -1.56788
 24 Ni    1.28415   -0.10416   -0.19969
 25 Cr    0.68268   -0.45163    0.47739
 26 Cr    0.28580   -1.06507   -0.80673
 27 Al    0.06116    0.26300   -0.65685
 28 Cr   -0.27625   -0.82893    0.39936
 29 Cr   -0.48306   -1.54375    1.27710
 30 Fe    0.14153   -0.60829   -1.44052
 31 Fe    0.04832   -0.82944    0.18218
 32 Ni    1.11332    0.87629    0.43390
 33 Cr    0.39862    0.57341   -0.75131
 34 Co    0.63353   -0.05710    0.43443
 35 Ni   -1.58841    0.12697    0.17938
 36 Ni   -0.09020    0.59148    0.49665
 37 Co   -0.18837    1.93799   -0.75937
 38 Co    0.98630   -0.87723   -0.76456
 39 Cr   -0.89384   -0.64216   -2.38258
 40 Fe   -2.45089   -1.85607    1.09512
 41 Al    0.76753    0.02867    0.57381
 42 Fe    0.34394   -1.18090    0.71552
 43 Ni    0.39573    1.23344   -0.57429
 44 Cr    0.85620    0.13356   -0.75551
 45 Co    0.07253    0.35036    0.75063
 46 Co    0.15135   -0.34219   -0.22873
 47 Ni   -0.12144    0.27222   -1.61509
 48 Ni   -0.36901   -0.28176   -0.56237
 49 Cr   -0.12253   -0.12443    0.28062
 50 Co   -0.23221    1.03429   -0.77588
 51 Al    2.24415   -2.01236   -0.22262
 52 Al   -0.49033    0.55255    1.74048
 53 Fe    0.95753   -0.05471   -0.24755
 54 Fe    0.21391    0.42573    0.11571
 55 Fe   -0.64924    0.37667   -0.09882
 56 Ni    2.49697   -0.67061    0.95174
 57 Ni   -0.60272   -0.01739    0.09396
 58 Co   -0.38738   -1.01164   -0.84962
 59 Co   -0.68698    0.19659   -0.67946
[...]
 93 Cr   -0.77840    0.67500   -0.07972
 94 Fe   -0.91704   -0.85161   -0.52559
 95 Cr    2.12649   -0.14483    1.27404
 96 Ni    0.61643   -1.02388    0.53462
 97 Fe    0.47168   -0.85163   -0.48074
 98 Co    0.22708   -0.25903    0.13862
 99 Ni    0.45996    0.05740    1.01057
100 Cr   -1.57793   -0.30689    0.77800
101 Al   -1.15034   -0.38781    0.50547
102 Cr    0.24179    0.84259   -0.08528
103 Co   -0.11870    0.37219   -0.55264
104 Al   -0.49089   -0.43453    0.10796
105 Ni    0.89357   -0.55445    0.96327
106 Co    0.49361    0.37611   -0.00767
107 Fe   -0.64481    1.24037   -0.73733

Date: Fri Apr 14 03:58:46 2023