User:   c.zeng@d0127
Date:   Sat Apr 15 19:58:23 2023
Arch:   x86_64
Pid:    174483
CWD:    /home/c.zeng/projects/hea-corrosion/hea-mlp/data-curation/bulk-mcmc/dft-jobs/77
Python: 3.8.1
gpaw:   /home/c.zeng/usr/installs/gpaw/source/gpaw-22.8.0/gpaw
_gpaw:  /home/c.zeng/usr/installs/gpaw/source/gpaw-22.8.0/
        _gpaw.cpython-38-x86_64-linux-gnu.so
ase:    /home/c.zeng/.local/lib/python3.8/site-packages/ase-3.22.1-py3.8.egg/ase (version 3.22.1)
numpy:  /shared/centos7/python/3.8.1/lib/python3.8/site-packages/numpy (version 1.17.4)
scipy:  /shared/centos7/python/3.8.1/lib/python3.8/site-packages/scipy (version 1.4.1)
units:  Angstrom and eV
cores: 30
OpenMP: False
OMP_NUM_THREADS: 1

Input parameters:
  convergence: {energy: 0.0001}
  kpts: [2 2 2]
  maxiter: 666
  mode: {ecut: 350.0,
         name: pw}
  occupations: {fixmagmom: False,
                name: fermi-dirac,
                width: 0.1}
  spinpol: True
  xc: PBE

System changes: positions, numbers, cell, pbc, initial_charges, initial_magmoms

Initialize ...

species:
  Cr:
    name: Chromium
    id: 33f258bda2ca9f93018e70263a35547b
    Z: 24.0
    valence: 6
    core: 18
    charge: 0.0
    file: /home/c.zeng/usr/data/gpaw-setups-0.9.20000/Cr.PBE.gz
    compensation charges: {type: gauss,
                           rc: 0.35,
                           lmax: 2}
    cutoffs: {filter: 2.14,
              core: 3.04}
    valence states:
      #              energy  rcut
      - 4s(1.00)    -4.007   1.164
      - 4p(0.00)    -0.989   1.217
      - 3d(5.00)    -2.913   1.111
      -  s          23.205   1.164
      -  p          26.223   1.217
      -  d          24.299   1.111

    # Using partial waves for Cr as LCAO basis

  Fe:
    name: Iron
    id: 37abbd8d6c3c35915a9b583b742da910
    Z: 26.0
    valence: 8
    core: 18
    charge: 0.0
    file: /home/c.zeng/usr/data/gpaw-setups-0.9.20000/Fe.PBE.gz
    compensation charges: {type: gauss,
                           rc: 0.33,
                           lmax: 2}
    cutoffs: {filter: 2.06,
              core: 2.67}
    valence states:
      #              energy  rcut
      - 4s(2.00)    -5.291   1.164
      - 4p(0.00)    -1.326   1.058
      - 3d(6.00)    -7.505   1.058
      -  s          21.920   1.164
      -  p          25.885   1.058
      -  d          19.706   1.058

[...]

  Co:
    name: Cobalt
    id: 339d20d5b0b93d2de9531a1bee871d91
    Z: 27.0
    valence: 9
    core: 18
    charge: 0.0
    file: /home/c.zeng/usr/data/gpaw-setups-0.9.20000/Co.PBE.gz
    compensation charges: {type: gauss,
                           rc: 0.32,
                           lmax: 2}
    cutoffs: {filter: 1.87,
              core: 2.55}
    valence states:
      #              energy  rcut
      - 4s(2.00)    -5.469   1.005
      - 4p(0.00)    -1.277   1.058
      - 3d(7.00)    -8.205   1.005
      -  s          21.742   1.005
      -  p          25.934   1.058
      -  d          19.007   1.005

[...]

  Ni:
    name: Nickel
    id: 0d9f38a9d6e76a2886f07bb4381f212b
    Z: 28.0
    valence: 16
    core: 12
    charge: 0.0
    file: /home/c.zeng/usr/data/gpaw-setups-0.9.20000/Ni.PBE.gz
    compensation charges: {type: gauss,
                           rc: 0.36,
                           lmax: 2}
    cutoffs: {filter: 2.14,
              core: 1.98}
    valence states:
      #              energy  rcut
      - 4s(2.00)    -5.642   1.164
      - 3p(6.00)   -71.394   1.207
      - 4p(0.00)    -1.226   1.207
      - 3d(8.00)    -8.875   1.138
      -  s          21.570   1.164
      -  d          18.337   1.138

[...]

  Al:
    name: Aluminium
    id: 0292cae29f5d6237e50f6abdd43a7bdd
    Z: 13.0
    valence: 3
    core: 10
    charge: 0.0
    file: /home/c.zeng/usr/data/gpaw-setups-0.9.20000/Al.PBE.gz
    compensation charges: {type: gauss,
                           rc: 0.34,
                           lmax: 2}
    cutoffs: {filter: 1.91,
              core: 2.36}
    valence states:
      #              energy  rcut
      - 3s(2.00)    -7.753   1.085
      - 3p(1.00)    -2.712   1.085
      -  s          19.459   1.085
      -  p          24.499   1.085
      -  d           0.000   1.085

    # Using partial waves for Al as LCAO basis

Reference energy: -3699400.456887  # eV

Spin-polarized calculation.
Magnetic moment: 143.500000

Convergence criteria:
 Maximum [total energy] change in last 3 cyles: 0.0001 eV / electron
 Maximum integral of absolute [dens]ity change: 0.0001 electrons / valence electron
 Maximum integral of absolute [eigenst]ate change: 4e-08 eV^2 / valence electron
 Maximum number of scf [iter]ations: 666
 (Square brackets indicate name in SCF output, whereas a 'c' in
 the SCF output indicates the quantity has converged.)

Symmetries present (total): 1

  ( 1  0  0)
  ( 0  1  0)
  ( 0  0  1)

8 k-points: 2 x 2 x 2 Monkhorst-Pack grid
4 k-points in the irreducible part of the Brillouin zone
       k-points in crystal coordinates                weights
   0:     0.25000000   -0.25000000   -0.25000000          2/8
   1:     0.25000000   -0.25000000    0.25000000          2/8
   2:     0.25000000    0.25000000   -0.25000000          2/8
   3:     0.25000000    0.25000000    0.25000000          2/8

Wave functions: Plane wave expansion
  Cutoff energy: 350.000 eV
  Number of coefficients (min, max): 18052, 18052
  Pulay-stress correction: 0.000000 eV/Ang^3 (de/decut=0.000000)
  Using FFTW library
  ScaLapack parameters: grid=1x1, blocksize=None
  Wavefunction extrapolation:
    Improved wavefunction reuse through dual PAW basis

Occupation numbers: Fermi-Dirac:
  width: 0.1000  # eV

Eigensolver
   Davidson(niter=2)

Densities:
  Coarse grid: 48*48*48 grid
  Fine grid: 96*96*96 grid
  Total Charge: 0.000000

Density mixing:
  Method: difference
  Backend: pulay
  Linear mixing parameter: 0.05
  old densities: 5
  Damping of long wavelength oscillations: 50

Hamiltonian:
  XC and Coulomb potentials evaluated on a 96*96*96 grid
  Using the PBE Exchange-Correlation functional
  External potential:
    NoExternalPotential

XC parameters: PBE with 2 nearest neighbor stencil

Total number of cores used: 30
Parallelization over k-points: 2
Domain decomposition: 5 x 3 x 1

Number of atoms: 108
Number of atomic orbitals: 1025
Number of bands in calculation: 703
Number of valence electrons: 1020
Bands to converge: occupied

... initialized

Initializing position-dependent things.

Density initialized from atomic densities
Creating initial wave functions:
  703 bands from LCAO basis set

        Cr------------------------.
       /|  Co                Co   |
      Cr|   Cr         Ni         |
     / Fe      Fe       Al        |
    /   CCo      Ni       Fe      |
   /e   | CoCr     CoAl    NiCr   |
  /  FeCr  NiCo     CrNiCo        |
 *    FeFe  FeCoCr     CoAl       |
 |     CoFeCr  CoFe Cr  CrFeNi    |
 | Fe   NiNiCrCo CrNiNiFe  Ni     |
 |   CoCr  NiAlNi   NiCrCr   Fe   |
 |    FeNi  FeFeCoCr CoFeCr   Cr  |
 |     NiFeFe  Ni NiCr  CoFeFe    |
 |      .-CoCrCo-FeCrNiCo--CoNi---.
 |   CrCo    CoAl   CrCrFe       /
 |    / Ni    NiFe       Ni     /
 |   /            Ni           /
 |Cr/      Co       Co        /
 |/            Ni           /
 *----------------Ni-------*

Positions:
   0 Cr     0.005316   -0.016350   10.639749    ( 0.0000,  0.0000,  0.0000)
   1 Cr    10.672340    1.801276    1.786848    ( 0.0000,  0.0000,  0.0000)
   2 Fe     1.795727   10.625972    1.782259    ( 0.0000,  0.0000,  0.0000)
   3 Cr     1.780787    1.796175   10.644605    ( 0.0000,  0.0000,  2.1000)
   4 Fe     3.523539   -0.014558    0.017268    ( 0.0000,  0.0000,  2.0000)
   5 Co     3.522568    1.781672    1.746648    ( 0.0000,  0.0000,  0.0000)
   6 Co     5.320952   10.642342    1.763136    ( 0.0000,  0.0000,  1.5000)
   7 Ni     5.342082    1.828767    0.007462    ( 0.0000,  0.0000,  2.0000)
   8 Ni     7.144895    0.019195    0.012033    ( 0.0000,  0.0000,  0.0000)
   9 Co     7.143497    1.798064    1.764939    ( 0.0000,  0.0000,  2.1000)
  10 Cr     8.891362   10.651627    1.788353    ( 0.0000,  0.0000,  1.5000)
  11 Co     8.888779    1.804777   10.642609    ( 0.0000,  0.0000,  2.0000)
  12 Fe     0.008694    3.581540   10.650250    ( 0.0000,  0.0000,  2.1000)
  13 Cr     0.018979    5.332745    1.789751    ( 0.0000,  0.0000,  2.1000)
  14 Ni     1.778129    3.600941    1.760019    ( 0.0000,  0.0000,  2.0000)
  15 Co     1.790423    5.343267   -0.017766    ( 0.0000,  0.0000,  2.0000)
  16 Cr     3.542802    3.589864   -0.015614    ( 0.0000,  0.0000,  2.0000)
  17 Co     3.526837    5.358538    1.765793    ( 0.0000,  0.0000,  2.0000)
  18 Fe     5.336650    3.606501    1.755815    ( 0.0000,  0.0000,  0.0000)
  19 Ni     5.300399    5.323642   -0.012797    ( 0.0000,  0.0000,  2.1000)
  20 Al     7.122858    3.584816   10.659524    ( 0.0000,  0.0000,  2.0000)
  21 Cr     7.120500    5.315168    1.805502    ( 0.0000,  0.0000,  1.5000)
  22 Ni     8.892034    3.590952    1.773146    ( 0.0000,  0.0000,  2.1000)
  23 Fe     8.925340    5.301487   -0.003100    ( 0.0000,  0.0000,  0.0000)
  24 Cr     0.023055    7.096680   -0.007939    ( 0.0000,  0.0000,  0.0000)
  25 Ni     0.019141    8.871245    1.787510    ( 0.0000,  0.0000,  1.5000)
  26 Co     1.784372    7.104567    1.776443    ( 0.0000,  0.0000,  2.0000)
  27 Co     1.779944    8.867628   10.659406    ( 0.0000,  0.0000,  1.5000)
  28 Ni     3.547785    7.097897    0.009215    ( 0.0000,  0.0000,  2.1000)
  29 Ni     3.541137    8.858109    1.788225    ( 0.0000,  0.0000,  2.1000)
  30 Cr     5.295105    7.099391    1.787894    ( 0.0000,  0.0000,  2.1000)
  31 Cr     5.303685    8.873828    0.029898    ( 0.0000,  0.0000,  0.0000)
  32 Ni     7.106883    7.088719   10.645159    ( 0.0000,  0.0000,  0.0000)
  33 Co     7.111055    8.901137    1.809472    ( 0.0000,  0.0000,  0.0000)
  34 Co     8.939384    7.093404    1.799238    ( 0.0000,  0.0000,  0.0000)
  35 Co     8.919972    8.915853   10.664881    ( 0.0000,  0.0000,  0.0000)
  36 Ni    10.679704   10.658873    3.584517    ( 0.0000,  0.0000,  2.0000)
  37 Fe    10.670921    1.796367    5.340289    ( 0.0000,  0.0000,  2.1000)
  38 Fe     1.770350   10.649001    5.343491    ( 0.0000,  0.0000,  0.0000)
  39 Co     1.791800    1.784671    3.584891    ( 0.0000,  0.0000,  2.0000)
  40 Cr     3.529718   10.626388    3.565234    ( 0.0000,  0.0000,  2.1000)
  41 Fe     3.535716    1.793465    5.367289    ( 0.0000,  0.0000,  1.5000)
  42 Co     5.311497    0.001574    5.366254    ( 0.0000,  0.0000,  1.5000)
  43 Al     5.332627    1.768055    3.580793    ( 0.0000,  0.0000,  0.0000)
  44 Ni     7.136966   10.673941    3.563804    ( 0.0000,  0.0000,  2.0000)
  45 Cr     7.136774    1.794126    5.358944    ( 0.0000,  0.0000,  2.1000)
  46 Co     8.925938   10.673621    5.347589    ( 0.0000,  0.0000,  2.0000)
  47 Fe     8.883827    1.779111    3.582404    ( 0.0000,  0.0000,  1.5000)
  48 Ni    -0.010038    3.572341    3.580996    ( 0.0000,  0.0000,  2.0000)
  49 Co    10.685573    5.328935    5.338550    ( 0.0000,  0.0000,  2.0000)
  50 Ni     1.784180    3.582949    5.348357    ( 0.0000,  0.0000,  1.5000)
  51 Fe     1.766326    5.339510    3.565255    ( 0.0000,  0.0000,  1.5000)
  52 Cr     3.522387    3.605007    3.574059    ( 0.0000,  0.0000,  0.0000)
  53 Al     3.543581    5.347343    5.347962    ( 0.0000,  0.0000,  2.1000)
  54 Co     5.333950    3.591678    5.360630    ( 0.0000,  0.0000,  2.0000)
  55 Ni     5.336458    5.346308    3.560132    ( 0.0000,  0.0000,  0.0000)
  56 Ni     7.143102    3.570089    3.572138    ( 0.0000,  0.0000,  2.1000)
  57 Cr     7.120265    5.347471    5.345689    ( 0.0000,  0.0000,  2.0000)
  58 Cr     8.888299    3.570665    5.342018    ( 0.0000,  0.0000,  1.5000)
  59 Fe     8.904573    5.339084    3.577453    ( 0.0000,  0.0000,  2.0000)
[...]
  93 Ni     7.108740    5.307762    8.854395    ( 0.0000,  0.0000,  1.5000)
  94 Al     8.907593    3.561296    8.890348    ( 0.0000,  0.0000,  2.1000)
  95 Fe     8.917806    5.336309    7.100224    ( 0.0000,  0.0000,  0.0000)
  96 Fe     0.016270    7.102027    7.111664    ( 0.0000,  0.0000,  2.0000)
  97 Fe     0.000822    8.895150    8.883817    ( 0.0000,  0.0000,  1.5000)
  98 Co     1.771182    7.105090    8.888608    ( 0.0000,  0.0000,  1.5000)
  99 Ni     1.775184    8.850318    7.108494    ( 0.0000,  0.0000,  2.0000)
 100 Co     3.530401    7.086478    7.104972    ( 0.0000,  0.0000,  1.5000)
 101 Fe     3.524841    8.851001    8.894798    ( 0.0000,  0.0000,  0.0000)
 102 Co     5.310654    7.102827    8.871128    ( 0.0000,  0.0000,  0.0000)
 103 Cr     5.290613    8.850286    7.104876    ( 0.0000,  0.0000,  0.0000)
 104 Co     7.129016    7.083330    7.142750    ( 0.0000,  0.0000,  2.1000)
 105 Al     7.143241    8.903186    8.854384    ( 0.0000,  0.0000,  2.0000)
 106 Ni     8.926504    7.115858    8.862313    ( 0.0000,  0.0000,  0.0000)
 107 Cr     8.932896    8.877648    7.127479    ( 0.0000,  0.0000,  1.5000)

Unit cell:
           periodic     x           y           z      points  spacing
  1. axis:    yes   10.671700    0.000000    0.000000    48     0.2223
  2. axis:    yes    0.000000   10.671700    0.000000    48     0.2223
  3. axis:    yes    0.000000    0.000000   10.671700    48     0.2223

  Lengths:  10.671700  10.671700  10.671700
  Angles:   90.000000  90.000000  90.000000

Effective grid spacing dv^(1/3) = 0.2223

     iter     time        total  log10-change:  magmom
                         energy  eigst   dens
iter:   1 20:03:26  -976.021545                  +143.2080
iter:   2 20:05:20  -950.889548  -0.43  -1.31    +105.4774
iter:   3 20:07:15  -914.273107  -0.82  -1.25    +75.6723
iter:   4 20:09:10  -880.053397  -1.32  -1.32    +63.9796
iter:   5 20:11:05  -876.506362  -1.81  -1.44    +57.2661
iter:   6 20:13:00  -883.729667  -1.67  -1.48    +53.9023
iter:   7 20:14:55  -870.689932  -1.74  -1.45    +51.9780
iter:   8 20:16:51  -872.701126  -1.73  -1.59    +51.3860
iter:   9 20:18:46  -880.453448  -1.70  -1.65    +50.9643
iter:  10 20:20:41  -871.779826  -1.81  -1.62    +50.1358
iter:  11 20:22:36  -869.111636  -2.16  -1.77    +49.8378
iter:  12 20:24:31  -868.369174  -2.37  -1.82    +50.4695
iter:  13 20:26:27  -868.235535  -2.50  -1.90    +50.9879
iter:  14 20:28:22  -867.592098  -2.74  -1.90    +51.5253
iter:  15 20:30:18  -869.454147  -2.61  -1.97    +52.5543
iter:  16 20:32:14  -869.640952  -2.56  -1.92    +53.0026
iter:  17 20:34:10  -869.199642  -2.56  -1.94    +53.7377
iter:  18 20:36:06  -868.893856  -2.76  -2.00    +54.1628
iter:  19 20:38:02  -869.713408  -2.61  -2.04    +54.8876
iter:  20 20:39:58  -868.674279  -2.88  -2.01    +55.3782
iter:  21 20:41:54  -868.853103  -3.04  -2.10    +55.8558
iter:  22 20:43:50  -868.932879  -3.06  -2.13    +56.7120
iter:  23 20:45:46  -869.009649  -3.23  -2.13    +57.2460
iter:  24 20:47:42  -869.123951  -3.36  -2.15    +57.8433
iter:  25 20:49:39  -870.053281  -2.97  -2.18    +58.3491
iter:  26 20:51:35  -869.870608  -2.90  -2.13    +58.6621
iter:  27 20:53:31  -870.275404  -2.95  -2.18    +59.0997
iter:  28 20:55:28  -870.676464  -2.82  -2.18    +59.1424
iter:  29 20:57:24  -870.184554  -2.96  -2.15    +59.5395
iter:  30 20:59:20  -869.984197  -3.15  -2.27    +59.5845
iter:  31 21:01:17  -869.910747  -3.51  -2.29    +59.9436
iter:  32 21:03:12  -870.050207  -3.44  -2.37    +60.0243
iter:  33 21:05:09  -869.985104  -3.83  -2.34    +60.1874
iter:  34 21:07:05  -870.295216  -3.46  -2.40    +60.4335
iter:  35 21:09:01  -870.277143  -3.45  -2.36    +60.4736
iter:  36 21:10:57  -870.608914  -3.19  -2.42    +60.6579
iter:  37 21:12:53  -870.396834  -3.34  -2.35    +60.5905
iter:  38 21:14:50  -870.826336  -3.12  -2.47    +60.7004
iter:  39 21:16:46  -870.351179  -3.34  -2.37    +60.5134
iter:  40 21:18:42  -870.322127  -3.70  -2.53    +60.3015
iter:  41 21:20:38  -870.267764c -4.08  -2.58    +60.3176
iter:  42 21:22:34  -870.261786c -4.33  -2.68    +60.1964
iter:  43 21:24:31  -870.277681c -4.76  -2.69    +60.1288
iter:  44 21:26:27  -870.374476  -4.15  -2.72    +59.9295
iter:  45 21:28:23  -870.473722  -3.72  -2.70    +59.9670
iter:  46 21:30:19  -870.415397c -3.82  -2.64    +59.8399
iter:  47 21:32:16  -870.434920c -3.88  -2.82    +59.6204
iter:  48 21:34:12  -870.426463c -3.94  -2.81    +59.5484
iter:  49 21:36:08  -870.386203c -4.15  -2.87    +59.4199
iter:  50 21:38:04  -870.374970c -4.71  -2.99    +59.3813
iter:  51 21:40:01  -870.381209c -5.00  -3.19    +59.2391
iter:  52 21:41:57  -870.389642c -5.21  -3.24    +59.1417
iter:  53 21:43:53  -870.417053c -4.37  -3.26    +58.7898
iter:  54 21:45:49  -870.432613c -4.51  -3.22    +58.5464
iter:  55 21:47:46  -870.446386c -4.80  -3.22    +58.4073
iter:  56 21:49:42  -870.440391c -5.66  -3.14    +58.5110
iter:  57 21:51:39  -870.484417c -3.86  -3.15    +57.7308
iter:  58 21:53:35  -870.485009c -4.76  -3.07    +57.6933
iter:  59 21:55:31  -870.499352c -4.84  -3.07    +57.6602
iter:  60 21:57:27  -870.524432c -4.30  -3.00    +57.6479
iter:  61 21:59:23  -870.487891c -4.52  -2.86    +57.6521
iter:  62 22:01:19  -870.493966c -4.26  -3.02    +57.6119
iter:  63 22:03:16  -870.500201c -4.34  -2.98    +57.5874
iter:  64 22:05:12  -870.497997c -4.27  -3.00    +57.6087
iter:  65 22:07:08  -870.482356c -4.53  -3.01    +57.6059
iter:  66 22:09:04  -870.474393c -4.81  -3.13    +57.5895
iter:  67 22:11:00  -870.475208c -4.91  -3.25    +57.6129
iter:  68 22:12:57  -870.473867c -5.12  -3.28    +57.6083
iter:  69 22:14:53  -870.472345c -5.38  -3.35    +57.6205
iter:  70 22:16:49  -870.474505c -5.45  -3.40    +57.6094
iter:  71 22:18:45  -870.474067c -5.37  -3.42    +57.6001
iter:  72 22:20:41  -870.473864c -5.68  -3.43    +57.6036
iter:  73 22:22:38  -870.475510c -5.50  -3.50    +57.5810
iter:  74 22:24:34  -870.475855c -5.54  -3.45    +57.5814
iter:  75 22:26:30  -870.476310c -5.53  -3.47    +57.5610
iter:  76 22:28:26  -870.476217c -5.71  -3.53    +57.5546
iter:  77 22:30:22  -870.477525c -5.58  -3.53    +57.5464
iter:  78 22:32:19  -870.476919c -5.87  -3.53    +57.5284
iter:  79 22:34:15  -870.477918c -5.91  -3.60    +57.5197
iter:  80 22:36:11  -870.478183c -5.99  -3.61    +57.4973
iter:  81 22:38:07  -870.478424c -5.94  -3.64    +57.4861
iter:  82 22:40:04  -870.479115c -6.17  -3.63    +57.4702
iter:  83 22:42:00  -870.480197c -5.75  -3.67    +57.4454
iter:  84 22:43:57  -870.480551c -5.73  -3.60    +57.4361
iter:  85 22:45:52  -870.480892c -5.74  -3.62    +57.4076
iter:  86 22:47:48  -870.481246c -5.76  -3.63    +57.3960
iter:  87 22:49:44  -870.482513c -5.60  -3.67    +57.3695
iter:  88 22:51:40  -870.481271c -6.03  -3.65    +57.3546
iter:  89 22:53:37  -870.482014c -6.17  -3.76    +57.3336
iter:  90 22:55:33  -870.482096c -6.28  -3.81    +57.3160
iter:  91 22:57:29  -870.482543c -6.62  -3.83    +57.3006
iter:  92 22:59:26  -870.483477c -6.20  -3.86    +57.2591
iter:  93 23:01:22  -870.484216c -5.93  -3.88    +57.2337
iter:  94 23:03:18  -870.484829c -5.98  -3.84    +57.2222
iter:  95 23:05:14  -870.484790c -6.05  -3.92    +57.1973
iter:  96 23:07:10  -870.485051c -6.35  -3.99    +57.1849
iter:  97 23:09:07  -870.485267c -6.56  -4.19c   +57.1633
iter:  98 23:11:03  -870.485693c -6.62  -4.28c   +57.1463
iter:  99 23:12:59  -870.486102c -6.68  -4.28c   +57.1225
iter: 100 23:14:56  -870.486769c -6.50  -4.33c   +57.0929
iter: 101 23:16:52  -870.485838c -6.45  -4.24c   +57.1342
iter: 102 23:18:49  -870.486402c -6.86  -4.24c   +57.1142
iter: 103 23:20:45  -870.486359c -7.16  -4.27c   +57.1093
iter: 104 23:22:42  -870.486872c -6.73  -4.35c   +57.0875
iter: 105 23:24:38  -870.487518c -6.46  -4.45c   +57.0534
iter: 106 23:26:35  -870.488083c -6.36  -4.52c   +57.0255
iter: 107 23:28:31  -870.488752c -6.38  -4.45c   +56.9917
iter: 108 23:30:28  -870.489164c -6.56  -4.47c   +56.9703
iter: 109 23:32:24  -870.489590c -6.67  -4.47c   +56.9535
iter: 110 23:34:20  -870.489214c -7.21  -4.24c   +56.9641
iter: 111 23:36:17  -870.489198c -7.53c -4.29c   +56.9592

Converged after 111 iterations.

Dipole moment: (-10.490501, 8.437450, 8.695171) |e|*Ang

Total magnetic moment: (0.000000, 0.000000, 56.959212)
Local magnetic moments:
   0 Cr ( 0.000000,  0.000000,  0.309884)
   1 Cr ( 0.000000,  0.000000, -1.243117)
   2 Fe ( 0.000000,  0.000000, -1.644317)
   3 Cr ( 0.000000,  0.000000, -0.016343)
   4 Fe ( 0.000000,  0.000000,  2.156931)
   5 Co ( 0.000000,  0.000000,  0.584134)
   6 Co ( 0.000000,  0.000000,  1.251884)
   7 Ni ( 0.000000,  0.000000,  0.228695)
   8 Ni ( 0.000000,  0.000000,  0.322918)
   9 Co ( 0.000000,  0.000000,  1.443758)
  10 Cr ( 0.000000,  0.000000, -1.416998)
  11 Co ( 0.000000,  0.000000,  0.638064)
  12 Fe ( 0.000000,  0.000000,  2.035279)
  13 Cr ( 0.000000,  0.000000, -1.699805)
  14 Ni ( 0.000000,  0.000000,  0.187231)
  15 Co ( 0.000000,  0.000000,  1.073672)
  16 Cr ( 0.000000,  0.000000, -1.103848)
  17 Co ( 0.000000,  0.000000,  1.132107)
  18 Fe ( 0.000000,  0.000000,  2.204641)
  19 Ni ( 0.000000,  0.000000,  0.147016)
  20 Al ( 0.000000,  0.000000, -0.020179)
  21 Cr ( 0.000000,  0.000000, -1.759002)
  22 Ni ( 0.000000,  0.000000,  0.110237)
  23 Fe ( 0.000000,  0.000000,  2.073737)
  24 Cr ( 0.000000,  0.000000, -1.507889)
  25 Ni ( 0.000000,  0.000000,  0.293737)
  26 Co ( 0.000000,  0.000000,  1.165780)
  27 Co ( 0.000000,  0.000000,  0.995088)
  28 Ni ( 0.000000,  0.000000,  0.288186)
  29 Ni ( 0.000000,  0.000000,  0.216117)
  30 Cr ( 0.000000,  0.000000, -1.127825)
  31 Cr ( 0.000000,  0.000000, -1.555708)
  32 Ni ( 0.000000,  0.000000,  0.193424)
  33 Co ( 0.000000,  0.000000,  1.283585)
  34 Co ( 0.000000,  0.000000,  0.980011)
  35 Co ( 0.000000,  0.000000,  1.128958)
  36 Ni ( 0.000000,  0.000000,  0.245462)
  37 Fe ( 0.000000,  0.000000,  2.127333)
  38 Fe ( 0.000000,  0.000000,  2.226957)
  39 Co ( 0.000000,  0.000000,  1.088782)
  40 Cr ( 0.000000,  0.000000, -0.848291)
  41 Fe ( 0.000000,  0.000000,  1.908117)
  42 Co ( 0.000000,  0.000000,  0.750823)
  43 Al ( 0.000000,  0.000000, -0.018008)
  44 Ni ( 0.000000,  0.000000,  0.266627)
  45 Cr ( 0.000000,  0.000000,  0.046176)
  46 Co ( 0.000000,  0.000000,  0.920999)
  47 Fe ( 0.000000,  0.000000,  2.072469)
  48 Ni ( 0.000000,  0.000000,  0.321991)
  49 Co ( 0.000000,  0.000000,  1.290207)
  50 Ni ( 0.000000,  0.000000,  0.221728)
  51 Fe ( 0.000000,  0.000000,  2.149258)
  52 Cr ( 0.000000,  0.000000, -1.790483)
  53 Al ( 0.000000,  0.000000, -0.034284)
  54 Co ( 0.000000,  0.000000,  0.659682)
  55 Ni ( 0.000000,  0.000000,  0.081132)
  56 Ni ( 0.000000,  0.000000,  0.142633)
  57 Cr ( 0.000000,  0.000000, -1.495593)
  58 Cr ( 0.000000,  0.000000, -1.308331)
  59 Fe ( 0.000000,  0.000000,  2.069638)
[...]
  93 Ni ( 0.000000,  0.000000,  0.306641)
  94 Al ( 0.000000,  0.000000, -0.033668)
  95 Fe ( 0.000000,  0.000000,  2.203732)
  96 Fe ( 0.000000,  0.000000,  2.338729)
  97 Fe ( 0.000000,  0.000000,  1.927264)
  98 Co ( 0.000000,  0.000000,  1.311599)
  99 Ni ( 0.000000,  0.000000,  0.465779)
 100 Co ( 0.000000,  0.000000,  1.368894)
 101 Fe ( 0.000000,  0.000000,  2.210943)
 102 Co ( 0.000000,  0.000000,  1.124773)
 103 Cr ( 0.000000,  0.000000, -1.593779)
 104 Co ( 0.000000,  0.000000,  0.961379)
 105 Al ( 0.000000,  0.000000, -0.013276)
 106 Ni ( 0.000000,  0.000000,  0.284773)
 107 Cr ( 0.000000,  0.000000, -1.377805)

Energy contributions relative to reference atoms: (reference = -3699400.456887)

Kinetic:       +146.277333
Potential:     -196.381950
External:        +0.000000
XC:            -855.889878
Entropy (-ST):   -4.525351
Local:          +37.767973
Free energy:   -872.751874
Extrapolated:  -870.489198

Spin contamination: 32.131606 electrons
Showing only first 2 kpts
                      Up                     Down
 Kpt  Band  Eigenvalues  Occupancy  Eigenvalues  Occupancy
  0   508      9.66634    0.99285     10.48245    0.03815
  0   509      9.68703    0.99123     10.49159    0.03494
  0   510      9.69986    0.99004     10.50480    0.03075
  0   511      9.71533    0.98839     10.51850    0.02692

  1   508      9.66285    0.99310     10.47711    0.04016
  1   509      9.68720    0.99121     10.49903    0.03252
  1   510      9.69797    0.99022     10.50809    0.02978
  1   511      9.71302    0.98865     10.51744    0.02719

Fermi level: 10.15973

No gap

Forces in eV/Ang:
  0 Cr    0.22062   -0.01741    0.25630
  1 Cr    0.54764    0.03294    0.09183
  2 Fe   -0.33229    0.50878   -0.17503
  3 Cr   -0.00118    0.07676    0.48236
  4 Fe    0.23635    0.14284   -0.00471
  5 Co   -0.04261   -0.02561    0.29891
  6 Co    0.04211    0.14739    0.01293
  7 Ni   -0.20811   -0.58990    0.24623
  8 Ni   -0.25878   -0.00963   -0.04558
  9 Co   -0.14792   -0.39868    0.10887
 10 Cr   -0.10664    0.04957   -0.31970
 11 Co    0.16446   -0.38340    0.42515
 12 Fe    0.30122   -0.29492    0.72342
 13 Cr   -0.06806   -0.14310    0.04206
 14 Ni    0.04932   -0.49374    0.13975
 15 Co   -0.16661    0.07069    0.02608
 16 Cr   -0.02945   -0.04369    0.09595
 17 Co    0.27346   -0.02721    0.02047
 18 Fe   -0.51799   -0.09216    0.35606
 19 Ni    0.20197    0.28055    0.11086
 20 Al   -0.39051   -0.29852    0.72474
 21 Cr    0.13013    1.01192    0.25619
 22 Ni    0.22575   -0.38099    0.32523
 23 Fe    0.09682    1.16710    0.30919
 24 Cr   -0.30321    0.51162   -0.11306
 25 Ni   -0.05031    0.11669   -0.28252
 26 Co   -0.20841   -0.12350   -0.10873
 27 Co   -0.08275    0.09847    0.18487
 28 Ni    0.08548    0.03368   -0.26825
 29 Ni    0.03446    0.25758   -0.18178
 30 Cr    0.07775   -0.16064    0.24762
 31 Cr   -0.24065    0.46923    0.05576
 32 Ni    0.15313    0.06559    0.31874
 33 Co    0.09385   -0.29116   -0.47657
 34 Co   -0.29955    0.18500   -0.28946
 35 Co    0.10683   -0.26123    0.55359
 36 Ni   -0.18863    0.19721   -0.21812
 37 Fe    0.05680   -0.18278   -0.07314
 38 Fe    0.01902   -0.11844   -0.14658
 39 Co    0.17047   -0.03497   -0.38326
 40 Cr   -0.45895   -0.14219   -0.05690
 41 Fe   -0.14750   -0.05244    0.08340
 42 Co   -0.02306   -0.24070   -0.15059
 43 Al    0.39684    0.08092   -0.57843
 44 Ni   -0.06122   -0.10636    0.14227
 45 Cr    0.31239   -0.22991    0.92534
 46 Co   -0.05115   -0.11718   -0.11681
 47 Fe   -0.07737   -0.08553   -0.30154
 48 Ni    0.06928   -0.11369   -0.24733
 49 Co    0.04025   -0.02497    0.15416
 50 Ni   -0.21772   -0.23716   -0.11395
 51 Fe   -0.09945   -0.15098   -0.29602
 52 Cr   -0.12690   -0.74200   -0.95678
 53 Al    0.16470    0.59582   -0.10915
 54 Co    0.03397   -0.19983   -0.24283
 55 Ni   -0.00656   -0.25629   -0.14742
 56 Ni   -0.13930   -0.03862   -0.14079
 57 Cr   -0.34283    0.35884   -0.04841
 58 Cr    0.50764   -0.09934   -0.16559
 59 Fe   -0.00771   -0.13743   -0.15910
[...]
 93 Ni    0.10034    0.47110    0.45101
 94 Al    0.49283    0.43454   -0.43932
 95 Fe   -0.26949    0.20747   -0.23323
 96 Fe   -0.06109    0.22103   -0.23466
 97 Fe    0.10149   -0.12607    0.15890
 98 Co    0.12243   -0.14708    0.18228
 99 Ni    0.00903    0.12446   -0.07391
100 Co    0.07524    0.44238    0.48337
101 Fe    0.17667   -0.00011   -0.16187
102 Co    0.06758   -0.07191    0.08386
103 Cr   -0.65160    0.23320   -0.18484
104 Co   -0.18413    0.15647   -0.66364
105 Al   -0.19000   -0.46437    1.21651
106 Ni   -0.16512   -0.34891    0.28495
107 Cr    0.69528    0.25358   -0.82901

Date: Sat Apr 15 23:36:39 2023