User:   c.zeng@d0137
Date:   Sat Apr  8 13:52:00 2023
Arch:   x86_64
Pid:    90499
CWD:    /home/c.zeng/projects/hea-corrosion/hea-mlp/data-curation/volume/dft-jobs/76
Python: 3.8.1
gpaw:   /home/c.zeng/usr/installs/gpaw/source/gpaw-22.8.0/gpaw
_gpaw:  /home/c.zeng/usr/installs/gpaw/source/gpaw-22.8.0/
        _gpaw.cpython-38-x86_64-linux-gnu.so
ase:    /home/c.zeng/.local/lib/python3.8/site-packages/ase-3.22.1-py3.8.egg/ase (version 3.22.1)
numpy:  /shared/centos7/python/3.8.1/lib/python3.8/site-packages/numpy (version 1.17.4)
scipy:  /shared/centos7/python/3.8.1/lib/python3.8/site-packages/scipy (version 1.4.1)
units:  Angstrom and eV
cores: 64
OpenMP: False
OMP_NUM_THREADS: 1

Input parameters:
  convergence: {energy: 0.0001}
  kpts: [2 2 2]
  maxiter: 666
  mode: {ecut: 350.0,
         name: pw}
  occupations: {fixmagmom: False,
                name: fermi-dirac,
                width: 0.1}
  spinpol: True
  xc: PBE

System changes: positions, numbers, cell, pbc, initial_charges, initial_magmoms

Initialize ...

species:
  Co:
    name: Cobalt
    id: 339d20d5b0b93d2de9531a1bee871d91
    Z: 27.0
    valence: 9
    core: 18
    charge: 0.0
    file: /home/c.zeng/usr/data/gpaw-setups-0.9.20000/Co.PBE.gz
    compensation charges: {type: gauss,
                           rc: 0.32,
                           lmax: 2}
    cutoffs: {filter: 1.87,
              core: 2.55}
    valence states:
      #              energy  rcut
      - 4s(2.00)    -5.469   1.005
      - 4p(0.00)    -1.277   1.058
      - 3d(7.00)    -8.205   1.005
      -  s          21.742   1.005
      -  p          25.934   1.058
      -  d          19.007   1.005

    # Using partial waves for Co as LCAO basis

  Ni:
    name: Nickel
    id: 0d9f38a9d6e76a2886f07bb4381f212b
    Z: 28.0
    valence: 16
    core: 12
    charge: 0.0
    file: /home/c.zeng/usr/data/gpaw-setups-0.9.20000/Ni.PBE.gz
    compensation charges: {type: gauss,
                           rc: 0.36,
                           lmax: 2}
    cutoffs: {filter: 2.14,
              core: 1.98}
    valence states:
      #              energy  rcut
      - 4s(2.00)    -5.642   1.164
      - 3p(6.00)   -71.394   1.207
      - 4p(0.00)    -1.226   1.207
      - 3d(8.00)    -8.875   1.138
      -  s          21.570   1.164
      -  d          18.337   1.138

[...]

  Al:
    name: Aluminium
    id: 0292cae29f5d6237e50f6abdd43a7bdd
    Z: 13.0
    valence: 3
    core: 10
    charge: 0.0
    file: /home/c.zeng/usr/data/gpaw-setups-0.9.20000/Al.PBE.gz
    compensation charges: {type: gauss,
                           rc: 0.34,
                           lmax: 2}
    cutoffs: {filter: 1.91,
              core: 2.36}
    valence states:
      #              energy  rcut
      - 3s(2.00)    -7.753   1.085
      - 3p(1.00)    -2.712   1.085
      -  s          19.459   1.085
      -  p          24.499   1.085
      -  d           0.000   1.085

[...]

  Cr:
    name: Chromium
    id: 33f258bda2ca9f93018e70263a35547b
    Z: 24.0
    valence: 6
    core: 18
    charge: 0.0
    file: /home/c.zeng/usr/data/gpaw-setups-0.9.20000/Cr.PBE.gz
    compensation charges: {type: gauss,
                           rc: 0.35,
                           lmax: 2}
    cutoffs: {filter: 2.14,
              core: 3.04}
    valence states:
      #              energy  rcut
      - 4s(1.00)    -4.007   1.164
      - 4p(0.00)    -0.989   1.217
      - 3d(5.00)    -2.913   1.111
      -  s          23.205   1.164
      -  p          26.223   1.217
      -  d          24.299   1.111

[...]

  Fe:
    name: Iron
    id: 37abbd8d6c3c35915a9b583b742da910
    Z: 26.0
    valence: 8
    core: 18
    charge: 0.0
    file: /home/c.zeng/usr/data/gpaw-setups-0.9.20000/Fe.PBE.gz
    compensation charges: {type: gauss,
                           rc: 0.33,
                           lmax: 2}
    cutoffs: {filter: 2.06,
              core: 2.67}
    valence states:
      #              energy  rcut
      - 4s(2.00)    -5.291   1.164
      - 4p(0.00)    -1.326   1.058
      - 3d(6.00)    -7.505   1.058
      -  s          21.920   1.164
      -  p          25.885   1.058
      -  d          19.706   1.058

    # Using partial waves for Fe as LCAO basis

Reference energy: -3548577.034362  # eV

Spin-polarized calculation.
Magnetic moment: 136.400000

Convergence criteria:
 Maximum [total energy] change in last 3 cyles: 0.0001 eV / electron
 Maximum integral of absolute [dens]ity change: 0.0001 electrons / valence electron
 Maximum integral of absolute [eigenst]ate change: 4e-08 eV^2 / valence electron
 Maximum number of scf [iter]ations: 666
 (Square brackets indicate name in SCF output, whereas a 'c' in
 the SCF output indicates the quantity has converged.)

Symmetries present (total): 1

  ( 1  0  0)
  ( 0  1  0)
  ( 0  0  1)

8 k-points: 2 x 2 x 2 Monkhorst-Pack grid
4 k-points in the irreducible part of the Brillouin zone
       k-points in crystal coordinates                weights
   0:     0.25000000   -0.25000000   -0.25000000          2/8
   1:     0.25000000   -0.25000000    0.25000000          2/8
   2:     0.25000000    0.25000000   -0.25000000          2/8
   3:     0.25000000    0.25000000    0.25000000          2/8

Wave functions: Plane wave expansion
  Cutoff energy: 350.000 eV
  Number of coefficients (min, max): 18331, 18331
  Pulay-stress correction: 0.000000 eV/Ang^3 (de/decut=0.000000)
  Using FFTW library
  ScaLapack parameters: grid=1x1, blocksize=None
  Wavefunction extrapolation:
    Improved wavefunction reuse through dual PAW basis

Occupation numbers: Fermi-Dirac:
  width: 0.1000  # eV

Eigensolver
   Davidson(niter=2)

Densities:
  Coarse grid: 48*48*48 grid
  Fine grid: 96*96*96 grid
  Total Charge: 0.000000

Density mixing:
  Method: difference
  Backend: pulay
  Linear mixing parameter: 0.05
  old densities: 5
  Damping of long wavelength oscillations: 50

Hamiltonian:
  XC and Coulomb potentials evaluated on a 96*96*96 grid
  Using the PBE Exchange-Correlation functional
  External potential:
    NoExternalPotential

XC parameters: PBE with 2 nearest neighbor stencil

Total number of cores used: 64
Parallelization over k-points: 4
Domain decomposition: 4 x 2 x 2

Number of atoms: 108
Number of atomic orbitals: 994
Number of bands in calculation: 674
Number of valence electrons: 980
Bands to converge: occupied

... initialized

Initializing position-dependent things.

Density initialized from atomic densities
Creating initial wave functions:
  674 bands from LCAO basis set

        Co-------Cr---------------.
       /|  Cr       Fe            |
      / |   CoFe     FeFe     AlFe|
     / Ni       NiCo    NiCr      |
    /   AAl      Fe      Ni       |
   /    | NiCr     Fe      FeCo   |
  /   Cr|  CoFeFe   CoNi    FeCo  |
 *      Ni  CoCoAl   CoCoCr   AlCo|
 |Co   NiFeFe   CoCCr   CrCr      |
 | Cr   | CrCo   CoCoFe    Fe     |
 |     Fe  NiNiCr   CrCoNi  NiFe  |
 |      Fe    CoCo   FeCrCr   FeNi|
 |Ni    |NiNi   NiCCo   CrFe     Al
 |      .-NiNi-----CoCr--CrFeCr---.
 |     Ni    CrNi     Cr    Cr Fe/
 |    / Al      Al      Nir     /
 Ni  /            Cr           /
 |  /      Fe      Fe       Ni/
 | / Al              Co      /
 |/                     Al  /

Positions:
   0 Co    10.734773   -0.013326   10.715463    ( 0.0000,  0.0000,  2.1000)
   1 Ni    10.703509    1.782574    1.810376    ( 0.0000,  0.0000,  1.5000)
   2 Al     1.824657    0.045783    1.817731    ( 0.0000,  0.0000,  0.0000)
   3 Cr     1.777825    1.795955   10.668556    ( 0.0000,  0.0000,  0.0000)
   4 Cr     3.600981   -0.025368   10.697269    ( 0.0000,  0.0000,  0.0000)
   5 Fe     3.628750    1.759951    1.822406    ( 0.0000,  0.0000,  2.0000)
   6 Fe     5.344013   -0.031866    1.798796    ( 0.0000,  0.0000,  2.0000)
   7 Fe     5.383855    1.754558   -0.004229    ( 0.0000,  0.0000,  2.0000)
   8 Cr     7.108125   -0.024491    0.046900    ( 0.0000,  0.0000,  0.0000)
   9 Fe     7.130672    1.777717    1.830930    ( 0.0000,  0.0000,  2.0000)
  10 Fe     8.931560   -0.007902    1.832259    ( 0.0000,  0.0000,  2.0000)
  11 Al     8.944533    1.847763    0.056091    ( 0.0000,  0.0000,  0.0000)
  12 Co    10.717061    3.614673   10.708966    ( 0.0000,  0.0000,  2.1000)
  13 Fe    10.711990    5.403916    1.812971    ( 0.0000,  0.0000,  2.0000)
  14 Al     1.783035    3.533530    1.882684    ( 0.0000,  0.0000,  0.0000)
  15 Al     1.774286    5.425928   10.661254    ( 0.0000,  0.0000,  0.0000)
  16 Cr     3.566189    3.567615   10.694545    ( 0.0000,  0.0000,  0.0000)
  17 Cr     3.573018    5.430367    1.814890    ( 0.0000,  0.0000,  0.0000)
  18 Al     5.355250    3.572086    1.807631    ( 0.0000,  0.0000,  0.0000)
  19 Co     5.351529    5.412794   10.706993    ( 0.0000,  0.0000,  2.1000)
  20 Co     7.160329    3.621492    0.000895    ( 0.0000,  0.0000,  2.1000)
  21 Cr     7.163149    5.383201    1.800137    ( 0.0000,  0.0000,  0.0000)
  22 Cr     8.941520    3.614297    1.838424    ( 0.0000,  0.0000,  0.0000)
  23 Cr     8.938154    5.372201   -0.002115    ( 0.0000,  0.0000,  0.0000)
  24 Fe    10.677583    7.137277   10.684617    ( 0.0000,  0.0000,  2.0000)
  25 Al    10.676340    8.874370    1.799879    ( 0.0000,  0.0000,  0.0000)
  26 Ni     1.808789    7.156126    1.808821    ( 0.0000,  0.0000,  1.5000)
  27 Cr     1.811705    8.893304   10.689903    ( 0.0000,  0.0000,  0.0000)
  28 Fe     3.614104    7.185697   10.703294    ( 0.0000,  0.0000,  2.0000)
  29 Ni     3.594055    8.906749    1.811802    ( 0.0000,  0.0000,  1.5000)
  30 Co     5.364878    7.155611    1.783861    ( 0.0000,  0.0000,  2.1000)
  31 Fe     5.362090    8.906170   10.711475    ( 0.0000,  0.0000,  2.0000)
  32 Fe     7.129783    7.135990   10.704484    ( 0.0000,  0.0000,  2.0000)
  33 Cr     7.141201    8.923014    1.784719    ( 0.0000,  0.0000,  0.0000)
  34 Fe     8.885971    7.115994    1.798786    ( 0.0000,  0.0000,  2.0000)
  35 Cr     8.900391    8.885563    0.002319    ( 0.0000,  0.0000,  0.0000)
  36 Ni    10.735738    0.006931    3.590077    ( 0.0000,  0.0000,  1.5000)
  37 Ni     0.005144    1.820101    5.361972    ( 0.0000,  0.0000,  1.5000)
  38 Co     1.831015   -0.005654    5.334374    ( 0.0000,  0.0000,  2.1000)
  39 Ni     1.810580    1.776860    3.661816    ( 0.0000,  0.0000,  1.5000)
  40 Co     3.603286   -0.024658    3.617836    ( 0.0000,  0.0000,  2.1000)
  41 Ni     3.593711    1.776677    5.367837    ( 0.0000,  0.0000,  1.5000)
  42 Co     5.351347   -0.016828    5.367987    ( 0.0000,  0.0000,  2.1000)
  43 Ni     5.353631    1.762439    3.606009    ( 0.0000,  0.0000,  1.5000)
  44 Cr     7.099140    0.004570    3.556625    ( 0.0000,  0.0000,  0.0000)
  45 Co     7.125290    1.819039    5.355539    ( 0.0000,  0.0000,  2.1000)
  46 Al     8.889005   10.711614    5.297288    ( 0.0000,  0.0000,  0.0000)
  47 Ni     8.931217    1.809829    3.557086    ( 0.0000,  0.0000,  1.5000)
  48 Cr    10.694277    3.596017    3.623947    ( 0.0000,  0.0000,  0.0000)
  49 Fe    -0.007658    5.375760    5.383191    ( 0.0000,  0.0000,  2.0000)
  50 Fe     1.793832    3.592489    5.360064    ( 0.0000,  0.0000,  2.0000)
  51 Ni     1.782210    5.393033    3.621567    ( 0.0000,  0.0000,  1.5000)
  52 Ni     3.585638    3.578411    3.653936    ( 0.0000,  0.0000,  1.5000)
  53 Ni     3.571603    5.389420    5.373530    ( 0.0000,  0.0000,  1.5000)
  54 Co     5.360107    3.593390    5.374120    ( 0.0000,  0.0000,  2.1000)
  55 Cr     5.353105    5.403080    3.626381    ( 0.0000,  0.0000,  0.0000)
  56 Cr     7.167706    3.582003    3.629147    ( 0.0000,  0.0000,  0.0000)
  57 Co     7.148514    5.365682    5.366197    ( 0.0000,  0.0000,  2.1000)
  58 Cr     8.928139    3.576953    5.372308    ( 0.0000,  0.0000,  0.0000)
  59 Fe     8.938261    5.381132    3.613600    ( 0.0000,  0.0000,  2.0000)
[...]
  93 Ni     7.156834    5.392143    8.910674    ( 0.0000,  0.0000,  1.5000)
  94 Cr     8.926863    3.601935    8.886989    ( 0.0000,  0.0000,  0.0000)
  95 Cr     8.936384    5.386568    7.126051    ( 0.0000,  0.0000,  0.0000)
  96 Co    10.720546    7.156147    7.144214    ( 0.0000,  0.0000,  2.1000)
  97 Ni    10.741743    8.895427    8.939311    ( 0.0000,  0.0000,  1.5000)
  98 Ni     1.795730    7.177945    8.887997    ( 0.0000,  0.0000,  1.5000)
  99 Co     1.837577    8.899512    7.123682    ( 0.0000,  0.0000,  2.1000)
 100 Co     3.586925    7.152867    7.132463    ( 0.0000,  0.0000,  2.1000)
 101 Ni     3.594966    8.921846    8.904240    ( 0.0000,  0.0000,  1.5000)
 102 Fe     5.369038    7.150551    8.923818    ( 0.0000,  0.0000,  2.0000)
 103 Co     5.339553    8.916731    7.143142    ( 0.0000,  0.0000,  2.1000)
 104 Co     7.139153    7.137341    7.139722    ( 0.0000,  0.0000,  2.1000)
 105 Ni     7.105583    8.892918    8.906674    ( 0.0000,  0.0000,  1.5000)
 106 Fe     8.908583    7.144160    8.910856    ( 0.0000,  0.0000,  2.0000)
 107 Fe     8.926381    8.884963    7.114847    ( 0.0000,  0.0000,  2.0000)

Unit cell:
           periodic     x           y           z      points  spacing
  1. axis:    yes   10.721800    0.000000    0.000000    48     0.2234
  2. axis:    yes    0.000000   10.721800    0.000000    48     0.2234
  3. axis:    yes    0.000000    0.000000   10.721800    48     0.2234

  Lengths:  10.721800  10.721800  10.721800
  Angles:   90.000000  90.000000  90.000000

Effective grid spacing dv^(1/3) = 0.2234

     iter     time        total  log10-change:  magmom
                         energy  eigst   dens
iter:   1 13:53:49 -1035.858017                  +136.6828
iter:   2 13:54:35  -917.049017  -0.22  -1.18    +75.1635
iter:   3 13:55:21  -913.468368  -0.79  -1.20    +63.1269
iter:   4 13:56:07  -886.151201  -1.18  -1.26    +58.7820
iter:   5 13:56:53  -872.339622  -1.57  -1.29    +55.4954
iter:   6 13:57:39  -877.681406  -1.25  -1.36    +55.8828
iter:   7 13:58:25  -860.247222  -1.29  -1.41    +54.0514
iter:   8 13:59:11  -853.700871  -1.63  -1.58    +53.5179
iter:   9 13:59:57  -853.403360  -2.05  -1.74    +54.5328
iter:  10 14:00:43  -852.219432  -2.33  -1.76    +55.7361
iter:  11 14:01:29  -852.887107  -2.53  -1.84    +56.6097
iter:  12 14:02:15  -852.704536  -2.52  -1.83    +58.1846
iter:  13 14:03:01  -854.653513  -2.38  -1.90    +59.4356
iter:  14 14:03:47  -853.242575  -2.37  -1.88    +59.5628
iter:  15 14:04:33  -854.913062  -2.40  -2.01    +60.5328
iter:  16 14:05:19  -853.220489  -2.57  -1.95    +60.8228
iter:  17 14:06:05  -853.459964  -2.75  -2.07    +61.9762
iter:  18 14:06:51  -853.255607  -2.77  -2.09    +61.9346
iter:  19 14:07:37  -853.195721  -2.92  -2.13    +62.3654
iter:  20 14:08:23  -852.787059  -3.19  -2.16    +63.1615
iter:  21 14:09:09  -853.062427  -3.18  -2.26    +63.4212
iter:  22 14:09:55  -853.004860  -3.15  -2.25    +63.6644
iter:  23 14:10:41  -853.011099c -3.22  -2.27    +63.6306
iter:  24 14:11:27  -853.060615c -3.24  -2.29    +63.9995
iter:  25 14:12:13  -853.102741c -3.21  -2.32    +64.0392
iter:  26 14:13:00  -852.912247  -3.42  -2.34    +63.9243
iter:  27 14:13:46  -852.962832  -3.59  -2.41    +64.2134
iter:  28 14:14:32  -852.977427c -3.59  -2.42    +64.1643
iter:  29 14:15:18  -852.970424c -3.62  -2.44    +64.2532
iter:  30 14:16:04  -852.968540c -3.80  -2.45    +64.1747
iter:  31 14:16:50  -853.013375c -3.70  -2.50    +64.2148
iter:  32 14:17:36  -853.033468c -3.74  -2.49    +64.1693
iter:  33 14:18:22  -853.022299c -3.77  -2.51    +63.9329
iter:  34 14:19:08  -853.057302c -3.79  -2.54    +63.9661
iter:  35 14:19:54  -853.080854c -3.62  -2.55    +63.8905
iter:  36 14:20:40  -853.055932c -3.88  -2.53    +63.8861
iter:  37 14:21:26  -853.059836c -3.87  -2.59    +63.7199
iter:  38 14:22:12  -853.036027c -3.95  -2.61    +63.6524
iter:  39 14:22:58  -853.024383c -4.23  -2.64    +63.7841
iter:  40 14:23:45  -853.037814c -4.38  -2.69    +63.6683
iter:  41 14:24:30  -853.073968c -4.09  -2.70    +63.6241
iter:  42 14:25:16  -853.058376c -4.19  -2.66    +63.5233
iter:  43 14:26:02  -853.078818c -4.16  -2.71    +63.5125
iter:  44 14:26:48  -853.103003c -4.02  -2.72    +63.4518
iter:  45 14:27:34  -853.083177c -4.14  -2.70    +63.2742
iter:  46 14:28:20  -853.071924c -4.36  -2.74    +63.2891
iter:  47 14:29:06  -853.086068c -4.29  -2.80    +63.2505
iter:  48 14:29:53  -853.074874c -4.46  -2.79    +63.2455
iter:  49 14:30:38  -853.078803c -4.74  -2.83    +63.1307
iter:  50 14:31:24  -853.085993c -4.57  -2.86    +63.0686
iter:  51 14:32:11  -853.096435c -4.53  -2.85    +63.0700
iter:  52 14:32:57  -853.100479c -4.55  -2.86    +62.9717
iter:  53 14:33:43  -853.121854c -4.39  -2.88    +62.9010
iter:  54 14:34:30  -853.122547c -4.21  -2.85    +62.8147
iter:  55 14:35:15  -853.112716c -4.44  -2.86    +62.8208
iter:  56 14:36:02  -853.120680c -4.48  -2.92    +62.8038
iter:  57 14:36:48  -853.115398c -4.66  -2.94    +62.7275
iter:  58 14:37:34  -853.112098c -4.81  -2.98    +62.7548
iter:  59 14:38:20  -853.118201c -5.17  -3.02    +62.7384
iter:  60 14:39:06  -853.129454c -4.71  -3.05    +62.7256
iter:  61 14:39:52  -853.133928c -4.76  -3.00    +62.6602
iter:  62 14:40:38  -853.139090c -4.63  -3.03    +62.6172
iter:  63 14:41:24  -853.146602c -4.60  -3.02    +62.6409
iter:  64 14:42:10  -853.150515c -4.49  -3.05    +62.5611
iter:  65 14:42:56  -853.143884c -4.84  -3.04    +62.5223
iter:  66 14:43:42  -853.149540c -4.73  -3.14    +62.4526
iter:  67 14:44:28  -853.144493c -5.09  -3.13    +62.4861
iter:  68 14:45:14  -853.149660c -5.33  -3.22    +62.4744
iter:  69 14:46:01  -853.152901c -5.37  -3.25    +62.4484
iter:  70 14:46:47  -853.159868c -5.04  -3.26    +62.4500
iter:  71 14:47:33  -853.160363c -5.41  -3.23    +62.4424
iter:  72 14:48:19  -853.169751c -4.89  -3.31    +62.4344
iter:  73 14:49:05  -853.178428c -4.72  -3.23    +62.3942
iter:  74 14:49:51  -853.171061c -4.84  -3.19    +62.3966
iter:  75 14:50:37  -853.174367c -5.03  -3.30    +62.4451
iter:  76 14:51:23  -853.175471c -5.22  -3.36    +62.4035
iter:  77 14:52:09  -853.175709c -5.48  -3.42    +62.3953
iter:  78 14:52:55  -853.179703c -5.54  -3.53    +62.3742
iter:  79 14:53:41  -853.179271c -6.45  -3.49    +62.3772
iter:  80 14:54:27  -853.184556c -5.50  -3.48    +62.3456
iter:  81 14:55:14  -853.179895c -5.54  -3.45    +62.3629
iter:  82 14:55:59  -853.194400c -4.89  -3.47    +62.3060
iter:  83 14:56:45  -853.176360c -4.74  -3.38    +62.3874
iter:  84 14:57:31  -853.179588c -6.11  -3.50    +62.3599
iter:  85 14:58:17  -853.186961c -5.17  -3.47    +62.3562
iter:  86 14:59:03  -853.187206c -5.09  -3.28    +62.3626
iter:  87 14:59:49  -853.189097c -5.62  -3.40    +62.3736
[...]
iter: 114 15:20:35  -853.247559c -4.84  -3.30    +62.5611
iter: 115 15:21:21  -853.237518c -5.22  -3.23    +62.4886
iter: 116 15:22:07  -853.245295c -4.88  -3.50    +62.4668
iter: 117 15:22:53  -853.238189c -5.02  -3.35    +62.4676
iter: 118 15:23:39  -853.237424c -5.42  -3.39    +62.4445
iter: 119 15:24:25  -853.239207c -5.34  -3.55    +62.3963
iter: 120 15:25:11  -853.235884c -5.60  -3.57    +62.3982
iter: 121 15:25:58  -853.236766c -5.74  -3.72    +62.4022
iter: 122 15:26:44  -853.236115c -6.14  -3.68    +62.3758
iter: 123 15:27:30  -853.237330c -5.99  -3.86    +62.3613
iter: 124 15:28:16  -853.235886c -5.99  -3.79    +62.3536
iter: 125 15:29:02  -853.235657c -6.32  -3.85    +62.3486
iter: 126 15:29:48  -853.236455c -6.32  -3.95    +62.3294
iter: 127 15:30:35  -853.236363c -6.21  -3.98    +62.3243
iter: 128 15:31:21  -853.236048c -6.49  -3.91    +62.3316
iter: 129 15:32:07  -853.235756c -6.78  -4.05c   +62.3220
iter: 130 15:32:53  -853.236154c -6.83  -4.09c   +62.3156
iter: 131 15:33:39  -853.236102c -7.00  -4.09c   +62.3051
iter: 132 15:34:25  -853.235940c -7.16  -4.15c   +62.3038
iter: 133 15:35:11  -853.236026c -7.04  -4.15c   +62.2961
iter: 134 15:35:57  -853.236117c -6.76  -4.17c   +62.2868
iter: 135 15:36:43  -853.236186c -6.77  -4.12c   +62.2879
iter: 136 15:37:30  -853.235707c -6.55  -4.23c   +62.2882
iter: 137 15:38:16  -853.235893c -6.73  -4.13c   +62.2880
iter: 138 15:39:02  -853.236151c -6.84  -4.27c   +62.2784
iter: 139 15:39:48  -853.235893c -7.02  -4.31c   +62.2782
iter: 140 15:40:34  -853.235907c -7.30  -4.38c   +62.2813
iter: 141 15:41:21  -853.235867c -7.67c -4.49c   +62.2761

Converged after 141 iterations.

Dipole moment: (-1.253336, 14.076678, 11.838851) |e|*Ang

Total magnetic moment: (0.000000, 0.000000, 62.276098)
Local magnetic moments:
   0 Co ( 0.000000,  0.000000,  0.478330)
   1 Ni ( 0.000000,  0.000000,  0.144812)
   2 Al ( 0.000000,  0.000000, -0.009798)
   3 Cr ( 0.000000,  0.000000,  1.212216)
   4 Cr ( 0.000000,  0.000000, -1.376137)
   5 Fe ( 0.000000,  0.000000,  2.094179)
   6 Fe ( 0.000000,  0.000000,  1.724139)
   7 Fe ( 0.000000,  0.000000,  1.752761)
   8 Cr ( 0.000000,  0.000000, -1.157208)
   9 Fe ( 0.000000,  0.000000,  1.761829)
  10 Fe ( 0.000000,  0.000000,  2.122109)
  11 Al ( 0.000000,  0.000000, -0.020804)
  12 Co ( 0.000000,  0.000000, -0.483083)
  13 Fe ( 0.000000,  0.000000,  1.985188)
  14 Al ( 0.000000,  0.000000, -0.011150)
  15 Al ( 0.000000,  0.000000, -0.028715)
  16 Cr ( 0.000000,  0.000000, -1.697806)
  17 Cr ( 0.000000,  0.000000,  1.252407)
  18 Al ( 0.000000,  0.000000, -0.014987)
  19 Co ( 0.000000,  0.000000,  1.048699)
  20 Co ( 0.000000,  0.000000,  0.913717)
  21 Cr ( 0.000000,  0.000000, -0.582470)
  22 Cr ( 0.000000,  0.000000,  0.860984)
  23 Cr ( 0.000000,  0.000000, -1.407483)
  24 Fe ( 0.000000,  0.000000,  1.924949)
  25 Al ( 0.000000,  0.000000, -0.015865)
  26 Ni ( 0.000000,  0.000000,  0.228980)
  27 Cr ( 0.000000,  0.000000, -1.712025)
  28 Fe ( 0.000000,  0.000000,  2.104979)
  29 Ni ( 0.000000,  0.000000,  0.192167)
  30 Co ( 0.000000,  0.000000,  0.807529)
  31 Fe ( 0.000000,  0.000000,  1.903836)
  32 Fe ( 0.000000,  0.000000,  1.625857)
  33 Cr ( 0.000000,  0.000000,  0.082823)
  34 Fe ( 0.000000,  0.000000,  1.562588)
  35 Cr ( 0.000000,  0.000000, -1.215787)
  36 Ni ( 0.000000,  0.000000,  0.327863)
  37 Ni ( 0.000000,  0.000000,  0.150685)
  38 Co ( 0.000000,  0.000000,  1.505703)
  39 Ni ( 0.000000,  0.000000,  0.369645)
  40 Co ( 0.000000,  0.000000,  1.431578)
  41 Ni ( 0.000000,  0.000000,  0.424121)
  42 Co ( 0.000000,  0.000000,  1.307235)
  43 Ni ( 0.000000,  0.000000,  0.222649)
  44 Cr ( 0.000000,  0.000000, -0.830434)
  45 Co ( 0.000000,  0.000000,  0.922139)
  46 Al ( 0.000000,  0.000000, -0.008656)
  47 Ni ( 0.000000,  0.000000,  0.035154)
  48 Cr ( 0.000000,  0.000000, -1.432962)
  49 Fe ( 0.000000,  0.000000,  1.928406)
  50 Fe ( 0.000000,  0.000000,  2.421552)
  51 Ni ( 0.000000,  0.000000,  0.299284)
  52 Ni ( 0.000000,  0.000000,  0.335028)
  53 Ni ( 0.000000,  0.000000,  0.388444)
  54 Co ( 0.000000,  0.000000,  1.340797)
  55 Cr ( 0.000000,  0.000000, -0.731678)
  56 Cr ( 0.000000,  0.000000, -0.871386)
  57 Co ( 0.000000,  0.000000,  0.778468)
  58 Cr ( 0.000000,  0.000000,  0.891782)
  59 Fe ( 0.000000,  0.000000, -1.429027)
[...]
  93 Ni ( 0.000000,  0.000000,  0.317110)
  94 Cr ( 0.000000,  0.000000,  0.841427)
  95 Cr ( 0.000000,  0.000000, -1.393500)
  96 Co ( 0.000000,  0.000000,  1.221260)
  97 Ni ( 0.000000,  0.000000,  0.231680)
  98 Ni ( 0.000000,  0.000000,  0.410543)
  99 Co ( 0.000000,  0.000000,  1.530431)
 100 Co ( 0.000000,  0.000000,  1.561529)
 101 Ni ( 0.000000,  0.000000,  0.425311)
 102 Fe ( 0.000000,  0.000000,  2.323324)
 103 Co ( 0.000000,  0.000000,  1.438854)
 104 Co ( 0.000000,  0.000000,  1.250808)
 105 Ni ( 0.000000,  0.000000,  0.330169)
 106 Fe ( 0.000000,  0.000000,  2.024970)
 107 Fe ( 0.000000,  0.000000,  2.157858)

Energy contributions relative to reference atoms: (reference = -3548577.034362)

Kinetic:       +166.590736
Potential:     -202.760458
External:        +0.000000
XC:            -851.050274
Entropy (-ST):   -4.392097
Local:          +36.180178
Free energy:   -855.431916
Extrapolated:  -853.235867

Spin contamination: 27.186274 electrons
Showing only first 2 kpts
                      Up                     Down
 Kpt  Band  Eigenvalues  Occupancy  Eigenvalues  Occupancy
  0   488      9.49209    0.99409     10.37121    0.02493
  0   489      9.50467    0.99330     10.38176    0.02249
  0   490      9.51919    0.99226     10.39080    0.02059
  0   491      9.52555    0.99176     10.39888    0.01902

  1   488      9.48975    0.99422     10.36919    0.02543
  1   489      9.50316    0.99340     10.38308    0.02221
  1   490      9.53304    0.99112     10.38942    0.02087
  1   491      9.54292    0.99021     10.40022    0.01877

Fermi level: 10.00459

No gap

Forces in eV/Ang:
  0 Co    0.14969   -0.51553   -0.03534
  1 Ni    0.22032    0.13094    0.01683
  2 Al   -0.26319   -0.14045    0.66449
  3 Cr   -0.36471    0.04271   -0.66005
  4 Cr    0.56803    0.27951   -0.43697
  5 Fe    0.11976   -0.09814   -0.01996
  6 Fe   -0.03260    0.17894    0.16123
  7 Fe   -0.37566    0.25369    0.07428
  8 Cr   -0.56649   -0.38243   -0.07894
  9 Fe    0.08205   -0.18610   -0.09902
 10 Fe   -0.11103    0.30968   -0.08967
 11 Al    0.59965   -0.24295   -0.22433
 12 Co    0.02848   -0.27401   -0.12018
 13 Fe   -0.10594    0.26942    0.26083
 14 Al    0.02580   -0.07582   -0.09392
 15 Al   -0.51388   -0.08147   -0.22674
 16 Cr   -0.40476   -0.44918    0.10760
 17 Cr    0.48702    0.02522   -0.03563
 18 Al    0.11971   -0.27409   -0.00501
 19 Co    0.01275   -0.16414    0.24144
 20 Co   -0.09919   -0.07962   -0.06111
 21 Cr   -0.26423    0.70810   -0.08752
 22 Cr    0.01681    0.53944    0.36611
 23 Cr    0.33672    0.27082   -0.29782
 24 Fe   -0.10410    0.25131   -0.15205
 25 Al    0.25382   -0.00581    0.96949
 26 Ni   -0.06648   -0.12537   -0.09759
 27 Cr   -0.15298   -0.12500   -0.65204
 28 Fe   -0.18774    0.21698    0.08413
 29 Ni   -0.05184    0.11823   -0.14511
 30 Co    0.10956   -0.04861   -0.05908
 31 Fe   -0.03168    0.40850    0.26543
 32 Fe    0.16389    0.02205    0.31557
 33 Cr   -0.04984   -0.39385    0.41907
 34 Fe   -0.21730   -0.41888   -0.30352
 35 Cr   -0.18960   -0.51899   -0.04022
 36 Ni    0.05717   -0.16158   -0.08548
 37 Ni    0.12515   -0.37123   -0.09399
 38 Co    0.20682   -0.20213   -0.01533
 39 Ni   -0.12167    0.07431   -0.29240
 40 Co    0.16457    0.03436    0.39913
 41 Ni   -0.09167    0.00026   -0.10757
 42 Co    0.08584   -0.07006   -0.03735
 43 Ni    0.06922    0.06112    0.04807
 44 Cr   -0.36100    0.01531   -0.59336
 45 Co   -0.09101    0.04680    0.03938
 46 Al    0.54925    0.51718    0.24895
 47 Ni    0.02371   -0.03784    0.15798
 48 Cr   -0.60817   -0.06677    0.63040
 49 Fe    0.18619    0.34442   -0.18322
 50 Fe    0.01331   -0.01030   -0.20605
 51 Ni    0.20408   -0.08995   -0.29183
 52 Ni    0.06630    0.11854   -0.35123
 53 Ni    0.13094   -0.02522    0.01857
 54 Co    0.25077    0.06618    0.07754
 55 Cr   -0.11635    0.34689    0.24739
 56 Cr    0.28717   -0.14450    0.61881
 57 Co   -0.23960    0.25858   -0.09708
 58 Cr   -0.15232   -0.30983   -0.26962
 59 Fe   -0.09077    0.01136   -0.00945
[...]
 93 Ni   -0.07958   -0.07943    0.12057
 94 Cr    0.26177    0.25399   -0.11733
 95 Cr   -0.15899    0.30593    0.32568
 96 Co    0.01985    0.12062    0.11429
 97 Ni   -0.07065    0.33784   -0.12074
 98 Ni   -0.07860   -0.13843    0.12214
 99 Co    0.03607   -0.10387   -0.08254
100 Co   -0.01583    0.19077   -0.09378
101 Ni   -0.36388   -0.01714    0.12210
102 Fe    0.28693   -0.04106   -0.12401
103 Co    0.18872    0.20233   -0.26724
104 Co   -0.07749   -0.10400   -0.09333
105 Ni    0.17194    0.29536    0.15822
106 Fe    0.09281   -0.15514    0.09975
107 Fe   -0.04560   -0.31531   -0.20729

Date: Sat Apr  8 15:41:33 2023