User:   c.zeng@d0131
Date:   Sat Apr  8 14:31:01 2023
Arch:   x86_64
Pid:    77277
CWD:    /home/c.zeng/projects/hea-corrosion/hea-mlp/data-curation/volume/dft-jobs/81
Python: 3.8.1
gpaw:   /home/c.zeng/usr/installs/gpaw/source/gpaw-22.8.0/gpaw
_gpaw:  /home/c.zeng/usr/installs/gpaw/source/gpaw-22.8.0/
        _gpaw.cpython-38-x86_64-linux-gnu.so
ase:    /home/c.zeng/.local/lib/python3.8/site-packages/ase-3.22.1-py3.8.egg/ase (version 3.22.1)
numpy:  /shared/centos7/python/3.8.1/lib/python3.8/site-packages/numpy (version 1.17.4)
scipy:  /shared/centos7/python/3.8.1/lib/python3.8/site-packages/scipy (version 1.4.1)
units:  Angstrom and eV
cores: 64
OpenMP: False
OMP_NUM_THREADS: 1

Input parameters:
  convergence: {energy: 0.0001}
  kpts: [2 2 2]
  maxiter: 666
  mode: {ecut: 350.0,
         name: pw}
  occupations: {fixmagmom: False,
                name: fermi-dirac,
                width: 0.1}
  spinpol: True
  xc: PBE

System changes: positions, numbers, cell, pbc, initial_charges, initial_magmoms

Initialize ...

species:
  Co:
    name: Cobalt
    id: 339d20d5b0b93d2de9531a1bee871d91
    Z: 27.0
    valence: 9
    core: 18
    charge: 0.0
    file: /home/c.zeng/usr/data/gpaw-setups-0.9.20000/Co.PBE.gz
    compensation charges: {type: gauss,
                           rc: 0.32,
                           lmax: 2}
    cutoffs: {filter: 1.87,
              core: 2.55}
    valence states:
      #              energy  rcut
      - 4s(2.00)    -5.469   1.005
      - 4p(0.00)    -1.277   1.058
      - 3d(7.00)    -8.205   1.005
      -  s          21.742   1.005
      -  p          25.934   1.058
      -  d          19.007   1.005

    # Using partial waves for Co as LCAO basis

  Ni:
    name: Nickel
    id: 0d9f38a9d6e76a2886f07bb4381f212b
    Z: 28.0
    valence: 16
    core: 12
    charge: 0.0
    file: /home/c.zeng/usr/data/gpaw-setups-0.9.20000/Ni.PBE.gz
    compensation charges: {type: gauss,
                           rc: 0.36,
                           lmax: 2}
    cutoffs: {filter: 2.14,
              core: 1.98}
    valence states:
      #              energy  rcut
      - 4s(2.00)    -5.642   1.164
      - 3p(6.00)   -71.394   1.207
      - 4p(0.00)    -1.226   1.207
      - 3d(8.00)    -8.875   1.138
      -  s          21.570   1.164
      -  d          18.337   1.138

[...]

  Al:
    name: Aluminium
    id: 0292cae29f5d6237e50f6abdd43a7bdd
    Z: 13.0
    valence: 3
    core: 10
    charge: 0.0
    file: /home/c.zeng/usr/data/gpaw-setups-0.9.20000/Al.PBE.gz
    compensation charges: {type: gauss,
                           rc: 0.34,
                           lmax: 2}
    cutoffs: {filter: 1.91,
              core: 2.36}
    valence states:
      #              energy  rcut
      - 3s(2.00)    -7.753   1.085
      - 3p(1.00)    -2.712   1.085
      -  s          19.459   1.085
      -  p          24.499   1.085
      -  d           0.000   1.085

[...]

  Cr:
    name: Chromium
    id: 33f258bda2ca9f93018e70263a35547b
    Z: 24.0
    valence: 6
    core: 18
    charge: 0.0
    file: /home/c.zeng/usr/data/gpaw-setups-0.9.20000/Cr.PBE.gz
    compensation charges: {type: gauss,
                           rc: 0.35,
                           lmax: 2}
    cutoffs: {filter: 2.14,
              core: 3.04}
    valence states:
      #              energy  rcut
      - 4s(1.00)    -4.007   1.164
      - 4p(0.00)    -0.989   1.217
      - 3d(5.00)    -2.913   1.111
      -  s          23.205   1.164
      -  p          26.223   1.217
      -  d          24.299   1.111

[...]

  Fe:
    name: Iron
    id: 37abbd8d6c3c35915a9b583b742da910
    Z: 26.0
    valence: 8
    core: 18
    charge: 0.0
    file: /home/c.zeng/usr/data/gpaw-setups-0.9.20000/Fe.PBE.gz
    compensation charges: {type: gauss,
                           rc: 0.33,
                           lmax: 2}
    cutoffs: {filter: 2.06,
              core: 2.67}
    valence states:
      #              energy  rcut
      - 4s(2.00)    -5.291   1.164
      - 4p(0.00)    -1.326   1.058
      - 3d(6.00)    -7.505   1.058
      -  s          21.920   1.164
      -  p          25.885   1.058
      -  d          19.706   1.058

    # Using partial waves for Fe as LCAO basis

Reference energy: -3548577.034362  # eV

Spin-polarized calculation.
Magnetic moment: 136.400000

Convergence criteria:
 Maximum [total energy] change in last 3 cyles: 0.0001 eV / electron
 Maximum integral of absolute [dens]ity change: 0.0001 electrons / valence electron
 Maximum integral of absolute [eigenst]ate change: 4e-08 eV^2 / valence electron
 Maximum number of scf [iter]ations: 666
 (Square brackets indicate name in SCF output, whereas a 'c' in
 the SCF output indicates the quantity has converged.)

Symmetries present (total): 1

  ( 1  0  0)
  ( 0  1  0)
  ( 0  0  1)

8 k-points: 2 x 2 x 2 Monkhorst-Pack grid
4 k-points in the irreducible part of the Brillouin zone
       k-points in crystal coordinates                weights
   0:     0.25000000   -0.25000000   -0.25000000          2/8
   1:     0.25000000   -0.25000000    0.25000000          2/8
   2:     0.25000000    0.25000000   -0.25000000          2/8
   3:     0.25000000    0.25000000    0.25000000          2/8

Wave functions: Plane wave expansion
  Cutoff energy: 350.000 eV
  Number of coefficients (min, max): 18331, 18331
  Pulay-stress correction: 0.000000 eV/Ang^3 (de/decut=0.000000)
  Using FFTW library
  ScaLapack parameters: grid=1x1, blocksize=None
  Wavefunction extrapolation:
    Improved wavefunction reuse through dual PAW basis

Occupation numbers: Fermi-Dirac:
  width: 0.1000  # eV

Eigensolver
   Davidson(niter=2)

Densities:
  Coarse grid: 48*48*48 grid
  Fine grid: 96*96*96 grid
  Total Charge: 0.000000

Density mixing:
  Method: difference
  Backend: pulay
  Linear mixing parameter: 0.05
  old densities: 5
  Damping of long wavelength oscillations: 50

Hamiltonian:
  XC and Coulomb potentials evaluated on a 96*96*96 grid
  Using the PBE Exchange-Correlation functional
  External potential:
    NoExternalPotential

XC parameters: PBE with 2 nearest neighbor stencil

Total number of cores used: 64
Parallelization over k-points: 4
Domain decomposition: 4 x 2 x 2

Number of atoms: 108
Number of atomic orbitals: 994
Number of bands in calculation: 674
Number of valence electrons: 980
Bands to converge: occupied

... initialized

Initializing position-dependent things.

Density initialized from atomic densities
Creating initial wave functions:
  674 bands from LCAO basis set

        Co-------Cr---------------.
       /|  Cr       Fe            |
      / |   CoFe     FeFe     AlFe|
     / Ni       NCo     Ni        |
    /   AAl      Fe      NCr      |
   /    | NiCr     Fe      FeCo   |
  /   Cr|  CoFeFe   CoNi    FeCo  |
 *      Ni  CoCoAl   CoCoCr   AlCo|
 |Co   NiFeFe   CoCCr   CrCr      |
 | Cr   | CrCo   CoCoFe    Fe     |
 |     Fe  NiNiCr   CrCoNi  NiFe  |
 |      Fe    CoCo   FeCrCr   FeNi|
 |Ni    |NiNi   NCrCo   CrFe     Al
 |      .-NiNi-----CoCr--CrFeCr---.
 |     Ni    CrNi     CrNi  Cr Fe/
 |    / Al      Al       Cr     /
 Ni  /            Cr           /
 |  /      Fe      Fe       Ni/
 | / Al              Co      /
 |/                     Al  /

Positions:
   0 Co    10.732479   -0.010371   10.721371    ( 0.0000,  0.0000,  2.1000)
   1 Ni    10.706241    1.787070    1.816739    ( 0.0000,  0.0000,  1.5000)
   2 Al     1.827965    0.046058    1.820824    ( 0.0000,  0.0000,  0.0000)
   3 Cr     1.781698    1.794833   10.668348    ( 0.0000,  0.0000,  0.0000)
   4 Cr     3.605675   -0.024579   10.696999    ( 0.0000,  0.0000,  0.0000)
   5 Fe     3.626284    1.755654    1.827622    ( 0.0000,  0.0000,  2.0000)
   6 Fe     5.347175   -0.032888    1.798404    ( 0.0000,  0.0000,  2.0000)
   7 Fe     5.383460    1.755386   -0.004065    ( 0.0000,  0.0000,  2.0000)
   8 Cr     7.108705   -0.021619    0.052142    ( 0.0000,  0.0000,  0.0000)
   9 Fe     7.129120    1.783693    1.838162    ( 0.0000,  0.0000,  2.0000)
  10 Fe     8.928414   -0.004385    1.840993    ( 0.0000,  0.0000,  2.0000)
  11 Al     8.945645    1.852509    0.063732    ( 0.0000,  0.0000,  0.0000)
  12 Co    10.721381    3.615722   10.707625    ( 0.0000,  0.0000,  2.1000)
  13 Fe    10.714862    5.407585    1.816064    ( 0.0000,  0.0000,  2.0000)
  14 Al     1.786931    3.537073    1.885159    ( 0.0000,  0.0000,  0.0000)
  15 Al     1.774364    5.426274   10.656993    ( 0.0000,  0.0000,  0.0000)
  16 Cr     3.564340    3.564469   10.690072    ( 0.0000,  0.0000,  0.0000)
  17 Cr     3.570302    5.434016    1.813855    ( 0.0000,  0.0000,  0.0000)
  18 Al     5.350156    3.574998    1.808719    ( 0.0000,  0.0000,  0.0000)
  19 Co     5.345063    5.410512   10.703368    ( 0.0000,  0.0000,  2.1000)
  20 Co     7.157706    3.624525    0.002519    ( 0.0000,  0.0000,  2.1000)
  21 Cr     7.157770    5.380168    1.803883    ( 0.0000,  0.0000,  0.0000)
  22 Cr     8.944958    3.620665    1.843041    ( 0.0000,  0.0000,  0.0000)
  23 Cr     8.940316    5.370539   -0.005303    ( 0.0000,  0.0000,  0.0000)
  24 Fe    10.674578    7.138041   10.683424    ( 0.0000,  0.0000,  2.0000)
  25 Al    10.668413    8.869001    1.800001    ( 0.0000,  0.0000,  0.0000)
  26 Ni     1.807882    7.157266    1.806896    ( 0.0000,  0.0000,  1.5000)
  27 Cr     1.808086    8.895239   10.689086    ( 0.0000,  0.0000,  0.0000)
  28 Fe     3.612419    7.185327   10.698264    ( 0.0000,  0.0000,  2.0000)
  29 Ni     3.598255    8.905350    1.808033    ( 0.0000,  0.0000,  1.5000)
  30 Co     5.362197    7.149535    1.778750    ( 0.0000,  0.0000,  2.1000)
  31 Fe     5.368052    8.904106   10.708729    ( 0.0000,  0.0000,  2.0000)
  32 Fe     7.127608    7.124081   10.700676    ( 0.0000,  0.0000,  2.0000)
  33 Cr     7.139939    8.914829    1.783114    ( 0.0000,  0.0000,  0.0000)
  34 Fe     8.884495    7.107943    1.798200    ( 0.0000,  0.0000,  2.0000)
  35 Cr     8.895378    8.880324    0.005521    ( 0.0000,  0.0000,  0.0000)
  36 Ni    10.737947    0.006456    3.587897    ( 0.0000,  0.0000,  1.5000)
  37 Ni     0.009134    1.816182    5.359495    ( 0.0000,  0.0000,  1.5000)
  38 Co     1.833488   -0.010584    5.335456    ( 0.0000,  0.0000,  2.1000)
  39 Ni     1.814434    1.777431    3.664766    ( 0.0000,  0.0000,  1.5000)
  40 Co     3.608045   -0.027989    3.615926    ( 0.0000,  0.0000,  2.1000)
  41 Ni     3.597451    1.774353    5.368180    ( 0.0000,  0.0000,  1.5000)
  42 Co     5.355195   -0.018867    5.365650    ( 0.0000,  0.0000,  2.1000)
  43 Ni     5.353995    1.762720    3.609417    ( 0.0000,  0.0000,  1.5000)
  44 Cr     7.096395    0.004794    3.553929    ( 0.0000,  0.0000,  0.0000)
  45 Co     7.124595    1.817693    5.354681    ( 0.0000,  0.0000,  2.1000)
  46 Al     8.888709   10.712299    5.289639    ( 0.0000,  0.0000,  0.0000)
  47 Ni     8.931727    1.815538    3.559022    ( 0.0000,  0.0000,  1.5000)
  48 Cr    10.700248    3.599939    3.631795    ( 0.0000,  0.0000,  0.0000)
  49 Fe    -0.007927    5.382773    5.388081    ( 0.0000,  0.0000,  2.0000)
  50 Fe     1.794276    3.594116    5.365296    ( 0.0000,  0.0000,  2.0000)
  51 Ni     1.781999    5.398686    3.628621    ( 0.0000,  0.0000,  1.5000)
[...]
  58 Cr     8.930901    3.577175    5.375386    ( 0.0000,  0.0000,  0.0000)
  59 Fe     8.940659    5.382387    3.619303    ( 0.0000,  0.0000,  2.0000)
[...]
  93 Ni     7.158231    5.390837    8.905929    ( 0.0000,  0.0000,  1.5000)
  94 Cr     8.930859    3.597837    8.885353    ( 0.0000,  0.0000,  0.0000)
  95 Cr     8.935748    5.388789    7.127673    ( 0.0000,  0.0000,  0.0000)
  96 Co    10.717929    7.165297    7.144389    ( 0.0000,  0.0000,  2.1000)
  97 Ni    10.739341    8.898841    8.943136    ( 0.0000,  0.0000,  1.5000)
  98 Ni     1.793707    7.182893    8.888644    ( 0.0000,  0.0000,  1.5000)
  99 Co     1.836511    8.904878    7.123094    ( 0.0000,  0.0000,  2.1000)
 100 Co     3.587501    7.157245    7.133656    ( 0.0000,  0.0000,  2.1000)
 101 Ni     3.596014    8.923835    8.905028    ( 0.0000,  0.0000,  1.5000)
 102 Fe     5.369392    7.149267    8.921080    ( 0.0000,  0.0000,  2.0000)
 103 Co     5.343765    8.916555    7.143081    ( 0.0000,  0.0000,  2.1000)
 104 Co     7.139778    7.140475    7.139371    ( 0.0000,  0.0000,  2.1000)
 105 Ni     7.106892    8.889867    8.908770    ( 0.0000,  0.0000,  1.5000)
 106 Fe     8.907419    7.146437    8.906755    ( 0.0000,  0.0000,  2.0000)
 107 Fe     8.922302    8.892376    7.115031    ( 0.0000,  0.0000,  2.0000)

Unit cell:
           periodic     x           y           z      points  spacing
  1. axis:    yes   10.722400    0.000000    0.000000    48     0.2234
  2. axis:    yes    0.000000   10.722400    0.000000    48     0.2234
  3. axis:    yes    0.000000    0.000000   10.722400    48     0.2234

  Lengths:  10.722400  10.722400  10.722400
  Angles:   90.000000  90.000000  90.000000

Effective grid spacing dv^(1/3) = 0.2234

     iter     time        total  log10-change:  magmom
                         energy  eigst   dens
iter:   1 14:32:52 -1035.923342                  +136.6828
iter:   2 14:33:39  -917.077736  -0.22  -1.18    +75.1438
iter:   3 14:34:25  -913.508693  -0.79  -1.20    +63.0843
iter:   4 14:35:11  -886.148175  -1.18  -1.26    +58.7448
iter:   5 14:35:57  -872.314200  -1.57  -1.29    +55.4509
iter:   6 14:36:44  -877.619054  -1.25  -1.36    +55.8339
iter:   7 14:37:32  -860.267693  -1.29  -1.41    +54.0167
iter:   8 14:38:16  -853.699982  -1.63  -1.58    +53.4867
iter:   9 14:39:01  -853.407015  -2.05  -1.74    +54.4915
iter:  10 14:39:48  -852.216398  -2.33  -1.76    +55.6976
iter:  11 14:40:34  -852.875758  -2.53  -1.84    +56.5686
iter:  12 14:41:19  -852.686414  -2.52  -1.83    +58.1468
iter:  13 14:42:04  -854.639576  -2.38  -1.90    +59.3976
iter:  14 14:42:50  -853.231294  -2.37  -1.88    +59.5340
iter:  15 14:43:36  -854.918964  -2.40  -2.01    +60.5071
iter:  16 14:44:21  -853.216741  -2.56  -1.95    +60.7948
iter:  17 14:45:08  -853.470935  -2.74  -2.07    +61.9544
iter:  18 14:45:54  -853.238473  -2.77  -2.09    +61.9109
iter:  19 14:46:41  -853.180950  -2.92  -2.13    +62.3387
iter:  20 14:47:29  -852.774372  -3.19  -2.16    +63.1347
iter:  21 14:48:14  -853.046964  -3.18  -2.26    +63.4042
iter:  22 14:49:00  -852.992702  -3.15  -2.25    +63.6523
iter:  23 14:49:47  -853.006675c -3.22  -2.27    +63.6221
iter:  24 14:50:34  -853.060207c -3.24  -2.29    +63.9890
iter:  25 14:51:20  -853.100053c -3.21  -2.31    +64.0301
iter:  26 14:52:06  -852.908376  -3.42  -2.34    +63.9082
iter:  27 14:52:51  -852.958025  -3.59  -2.41    +64.1924
iter:  28 14:53:37  -852.971943c -3.58  -2.42    +64.1414
iter:  29 14:54:24  -852.962900c -3.63  -2.44    +64.2284
iter:  30 14:55:11  -852.963555c -3.80  -2.45    +64.1504
iter:  31 14:55:58  -853.007156c -3.71  -2.49    +64.1902
iter:  32 14:56:45  -853.029069c -3.74  -2.49    +64.1461
iter:  33 14:57:32  -853.019138c -3.77  -2.50    +63.9144
iter:  34 14:58:20  -853.059281c -3.77  -2.53    +63.9466
iter:  35 14:59:06  -853.078259c -3.62  -2.54    +63.8717
iter:  36 14:59:51  -853.056940c -3.87  -2.53    +63.8649
iter:  37 15:00:36  -853.060227c -3.86  -2.59    +63.6975
iter:  38 15:01:22  -853.034600c -3.94  -2.61    +63.6241
iter:  39 15:02:10  -853.023158c -4.23  -2.63    +63.7547
iter:  40 15:02:58  -853.037792c -4.37  -2.68    +63.6376
iter:  41 15:03:44  -853.074285c -4.08  -2.70    +63.5926
iter:  42 15:04:31  -853.060050c -4.17  -2.66    +63.4899
iter:  43 15:05:17  -853.081817c -4.14  -2.70    +63.4782
iter:  44 15:06:03  -853.106674c -3.99  -2.71    +63.4182
iter:  45 15:06:50  -853.085374c -4.12  -2.70    +63.2352
iter:  46 15:07:37  -853.074357c -4.35  -2.74    +63.2486
iter:  47 15:08:24  -853.087752c -4.27  -2.79    +63.2081
iter:  48 15:09:10  -853.076312c -4.46  -2.78    +63.2021
iter:  49 15:09:58  -853.080437c -4.73  -2.83    +63.0860
iter:  50 15:10:44  -853.088154c -4.55  -2.86    +63.0242
iter:  51 15:11:27  -853.098798c -4.52  -2.85    +63.0257
iter:  52 15:12:10  -853.103278c -4.54  -2.85    +62.9267
iter:  53 15:12:52  -853.125784c -4.37  -2.87    +62.8555
iter:  54 15:13:35  -853.125687c -4.20  -2.84    +62.7692
iter:  55 15:14:17  -853.115165c -4.44  -2.85    +62.7744
iter:  56 15:15:00  -853.123125c -4.48  -2.92    +62.7576
iter:  57 15:15:51  -853.117413c -4.67  -2.93    +62.6798
iter:  58 15:16:42  -853.114552c -4.83  -2.98    +62.7050
iter:  59 15:17:34  -853.120897c -5.18  -3.02    +62.6865
iter:  60 15:18:26  -853.132352c -4.72  -3.04    +62.6725
iter:  61 15:19:18  -853.136816c -4.76  -2.99    +62.6078
iter:  62 15:20:11  -853.142918c -4.61  -3.03    +62.5651
iter:  63 15:21:03  -853.150116c -4.57  -3.01    +62.5904
iter:  64 15:21:56  -853.153609c -4.48  -3.04    +62.5096
iter:  65 15:22:47  -853.146752c -4.82  -3.03    +62.4705
iter:  66 15:23:39  -853.152082c -4.73  -3.13    +62.4015
iter:  67 15:24:31  -853.146738c -5.08  -3.13    +62.4363
iter:  68 15:25:23  -853.151736c -5.35  -3.21    +62.4256
iter:  69 15:26:15  -853.154968c -5.37  -3.25    +62.3991
iter:  70 15:27:09  -853.161986c -5.02  -3.26    +62.4013
iter:  71 15:28:01  -853.162667c -5.34  -3.22    +62.3922
iter:  72 15:28:53  -853.171433c -4.88  -3.30    +62.3842
iter:  73 15:29:47  -853.180444c -4.70  -3.23    +62.3443
iter:  74 15:30:39  -853.172183c -4.84  -3.18    +62.3463
iter:  75 15:31:31  -853.174844c -5.04  -3.30    +62.3968
iter:  76 15:32:25  -853.175901c -5.27  -3.38    +62.3575
iter:  77 15:33:17  -853.176278c -5.55  -3.43    +62.3500
iter:  78 15:34:09  -853.180243c -5.53  -3.54    +62.3298
iter:  79 15:35:01  -853.179709c -6.47  -3.50    +62.3331
iter:  80 15:35:53  -853.184419c -5.58  -3.49    +62.3036
iter:  81 15:36:45  -853.175285c -5.06  -3.46    +62.3437
iter:  82 15:37:36  -853.190124c -4.83  -3.49    +62.2853
iter:  83 15:38:29  -853.178162c -5.11  -3.44    +62.3387
iter:  84 15:39:23  -853.184309c -5.64  -3.51    +62.2969
iter:  85 15:40:15  -853.188879c -5.03  -3.51    +62.2954
iter:  86 15:41:07  -853.187193c -5.19  -3.30    +62.3293
iter:  87 15:41:59  -853.189123c -5.69  -3.60    +62.3311
[...]
iter: 115 16:06:29  -853.221805c -5.37  -3.49    +62.4741
iter: 116 16:07:22  -853.222331c -5.66  -3.52    +62.4589
iter: 117 16:08:15  -853.224892c -5.39  -3.63    +62.4812
iter: 118 16:09:10  -853.222966c -5.74  -3.54    +62.4878
iter: 119 16:10:04  -853.225645c -5.74  -3.73    +62.4961
iter: 120 16:10:58  -853.225760c -5.92  -3.71    +62.5003
iter: 121 16:11:50  -853.225849c -5.93  -3.69    +62.5122
iter: 122 16:12:42  -853.227032c -5.98  -3.81    +62.5030
iter: 123 16:13:34  -853.227680c -5.98  -3.82    +62.5163
iter: 124 16:14:26  -853.228469c -6.10  -3.82    +62.5289
iter: 125 16:15:21  -853.228481c -5.97  -3.86    +62.5241
iter: 126 16:16:15  -853.229573c -5.91  -3.80    +62.5224
iter: 127 16:17:06  -853.229802c -6.10  -3.94    +62.5227
iter: 128 16:18:00  -853.230102c -6.17  -3.93    +62.5242
iter: 129 16:18:54  -853.230643c -6.31  -3.92    +62.5142
iter: 130 16:19:47  -853.230773c -6.35  -4.04c   +62.5173
iter: 131 16:20:40  -853.231777c -5.99  -4.10c   +62.5173
iter: 132 16:21:32  -853.232190c -6.14  -4.12c   +62.5002
iter: 133 16:22:24  -853.232268c -6.59  -4.16c   +62.5029
iter: 134 16:23:16  -853.232618c -6.39  -4.24c   +62.4876
iter: 135 16:24:09  -853.233020c -6.45  -4.23c   +62.4803
iter: 136 16:25:02  -853.233385c -6.24  -4.28c   +62.4693
iter: 137 16:25:58  -853.234621c -5.62  -4.30c   +62.4507
iter: 138 16:26:52  -853.236351c -5.13  -4.28c   +62.4016
iter: 139 16:27:46  -853.238235c -4.75  -4.10c   +62.3193
iter: 140 16:28:39  -853.238307c -5.60  -3.88    +62.3103
iter: 141 16:29:31  -853.238461c -6.00  -3.88    +62.2995
iter: 142 16:30:24  -853.238571c -6.29  -3.86    +62.2923
iter: 143 16:31:16  -853.238542c -6.33  -3.84    +62.2847
iter: 144 16:32:08  -853.238377c -5.76  -3.75    +62.2875
iter: 145 16:33:01  -853.238069c -6.43  -3.83    +62.2863
iter: 146 16:33:53  -853.237848c -6.19  -3.90    +62.2733
iter: 147 16:34:47  -853.237611c -5.86  -3.87    +62.2645
iter: 148 16:35:40  -853.237791c -6.31  -3.90    +62.2525
iter: 149 16:36:32  -853.237596c -6.72  -3.94    +62.2527
iter: 150 16:37:24  -853.237310c -6.78  -4.09c   +62.2407
iter: 151 16:38:17  -853.237600c -6.43  -4.11c   +62.2356
iter: 152 16:39:09  -853.237546c -6.75  -4.09c   +62.2292
iter: 153 16:40:02  -853.237247c -6.73  -4.20c   +62.2254
iter: 154 16:40:54  -853.237227c -6.92  -4.33c   +62.2229
iter: 155 16:41:47  -853.237318c -6.97  -4.34c   +62.2182
iter: 156 16:42:41  -853.237372c -7.24  -4.34c   +62.2197
iter: 157 16:43:35  -853.237191c -7.46c -4.46c   +62.2170

Converged after 157 iterations.

Dipole moment: (-1.381780, 14.311240, 12.707152) |e|*Ang

Total magnetic moment: (0.000000, 0.000000, 62.217024)
Local magnetic moments:
   0 Co ( 0.000000,  0.000000,  0.490538)
   1 Ni ( 0.000000,  0.000000,  0.144712)
   2 Al ( 0.000000,  0.000000, -0.010026)
   3 Cr ( 0.000000,  0.000000,  1.216997)
   4 Cr ( 0.000000,  0.000000, -1.388393)
   5 Fe ( 0.000000,  0.000000,  2.095100)
   6 Fe ( 0.000000,  0.000000,  1.722180)
   7 Fe ( 0.000000,  0.000000,  1.753684)
   8 Cr ( 0.000000,  0.000000, -1.168358)
   9 Fe ( 0.000000,  0.000000,  1.764795)
  10 Fe ( 0.000000,  0.000000,  2.127563)
  11 Al ( 0.000000,  0.000000, -0.020867)
  12 Co ( 0.000000,  0.000000, -0.491020)
  13 Fe ( 0.000000,  0.000000,  1.987671)
  14 Al ( 0.000000,  0.000000, -0.011000)
  15 Al ( 0.000000,  0.000000, -0.028709)
  16 Cr ( 0.000000,  0.000000, -1.709280)
  17 Cr ( 0.000000,  0.000000,  1.273727)
  18 Al ( 0.000000,  0.000000, -0.014815)
  19 Co ( 0.000000,  0.000000,  1.042948)
  20 Co ( 0.000000,  0.000000,  0.931964)
  21 Cr ( 0.000000,  0.000000, -0.588062)
  22 Cr ( 0.000000,  0.000000,  0.875574)
  23 Cr ( 0.000000,  0.000000, -1.418284)
  24 Fe ( 0.000000,  0.000000,  1.923493)
  25 Al ( 0.000000,  0.000000, -0.016003)
  26 Ni ( 0.000000,  0.000000,  0.232760)
  27 Cr ( 0.000000,  0.000000, -1.730289)
  28 Fe ( 0.000000,  0.000000,  2.107837)
  29 Ni ( 0.000000,  0.000000,  0.192516)
  30 Co ( 0.000000,  0.000000,  0.797720)
  31 Fe ( 0.000000,  0.000000,  1.905860)
  32 Fe ( 0.000000,  0.000000,  1.627769)
  33 Cr ( 0.000000,  0.000000,  0.102126)
  34 Fe ( 0.000000,  0.000000,  1.558077)
  35 Cr ( 0.000000,  0.000000, -1.218014)
  36 Ni ( 0.000000,  0.000000,  0.329419)
  37 Ni ( 0.000000,  0.000000,  0.149973)
  38 Co ( 0.000000,  0.000000,  1.506266)
  39 Ni ( 0.000000,  0.000000,  0.369909)
  40 Co ( 0.000000,  0.000000,  1.431579)
  41 Ni ( 0.000000,  0.000000,  0.422572)
  42 Co ( 0.000000,  0.000000,  1.303596)
  43 Ni ( 0.000000,  0.000000,  0.223019)
  44 Cr ( 0.000000,  0.000000, -0.845779)
  45 Co ( 0.000000,  0.000000,  0.920614)
  46 Al ( 0.000000,  0.000000, -0.008682)
  47 Ni ( 0.000000,  0.000000,  0.036271)
  48 Cr ( 0.000000,  0.000000, -1.435994)
  49 Fe ( 0.000000,  0.000000,  1.933489)
  50 Fe ( 0.000000,  0.000000,  2.419485)
  51 Ni ( 0.000000,  0.000000,  0.298838)
  52 Ni ( 0.000000,  0.000000,  0.333356)
  53 Ni ( 0.000000,  0.000000,  0.389797)
  54 Co ( 0.000000,  0.000000,  1.339353)
  55 Cr ( 0.000000,  0.000000, -0.804928)
  56 Cr ( 0.000000,  0.000000, -0.871740)
  57 Co ( 0.000000,  0.000000,  0.776929)
  58 Cr ( 0.000000,  0.000000,  0.894004)
  59 Fe ( 0.000000,  0.000000, -1.434551)
[...]
  93 Ni ( 0.000000,  0.000000,  0.316401)
  94 Cr ( 0.000000,  0.000000,  0.862603)
  95 Cr ( 0.000000,  0.000000, -1.399973)
  96 Co ( 0.000000,  0.000000,  1.224105)
  97 Ni ( 0.000000,  0.000000,  0.232183)
  98 Ni ( 0.000000,  0.000000,  0.408765)
  99 Co ( 0.000000,  0.000000,  1.529375)
 100 Co ( 0.000000,  0.000000,  1.562789)
 101 Ni ( 0.000000,  0.000000,  0.425632)
 102 Fe ( 0.000000,  0.000000,  2.316900)
 103 Co ( 0.000000,  0.000000,  1.437958)
 104 Co ( 0.000000,  0.000000,  1.249889)
 105 Ni ( 0.000000,  0.000000,  0.331652)
 106 Fe ( 0.000000,  0.000000,  2.023581)
 107 Fe ( 0.000000,  0.000000,  2.159839)

Energy contributions relative to reference atoms: (reference = -3548577.034362)

Kinetic:       +167.716339
Potential:     -203.669676
External:        +0.000000
XC:            -851.199612
Entropy (-ST):   -4.390089
Local:          +36.110802
Free energy:   -855.432235
Extrapolated:  -853.237191

Spin contamination: 27.363993 electrons
Showing only first 2 kpts
                      Up                     Down
 Kpt  Band  Eigenvalues  Occupancy  Eigenvalues  Occupancy
  0   488      9.48961    0.99414     10.36907    0.02506
  0   489      9.50142    0.99341     10.37958    0.02262
  0   490      9.51820    0.99221     10.38741    0.02095
  0   491      9.52409    0.99175     10.39677    0.01911

  1   488      9.48787    0.99424     10.36744    0.02546
  1   489      9.50103    0.99343     10.38065    0.02238
  1   490      9.53128    0.99114     10.38585    0.02127
  1   491      9.54120    0.99022     10.39776    0.01893

Fermi level: 10.00297

No gap

Forces in eV/Ang:
  0 Co    0.15794   -0.52307   -0.03071
  1 Ni    0.22437    0.12357   -0.00868
  2 Al   -0.30607   -0.17883    0.63706
  3 Cr   -0.38098    0.04849   -0.62938
  4 Cr    0.55324    0.27337   -0.42571
  5 Fe    0.17270   -0.05115   -0.03155
  6 Fe   -0.04160    0.19351    0.15611
  7 Fe   -0.37194    0.26121    0.09563
  8 Cr   -0.55614   -0.38318   -0.07925
  9 Fe    0.08229   -0.17540   -0.13507
 10 Fe   -0.09970    0.29691   -0.12720
 11 Al    0.58586   -0.23811   -0.23487
 12 Co    0.01916   -0.26612   -0.10783
 13 Fe   -0.10032    0.24524    0.24282
 14 Al   -0.00007   -0.09498   -0.09715
 15 Al   -0.53447   -0.07939   -0.21783
 16 Cr   -0.39984   -0.45510    0.11824
 17 Cr    0.48334    0.00949   -0.03043
 18 Al    0.10406   -0.31551   -0.00167
 19 Co    0.03629   -0.17365    0.23182
 20 Co   -0.09182   -0.08567   -0.07177
 21 Cr   -0.21817    0.71192   -0.11253
 22 Cr    0.01654    0.54890    0.36507
 23 Cr    0.33261    0.25727   -0.29861
 24 Fe   -0.08915    0.22803   -0.15335
 25 Al    0.31469    0.04881    0.96543
 26 Ni   -0.07321   -0.11682   -0.10017
 27 Cr   -0.14316   -0.12060   -0.62309
 28 Fe   -0.17659    0.24036    0.09375
 29 Ni   -0.07619    0.12379   -0.14618
 30 Co    0.13083   -0.02849   -0.05207
 31 Fe   -0.05835    0.40347    0.28585
 32 Fe    0.17530    0.04417    0.33616
 33 Cr   -0.03705   -0.37725    0.41482
 34 Fe   -0.22588   -0.42567   -0.30171
 35 Cr   -0.20276   -0.50440   -0.05331
 36 Ni    0.05700   -0.16354   -0.08186
 37 Ni    0.09904   -0.35265   -0.07312
 38 Co    0.21598   -0.18206   -0.04579
 39 Ni   -0.12810    0.06653   -0.29313
 40 Co    0.13841    0.03842    0.41495
 41 Ni   -0.10295   -0.00192   -0.09718
 42 Co    0.07453   -0.07241   -0.02233
 43 Ni    0.05416    0.07582    0.02176
 44 Cr   -0.33285    0.02032   -0.59893
 45 Co   -0.07344    0.05207    0.04131
 46 Al    0.55872    0.51643    0.27266
 47 Ni    0.03547   -0.04672    0.15877
 48 Cr   -0.61817   -0.07608    0.60590
 49 Fe    0.17066    0.32067   -0.18427
 50 Fe    0.01247   -0.01950   -0.20512
 51 Ni    0.20125   -0.11269   -0.32067
 52 Ni    0.07490    0.09044   -0.38440
 53 Ni    0.11555   -0.01956    0.03692
 54 Co    0.23999    0.07339    0.08072
 55 Cr   -0.11541    0.35392    0.26735
 56 Cr    0.28913   -0.15182    0.59603
 57 Co   -0.24149    0.25071   -0.09555
 58 Cr   -0.14398   -0.30683   -0.27386
 59 Fe   -0.09609    0.00452   -0.02242
[...]
 93 Ni   -0.09503   -0.10036    0.13901
 94 Cr    0.25508    0.26719   -0.11350
 95 Cr   -0.13744    0.29003    0.30182
 96 Co    0.03049    0.10475    0.11894
 97 Ni   -0.07615    0.34599   -0.13944
 98 Ni   -0.07999   -0.14982    0.10885
 99 Co    0.04373   -0.12284   -0.06884
100 Co   -0.02319    0.18795   -0.09922
101 Ni   -0.35350   -0.01559    0.11922
102 Fe    0.28061   -0.03978   -0.11616
103 Co    0.17522    0.20919   -0.25961
104 Co   -0.08064   -0.11063   -0.09370
105 Ni    0.17443    0.32853    0.16009
106 Fe    0.10365   -0.16587    0.12071
107 Fe   -0.01809   -0.31922   -0.19806

Date: Sat Apr  8 16:43:48 2023