User:   c.zeng@d0076
Date:   Fri Apr 14 00:50:33 2023
Arch:   x86_64
Pid:    65670
CWD:    /home/c.zeng/projects/hea-corrosion/hea-mlp/data-curation/bulk-md/dft-jobs/70
Python: 3.8.1
gpaw:   /home/c.zeng/usr/installs/gpaw/source/gpaw-22.8.0/gpaw
_gpaw:  /home/c.zeng/usr/installs/gpaw/source/gpaw-22.8.0/
        _gpaw.cpython-38-x86_64-linux-gnu.so
ase:    /home/c.zeng/.local/lib/python3.8/site-packages/ase-3.22.1-py3.8.egg/ase (version 3.22.1)
numpy:  /shared/centos7/python/3.8.1/lib/python3.8/site-packages/numpy (version 1.17.4)
scipy:  /shared/centos7/python/3.8.1/lib/python3.8/site-packages/scipy (version 1.4.1)
units:  Angstrom and eV
cores: 30
OpenMP: False
OMP_NUM_THREADS: 1

Input parameters:
  convergence: {energy: 0.0001}
  kpts: [2 2 2]
  maxiter: 666
  mode: {ecut: 350.0,
         name: pw}
  occupations: {fixmagmom: False,
                name: fermi-dirac,
                width: 0.1}
  spinpol: True
  xc: PBE

System changes: positions, numbers, cell, pbc, initial_charges, initial_magmoms

Initialize ...

species:
  Fe:
    name: Iron
    id: 37abbd8d6c3c35915a9b583b742da910
    Z: 26.0
    valence: 8
    core: 18
    charge: 0.0
    file: /home/c.zeng/usr/data/gpaw-setups-0.9.20000/Fe.PBE.gz
    compensation charges: {type: gauss,
                           rc: 0.33,
                           lmax: 2}
    cutoffs: {filter: 2.06,
              core: 2.67}
    valence states:
      #              energy  rcut
      - 4s(2.00)    -5.291   1.164
      - 4p(0.00)    -1.326   1.058
      - 3d(6.00)    -7.505   1.058
      -  s          21.920   1.164
      -  p          25.885   1.058
      -  d          19.706   1.058

    # Using partial waves for Fe as LCAO basis

  Cr:
    name: Chromium
    id: 33f258bda2ca9f93018e70263a35547b
    Z: 24.0
    valence: 6
    core: 18
    charge: 0.0
    file: /home/c.zeng/usr/data/gpaw-setups-0.9.20000/Cr.PBE.gz
    compensation charges: {type: gauss,
                           rc: 0.35,
                           lmax: 2}
    cutoffs: {filter: 2.14,
              core: 3.04}
    valence states:
      #              energy  rcut
      - 4s(1.00)    -4.007   1.164
      - 4p(0.00)    -0.989   1.217
      - 3d(5.00)    -2.913   1.111
      -  s          23.205   1.164
      -  p          26.223   1.217
      -  d          24.299   1.111

[...]

  Ni:
    name: Nickel
    id: 0d9f38a9d6e76a2886f07bb4381f212b
    Z: 28.0
    valence: 16
    core: 12
    charge: 0.0
    file: /home/c.zeng/usr/data/gpaw-setups-0.9.20000/Ni.PBE.gz
    compensation charges: {type: gauss,
                           rc: 0.36,
                           lmax: 2}
    cutoffs: {filter: 2.14,
              core: 1.98}
    valence states:
      #              energy  rcut
      - 4s(2.00)    -5.642   1.164
      - 3p(6.00)   -71.394   1.207
      - 4p(0.00)    -1.226   1.207
      - 3d(8.00)    -8.875   1.138
      -  s          21.570   1.164
      -  d          18.337   1.138

[...]

  Al:
    name: Aluminium
    id: 0292cae29f5d6237e50f6abdd43a7bdd
    Z: 13.0
    valence: 3
    core: 10
    charge: 0.0
    file: /home/c.zeng/usr/data/gpaw-setups-0.9.20000/Al.PBE.gz
    compensation charges: {type: gauss,
                           rc: 0.34,
                           lmax: 2}
    cutoffs: {filter: 1.91,
              core: 2.36}
    valence states:
      #              energy  rcut
      - 3s(2.00)    -7.753   1.085
      - 3p(1.00)    -2.712   1.085
      -  s          19.459   1.085
      -  p          24.499   1.085
      -  d           0.000   1.085

[...]

  Co:
    name: Cobalt
    id: 339d20d5b0b93d2de9531a1bee871d91
    Z: 27.0
    valence: 9
    core: 18
    charge: 0.0
    file: /home/c.zeng/usr/data/gpaw-setups-0.9.20000/Co.PBE.gz
    compensation charges: {type: gauss,
                           rc: 0.32,
                           lmax: 2}
    cutoffs: {filter: 1.87,
              core: 2.55}
    valence states:
      #              energy  rcut
      - 4s(2.00)    -5.469   1.005
      - 4p(0.00)    -1.277   1.058
      - 3d(7.00)    -8.205   1.005
      -  s          21.742   1.005
      -  p          25.934   1.058
      -  d          19.007   1.005

    # Using partial waves for Co as LCAO basis

Reference energy: -3382523.201499  # eV

Spin-polarized calculation.
Magnetic moment: 128.800000

Convergence criteria:
 Maximum [total energy] change in last 3 cyles: 0.0001 eV / electron
 Maximum integral of absolute [dens]ity change: 0.0001 electrons / valence electron
 Maximum integral of absolute [eigenst]ate change: 4e-08 eV^2 / valence electron
 Maximum number of scf [iter]ations: 666
 (Square brackets indicate name in SCF output, whereas a 'c' in
 the SCF output indicates the quantity has converged.)

Symmetries present (total): 1

  ( 1  0  0)
  ( 0  1  0)
  ( 0  0  1)

8 k-points: 2 x 2 x 2 Monkhorst-Pack grid
4 k-points in the irreducible part of the Brillouin zone
       k-points in crystal coordinates                weights
   0:     0.25000000   -0.25000000   -0.25000000          2/8
   1:     0.25000000   -0.25000000    0.25000000          2/8
   2:     0.25000000    0.25000000   -0.25000000          2/8
   3:     0.25000000    0.25000000    0.25000000          2/8

Wave functions: Plane wave expansion
  Cutoff energy: 350.000 eV
  Number of coefficients (min, max): 18865, 18865
  Pulay-stress correction: 0.000000 eV/Ang^3 (de/decut=0.000000)
  Using FFTW library
  ScaLapack parameters: grid=1x1, blocksize=None
  Wavefunction extrapolation:
    Improved wavefunction reuse through dual PAW basis

Occupation numbers: Fermi-Dirac:
  width: 0.1000  # eV

Eigensolver
   Davidson(niter=2)

Densities:
  Coarse grid: 48*48*48 grid
  Fine grid: 96*96*96 grid
  Total Charge: 0.000000

Density mixing:
  Method: difference
  Backend: pulay
  Linear mixing parameter: 0.05
  old densities: 5
  Damping of long wavelength oscillations: 50

Hamiltonian:
  XC and Coulomb potentials evaluated on a 96*96*96 grid
  Using the PBE Exchange-Correlation functional
  External potential:
    NoExternalPotential

XC parameters: PBE with 2 nearest neighbor stencil

Total number of cores used: 30
Parallelization over k-points: 2
Domain decomposition: 5 x 3 x 1

Number of atoms: 108
Number of atomic orbitals: 961
Number of bands in calculation: 649
Number of valence electrons: 945
Bands to converge: occupied

... initialized

Initializing position-dependent things.

Density initialized from atomic densities
Creating initial wave functions:
  649 bands from LCAO basis set

      / |    Co       Cr      NiNi |
     /  |       Al       Ni        |
    /  Fe  Co    FFer     CAlo     |
   /    |     Fe      Crr    Ni    |
  /  FeCr   Nio Al  Co  Co   Fe    |
 *      Co     CrNi   FAl Fe    Ni |
 |Co    | CrFe CrCo Al   Fe Cr    Co
 |  Ni  NiAlNi     Al Al  CrCrr    |
 |     Co  NiFeFe   NiNi Ni    Cr  |
 |      |     Al Fe     Al CFe   Fe|
 | Co  CoAlAl   CFe      Cr Co    Cr
 |      Fe--Al---AlFeCo---AlCoNi---.
 |     / CrAl CNi    Fe Coi  Ni   /
 |    Cr       CrCo   Fei      Cr/
 |   / FeCFe        Co    Co    /
 |  /      Feo          Ni   Cr/
 | / Ni       Ni              /

Positions:
   0 Fe    10.834140   10.758788   10.841983    ( 0.0000,  0.0000,  2.0000)
   1 Cr    10.675200    1.921493    1.459862    ( 0.0000,  0.0000,  0.0000)
   2 Ni     1.695170    0.005157    1.859718    ( 0.0000,  0.0000,  1.5000)
   3 Cr     1.747849    1.806892   10.741628    ( 0.0000,  0.0000,  0.0000)
   4 Al     3.813093   -0.281859    0.135127    ( 0.0000,  0.0000,  0.0000)
   5 Fe     3.537248    1.727231    1.807472    ( 0.0000,  0.0000,  2.0000)
   6 Ni     5.339961   10.830683    1.926304    ( 0.0000,  0.0000,  1.5000)
   7 Al     5.648729    2.167412   -0.052017    ( 0.0000,  0.0000,  0.0000)
   8 Al     7.129195   10.466898    0.094597    ( 0.0000,  0.0000,  0.0000)
   9 Co     7.091609    1.748202    2.224534    ( 0.0000,  0.0000,  2.1000)
  10 Ni     9.215995    0.272168    2.005437    ( 0.0000,  0.0000,  1.5000)
  11 Co     8.754355    1.622814   -0.101848    ( 0.0000,  0.0000,  2.1000)
  12 Ni    -0.369046    3.596293   10.783931    ( 0.0000,  0.0000,  1.5000)
  13 Cr    10.633950    5.397981    1.418832    ( 0.0000,  0.0000,  0.0000)
  14 Fe     1.584882    3.624700    1.630927    ( 0.0000,  0.0000,  2.0000)
  15 Cr     1.860881    5.352730   10.897260    ( 0.0000,  0.0000,  0.0000)
  16 Co     3.525963    3.577254   11.046352    ( 0.0000,  0.0000,  2.1000)
  17 Cr     3.709412    5.221506    1.835766    ( 0.0000,  0.0000,  0.0000)
  18 Co     5.589190    3.583329    1.905993    ( 0.0000,  0.0000,  2.1000)
  19 Fe     5.634458    5.261196   -0.018734    ( 0.0000,  0.0000,  2.0000)
  20 Cr     7.279961    3.802385   -0.237146    ( 0.0000,  0.0000,  0.0000)
  21 Fe     7.263373    5.142829    1.760481    ( 0.0000,  0.0000,  2.0000)
  22 Co     9.015638    3.452195    1.828442    ( 0.0000,  0.0000,  2.1000)
  23 Al     9.054885    5.467189   10.634446    ( 0.0000,  0.0000,  0.0000)
  24 Ni    10.701755    7.410658   10.796322    ( 0.0000,  0.0000,  1.5000)
  25 Cr    10.650793    9.160871    1.997155    ( 0.0000,  0.0000,  0.0000)
  26 Cr     1.498945    6.991281    1.641191    ( 0.0000,  0.0000,  0.0000)
  27 Al     1.743558    8.895294    0.156160    ( 0.0000,  0.0000,  0.0000)
  28 Cr     3.807278    7.300309    0.364648    ( 0.0000,  0.0000,  0.0000)
  29 Cr     3.530768    9.158933    1.836989    ( 0.0000,  0.0000,  0.0000)
  30 Fe     5.567149    6.996558    1.978298    ( 0.0000,  0.0000,  2.0000)
  31 Fe     5.537096    8.803495    0.293093    ( 0.0000,  0.0000,  2.0000)
  32 Ni     7.075276    7.157945    0.115248    ( 0.0000,  0.0000,  1.5000)
  33 Cr     7.427933    9.058910    1.836739    ( 0.0000,  0.0000,  0.0000)
  34 Co     8.874779    7.207490    1.754334    ( 0.0000,  0.0000,  2.1000)
  35 Ni     9.016912    9.193745   10.870478    ( 0.0000,  0.0000,  1.5000)
  36 Ni     0.018958   10.811353    3.644317    ( 0.0000,  0.0000,  1.5000)
  37 Co    11.007780    1.667474    5.475809    ( 0.0000,  0.0000,  2.1000)
  38 Co     2.017428   10.734454    5.470762    ( 0.0000,  0.0000,  2.1000)
  39 Cr     1.649357    1.774861    3.380985    ( 0.0000,  0.0000,  0.0000)
  40 Fe     3.432424   10.839012    3.475359    ( 0.0000,  0.0000,  2.0000)
  41 Al     3.632629    1.757073    5.622099    ( 0.0000,  0.0000,  0.0000)
  42 Fe     5.467738   10.773395    5.423181    ( 0.0000,  0.0000,  2.0000)
  43 Ni     5.150851    1.515280    3.802053    ( 0.0000,  0.0000,  1.5000)
  44 Cr     7.187600   -0.119205    3.443787    ( 0.0000,  0.0000,  0.0000)
  45 Co     7.439973    1.485337    5.322341    ( 0.0000,  0.0000,  2.1000)
  46 Co     9.217819   10.929025    5.211585    ( 0.0000,  0.0000,  2.1000)
  47 Ni     9.065654    1.914562    3.642230    ( 0.0000,  0.0000,  1.5000)
  48 Ni    10.787123    3.636008    3.678447    ( 0.0000,  0.0000,  1.5000)
  49 Cr    10.722338    5.520484    5.369413    ( 0.0000,  0.0000,  0.0000)
  50 Co     1.698238    3.300317    5.228147    ( 0.0000,  0.0000,  2.1000)
  51 Al     1.604608    5.530065    3.330422    ( 0.0000,  0.0000,  0.0000)
  52 Al     3.654638    3.468580    3.762953    ( 0.0000,  0.0000,  0.0000)
  53 Fe     3.406646    5.281870    5.276450    ( 0.0000,  0.0000,  2.0000)
  54 Fe     5.468339    3.429014    5.505816    ( 0.0000,  0.0000,  2.0000)
  55 Fe     5.174838    5.246420    3.679654    ( 0.0000,  0.0000,  2.0000)
  56 Ni     7.222342    3.452558    3.882132    ( 0.0000,  0.0000,  1.5000)
  57 Ni     7.146231    5.645822    5.322434    ( 0.0000,  0.0000,  1.5000)
  58 Co     9.274736    3.646698    5.266021    ( 0.0000,  0.0000,  2.1000)
  59 Co     9.238314    5.462779    3.481924    ( 0.0000,  0.0000,  2.1000)
[...]
  93 Cr     7.282247    5.722020    9.074023    ( 0.0000,  0.0000,  0.0000)
  94 Fe     9.235150    3.550418    8.954777    ( 0.0000,  0.0000,  2.0000)
  95 Cr     9.258389    5.348566    7.109206    ( 0.0000,  0.0000,  0.0000)
  96 Ni    10.717626    7.184820    7.151571    ( 0.0000,  0.0000,  1.5000)
  97 Fe    10.891195    8.957203    8.897738    ( 0.0000,  0.0000,  2.0000)
  98 Co     1.932486    7.245818    9.052068    ( 0.0000,  0.0000,  2.1000)
  99 Ni     1.931490    9.105298    7.149561    ( 0.0000,  0.0000,  1.5000)
 100 Cr     3.563144    7.591129    7.037879    ( 0.0000,  0.0000,  0.0000)
 101 Al     3.633391    8.848180    9.050283    ( 0.0000,  0.0000,  0.0000)
 102 Cr     5.423593    7.349669    9.178255    ( 0.0000,  0.0000,  0.0000)
 103 Co     5.459913    8.872279    7.154182    ( 0.0000,  0.0000,  2.1000)
 104 Al     7.121366    7.177890    7.274366    ( 0.0000,  0.0000,  0.0000)
 105 Ni     7.217240    9.021341    9.006857    ( 0.0000,  0.0000,  1.5000)
 106 Co     9.039450    7.547507    8.922016    ( 0.0000,  0.0000,  2.1000)
 107 Fe     8.969236    8.870179    7.011849    ( 0.0000,  0.0000,  2.0000)

Unit cell:
           periodic     x           y           z      points  spacing
  1. axis:    yes   10.820500    0.000000    0.000000    48     0.2254
  2. axis:    yes    0.000000   10.820500    0.000000    48     0.2254
  3. axis:    yes    0.000000    0.000000   10.820500    48     0.2254

  Lengths:  10.820500  10.820500  10.820500
  Angles:   90.000000  90.000000  90.000000

Effective grid spacing dv^(1/3) = 0.2254

     iter     time        total  log10-change:  magmom
                         energy  eigst   dens
iter:   1 00:55:40  -962.467922                  +129.0867
iter:   2 00:57:56  -862.599400  -0.24  -1.19    +73.1695
iter:   3 01:00:15  -851.237440  -0.87  -1.20    +63.8616
iter:   4 01:02:35  -831.959543  -1.27  -1.27    +59.7716
iter:   5 01:04:54  -823.551605  -1.55  -1.30    +57.7718
iter:   6 01:07:14  -824.473813  -1.34  -1.35    +58.7643
iter:   7 01:09:34  -817.218947  -1.24  -1.40    +57.9323
iter:   8 01:11:54  -808.991090  -1.64  -1.52    +57.2997
iter:   9 01:14:14  -808.159715  -1.98  -1.67    +59.6010
iter:  10 01:16:33  -806.688507  -2.37  -1.72    +60.8555
iter:  11 01:18:53  -807.019145  -2.49  -1.80    +63.0113
iter:  12 01:21:12  -808.723608  -2.28  -1.85    +64.5495
iter:  13 01:23:29  -807.417358  -2.47  -1.86    +65.1275
iter:  14 01:25:45  -807.820090  -2.58  -1.97    +66.0764
iter:  15 01:28:05  -807.577128  -2.76  -1.98    +67.0629
iter:  16 01:30:25  -807.398403  -3.01  -2.04    +67.8090
iter:  17 01:32:45  -807.374857  -3.06  -2.09    +68.3377
iter:  18 01:35:05  -807.527627  -3.09  -2.18    +68.9391
iter:  19 01:37:25  -807.339877  -3.15  -2.19    +69.3390
iter:  20 01:39:45  -807.385335  -3.29  -2.30    +69.5863
iter:  21 01:42:05  -807.466757  -3.22  -2.36    +69.9739
iter:  22 01:44:21  -807.367232  -3.45  -2.35    +70.1968
iter:  23 01:46:36  -807.350296  -3.43  -2.43    +70.2829
iter:  24 01:48:56  -807.357793c -3.71  -2.50    +70.4438
iter:  25 01:51:16  -807.381643c -3.82  -2.54    +70.6298
iter:  26 01:53:36  -807.388273c -3.75  -2.55    +70.7297
iter:  27 01:55:56  -807.414873c -4.01  -2.60    +70.8793
iter:  28 01:58:16  -807.409695c -3.93  -2.61    +71.0319
iter:  29 02:00:35  -807.427036c -4.14  -2.67    +71.1860
iter:  30 02:02:55  -807.456299c -4.06  -2.71    +71.3700
iter:  31 02:05:15  -807.447514c -4.26  -2.73    +71.4701
iter:  32 02:07:36  -807.469022c -4.32  -2.79    +71.6677
iter:  33 02:09:56  -807.495822c -4.24  -2.83    +71.8165
iter:  34 02:12:15  -807.489010c -4.51  -2.83    +71.8529
iter:  35 02:14:34  -807.505797c -4.51  -2.91    +72.0307
iter:  36 02:16:54  -807.521717c -4.47  -2.94    +72.0688
iter:  37 02:19:11  -807.526196c -4.70  -2.96    +72.1870
iter:  38 02:21:29  -807.540496c -4.58  -3.01    +72.2893
iter:  39 02:23:49  -807.554143c -4.56  -3.03    +72.3838
iter:  40 02:26:08  -807.552538c -4.70  -3.03    +72.3953
iter:  41 02:28:28  -807.558636c -4.79  -3.10    +72.5032
iter:  42 02:30:48  -807.563729c -4.92  -3.14    +72.5231
iter:  43 02:33:08  -807.568711c -4.86  -3.17    +72.5999
iter:  44 02:35:27  -807.572871c -4.95  -3.20    +72.6323
iter:  45 02:37:47  -807.576499c -4.96  -3.25    +72.6783
iter:  46 02:40:07  -807.576729c -5.20  -3.25    +72.6864
iter:  47 02:42:27  -807.579273c -5.25  -3.31    +72.7310
iter:  48 02:44:44  -807.582609c -5.24  -3.36    +72.7522
iter:  49 02:47:03  -807.584436c -5.37  -3.38    +72.8020
iter:  50 02:49:23  -807.586884c -5.35  -3.42    +72.8106
iter:  51 02:51:43  -807.589376c -5.34  -3.44    +72.8596
iter:  52 02:54:02  -807.590103c -5.59  -3.46    +72.8674
iter:  53 02:56:22  -807.591439c -5.59  -3.49    +72.8978
iter:  54 02:58:42  -807.592769c -5.59  -3.53    +72.9053
iter:  55 03:01:02  -807.594192c -5.64  -3.55    +72.9491
iter:  56 03:03:21  -807.595554c -5.65  -3.59    +72.9507
iter:  57 03:05:40  -807.596563c -5.69  -3.61    +72.9789
iter:  58 03:07:59  -807.598034c -5.71  -3.65    +72.9942
iter:  59 03:10:17  -807.598623c -5.80  -3.66    +73.0085
iter:  60 03:12:34  -807.598924c -5.92  -3.72    +73.0039
iter:  61 03:14:55  -807.599661c -6.05  -3.76    +73.0264
iter:  62 03:17:15  -807.600006c -6.16  -3.79    +73.0255
iter:  63 03:19:35  -807.600513c -6.21  -3.83    +73.0367
iter:  64 03:21:54  -807.601159c -6.09  -3.87    +73.0428
iter:  65 03:24:14  -807.601357c -6.34  -3.87    +73.0483
iter:  66 03:26:33  -807.601565c -6.37  -3.92    +73.0455
iter:  67 03:28:54  -807.601837c -6.57  -3.97    +73.0585
iter:  68 03:31:14  -807.602116c -6.64  -3.99    +73.0617
iter:  69 03:33:33  -807.602420c -6.50  -4.02c   +73.0660
iter:  70 03:35:51  -807.602631c -6.56  -4.02c   +73.0730
iter:  71 03:38:07  -807.602835c -6.73  -4.06c   +73.0748
iter:  72 03:40:26  -807.603082c -6.60  -4.09c   +73.0777
iter:  73 03:42:46  -807.603146c -6.83  -4.10c   +73.0852
iter:  74 03:45:07  -807.603306c -6.77  -4.13c   +73.0848
iter:  75 03:47:27  -807.603370c -6.93  -4.16c   +73.0853
iter:  76 03:49:46  -807.603498c -7.00  -4.22c   +73.0887
iter:  77 03:52:05  -807.603655c -6.96  -4.24c   +73.0918
iter:  78 03:54:25  -807.603805c -6.97  -4.27c   +73.0964
iter:  79 03:56:42  -807.603882c -6.97  -4.31c   +73.0989
iter:  80 03:58:56  -807.603956c -7.17  -4.32c   +73.0976
iter:  81 04:01:16  -807.604060c -7.24  -4.38c   +73.1009
iter:  82 04:03:36  -807.604131c -7.34  -4.43c   +73.1019
iter:  83 04:05:55  -807.604222c -7.22  -4.45c   +73.1041
iter:  84 04:08:15  -807.604372c -7.11  -4.49c   +73.1073
iter:  85 04:10:34  -807.604520c -6.99  -4.50c   +73.1127
iter:  86 04:12:54  -807.604647c -7.01  -4.51c   +73.1144
iter:  87 04:15:14  -807.605442c -5.66  -4.48c   +73.1279
iter:  88 04:17:31  -807.605486c -6.66  -4.25c   +73.1344
iter:  89 04:19:46  -807.605553c -7.15  -4.23c   +73.1427
iter:  90 04:22:06  -807.605612c -7.43c -4.21c   +73.1485

Converged after 90 iterations.

Dipole moment: (17.062232, 46.194283, -29.263539) |e|*Ang

Total magnetic moment: (0.000000, 0.000000, 73.148493)
Local magnetic moments:
   0 Fe ( 0.000000,  0.000000,  2.241211)
   1 Cr ( 0.000000,  0.000000,  0.672944)
   2 Ni ( 0.000000,  0.000000,  0.109588)
   3 Cr ( 0.000000,  0.000000, -1.679727)
   4 Al ( 0.000000,  0.000000, -0.009422)
   5 Fe ( 0.000000,  0.000000,  2.297072)
   6 Ni ( 0.000000,  0.000000,  0.260184)
   7 Al ( 0.000000,  0.000000, -0.032422)
   8 Al ( 0.000000,  0.000000, -0.009616)
   9 Co ( 0.000000,  0.000000,  1.409737)
  10 Ni ( 0.000000,  0.000000,  0.128235)
  11 Co ( 0.000000,  0.000000,  1.323678)
  12 Ni ( 0.000000,  0.000000,  0.268466)
  13 Cr ( 0.000000,  0.000000,  0.556104)
  14 Fe ( 0.000000,  0.000000,  1.382134)
  15 Cr ( 0.000000,  0.000000, -1.010618)
  16 Co ( 0.000000,  0.000000,  0.682978)
  17 Cr ( 0.000000,  0.000000,  0.665718)
  18 Co ( 0.000000,  0.000000,  1.198172)
  19 Fe ( 0.000000,  0.000000,  1.444332)
  20 Cr ( 0.000000,  0.000000, -1.472171)
  21 Fe ( 0.000000,  0.000000,  2.397112)
  22 Co ( 0.000000,  0.000000,  1.150128)
  23 Al ( 0.000000,  0.000000, -0.018139)
  24 Ni ( 0.000000,  0.000000,  0.281646)
  25 Cr ( 0.000000,  0.000000, -1.134865)
  26 Cr ( 0.000000,  0.000000,  0.331926)
  27 Al ( 0.000000,  0.000000, -0.021572)
  28 Cr ( 0.000000,  0.000000, -0.637003)
  29 Cr ( 0.000000,  0.000000,  0.882683)
  30 Fe ( 0.000000,  0.000000,  1.962450)
  31 Fe ( 0.000000,  0.000000,  0.897958)
  32 Ni ( 0.000000,  0.000000,  0.308438)
  33 Cr ( 0.000000,  0.000000,  0.707302)
  34 Co ( 0.000000,  0.000000,  1.080593)
  35 Ni ( 0.000000,  0.000000,  0.321463)
  36 Ni ( 0.000000,  0.000000,  0.277925)
  37 Co ( 0.000000,  0.000000,  1.517583)
  38 Co ( 0.000000,  0.000000,  1.137559)
  39 Cr ( 0.000000,  0.000000, -1.789940)
  40 Fe ( 0.000000,  0.000000,  1.848313)
  41 Al ( 0.000000,  0.000000, -0.043604)
  42 Fe ( 0.000000,  0.000000,  2.439927)
  43 Ni ( 0.000000,  0.000000,  0.425495)
  44 Cr ( 0.000000,  0.000000, -0.592018)
  45 Co ( 0.000000,  0.000000,  1.658191)
  46 Co ( 0.000000,  0.000000,  1.225179)
  47 Ni ( 0.000000,  0.000000,  0.509378)
  48 Ni ( 0.000000,  0.000000,  0.336533)
  49 Cr ( 0.000000,  0.000000,  1.091496)
  50 Co ( 0.000000,  0.000000,  0.961307)
  51 Al ( 0.000000,  0.000000, -0.023153)
  52 Al ( 0.000000,  0.000000, -0.042226)
  53 Fe ( 0.000000,  0.000000,  1.976915)
  54 Fe ( 0.000000,  0.000000,  2.271652)
  55 Fe ( 0.000000,  0.000000,  1.927547)
  56 Ni ( 0.000000,  0.000000,  0.642790)
  57 Ni ( 0.000000,  0.000000,  0.041026)
  58 Co ( 0.000000,  0.000000,  1.241744)
  59 Co ( 0.000000,  0.000000,  0.938776)
[...]
  93 Cr ( 0.000000,  0.000000,  1.487944)
  94 Fe ( 0.000000,  0.000000,  2.034803)
  95 Cr ( 0.000000,  0.000000, -1.485978)
  96 Ni ( 0.000000,  0.000000,  0.227546)
  97 Fe ( 0.000000,  0.000000,  2.654696)
  98 Co ( 0.000000,  0.000000,  0.829750)
  99 Ni ( 0.000000,  0.000000,  0.380517)
 100 Cr ( 0.000000,  0.000000,  1.471506)
 101 Al ( 0.000000,  0.000000, -0.014505)
 102 Cr ( 0.000000,  0.000000, -1.395428)
 103 Co ( 0.000000,  0.000000,  0.617634)
 104 Al ( 0.000000,  0.000000, -0.012393)
 105 Ni ( 0.000000,  0.000000,  0.297665)
 106 Co ( 0.000000,  0.000000,  1.220887)
 107 Fe ( 0.000000,  0.000000,  2.043099)

Energy contributions relative to reference atoms: (reference = -3382523.201499)

Kinetic:       +460.314452
Potential:     -421.374452
External:        +0.000000
XC:            -877.397885
Entropy (-ST):   -4.176924
Local:          +32.940736
Free energy:   -809.694074
Extrapolated:  -807.605612

Spin contamination: 20.252409 electrons
Showing only first 2 kpts
                      Up                     Down
 Kpt  Band  Eigenvalues  Occupancy  Eigenvalues  Occupancy
  0   470      9.08548    0.99820     10.16090    0.01169
  0   471      9.09606    0.99800     10.16670    0.01104
  0   472      9.10126    0.99789     10.18404    0.00930
  0   473      9.11220    0.99765     10.20302    0.00771

  1   470      9.09088    0.99810     10.15739    0.01211
  1   471      9.10175    0.99788     10.17666    0.01001
  1   472      9.11588    0.99756     10.19334    0.00848
  1   473      9.12570    0.99731     10.20126    0.00784

Fermi level: 9.71722

No gap

Forces in eV/Ang:
  0 Fe   -0.47309    0.46282   -0.98629
  1 Cr    1.07354   -0.72146    1.32019
  2 Ni   -0.25030   -0.24694   -1.38100
  3 Cr    0.21112   -0.09693    0.45471
  4 Al   -0.61692    3.28141   -2.06113
  5 Fe    0.10813    0.88414   -0.46553
  6 Ni    0.59096    0.51865   -0.88651
  7 Al   -1.19902   -2.60909    1.54235
  8 Al    0.89148    3.65528   -0.20956
  9 Co    0.69315    0.56384   -1.61385
 10 Ni   -1.68542   -1.43320   -1.49671
 11 Co    0.11149    0.35552    0.01378
 12 Ni    1.85701   -0.84940   -0.03414
 13 Cr    1.13917    0.19529    3.51944
 14 Fe    0.61603   -0.50631    0.60012
 15 Cr   -0.20180    0.82007   -0.35734
 16 Co    0.79937    0.06513   -0.72166
 17 Cr   -0.35713    0.56252   -0.96377
 18 Co   -0.91030   -0.43217    0.35262
 19 Fe   -1.75167    1.02852    1.44642
 20 Cr    2.86624   -0.07579    1.51057
 21 Fe    0.65383    1.01800    1.05073
 22 Co   -0.98709    0.41680    0.09503
 23 Al   -1.20449    1.70228   -0.28084
 24 Ni   -0.31841   -0.33471   -0.41747
 25 Cr   -0.89417   -1.07757   -1.38145
 26 Cr    0.55740    1.48767   -0.44964
 27 Al   -0.71929    0.86545   -1.02124
 28 Cr   -0.85644   -1.09845    0.58031
 29 Cr    0.11444   -2.93688    2.30079
 30 Fe   -0.50393    0.06837   -0.10907
 31 Fe   -0.99966    0.71928   -0.44167
 32 Ni    1.69759    0.22693   -0.03696
 33 Cr   -0.19456   -1.17838    1.92318
 34 Co    0.88234    0.22186    0.14691
 35 Ni    0.55953   -0.99903   -0.21393
 36 Ni    1.11981    0.64971    0.09066
 37 Co   -0.59549    0.48127   -0.59808
 38 Co   -1.66936    1.07680   -0.89248
 39 Cr    0.00232    0.57266    0.44796
 40 Fe   -0.01354   -0.47296    0.96917
 41 Al   -1.47566   -0.41702   -0.42562
 42 Fe   -0.01493   -0.89063    0.53024
 43 Ni    1.44762    1.60161   -1.04591
 44 Cr    0.08568    0.12011    0.67402
 45 Co   -1.56226    0.93824    0.83551
 46 Co   -1.05582   -0.20410    1.81583
 47 Ni    0.64444   -0.26517    0.04750
 48 Ni    1.10147   -0.25263   -2.04886
 49 Cr    0.13425   -1.05166    0.06307
 50 Co    1.34898    1.70652    0.98984
 51 Al   -1.31298   -3.37313    1.96789
 52 Al   -0.69056   -0.78835   -1.70365
 53 Fe   -1.03632    0.40418   -0.06495
 54 Fe   -0.50935    0.26681   -0.22028
 55 Fe    2.38141    0.12040   -0.37204
 56 Ni   -0.05739    0.95212   -0.38399
 57 Ni    0.08655   -1.87607    0.16696
 58 Co   -1.30400    0.06533    1.73941
 59 Co   -0.67010   -0.17447    0.15582
[...]
 93 Cr   -0.67937   -1.78779   -0.61938
 94 Fe   -1.22164    0.26835   -1.75361
 95 Cr   -0.01931    0.62036    0.85517
 96 Ni    1.37955    0.31091    0.43237
 97 Fe    0.48941    0.88742   -0.01880
 98 Co   -0.78232   -0.59390    0.03740
 99 Ni   -2.31953   -0.42912    0.72115
100 Cr    0.78681   -2.27940   -0.39343
101 Al   -0.76117    1.56072    0.41303
102 Cr    0.53409   -1.75438   -0.63990
103 Co   -0.04332    0.93679    0.07491
104 Al   -0.08838    0.26995   -1.09214
105 Ni    0.52536   -1.23910    0.01653
106 Co    0.05883   -1.56141    0.61492
107 Fe    0.43140    1.09893   -0.03772

Date: Fri Apr 14 04:22:27 2023