User:   c.zeng@d0085
Date:   Thu Apr 13 16:47:03 2023
Arch:   x86_64
Pid:    68509
CWD:    /home/c.zeng/projects/hea-corrosion/hea-mlp/data-curation/bulk-md/dft-jobs/58
Python: 3.8.1
gpaw:   /home/c.zeng/usr/installs/gpaw/source/gpaw-22.8.0/gpaw
_gpaw:  /home/c.zeng/usr/installs/gpaw/source/gpaw-22.8.0/
        _gpaw.cpython-38-x86_64-linux-gnu.so
ase:    /home/c.zeng/.local/lib/python3.8/site-packages/ase-3.22.1-py3.8.egg/ase (version 3.22.1)
numpy:  /shared/centos7/python/3.8.1/lib/python3.8/site-packages/numpy (version 1.17.4)
scipy:  /shared/centos7/python/3.8.1/lib/python3.8/site-packages/scipy (version 1.4.1)
units:  Angstrom and eV
cores: 28
OpenMP: False
OMP_NUM_THREADS: 1

Input parameters:
  convergence: {energy: 0.0001}
  kpts: [2 2 2]
  maxiter: 666
  mode: {ecut: 350.0,
         name: pw}
  occupations: {fixmagmom: False,
                name: fermi-dirac,
                width: 0.1}
  spinpol: True
  xc: PBE

System changes: positions, numbers, cell, pbc, initial_charges, initial_magmoms

Initialize ...

species:
  Co:
    name: Cobalt
    id: 339d20d5b0b93d2de9531a1bee871d91
    Z: 27.0
    valence: 9
    core: 18
    charge: 0.0
    file: /home/c.zeng/usr/data/gpaw-setups-0.9.20000/Co.PBE.gz
    compensation charges: {type: gauss,
                           rc: 0.32,
                           lmax: 2}
    cutoffs: {filter: 1.87,
              core: 2.55}
    valence states:
      #              energy  rcut
      - 4s(2.00)    -5.469   1.005
      - 4p(0.00)    -1.277   1.058
      - 3d(7.00)    -8.205   1.005
      -  s          21.742   1.005
      -  p          25.934   1.058
      -  d          19.007   1.005

    # Using partial waves for Co as LCAO basis

  Ni:
    name: Nickel
    id: 0d9f38a9d6e76a2886f07bb4381f212b
    Z: 28.0
    valence: 16
    core: 12
    charge: 0.0
    file: /home/c.zeng/usr/data/gpaw-setups-0.9.20000/Ni.PBE.gz
    compensation charges: {type: gauss,
                           rc: 0.36,
                           lmax: 2}
    cutoffs: {filter: 2.14,
              core: 1.98}
    valence states:
      #              energy  rcut
      - 4s(2.00)    -5.642   1.164
      - 3p(6.00)   -71.394   1.207
      - 4p(0.00)    -1.226   1.207
      - 3d(8.00)    -8.875   1.138
      -  s          21.570   1.164
      -  d          18.337   1.138

[...]

  Al:
    name: Aluminium
    id: 0292cae29f5d6237e50f6abdd43a7bdd
    Z: 13.0
    valence: 3
    core: 10
    charge: 0.0
    file: /home/c.zeng/usr/data/gpaw-setups-0.9.20000/Al.PBE.gz
    compensation charges: {type: gauss,
                           rc: 0.34,
                           lmax: 2}
    cutoffs: {filter: 1.91,
              core: 2.36}
    valence states:
      #              energy  rcut
      - 3s(2.00)    -7.753   1.085
      - 3p(1.00)    -2.712   1.085
      -  s          19.459   1.085
      -  p          24.499   1.085
      -  d           0.000   1.085

[...]

  Cr:
    name: Chromium
    id: 33f258bda2ca9f93018e70263a35547b
    Z: 24.0
    valence: 6
    core: 18
    charge: 0.0
    file: /home/c.zeng/usr/data/gpaw-setups-0.9.20000/Cr.PBE.gz
    compensation charges: {type: gauss,
                           rc: 0.35,
                           lmax: 2}
    cutoffs: {filter: 2.14,
              core: 3.04}
    valence states:
      #              energy  rcut
      - 4s(1.00)    -4.007   1.164
      - 4p(0.00)    -0.989   1.217
      - 3d(5.00)    -2.913   1.111
      -  s          23.205   1.164
      -  p          26.223   1.217
      -  d          24.299   1.111

[...]

  Fe:
    name: Iron
    id: 37abbd8d6c3c35915a9b583b742da910
    Z: 26.0
    valence: 8
    core: 18
    charge: 0.0
    file: /home/c.zeng/usr/data/gpaw-setups-0.9.20000/Fe.PBE.gz
    compensation charges: {type: gauss,
                           rc: 0.33,
                           lmax: 2}
    cutoffs: {filter: 2.06,
              core: 2.67}
    valence states:
      #              energy  rcut
      - 4s(2.00)    -5.291   1.164
      - 4p(0.00)    -1.326   1.058
      - 3d(6.00)    -7.505   1.058
      -  s          21.920   1.164
      -  p          25.885   1.058
      -  d          19.706   1.058

    # Using partial waves for Fe as LCAO basis

Reference energy: -3548577.034362  # eV

Spin-polarized calculation.
Magnetic moment: 136.400000

Convergence criteria:
 Maximum [total energy] change in last 3 cyles: 0.0001 eV / electron
 Maximum integral of absolute [dens]ity change: 0.0001 electrons / valence electron
 Maximum integral of absolute [eigenst]ate change: 4e-08 eV^2 / valence electron
 Maximum number of scf [iter]ations: 666
 (Square brackets indicate name in SCF output, whereas a 'c' in
 the SCF output indicates the quantity has converged.)

Symmetries present (total): 1

  ( 1  0  0)
  ( 0  1  0)
  ( 0  0  1)

8 k-points: 2 x 2 x 2 Monkhorst-Pack grid
4 k-points in the irreducible part of the Brillouin zone
       k-points in crystal coordinates                weights
   0:     0.25000000   -0.25000000   -0.25000000          2/8
   1:     0.25000000   -0.25000000    0.25000000          2/8
   2:     0.25000000    0.25000000   -0.25000000          2/8
   3:     0.25000000    0.25000000    0.25000000          2/8

Wave functions: Plane wave expansion
  Cutoff energy: 350.000 eV
  Number of coefficients (min, max): 18331, 18331
  Pulay-stress correction: 0.000000 eV/Ang^3 (de/decut=0.000000)
  Using FFTW library
  ScaLapack parameters: grid=1x1, blocksize=None
  Wavefunction extrapolation:
    Improved wavefunction reuse through dual PAW basis

Occupation numbers: Fermi-Dirac:
  width: 0.1000  # eV

Eigensolver
   Davidson(niter=2)

Densities:
  Coarse grid: 48*48*48 grid
  Fine grid: 96*96*96 grid
  Total Charge: 0.000000

Density mixing:
  Method: difference
  Backend: pulay
  Linear mixing parameter: 0.05
  old densities: 5
  Damping of long wavelength oscillations: 50

Hamiltonian:
  XC and Coulomb potentials evaluated on a 96*96*96 grid
  Using the PBE Exchange-Correlation functional
  External potential:
    NoExternalPotential

XC parameters: PBE with 2 nearest neighbor stencil

Total number of cores used: 28
Parallelization over k-points: 4
Domain decomposition: 7 x 1 x 1

Number of atoms: 108
Number of atomic orbitals: 994
Number of bands in calculation: 674
Number of valence electrons: 980
Bands to converge: occupied

... initialized

Initializing position-dependent things.

Density initialized from atomic densities
Creating initial wave functions:
  674 bands from LCAO basis set

       /|           Fe            |
      / |    CFe     Fe      Al   |
     /  |       Ni        Cr     Ni
    /   |Ali            Ni Fe     |
   /o   Al CCr    FeCoNi    FeCo  |
  /    Cr    FeFe                 |
 *     Ni   Co CAl     CoCr    Co |
 |      Fe Fe     CoCr  CrCCo    Ni
 |      | CrCo     CoFe      Cr   Ni
 |     Fe   NiNiCr  CCo Ni  NiFe  |
 |    NiFeFe   CCoNi FeCrCr  Fe   |
 |Ni   AlNiNi  NiCr Co  Cr Fe     |
 |  Cr  .-Ni--Co-CCo-------Fe----Co
 |   FNi   CNirNi    CAl    Cr   /
 |    Fe  Co           FNir     /
 |   / Al       AlCr           /
 |  /      Fe       Fe      Ni/
 | /  Al             Co      /
 |/                    Al   /
 *----------------Cr-------*

Positions:
   0 Co    10.570690   -0.377452   10.903846    ( 0.0000,  0.0000,  2.1000)
   1 Ni    10.604974    1.675860    1.858442    ( 0.0000,  0.0000,  1.5000)
   2 Al     1.887716    0.005068    1.843701    ( 0.0000,  0.0000,  0.0000)
   3 Cr     1.958294    1.498447   10.688077    ( 0.0000,  0.0000,  0.0000)
   4 Cr     3.681413   -0.209133   10.796486    ( 0.0000,  0.0000,  0.0000)
   5 Fe     3.563335    1.591024    1.828727    ( 0.0000,  0.0000,  2.0000)
   6 Fe     5.416598   -0.036123    1.966621    ( 0.0000,  0.0000,  2.0000)
   7 Fe     5.248017    1.854627   -0.181976    ( 0.0000,  0.0000,  2.0000)
   8 Cr     7.031832    0.057304    0.041410    ( 0.0000,  0.0000,  0.0000)
   9 Fe     7.167357    1.728807    1.757664    ( 0.0000,  0.0000,  2.0000)
  10 Fe     8.703849   -0.210473    2.096855    ( 0.0000,  0.0000,  2.0000)
  11 Al     8.736506    1.772660    0.047682    ( 0.0000,  0.0000,  0.0000)
  12 Co    10.757392    3.425897   10.496867    ( 0.0000,  0.0000,  2.1000)
  13 Fe    10.881011    5.242624    1.787440    ( 0.0000,  0.0000,  2.0000)
  14 Al     1.636424    3.319045    1.754472    ( 0.0000,  0.0000,  0.0000)
  15 Al     1.747209    5.454662   10.607360    ( 0.0000,  0.0000,  0.0000)
  16 Cr     3.371309    3.720541   10.535426    ( 0.0000,  0.0000,  0.0000)
  17 Cr     3.643960    5.392073    1.849636    ( 0.0000,  0.0000,  0.0000)
  18 Al     5.378469    3.521519    1.583023    ( 0.0000,  0.0000,  0.0000)
  19 Co     5.352799    5.446698   10.732821    ( 0.0000,  0.0000,  2.1000)
  20 Co     7.343723    3.598928    0.039723    ( 0.0000,  0.0000,  2.1000)
  21 Cr     7.221430    5.690440    1.898883    ( 0.0000,  0.0000,  0.0000)
  22 Cr     9.032986    3.785343    1.678308    ( 0.0000,  0.0000,  0.0000)
  23 Cr     8.843655    5.839961   -0.024099    ( 0.0000,  0.0000,  0.0000)
  24 Fe    10.799893    7.353994   10.751444    ( 0.0000,  0.0000,  2.0000)
  25 Al    10.822784    8.758267    2.120197    ( 0.0000,  0.0000,  0.0000)
  26 Ni     1.756587    7.142631    1.652829    ( 0.0000,  0.0000,  1.5000)
  27 Cr     1.732167    8.996664   10.738478    ( 0.0000,  0.0000,  0.0000)
  28 Fe     3.458073    7.261548   10.701615    ( 0.0000,  0.0000,  2.0000)
  29 Ni     3.502853    8.961547    2.065811    ( 0.0000,  0.0000,  1.5000)
  30 Co     5.196261    7.128320    1.729482    ( 0.0000,  0.0000,  2.1000)
  31 Fe     5.437593    8.933129   10.646762    ( 0.0000,  0.0000,  2.0000)
  32 Fe     7.072184    7.281927   10.829345    ( 0.0000,  0.0000,  2.0000)
  33 Cr     7.043193    8.860095    2.136644    ( 0.0000,  0.0000,  0.0000)
  34 Fe     8.920049    7.263306    2.124661    ( 0.0000,  0.0000,  2.0000)
  35 Cr     8.605840    8.975828    0.291045    ( 0.0000,  0.0000,  0.0000)
  36 Ni    10.720748   -0.114719    3.521235    ( 0.0000,  0.0000,  1.5000)
  37 Ni     0.026750    1.865963    5.255377    ( 0.0000,  0.0000,  1.5000)
  38 Co     1.726857   -0.018442    5.202572    ( 0.0000,  0.0000,  2.1000)
  39 Ni     1.822467    1.547265    3.705642    ( 0.0000,  0.0000,  1.5000)
  40 Co     3.734276    0.315024    3.764911    ( 0.0000,  0.0000,  2.1000)
  41 Ni     3.578022    1.926241    5.300378    ( 0.0000,  0.0000,  1.5000)
  42 Co     5.311267    0.228960    5.312483    ( 0.0000,  0.0000,  2.1000)
  43 Ni     5.444628    1.955301    3.489992    ( 0.0000,  0.0000,  1.5000)
  44 Cr     6.829350    0.045987    3.555377    ( 0.0000,  0.0000,  0.0000)
  45 Co     7.168693    2.017896    5.249403    ( 0.0000,  0.0000,  2.1000)
  46 Al     8.721394   10.976153    5.093159    ( 0.0000,  0.0000,  0.0000)
  47 Ni     8.918664    1.824791    3.273769    ( 0.0000,  0.0000,  1.5000)
  48 Cr    10.972689    3.331781    3.586112    ( 0.0000,  0.0000,  0.0000)
  49 Fe    -0.081072    5.406024    5.469760    ( 0.0000,  0.0000,  2.0000)
  50 Fe     1.954240    3.525595    5.365273    ( 0.0000,  0.0000,  2.0000)
  51 Ni     1.923025    5.392728    3.753617    ( 0.0000,  0.0000,  1.5000)
  52 Ni     3.648589    3.561889    3.425416    ( 0.0000,  0.0000,  1.5000)
  53 Ni     3.734274    5.374517    5.276575    ( 0.0000,  0.0000,  1.5000)
  54 Co     5.313880    3.593522    5.429897    ( 0.0000,  0.0000,  2.1000)
  55 Cr     5.258663    5.338335    3.543282    ( 0.0000,  0.0000,  0.0000)
  56 Cr     7.301830    3.479714    3.439025    ( 0.0000,  0.0000,  0.0000)
  57 Co     7.008718    5.056500    5.174661    ( 0.0000,  0.0000,  2.1000)
  58 Cr     9.129620    3.569464    5.177061    ( 0.0000,  0.0000,  0.0000)
  59 Fe     9.126235    5.269721    3.508720    ( 0.0000,  0.0000,  2.0000)
[...]
  93 Ni     7.185312    5.559967    8.966927    ( 0.0000,  0.0000,  1.5000)
  94 Cr     9.074553    3.509137    8.995264    ( 0.0000,  0.0000,  0.0000)
  95 Cr     8.844638    5.546853    7.166560    ( 0.0000,  0.0000,  0.0000)
  96 Co    10.605790    7.107313    7.047738    ( 0.0000,  0.0000,  2.1000)
  97 Ni    10.624643    9.136181    8.900297    ( 0.0000,  0.0000,  1.5000)
  98 Ni     1.710460    7.241617    9.074078    ( 0.0000,  0.0000,  1.5000)
  99 Co     1.848824    8.942532    7.161369    ( 0.0000,  0.0000,  2.1000)
 100 Co     3.645520    7.266187    6.934836    ( 0.0000,  0.0000,  2.1000)
 101 Ni     3.645090    8.898074    8.867619    ( 0.0000,  0.0000,  1.5000)
 102 Fe     5.168511    7.140723    8.914126    ( 0.0000,  0.0000,  2.0000)
 103 Co     5.417757    9.026236    7.152468    ( 0.0000,  0.0000,  2.1000)
 104 Co     7.018764    7.004925    7.171426    ( 0.0000,  0.0000,  2.1000)
 105 Ni     6.998304    8.697416    8.811626    ( 0.0000,  0.0000,  1.5000)
 106 Fe     8.847941    7.475608    8.871907    ( 0.0000,  0.0000,  2.0000)
 107 Fe     8.588635    9.183301    7.062081    ( 0.0000,  0.0000,  2.0000)

Unit cell:
           periodic     x           y           z      points  spacing
  1. axis:    yes   10.722400    0.000000    0.000000    48     0.2234
  2. axis:    yes    0.000000   10.722400    0.000000    48     0.2234
  3. axis:    yes    0.000000    0.000000   10.722400    48     0.2234

  Lengths:  10.722400  10.722400  10.722400
  Angles:   90.000000  90.000000  90.000000

Effective grid spacing dv^(1/3) = 0.2234

     iter     time        total  log10-change:  magmom
                         energy  eigst   dens
iter:   1 16:50:19 -1012.406305                  +136.6833
iter:   2 16:51:26  -893.992750  -0.24  -1.19    +76.0135
iter:   3 16:52:33  -888.308955  -0.83  -1.22    +64.3142
iter:   4 16:53:41  -869.505263  -1.19  -1.28    +60.2265
iter:   5 16:54:48  -857.402616  -1.53  -1.29    +56.9147
iter:   6 16:55:55  -858.950415  -1.28  -1.36    +57.2332
iter:   7 16:57:02  -845.193190  -1.27  -1.42    +54.7916
iter:   8 16:58:10  -837.569719  -1.56  -1.57    +54.4970
iter:   9 16:59:17  -837.550860  -2.11  -1.75    +55.5013
iter:  10 17:00:25  -837.033542  -2.25  -1.76    +56.5658
iter:  11 17:01:32  -836.829452  -2.52  -1.81    +57.3342
iter:  12 17:02:39  -837.204936  -2.45  -1.83    +58.8891
iter:  13 17:03:47  -838.632302  -2.32  -1.89    +59.8101
iter:  14 17:04:54  -837.611835  -2.35  -1.90    +59.7194
iter:  15 17:06:01  -838.258732  -2.43  -1.98    +60.5707
iter:  16 17:07:09  -837.204703  -2.59  -1.98    +61.1134
iter:  17 17:08:16  -837.566002  -2.75  -2.07    +61.7735
iter:  18 17:09:24  -836.865357  -2.88  -2.07    +61.8391
iter:  19 17:10:31  -836.819218  -3.07  -2.16    +62.1811
iter:  20 17:11:38  -836.688118  -3.23  -2.18    +62.8699
iter:  21 17:12:46  -836.772536  -3.28  -2.23    +63.0341
iter:  22 17:13:53  -836.799651  -3.22  -2.24    +63.2241
iter:  23 17:15:00  -837.133005  -3.03  -2.26    +63.3383
iter:  24 17:16:08  -836.946956  -3.07  -2.23    +63.7169
iter:  25 17:17:15  -837.012459  -3.12  -2.29    +63.9399
iter:  26 17:18:22  -836.768033  -3.29  -2.30    +63.6399
iter:  27 17:19:30  -836.801670  -3.43  -2.40    +63.9302
iter:  28 17:20:37  -836.689178  -3.67  -2.40    +64.0217
iter:  29 17:21:45  -836.759899  -3.79  -2.45    +64.1495
iter:  30 17:22:52  -836.747273c -3.77  -2.46    +64.1123
iter:  31 17:24:00  -836.788590c -3.70  -2.49    +64.1978
iter:  32 17:25:07  -836.796686c -3.80  -2.48    +64.4211
iter:  33 17:26:15  -836.899063  -3.53  -2.53    +64.3605
iter:  34 17:27:22  -836.876347  -3.56  -2.49    +64.4234
iter:  35 17:28:30  -836.895164c -3.58  -2.54    +64.5263
iter:  36 17:29:37  -836.855073c -3.71  -2.54    +64.6659
iter:  37 17:30:44  -836.822354c -3.81  -2.59    +64.6795
iter:  38 17:31:52  -836.777912c -4.24  -2.63    +64.5519
iter:  39 17:32:59  -836.790305c -4.36  -2.70    +64.6939
iter:  40 17:34:06  -836.789140c -4.51  -2.72    +64.6823
iter:  41 17:35:13  -836.816378c -4.41  -2.73    +64.6915
iter:  42 17:36:21  -836.843573c -4.11  -2.73    +64.6669
iter:  43 17:37:28  -836.882649c -3.90  -2.70    +64.6988
iter:  44 17:38:36  -836.868475c -3.97  -2.70    +64.8494
iter:  45 17:39:43  -836.861891c -3.99  -2.74    +64.7134
iter:  46 17:40:51  -836.849235c -4.13  -2.77    +64.7755
iter:  47 17:41:58  -836.830595c -4.46  -2.81    +64.8246
iter:  48 17:43:05  -836.828284c -4.70  -2.88    +64.8880
iter:  49 17:44:13  -836.832604c -5.02  -2.92    +64.8710
iter:  50 17:45:20  -836.835661c -4.82  -2.94    +64.8418
iter:  51 17:46:28  -836.854065c -4.75  -2.95    +64.8741
iter:  52 17:47:35  -836.878709c -4.30  -2.94    +64.8606
iter:  53 17:48:42  -836.884283c -4.28  -2.89    +64.8363
iter:  54 17:49:50  -836.891704c -4.12  -2.92    +64.8213
iter:  55 17:50:57  -836.874971c -4.31  -2.88    +64.8494
iter:  56 17:52:05  -836.866874c -4.47  -3.00    +64.9492
iter:  57 17:53:12  -836.857679c -5.04  -3.06    +64.8871
iter:  58 17:54:20  -836.861351c -5.35  -3.18    +64.9202
iter:  59 17:55:27  -836.863481c -5.59  -3.21    +64.9176
iter:  60 17:56:34  -836.874175c -5.02  -3.22    +64.9303
iter:  61 17:57:42  -836.873217c -5.11  -3.17    +64.8967
iter:  62 17:58:49  -836.885499c -4.63  -3.28    +64.8747
iter:  63 17:59:56  -836.882007c -4.74  -3.14    +64.8939
iter:  64 18:01:04  -836.879535c -4.92  -3.25    +64.8680
iter:  65 18:02:11  -836.880270c -5.02  -3.42    +64.8754
iter:  66 18:03:18  -836.881459c -5.20  -3.41    +64.8751
iter:  67 18:04:26  -836.879935c -5.49  -3.44    +64.8783
iter:  68 18:05:33  -836.881950c -5.68  -3.67    +64.8682
iter:  69 18:06:41  -836.884100c -5.69  -3.71    +64.8485
iter:  70 18:07:48  -836.887649c -5.34  -3.72    +64.8427
iter:  71 18:08:55  -836.893297c -5.05  -3.70    +64.8424
iter:  72 18:10:03  -836.894529c -5.69  -3.65    +64.8395
iter:  73 18:11:10  -836.895834c -5.67  -3.56    +64.8336
iter:  74 18:12:17  -836.897452c -5.76  -3.58    +64.8331
iter:  75 18:13:25  -836.898997c -5.65  -3.58    +64.8332
iter:  76 18:14:33  -836.898227c -5.67  -3.50    +64.8111
iter:  77 18:15:40  -836.900626c -5.34  -3.54    +64.7989
iter:  78 18:16:47  -836.899912c -5.38  -3.42    +64.7893
iter:  79 18:17:54  -836.899883c -5.38  -3.45    +64.7939
iter:  80 18:19:02  -836.899124c -5.85  -3.49    +64.7878
iter:  81 18:20:09  -836.901007c -5.78  -3.63    +64.7702
iter:  82 18:21:17  -836.899790c -6.15  -3.55    +64.7740
iter:  83 18:22:24  -836.900609c -6.01  -3.66    +64.7543
iter:  84 18:23:31  -836.901628c -5.46  -3.61    +64.7498
iter:  85 18:24:39  -836.901326c -5.47  -3.57    +64.7492
iter:  86 18:25:46  -836.902199c -5.68  -3.72    +64.7216
iter:  87 18:26:53  -836.901449c -6.01  -3.69    +64.7128
iter:  88 18:28:01  -836.901729c -6.37  -3.90    +64.7133
iter:  89 18:29:08  -836.902266c -6.34  -3.98    +64.7064
iter:  90 18:30:16  -836.902624c -6.26  -3.98    +64.7006
iter:  91 18:31:23  -836.902978c -6.16  -3.99    +64.6939
iter:  92 18:32:31  -836.902868c -6.35  -3.93    +64.6947
iter:  93 18:33:38  -836.903249c -6.35  -4.10c   +64.6853
iter:  94 18:34:45  -836.903428c -6.54  -4.11c   +64.6821
iter:  95 18:35:53  -836.903774c -6.63  -4.19c   +64.6843
iter:  96 18:37:00  -836.904052c -6.60  -4.30c   +64.6800
iter:  97 18:38:07  -836.904306c -6.69  -4.27c   +64.6778
iter:  98 18:39:15  -836.904610c -6.63  -4.32c   +64.6729
iter:  99 18:40:23  -836.906499c -5.28  -4.32c   +64.6476
iter: 100 18:41:30  -836.908510c -5.09  -4.12c   +64.6374
iter: 101 18:42:37  -836.908678c -5.96  -3.93    +64.6533
iter: 102 18:43:45  -836.909013c -6.24  -3.98    +64.6702
iter: 103 18:44:52  -836.908978c -6.62  -3.93    +64.6712
iter: 104 18:46:00  -836.909530c -6.28  -3.95    +64.6792
iter: 105 18:47:07  -836.909208c -6.18  -3.82    +64.6816
iter: 106 18:48:14  -836.909333c -6.40  -3.91    +64.6941
iter: 107 18:49:22  -836.909307c -6.33  -4.04c   +64.6941
iter: 108 18:50:29  -836.909409c -6.59  -3.99    +64.6999
iter: 109 18:51:37  -836.909403c -6.51  -4.06c   +64.6974
iter: 110 18:52:44  -836.909426c -6.59  -4.08c   +64.7025
iter: 111 18:53:52  -836.909492c -6.84  -4.13c   +64.7082
iter: 112 18:54:59  -836.909582c -6.78  -4.19c   +64.7107
iter: 113 18:56:07  -836.909623c -7.07  -4.24c   +64.7143
iter: 114 18:57:14  -836.909786c -6.88  -4.25c   +64.7199
iter: 115 18:58:21  -836.909821c -6.93  -4.27c   +64.7236
iter: 116 18:59:29  -836.909929c -7.06  -4.32c   +64.7288
iter: 117 19:00:36  -836.910008c -7.02  -4.37c   +64.7350
iter: 118 19:01:44  -836.910108c -7.18  -4.40c   +64.7396
iter: 119 19:02:51  -836.910240c -6.81  -4.44c   +64.7511
iter: 120 19:03:59  -836.910216c -7.50c -4.45c   +64.7467

Converged after 120 iterations.

Dipole moment: (22.939529, 17.247100, 1.400418) |e|*Ang

Total magnetic moment: (0.000000, 0.000000, 64.746737)
Local magnetic moments:
   0 Co ( 0.000000,  0.000000,  0.813345)
   1 Ni ( 0.000000,  0.000000, -0.021860)
   2 Al ( 0.000000,  0.000000, -0.006748)
   3 Cr ( 0.000000,  0.000000, -1.161229)
   4 Cr ( 0.000000,  0.000000,  0.103062)
   5 Fe ( 0.000000,  0.000000,  1.835199)
   6 Fe ( 0.000000,  0.000000,  1.144872)
   7 Fe ( 0.000000,  0.000000,  2.020608)
   8 Cr ( 0.000000,  0.000000, -0.898707)
   9 Fe ( 0.000000,  0.000000,  1.437783)
  10 Fe ( 0.000000,  0.000000,  1.833335)
  11 Al ( 0.000000,  0.000000, -0.022201)
  12 Co ( 0.000000,  0.000000,  0.045515)
  13 Fe ( 0.000000,  0.000000,  1.986788)
  14 Al ( 0.000000,  0.000000, -0.017691)
  15 Al ( 0.000000,  0.000000, -0.029463)
  16 Cr ( 0.000000,  0.000000,  1.640709)
  17 Cr ( 0.000000,  0.000000, -1.453221)
  18 Al ( 0.000000,  0.000000, -0.025348)
  19 Co ( 0.000000,  0.000000,  1.249521)
  20 Co ( 0.000000,  0.000000,  0.572824)
  21 Cr ( 0.000000,  0.000000, -0.462350)
  22 Cr ( 0.000000,  0.000000, -0.850849)
  23 Cr ( 0.000000,  0.000000, -1.421624)
  24 Fe ( 0.000000,  0.000000,  2.069383)
  25 Al ( 0.000000,  0.000000, -0.022932)
  26 Ni ( 0.000000,  0.000000,  0.253435)
  27 Cr ( 0.000000,  0.000000, -1.050199)
  28 Fe ( 0.000000,  0.000000,  2.213181)
  29 Ni ( 0.000000,  0.000000,  0.186579)
  30 Co ( 0.000000,  0.000000,  0.639807)
  31 Fe ( 0.000000,  0.000000,  1.774060)
  32 Fe ( 0.000000,  0.000000,  1.151377)
  33 Cr ( 0.000000,  0.000000, -0.159563)
  34 Fe ( 0.000000,  0.000000,  1.597959)
  35 Cr ( 0.000000,  0.000000, -0.050314)
  36 Ni ( 0.000000,  0.000000,  0.260193)
  37 Ni ( 0.000000,  0.000000,  0.118780)
  38 Co ( 0.000000,  0.000000,  1.456049)
  39 Ni ( 0.000000,  0.000000,  0.321336)
  40 Co ( 0.000000,  0.000000,  1.292520)
  41 Ni ( 0.000000,  0.000000,  0.465425)
  42 Co ( 0.000000,  0.000000,  1.025599)
  43 Ni ( 0.000000,  0.000000,  0.178828)
  44 Cr ( 0.000000,  0.000000, -0.319670)
  45 Co ( 0.000000,  0.000000,  0.500911)
  46 Al ( 0.000000,  0.000000, -0.009377)
  47 Ni ( 0.000000,  0.000000,  0.047435)
  48 Cr ( 0.000000,  0.000000, -1.180408)
  49 Fe ( 0.000000,  0.000000,  1.856125)
  50 Fe ( 0.000000,  0.000000,  2.395309)
  51 Ni ( 0.000000,  0.000000,  0.249554)
  52 Ni ( 0.000000,  0.000000,  0.132675)
  53 Ni ( 0.000000,  0.000000,  0.306035)
  54 Co ( 0.000000,  0.000000,  1.037233)
  55 Cr ( 0.000000,  0.000000,  0.510293)
  56 Cr ( 0.000000,  0.000000, -1.093485)
  57 Co ( 0.000000,  0.000000,  0.980691)
  58 Cr ( 0.000000,  0.000000,  0.461641)
  59 Fe ( 0.000000,  0.000000,  0.862186)
[...]
  93 Ni ( 0.000000,  0.000000,  0.200438)
  94 Cr ( 0.000000,  0.000000,  0.406764)
  95 Cr ( 0.000000,  0.000000, -1.430335)
  96 Co ( 0.000000,  0.000000,  1.296920)
  97 Ni ( 0.000000,  0.000000,  0.281150)
  98 Ni ( 0.000000,  0.000000,  0.399109)
  99 Co ( 0.000000,  0.000000,  1.580044)
 100 Co ( 0.000000,  0.000000,  1.646181)
 101 Ni ( 0.000000,  0.000000,  0.492079)
 102 Fe ( 0.000000,  0.000000,  2.323461)
 103 Co ( 0.000000,  0.000000,  1.456288)
 104 Co ( 0.000000,  0.000000,  1.319968)
 105 Ni ( 0.000000,  0.000000,  0.464998)
 106 Fe ( 0.000000,  0.000000,  2.185114)
 107 Fe ( 0.000000,  0.000000,  2.246664)

Energy contributions relative to reference atoms: (reference = -3548577.034362)

Kinetic:       +391.439247
Potential:     -382.407362
External:        +0.000000
XC:            -879.358584
Entropy (-ST):   -4.392564
Local:          +35.612765
Free energy:   -839.106498
Extrapolated:  -836.910216

Spin contamination: 20.869556 electrons
Showing only first 2 kpts
                      Up                     Down
 Kpt  Band  Eigenvalues  Occupancy  Eigenvalues  Occupancy
  0   488      9.49614    0.99538     10.42599    0.01934
  0   489      9.50082    0.99516     10.43851    0.01710
  0   490      9.50844    0.99478     10.45095    0.01513
  0   491      9.53612    0.99312     10.45835    0.01407

  1   488      9.50232    0.99508     10.41595    0.02133
  1   489      9.50743    0.99483     10.42326    0.01986
  1   490      9.52580    0.99379     10.44605    0.01588
  1   491      9.53313    0.99332     10.45948    0.01391

Fermi level: 10.03336

No gap

Forces in eV/Ang:
  0 Co    0.21989    0.98920    0.68777
  1 Ni    1.24463   -0.48490   -2.17195
  2 Al   -1.59001   -0.12027    0.88345
  3 Cr   -0.45073    1.36754   -1.38842
  4 Cr    0.19547    0.17274   -0.60944
  5 Fe    1.19148    1.57217   -0.95294
  6 Fe   -1.26934    0.31021   -1.65097
  7 Fe    0.20296   -0.81552    0.68178
  8 Cr   -2.57035   -1.30393    1.76111
  9 Fe   -1.16774   -0.04648   -0.26551
 10 Fe    1.10959    0.83236   -1.07236
 11 Al    2.28129   -0.52949    0.76290
 12 Co   -0.27458    0.36530    1.35193
 13 Fe   -0.91605    0.97805    0.47583
 14 Al    1.91531    0.23859   -0.86257
 15 Al   -1.28015   -0.35667    0.09932
 16 Cr    1.04512   -1.43888    0.66231
 17 Cr   -1.01312    0.26781   -0.65295
 18 Al    0.15684    0.19011    0.26454
 19 Co   -0.10649   -0.06257   -0.22304
 20 Co   -0.85729    1.34621   -0.41936
 21 Cr   -0.92185   -1.27757   -0.37282
 22 Cr    0.11838   -0.13231    0.18291
 23 Cr    0.78148   -0.96204    0.36449
 24 Fe   -1.96101   -0.31628   -0.22389
 25 Al   -0.40841    0.56304   -0.06795
 26 Ni    0.81453   -0.43135    1.91737
 27 Cr    1.07508    0.32354   -0.78882
 28 Fe    1.22626    0.17665    0.49096
 29 Ni    4.36924   -0.67674   -5.73864
 30 Co    0.61403    0.50366    0.13848
 31 Fe   -0.70023   -0.00133    1.63442
 32 Fe   -0.08419   -0.85199    0.04739
 33 Cr   -1.23114   -0.58801   -1.05137
 34 Fe    0.66165   -1.64395   -2.51166
 35 Cr    0.85400   -0.98442    0.15622
 36 Ni   -0.33383    0.35664    0.49825
 37 Ni    0.03429   -1.59998    1.30762
 38 Co    0.48136   -1.03286    2.10964
 39 Ni   -0.65090    2.23377   -1.62641
 40 Co   -0.21139   -1.94659   -1.65820
 41 Ni    0.23946   -0.00164    0.71661
 42 Co    1.31073   -0.21287    0.84605
 43 Ni   -0.30829    0.13615    0.35329
 44 Cr    1.86005    0.96177   -0.00312
 45 Co    0.24855   -0.18043    0.03386
 46 Al    1.91914   -0.41047    0.62043
 47 Ni    0.09575    0.25317    2.19267
 48 Cr   -2.11884    2.41548    0.95757
 49 Fe    0.60883   -0.31685   -0.70167
 50 Fe   -1.03156    0.91724   -0.53155
 51 Ni   -0.88597   -0.88306   -1.43675
 52 Ni   -0.91789   -0.30418    0.41385
 53 Ni   -0.78790   -0.25242    1.35052
 54 Co   -0.16797    0.51156   -0.62879
 55 Cr    0.59319   -0.23166   -0.90034
 56 Cr   -0.37989    1.25425    0.10830
 57 Co    1.46804    1.73330    0.13505
 58 Cr   -0.94722   -0.26677    0.23420
 59 Fe   -0.46731   -0.20636    0.28136
[...]
 93 Ni   -0.30347   -1.13955    0.57541
 94 Cr   -0.43393    0.73317   -0.62781
 95 Cr    0.12811   -1.12496    0.58201
 96 Co    1.20980    1.20049    1.23466
 97 Ni    0.43590   -1.13770   -0.20109
 98 Ni   -0.10706    0.30698   -2.13611
 99 Co    0.18981   -0.42406   -0.45151
100 Co   -0.24236   -0.11423    0.37772
101 Ni   -0.86096    0.62500   -0.16091
102 Fe    0.93874   -0.78275    0.05350
103 Co   -0.65016   -0.63930   -1.32589
104 Co    0.05502    1.38283   -1.31208
105 Ni   -0.28647    1.14263    1.08429
106 Fe    1.27640   -1.32830   -0.06839
107 Fe    1.44807   -1.12105   -1.12890

Date: Thu Apr 13 19:04:18 2023