User:   c.zeng@d0136
Date:   Sat Apr  8 07:15:56 2023
Arch:   x86_64
Pid:    120240
CWD:    /home/c.zeng/projects/hea-corrosion/hea-mlp/data-curation/volume/dft-jobs/29
Python: 3.8.1
gpaw:   /home/c.zeng/usr/installs/gpaw/source/gpaw-22.8.0/gpaw
_gpaw:  /home/c.zeng/usr/installs/gpaw/source/gpaw-22.8.0/
        _gpaw.cpython-38-x86_64-linux-gnu.so
ase:    /home/c.zeng/.local/lib/python3.8/site-packages/ase-3.22.1-py3.8.egg/ase (version 3.22.1)
numpy:  /shared/centos7/python/3.8.1/lib/python3.8/site-packages/numpy (version 1.17.4)
scipy:  /shared/centos7/python/3.8.1/lib/python3.8/site-packages/scipy (version 1.4.1)
units:  Angstrom and eV
cores: 64
OpenMP: False
OMP_NUM_THREADS: 1

Input parameters:
  convergence: {energy: 0.0001}
  kpts: [2 2 2]
  maxiter: 666
  mode: {ecut: 350.0,
         name: pw}
  occupations: {fixmagmom: False,
                name: fermi-dirac,
                width: 0.1}
  spinpol: True
  xc: PBE

System changes: positions, numbers, cell, pbc, initial_charges, initial_magmoms

Initialize ...

species:
  Cr:
    name: Chromium
    id: 33f258bda2ca9f93018e70263a35547b
    Z: 24.0
    valence: 6
    core: 18
    charge: 0.0
    file: /home/c.zeng/usr/data/gpaw-setups-0.9.20000/Cr.PBE.gz
    compensation charges: {type: gauss,
                           rc: 0.35,
                           lmax: 2}
    cutoffs: {filter: 2.14,
              core: 3.04}
    valence states:
      #              energy  rcut
      - 4s(1.00)    -4.007   1.164
      - 4p(0.00)    -0.989   1.217
      - 3d(5.00)    -2.913   1.111
      -  s          23.205   1.164
      -  p          26.223   1.217
      -  d          24.299   1.111

    # Using partial waves for Cr as LCAO basis

  Al:
    name: Aluminium
    id: 0292cae29f5d6237e50f6abdd43a7bdd
    Z: 13.0
    valence: 3
    core: 10
    charge: 0.0
    file: /home/c.zeng/usr/data/gpaw-setups-0.9.20000/Al.PBE.gz
    compensation charges: {type: gauss,
                           rc: 0.34,
                           lmax: 2}
    cutoffs: {filter: 1.91,
              core: 2.36}
    valence states:
      #              energy  rcut
      - 3s(2.00)    -7.753   1.085
      - 3p(1.00)    -2.712   1.085
      -  s          19.459   1.085
      -  p          24.499   1.085
      -  d           0.000   1.085

[...]

  Co:
    name: Cobalt
    id: 339d20d5b0b93d2de9531a1bee871d91
    Z: 27.0
    valence: 9
    core: 18
    charge: 0.0
    file: /home/c.zeng/usr/data/gpaw-setups-0.9.20000/Co.PBE.gz
    compensation charges: {type: gauss,
                           rc: 0.32,
                           lmax: 2}
    cutoffs: {filter: 1.87,
              core: 2.55}
    valence states:
      #              energy  rcut
      - 4s(2.00)    -5.469   1.005
      - 4p(0.00)    -1.277   1.058
      - 3d(7.00)    -8.205   1.005
      -  s          21.742   1.005
      -  p          25.934   1.058
      -  d          19.007   1.005

[...]

  Fe:
    name: Iron
    id: 37abbd8d6c3c35915a9b583b742da910
    Z: 26.0
    valence: 8
    core: 18
    charge: 0.0
    file: /home/c.zeng/usr/data/gpaw-setups-0.9.20000/Fe.PBE.gz
    compensation charges: {type: gauss,
                           rc: 0.33,
                           lmax: 2}
    cutoffs: {filter: 2.06,
              core: 2.67}
    valence states:
      #              energy  rcut
      - 4s(2.00)    -5.291   1.164
      - 4p(0.00)    -1.326   1.058
      - 3d(6.00)    -7.505   1.058
      -  s          21.920   1.164
      -  p          25.885   1.058
      -  d          19.706   1.058

[...]

  Ni:
    name: Nickel
    id: 0d9f38a9d6e76a2886f07bb4381f212b
    Z: 28.0
    valence: 16
    core: 12
    charge: 0.0
    file: /home/c.zeng/usr/data/gpaw-setups-0.9.20000/Ni.PBE.gz
    compensation charges: {type: gauss,
                           rc: 0.36,
                           lmax: 2}
    cutoffs: {filter: 2.14,
              core: 1.98}
    valence states:
      #              energy  rcut
      - 4s(2.00)    -5.642   1.164
      - 3p(6.00)   -71.394   1.207
      - 4p(0.00)    -1.226   1.207
      - 3d(8.00)    -8.875   1.138
      -  s          21.570   1.164
      -  d          18.337   1.138

    # Using partial waves for Ni as LCAO basis

Reference energy: -3699400.456887  # eV

Spin-polarized calculation.
Magnetic moment: 143.500000

Convergence criteria:
 Maximum [total energy] change in last 3 cyles: 0.0001 eV / electron
 Maximum integral of absolute [dens]ity change: 0.0001 electrons / valence electron
 Maximum integral of absolute [eigenst]ate change: 4e-08 eV^2 / valence electron
 Maximum number of scf [iter]ations: 666
 (Square brackets indicate name in SCF output, whereas a 'c' in
 the SCF output indicates the quantity has converged.)

Symmetries present (total): 1

  ( 1  0  0)
  ( 0  1  0)
  ( 0  0  1)

8 k-points: 2 x 2 x 2 Monkhorst-Pack grid
4 k-points in the irreducible part of the Brillouin zone
       k-points in crystal coordinates                weights
   0:     0.25000000   -0.25000000   -0.25000000          2/8
   1:     0.25000000   -0.25000000    0.25000000          2/8
   2:     0.25000000    0.25000000   -0.25000000          2/8
   3:     0.25000000    0.25000000    0.25000000          2/8

Wave functions: Plane wave expansion
  Cutoff energy: 350.000 eV
  Number of coefficients (min, max): 23559, 23559
  Pulay-stress correction: 0.000000 eV/Ang^3 (de/decut=0.000000)
  Using FFTW library
  ScaLapack parameters: grid=1x1, blocksize=None
  Wavefunction extrapolation:
    Improved wavefunction reuse through dual PAW basis

Occupation numbers: Fermi-Dirac:
  width: 0.1000  # eV

Eigensolver
   Davidson(niter=2)

Densities:
  Coarse grid: 54*54*54 grid
  Fine grid: 108*108*108 grid
  Total Charge: 0.000000

Density mixing:
  Method: difference
  Backend: pulay
  Linear mixing parameter: 0.05
  old densities: 5
  Damping of long wavelength oscillations: 50

Hamiltonian:
  XC and Coulomb potentials evaluated on a 108*108*108 grid
  Using the PBE Exchange-Correlation functional
  External potential:
    NoExternalPotential

XC parameters: PBE with 2 nearest neighbor stencil

Total number of cores used: 64
Parallelization over k-points: 4
Domain decomposition: 4 x 2 x 2

Number of atoms: 108
Number of atomic orbitals: 1025
Number of bands in calculation: 703
Number of valence electrons: 1020
Bands to converge: occupied

... initialized

Initializing position-dependent things.

Density initialized from atomic densities
Creating initial wave functions:
  703 bands from LCAO basis set

       /|   Ni                 Cr    |
      / |    Fe          Al          |
     /  |       Cr                   |
    /  Ni                 Fe         |
   /o   CrNi      CrCr Fe     Cr     |
  /  NiCo   FeCo     Cr NiFe   Ni    |
 Cr   FeCo   CrNi NiCr   CoCo   Fe   |
 |      |Co Cr  Co Ni Co  Al CrFe   Ni
 | Ni   | Fe Co AlCoNi NiCoFe Ni     Fe
 |     Cr                      Fe    |
 |   Fe |   NiCo Co  Fe FeCr         |
 |    CrNi   CrCo FeCrNi NiNi   Ni   |
 |     NiNi Ni  Co Cr Co  Cr FeCo    |
 | Fe   .--FeCr-Ni--Co-Co-----Cr-----.
 |   CoFe     Fe Al  Cr NiNi        /
 |    CrFe     Co Cr       Co      /
 |Al /   Fe                       /
 |  /       Cr     Co Co     Cr  /
 | /         Fe                 /
 |/              Fe            /
 *---------Fe-----------------*

Positions:
   0 Cr     0.000004    0.000005   -0.000019    ( 0.0000,  0.0000,  0.0000)
   1 Al     0.000001    1.944016    1.944016    ( 0.0000,  0.0000,  0.0000)
   2 Cr     1.944016   -0.000007    1.944004    ( 0.0000,  0.0000,  0.0000)
   3 Co     1.944004    1.944004   -0.000010    ( 0.0000,  0.0000,  2.1000)
   4 Fe     3.887996    0.000004    0.000000    ( 0.0000,  0.0000,  2.0000)
   5 Cr     3.887984    1.944004    1.943981    ( 0.0000,  0.0000,  0.0000)
   6 Ni     5.832000   -0.000006    1.944004    ( 0.0000,  0.0000,  1.5000)
   7 Fe     5.832000    1.944004    0.000003    ( 0.0000,  0.0000,  2.0000)
   8 Cr     7.776004    0.000016   -0.000000    ( 0.0000,  0.0000,  0.0000)
   9 Co     7.776016    1.944004    1.943992    ( 0.0000,  0.0000,  2.1000)
  10 Ni     9.719996   -0.000003    1.944016    ( 0.0000,  0.0000,  1.5000)
  11 Fe     9.719996    1.944004   -0.000008    ( 0.0000,  0.0000,  2.0000)
  12 Co     0.000005    3.887996   -0.000006    ( 0.0000,  0.0000,  2.1000)
  13 Co     0.000013    5.831988    1.944004    ( 0.0000,  0.0000,  2.1000)
  14 Fe     1.944004    3.888008    1.944004    ( 0.0000,  0.0000,  2.0000)
  15 Fe     1.944004    5.832000    0.000009    ( 0.0000,  0.0000,  2.0000)
  16 Fe     3.887996    3.888008    0.000003    ( 0.0000,  0.0000,  2.0000)
  17 Fe     3.887984    5.832000    1.943992    ( 0.0000,  0.0000,  2.0000)
  18 Cr     5.832000    3.888008    1.943981    ( 0.0000,  0.0000,  0.0000)
  19 Co     5.831988    5.831988    0.000002    ( 0.0000,  0.0000,  2.1000)
  20 Fe     7.775992    3.887996   -0.000003    ( 0.0000,  0.0000,  2.0000)
  21 Ni     7.776004    5.831988    1.944004    ( 0.0000,  0.0000,  1.5000)
  22 Co     9.719996    3.888008    1.944004    ( 0.0000,  0.0000,  2.1000)
  23 Cr     9.720008    5.831977    0.000004    ( 0.0000,  0.0000,  0.0000)
  24 Cr     0.000019    7.775992    0.000002    ( 0.0000,  0.0000,  0.0000)
  25 Ni     0.000002    9.719996    1.944016    ( 0.0000,  0.0000,  1.5000)
  26 Fe     1.944004    7.775992    1.943992    ( 0.0000,  0.0000,  2.0000)
  27 Ni     1.944004    9.719996   -0.000002    ( 0.0000,  0.0000,  1.5000)
  28 Co     3.887996    7.775992    0.000011    ( 0.0000,  0.0000,  2.1000)
  29 Co     3.887996    9.719996    1.944004    ( 0.0000,  0.0000,  2.1000)
  30 Co     5.831988    7.776004    1.944004    ( 0.0000,  0.0000,  2.1000)
  31 Cr     5.831988    9.720008    0.000009    ( 0.0000,  0.0000,  0.0000)
  32 Al     7.775981    7.775992   -0.000014    ( 0.0000,  0.0000,  0.0000)
  33 Cr     7.775992    9.720008    1.944027    ( 0.0000,  0.0000,  0.0000)
  34 Cr     9.720008    7.776004    1.944016    ( 0.0000,  0.0000,  0.0000)
  35 Cr     9.720008    9.720019   -0.000008    ( 0.0000,  0.0000,  0.0000)
  36 Fe    -0.000009   -0.000001    3.888008    ( 0.0000,  0.0000,  2.0000)
  37 Co    -0.000002    1.944004    5.831988    ( 0.0000,  0.0000,  2.1000)
  38 Cr     1.943992   -0.000003    5.831988    ( 0.0000,  0.0000,  0.0000)
  39 Fe     1.943992    1.944004    3.888008    ( 0.0000,  0.0000,  2.0000)
  40 Co     3.887996   -0.000009    3.887996    ( 0.0000,  0.0000,  2.1000)
  41 Ni     3.887996    1.944004    5.832000    ( 0.0000,  0.0000,  1.5000)
  42 Ni     5.832000    0.000001    5.831988    ( 0.0000,  0.0000,  1.5000)
  43 Al     5.832012    1.943981    3.888019    ( 0.0000,  0.0000,  0.0000)
  44 Fe     7.776004   -0.000005    3.888008    ( 0.0000,  0.0000,  2.0000)
  45 Co     7.776004    1.944004    5.832000    ( 0.0000,  0.0000,  2.1000)
  46 Fe     9.720008   -0.000002    5.831988    ( 0.0000,  0.0000,  2.0000)
  47 Ni     9.719996    1.943992    3.888008    ( 0.0000,  0.0000,  1.5000)
  48 Fe     0.000003    3.888008    3.888008    ( 0.0000,  0.0000,  2.0000)
  49 Fe     0.000001    5.832000    5.832000    ( 0.0000,  0.0000,  2.0000)
  50 Ni     1.943992    3.888008    5.831988    ( 0.0000,  0.0000,  1.5000)
  51 Ni     1.943992    5.832000    3.887996    ( 0.0000,  0.0000,  1.5000)
  52 Cr     3.887984    3.888008    3.887996    ( 0.0000,  0.0000,  0.0000)
  53 Co     3.887996    5.832000    5.832000    ( 0.0000,  0.0000,  2.1000)
  54 Fe     5.832000    3.888008    5.832012    ( 0.0000,  0.0000,  2.0000)
  55 Cr     5.832000    5.832000    3.888008    ( 0.0000,  0.0000,  0.0000)
  56 Co     7.776016    3.888008    3.888008    ( 0.0000,  0.0000,  2.1000)
  57 Fe     7.776004    5.832000    5.832000    ( 0.0000,  0.0000,  2.0000)
  58 Ni     9.719996    3.888008    5.831988    ( 0.0000,  0.0000,  1.5000)
  59 Fe     9.719996    5.832000    3.888008    ( 0.0000,  0.0000,  2.0000)
[...]
  93 Ni     7.775992    5.831988    9.719996    ( 0.0000,  0.0000,  1.5000)
  94 Co     9.719996    3.887984    9.720008    ( 0.0000,  0.0000,  2.1000)
  95 Cr     9.720008    5.832012    7.775992    ( 0.0000,  0.0000,  0.0000)
  96 Fe     0.000011    7.776004    7.775992    ( 0.0000,  0.0000,  2.0000)
  97 Ni     0.000008    9.720008    9.719984    ( 0.0000,  0.0000,  1.5000)
  98 Ni     1.943992    7.776004    9.719996    ( 0.0000,  0.0000,  1.5000)
  99 Fe     1.943992    9.719996    7.776004    ( 0.0000,  0.0000,  2.0000)
 100 Ni     3.887984    7.775992    7.775992    ( 0.0000,  0.0000,  1.5000)
 101 Cr     3.887973    9.719996    9.720008    ( 0.0000,  0.0000,  0.0000)
 102 Cr     5.832000    7.775992    9.719996    ( 0.0000,  0.0000,  0.0000)
 103 Cr     5.832000    9.719984    7.775992    ( 0.0000,  0.0000,  0.0000)
 104 Co     7.776004    7.775992    7.776004    ( 0.0000,  0.0000,  2.1000)
 105 Fe     7.776004    9.719996    9.719996    ( 0.0000,  0.0000,  2.0000)
 106 Cr     9.720008    7.776016    9.719984    ( 0.0000,  0.0000,  0.0000)
 107 Ni     9.720008    9.719996    7.776004    ( 0.0000,  0.0000,  1.5000)

Unit cell:
           periodic     x           y           z      points  spacing
  1. axis:    yes   11.664000    0.000000    0.000000    54     0.2160
  2. axis:    yes    0.000000   11.664000    0.000000    54     0.2160
  3. axis:    yes    0.000000    0.000000   11.664000    54     0.2160

  Lengths:  11.664000  11.664000  11.664000
  Angles:   90.000000  90.000000  90.000000

Effective grid spacing dv^(1/3) = 0.2160

     iter     time        total  log10-change:  magmom
                         energy  eigst   dens
iter:   1 07:19:37 -1075.721792                  +143.7777
iter:   2 07:21:24  -924.251047  -0.01  -1.16    +79.2103
iter:   3 07:23:13  -924.966261  -0.56  -1.10    +83.7855
iter:   4 07:25:00  -851.502928  -1.14  -1.19    +79.6411
iter:   5 07:26:47  -842.747460  -1.76  -1.33    +82.3986
iter:   6 07:28:33  -850.448013  -1.57  -1.36    +90.0758
iter:   7 07:30:22  -844.846512  -1.21  -1.33    +94.5554
iter:   8 07:32:08  -839.507592  -1.42  -1.41    +100.0087
iter:   9 07:33:56  -836.711955  -1.30  -1.51    +100.5300
iter:  10 07:35:42  -834.248190  -1.79  -1.64    +99.4111
iter:  11 07:37:28  -830.718210  -1.99  -1.68    +99.3422
iter:  12 07:39:16  -829.850168  -2.26  -1.74    +99.9860
iter:  13 07:41:02  -829.467146  -2.62  -1.82    +99.0295
iter:  14 07:42:50  -830.698906  -2.43  -1.87    +97.3735
iter:  15 07:44:38  -830.941603  -2.72  -1.92    +96.4470
iter:  16 07:46:26  -833.382557  -2.45  -1.94    +94.7482
iter:  17 07:48:12  -832.394762  -2.52  -1.88    +93.6664
iter:  18 07:50:00  -833.216431  -2.64  -2.04    +89.8576
iter:  19 07:51:48  -834.221170  -2.58  -2.04    +88.6202
iter:  20 07:53:33  -833.657603  -2.82  -2.02    +87.4250
iter:  21 07:55:20  -834.534984  -2.93  -2.16    +85.9326
iter:  22 07:57:07  -834.963980  -3.11  -2.15    +84.1667
iter:  23 07:58:53  -835.360951  -3.38  -2.16    +82.8552
iter:  24 08:00:40  -837.086927  -2.71  -2.18    +79.7082
iter:  25 08:02:26  -838.359132  -2.67  -2.10    +78.4472
iter:  26 08:04:13  -838.838736  -2.64  -2.05    +77.8910
iter:  27 08:06:01  -838.264575  -3.02  -2.03    +77.8174
iter:  28 08:07:49  -837.842876  -3.02  -2.09    +77.6191
iter:  29 08:09:34  -837.478694  -2.83  -2.14    +77.4315
iter:  30 08:11:21  -837.972876  -2.45  -2.20    +77.2677
iter:  31 08:13:09  -837.336715  -2.91  -2.18    +77.3092
iter:  32 08:14:57  -837.346413  -3.17  -2.30    +76.5357
iter:  33 08:16:44  -837.348084c -3.41  -2.34    +76.6080
iter:  34 08:18:30  -837.333523c -3.58  -2.36    +76.6274
iter:  35 08:20:17  -837.446372  -3.62  -2.41    +76.6712
iter:  36 08:22:04  -837.418822  -3.69  -2.41    +76.5315
iter:  37 08:23:51  -837.467793c -3.60  -2.43    +76.6831
iter:  38 08:25:39  -837.502538c -3.58  -2.44    +76.8856
iter:  39 08:27:25  -837.661257  -3.31  -2.46    +76.8412
iter:  40 08:29:12  -837.468034  -3.44  -2.41    +76.8357
iter:  41 08:30:59  -837.488591  -3.70  -2.51    +76.9958
iter:  42 08:32:46  -837.470384c -3.62  -2.58    +77.3576
iter:  43 08:34:34  -837.426783c -3.90  -2.57    +77.3698
iter:  44 08:36:23  -837.455160c -4.12  -2.65    +77.2890
iter:  45 08:38:12  -837.498522c -3.98  -2.69    +77.4462
iter:  46 08:40:00  -837.541511c -3.75  -2.69    +77.6218
iter:  47 08:41:47  -837.518726c -4.15  -2.66    +77.7537
iter:  48 08:43:39  -837.663877  -3.87  -2.87    +77.9527
iter:  49 08:45:25  -837.599490  -3.99  -2.74    +77.7770
iter:  50 08:47:13  -837.670574c -4.08  -2.78    +78.3816
iter:  51 08:49:01  -837.743971  -4.21  -2.92    +78.6765
iter:  52 08:50:48  -837.817412  -4.06  -2.91    +79.0371
iter:  53 08:52:36  -837.920905  -3.90  -2.88    +79.6086
iter:  54 08:54:24  -837.951619  -4.03  -2.75    +79.6990
iter:  55 08:56:12  -837.930989c -4.18  -2.77    +79.8960
iter:  56 08:58:00  -837.933644c -4.11  -2.81    +79.9880
iter:  57 08:59:48  -837.881943c -4.17  -2.76    +79.9901
iter:  58 09:01:35  -837.905022c -4.09  -2.81    +79.8858
iter:  59 09:03:21  -837.878785c -4.39  -2.77    +79.8429
iter:  60 09:05:09  -837.928494c -3.94  -2.89    +79.7111
iter:  61 09:06:56  -837.906172c -3.89  -2.77    +79.7204
iter:  62 09:08:44  -837.887754c -4.01  -2.82    +79.7154
iter:  63 09:10:32  -837.855529c -4.27  -2.88    +79.7163
iter:  64 09:12:20  -837.855053c -4.63  -3.08    +79.6701
iter:  65 09:14:07  -837.856546c -4.65  -3.11    +79.6719
iter:  66 09:15:54  -837.851928c -4.82  -3.08    +79.6733
iter:  67 09:17:42  -837.865280c -4.48  -3.15    +79.6592
iter:  68 09:19:29  -837.850473c -4.59  -3.03    +79.6656
iter:  69 09:21:17  -837.873888c -4.39  -3.17    +79.6663
iter:  70 09:23:04  -837.846732c -4.64  -3.03    +79.6711
iter:  71 09:24:51  -837.845268c -4.96  -3.25    +79.6644
iter:  72 09:26:40  -837.844745c -5.23  -3.33    +79.6684
iter:  73 09:28:28  -837.843216c -5.54  -3.37    +79.6828
iter:  74 09:30:15  -837.844142c -5.52  -3.46    +79.6801
iter:  75 09:32:04  -837.844487c -5.34  -3.42    +79.6805
iter:  76 09:33:51  -837.850059c -5.03  -3.42    +79.6858
iter:  77 09:35:38  -837.846212c -5.11  -3.35    +79.6959
iter:  78 09:37:27  -837.846448c -5.12  -3.40    +79.6955
iter:  79 09:39:14  -837.844493c -5.14  -3.42    +79.6743
iter:  80 09:41:01  -837.843096c -5.67  -3.50    +79.6786
iter:  81 09:42:48  -837.843788c -6.13  -3.69    +79.6913
iter:  82 09:44:35  -837.842737c -5.65  -3.73    +79.7007
iter:  83 09:46:17  -837.843397c -5.77  -3.62    +79.6992
iter:  84 09:47:51  -837.842656c -5.76  -3.72    +79.6960
iter:  85 09:49:28  -837.843069c -6.08  -3.90    +79.6929
iter:  86 09:51:12  -837.842921c -6.14  -3.94    +79.6932
iter:  87 09:52:55  -837.842414c -6.56  -3.94    +79.6966
iter:  88 09:54:39  -837.843072c -6.53  -4.10c   +79.6945
iter:  89 09:56:21  -837.842649c -6.83  -4.06c   +79.6947
iter:  90 09:58:05  -837.842750c -7.10  -4.18c   +79.6950
iter:  91 09:59:49  -837.842654c -6.65  -4.20c   +79.6964
iter:  92 10:01:32  -837.842820c -6.68  -4.09c   +79.6967
iter:  93 10:03:13  -837.842804c -6.80  -4.13c   +79.6947
iter:  94 10:04:53  -837.842412c -6.85  -4.34c   +79.6954
iter:  95 10:06:37  -837.842715c -6.86  -4.29c   +79.6948
iter:  96 10:08:20  -837.842577c -7.31  -4.26c   +79.6946
iter:  97 10:10:04  -837.842684c -7.34  -4.58c   +79.6950
iter:  98 10:11:47  -837.842640c -7.71c -4.44c   +79.6952

Converged after 98 iterations.

Dipole moment: (0.113412, -0.245606, 0.002805) |e|*Ang

Total magnetic moment: (0.000000, 0.000000, 79.695199)
Local magnetic moments:
   0 Cr ( 0.000000,  0.000000, -2.891418)
   1 Al ( 0.000000,  0.000000, -0.031785)
   2 Cr ( 0.000000,  0.000000, -2.902317)
   3 Co ( 0.000000,  0.000000,  1.491386)
   4 Fe ( 0.000000,  0.000000,  2.662124)
   5 Cr ( 0.000000,  0.000000, -2.830443)
   6 Ni ( 0.000000,  0.000000,  0.342097)
   7 Fe ( 0.000000,  0.000000,  2.736447)
   8 Cr ( 0.000000,  0.000000, -2.846506)
   9 Co ( 0.000000,  0.000000,  1.658332)
  10 Ni ( 0.000000,  0.000000,  0.357554)
  11 Fe ( 0.000000,  0.000000,  2.879458)
  12 Co ( 0.000000,  0.000000,  1.798423)
  13 Co ( 0.000000,  0.000000,  1.653444)
  14 Fe ( 0.000000,  0.000000,  2.769963)
  15 Fe ( 0.000000,  0.000000,  2.961679)
  16 Fe ( 0.000000,  0.000000,  2.822491)
  17 Fe ( 0.000000,  0.000000,  2.798963)
  18 Cr ( 0.000000,  0.000000, -2.562102)
  19 Co ( 0.000000,  0.000000,  1.735375)
  20 Fe ( 0.000000,  0.000000,  2.947121)
  21 Ni ( 0.000000,  0.000000,  0.382563)
  22 Co ( 0.000000,  0.000000,  1.752769)
  23 Cr ( 0.000000,  0.000000, -2.891298)
  24 Cr ( 0.000000,  0.000000, -2.887284)
  25 Ni ( 0.000000,  0.000000,  0.252152)
  26 Fe ( 0.000000,  0.000000,  2.939043)
  27 Ni ( 0.000000,  0.000000,  0.469033)
  28 Co ( 0.000000,  0.000000,  1.741066)
  29 Co ( 0.000000,  0.000000,  1.745624)
  30 Co ( 0.000000,  0.000000,  1.712442)
  31 Cr ( 0.000000,  0.000000,  2.651345)
  32 Al ( 0.000000,  0.000000, -0.025901)
  33 Cr ( 0.000000,  0.000000, -2.875089)
  34 Cr ( 0.000000,  0.000000,  2.840063)
  35 Cr ( 0.000000,  0.000000,  2.689966)
  36 Fe ( 0.000000,  0.000000,  2.905458)
  37 Co ( 0.000000,  0.000000,  1.521070)
  38 Cr ( 0.000000,  0.000000, -2.850874)
  39 Fe ( 0.000000,  0.000000,  2.723066)
  40 Co ( 0.000000,  0.000000,  1.622387)
  41 Ni ( 0.000000,  0.000000,  0.289755)
  42 Ni ( 0.000000,  0.000000,  0.394673)
  43 Al ( 0.000000,  0.000000, -0.009392)
  44 Fe ( 0.000000,  0.000000,  2.846344)
  45 Co ( 0.000000,  0.000000,  1.698302)
  46 Fe ( 0.000000,  0.000000,  2.758068)
  47 Ni ( 0.000000,  0.000000,  0.669406)
  48 Fe ( 0.000000,  0.000000,  2.943407)
  49 Fe ( 0.000000,  0.000000,  2.916328)
  50 Ni ( 0.000000,  0.000000,  0.599812)
  51 Ni ( 0.000000,  0.000000,  0.567027)
  52 Cr ( 0.000000,  0.000000, -2.662910)
  53 Co ( 0.000000,  0.000000,  1.794158)
  54 Fe ( 0.000000,  0.000000,  2.854850)
  55 Cr ( 0.000000,  0.000000, -2.915493)
  56 Co ( 0.000000,  0.000000,  1.710501)
  57 Fe ( 0.000000,  0.000000,  2.968314)
  58 Ni ( 0.000000,  0.000000,  0.575778)
  59 Fe ( 0.000000,  0.000000,  2.926984)
[...]
  93 Ni ( 0.000000,  0.000000,  0.340020)
  94 Co ( 0.000000,  0.000000,  1.769265)
  95 Cr ( 0.000000,  0.000000, -3.055661)
  96 Fe ( 0.000000,  0.000000,  2.977782)
  97 Ni ( 0.000000,  0.000000,  0.414460)
  98 Ni ( 0.000000,  0.000000,  0.591906)
  99 Fe ( 0.000000,  0.000000,  2.846137)
 100 Ni ( 0.000000,  0.000000,  0.603838)
 101 Cr ( 0.000000,  0.000000, -2.850057)
 102 Cr ( 0.000000,  0.000000, -2.911395)
 103 Cr ( 0.000000,  0.000000,  2.722183)
 104 Co ( 0.000000,  0.000000,  1.663475)
 105 Fe ( 0.000000,  0.000000,  2.525591)
 106 Cr ( 0.000000,  0.000000,  2.752662)
 107 Ni ( 0.000000,  0.000000,  0.330809)

Energy contributions relative to reference atoms: (reference = -3699400.456887)

Kinetic:       -325.919233
Potential:     +184.424715
External:        +0.000000
XC:            -727.610648
Entropy (-ST):   -4.895487
Local:          +33.710270
Free energy:   -840.290383
Extrapolated:  -837.842640

Spin contamination: 68.948321 electrons
Showing only first 2 kpts
                      Up                     Down
 Kpt  Band  Eigenvalues  Occupancy  Eigenvalues  Occupancy
  0   508      6.21843    0.99977      7.39204    0.03301
  0   509      6.23526    0.99972      7.40196    0.02999
  0   510      6.24470    0.99970      7.41155    0.02732
  0   511      6.26446    0.99963      7.41821    0.02560

  1   508      6.21124    0.99978      7.39843    0.03103
  1   509      6.22939    0.99974      7.40644    0.02871
  1   510      6.23676    0.99972      7.41439    0.02657
  1   511      6.24837    0.99968      7.41995    0.02517

Fermi level: 7.05430

No gap

Forces in eV/Ang:
  0 Cr   -0.28543   -0.35689   -0.64199
  1 Al   -0.32937    0.36658    0.10869
  2 Cr    0.30840   -0.72051    0.34508
  3 Co    0.14915    0.08204   -0.08565
  4 Fe   -0.33906    0.15827    0.29126
  5 Cr   -0.16276   -0.26673   -0.57269
  6 Ni   -0.08175    0.06597    0.04536
  7 Fe    0.24767    0.08327    0.11433
  8 Cr    0.28415    0.29528   -0.05455
  9 Co    0.30580    0.06593   -0.02466
 10 Ni   -0.06381    0.00674    0.17495
 11 Fe   -0.30789    0.05505   -0.08872
 12 Co    0.00308    0.10951   -0.19053
 13 Co    0.19482   -0.42625    0.09969
 14 Fe   -0.06606    0.22974   -0.17568
 15 Fe   -0.01249   -0.01898   -0.33039
 16 Fe    0.09117    0.17202   -0.26323
 17 Fe    0.10890    0.10391    0.14459
 18 Cr    0.49262    0.21228   -0.59614
 19 Co   -0.40511   -0.03045    0.04570
 20 Fe   -0.05782    0.11618   -0.04993
 21 Ni   -0.05188   -0.08698    0.16614
 22 Co   -0.06691    0.06355    0.09082
 23 Cr   -0.01055   -0.60292   -0.07998
 24 Cr    0.41386    0.52237   -0.10931
 25 Ni    0.01077    0.10815    0.04027
 26 Fe    0.03973    0.13124    0.21229
 27 Ni    0.09735   -0.06231    0.03089
 28 Co   -0.16459   -0.30198    0.15802
 29 Co   -0.11766   -0.05195    0.21486
 30 Co   -0.18457   -0.20866    0.21089
 31 Cr   -0.24135   -0.02505    0.43831
 32 Al   -0.37555   -0.52872    0.03722
 33 Cr    0.00710   -0.10312    0.58561
 34 Cr    0.10619   -0.43303    0.01974
 35 Cr    0.23999    0.87419    0.16339
 36 Fe   -0.13120   -0.13575    0.22375
 37 Co    0.02569   -0.02638   -0.04193
 38 Cr    0.37895   -0.31901   -0.81395
 39 Fe    0.22426    0.03177    0.30583
 40 Co   -0.05798   -0.39672    0.08371
 41 Ni    0.07225    0.07416    0.00651
 42 Ni   -0.02729    0.11220   -0.07043
 43 Al    0.18175   -0.39728    0.21099
 44 Fe    0.22808    0.33072   -0.15976
 45 Co    0.02929    0.18722   -0.11522
 46 Fe    0.18402    0.17144   -0.03085
 47 Ni   -0.11963    0.00011    0.06049
 48 Fe   -0.10934    0.05946    0.20155
 49 Fe    0.14525   -0.27106    0.11421
 50 Ni   -0.01031    0.11262    0.00552
 51 Ni    0.14815   -0.03933    0.02722
 52 Cr   -0.87360    0.29016    0.57087
 53 Co   -0.09879    0.06036    0.08463
 54 Fe   -0.04775   -0.04667    0.40473
 55 Cr    0.40727    0.65006    0.14970
 56 Co    0.20265   -0.00493    0.05969
 57 Fe    0.04798    0.13521    0.16023
 58 Ni   -0.04096   -0.07374   -0.16445
 59 Fe   -0.11188   -0.30602    0.02555
[...]
 93 Ni   -0.14021   -0.06410   -0.03526
 94 Co    0.04390   -0.15958    0.14547
 95 Cr    0.01922   -0.16365    0.11437
 96 Fe    0.28846    0.05173   -0.21513
 97 Ni    0.01880   -0.03373   -0.13996
 98 Ni    0.08695   -0.10389   -0.15591
 99 Fe    0.03698   -0.29293   -0.10174
100 Ni   -0.11077   -0.11968   -0.08379
101 Cr   -0.64284    0.13463   -0.00824
102 Cr    0.32279   -0.39443   -0.36039
103 Cr   -0.27503   -0.39391   -0.23793
104 Co   -0.07397   -0.11795    0.08347
105 Fe    0.51143    0.02375   -0.54263
106 Cr    0.10179   -0.29861   -0.13862
107 Ni   -0.00735    0.07512    0.10940

Date: Sat Apr  8 10:12:15 2023