User:   c.zeng@d0149
Date:   Sat Apr  8 16:15:24 2023
Arch:   x86_64
Pid:    74988
CWD:    /home/c.zeng/projects/hea-corrosion/hea-mlp/data-curation/volume/dft-jobs/91
Python: 3.8.1
gpaw:   /home/c.zeng/usr/installs/gpaw/source/gpaw-22.8.0/gpaw
_gpaw:  /home/c.zeng/usr/installs/gpaw/source/gpaw-22.8.0/
        _gpaw.cpython-38-x86_64-linux-gnu.so
ase:    /home/c.zeng/.local/lib/python3.8/site-packages/ase-3.22.1-py3.8.egg/ase (version 3.22.1)
numpy:  /shared/centos7/python/3.8.1/lib/python3.8/site-packages/numpy (version 1.17.4)
scipy:  /shared/centos7/python/3.8.1/lib/python3.8/site-packages/scipy (version 1.4.1)
units:  Angstrom and eV
cores: 64
OpenMP: False
OMP_NUM_THREADS: 1

Input parameters:
  convergence: {energy: 0.0001}
  kpts: [2 2 2]
  maxiter: 666
  mode: {ecut: 350.0,
         name: pw}
  occupations: {fixmagmom: False,
                name: fermi-dirac,
                width: 0.1}
  spinpol: True
  xc: PBE

System changes: positions, numbers, cell, pbc, initial_charges, initial_magmoms

Initialize ...

species:
  Fe:
    name: Iron
    id: 37abbd8d6c3c35915a9b583b742da910
    Z: 26.0
    valence: 8
    core: 18
    charge: 0.0
    file: /home/c.zeng/usr/data/gpaw-setups-0.9.20000/Fe.PBE.gz
    compensation charges: {type: gauss,
                           rc: 0.33,
                           lmax: 2}
    cutoffs: {filter: 2.06,
              core: 2.67}
    valence states:
      #              energy  rcut
      - 4s(2.00)    -5.291   1.164
      - 4p(0.00)    -1.326   1.058
      - 3d(6.00)    -7.505   1.058
      -  s          21.920   1.164
      -  p          25.885   1.058
      -  d          19.706   1.058

    # Using partial waves for Fe as LCAO basis

  Cr:
    name: Chromium
    id: 33f258bda2ca9f93018e70263a35547b
    Z: 24.0
    valence: 6
    core: 18
    charge: 0.0
    file: /home/c.zeng/usr/data/gpaw-setups-0.9.20000/Cr.PBE.gz
    compensation charges: {type: gauss,
                           rc: 0.35,
                           lmax: 2}
    cutoffs: {filter: 2.14,
              core: 3.04}
    valence states:
      #              energy  rcut
      - 4s(1.00)    -4.007   1.164
      - 4p(0.00)    -0.989   1.217
      - 3d(5.00)    -2.913   1.111
      -  s          23.205   1.164
      -  p          26.223   1.217
      -  d          24.299   1.111

[...]

  Ni:
    name: Nickel
    id: 0d9f38a9d6e76a2886f07bb4381f212b
    Z: 28.0
    valence: 16
    core: 12
    charge: 0.0
    file: /home/c.zeng/usr/data/gpaw-setups-0.9.20000/Ni.PBE.gz
    compensation charges: {type: gauss,
                           rc: 0.36,
                           lmax: 2}
    cutoffs: {filter: 2.14,
              core: 1.98}
    valence states:
      #              energy  rcut
      - 4s(2.00)    -5.642   1.164
      - 3p(6.00)   -71.394   1.207
      - 4p(0.00)    -1.226   1.207
      - 3d(8.00)    -8.875   1.138
      -  s          21.570   1.164
      -  d          18.337   1.138

[...]

  Al:
    name: Aluminium
    id: 0292cae29f5d6237e50f6abdd43a7bdd
    Z: 13.0
    valence: 3
    core: 10
    charge: 0.0
    file: /home/c.zeng/usr/data/gpaw-setups-0.9.20000/Al.PBE.gz
    compensation charges: {type: gauss,
                           rc: 0.34,
                           lmax: 2}
    cutoffs: {filter: 1.91,
              core: 2.36}
    valence states:
      #              energy  rcut
      - 3s(2.00)    -7.753   1.085
      - 3p(1.00)    -2.712   1.085
      -  s          19.459   1.085
      -  p          24.499   1.085
      -  d           0.000   1.085

[...]

  Co:
    name: Cobalt
    id: 339d20d5b0b93d2de9531a1bee871d91
    Z: 27.0
    valence: 9
    core: 18
    charge: 0.0
    file: /home/c.zeng/usr/data/gpaw-setups-0.9.20000/Co.PBE.gz
    compensation charges: {type: gauss,
                           rc: 0.32,
                           lmax: 2}
    cutoffs: {filter: 1.87,
              core: 2.55}
    valence states:
      #              energy  rcut
      - 4s(2.00)    -5.469   1.005
      - 4p(0.00)    -1.277   1.058
      - 3d(7.00)    -8.205   1.005
      -  s          21.742   1.005
      -  p          25.934   1.058
      -  d          19.007   1.005

    # Using partial waves for Co as LCAO basis

Reference energy: -3382523.201499  # eV

Spin-polarized calculation.
Magnetic moment: 128.800000

Convergence criteria:
 Maximum [total energy] change in last 3 cyles: 0.0001 eV / electron
 Maximum integral of absolute [dens]ity change: 0.0001 electrons / valence electron
 Maximum integral of absolute [eigenst]ate change: 4e-08 eV^2 / valence electron
 Maximum number of scf [iter]ations: 666
 (Square brackets indicate name in SCF output, whereas a 'c' in
 the SCF output indicates the quantity has converged.)

Symmetries present (total): 1

  ( 1  0  0)
  ( 0  1  0)
  ( 0  0  1)

8 k-points: 2 x 2 x 2 Monkhorst-Pack grid
4 k-points in the irreducible part of the Brillouin zone
       k-points in crystal coordinates                weights
   0:     0.25000000   -0.25000000   -0.25000000          2/8
   1:     0.25000000   -0.25000000    0.25000000          2/8
   2:     0.25000000    0.25000000   -0.25000000          2/8
   3:     0.25000000    0.25000000    0.25000000          2/8

Wave functions: Plane wave expansion
  Cutoff energy: 350.000 eV
  Number of coefficients (min, max): 23559, 23559
  Pulay-stress correction: 0.000000 eV/Ang^3 (de/decut=0.000000)
  Using FFTW library
  ScaLapack parameters: grid=1x1, blocksize=None
  Wavefunction extrapolation:
    Improved wavefunction reuse through dual PAW basis

Occupation numbers: Fermi-Dirac:
  width: 0.1000  # eV

Eigensolver
   Davidson(niter=2)

Densities:
  Coarse grid: 54*54*54 grid
  Fine grid: 108*108*108 grid
  Total Charge: 0.000000

Density mixing:
  Method: difference
  Backend: pulay
  Linear mixing parameter: 0.05
  old densities: 5
  Damping of long wavelength oscillations: 50

Hamiltonian:
  XC and Coulomb potentials evaluated on a 108*108*108 grid
  Using the PBE Exchange-Correlation functional
  External potential:
    NoExternalPotential

XC parameters: PBE with 2 nearest neighbor stencil

Total number of cores used: 64
Parallelization over k-points: 4
Domain decomposition: 4 x 2 x 2

Number of atoms: 108
Number of atomic orbitals: 961
Number of bands in calculation: 649
Number of valence electrons: 945
Bands to converge: occupied

... initialized

Initializing position-dependent things.

Density initialized from atomic densities
Creating initial wave functions:
  649 bands from LCAO basis set

        .----------------------------Fe
       /|                      Ni    |
      / |             Cr        Ni Ni|
    /   |Cr      Al       Ni Al     Fe
   /i   | Co        Cr     Co Co     Fe
  /  FeCr   NiFe     Co Cr     Fe    |
 *      Co   CoCr Ni  Fe Al Fe  Co Ni|
 |      |Cr Fe   CrCo Al  Fe CrCo   Co
 |    CoNiAl Ni     Al Al     CrNi   |
 |     Co   Ni       Ni        Cr    |
 |      |     Fe Fe     NiNi     Cr  |
 |      Co Fe  Al Fe  Ni Al Co     Fe|
 |      |Al Al   CrFeCo   Cr CoCo   Cr
 |      .-Cr-Al-----Fe-Ni--Al-CoNi---.
 |     Cr   AlCr Ni  Fe FeNi     Cr /
 |    / Fe Fe  Cr CoCr   NiCo      /
 |   /      Fe     Fe Co          /
 |  /                          Cr/
 | /  Ni     Co        CrNi     /
 |/              Al       Co   /
 *---------Al-----------------*

Positions:
   0 Fe    -0.000006   -0.000004   -0.000006    ( 0.0000,  0.0000,  2.0000)
   1 Cr    -0.000002    1.944004    1.943992    ( 0.0000,  0.0000,  0.0000)
   2 Ni     1.944004    0.000011    1.944016    ( 0.0000,  0.0000,  1.5000)
   3 Cr     1.944004    1.944016   -0.000001    ( 0.0000,  0.0000,  0.0000)
   4 Al     3.887996    0.000031    0.000027    ( 0.0000,  0.0000,  0.0000)
   5 Fe     3.887996    1.944004    1.944004    ( 0.0000,  0.0000,  2.0000)
   6 Ni     5.831988   -0.000003    1.944016    ( 0.0000,  0.0000,  1.5000)
   7 Al     5.831965    1.944051    0.000026    ( 0.0000,  0.0000,  0.0000)
   8 Al     7.776027   -0.000053    0.000022    ( 0.0000,  0.0000,  0.0000)
   9 Co     7.776004    1.944004    1.944016    ( 0.0000,  0.0000,  2.1000)
  10 Ni     9.720008    0.000008    1.943992    ( 0.0000,  0.0000,  1.5000)
  11 Co     9.720019    1.944004    0.000001    ( 0.0000,  0.0000,  2.1000)
  12 Ni     0.000001    3.887996   -0.000011    ( 0.0000,  0.0000,  1.5000)
  13 Cr    -0.000007    5.832000    1.944004    ( 0.0000,  0.0000,  0.0000)
  14 Fe     1.944004    3.887996    1.943992    ( 0.0000,  0.0000,  2.0000)
  15 Cr     1.944004    5.831988   -0.000014    ( 0.0000,  0.0000,  0.0000)
  16 Co     3.887996    3.887996    0.000000    ( 0.0000,  0.0000,  2.1000)
  17 Cr     3.888031    5.831988    1.943981    ( 0.0000,  0.0000,  0.0000)
  18 Co     5.832000    3.888008    1.944004    ( 0.0000,  0.0000,  2.1000)
  19 Fe     5.832000    5.832000    0.000009    ( 0.0000,  0.0000,  2.0000)
  20 Cr     7.776004    3.888019    0.000019    ( 0.0000,  0.0000,  0.0000)
  21 Fe     7.775981    5.832000    1.944004    ( 0.0000,  0.0000,  2.0000)
  22 Co     9.719996    3.887996    1.944004    ( 0.0000,  0.0000,  2.1000)
  23 Al     9.719984    5.832000   -0.000006    ( 0.0000,  0.0000,  0.0000)
  24 Ni    -0.000008    7.776004   -0.000015    ( 0.0000,  0.0000,  1.5000)
  25 Cr    -0.000010    9.719996    1.944004    ( 0.0000,  0.0000,  0.0000)
  26 Cr     1.943981    7.776004    1.944004    ( 0.0000,  0.0000,  0.0000)
  27 Al     1.943946    9.719996    0.000005    ( 0.0000,  0.0000,  0.0000)
  28 Cr     3.888031    7.775981    0.000003    ( 0.0000,  0.0000,  0.0000)
  29 Cr     3.888031    9.720008    1.944016    ( 0.0000,  0.0000,  0.0000)
  30 Fe     5.832012    7.775992    1.943992    ( 0.0000,  0.0000,  2.0000)
  31 Fe     5.832000    9.719996    0.000008    ( 0.0000,  0.0000,  2.0000)
  32 Ni     7.775981    7.776004    0.000015    ( 0.0000,  0.0000,  1.5000)
  33 Cr     7.775981    9.719984    1.943992    ( 0.0000,  0.0000,  0.0000)
  34 Co     9.720008    7.775992    1.944004    ( 0.0000,  0.0000,  2.1000)
  35 Ni     9.720008    9.719996   -0.000010    ( 0.0000,  0.0000,  1.5000)
  36 Ni     0.000004   -0.000006    3.888008    ( 0.0000,  0.0000,  1.5000)
  37 Co    -0.000003    1.943992    5.832000    ( 0.0000,  0.0000,  2.1000)
  38 Co     1.943992   -0.000006    5.832000    ( 0.0000,  0.0000,  2.1000)
  39 Cr     1.943992    1.943992    3.887984    ( 0.0000,  0.0000,  0.0000)
  40 Fe     3.888008    0.000001    3.887996    ( 0.0000,  0.0000,  2.0000)
  41 Al     3.888031    1.943969    5.832035    ( 0.0000,  0.0000,  0.0000)
  42 Fe     5.832000   -0.000003    5.832000    ( 0.0000,  0.0000,  2.0000)
  43 Ni     5.832000    1.943992    3.887996    ( 0.0000,  0.0000,  1.5000)
  44 Cr     7.775992    0.000000    3.888019    ( 0.0000,  0.0000,  0.0000)
  45 Co     7.775992    1.943992    5.832000    ( 0.0000,  0.0000,  2.1000)
  46 Co     9.720008   -0.000003    5.832012    ( 0.0000,  0.0000,  2.1000)
  47 Ni     9.719996    1.944004    3.888008    ( 0.0000,  0.0000,  1.5000)
  48 Ni    -0.000007    3.887996    3.887996    ( 0.0000,  0.0000,  1.5000)
  49 Cr    -0.000014    5.832000    5.832000    ( 0.0000,  0.0000,  0.0000)
  50 Co     1.943992    3.887996    5.832012    ( 0.0000,  0.0000,  2.1000)
  51 Al     1.943969    5.831977    3.887984    ( 0.0000,  0.0000,  0.0000)
  52 Al     3.888031    3.888008    3.887973    ( 0.0000,  0.0000,  0.0000)
  53 Fe     3.888019    5.831988    5.832000    ( 0.0000,  0.0000,  2.0000)
  54 Fe     5.832000    3.888008    5.832000    ( 0.0000,  0.0000,  2.0000)
  55 Fe     5.832000    5.832000    3.887996    ( 0.0000,  0.0000,  2.0000)
  56 Ni     7.775992    3.888008    3.887996    ( 0.0000,  0.0000,  1.5000)
  57 Ni     7.775981    5.831977    5.831977    ( 0.0000,  0.0000,  1.5000)
  58 Co     9.720008    3.887996    5.831988    ( 0.0000,  0.0000,  2.1000)
  59 Co     9.720008    5.831988    3.887984    ( 0.0000,  0.0000,  2.1000)
[...]
  93 Cr     7.775992    5.832000    9.720008    ( 0.0000,  0.0000,  0.0000)
  94 Fe     9.720019    3.887996    9.719996    ( 0.0000,  0.0000,  2.0000)
  95 Cr     9.720019    5.831988    7.776016    ( 0.0000,  0.0000,  0.0000)
  96 Ni    -0.000009    7.776016    7.776016    ( 0.0000,  0.0000,  1.5000)
  97 Fe    -0.000004    9.719996    9.719996    ( 0.0000,  0.0000,  2.0000)
  98 Co     1.943981    7.775981    9.719996    ( 0.0000,  0.0000,  2.1000)
  99 Ni     1.943981    9.720019    7.776004    ( 0.0000,  0.0000,  1.5000)
 100 Cr     3.887996    7.775981    7.776016    ( 0.0000,  0.0000,  0.0000)
 101 Al     3.888019    9.719996    9.719949    ( 0.0000,  0.0000,  0.0000)
 102 Cr     5.832000    7.775992    9.720019    ( 0.0000,  0.0000,  0.0000)
 103 Co     5.832012    9.720019    7.775992    ( 0.0000,  0.0000,  2.1000)
 104 Al     7.776016    7.776039    7.776027    ( 0.0000,  0.0000,  0.0000)
 105 Ni     7.776004    9.719996    9.719996    ( 0.0000,  0.0000,  1.5000)
 106 Co     9.720019    7.776016    9.719996    ( 0.0000,  0.0000,  2.1000)
 107 Fe     9.720008    9.720008    7.776004    ( 0.0000,  0.0000,  2.0000)

Unit cell:
           periodic     x           y           z      points  spacing
  1. axis:    yes   11.664000    0.000000    0.000000    54     0.2160
  2. axis:    yes    0.000000   11.664000    0.000000    54     0.2160
  3. axis:    yes    0.000000    0.000000   11.664000    54     0.2160

  Lengths:  11.664000  11.664000  11.664000
  Angles:   90.000000  90.000000  90.000000

Effective grid spacing dv^(1/3) = 0.2160

     iter     time        total  log10-change:  magmom
                         energy  eigst   dens
iter:   1 16:17:22 -1009.782437                  +129.0866
iter:   2 16:18:09  -875.152031  -0.03  -1.15    +69.3471
iter:   3 16:18:57  -878.375971  -0.53  -1.09    +71.9954
iter:   4 16:19:43  -810.660167  -1.11  -1.18    +66.7625
iter:   5 16:20:30  -801.561274  -1.66  -1.30    +68.3052
iter:   6 16:21:18  -807.005035  -1.57  -1.34    +76.0203
iter:   7 16:22:06  -804.323705  -1.27  -1.33    +79.3537
iter:   8 16:22:53  -802.078465  -1.37  -1.40    +83.8553
iter:   9 16:23:43  -798.105056  -1.39  -1.44    +84.5354
iter:  10 16:24:31  -797.643587  -1.75  -1.61    +85.6265
iter:  11 16:25:22  -795.357045  -1.86  -1.63    +87.1710
iter:  12 16:26:13  -792.298134  -2.17  -1.67    +87.1815
iter:  13 16:27:02  -792.500049  -2.27  -1.80    +87.9226
iter:  14 16:27:50  -792.831516  -2.44  -1.83    +87.5897
iter:  15 16:28:37  -793.750685  -2.56  -1.89    +87.0266
iter:  16 16:29:24  -795.201128  -2.58  -1.91    +86.8858
iter:  17 16:30:12  -795.362820  -2.54  -1.87    +85.3471
iter:  18 16:30:59  -795.962161  -2.65  -1.94    +85.4346
iter:  19 16:31:46  -796.422476  -2.61  -1.97    +84.2921
iter:  20 16:32:34  -796.384756  -2.83  -1.98    +84.4825
iter:  21 16:33:21  -797.165709  -2.77  -2.07    +83.6965
iter:  22 16:34:08  -797.446831  -2.87  -2.08    +84.0382
iter:  23 16:34:56  -797.824098  -2.85  -2.11    +84.3635
iter:  24 16:35:43  -798.302820  -2.81  -2.13    +84.1743
iter:  25 16:36:31  -798.144519  -2.86  -2.14    +84.6586
iter:  26 16:37:18  -798.258527  -3.01  -2.22    +83.6404
iter:  27 16:38:06  -798.264358  -3.26  -2.23    +83.6449
iter:  28 16:38:53  -798.375756  -3.36  -2.28    +83.7269
iter:  29 16:39:41  -798.464563  -3.58  -2.31    +83.3702
iter:  30 16:40:29  -798.530212  -3.78  -2.31    +83.2405
iter:  31 16:41:17  -798.670867  -3.83  -2.34    +82.6292
iter:  32 16:42:07  -798.694431  -4.27  -2.34    +82.4659
iter:  33 16:42:56  -798.846229  -3.86  -2.35    +81.7335
iter:  34 16:43:44  -798.833029  -3.89  -2.37    +81.8633
iter:  35 16:44:32  -799.069748  -3.45  -2.38    +80.9517
iter:  36 16:45:20  -799.112918  -3.19  -2.39    +80.7021
iter:  37 16:46:08  -799.241783  -3.19  -2.48    +80.0338
iter:  38 16:46:55  -799.197908  -3.70  -2.50    +79.8657
iter:  39 16:47:43  -799.329755  -3.86  -2.68    +79.2644
iter:  40 16:48:30  -799.455026  -3.86  -2.69    +78.7439
iter:  41 16:49:17  -799.616010  -3.67  -2.70    +77.7928
iter:  42 16:50:05  -799.784820  -3.44  -2.63    +76.6531
iter:  43 16:50:53  -799.795617  -3.93  -2.56    +76.7758
iter:  44 16:51:40  -799.735765c -3.96  -2.58    +76.6855
iter:  45 16:52:28  -799.756408c -4.04  -2.66    +76.5695
iter:  46 16:53:15  -799.755188c -3.78  -2.66    +76.4243
iter:  47 16:54:02  -799.733325c -3.52  -2.63    +76.4235
iter:  48 16:54:49  -799.678876c -3.99  -2.65    +76.3360
iter:  49 16:55:37  -799.675646c -4.15  -2.84    +76.3098
iter:  50 16:56:25  -799.714601c -3.96  -2.90    +76.3120
iter:  51 16:57:13  -799.685889c -4.00  -2.75    +76.2788
iter:  52 16:58:01  -799.673949c -4.12  -2.89    +76.2739
iter:  53 16:58:48  -799.676466c -4.26  -3.01    +76.3177
iter:  54 16:59:37  -799.666154c -4.38  -2.99    +76.4595
iter:  55 17:00:25  -799.659463c -4.75  -3.08    +76.4891
iter:  56 17:01:13  -799.660576c -4.92  -3.21    +76.5114
iter:  57 17:02:01  -799.657563c -5.20  -3.21    +76.5273
iter:  58 17:02:48  -799.657220c -5.08  -3.30    +76.5530
iter:  59 17:03:35  -799.660148c -5.03  -3.29    +76.5551
iter:  60 17:04:24  -799.660798c -4.94  -3.32    +76.5374
iter:  61 17:05:12  -799.657408c -4.89  -3.34    +76.5688
iter:  62 17:06:00  -799.656419c -5.13  -3.33    +76.5909
iter:  63 17:06:49  -799.655361c -5.27  -3.42    +76.5593
iter:  64 17:07:38  -799.655181c -5.46  -3.48    +76.5549
iter:  65 17:08:28  -799.653793c -5.88  -3.58    +76.5578
iter:  66 17:09:16  -799.654555c -5.88  -3.61    +76.5768
iter:  67 17:10:03  -799.659091c -5.21  -3.65    +76.5676
iter:  68 17:10:50  -799.654106c -5.67  -3.47    +76.5683
iter:  69 17:11:38  -799.653984c -6.08  -3.92    +76.5761
iter:  70 17:12:24  -799.654071c -6.14  -3.93    +76.5861
iter:  71 17:13:12  -799.654204c -6.50  -3.89    +76.5857
iter:  72 17:14:00  -799.653910c -6.63  -4.03c   +76.5833
iter:  73 17:14:47  -799.654039c -6.85  -4.05c   +76.5886
iter:  74 17:15:35  -799.653953c -6.92  -4.12c   +76.5908
iter:  75 17:16:22  -799.654454c -6.77  -4.24c   +76.5902
iter:  76 17:17:10  -799.654105c -7.04  -4.20c   +76.5933
iter:  77 17:17:58  -799.654130c -7.18  -4.38c   +76.5968
iter:  78 17:18:46  -799.654251c -7.36  -4.37c   +76.5965
iter:  79 17:19:33  -799.654182c -7.53c -4.40c   +76.5961

Converged after 79 iterations.

Dipole moment: (-0.415753, -0.073745, 0.277747) |e|*Ang

Total magnetic moment: (0.000000, 0.000000, 76.596098)
Local magnetic moments:
   0 Fe ( 0.000000,  0.000000,  2.838931)
   1 Cr ( 0.000000,  0.000000,  2.887271)
   2 Ni ( 0.000000,  0.000000,  0.107475)
   3 Cr ( 0.000000,  0.000000, -2.997759)
   4 Al ( 0.000000,  0.000000, -0.007058)
   5 Fe ( 0.000000,  0.000000,  2.716749)
   6 Ni ( 0.000000,  0.000000,  0.302187)
   7 Al ( 0.000000,  0.000000, -0.011695)
   8 Al ( 0.000000,  0.000000, -0.022204)
   9 Co ( 0.000000,  0.000000,  1.727581)
  10 Ni ( 0.000000,  0.000000,  0.271213)
  11 Co ( 0.000000,  0.000000,  1.606665)
  12 Ni ( 0.000000,  0.000000,  0.425129)
  13 Cr ( 0.000000,  0.000000,  2.596951)
  14 Fe ( 0.000000,  0.000000,  2.533799)
  15 Cr ( 0.000000,  0.000000, -2.895718)
  16 Co ( 0.000000,  0.000000,  1.531863)
  17 Cr ( 0.000000,  0.000000, -2.702690)
  18 Co ( 0.000000,  0.000000,  1.568624)
  19 Fe ( 0.000000,  0.000000,  2.749328)
  20 Cr ( 0.000000,  0.000000, -2.990562)
  21 Fe ( 0.000000,  0.000000,  2.844461)
  22 Co ( 0.000000,  0.000000,  1.645111)
  23 Al ( 0.000000,  0.000000, -0.040003)
  24 Ni ( 0.000000,  0.000000,  0.347535)
  25 Cr ( 0.000000,  0.000000, -2.985140)
  26 Cr ( 0.000000,  0.000000,  2.483961)
  27 Al ( 0.000000,  0.000000, -0.010280)
  28 Cr ( 0.000000,  0.000000, -2.774690)
  29 Cr ( 0.000000,  0.000000, -2.940891)
  30 Fe ( 0.000000,  0.000000,  2.549799)
  31 Fe ( 0.000000,  0.000000,  2.471008)
  32 Ni ( 0.000000,  0.000000,  0.512095)
  33 Cr ( 0.000000,  0.000000,  2.828092)
  34 Co ( 0.000000,  0.000000,  1.474599)
  35 Ni ( 0.000000,  0.000000,  0.535422)
  36 Ni ( 0.000000,  0.000000,  0.305407)
  37 Co ( 0.000000,  0.000000,  1.911443)
  38 Co ( 0.000000,  0.000000,  1.662887)
  39 Cr ( 0.000000,  0.000000, -2.963666)
  40 Fe ( 0.000000,  0.000000,  2.828249)
  41 Al ( 0.000000,  0.000000, -0.036781)
  42 Fe ( 0.000000,  0.000000,  2.838865)
  43 Ni ( 0.000000,  0.000000,  0.510281)
  44 Cr ( 0.000000,  0.000000, -2.984654)
  45 Co ( 0.000000,  0.000000,  1.836591)
  46 Co ( 0.000000,  0.000000,  1.769669)
  47 Ni ( 0.000000,  0.000000,  0.631687)
  48 Ni ( 0.000000,  0.000000,  0.485382)
  49 Cr ( 0.000000,  0.000000,  2.792498)
  50 Co ( 0.000000,  0.000000,  1.444551)
  51 Al ( 0.000000,  0.000000, -0.042860)
  52 Al ( 0.000000,  0.000000, -0.028381)
  53 Fe ( 0.000000,  0.000000,  2.534026)
  54 Fe ( 0.000000,  0.000000,  2.833169)
  55 Fe ( 0.000000,  0.000000,  2.621805)
  56 Ni ( 0.000000,  0.000000,  0.715858)
  57 Ni ( 0.000000,  0.000000,  0.178603)
  58 Co ( 0.000000,  0.000000,  1.760711)
  59 Co ( 0.000000,  0.000000,  1.708867)
[...]
  93 Cr ( 0.000000,  0.000000,  2.790586)
  94 Fe ( 0.000000,  0.000000,  2.691842)
  95 Cr ( 0.000000,  0.000000, -2.832676)
  96 Ni ( 0.000000,  0.000000,  0.436570)
  97 Fe ( 0.000000,  0.000000,  2.947821)
  98 Co ( 0.000000,  0.000000,  1.290834)
  99 Ni ( 0.000000,  0.000000,  0.517256)
 100 Cr ( 0.000000,  0.000000,  2.711592)
 101 Al ( 0.000000,  0.000000, -0.011685)
 102 Cr ( 0.000000,  0.000000, -2.869774)
 103 Co ( 0.000000,  0.000000,  1.355727)
 104 Al ( 0.000000,  0.000000, -0.017995)
 105 Ni ( 0.000000,  0.000000,  0.430260)
 106 Co ( 0.000000,  0.000000,  1.600636)
 107 Fe ( 0.000000,  0.000000,  2.887350)

Energy contributions relative to reference atoms: (reference = -3382523.201499)

Kinetic:       -230.729129
Potential:     +130.008069
External:        +0.000000
XC:            -727.056895
Entropy (-ST):   -4.438898
Local:          +30.343222
Free energy:   -801.873631
Extrapolated:  -799.654182

Spin contamination: 56.592290 electrons
Showing only first 2 kpts
                      Up                     Down
 Kpt  Band  Eigenvalues  Occupancy  Eigenvalues  Occupancy
  0   470      6.33478    0.99968      7.50347    0.02572
  0   471      6.34347    0.99965      7.51104    0.02389
  0   472      6.35521    0.99961      7.51803    0.02231
  0   473      6.38023    0.99950      7.52791    0.02026

  1   470      6.34665    0.99964      7.49934    0.02678
  1   471      6.36279    0.99958      7.51414    0.02318
  1   472      6.37423    0.99953      7.51805    0.02231
  1   473      6.38862    0.99946      7.52642    0.02056

Fermi level: 7.14004

No gap

Forces in eV/Ang:
  0 Fe   -0.35685    0.10035   -0.48073
  1 Cr   -0.28047   -0.05852    0.21575
  2 Ni    0.07759   -0.07494   -0.06393
  3 Cr   -0.35792    0.43509    0.04382
  4 Al   -0.15388    0.20477    0.46567
  5 Fe   -0.04746    0.35004    0.01139
  6 Ni   -0.05683    0.23188   -0.08513
  7 Al   -0.43660    0.76566    0.61011
  8 Al    0.86296   -0.56432    0.39895
  9 Co    0.28442    0.38718    0.19203
 10 Ni    0.07234    0.15282   -0.02055
 11 Co    0.09110    0.11712    0.08975
 12 Ni    0.03206   -0.13177   -0.14940
 13 Cr   -0.32576   -0.22281   -0.03840
 14 Fe    0.33887   -0.07664   -0.23940
 15 Cr   -0.77638   -0.43801   -0.45050
 16 Co   -0.02962    0.20036   -0.05013
 17 Cr    0.36614   -0.21501   -0.07274
 18 Co    0.16797   -0.09176    0.16981
 19 Fe   -0.41457   -0.06619    0.48172
 20 Cr    0.12374    0.31114    0.28309
 21 Fe    0.10507   -0.10900    0.13575
 22 Co   -0.32080   -0.15565    0.17011
 23 Al    0.28906    0.46345    0.04225
 24 Ni   -0.13778    0.11720   -0.07589
 25 Cr    0.00280   -0.02802   -0.13053
 26 Cr    0.43378    0.13034   -0.43231
 27 Al   -0.82102   -0.11870   -0.12631
 28 Cr    0.15329   -0.20197   -0.08210
 29 Cr    0.35617    0.42208    0.74532
 30 Fe   -0.15453   -0.21416   -0.21941
 31 Fe   -0.04990   -0.45681   -0.03375
 32 Ni   -0.01040    0.13648    0.02746
 33 Cr    0.46435    0.12675    0.14296
 34 Co    0.12595   -0.06475   -0.02178
 35 Ni    0.08355   -0.14516   -0.06462
 36 Ni   -0.08276   -0.04558    0.20943
 37 Co   -0.05955    0.10114    0.07783
 38 Co   -0.18533   -0.06274    0.14658
 39 Cr   -0.69671   -0.19241   -0.30811
 40 Fe    0.04317   -0.22772   -0.18419
 41 Al   -0.03207   -0.12638    0.58525
 42 Fe    0.22749    0.01891    0.07771
 43 Ni    0.00875    0.07468   -0.03152
 44 Cr   -0.40005    0.46304    0.07707
 45 Co   -0.00470    0.04756    0.04263
 46 Co    0.08898   -0.00730    0.04655
 47 Ni   -0.07497    0.04744    0.08143
 48 Ni   -0.03799   -0.05962    0.07858
 49 Cr   -0.22720   -0.49127    0.29813
 50 Co    0.02753   -0.25288    0.08949
 51 Al   -0.86079   -0.63233    0.02286
 52 Al    0.58335   -0.06779   -0.06095
 53 Fe    0.19450   -0.46185    0.00915
 54 Fe    0.32337    0.07866   -0.01891
 55 Fe    0.15866   -0.40140   -0.24374
 56 Ni    0.06837   -0.11515   -0.05281
 57 Ni    0.08339    0.08721   -0.12893
 58 Co    0.03083   -0.26223   -0.28753
 59 Co   -0.20089   -0.28076   -0.04292
[...]
 93 Cr   -0.12017    0.22058   -0.02597
 94 Fe    0.84162   -0.62787    0.02791
 95 Cr    0.55812   -0.36410    0.40808
 96 Ni   -0.05269    0.18104    0.24484
 97 Fe   -0.10370   -0.22479   -0.18333
 98 Co   -0.24118   -0.12555    0.05906
 99 Ni   -0.12856    0.09919    0.03412
100 Cr   -0.07869    0.24946    0.21521
101 Al   -0.29997   -0.16023   -0.88900
102 Cr    0.51285   -0.12400   -0.14986
103 Co    0.46289    0.44064    0.00557
104 Al    0.00479    0.21825    0.39910
105 Ni    0.08352   -0.01434   -0.00864
106 Co    0.24562    0.37822    0.05837
107 Fe    0.05447    0.18252    0.04795

Date: Sat Apr  8 17:19:46 2023