User:   c.zeng@d0075
Date:   Fri Apr 14 04:24:10 2023
Arch:   x86_64
Pid:    108981
CWD:    /home/c.zeng/projects/hea-corrosion/hea-mlp/data-curation/bulk-mcmc/dft-jobs/1
Python: 3.8.1
gpaw:   /home/c.zeng/usr/installs/gpaw/source/gpaw-22.8.0/gpaw
_gpaw:  /home/c.zeng/usr/installs/gpaw/source/gpaw-22.8.0/
        _gpaw.cpython-38-x86_64-linux-gnu.so
ase:    /home/c.zeng/.local/lib/python3.8/site-packages/ase-3.22.1-py3.8.egg/ase (version 3.22.1)
numpy:  /shared/centos7/python/3.8.1/lib/python3.8/site-packages/numpy (version 1.17.4)
scipy:  /shared/centos7/python/3.8.1/lib/python3.8/site-packages/scipy (version 1.4.1)
units:  Angstrom and eV
cores: 30
OpenMP: False
OMP_NUM_THREADS: 1

Input parameters:
  convergence: {energy: 0.0001}
  kpts: [2 2 2]
  maxiter: 666
  mode: {ecut: 350.0,
         name: pw}
  occupations: {fixmagmom: False,
                name: fermi-dirac,
                width: 0.1}
  spinpol: True
  xc: PBE

System changes: positions, numbers, cell, pbc, initial_charges, initial_magmoms

Initialize ...

species:
  Co:
    name: Cobalt
    id: 339d20d5b0b93d2de9531a1bee871d91
    Z: 27.0
    valence: 9
    core: 18
    charge: 0.0
    file: /home/c.zeng/usr/data/gpaw-setups-0.9.20000/Co.PBE.gz
    compensation charges: {type: gauss,
                           rc: 0.32,
                           lmax: 2}
    cutoffs: {filter: 1.87,
              core: 2.55}
    valence states:
      #              energy  rcut
      - 4s(2.00)    -5.469   1.005
      - 4p(0.00)    -1.277   1.058
      - 3d(7.00)    -8.205   1.005
      -  s          21.742   1.005
      -  p          25.934   1.058
      -  d          19.007   1.005

    # Using partial waves for Co as LCAO basis

  Fe:
    name: Iron
    id: 37abbd8d6c3c35915a9b583b742da910
    Z: 26.0
    valence: 8
    core: 18
    charge: 0.0
    file: /home/c.zeng/usr/data/gpaw-setups-0.9.20000/Fe.PBE.gz
    compensation charges: {type: gauss,
                           rc: 0.33,
                           lmax: 2}
    cutoffs: {filter: 2.06,
              core: 2.67}
    valence states:
      #              energy  rcut
      - 4s(2.00)    -5.291   1.164
      - 4p(0.00)    -1.326   1.058
      - 3d(6.00)    -7.505   1.058
      -  s          21.920   1.164
      -  p          25.885   1.058
      -  d          19.706   1.058

[...]

  Cr:
    name: Chromium
    id: 33f258bda2ca9f93018e70263a35547b
    Z: 24.0
    valence: 6
    core: 18
    charge: 0.0
    file: /home/c.zeng/usr/data/gpaw-setups-0.9.20000/Cr.PBE.gz
    compensation charges: {type: gauss,
                           rc: 0.35,
                           lmax: 2}
    cutoffs: {filter: 2.14,
              core: 3.04}
    valence states:
      #              energy  rcut
      - 4s(1.00)    -4.007   1.164
      - 4p(0.00)    -0.989   1.217
      - 3d(5.00)    -2.913   1.111
      -  s          23.205   1.164
      -  p          26.223   1.217
      -  d          24.299   1.111

[...]

  Ni:
    name: Nickel
    id: 0d9f38a9d6e76a2886f07bb4381f212b
    Z: 28.0
    valence: 16
    core: 12
    charge: 0.0
    file: /home/c.zeng/usr/data/gpaw-setups-0.9.20000/Ni.PBE.gz
    compensation charges: {type: gauss,
                           rc: 0.36,
                           lmax: 2}
    cutoffs: {filter: 2.14,
              core: 1.98}
    valence states:
      #              energy  rcut
      - 4s(2.00)    -5.642   1.164
      - 3p(6.00)   -71.394   1.207
      - 4p(0.00)    -1.226   1.207
      - 3d(8.00)    -8.875   1.138
      -  s          21.570   1.164
      -  d          18.337   1.138

    # Using partial waves for Ni as LCAO basis

Reference energy: -3846758.590871  # eV

Spin-polarized calculation.
Magnetic moment: 151.200000

Convergence criteria:
 Maximum [total energy] change in last 3 cyles: 0.0001 eV / electron
 Maximum integral of absolute [dens]ity change: 0.0001 electrons / valence electron
 Maximum integral of absolute [eigenst]ate change: 4e-08 eV^2 / valence electron
 Maximum number of scf [iter]ations: 666
 (Square brackets indicate name in SCF output, whereas a 'c' in
 the SCF output indicates the quantity has converged.)

Symmetries present (total): 1

  ( 1  0  0)
  ( 0  1  0)
  ( 0  0  1)

8 k-points: 2 x 2 x 2 Monkhorst-Pack grid
4 k-points in the irreducible part of the Brillouin zone
       k-points in crystal coordinates                weights
   0:     0.25000000   -0.25000000   -0.25000000          2/8
   1:     0.25000000   -0.25000000    0.25000000          2/8
   2:     0.25000000    0.25000000   -0.25000000          2/8
   3:     0.25000000    0.25000000    0.25000000          2/8

Wave functions: Plane wave expansion
  Cutoff energy: 350.000 eV
  Number of coefficients (min, max): 17755, 17755
  Pulay-stress correction: 0.000000 eV/Ang^3 (de/decut=0.000000)
  Using FFTW library
  ScaLapack parameters: grid=1x1, blocksize=None
  Wavefunction extrapolation:
    Improved wavefunction reuse through dual PAW basis

Occupation numbers: Fermi-Dirac:
  width: 0.1000  # eV

Eigensolver
   Davidson(niter=2)

Densities:
  Coarse grid: 48*48*48 grid
  Fine grid: 96*96*96 grid
  Total Charge: 0.000000

Density mixing:
  Method: difference
  Backend: pulay
  Linear mixing parameter: 0.05
  old densities: 5
  Damping of long wavelength oscillations: 50

Hamiltonian:
  XC and Coulomb potentials evaluated on a 96*96*96 grid
  Using the PBE Exchange-Correlation functional
  External potential:
    NoExternalPotential

XC parameters: PBE with 2 nearest neighbor stencil

Total number of cores used: 30
Parallelization over k-points: 2
Domain decomposition: 5 x 3 x 1

Number of atoms: 108
Number of atomic orbitals: 1053
Number of bands in calculation: 727
Number of valence electrons: 1053
Bands to converge: occupied

... initialized

Initializing position-dependent things.

Density initialized from atomic densities
Creating initial wave functions:
  727 bands from LCAO basis set

       /|  Ni       Ni      Cr    |
      / |   NiFe     Cr           |
     /  |       Co      Fe       Fe
    /   |Ni      CFe       Co     Ni
   /    | Co       Ni       NFe   |
  /  CCo|  FeNi     CoNi          |
 *    NiCr    FeCr   FeCrCo       |
 |      |CoNi   FeFeCr  CoCrFe   Cr
 |      | CrCo     CoCrFeNiNiCr   |
 |    Co|  CoFeNi   CoNiFe   CrCo |
 |      Ni    CrNiCr CrCrNi     Cr|
 |      |FeFe  CoFeCr   FeNiFe   Ni
 |      .-FeCo-----CrCrFe--NiCr---Co
 |   Cro     Fe       Cr         /
 |    CrCo     Coi     CCre     /
 |   /    Co               Ni  /
 |  /      Fe       Fe    CrFe/
 | / Fe     Cr       NiNi    /
 |/            Co       Ni  /
 *--------Co------Co-------*

Positions:
   0 Co    -0.012479   -0.003723   10.616104    ( 0.0000,  0.0000,  2.1000)
   1 Fe    -0.011321    1.761305    1.763386    ( 0.0000,  0.0000,  2.1000)
   2 Fe     1.758365    0.001326    1.769011    ( 0.0000,  0.0000,  2.0000)
   3 Co     1.752686    1.779222   10.610436    ( 0.0000,  0.0000,  2.0000)
   4 Co     3.541196    0.004726   10.616104    ( 0.0000,  0.0000,  0.0000)
   5 Fe     3.534711    1.782438    1.778999    ( 0.0000,  0.0000,  0.0000)
   6 Cr     5.305717   10.600629    1.767950    ( 0.0000,  0.0000,  2.1000)
   7 Co     5.324780    1.765604   10.614618    ( 0.0000,  0.0000,  0.0000)
   8 Co     7.089121    0.014598   10.619926    ( 0.0000,  0.0000,  2.0000)
   9 Fe     7.085279    1.771219    1.773543    ( 0.0000,  0.0000,  1.5000)
  10 Ni     8.850554    0.011470    1.768756    ( 0.0000,  0.0000,  1.5000)
  11 Ni     8.842381    1.777333   10.615680    ( 0.0000,  0.0000,  2.1000)
  12 Fe    10.590535    3.538203   -0.001956    ( 0.0000,  0.0000,  0.0000)
  13 Ni    10.624277    5.310674    1.769786    ( 0.0000,  0.0000,  2.0000)
  14 Co     1.761379    3.535623    1.784572    ( 0.0000,  0.0000,  0.0000)
  15 Ni     1.770200    5.301408   10.611753    ( 0.0000,  0.0000,  2.0000)
  16 Cr     3.556003    3.551407   10.618333    ( 0.0000,  0.0000,  1.5000)
  17 Fe     3.539370    5.311290    1.775199    ( 0.0000,  0.0000,  2.1000)
  18 Ni     5.320142    3.545059    1.779678    ( 0.0000,  0.0000,  1.5000)
  19 Fe     5.306980    5.314654   10.602720    ( 0.0000,  0.0000,  0.0000)
  20 Ni     7.081585    3.529127   10.614725    ( 0.0000,  0.0000,  2.1000)
  21 Cr     7.069241    5.303361    1.781271    ( 0.0000,  0.0000,  1.5000)
  22 Fe     8.841447    3.542671    1.781600    ( 0.0000,  0.0000,  2.1000)
  23 Cr     8.850893    5.290379    0.000220    ( 0.0000,  0.0000,  0.0000)
  24 Cr     0.005868    7.083411   10.614937    ( 0.0000,  0.0000,  2.0000)
  25 Ni    10.601043    8.849694    1.772960    ( 0.0000,  0.0000,  2.1000)
  26 Fe     1.773713    7.072329    1.777184    ( 0.0000,  0.0000,  0.0000)
  27 Ni     1.755520    8.842943   10.608324    ( 0.0000,  0.0000,  0.0000)
  28 Fe     3.544009    7.063116   10.610489    ( 0.0000,  0.0000,  2.0000)
  29 Co     3.542225    8.826820    1.785580    ( 0.0000,  0.0000,  0.0000)
  30 Cr     5.309835    7.081776    1.776600    ( 0.0000,  0.0000,  2.1000)
  31 Ni     5.331945    8.840321   10.604673    ( 0.0000,  0.0000,  2.1000)
  32 Co     7.068434    7.069028   10.623110    ( 0.0000,  0.0000,  0.0000)
  33 Fe     7.083750    8.846796    1.774509    ( 0.0000,  0.0000,  1.5000)
  34 Ni     8.841404    7.058180    1.777173    ( 0.0000,  0.0000,  1.5000)
  35 Cr     8.835524    8.853600   10.611753    ( 0.0000,  0.0000,  0.0000)
  36 Ni    -0.009351   10.618864    3.531070    ( 0.0000,  0.0000,  2.0000)
  37 Fe    10.602508    1.764818    5.300452    ( 0.0000,  0.0000,  1.5000)
  38 Cr     1.756720    0.001379    5.295867    ( 0.0000,  0.0000,  0.0000)
  39 Co     1.766506    1.767154    3.539222    ( 0.0000,  0.0000,  2.0000)
  40 Co     3.539742    0.013881    3.542873    ( 0.0000,  0.0000,  2.0000)
  41 Fe     3.548944    1.788658    5.306237    ( 0.0000,  0.0000,  2.1000)
  42 Fe     5.320174   -0.004685    5.301386    ( 0.0000,  0.0000,  0.0000)
  43 Co     5.316862    1.765551    3.538935    ( 0.0000,  0.0000,  2.0000)
  44 Ni     7.081086   -0.000289    3.531325    ( 0.0000,  0.0000,  2.0000)
  45 Cr     7.072902    1.777407    5.300537    ( 0.0000,  0.0000,  2.0000)
  46 Fe     8.840544    0.012372    5.307851    ( 0.0000,  0.0000,  1.5000)
  47 Cr     8.833592    1.767928    3.534318    ( 0.0000,  0.0000,  2.1000)
  48 Cr    -0.004066    3.525285    3.545951    ( 0.0000,  0.0000,  0.0000)
  49 Co    -0.001689    5.317934    5.307787    ( 0.0000,  0.0000,  1.5000)
  50 Ni     1.769043    3.555101    5.297279    ( 0.0000,  0.0000,  2.0000)
  51 Fe     1.773692    5.305929    3.538266    ( 0.0000,  0.0000,  2.1000)
  52 Co     3.542746    3.537364    3.547575    ( 0.0000,  0.0000,  2.1000)
  53 Fe     3.548477    5.306927    5.301153    ( 0.0000,  0.0000,  2.0000)
  54 Ni     5.316246    3.553031    5.303637    ( 0.0000,  0.0000,  2.0000)
  55 Fe     5.303286    5.303531    3.542385    ( 0.0000,  0.0000,  1.5000)
  56 Cr     7.074962    3.533023    3.537215    ( 0.0000,  0.0000,  1.5000)
  57 Ni     7.066046    5.306046    5.300081    ( 0.0000,  0.0000,  2.0000)
  58 Ni     8.834526    3.538160    5.294530    ( 0.0000,  0.0000,  2.1000)
  59 Ni     8.846255    5.300452    3.537672    ( 0.0000,  0.0000,  1.5000)
[...]
  93 Ni     7.071130    5.304220    8.839313    ( 0.0000,  0.0000,  1.5000)
  94 Co     8.837997    3.524669    8.843389    ( 0.0000,  0.0000,  1.5000)
  95 Cr     8.833772    5.299051    7.076862    ( 0.0000,  0.0000,  0.0000)
  96 Ni     0.012168    7.080333    7.083835    ( 0.0000,  0.0000,  1.5000)
  97 Fe    -0.017034    8.848707    8.843941    ( 0.0000,  0.0000,  2.1000)
  98 Co     1.777938    7.075503    8.840194    ( 0.0000,  0.0000,  2.0000)
  99 Fe     1.758800    8.840035    7.069803    ( 0.0000,  0.0000,  0.0000)
 100 Fe     3.549921    7.066194    7.070090    ( 0.0000,  0.0000,  2.1000)
 101 Co     3.553137    8.839111    8.836776    ( 0.0000,  0.0000,  0.0000)
 102 Ni     5.304189    7.079929    8.840215    ( 0.0000,  0.0000,  2.0000)
 103 Co     5.321946    8.832180    7.082997    ( 0.0000,  0.0000,  2.1000)
 104 Cr     7.057077    7.072149    7.064167    ( 0.0000,  0.0000,  1.5000)
 105 Fe     7.082402    8.855500    8.837487    ( 0.0000,  0.0000,  2.1000)
 106 Co     8.846786    7.077881    8.846732    ( 0.0000,  0.0000,  0.0000)
 107 Ni     8.839313    8.848272    7.075153    ( 0.0000,  0.0000,  0.0000)

Unit cell:
           periodic     x           y           z      points  spacing
  1. axis:    yes   10.614300    0.000000    0.000000    48     0.2211
  2. axis:    yes    0.000000   10.614300    0.000000    48     0.2211
  3. axis:    yes    0.000000    0.000000   10.614300    48     0.2211

  Lengths:  10.614300  10.614300  10.614300
  Angles:   90.000000  90.000000  90.000000

Effective grid spacing dv^(1/3) = 0.2211

     iter     time        total  log10-change:  magmom
                         energy  eigst   dens
iter:   1 04:31:28  -967.227972                  +151.1171
iter:   2 04:34:26  -984.176175  -0.44  -1.34    +115.0624
iter:   3 04:37:16  -918.270390  -0.92  -1.26    +89.3117
iter:   4 04:40:06  -894.963129  -1.49  -1.39    +72.4770
iter:   5 04:42:57  -892.281650  -1.91  -1.49    +63.4096
iter:   6 04:45:46  -896.317108  -1.96  -1.52    +58.2082
iter:   7 04:48:36  -893.984693  -1.77  -1.53    +56.4352
iter:   8 04:51:27  -887.590826  -1.89  -1.57    +55.1181
iter:   9 04:54:18  -892.423004  -1.81  -1.74    +54.4449
iter:  10 04:57:09  -887.730810  -2.19  -1.78    +53.9385
iter:  11 05:00:00  -889.562441  -2.42  -1.91    +54.0745
iter:  12 05:02:49  -887.272952  -2.74  -1.87    +54.3766
iter:  13 05:05:39  -888.660032  -2.76  -1.97    +54.8274
iter:  14 05:08:28  -889.042438  -2.67  -1.97    +55.2497
iter:  15 05:11:19  -890.650284  -2.59  -2.00    +55.5440
iter:  16 05:14:08  -893.034061  -2.25  -1.99    +55.7994
iter:  17 05:16:58  -891.147852  -2.45  -1.92    +55.9488
iter:  18 05:19:48  -890.047507  -2.53  -2.05    +56.3566
iter:  19 05:23:50  -889.602314  -2.80  -2.13    +56.4685
iter:  20 05:26:41  -888.968581  -3.12  -2.18    +56.7277
iter:  21 05:29:31  -888.938372  -3.52  -2.30    +57.4596
iter:  22 05:32:22  -889.105849  -3.62  -2.37    +57.9603
iter:  23 05:35:13  -889.271873  -3.58  -2.36    +58.5824
iter:  24 05:38:04  -889.850418  -3.16  -2.40    +59.1151
iter:  25 05:40:55  -889.807823  -3.11  -2.33    +59.4185
iter:  26 05:43:47  -889.889485c -3.07  -2.40    +59.9289
iter:  27 05:46:37  -889.899387c -3.22  -2.44    +60.1209
iter:  28 05:49:28  -889.830715c -3.34  -2.44    +60.4301
iter:  29 05:52:18  -889.760949  -3.65  -2.55    +60.7984
iter:  30 05:55:08  -889.758651c -4.03  -2.61    +61.1571
iter:  31 05:57:58  -889.814607c -4.17  -2.68    +61.4711
iter:  32 06:00:48  -889.855282c -4.28  -2.70    +61.7640
iter:  33 06:03:39  -889.950323  -3.90  -2.72    +62.1215
iter:  34 06:06:29  -890.009938  -3.92  -2.77    +62.1497
iter:  35 06:09:19  -889.996051c -4.00  -2.78    +62.2201
iter:  36 06:12:09  -890.014047c -4.11  -2.90    +62.2630
iter:  37 06:15:00  -889.991809c -4.37  -2.89    +62.3582
iter:  38 06:18:58  -890.014903c -4.54  -3.16    +62.4295
iter:  39 06:21:49  -890.010849c -4.91  -3.12    +62.4474
iter:  40 06:24:39  -890.031434c -4.80  -3.20    +62.5323
iter:  41 06:27:30  -890.033171c -5.23  -3.24    +62.5561
iter:  42 06:30:20  -890.056599c -4.82  -3.26    +62.6684
iter:  43 06:33:09  -890.057736c -5.60  -3.24    +62.6838
iter:  44 06:36:01  -890.087277c -4.69  -3.30    +62.7917
iter:  45 06:38:52  -890.092313c -5.24  -3.28    +62.8160
iter:  46 06:41:42  -890.112442c -4.92  -3.36    +62.8905
iter:  47 06:44:32  -890.141323c -4.59  -3.36    +62.9930
iter:  48 06:47:23  -890.167561c -4.76  -3.36    +63.0717
iter:  49 06:50:13  -890.160625c -5.76  -3.19    +63.0670
iter:  50 06:53:02  -890.178136c -4.84  -3.23    +63.1574
iter:  51 06:55:51  -890.224191c -4.22  -3.27    +63.3582
iter:  52 06:58:42  -890.289994  -3.86  -3.19    +63.6803
iter:  53 07:01:32  -890.304861c -4.34  -3.00    +63.7613
iter:  54 07:04:34  -890.292260c -5.15  -2.97    +63.7110
iter:  55 07:08:24  -890.294313c -5.14  -3.00    +63.7263
iter:  56 07:11:15  -890.283872c -5.43  -3.00    +63.7257
iter:  57 07:14:05  -890.278966c -3.82  -3.03    +63.7054
iter:  58 07:16:56  -890.287896c -4.13  -2.91    +63.6978
iter:  59 07:19:46  -890.264883c -4.27  -2.90    +63.6136
iter:  60 07:22:36  -890.251247c -4.57  -3.02    +63.5525
iter:  61 07:25:27  -890.248620c -4.76  -3.10    +63.5598
iter:  62 07:28:17  -890.247097c -4.90  -3.14    +63.5465
iter:  63 07:31:07  -890.241783c -5.18  -3.17    +63.5021
iter:  64 07:33:57  -890.248705c -4.92  -3.27    +63.5030
iter:  65 07:36:47  -890.245817c -5.00  -3.18    +63.4973
iter:  66 07:39:37  -890.243918c -5.11  -3.25    +63.4790
iter:  67 07:42:27  -890.244256c -5.13  -3.29    +63.4608
iter:  68 07:45:16  -890.245553c -5.09  -3.27    +63.4570
iter:  69 07:48:06  -890.241999c -5.21  -3.30    +63.4776
iter:  70 07:50:56  -890.242766c -5.42  -3.38    +63.4588
iter:  71 07:53:46  -890.241101c -5.43  -3.39    +63.4459
iter:  72 07:56:36  -890.241276c -5.52  -3.41    +63.4415
iter:  73 07:59:26  -890.242233c -5.57  -3.44    +63.4412
iter:  74 08:02:44  -890.242041c -5.59  -3.45    +63.4337
iter:  75 08:06:19  -890.241069c -5.38  -3.47    +63.4168
iter:  76 08:09:10  -890.242104c -5.56  -3.47    +63.4293
iter:  77 08:12:00  -890.242565c -5.44  -3.49    +63.4387
iter:  78 08:14:51  -890.241147c -5.55  -3.51    +63.4355
iter:  79 08:17:40  -890.240518c -5.73  -3.55    +63.4331
iter:  80 08:20:30  -890.240307c -5.94  -3.58    +63.4372
iter:  81 08:23:21  -890.241097c -5.79  -3.67    +63.4454
iter:  82 08:26:11  -890.240415c -6.23  -3.64    +63.4351
iter:  83 08:29:02  -890.240178c -5.99  -3.72    +63.4281
iter:  84 08:31:52  -890.241351c -5.88  -3.69    +63.4266
iter:  85 08:34:42  -890.241335c -5.92  -3.67    +63.4253
iter:  86 08:37:31  -890.240430c -6.06  -3.71    +63.4192
iter:  87 08:40:31  -890.240328c -5.88  -3.79    +63.4126
iter:  88 08:44:22  -890.240131c -6.27  -3.73    +63.4203
iter:  89 08:47:13  -890.240351c -6.36  -3.87    +63.4221
iter:  90 08:50:03  -890.240014c -6.64  -3.88    +63.4215
iter:  91 08:52:54  -890.240021c -6.80  -3.92    +63.4208
iter:  92 08:55:44  -890.240263c -6.68  -3.95    +63.4223
iter:  93 08:58:35  -890.240925c -6.45  -3.95    +63.4232
iter:  94 09:01:24  -890.240326c -6.46  -3.89    +63.4171
iter:  95 09:04:15  -890.240168c -6.29  -3.98    +63.4154
iter:  96 09:07:05  -890.240817c -6.33  -3.90    +63.4200
iter:  97 09:09:55  -890.240616c -6.41  -3.94    +63.4216
iter:  98 09:12:45  -890.240274c -6.48  -4.02c   +63.4191
iter:  99 09:15:36  -890.240150c -6.87  -4.05c   +63.4169
iter: 100 09:18:25  -890.240400c -6.75  -4.12c   +63.4213
iter: 101 09:21:14  -890.240686c -6.80  -4.15c   +63.4188
iter: 102 09:24:05  -890.240334c -6.95  -4.12c   +63.4142
iter: 103 09:26:55  -890.240381c -6.81  -4.22c   +63.4115
iter: 104 09:29:45  -890.240792c -6.56  -4.21c   +63.4122
iter: 105 09:32:35  -890.240534c -6.95  -4.08c   +63.4133
iter: 106 09:36:20  -890.240359c -6.87  -4.45c   +63.4088
iter: 107 09:39:27  -890.240239c -7.09  -4.29c   +63.4104
iter: 108 09:42:17  -890.240434c -7.42c -4.38c   +63.4147

Converged after 108 iterations.

Dipole moment: (6.787544, -1.872420, 0.562655) |e|*Ang

Total magnetic moment: (0.000000, 0.000000, 63.414672)
Local magnetic moments:
   0 Co ( 0.000000,  0.000000,  1.396969)
   1 Fe ( 0.000000,  0.000000,  2.195663)
   2 Fe ( 0.000000,  0.000000,  2.532203)
   3 Co ( 0.000000,  0.000000,  1.319802)
   4 Co ( 0.000000,  0.000000,  1.336764)
   5 Fe ( 0.000000,  0.000000,  2.348080)
   6 Cr ( 0.000000,  0.000000, -1.727328)
   7 Co ( 0.000000,  0.000000,  0.921029)
   8 Co ( 0.000000,  0.000000,  0.972683)
   9 Fe ( 0.000000,  0.000000,  2.208241)
  10 Ni ( 0.000000,  0.000000,  0.329156)
  11 Ni ( 0.000000,  0.000000,  0.343773)
  12 Fe ( 0.000000,  0.000000,  2.178841)
  13 Ni ( 0.000000,  0.000000,  0.211525)
  14 Co ( 0.000000,  0.000000,  1.297070)
  15 Ni ( 0.000000,  0.000000,  0.228722)
  16 Cr ( 0.000000,  0.000000, -1.028594)
  17 Fe ( 0.000000,  0.000000,  1.785630)
  18 Ni ( 0.000000,  0.000000,  0.270637)
  19 Fe ( 0.000000,  0.000000,  1.933980)
  20 Ni ( 0.000000,  0.000000,  0.230202)
  21 Cr ( 0.000000,  0.000000,  0.578360)
  22 Fe ( 0.000000,  0.000000,  1.688516)
  23 Cr ( 0.000000,  0.000000, -1.312288)
  24 Cr ( 0.000000,  0.000000,  1.234491)
  25 Ni ( 0.000000,  0.000000,  0.069394)
  26 Fe ( 0.000000,  0.000000, -1.709316)
  27 Ni ( 0.000000,  0.000000,  0.367882)
  28 Fe ( 0.000000,  0.000000,  2.245936)
  29 Co ( 0.000000,  0.000000,  1.011019)
  30 Cr ( 0.000000,  0.000000, -1.161354)
  31 Ni ( 0.000000,  0.000000,  0.300058)
  32 Co ( 0.000000,  0.000000,  1.055446)
  33 Fe ( 0.000000,  0.000000,  2.011266)
  34 Ni ( 0.000000,  0.000000, -0.023410)
  35 Cr ( 0.000000,  0.000000, -1.624383)
  36 Ni ( 0.000000,  0.000000,  0.180273)
  37 Fe ( 0.000000,  0.000000,  2.033505)
  38 Cr ( 0.000000,  0.000000, -1.787669)
  39 Co ( 0.000000,  0.000000,  1.260683)
  40 Co ( 0.000000,  0.000000,  1.305913)
  41 Fe ( 0.000000,  0.000000,  2.399329)
  42 Fe ( 0.000000,  0.000000,  2.127415)
  43 Co ( 0.000000,  0.000000,  1.066995)
  44 Ni ( 0.000000,  0.000000,  0.153784)
  45 Cr ( 0.000000,  0.000000,  0.676301)
  46 Fe ( 0.000000,  0.000000,  1.573503)
  47 Cr ( 0.000000,  0.000000, -1.043082)
  48 Cr ( 0.000000,  0.000000, -1.677043)
  49 Co ( 0.000000,  0.000000,  0.864695)
  50 Ni ( 0.000000,  0.000000,  0.343838)
  51 Fe ( 0.000000,  0.000000,  1.783224)
  52 Co ( 0.000000,  0.000000,  1.464237)
  53 Fe ( 0.000000,  0.000000,  1.972689)
  54 Ni ( 0.000000,  0.000000,  0.314988)
  55 Fe ( 0.000000,  0.000000,  1.447069)
  56 Cr ( 0.000000,  0.000000, -1.211397)
  57 Ni ( 0.000000,  0.000000,  0.077597)
  58 Ni ( 0.000000,  0.000000, -0.002552)
  59 Ni ( 0.000000,  0.000000, -0.001514)
[...]
  93 Ni ( 0.000000,  0.000000,  0.189478)
  94 Co ( 0.000000,  0.000000,  0.702914)
  95 Cr ( 0.000000,  0.000000,  1.168933)
  96 Ni ( 0.000000,  0.000000,  0.308008)
  97 Fe ( 0.000000,  0.000000,  2.273312)
  98 Co ( 0.000000,  0.000000,  1.393350)
  99 Fe ( 0.000000,  0.000000,  2.021626)
 100 Fe ( 0.000000,  0.000000,  2.330475)
 101 Co ( 0.000000,  0.000000,  1.472297)
 102 Ni ( 0.000000,  0.000000,  0.484391)
 103 Co ( 0.000000,  0.000000,  1.050955)
 104 Cr ( 0.000000,  0.000000, -1.653032)
 105 Fe ( 0.000000,  0.000000,  2.107880)
 106 Co ( 0.000000,  0.000000,  0.890440)
 107 Ni ( 0.000000,  0.000000,  0.270785)

Energy contributions relative to reference atoms: (reference = -3846758.590871)

Kinetic:       +124.152551
Potential:     -190.143036
External:        +0.000000
XC:            -861.868577
Entropy (-ST):   -4.625258
Local:          +39.931257
Free energy:   -892.553063
Extrapolated:  -890.240434

Spin contamination: 31.901492 electrons
Showing only first 2 kpts
                      Up                     Down
 Kpt  Band  Eigenvalues  Occupancy  Eigenvalues  Occupancy
  0   524      9.85083    0.99319     10.71704    0.02462
  0   525      9.85930    0.99259     10.73226    0.02122
  0   526      9.86748    0.99197     10.74361    0.01898
  0   527      9.87918    0.99098     10.75343    0.01724

  1   524      9.84131    0.99381     10.72374    0.02306
  1   525      9.85214    0.99310     10.74774    0.01823
  1   526      9.86595    0.99209     10.75242    0.01741
  1   527      9.88354    0.99058     10.76101    0.01600

Fermi level: 10.34910

No gap

Forces in eV/Ang:
  0 Co   -0.08208    0.05210    0.00451
  1 Fe    0.10980    0.16384    0.12307
  2 Fe    0.13166   -0.28253    0.03599
  3 Co    0.32518   -0.00561   -0.12225
  4 Co    0.06431   -0.00853    0.01744
  5 Fe    0.05868    0.14256    0.02273
  6 Cr   -0.14334   -0.07014   -0.08525
  7 Co   -0.37071   -0.00839   -0.18435
  8 Co   -0.13779   -0.11886   -0.05886
  9 Fe   -0.14735   -0.04931   -0.06013
 10 Ni   -0.04618   -0.01022   -0.11185
 11 Ni   -0.02506   -0.11832    0.02634
 12 Fe    0.40552    0.24837   -0.16163
 13 Ni   -0.03050   -0.00665    0.01660
 14 Co    0.00283   -0.00154   -0.17286
 15 Ni   -0.01676   -0.10053    0.06898
 16 Cr   -0.08768   -0.19705    0.00738
 17 Fe   -0.14504   -0.23387    0.09643
 18 Ni   -0.14038   -0.07218   -0.12249
 19 Fe    0.11676   -0.19813    0.01514
 20 Ni   -0.18281    0.12106    0.00855
 21 Cr   -0.06634    0.22954    0.03696
 22 Fe    0.33795    0.11148    0.26471
 23 Cr   -0.01753    0.24178   -0.67901
 24 Cr    0.18061   -0.17161    0.03788
 25 Ni    0.08529   -0.09473    0.09428
 26 Fe   -0.19547    0.21338    0.21537
 27 Ni    0.30235    0.05464   -0.01420
 28 Fe   -0.10352    0.36329    0.09898
 29 Co    0.05190    0.09849   -0.03815
 30 Cr   -0.24170    0.33400   -0.23724
 31 Ni   -0.25562    0.16336    0.11602
 32 Co    0.20825   -0.04376   -0.04563
 33 Fe   -0.03685   -0.21541   -0.13087
 34 Ni    0.14182    0.06489   -0.03496
 35 Cr   -0.05797   -0.20461    0.06546
 36 Ni   -0.01015    0.02338    0.04565
 37 Fe    0.16687    0.06913   -0.00390
 38 Cr    0.03287   -0.18529   -0.17145
 39 Co    0.00629    0.25253   -0.07526
 40 Co   -0.03060   -0.35967   -0.06593
 41 Fe   -0.20323    0.00788   -0.08707
 42 Fe   -0.04980   -0.41704   -0.01629
 43 Co   -0.08619    0.15933    0.04711
 44 Ni    0.07702    0.09544    0.03757
 45 Cr   -0.11405    0.14308   -0.25641
 46 Fe   -0.05383   -0.10835    0.12095
 47 Cr   -0.02480   -0.74750    0.00195
 48 Cr    0.37673    0.27404    0.17558
 49 Co    0.21312    0.02153   -0.09299
 50 Ni   -0.11405   -0.11397    0.15293
 51 Fe   -0.04082    0.02714   -0.09656
 52 Co    0.04264   -0.00930   -0.23450
 53 Fe   -0.09511   -0.28488   -0.00460
 54 Ni    0.00724   -0.01691   -0.03029
 55 Fe    0.00688    0.08487    0.13823
 56 Cr   -0.29919   -0.08437    0.20861
 57 Ni   -0.05986   -0.03899   -0.08813
 58 Ni    0.10614    0.19397    0.00998
 59 Ni    0.02204    0.04754    0.01840
[...]
 93 Ni    0.14677    0.10002    0.27242
 94 Co    0.01629    0.25032   -0.00017
 95 Cr    0.38008   -0.13616    0.27127
 96 Ni   -0.02344   -0.15576    0.03356
 97 Fe    0.10164   -0.03441   -0.14831
 98 Co   -0.25497   -0.09451   -0.16336
 99 Fe    0.40815    0.25923    0.15270
100 Fe   -0.12671    0.17928    0.30208
101 Co   -0.12409    0.07317   -0.07040
102 Ni    0.16525    0.00708    0.10651
103 Co   -0.12155    0.16564   -0.20092
104 Cr    0.06480    0.35256    0.13901
105 Fe   -0.20001   -0.11847    0.20365
106 Co   -0.00946   -0.03090    0.16369
107 Ni    0.08239   -0.12920   -0.00609

Date: Fri Apr 14 09:42:43 2023