User:   c.zeng@d0017
Date:   Fri Apr 14 17:00:09 2023
Arch:   x86_64
Pid:    207580
CWD:    /home/c.zeng/projects/hea-corrosion/hea-mlp/data-curation/bulk-mcmc/dft-jobs/146
Python: 3.8.1
gpaw:   /home/c.zeng/usr/installs/gpaw/source/gpaw-22.8.0/gpaw
_gpaw:  /home/c.zeng/usr/installs/gpaw/source/gpaw-22.8.0/
        _gpaw.cpython-38-x86_64-linux-gnu.so
ase:    /home/c.zeng/.local/lib/python3.8/site-packages/ase-3.22.1-py3.8.egg/ase (version 3.22.1)
numpy:  /shared/centos7/python/3.8.1/lib/python3.8/site-packages/numpy (version 1.17.4)
scipy:  /shared/centos7/python/3.8.1/lib/python3.8/site-packages/scipy (version 1.4.1)
units:  Angstrom and eV
cores: 30
OpenMP: False
OMP_NUM_THREADS: 1

Input parameters:
  convergence: {energy: 0.0001}
  kpts: [2 2 2]
  maxiter: 666
  mode: {ecut: 350.0,
         name: pw}
  occupations: {fixmagmom: False,
                name: fermi-dirac,
                width: 0.1}
  spinpol: True
  xc: PBE

System changes: positions, numbers, cell, pbc, initial_charges, initial_magmoms

Initialize ...

species:
  Co:
    name: Cobalt
    id: 339d20d5b0b93d2de9531a1bee871d91
    Z: 27.0
    valence: 9
    core: 18
    charge: 0.0
    file: /home/c.zeng/usr/data/gpaw-setups-0.9.20000/Co.PBE.gz
    compensation charges: {type: gauss,
                           rc: 0.32,
                           lmax: 2}
    cutoffs: {filter: 1.87,
              core: 2.55}
    valence states:
      #              energy  rcut
      - 4s(2.00)    -5.469   1.005
      - 4p(0.00)    -1.277   1.058
      - 3d(7.00)    -8.205   1.005
      -  s          21.742   1.005
      -  p          25.934   1.058
      -  d          19.007   1.005

    # Using partial waves for Co as LCAO basis

  Fe:
    name: Iron
    id: 37abbd8d6c3c35915a9b583b742da910
    Z: 26.0
    valence: 8
    core: 18
    charge: 0.0
    file: /home/c.zeng/usr/data/gpaw-setups-0.9.20000/Fe.PBE.gz
    compensation charges: {type: gauss,
                           rc: 0.33,
                           lmax: 2}
    cutoffs: {filter: 2.06,
              core: 2.67}
    valence states:
      #              energy  rcut
      - 4s(2.00)    -5.291   1.164
      - 4p(0.00)    -1.326   1.058
      - 3d(6.00)    -7.505   1.058
      -  s          21.920   1.164
      -  p          25.885   1.058
      -  d          19.706   1.058

[...]

  Ni:
    name: Nickel
    id: 0d9f38a9d6e76a2886f07bb4381f212b
    Z: 28.0
    valence: 16
    core: 12
    charge: 0.0
    file: /home/c.zeng/usr/data/gpaw-setups-0.9.20000/Ni.PBE.gz
    compensation charges: {type: gauss,
                           rc: 0.36,
                           lmax: 2}
    cutoffs: {filter: 2.14,
              core: 1.98}
    valence states:
      #              energy  rcut
      - 4s(2.00)    -5.642   1.164
      - 3p(6.00)   -71.394   1.207
      - 4p(0.00)    -1.226   1.207
      - 3d(8.00)    -8.875   1.138
      -  s          21.570   1.164
      -  d          18.337   1.138

[...]

  Al:
    name: Aluminium
    id: 0292cae29f5d6237e50f6abdd43a7bdd
    Z: 13.0
    valence: 3
    core: 10
    charge: 0.0
    file: /home/c.zeng/usr/data/gpaw-setups-0.9.20000/Al.PBE.gz
    compensation charges: {type: gauss,
                           rc: 0.34,
                           lmax: 2}
    cutoffs: {filter: 1.91,
              core: 2.36}
    valence states:
      #              energy  rcut
      - 3s(2.00)    -7.753   1.085
      - 3p(1.00)    -2.712   1.085
      -  s          19.459   1.085
      -  p          24.499   1.085
      -  d           0.000   1.085

[...]

  Cr:
    name: Chromium
    id: 33f258bda2ca9f93018e70263a35547b
    Z: 24.0
    valence: 6
    core: 18
    charge: 0.0
    file: /home/c.zeng/usr/data/gpaw-setups-0.9.20000/Cr.PBE.gz
    compensation charges: {type: gauss,
                           rc: 0.35,
                           lmax: 2}
    cutoffs: {filter: 2.14,
              core: 3.04}
    valence states:
      #              energy  rcut
      - 4s(1.00)    -4.007   1.164
      - 4p(0.00)    -0.989   1.217
      - 3d(5.00)    -2.913   1.111
      -  s          23.205   1.164
      -  p          26.223   1.217
      -  d          24.299   1.111

    # Using partial waves for Cr as LCAO basis

Reference energy: -3548577.034362  # eV

Spin-polarized calculation.
Magnetic moment: 136.400000

Convergence criteria:
 Maximum [total energy] change in last 3 cyles: 0.0001 eV / electron
 Maximum integral of absolute [dens]ity change: 0.0001 electrons / valence electron
 Maximum integral of absolute [eigenst]ate change: 4e-08 eV^2 / valence electron
 Maximum number of scf [iter]ations: 666
 (Square brackets indicate name in SCF output, whereas a 'c' in
 the SCF output indicates the quantity has converged.)

Symmetries present (total): 1

  ( 1  0  0)
  ( 0  1  0)
  ( 0  0  1)

8 k-points: 2 x 2 x 2 Monkhorst-Pack grid
4 k-points in the irreducible part of the Brillouin zone
       k-points in crystal coordinates                weights
   0:     0.25000000   -0.25000000   -0.25000000          2/8
   1:     0.25000000   -0.25000000    0.25000000          2/8
   2:     0.25000000    0.25000000   -0.25000000          2/8
   3:     0.25000000    0.25000000    0.25000000          2/8

Wave functions: Plane wave expansion
  Cutoff energy: 350.000 eV
  Number of coefficients (min, max): 18331, 18331
  Pulay-stress correction: 0.000000 eV/Ang^3 (de/decut=0.000000)
  Using FFTW library
  ScaLapack parameters: grid=1x1, blocksize=None
  Wavefunction extrapolation:
    Improved wavefunction reuse through dual PAW basis

Occupation numbers: Fermi-Dirac:
  width: 0.1000  # eV

Eigensolver
   Davidson(niter=2)

Densities:
  Coarse grid: 48*48*48 grid
  Fine grid: 96*96*96 grid
  Total Charge: 0.000000

Density mixing:
  Method: difference
  Backend: pulay
  Linear mixing parameter: 0.05
  old densities: 5
  Damping of long wavelength oscillations: 50

Hamiltonian:
  XC and Coulomb potentials evaluated on a 96*96*96 grid
  Using the PBE Exchange-Correlation functional
  External potential:
    NoExternalPotential

XC parameters: PBE with 2 nearest neighbor stencil

Total number of cores used: 30
Parallelization over k-points: 2
Domain decomposition: 5 x 3 x 1

Number of atoms: 108
Number of atomic orbitals: 994
Number of bands in calculation: 674
Number of valence electrons: 980
Bands to converge: occupied

... initialized

Initializing position-dependent things.

Density initialized from atomic densities
Creating initial wave functions:
  674 bands from LCAO basis set

        Co-------Co---------------.
       /|  Co       Fe            |
      / |   AlCr     CrCo     CrCo|
     / Ni       CAl     Ni        |
    /   CCo      Ni      FAl      |
   /    | CoCo     Co      CoCo   |
  /   Co|  NiFeAl   NiNi    CrCr  |
 *      Cr  CrCoNi   CoNiNi   FeNi|
 |Fe   NiAlCr   CrNCr   FeCr      |
 | Fe   | NiNi   NiNiCr    Cr     |
 |     Co  CoFeNi   FeNiAl  NiNi  |
 |      Fe    FeAl   FeAlFe   AlCr|
 |Cr    |CoNi   NFeFe   FeFe     Fe
 |      .-FeCr-----FeCr--FeCoNi---.
 |     Cr    CoCr     FeCo  Cr Fe/
 |    / Al      Co       Cr     /
 Cr  /            Cr           /
 |  /      Ni      Cr       Fe/
 | / Co              Fe      /
 |/                     Co  /

Positions:
   0 Co    10.732479   -0.010418   10.721263    ( 0.0000,  0.0000,  2.1000)
   1 Fe    10.706231    1.787006    1.816653    ( 0.0000,  0.0000,  1.5000)
   2 Co     1.827923    0.046024    1.820803    ( 0.0000,  0.0000,  0.0000)
   3 Co     1.781666    1.794790   10.668295    ( 0.0000,  0.0000,  0.0000)
   4 Co     3.605675   -0.024615   10.696977    ( 0.0000,  0.0000,  0.0000)
   5 Ni     3.626284    1.755611    1.827590    ( 0.0000,  0.0000,  2.0000)
   6 Fe     5.347186   -0.032870    1.798425    ( 0.0000,  0.0000,  2.0000)
   7 Al     5.383406    1.755353   -0.004078    ( 0.0000,  0.0000,  2.0000)
   8 Fe     7.108694   -0.021619    0.052076    ( 0.0000,  0.0000,  0.0000)
   9 Cr     7.129131    1.783639    1.838109    ( 0.0000,  0.0000,  2.0000)
  10 Al     8.928414   -0.004386    1.840918    ( 0.0000,  0.0000,  2.0000)
  11 Co     8.945645    1.852509    0.063651    ( 0.0000,  0.0000,  0.0000)
  12 Co    10.721403    3.615743   10.707625    ( 0.0000,  0.0000,  2.1000)
  13 Fe    10.714905    5.407607    1.816064    ( 0.0000,  0.0000,  2.0000)
  14 Al     1.786931    3.537020    1.885127    ( 0.0000,  0.0000,  0.0000)
  15 Co     1.774396    5.426328   10.657058    ( 0.0000,  0.0000,  0.0000)
  16 Co     3.564340    3.564490   10.690115    ( 0.0000,  0.0000,  0.0000)
  17 Co     3.570334    5.434059    1.813919    ( 0.0000,  0.0000,  0.0000)
  18 Co     5.350145    3.574934    1.808708    ( 0.0000,  0.0000,  0.0000)
  19 Al     5.345084    5.410577   10.703464    ( 0.0000,  0.0000,  2.1000)
  20 Fe     7.157695    3.624514    0.002553    ( 0.0000,  0.0000,  2.1000)
  21 Fe     7.157792    5.380200    1.803904    ( 0.0000,  0.0000,  0.0000)
  22 Cr     8.944980    3.620622    1.842988    ( 0.0000,  0.0000,  0.0000)
  23 Al     8.940316    5.370571   -0.005231    ( 0.0000,  0.0000,  0.0000)
  24 Co    10.674578    7.138041   10.683446    ( 0.0000,  0.0000,  2.0000)
  25 Fe    10.668413    8.869012    1.800001    ( 0.0000,  0.0000,  0.0000)
  26 Fe     1.807904    7.157309    1.806960    ( 0.0000,  0.0000,  1.5000)
  27 Co     1.808086    8.895217   10.689064    ( 0.0000,  0.0000,  0.0000)
  28 Cr     3.612462    7.185391   10.698339    ( 0.0000,  0.0000,  2.0000)
  29 Ni     3.598277    8.905404    1.808097    ( 0.0000,  0.0000,  1.5000)
  30 Fe     5.362229    7.149643    1.778835    ( 0.0000,  0.0000,  2.1000)
  31 Fe     5.368084    8.904170   10.708750    ( 0.0000,  0.0000,  2.0000)
  32 Co     7.127640    7.124156   10.700741    ( 0.0000,  0.0000,  2.0000)
  33 Fe     7.139982    8.914904    1.783157    ( 0.0000,  0.0000,  0.0000)
  34 Co     8.884516    7.107975    1.798232    ( 0.0000,  0.0000,  2.0000)
  35 Cr     8.895410    8.880302    0.005476    ( 0.0000,  0.0000,  0.0000)
  36 Cr    10.737840    0.006469    3.587908    ( 0.0000,  0.0000,  1.5000)
  37 Cr     0.009110    1.816214    5.359506    ( 0.0000,  0.0000,  1.5000)
  38 Cr     1.833434   -0.010553    5.335488    ( 0.0000,  0.0000,  2.1000)
  39 Cr     1.814369    1.777409    3.664755    ( 0.0000,  0.0000,  1.5000)
  40 Ni     3.608002   -0.027958    3.615958    ( 0.0000,  0.0000,  2.1000)
  41 Ni     3.597397    1.774364    5.368180    ( 0.0000,  0.0000,  1.5000)
  42 Co     5.355185   -0.018813    5.365682    ( 0.0000,  0.0000,  2.1000)
  43 Cr     5.354005    1.762698    3.609396    ( 0.0000,  0.0000,  1.5000)
  44 Cr     7.096449    0.004839    3.553950    ( 0.0000,  0.0000,  0.0000)
  45 Fe     7.124574    1.817747    5.354692    ( 0.0000,  0.0000,  2.1000)
  46 Fe     8.888698   10.712332    5.289714    ( 0.0000,  0.0000,  0.0000)
  47 Co     8.931727    1.815495    3.558979    ( 0.0000,  0.0000,  1.5000)
  48 Ni    10.700248    3.599864    3.631730    ( 0.0000,  0.0000,  0.0000)
  49 Ni    -0.007893    5.382698    5.388017    ( 0.0000,  0.0000,  2.0000)
  50 Fe     1.794265    3.594073    5.365264    ( 0.0000,  0.0000,  2.0000)
  51 Co     1.782020    5.398675    3.628600    ( 0.0000,  0.0000,  1.5000)
[...]
  94 Ni     8.930826    3.597912    8.885374    ( 0.0000,  0.0000,  0.0000)
  95 Cr     8.935737    5.388735    7.127651    ( 0.0000,  0.0000,  0.0000)
  96 Ni    10.717929    7.165190    7.144378    ( 0.0000,  0.0000,  2.1000)
  97 Ni    10.739341    8.898756    8.943093    ( 0.0000,  0.0000,  1.5000)
  98 Co     1.793750    7.182882    8.888666    ( 0.0000,  0.0000,  1.5000)
  99 Ni     1.836501    8.904825    7.123094    ( 0.0000,  0.0000,  2.1000)
 100 Co     3.587511    7.157223    7.133645    ( 0.0000,  0.0000,  2.1000)
 101 Co     3.596025    8.923803    8.905018    ( 0.0000,  0.0000,  1.5000)
 102 Co     5.369413    7.149278    8.921112    ( 0.0000,  0.0000,  2.0000)
 103 Ni     5.343776    8.916533    7.143070    ( 0.0000,  0.0000,  2.1000)
 104 Ni     7.139778    7.140400    7.139349    ( 0.0000,  0.0000,  2.1000)
 105 Ni     7.106892    8.889835    8.908727    ( 0.0000,  0.0000,  1.5000)
 106 Co     8.907419    7.146362    8.906765    ( 0.0000,  0.0000,  2.0000)
 107 Cr     8.922313    8.892279    7.115031    ( 0.0000,  0.0000,  2.0000)

Unit cell:
           periodic     x           y           z      points  spacing
  1. axis:    yes   10.722400    0.000000    0.000000    48     0.2234
  2. axis:    yes    0.000000   10.722400    0.000000    48     0.2234
  3. axis:    yes    0.000000    0.000000   10.722400    48     0.2234

  Lengths:  10.722400  10.722400  10.722400
  Angles:   90.000000  90.000000  90.000000

Effective grid spacing dv^(1/3) = 0.2234

     iter     time        total  log10-change:  magmom
                         energy  eigst   dens
iter:   1 17:03:58  -927.965414                  +135.8661
iter:   2 17:05:25  -909.923895  -0.43  -1.32    +100.0167
iter:   3 17:06:53  -887.379417  -0.85  -1.28    +71.7224
iter:   4 17:08:20  -857.519945  -1.42  -1.32    +60.9146
iter:   5 17:09:48  -855.850866  -1.77  -1.45    +54.6949
iter:   6 17:11:16  -855.191174  -1.92  -1.45    +52.0321
iter:   7 17:12:43  -855.507038  -1.70  -1.50    +50.3122
iter:   8 17:14:11  -851.648879  -1.75  -1.52    +49.8839
iter:   9 17:15:39  -860.891054  -1.65  -1.65    +49.8885
iter:  10 17:17:06  -849.341068  -1.85  -1.60    +49.1807
iter:  11 17:18:34  -850.596317  -2.18  -1.83    +49.7525
iter:  12 17:20:02  -848.654399  -2.50  -1.81    +50.1111
iter:  13 17:21:29  -849.401019  -2.45  -1.90    +50.8290
iter:  14 17:22:57  -849.131531  -2.59  -1.90    +51.6998
iter:  15 17:24:24  -850.949852  -2.50  -1.96    +52.3284
iter:  16 17:25:52  -850.632128  -2.43  -1.95    +53.3549
iter:  17 17:27:19  -851.481202  -2.45  -1.97    +53.4939
iter:  18 17:28:47  -850.095958  -2.59  -1.96    +54.0749
iter:  19 17:30:15  -850.313648  -2.62  -2.06    +54.8392
iter:  20 17:31:42  -849.412121  -2.98  -2.06    +55.2678
iter:  21 17:33:10  -849.571600  -3.18  -2.19    +56.1805
iter:  22 17:34:37  -849.623943  -3.22  -2.22    +56.6255
iter:  23 17:36:05  -849.704862  -3.40  -2.21    +57.6877
iter:  24 17:37:33  -850.074391  -3.18  -2.27    +58.5709
iter:  25 17:39:01  -850.478047  -3.09  -2.26    +58.8611
iter:  26 17:40:28  -850.315540  -3.07  -2.20    +59.7793
iter:  27 17:41:56  -850.632527  -3.10  -2.32    +60.4765
iter:  28 17:43:24  -850.696057  -3.04  -2.27    +60.9988
iter:  29 17:44:52  -850.534599  -3.30  -2.33    +61.0916
iter:  30 17:46:20  -850.447585  -3.59  -2.39    +61.5182
iter:  31 17:47:48  -850.509825c -3.67  -2.44    +61.8185
iter:  32 17:49:15  -850.513926c -4.15  -2.44    +62.1875
iter:  33 17:50:43  -850.673565  -3.73  -2.49    +62.6628
iter:  34 17:52:10  -850.709661  -3.80  -2.45    +62.8037
iter:  35 17:53:39  -851.015440  -3.35  -2.54    +63.1122
iter:  36 17:55:07  -850.872158  -3.43  -2.43    +63.0445
iter:  37 17:56:36  -850.969234  -3.42  -2.58    +63.2759
iter:  38 17:58:05  -850.885086c -3.59  -2.58    +63.2806
iter:  39 17:59:34  -850.917050c -3.67  -2.65    +63.3067
iter:  40 18:01:02  -850.839020c -4.04  -2.67    +63.5109
iter:  41 18:02:31  -850.861686c -4.35  -2.86    +63.5914
iter:  42 18:04:00  -850.873412c -4.78  -2.90    +63.6978
iter:  43 18:05:29  -850.935344c -4.17  -2.94    +63.8277
iter:  44 18:06:57  -851.021151  -3.83  -2.94    +63.9617
iter:  45 18:08:26  -851.138176  -3.64  -2.89    +64.1935
iter:  46 18:09:55  -851.111593  -4.97  -2.79    +64.1596
iter:  47 18:11:24  -851.170501c -4.23  -2.81    +64.3086
iter:  48 18:12:53  -851.244219  -3.80  -2.76    +64.4183
iter:  49 18:14:25  -851.263069c -3.85  -2.69    +64.5235
iter:  50 18:15:58  -851.346894  -3.84  -2.67    +64.4261
iter:  51 18:17:31  -851.254515c -3.97  -2.57    +64.3501
iter:  52 18:19:03  -851.351821c -3.94  -2.72    +64.2929
iter:  53 18:20:36  -851.298451c -3.38  -2.56    +64.3587
iter:  54 18:22:09  -851.292918c -3.61  -2.69    +64.5838
iter:  55 18:23:42  -851.180608  -4.16  -2.66    +64.4342
iter:  56 18:25:15  -851.192577  -4.44  -2.95    +64.3153
iter:  57 18:26:48  -851.193526c -4.57  -2.96    +64.2757
iter:  58 18:28:21  -851.218649c -4.32  -2.97    +64.2910
iter:  59 18:29:54  -851.196180c -4.59  -2.95    +64.2069
iter:  60 18:31:27  -851.214275c -4.52  -3.12    +64.1021
iter:  61 18:33:00  -851.209052c -4.59  -3.08    +64.1052
iter:  62 18:34:33  -851.210315c -4.81  -3.12    +64.1002
iter:  63 18:36:06  -851.212638c -4.98  -3.20    +64.0884
iter:  64 18:37:39  -851.212838c -5.35  -3.24    +64.0544
iter:  65 18:39:12  -851.218953c -5.28  -3.29    +64.0492
iter:  66 18:40:45  -851.225868c -5.22  -3.31    +64.0288
iter:  67 18:42:18  -851.238331c -4.84  -3.32    +63.9995
iter:  68 18:43:51  -851.245647c -5.11  -3.32    +63.9996
iter:  69 18:45:24  -851.215918c -4.30  -3.30    +63.9583
iter:  70 18:46:57  -851.238109c -4.66  -3.33    +63.9766
iter:  71 18:48:30  -851.226061c -5.02  -3.27    +63.9768
iter:  72 18:50:02  -851.236115c -5.05  -3.44    +63.9657
iter:  73 18:51:35  -851.231245c -5.67  -3.35    +63.9618
iter:  74 18:53:08  -851.237603c -5.27  -3.60    +63.9480
iter:  75 18:54:41  -851.239032c -5.62  -3.53    +64.0016
iter:  76 18:56:14  -851.246675c -5.26  -3.66    +64.0222
iter:  77 18:57:47  -851.249937c -5.52  -3.57    +64.0158
iter:  78 18:59:19  -851.256040c -5.34  -3.64    +64.0387
iter:  79 19:00:52  -851.262805c -5.30  -3.59    +64.0531
iter:  80 19:02:25  -851.282150c -4.64  -3.57    +64.1089
iter:  81 19:03:58  -851.252058c -4.48  -3.42    +63.9691
iter:  82 19:05:31  -851.242158c -4.88  -3.66    +63.9159
iter:  83 19:07:04  -851.273383c -4.43  -3.72    +64.0590
iter:  84 19:08:37  -851.253150c -4.83  -3.47    +63.9873
iter:  85 19:10:10  -851.271340c -4.81  -3.52    +64.0704
iter:  86 19:11:43  -851.269540c -5.83  -3.55    +64.0828
iter:  87 19:13:16  -851.276573c -5.43  -3.53    +64.1204
iter:  88 19:14:49  -851.280264c -5.26  -3.47    +64.1480
iter:  89 19:16:22  -851.284296c -5.25  -3.36    +64.1720
iter:  90 19:17:55  -851.288704c -5.09  -3.47    +64.1986
iter:  91 19:19:27  -851.291361c -5.27  -3.35    +64.1559
iter:  92 19:21:00  -851.297392c -5.08  -3.40    +64.1715
iter:  93 19:22:33  -851.296526c -5.60  -3.29    +64.1352
iter:  94 19:24:06  -851.300346c -5.22  -3.39    +64.1009
iter:  95 19:25:40  -851.308393c -5.10  -3.39    +64.0560
iter:  96 19:27:12  -851.305279c -5.53  -3.28    +64.0572
iter:  97 19:28:45  -851.307201c -5.37  -3.30    +63.9687
iter:  98 19:30:18  -851.311563c -5.19  -3.31    +63.9490
iter:  99 19:31:51  -851.313752c -4.98  -3.27    +63.9408
iter: 100 19:33:24  -851.315174c -4.91  -3.23    +63.9283
iter: 101 19:34:57  -851.311586c -5.36  -3.20    +63.9384
iter: 102 19:36:30  -851.311888c -5.49  -3.34    +63.9498
iter: 103 19:38:03  -851.312840c -5.55  -3.35    +63.9669
iter: 104 19:39:36  -851.316119c -5.03  -3.36    +63.9748
iter: 105 19:41:09  -851.314193c -5.15  -3.25    +63.9306
iter: 106 19:42:42  -851.316488c -5.11  -3.35    +63.9221
iter: 107 19:44:15  -851.314634c -5.28  -3.32    +63.9315
iter: 108 19:45:48  -851.315698c -5.21  -3.35    +63.9153
iter: 109 19:47:21  -851.314239c -5.15  -3.37    +63.8960
iter: 110 19:48:54  -851.317277c -5.17  -3.42    +63.8858
iter: 111 19:50:27  -851.314772c -5.30  -3.37    +63.9355
iter: 112 19:51:59  -851.316165c -5.17  -3.48    +63.9179
iter: 113 19:53:32  -851.316442c -5.24  -3.38    +63.9017
iter: 114 19:55:05  -851.313794c -5.50  -3.45    +63.9027
iter: 115 19:56:38  -851.314961c -5.45  -3.61    +63.9120
iter: 116 19:58:11  -851.313670c -5.98  -3.56    +63.9126
iter: 117 19:59:44  -851.314380c -5.83  -3.71    +63.8848
iter: 118 20:01:16  -851.315210c -5.91  -3.69    +63.8955
iter: 119 20:02:49  -851.314403c -5.84  -3.67    +63.9132
iter: 120 20:04:22  -851.314674c -5.97  -3.72    +63.9178
iter: 121 20:05:55  -851.315792c -5.72  -3.81    +63.9168
iter: 122 20:07:28  -851.314970c -5.97  -3.65    +63.9161
iter: 123 20:09:01  -851.314986c -6.11  -3.90    +63.9356
iter: 124 20:10:34  -851.314792c -6.46  -3.90    +63.9233
iter: 125 20:12:07  -851.315318c -6.44  -3.97    +63.9162
iter: 126 20:13:40  -851.315231c -6.36  -4.02c   +63.9158
iter: 127 20:15:12  -851.315420c -6.68  -3.97    +63.9188
iter: 128 20:16:45  -851.315454c -6.34  -4.14c   +63.9221
iter: 129 20:18:18  -851.315807c -6.49  -4.04c   +63.9205
iter: 130 20:19:51  -851.315856c -6.71  -4.10c   +63.9317
iter: 131 20:21:24  -851.315844c -6.79  -4.33c   +63.9342
iter: 132 20:22:57  -851.316060c -6.91  -4.28c   +63.9340
iter: 133 20:24:30  -851.316126c -7.06  -4.28c   +63.9309
iter: 134 20:26:03  -851.316424c -7.00  -4.49c   +63.9328
iter: 135 20:27:36  -851.316373c -7.68c -4.40c   +63.9332

Converged after 135 iterations.

Dipole moment: (-1.894367, 13.147667, 14.402518) |e|*Ang

Total magnetic moment: (0.000000, 0.000000, 63.933200)
Local magnetic moments:
   0 Co ( 0.000000,  0.000000,  1.038042)
   1 Fe ( 0.000000,  0.000000,  2.161633)
   2 Co ( 0.000000,  0.000000,  1.429758)
   3 Co ( 0.000000,  0.000000,  1.129094)
   4 Co ( 0.000000,  0.000000,  1.167486)
   5 Ni ( 0.000000,  0.000000,  0.196099)
   6 Fe ( 0.000000,  0.000000,  1.942551)
   7 Al ( 0.000000,  0.000000, -0.018433)
   8 Fe ( 0.000000,  0.000000, -1.503429)
   9 Cr ( 0.000000,  0.000000,  0.884888)
  10 Al ( 0.000000,  0.000000, -0.014300)
  11 Co ( 0.000000,  0.000000,  1.019049)
  12 Co ( 0.000000,  0.000000,  1.038558)
  13 Fe ( 0.000000,  0.000000,  2.249673)
  14 Al ( 0.000000,  0.000000, -0.029871)
  15 Co ( 0.000000,  0.000000,  1.210724)
  16 Co ( 0.000000,  0.000000,  1.260162)
  17 Co ( 0.000000,  0.000000,  1.106840)
  18 Co ( 0.000000,  0.000000,  1.088490)
  19 Al ( 0.000000,  0.000000, -0.042620)
  20 Fe ( 0.000000,  0.000000,  2.218903)
  21 Fe ( 0.000000,  0.000000,  2.074281)
  22 Cr ( 0.000000,  0.000000, -1.134016)
  23 Al ( 0.000000,  0.000000, -0.038832)
  24 Co ( 0.000000,  0.000000,  1.238201)
  25 Fe ( 0.000000,  0.000000,  2.248520)
  26 Fe ( 0.000000,  0.000000,  2.316379)
  27 Co ( 0.000000,  0.000000,  1.492385)
  28 Cr ( 0.000000,  0.000000, -2.080003)
  29 Ni ( 0.000000,  0.000000,  0.475018)
  30 Fe ( 0.000000,  0.000000,  1.987535)
  31 Fe ( 0.000000,  0.000000,  2.099772)
  32 Co ( 0.000000,  0.000000,  1.183326)
  33 Fe ( 0.000000,  0.000000,  1.819528)
  34 Co ( 0.000000,  0.000000,  1.229769)
  35 Cr ( 0.000000,  0.000000, -1.591884)
  36 Cr ( 0.000000,  0.000000, -1.639901)
  37 Cr ( 0.000000,  0.000000,  0.495721)
  38 Cr ( 0.000000,  0.000000,  1.032817)
  39 Cr ( 0.000000,  0.000000, -0.024648)
  40 Ni ( 0.000000,  0.000000,  0.284479)
  41 Ni ( 0.000000,  0.000000,  0.070458)
  42 Co ( 0.000000,  0.000000,  1.079005)
  43 Cr ( 0.000000,  0.000000,  0.399207)
  44 Cr ( 0.000000,  0.000000, -1.457227)
  45 Fe ( 0.000000,  0.000000,  1.269181)
  46 Fe ( 0.000000,  0.000000,  2.010552)
  47 Co ( 0.000000,  0.000000,  0.398202)
  48 Ni ( 0.000000,  0.000000,  0.268465)
  49 Ni ( 0.000000,  0.000000,  0.252942)
  50 Fe ( 0.000000,  0.000000,  2.018373)
  51 Co ( 0.000000,  0.000000,  1.177828)
  52 Cr ( 0.000000,  0.000000, -1.625271)
  53 Fe ( 0.000000,  0.000000,  2.175245)
  54 Al ( 0.000000,  0.000000, -0.015535)
  55 Fe ( 0.000000,  0.000000,  2.092460)
  56 Cr ( 0.000000,  0.000000, -1.271512)
  57 Ni ( 0.000000,  0.000000,  0.192984)
  58 Fe ( 0.000000,  0.000000,  1.765071)
  59 Fe ( 0.000000,  0.000000,  1.740982)
[...]
  93 Ni ( 0.000000,  0.000000,  0.239903)
  94 Ni ( 0.000000,  0.000000,  0.215352)
  95 Cr ( 0.000000,  0.000000, -1.322054)
  96 Ni ( 0.000000,  0.000000,  0.054793)
  97 Ni ( 0.000000,  0.000000,  0.220897)
  98 Co ( 0.000000,  0.000000,  1.280590)
  99 Ni ( 0.000000,  0.000000,  0.169316)
 100 Co ( 0.000000,  0.000000,  1.415191)
 101 Co ( 0.000000,  0.000000,  1.234789)
 102 Co ( 0.000000,  0.000000,  1.336489)
 103 Ni ( 0.000000,  0.000000,  0.357796)
 104 Ni ( 0.000000,  0.000000,  0.300908)
 105 Ni ( 0.000000,  0.000000,  0.260830)
 106 Co ( 0.000000,  0.000000,  1.010884)
 107 Cr ( 0.000000,  0.000000, -1.482785)

Energy contributions relative to reference atoms: (reference = -3548577.034362)

Kinetic:       +205.477742
Potential:     -232.996132
External:        +0.000000
XC:            -857.425324
Entropy (-ST):   -4.578803
Local:          +35.916744
Free energy:   -853.605775
Extrapolated:  -851.316373

Spin contamination: 28.198872 electrons
Showing only first 2 kpts
                      Up                     Down
 Kpt  Band  Eigenvalues  Occupancy  Eigenvalues  Occupancy
  0   488      9.48346    0.99424     10.35806    0.02675
  0   489      9.50210    0.99307     10.37337    0.02304
  0   490      9.51227    0.99234     10.38471    0.02062
  0   491      9.52952    0.99091     10.39775    0.01814

  1   488      9.48108    0.99438     10.37261    0.02321
  1   489      9.49628    0.99346     10.39089    0.01941
  1   490      9.50957    0.99254     10.39679    0.01831
  1   491      9.52934    0.99092     10.40892    0.01626

Fermi level: 9.99863

No gap

Forces in eV/Ang:
  0 Co   -0.13665    0.12963    0.18279
  1 Fe    0.16967    0.04594   -0.25967
  2 Co   -0.18681   -0.45228   -0.16606
  3 Co    0.10701    0.12268    0.37905
  4 Co   -0.31355   -0.08848    0.36507
  5 Ni   -0.47686    0.10569   -0.20617
  6 Fe   -0.23009   -0.43400    0.13469
  7 Al   -0.76883    0.76703    0.43119
  8 Fe    0.24363    0.24101   -0.50467
  9 Cr    0.08700    0.53139   -0.06858
 10 Al    0.31408   -0.02570   -0.82699
 11 Co   -0.00233    0.03778   -0.61750
 12 Co    0.09957   -0.41737    0.11639
 13 Fe    0.21100   -0.07691   -0.28735
 14 Al    0.02487    0.68221   -1.33398
 15 Co    0.18452   -0.32920    0.24871
 16 Co   -0.26207    0.28401    0.30286
 17 Co   -0.18240   -0.37643   -0.00160
 18 Co    0.00105    0.22822    0.16115
 19 Al    0.36704   -1.18948   -0.01017
 20 Fe    0.02526   -0.56101   -0.13893
 21 Fe   -0.20639   -0.43966    0.04063
 22 Cr    0.25413   -0.79060    0.23081
 23 Al   -0.25731    0.41840   -0.51542
 24 Co    0.47899    0.30425    0.20189
 25 Fe    0.59032    0.17454   -0.32233
 26 Fe   -0.05215    0.05507   -0.38957
 27 Co   -0.10026   -0.12110    0.53864
 28 Cr   -1.11360    0.59625   -0.06184
 29 Ni   -0.41226    0.42537   -0.12523
 30 Fe   -0.28682    0.23111    0.01539
 31 Fe    0.01307    0.03743    0.09591
 32 Co    0.14494    0.62435    0.10492
 33 Fe   -0.03222    0.09362   -0.23625
 34 Co    0.35069    0.33696   -0.06002
 35 Cr    0.04856   -0.53036   -0.51521
 36 Cr    0.49616   -0.35249    0.74356
 37 Cr    0.08159   -0.03178   -0.25712
 38 Cr   -0.51456    0.28506    0.20908
 39 Cr    0.06413   -0.74756   -0.14559
 40 Ni   -0.14565    0.24580   -0.42914
 41 Ni   -0.14599   -0.13981    0.11358
 42 Co    0.30846    0.02381    0.01764
 43 Cr   -0.11910   -0.29077   -0.48310
 44 Cr   -0.32817    0.04054    0.74153
 45 Fe    0.34656   -0.39822   -0.30119
 46 Fe    0.41577   -0.37711    0.27105
 47 Co    0.08768    0.15665    0.43836
 48 Ni    0.06342   -0.03639   -0.11478
 49 Ni   -0.10544   -0.43067   -0.22524
 50 Fe    0.00268   -0.50659   -0.02252
 51 Co    0.16351    0.08833   -0.10568
 52 Cr    0.21425    0.12369   -0.68141
 53 Fe    0.05960    0.31472   -0.26246
 54 Al   -0.40977    0.03434    0.81321
 55 Fe   -0.42821   -0.67021   -0.76882
 56 Cr    0.21217   -0.02521   -0.58927
 57 Ni   -0.04368    0.15434   -0.06804
 58 Fe    0.10145    0.26690   -0.46995
 59 Fe    0.08136   -0.55889   -0.05917
[...]
 93 Ni   -0.04064   -0.17850   -0.13898
 94 Ni    0.14338   -0.28080    0.49757
 95 Cr    0.13258   -0.17489    0.15891
 96 Ni   -0.10393    0.17322    0.03129
 97 Ni   -0.14694    0.04244   -0.09531
 98 Co    0.19908   -0.11777    0.57851
 99 Ni   -0.40292    0.06406    0.18270
100 Co    0.14835    0.19449    0.29498
101 Co    0.23418   -0.35379    0.22352
102 Co   -0.26360    0.15434   -0.30045
103 Ni   -0.04799    0.09119    0.08978
104 Ni    0.03320    0.09797    0.12688
105 Ni    0.29148    0.28321    0.02873
106 Co    0.05916    0.36001   -0.01400
107 Cr   -0.23423    0.15368    0.26980

Date: Fri Apr 14 20:27:55 2023