User:   c.zeng@d0135
Date:   Thu Apr 13 18:25:32 2023
Arch:   x86_64
Pid:    93167
CWD:    /home/c.zeng/projects/hea-corrosion/hea-mlp/data-curation/bulk-md/dft-jobs/14
Python: 3.8.1
gpaw:   /home/c.zeng/usr/installs/gpaw/source/gpaw-22.8.0/gpaw
_gpaw:  /home/c.zeng/usr/installs/gpaw/source/gpaw-22.8.0/
        _gpaw.cpython-38-x86_64-linux-gnu.so
ase:    /home/c.zeng/.local/lib/python3.8/site-packages/ase-3.22.1-py3.8.egg/ase (version 3.22.1)
numpy:  /shared/centos7/python/3.8.1/lib/python3.8/site-packages/numpy (version 1.17.4)
scipy:  /shared/centos7/python/3.8.1/lib/python3.8/site-packages/scipy (version 1.4.1)
units:  Angstrom and eV
cores: 64
OpenMP: False
OMP_NUM_THREADS: 1

Input parameters:
  convergence: {energy: 0.0001}
  kpts: [2 2 2]
  maxiter: 666
  mode: {ecut: 350.0,
         name: pw}
  occupations: {fixmagmom: False,
                name: fermi-dirac,
                width: 0.1}
  spinpol: True
  xc: PBE

System changes: positions, numbers, cell, pbc, initial_charges, initial_magmoms

Initialize ...

species:
  Co:
    name: Cobalt
    id: 339d20d5b0b93d2de9531a1bee871d91
    Z: 27.0
    valence: 9
    core: 18
    charge: 0.0
    file: /home/c.zeng/usr/data/gpaw-setups-0.9.20000/Co.PBE.gz
    compensation charges: {type: gauss,
                           rc: 0.32,
                           lmax: 2}
    cutoffs: {filter: 1.87,
              core: 2.55}
    valence states:
      #              energy  rcut
      - 4s(2.00)    -5.469   1.005
      - 4p(0.00)    -1.277   1.058
      - 3d(7.00)    -8.205   1.005
      -  s          21.742   1.005
      -  p          25.934   1.058
      -  d          19.007   1.005

    # Using partial waves for Co as LCAO basis

  Fe:
    name: Iron
    id: 37abbd8d6c3c35915a9b583b742da910
    Z: 26.0
    valence: 8
    core: 18
    charge: 0.0
    file: /home/c.zeng/usr/data/gpaw-setups-0.9.20000/Fe.PBE.gz
    compensation charges: {type: gauss,
                           rc: 0.33,
                           lmax: 2}
    cutoffs: {filter: 2.06,
              core: 2.67}
    valence states:
      #              energy  rcut
      - 4s(2.00)    -5.291   1.164
      - 4p(0.00)    -1.326   1.058
      - 3d(6.00)    -7.505   1.058
      -  s          21.920   1.164
      -  p          25.885   1.058
      -  d          19.706   1.058

[...]

  Cr:
    name: Chromium
    id: 33f258bda2ca9f93018e70263a35547b
    Z: 24.0
    valence: 6
    core: 18
    charge: 0.0
    file: /home/c.zeng/usr/data/gpaw-setups-0.9.20000/Cr.PBE.gz
    compensation charges: {type: gauss,
                           rc: 0.35,
                           lmax: 2}
    cutoffs: {filter: 2.14,
              core: 3.04}
    valence states:
      #              energy  rcut
      - 4s(1.00)    -4.007   1.164
      - 4p(0.00)    -0.989   1.217
      - 3d(5.00)    -2.913   1.111
      -  s          23.205   1.164
      -  p          26.223   1.217
      -  d          24.299   1.111

[...]

  Ni:
    name: Nickel
    id: 0d9f38a9d6e76a2886f07bb4381f212b
    Z: 28.0
    valence: 16
    core: 12
    charge: 0.0
    file: /home/c.zeng/usr/data/gpaw-setups-0.9.20000/Ni.PBE.gz
    compensation charges: {type: gauss,
                           rc: 0.36,
                           lmax: 2}
    cutoffs: {filter: 2.14,
              core: 1.98}
    valence states:
      #              energy  rcut
      - 4s(2.00)    -5.642   1.164
      - 3p(6.00)   -71.394   1.207
      - 4p(0.00)    -1.226   1.207
      - 3d(8.00)    -8.875   1.138
      -  s          21.570   1.164
      -  d          18.337   1.138

    # Using partial waves for Ni as LCAO basis

Reference energy: -3846758.590871  # eV

Spin-polarized calculation.
Magnetic moment: 151.200000

Convergence criteria:
 Maximum [total energy] change in last 3 cyles: 0.0001 eV / electron
 Maximum integral of absolute [dens]ity change: 0.0001 electrons / valence electron
 Maximum integral of absolute [eigenst]ate change: 4e-08 eV^2 / valence electron
 Maximum number of scf [iter]ations: 666
 (Square brackets indicate name in SCF output, whereas a 'c' in
 the SCF output indicates the quantity has converged.)

Symmetries present (total): 1

  ( 1  0  0)
  ( 0  1  0)
  ( 0  0  1)

8 k-points: 2 x 2 x 2 Monkhorst-Pack grid
4 k-points in the irreducible part of the Brillouin zone
       k-points in crystal coordinates                weights
   0:     0.25000000   -0.25000000   -0.25000000          2/8
   1:     0.25000000   -0.25000000    0.25000000          2/8
   2:     0.25000000    0.25000000   -0.25000000          2/8
   3:     0.25000000    0.25000000    0.25000000          2/8

Wave functions: Plane wave expansion
  Cutoff energy: 350.000 eV
  Number of coefficients (min, max): 17755, 17755
  Pulay-stress correction: 0.000000 eV/Ang^3 (de/decut=0.000000)
  Using FFTW library
  ScaLapack parameters: grid=1x1, blocksize=None
  Wavefunction extrapolation:
    Improved wavefunction reuse through dual PAW basis

Occupation numbers: Fermi-Dirac:
  width: 0.1000  # eV

Eigensolver
   Davidson(niter=2)

Densities:
  Coarse grid: 48*48*48 grid
  Fine grid: 96*96*96 grid
  Total Charge: 0.000000

Density mixing:
  Method: difference
  Backend: pulay
  Linear mixing parameter: 0.05
  old densities: 5
  Damping of long wavelength oscillations: 50

Hamiltonian:
  XC and Coulomb potentials evaluated on a 96*96*96 grid
  Using the PBE Exchange-Correlation functional
  External potential:
    NoExternalPotential

XC parameters: PBE with 2 nearest neighbor stencil

Total number of cores used: 64
Parallelization over k-points: 4
Domain decomposition: 4 x 2 x 2

Number of atoms: 108
Number of atomic orbitals: 1053
Number of bands in calculation: 727
Number of valence electrons: 1053
Bands to converge: occupied

... initialized

Initializing position-dependent things.

Density initialized from atomic densities
Creating initial wave functions:
  727 bands from LCAO basis set

       /|  Cr                     |
      / |                    Co   |
     / Co       Cr       Co       |
    /   |        Cr        Cr    Co
   /Cro | Fe       FeCo           |
  /    Fe   CFe       Ni    Cr    |
 Co    CriCr   CNi     NiNi     Ni|
 |     Fe  Co   NiCFe   CoCrCo    |
 |  CFe | FeCrFe FeNi      Cr     |
 |   NiCr  NiFeCr   NiFeNi   Ni   |
 |      Fe    FeFeNi   FeCo     Ni|
 | Ni   |CCo    CrNi     NNi     Co
 |   Cr .-Cr-------CFe-Ni---NCr---.
 |     /    CoCr    CNi     Cr Fe/
 |    Fe      FFe     NiCoo     /
 |   / CrFe     Ni Fe     CFe  /
 |  /     CrNi     Ni       Co/
 | / Fe       Co       Ni    /
 |/            Cr       Co  /
 *-----------------Fe------*

Positions:
   0 Co     0.128106    0.036545   10.530513    ( 0.0000,  0.0000,  2.1000)
   1 Co    -0.004201    1.751107    1.879968    ( 0.0000,  0.0000,  2.1000)
   2 Fe     1.692188    0.050389    1.992208    ( 0.0000,  0.0000,  2.0000)
   3 Fe     1.976941    1.732100   10.527326    ( 0.0000,  0.0000,  2.0000)
   4 Cr     3.619734    0.160086   10.576382    ( 0.0000,  0.0000,  0.0000)
   5 Cr     3.406905    1.744415    1.704652    ( 0.0000,  0.0000,  0.0000)
   6 Co     5.458495   10.640230    1.834633    ( 0.0000,  0.0000,  2.1000)
   7 Cr     5.157998    1.733921   10.614809    ( 0.0000,  0.0000,  0.0000)
   8 Fe     7.240015    0.074748   10.681961    ( 0.0000,  0.0000,  2.0000)
   9 Ni     7.014637    1.808283    1.845186    ( 0.0000,  0.0000,  1.5000)
  10 Ni     9.158684    0.033455    1.712863    ( 0.0000,  0.0000,  1.5000)
  11 Co     8.916905    1.648354   10.658899    ( 0.0000,  0.0000,  2.1000)
  12 Cr    10.747030    3.362708   -0.078413    ( 0.0000,  0.0000,  0.0000)
  13 Fe    10.577203    5.586522    1.757473    ( 0.0000,  0.0000,  2.0000)
  14 Cr     1.743430    3.359645    1.798611    ( 0.0000,  0.0000,  0.0000)
  15 Fe     1.870803    5.577998   10.689057    ( 0.0000,  0.0000,  2.0000)
  16 Ni     3.596284    3.535889   10.819411    ( 0.0000,  0.0000,  1.5000)
  17 Co     3.630547    5.384929    1.684063    ( 0.0000,  0.0000,  2.1000)
  18 Ni     5.345834    3.396343    1.712040    ( 0.0000,  0.0000,  1.5000)
  19 Cr     5.262273    5.071615   10.485477    ( 0.0000,  0.0000,  0.0000)
  20 Co     7.262540    3.354986   10.605334    ( 0.0000,  0.0000,  2.1000)
  21 Ni     7.081378    5.033049    1.650155    ( 0.0000,  0.0000,  1.5000)
  22 Co     9.005904    3.544373    1.828961    ( 0.0000,  0.0000,  2.1000)
  23 Cr     8.807031    5.358926    0.118761    ( 0.0000,  0.0000,  0.0000)
  24 Fe     0.259738    7.152173   10.710265    ( 0.0000,  0.0000,  2.0000)
  25 Co    10.571302    8.879303    1.544543    ( 0.0000,  0.0000,  2.1000)
  26 Cr     1.720720    7.276845    1.820240    ( 0.0000,  0.0000,  0.0000)
  27 Cr     1.713385    8.935610   10.327387    ( 0.0000,  0.0000,  0.0000)
  28 Fe     3.404769    7.170635   10.688689    ( 0.0000,  0.0000,  2.0000)
  29 Cr     3.552309    9.013910    1.684697    ( 0.0000,  0.0000,  0.0000)
  30 Co     5.212391    7.248517    1.703253    ( 0.0000,  0.0000,  2.1000)
  31 Co     5.531268    8.947649   10.683462    ( 0.0000,  0.0000,  2.1000)
  32 Cr     7.273615    7.142857   10.883726    ( 0.0000,  0.0000,  0.0000)
  33 Ni     7.252010    9.061853    1.657710    ( 0.0000,  0.0000,  1.5000)
  34 Ni     8.936203    7.121414    1.844120    ( 0.0000,  0.0000,  1.5000)
  35 Cr     8.841083    8.849016   10.615275    ( 0.0000,  0.0000,  0.0000)
  36 Fe    -0.017694   10.674197    3.630438    ( 0.0000,  0.0000,  2.0000)
  37 Ni    10.741091    1.898461    5.494111    ( 0.0000,  0.0000,  1.5000)
  38 Cr     1.605324    0.074752    5.349991    ( 0.0000,  0.0000,  0.0000)
  39 Fe     1.608081    1.731570    3.534644    ( 0.0000,  0.0000,  2.0000)
  40 Fe     3.502780   -0.010676    3.461605    ( 0.0000,  0.0000,  2.0000)
  41 Co     3.278895    1.806970    5.378319    ( 0.0000,  0.0000,  2.1000)
  42 Cr     5.238172    0.033722    5.154231    ( 0.0000,  0.0000,  0.0000)
  43 Fe     5.161604    1.762853    3.517262    ( 0.0000,  0.0000,  2.0000)
  44 Fe     7.150029    0.129478    3.402292    ( 0.0000,  0.0000,  2.0000)
  45 Fe     7.109148    1.834756    5.068819    ( 0.0000,  0.0000,  2.0000)
  46 Ni     8.800121    0.125023    5.316849    ( 0.0000,  0.0000,  1.5000)
  47 Co     8.950692    1.870235    3.431568    ( 0.0000,  0.0000,  2.1000)
  48 Cr    -0.116722    3.571383    3.525600    ( 0.0000,  0.0000,  0.0000)
  49 Ni     0.221461    5.419694    5.452720    ( 0.0000,  0.0000,  1.5000)
  50 Fe     1.809774    3.589472    5.435977    ( 0.0000,  0.0000,  2.0000)
  51 Co     1.774692    5.293032    3.398930    ( 0.0000,  0.0000,  2.1000)
  52 Co     3.439988    3.405781    3.388992    ( 0.0000,  0.0000,  2.1000)
  53 Fe     3.455737    5.527801    5.375989    ( 0.0000,  0.0000,  2.0000)
  54 Fe     5.004319    3.602796    5.365716    ( 0.0000,  0.0000,  2.0000)
  55 Ni     5.415390    5.488621    3.432569    ( 0.0000,  0.0000,  1.5000)
  56 Ni     7.049619    3.439670    3.318243    ( 0.0000,  0.0000,  1.5000)
  57 Fe     7.101323    5.159858    5.387435    ( 0.0000,  0.0000,  2.0000)
  58 Co     8.949906    3.511819    5.087523    ( 0.0000,  0.0000,  2.1000)
  59 Ni     8.659643    5.392845    3.491796    ( 0.0000,  0.0000,  1.5000)
[...]
  93 Ni     7.264542    5.106031    8.671549    ( 0.0000,  0.0000,  1.5000)
  94 Ni     8.831723    3.449572    8.885102    ( 0.0000,  0.0000,  1.5000)
  95 Cr     8.838240    5.098799    6.847025    ( 0.0000,  0.0000,  0.0000)
  96 Ni    -0.085278    7.273696    7.066161    ( 0.0000,  0.0000,  1.5000)
  97 Co     0.000866    8.838875    8.911683    ( 0.0000,  0.0000,  2.1000)
  98 Fe     1.856873    7.125762    8.758898    ( 0.0000,  0.0000,  2.0000)
  99 Cr     1.964535    8.688723    7.048951    ( 0.0000,  0.0000,  0.0000)
 100 Co     3.657371    6.953912    7.144520    ( 0.0000,  0.0000,  2.1000)
 101 Cr     3.924991    8.645644    8.996758    ( 0.0000,  0.0000,  0.0000)
 102 Fe     5.550487    7.030591    8.576409    ( 0.0000,  0.0000,  2.0000)
 103 Co     5.444342    8.851050    7.223501    ( 0.0000,  0.0000,  2.1000)
 104 Ni     7.228310    6.896835    7.008429    ( 0.0000,  0.0000,  1.5000)
 105 Co     7.372164    8.615130    8.895138    ( 0.0000,  0.0000,  2.1000)
 106 Cr     8.954320    6.827718    8.983502    ( 0.0000,  0.0000,  0.0000)
 107 Cr     8.633714    8.859944    6.794969    ( 0.0000,  0.0000,  0.0000)

Unit cell:
           periodic     x           y           z      points  spacing
  1. axis:    yes   10.614300    0.000000    0.000000    48     0.2211
  2. axis:    yes    0.000000   10.614300    0.000000    48     0.2211
  3. axis:    yes    0.000000    0.000000   10.614300    48     0.2211

  Lengths:  10.614300  10.614300  10.614300
  Angles:   90.000000  90.000000  90.000000

Effective grid spacing dv^(1/3) = 0.2211

     iter     time        total  log10-change:  magmom
                         energy  eigst   dens
iter:   1 18:27:32 -1063.632568                  +151.4733
iter:   2 18:28:21  -931.197363  -0.30  -1.20    +85.7736
iter:   3 18:29:11  -919.916615  -0.96  -1.25    +70.7913
iter:   4 18:30:00  -916.728522  -1.24  -1.32    +66.1874
iter:   5 18:30:49  -893.048519  -1.58  -1.29    +60.9305
iter:   6 18:31:40  -888.194200  -1.31  -1.39    +60.1639
iter:   7 18:32:32  -897.838938  -1.21  -1.51    +58.7000
iter:   8 18:33:21  -873.776521  -1.56  -1.52    +56.5607
iter:   9 18:34:11  -871.599565  -2.27  -1.79    +56.8686
iter:  10 18:35:01  -872.186411  -2.37  -1.85    +58.4792
iter:  11 18:35:51  -872.084718  -2.60  -1.86    +59.5311
iter:  12 18:36:41  -872.546910  -2.57  -1.89    +60.6824
iter:  13 18:37:31  -875.438180  -2.34  -1.95    +61.7759
iter:  14 18:38:21  -873.877308  -2.41  -1.90    +62.1935
iter:  15 18:39:10  -873.638844  -2.47  -2.03    +62.6679
iter:  16 18:40:00  -873.682794  -2.51  -2.08    +62.6161
iter:  17 18:40:49  -872.667704  -2.78  -2.09    +63.1652
iter:  18 18:41:39  -872.872149  -2.97  -2.22    +64.0110
iter:  19 18:42:29  -872.921017  -2.99  -2.23    +64.1913
iter:  20 18:43:19  -872.638528  -3.20  -2.26    +64.3321
iter:  21 18:44:10  -872.457782  -3.33  -2.31    +64.5864
iter:  22 18:45:00  -872.542111  -3.48  -2.37    +65.1812
iter:  23 18:45:50  -872.546934c -3.41  -2.39    +65.2835
iter:  24 18:46:40  -872.562480c -3.47  -2.41    +65.4412
iter:  25 18:47:31  -872.681305  -3.34  -2.46    +65.7868
iter:  26 18:48:21  -872.676387  -3.35  -2.45    +66.0519
iter:  27 18:49:12  -872.599423c -3.49  -2.46    +66.2368
iter:  28 18:50:02  -872.596212c -3.56  -2.54    +66.1094
iter:  29 18:50:53  -872.596103c -3.52  -2.57    +66.2822
iter:  30 18:51:44  -872.507982c -3.89  -2.55    +66.4368
iter:  31 18:52:34  -872.522802c -4.02  -2.68    +66.5272
iter:  32 18:53:25  -872.560013c -3.95  -2.70    +66.5273
iter:  33 18:54:16  -872.531406c -3.98  -2.69    +66.5561
iter:  34 18:55:08  -872.530307c -4.21  -2.73    +66.8182
iter:  35 18:55:59  -872.632135c -3.83  -2.80    +66.8346
iter:  36 18:56:50  -872.568936c -4.04  -2.67    +66.8513
iter:  37 18:57:41  -872.545815c -4.16  -2.81    +66.8997
iter:  38 18:58:32  -872.544793c -4.34  -2.85    +67.0143
iter:  39 18:59:24  -872.535850c -4.55  -2.86    +67.1252
iter:  40 19:00:16  -872.532417c -4.76  -2.96    +67.1114
iter:  41 19:01:07  -872.542426c -4.75  -2.96    +67.1725
iter:  42 19:01:58  -872.547600c -4.73  -2.96    +67.2581
iter:  43 19:02:49  -872.562228c -4.52  -2.98    +67.3231
iter:  44 19:03:41  -872.575339c -4.44  -2.96    +67.3167
iter:  45 19:04:32  -872.556251c -4.56  -2.95    +67.2898
iter:  46 19:05:23  -872.569588c -4.45  -3.04    +67.4267
iter:  47 19:06:16  -872.562596c -4.72  -3.00    +67.4341
iter:  48 19:07:07  -872.563630c -4.70  -3.09    +67.4294
iter:  49 19:07:59  -872.560563c -4.77  -3.10    +67.4242
iter:  50 19:08:50  -872.558249c -4.95  -3.13    +67.4813
iter:  51 19:09:41  -872.560863c -5.23  -3.18    +67.5472
iter:  52 19:10:33  -872.559680c -4.93  -3.25    +67.5514
iter:  53 19:11:24  -872.559793c -5.30  -3.19    +67.5853
iter:  54 19:12:16  -872.562861c -5.02  -3.26    +67.6336
iter:  55 19:13:07  -872.568835c -5.03  -3.25    +67.6631
iter:  56 19:13:58  -872.567746c -4.99  -3.24    +67.6724
iter:  57 19:14:50  -872.560967c -5.28  -3.27    +67.6681
iter:  58 19:15:41  -872.566875c -5.13  -3.36    +67.7381
iter:  59 19:16:33  -872.563830c -5.61  -3.32    +67.7489
iter:  60 19:17:25  -872.563758c -5.53  -3.43    +67.7745
iter:  61 19:18:18  -872.563272c -5.83  -3.43    +67.7842
iter:  62 19:19:11  -872.565170c -5.63  -3.47    +67.8200
iter:  63 19:20:03  -872.566731c -5.74  -3.44    +67.8389
iter:  64 19:20:56  -872.568429c -5.35  -3.49    +67.8418
iter:  65 19:21:49  -872.566758c -5.46  -3.38    +67.8529
iter:  66 19:22:42  -872.568446c -5.34  -3.49    +67.8756
iter:  67 19:23:35  -872.569052c -5.63  -3.45    +67.8950
iter:  68 19:24:28  -872.568953c -5.61  -3.52    +67.8974
iter:  69 19:25:21  -872.565964c -5.83  -3.55    +67.9009
iter:  70 19:26:13  -872.567588c -6.21  -3.63    +67.9422
iter:  71 19:27:06  -872.567787c -6.01  -3.64    +67.9564
iter:  72 19:27:58  -872.569191c -5.68  -3.64    +67.9713
iter:  73 19:28:51  -872.568503c -5.68  -3.57    +67.9803
iter:  74 19:29:43  -872.569405c -5.68  -3.64    +68.0081
iter:  75 19:30:36  -872.572770c -5.48  -3.68    +68.0202
iter:  76 19:31:29  -872.569150c -5.90  -3.58    +68.0137
iter:  77 19:32:22  -872.569170c -5.96  -3.80    +68.0267
iter:  78 19:33:15  -872.569368c -6.29  -3.84    +68.0327
iter:  79 19:34:07  -872.569536c -6.56  -3.90    +68.0471
iter:  80 19:35:00  -872.569490c -6.84  -4.02c   +68.0509
iter:  81 19:35:52  -872.569147c -6.30  -4.06c   +68.0596
iter:  82 19:36:45  -872.569790c -6.74  -3.93    +68.0732
iter:  83 19:37:37  -872.570255c -6.30  -4.12c   +68.0802
iter:  84 19:38:30  -872.569914c -6.42  -3.94    +68.0824
iter:  85 19:39:23  -872.569785c -6.41  -4.08c   +68.0880
iter:  86 19:40:16  -872.569980c -6.78  -4.07c   +68.0995
iter:  87 19:41:08  -872.570680c -6.82  -4.27c   +68.1090
iter:  88 19:42:01  -872.570087c -7.26  -4.20c   +68.1089
iter:  89 19:42:53  -872.570231c -7.52c -4.39c   +68.1214

Converged after 89 iterations.

Dipole moment: (-21.710377, -32.582451, -14.238755) |e|*Ang

Total magnetic moment: (0.000000, 0.000000, 68.121440)
Local magnetic moments:
   0 Co ( 0.000000,  0.000000,  1.245202)
   1 Co ( 0.000000,  0.000000,  0.660049)
   2 Fe ( 0.000000,  0.000000,  1.540463)
   3 Fe ( 0.000000,  0.000000,  0.963916)
   4 Cr ( 0.000000,  0.000000,  0.407995)
   5 Cr ( 0.000000,  0.000000, -0.470396)
   6 Co ( 0.000000,  0.000000,  0.959831)
   7 Cr ( 0.000000,  0.000000, -0.583116)
   8 Fe ( 0.000000,  0.000000,  2.133574)
   9 Ni ( 0.000000,  0.000000,  0.501727)
  10 Ni ( 0.000000,  0.000000,  0.458088)
  11 Co ( 0.000000,  0.000000,  1.455202)
  12 Cr ( 0.000000,  0.000000,  0.255310)
  13 Fe ( 0.000000,  0.000000,  2.009071)
  14 Cr ( 0.000000,  0.000000, -0.520403)
  15 Fe ( 0.000000,  0.000000,  1.280289)
  16 Ni ( 0.000000,  0.000000,  0.093726)
  17 Co ( 0.000000,  0.000000,  1.189167)
  18 Ni ( 0.000000,  0.000000,  0.302418)
  19 Cr ( 0.000000,  0.000000, -2.067480)
  20 Co ( 0.000000,  0.000000,  1.400740)
  21 Ni ( 0.000000,  0.000000,  0.225803)
  22 Co ( 0.000000,  0.000000,  1.174027)
  23 Cr ( 0.000000,  0.000000, -1.127814)
  24 Fe ( 0.000000,  0.000000,  1.145230)
  25 Co ( 0.000000,  0.000000,  0.925973)
  26 Cr ( 0.000000,  0.000000, -0.992197)
  27 Cr ( 0.000000,  0.000000, -0.949155)
  28 Fe ( 0.000000,  0.000000,  1.269235)
  29 Cr ( 0.000000,  0.000000, -1.349205)
  30 Co ( 0.000000,  0.000000,  1.240531)
  31 Co ( 0.000000,  0.000000,  0.794676)
  32 Cr ( 0.000000,  0.000000,  0.808709)
  33 Ni ( 0.000000,  0.000000,  0.304435)
  34 Ni ( 0.000000,  0.000000,  0.260943)
  35 Cr ( 0.000000,  0.000000, -1.058938)
  36 Fe ( 0.000000,  0.000000,  1.965133)
  37 Ni ( 0.000000,  0.000000,  0.184930)
  38 Cr ( 0.000000,  0.000000, -1.380989)
  39 Fe ( 0.000000,  0.000000,  1.023659)
  40 Fe ( 0.000000,  0.000000,  1.890298)
  41 Co ( 0.000000,  0.000000,  0.586792)
  42 Cr ( 0.000000,  0.000000, -1.043027)
  43 Fe ( 0.000000,  0.000000,  2.102019)
  44 Fe ( 0.000000,  0.000000,  2.468639)
  45 Fe ( 0.000000,  0.000000,  2.474373)
  46 Ni ( 0.000000,  0.000000,  0.449709)
  47 Co ( 0.000000,  0.000000,  1.278809)
  48 Cr ( 0.000000,  0.000000, -1.096674)
  49 Ni ( 0.000000,  0.000000,  0.276686)
  50 Fe ( 0.000000,  0.000000,  1.997325)
  51 Co ( 0.000000,  0.000000,  1.217028)
  52 Co ( 0.000000,  0.000000,  1.015658)
  53 Fe ( 0.000000,  0.000000,  2.173652)
  54 Fe ( 0.000000,  0.000000,  2.402703)
  55 Ni ( 0.000000,  0.000000,  0.615569)
  56 Ni ( 0.000000,  0.000000,  0.470829)
  57 Fe ( 0.000000,  0.000000,  2.208615)
  58 Co ( 0.000000,  0.000000,  1.036870)
  59 Ni ( 0.000000,  0.000000,  0.387126)
[...]
  93 Ni ( 0.000000,  0.000000,  0.182748)
  94 Ni ( 0.000000,  0.000000,  0.191486)
  95 Cr ( 0.000000,  0.000000, -1.729554)
  96 Ni ( 0.000000,  0.000000,  0.228873)
  97 Co ( 0.000000,  0.000000,  0.425601)
  98 Fe ( 0.000000,  0.000000,  1.221523)
  99 Cr ( 0.000000,  0.000000, -1.209082)
 100 Co ( 0.000000,  0.000000,  1.253578)
 101 Cr ( 0.000000,  0.000000, -0.728526)
 102 Fe ( 0.000000,  0.000000,  2.240478)
 103 Co ( 0.000000,  0.000000,  1.271380)
 104 Ni ( 0.000000,  0.000000,  0.139958)
 105 Co ( 0.000000,  0.000000,  0.849161)
 106 Cr ( 0.000000,  0.000000,  1.176866)
 107 Cr ( 0.000000,  0.000000, -1.367601)

Energy contributions relative to reference atoms: (reference = -3846758.590871)

Kinetic:       +380.205601
Potential:     -396.641428
External:        +0.000000
XC:            -893.684960
Entropy (-ST):   -4.724995
Local:          +39.913053
Free energy:   -874.932729
Extrapolated:  -872.570231

Spin contamination: 23.430219 electrons
Showing only first 2 kpts
                      Up                     Down
 Kpt  Band  Eigenvalues  Occupancy  Eigenvalues  Occupancy
  0   524      9.85194    0.99532     10.77384    0.02065
  0   525      9.86107    0.99487     10.78838    0.01790
  0   526      9.88544    0.99347     10.79618    0.01658
  0   527      9.90114    0.99237     10.81417    0.01389

  1   524      9.85584    0.99513     10.77071    0.02129
  1   525      9.86043    0.99491     10.78488    0.01853
  1   526      9.88391    0.99357     10.79313    0.01709
  1   527      9.90014    0.99244     10.80134    0.01576

Fermi level: 10.38791

No gap

Forces in eV/Ang:
  0 Co   -0.20348    0.18713    0.33610
  1 Co    0.80764    0.85173   -1.42378
  2 Fe   -0.29180   -0.46511   -2.45471
  3 Fe   -2.31750   -0.68521    0.69400
  4 Cr   -0.25604   -1.63855   -0.29286
  5 Cr    0.64097   -0.87221    1.37214
  6 Co   -1.35610   -0.00905   -0.88375
  7 Cr    1.33370   -0.08945    0.16268
  8 Fe   -1.04761    0.20399   -0.44746
  9 Ni    1.37632   -0.81375   -1.67036
 10 Ni   -2.32505   -0.39536    0.73137
 11 Co   -0.22174    1.08125   -0.05703
 12 Cr   -1.00355    0.63164    1.11785
 13 Fe    0.87481   -2.47930    0.50020
 14 Cr   -0.46621    1.76627   -0.62270
 15 Fe   -0.35287   -2.60130    0.57672
 16 Ni   -1.38161   -0.01168   -1.54448
 17 Co   -0.09673   -0.39951    0.77708
 18 Ni   -0.74179    0.99497    0.45675
 19 Cr    1.22180    2.31921    0.77104
 20 Co   -0.95392    0.36237   -0.15613
 21 Ni   -0.42446    1.90661    0.14023
 22 Co   -0.48671    0.27683   -1.13394
 23 Cr    0.56378   -0.47756   -0.91757
 24 Fe   -1.60419    0.03098   -1.84244
 25 Co    1.18733    0.08786    1.86964
 26 Cr    0.55534   -0.77116    0.03589
 27 Cr    0.86220    0.41817    1.24071
 28 Fe    1.60628    0.27300   -0.07858
 29 Cr    0.43758    0.01839    0.11525
 30 Co    0.70683   -0.65980    0.14511
 31 Co   -0.73698   -0.49492   -0.54362
 32 Cr   -1.64924   -0.69806   -1.19049
 33 Ni   -0.07448   -1.15014    2.19740
 34 Ni   -0.49862    0.79469    0.04703
 35 Cr    1.23836   -0.04091   -0.26370
 36 Fe   -0.62351   -0.36407    0.26347
 37 Ni   -1.18861   -0.27230   -0.99105
 38 Cr    0.68591   -0.77948    0.18777
 39 Fe    1.18886    0.91053    1.03885
 40 Fe   -0.28115    0.62500    0.30009
 41 Co    1.45224   -0.84638   -0.74728
 42 Cr   -0.06407    1.00838    1.06783
 43 Fe    0.41482    0.32048    0.47588
 44 Fe    0.74393   -1.32174    0.93585
 45 Fe   -0.44604    0.54999    1.18561
 46 Ni    0.74970    0.10935   -0.87799
 47 Co   -0.78457   -1.42085    0.53169
 48 Cr    1.57632    0.87061    0.11134
 49 Ni   -2.16756   -1.37994   -1.62187
 50 Fe    0.01888    1.07287   -1.13661
 51 Co   -0.29396   -0.22787    0.47908
 52 Co    0.35267    1.28538    1.02990
 53 Fe    0.92068   -2.06628   -0.39092
 54 Fe    0.38062   -0.23855   -1.34822
 55 Ni   -0.09332   -0.80881    0.56077
 56 Ni    0.10525    1.44738    2.71820
 57 Fe   -1.06804   -0.33535   -0.89740
 58 Co   -0.80845    0.94353    0.49410
 59 Ni    0.57735   -0.54131    0.01361
[...]
 93 Ni   -0.96765    0.50412    1.07568
 94 Ni    0.45099    0.40823   -0.00559
 95 Cr    0.43933    0.09738    1.02364
 96 Ni   -0.54432   -0.85370    0.62850
 97 Co   -0.57995   -0.00291   -1.21339
 98 Fe   -0.39603    0.89173    1.26823
 99 Cr   -0.80097    0.92453    0.90922
100 Co   -0.06711    0.63756    0.42923
101 Cr   -1.28415    0.44676   -0.10847
102 Fe   -0.45045   -0.83509    2.36695
103 Co    0.25249    0.49761   -1.45897
104 Ni   -0.36444    0.76122    0.39735
105 Co   -1.49223    0.36310   -0.83737
106 Cr    0.05306    0.42942   -0.79116
107 Cr    0.89714   -0.21381    1.15721

Date: Thu Apr 13 19:43:06 2023