User:   c.zeng@d0020
Date:   Mon Apr 17 04:09:34 2023
Arch:   x86_64
Pid:    236652
CWD:    /home/c.zeng/projects/hea-corrosion/hea-mlp/data-curation/bulk-mcmc/dft-jobs/197
Python: 3.8.1
gpaw:   /home/c.zeng/usr/installs/gpaw/source/gpaw-22.8.0/gpaw
_gpaw:  /home/c.zeng/usr/installs/gpaw/source/gpaw-22.8.0/
        _gpaw.cpython-38-x86_64-linux-gnu.so
ase:    /home/c.zeng/.local/lib/python3.8/site-packages/ase-3.22.1-py3.8.egg/ase (version 3.22.1)
numpy:  /home/c.zeng/.local/lib/python3.8/site-packages/numpy (version 1.24.2)
scipy:  /home/c.zeng/.local/lib/python3.8/site-packages/scipy (version 1.10.1)
units:  Angstrom and eV
cores: 30
OpenMP: False
OMP_NUM_THREADS: 1

Input parameters:
  convergence: {energy: 0.0001}
  kpts: [2 2 2]
  maxiter: 666
  mode: {ecut: 350.0,
         name: pw}
  occupations: {fixmagmom: False,
                name: fermi-dirac,
                width: 0.1}
  spinpol: True
  xc: PBE

System changes: positions, numbers, cell, pbc, initial_charges, initial_magmoms

Initialize ...

species:
  Co:
    name: Cobalt
    id: 339d20d5b0b93d2de9531a1bee871d91
    Z: 27.0
    valence: 9
    core: 18
    charge: 0.0
    file: /home/c.zeng/usr/data/gpaw-setups-0.9.20000/Co.PBE.gz
    compensation charges: {type: gauss,
                           rc: 0.32,
                           lmax: 2}
    cutoffs: {filter: 1.87,
              core: 2.55}
    valence states:
      #              energy  rcut
      - 4s(2.00)    -5.469   1.005
      - 4p(0.00)    -1.277   1.058
      - 3d(7.00)    -8.205   1.005
      -  s          21.742   1.005
      -  p          25.934   1.058
      -  d          19.007   1.005

    # Using partial waves for Co as LCAO basis

  Fe:
    name: Iron
    id: 37abbd8d6c3c35915a9b583b742da910
    Z: 26.0
    valence: 8
    core: 18
    charge: 0.0
    file: /home/c.zeng/usr/data/gpaw-setups-0.9.20000/Fe.PBE.gz
    compensation charges: {type: gauss,
                           rc: 0.33,
                           lmax: 2}
    cutoffs: {filter: 2.06,
              core: 2.67}
    valence states:
      #              energy  rcut
      - 4s(2.00)    -5.291   1.164
      - 4p(0.00)    -1.326   1.058
      - 3d(6.00)    -7.505   1.058
      -  s          21.920   1.164
      -  p          25.885   1.058
      -  d          19.706   1.058

[...]

  Al:
    name: Aluminium
    id: 0292cae29f5d6237e50f6abdd43a7bdd
    Z: 13.0
    valence: 3
    core: 10
    charge: 0.0
    file: /home/c.zeng/usr/data/gpaw-setups-0.9.20000/Al.PBE.gz
    compensation charges: {type: gauss,
                           rc: 0.34,
                           lmax: 2}
    cutoffs: {filter: 1.91,
              core: 2.36}
    valence states:
      #              energy  rcut
      - 3s(2.00)    -7.753   1.085
      - 3p(1.00)    -2.712   1.085
      -  s          19.459   1.085
      -  p          24.499   1.085
      -  d           0.000   1.085

[...]

  Cr:
    name: Chromium
    id: 33f258bda2ca9f93018e70263a35547b
    Z: 24.0
    valence: 6
    core: 18
    charge: 0.0
    file: /home/c.zeng/usr/data/gpaw-setups-0.9.20000/Cr.PBE.gz
    compensation charges: {type: gauss,
                           rc: 0.35,
                           lmax: 2}
    cutoffs: {filter: 2.14,
              core: 3.04}
    valence states:
      #              energy  rcut
      - 4s(1.00)    -4.007   1.164
      - 4p(0.00)    -0.989   1.217
      - 3d(5.00)    -2.913   1.111
      -  s          23.205   1.164
      -  p          26.223   1.217
      -  d          24.299   1.111

[...]

  Ni:
    name: Nickel
    id: 0d9f38a9d6e76a2886f07bb4381f212b
    Z: 28.0
    valence: 16
    core: 12
    charge: 0.0
    file: /home/c.zeng/usr/data/gpaw-setups-0.9.20000/Ni.PBE.gz
    compensation charges: {type: gauss,
                           rc: 0.36,
                           lmax: 2}
    cutoffs: {filter: 2.14,
              core: 1.98}
    valence states:
      #              energy  rcut
      - 4s(2.00)    -5.642   1.164
      - 3p(6.00)   -71.394   1.207
      - 4p(0.00)    -1.226   1.207
      - 3d(8.00)    -8.875   1.138
      -  s          21.570   1.164
      -  d          18.337   1.138

    # Using partial waves for Ni as LCAO basis

Reference energy: -3382523.201499  # eV

Spin-polarized calculation.
Magnetic moment: 128.800000

Convergence criteria:
 Maximum [total energy] change in last 3 cyles: 0.0001 eV / electron
 Maximum integral of absolute [dens]ity change: 0.0001 electrons / valence electron
 Maximum integral of absolute [eigenst]ate change: 4e-08 eV^2 / valence electron
 Maximum number of scf [iter]ations: 666
 (Square brackets indicate name in SCF output, whereas a 'c' in
 the SCF output indicates the quantity has converged.)

Symmetries present (total): 1

  ( 1  0  0)
  ( 0  1  0)
  ( 0  0  1)

8 k-points: 2 x 2 x 2 Monkhorst-Pack grid
4 k-points in the irreducible part of the Brillouin zone
       k-points in crystal coordinates                weights
   0:     0.25000000   -0.25000000   -0.25000000          2/8
   1:     0.25000000   -0.25000000    0.25000000          2/8
   2:     0.25000000    0.25000000   -0.25000000          2/8
   3:     0.25000000    0.25000000    0.25000000          2/8

Wave functions: Plane wave expansion
  Cutoff energy: 350.000 eV
  Number of coefficients (min, max): 18865, 18865
  Pulay-stress correction: 0.000000 eV/Ang^3 (de/decut=0.000000)
  Using FFTW library
  ScaLapack parameters: grid=1x1, blocksize=None
  Wavefunction extrapolation:
    Improved wavefunction reuse through dual PAW basis

Occupation numbers: Fermi-Dirac:
  width: 0.1000  # eV

Eigensolver
   Davidson(niter=2)

Densities:
  Coarse grid: 48*48*48 grid
  Fine grid: 96*96*96 grid
  Total Charge: 0.000000

Density mixing:
  Method: difference
  Backend: pulay
  Linear mixing parameter: 0.05
  old densities: 5
  Damping of long wavelength oscillations: 50

Hamiltonian:
  XC and Coulomb potentials evaluated on a 96*96*96 grid
  Using the PBE Exchange-Correlation functional
  External potential:
    NoExternalPotential

XC parameters: PBE with 2 nearest neighbor stencil

Total number of cores used: 30
Parallelization over k-points: 2
Domain decomposition: 5 x 3 x 1

Number of atoms: 108
Number of atomic orbitals: 961
Number of bands in calculation: 649
Number of valence electrons: 945
Bands to converge: occupied

... initialized

Initializing position-dependent things.

Density initialized from atomic densities
Creating initial wave functions:
  649 bands from LCAO basis set

       /|                     Fe   |
      / |            Co Co     CrCo|
     /  |       Cr       Ni       Cr
    /   |Fe       Fel     FFer     |
   /i   | Coe        Co      Co    |
  /  CrAl   NCr       Ni           |
 *      Ni     CoCo   AlFeCrCo   Cr|
 |      |FeNi   CrNiAl   NiAlNi   Fe
 | CrFe | AlNi   AlAlFe     Ni     |
 |     Fe  CoCr Cr  Fe FeNi  CrNi  |
 |      CoNi   AlCr   FeCoFeNi  Co |
 |Al    |FeCr   AlCrCo   CrCo     Fe
 |      .-CrCo-----NiCr-CoCoCrNi---.
 |     /   Ni Co    Cr CoNi    Al /
 |    Fe       AFei       Al     /
 |   /  Co         Al       Cr  /
 |  /      Fe       Al       Fe/
 | / Co     Co       Ni Ni    /
 |/             Cr       Ni  /
 *--------Fe----------------*

Positions:
   0 Co    10.764147   10.861293   10.805330    ( 0.0000,  0.0000,  2.0000)
   1 Fe    10.786221    1.792513    1.813624    ( 0.0000,  0.0000,  0.0000)
   2 Co     1.744156    0.036560    1.851269    ( 0.0000,  0.0000,  1.5000)
   3 Al     1.736571    1.831142   10.798805    ( 0.0000,  0.0000,  0.0000)
   4 Fe     3.575126    0.057318    0.061759    ( 0.0000,  0.0000,  0.0000)
   5 Fe     3.594289    1.817617    1.845577    ( 0.0000,  0.0000,  2.0000)
   6 Fe     5.429813   10.817005    1.865054    ( 0.0000,  0.0000,  1.5000)
   7 Cr     5.429608    1.929425    0.057134    ( 0.0000,  0.0000,  0.0000)
   8 Co     7.316909   10.723332    0.087382    ( 0.0000,  0.0000,  0.0000)
   9 Al     7.263142    1.825786    1.869404    ( 0.0000,  0.0000,  2.1000)
  10 Ni     9.063554    0.025226    1.863474    ( 0.0000,  0.0000,  1.5000)
  11 Ni     9.049217    1.829703    0.033106    ( 0.0000,  0.0000,  2.1000)
  12 Ni     0.004792    3.558981   10.794801    ( 0.0000,  0.0000,  1.5000)
  13 Al    10.759710    5.390697    1.778165    ( 0.0000,  0.0000,  0.0000)
  14 Co     1.733585    3.561849    1.761112    ( 0.0000,  0.0000,  2.0000)
  15 Fe     1.776899    5.391834   10.795505    ( 0.0000,  0.0000,  0.0000)
  16 Co     3.565452    3.619360   10.832619    ( 0.0000,  0.0000,  2.1000)
  17 Co     3.633221    5.394614    1.719551    ( 0.0000,  0.0000,  0.0000)
  18 Ni     5.471624    3.659114    1.836033    ( 0.0000,  0.0000,  2.1000)
  19 Fe     5.440212    5.373060   -0.002773    ( 0.0000,  0.0000,  2.0000)
  20 Ni     7.258997    3.609080    0.031294    ( 0.0000,  0.0000,  0.0000)
  21 Co     7.268941    5.378362    1.785274    ( 0.0000,  0.0000,  2.0000)
  22 Al     9.030724    3.577636    1.833728    ( 0.0000,  0.0000,  2.1000)
  23 Fe     9.040420    5.372281   10.801110    ( 0.0000,  0.0000,  0.0000)
  24 Co    10.791663    7.196206   10.792486    ( 0.0000,  0.0000,  1.5000)
  25 Fe    10.758434    9.040387    1.848239    ( 0.0000,  0.0000,  0.0000)
  26 Cr     1.690487    7.202493    1.786032    ( 0.0000,  0.0000,  0.0000)
  27 Ni     1.652691    8.981047    0.027217    ( 0.0000,  0.0000,  0.0000)
  28 Al     3.631241    7.164437    0.034633    ( 0.0000,  0.0000,  0.0000)
  29 Al     3.625452    9.063759    1.801678    ( 0.0000,  0.0000,  0.0000)
  30 Ni     5.490852    7.187095    1.746342    ( 0.0000,  0.0000,  2.0000)
  31 Cr     5.426935    8.989152    0.009861    ( 0.0000,  0.0000,  2.0000)
  32 Co     7.229122    7.237075   -0.008698    ( 0.0000,  0.0000,  1.5000)
  33 Cr     7.249194    8.995850    1.810713    ( 0.0000,  0.0000,  0.0000)
  34 Cr     9.052073    7.204300    1.764218    ( 0.0000,  0.0000,  2.1000)
  35 Fe     9.092553    8.989639   10.808760    ( 0.0000,  0.0000,  1.5000)
  36 Cr    -0.000975   10.826235    3.639789    ( 0.0000,  0.0000,  1.5000)
  37 Al    10.822772    1.771770    5.422044    ( 0.0000,  0.0000,  2.1000)
  38 Ni     1.754263   10.802084    5.428872    ( 0.0000,  0.0000,  2.1000)
  39 Fe     1.741873    1.774270    3.610801    ( 0.0000,  0.0000,  0.0000)
  40 Al     3.591183   10.794152    3.612143    ( 0.0000,  0.0000,  2.0000)
  41 Cr     3.593088    1.736744    5.455177    ( 0.0000,  0.0000,  0.0000)
  42 Al     5.437150   10.794563    5.400804    ( 0.0000,  0.0000,  2.0000)
  43 Fe     5.451931    1.783251    3.601387    ( 0.0000,  0.0000,  1.5000)
  44 Al     7.226222    0.007781    3.626209    ( 0.0000,  0.0000,  0.0000)
  45 Co     7.236069    1.766512    5.381392    ( 0.0000,  0.0000,  2.1000)
  46 Co     9.034587   10.848850    5.403844    ( 0.0000,  0.0000,  2.1000)
  47 Ni     9.031558    1.804946    3.616730    ( 0.0000,  0.0000,  1.5000)
  48 Ni    10.773885    3.543973    3.617867    ( 0.0000,  0.0000,  1.5000)
  49 Ni    10.772186    5.358409    5.454917    ( 0.0000,  0.0000,  0.0000)
  50 Co     1.757531    3.575678    5.428937    ( 0.0000,  0.0000,  2.1000)
  51 Fe     1.621766    5.386986    3.572550    ( 0.0000,  0.0000,  0.0000)
  52 Co     3.634303    3.633188    3.540792    ( 0.0000,  0.0000,  0.0000)
  53 Cr     3.550606    5.397969    5.404753    ( 0.0000,  0.0000,  2.0000)
  54 Cr     5.402221    3.610887    5.370193    ( 0.0000,  0.0000,  2.0000)
  55 Cr     5.460241    5.433590    3.575613    ( 0.0000,  0.0000,  2.0000)
  56 Cr     7.250157    3.615183    3.623169    ( 0.0000,  0.0000,  1.5000)
  57 Fe     7.248707    5.410715    5.362099    ( 0.0000,  0.0000,  1.5000)
  58 Fe     9.058230    3.565236    5.380082    ( 0.0000,  0.0000,  2.1000)
  59 Co     9.074071    5.365323    3.589008    ( 0.0000,  0.0000,  2.1000)
[...]
  93 Ni     7.211073    5.388295    9.040181    ( 0.0000,  0.0000,  0.0000)
  94 Cr     9.095052    3.598119    8.980636    ( 0.0000,  0.0000,  2.0000)
  95 Al     9.078205    5.402416    7.227759    ( 0.0000,  0.0000,  0.0000)
  96 Cr    10.763411    7.244682    7.260285    ( 0.0000,  0.0000,  1.5000)
  97 Cr    10.795093    9.034566    8.977574    ( 0.0000,  0.0000,  2.0000)
  98 Co     1.740045    7.178947    8.984662    ( 0.0000,  0.0000,  2.1000)
  99 Fe     1.734429    9.080207    7.236696    ( 0.0000,  0.0000,  1.5000)
 100 Co     3.580482    7.154277    7.248285    ( 0.0000,  0.0000,  0.0000)
 101 Cr     3.612835    8.970898    8.958086    ( 0.0000,  0.0000,  0.0000)
 102 Al     5.410943    7.155878    9.067049    ( 0.0000,  0.0000,  0.0000)
 103 Co     5.466441    9.064062    7.220963    ( 0.0000,  0.0000,  2.1000)
 104 Fe     7.307203    7.271549    7.289738    ( 0.0000,  0.0000,  0.0000)
 105 Ni     7.271073    9.044683    9.027879    ( 0.0000,  0.0000,  1.5000)
 106 Cr     9.081743    7.219805    9.041166    ( 0.0000,  0.0000,  2.1000)
 107 Co     9.063684    9.083009    7.213865    ( 0.0000,  0.0000,  2.0000)

Unit cell:
           periodic     x           y           z      points  spacing
  1. axis:    yes   10.820500    0.000000    0.000000    48     0.2254
  2. axis:    yes    0.000000   10.820500    0.000000    48     0.2254
  3. axis:    yes    0.000000    0.000000   10.820500    48     0.2254

  Lengths:  10.820500  10.820500  10.820500
  Angles:   90.000000  90.000000  90.000000

Effective grid spacing dv^(1/3) = 0.2254

     iter     time        total  log10-change:  magmom
                         energy  eigst   dens
iter:   1 04:19:14  -895.444963                  +128.4417
iter:   2 04:22:49  -863.338048  -0.40  -1.31    +94.7380
iter:   3 04:26:21  -844.936542  -0.94  -1.29    +65.2159
iter:   4 04:29:56  -833.446154  -1.25  -1.37    +55.3073
iter:   5 04:33:27  -826.061893  -1.83  -1.40    +50.4210
iter:   6 04:37:07  -826.592570  -2.01  -1.47    +48.0724
iter:   7 04:40:41  -828.127037  -1.66  -1.50    +46.6669
iter:   8 04:44:18  -824.801320  -1.72  -1.52    +46.0160
iter:   9 04:47:55  -829.597100  -1.79  -1.65    +46.4551
iter:  10 04:51:27  -823.999189  -1.94  -1.63    +46.1756
iter:  11 04:55:05  -824.876306  -2.19  -1.78    +46.4583
iter:  12 04:58:42  -822.718141  -2.36  -1.79    +46.9341
iter:  13 05:02:19  -823.168885  -2.52  -1.85    +47.8394
iter:  14 05:05:55  -823.048315  -2.55  -1.89    +48.9726
iter:  15 05:09:33  -824.404026  -2.51  -1.92    +49.5789
iter:  16 05:13:10  -823.866320  -2.50  -1.89    +51.0181
iter:  17 05:16:47  -824.550710  -2.59  -1.96    +51.8435
iter:  18 05:20:20  -824.008754  -2.61  -1.96    +52.6446
iter:  19 05:23:57  -824.259207  -2.77  -2.04    +53.4438
iter:  20 05:27:34  -824.004298  -2.83  -2.05    +54.3802
iter:  21 05:31:10  -824.357854  -3.00  -2.09    +55.0611
iter:  22 05:34:45  -824.447599  -2.99  -2.11    +55.4000
iter:  23 05:38:23  -824.499961  -3.08  -2.11    +55.9745
iter:  24 05:42:00  -824.428603c -3.16  -2.14    +56.3061
iter:  25 05:45:33  -824.581054  -3.25  -2.19    +56.6588
iter:  26 05:49:09  -824.788757  -3.10  -2.21    +56.7840
iter:  27 05:52:42  -825.033476  -3.06  -2.23    +56.8862
iter:  28 05:56:18  -825.199431  -2.96  -2.20    +57.2252
iter:  29 05:59:55  -825.143924  -3.02  -2.22    +57.2463
iter:  30 06:03:27  -824.868653  -3.21  -2.25    +57.5138
iter:  31 06:07:02  -824.822440  -3.49  -2.34    +57.6032
iter:  32 06:10:33  -824.823002c -3.80  -2.38    +57.7457
iter:  33 06:14:10  -824.910094c -3.77  -2.42    +57.9394
iter:  34 06:17:46  -824.918742  -4.04  -2.43    +57.9966
iter:  35 06:21:20  -825.100464  -3.66  -2.45    +58.1752
iter:  36 06:24:58  -825.123774  -3.68  -2.43    +58.1884
iter:  37 06:28:33  -825.306168  -3.36  -2.47    +58.3022
iter:  38 06:32:10  -825.297511  -3.49  -2.46    +58.2725
iter:  39 06:35:45  -825.472547  -3.29  -2.53    +58.2356
iter:  40 06:39:21  -825.376006  -3.52  -2.44    +58.2072
iter:  41 06:43:04  -825.315088  -3.71  -2.55    +58.1384
iter:  42 06:46:40  -825.311146c -4.05  -2.63    +58.1508
iter:  43 06:50:18  -825.348099c -4.43  -2.70    +58.0648
iter:  44 06:53:55  -825.503281  -3.57  -2.71    +57.5972
iter:  45 06:57:31  -825.478990  -4.42  -2.70    +57.6391
iter:  46 07:01:13  -825.560287c -4.01  -2.76    +57.3937
iter:  47 07:04:56  -825.560918c -4.04  -2.76    +57.3635
iter:  48 07:08:33  -825.572490c -4.10  -2.84    +57.1654
iter:  49 07:12:16  -825.585461c -4.43  -3.00    +57.0708
iter:  50 07:15:53  -825.618833c -4.48  -3.18    +56.9193
iter:  51 07:19:30  -825.634693c -4.88  -3.28    +56.8570
iter:  52 07:23:05  -825.687128c -4.40  -3.30    +56.6556
iter:  53 07:26:40  -825.712201c -4.77  -3.25    +56.5904
iter:  54 07:30:20  -825.675134c -4.93  -3.17    +56.7035
iter:  55 07:33:56  -825.771838  -4.09  -3.21    +56.4164
iter:  56 07:37:32  -825.782538  -4.86  -3.09    +56.3785
iter:  57 07:41:07  -825.827860c -4.39  -3.09    +56.2485
iter:  58 07:44:47  -825.881730  -4.11  -3.05    +56.0463
iter:  59 07:48:27  -825.957602  -3.90  -3.02    +55.8229
iter:  60 07:52:01  -826.030647  -3.93  -2.92    +55.5637
iter:  61 07:55:42  -826.026845c -4.98  -2.80    +55.5878
iter:  62 07:59:23  -826.049616c -4.50  -2.79    +55.4635
iter:  63 08:05:19  -826.091901c -4.04  -2.76    +55.4207
iter:  64 08:11:44  -826.065427c -3.76  -2.68    +55.3551
iter:  65 08:18:17  -826.297684  -3.29  -2.68    +55.3265
iter:  66 08:21:55  -826.026854  -3.59  -2.51    +55.3181
iter:  67 08:25:34  -825.966342  -4.22  -2.80    +55.1770
iter:  68 08:31:49  -825.980200c -4.45  -3.07    +55.0926
iter:  69 08:38:37  -825.988410c -4.52  -3.04    +55.0648
iter:  70 08:45:36  -825.990455c -4.51  -3.05    +55.0117
iter:  71 08:52:08  -825.991639c -4.75  -3.08    +54.9158
iter:  72 08:54:18  -826.000181c -4.74  -3.14    +54.8123
iter:  73 08:56:27  -826.003893c -4.77  -3.19    +54.7522
iter:  74 08:58:37  -826.010488c -4.89  -3.20    +54.6602
iter:  75 09:00:47  -826.018123c -4.93  -3.26    +54.5532
iter:  76 09:02:57  -826.025261c -4.97  -3.27    +54.4860
iter:  77 09:05:07  -826.030710c -5.18  -3.25    +54.4139
iter:  78 09:07:17  -826.043387c -5.06  -3.31    +54.2696
iter:  79 09:09:26  -826.085750c -4.15  -3.27    +53.8175
iter:  80 09:11:36  -826.097646c -4.33  -3.17    +53.5577
iter:  81 09:13:46  -826.112466c -4.43  -3.17    +53.3242
iter:  82 09:15:55  -826.111727c -4.83  -3.09    +53.2763
iter:  83 09:18:05  -826.114085c -4.91  -3.07    +53.2604
iter:  84 09:20:17  -826.132098c -4.77  -3.06    +53.2170
iter:  85 09:22:34  -826.119324c -4.61  -2.93    +53.1921
iter:  86 09:24:51  -826.125800c -4.20  -3.01    +53.1420
iter:  87 09:27:08  -826.107037c -4.60  -2.97    +53.1342
iter:  88 09:29:25  -826.108244c -4.53  -3.09    +53.0778
iter:  89 09:31:42  -826.098201c -4.93  -3.07    +53.0932
iter:  90 09:33:59  -826.108811c -4.52  -3.20    +53.0869
iter:  91 09:36:16  -826.102986c -4.55  -3.10    +53.0953
iter:  92 09:38:32  -826.105067c -4.47  -3.12    +53.1017
iter:  93 09:40:50  -826.100991c -4.62  -3.12    +53.0897
iter:  94 09:43:06  -826.094982c -4.89  -3.22    +53.1194
iter:  95 09:45:23  -826.093165c -4.99  -3.30    +53.1129
iter:  96 09:47:40  -826.089605c -5.48  -3.36    +53.1261
iter:  97 09:49:57  -826.091681c -5.42  -3.48    +53.1375
iter:  98 09:52:14  -826.090577c -5.70  -3.45    +53.1459
iter:  99 09:54:31  -826.090726c -5.43  -3.54    +53.1612
iter: 100 09:56:48  -826.090057c -5.52  -3.48    +53.1602
iter: 101 09:59:04  -826.091181c -5.41  -3.54    +53.1741
iter: 102 10:01:21  -826.090268c -5.54  -3.51    +53.1784
iter: 103 10:03:38  -826.089496c -5.65  -3.61    +53.1841
iter: 104 10:05:54  -826.088824c -5.87  -3.59    +53.1890
iter: 105 10:08:11  -826.089559c -5.97  -3.71    +53.1927
iter: 106 10:10:28  -826.089068c -6.03  -3.72    +53.2013
iter: 107 10:12:45  -826.089071c -6.23  -3.77    +53.2021
iter: 108 10:15:02  -826.088693c -5.89  -3.79    +53.2054
iter: 109 10:17:19  -826.089702c -5.97  -3.76    +53.2073
iter: 110 10:19:36  -826.089370c -5.90  -3.77    +53.2081
iter: 111 10:21:52  -826.088771c -6.07  -3.81    +53.2113
iter: 112 10:24:09  -826.088772c -6.02  -3.88    +53.2063
iter: 113 10:26:26  -826.088593c -6.47  -3.88    +53.2107
iter: 114 10:28:43  -826.088886c -6.44  -4.05c   +53.2121
iter: 115 10:31:00  -826.088514c -6.94  -4.03c   +53.2145
iter: 116 10:33:18  -826.088588c -6.74  -4.12c   +53.2169
iter: 117 10:35:36  -826.088787c -6.92  -4.12c   +53.2181
iter: 118 10:37:53  -826.088830c -6.63  -4.14c   +53.2221
iter: 119 10:40:11  -826.088652c -6.80  -4.10c   +53.2214
iter: 120 10:42:28  -826.088458c -6.62  -4.20c   +53.2229
iter: 121 10:44:46  -826.088746c -6.87  -4.12c   +53.2240
iter: 122 10:47:03  -826.088677c -6.94  -4.25c   +53.2252
iter: 123 10:49:21  -826.088549c -7.24  -4.25c   +53.2268
iter: 124 10:51:38  -826.088562c -7.45c -4.35c   +53.2263

Converged after 124 iterations.

Dipole moment: (28.800802, -3.249727, -10.392563) |e|*Ang

Total magnetic moment: (0.000000, 0.000000, 53.226346)
Local magnetic moments:
   0 Co ( 0.000000,  0.000000,  1.047521)
   1 Fe ( 0.000000,  0.000000,  2.435338)
   2 Co ( 0.000000,  0.000000,  1.282438)
   3 Al ( 0.000000,  0.000000, -0.044556)
   4 Fe ( 0.000000,  0.000000,  2.388907)
   5 Fe ( 0.000000,  0.000000,  2.424142)
   6 Fe ( 0.000000,  0.000000,  1.945446)
   7 Cr ( 0.000000,  0.000000, -2.357796)
   8 Co ( 0.000000,  0.000000,  0.911141)
   9 Al ( 0.000000,  0.000000, -0.010969)
  10 Ni ( 0.000000,  0.000000,  0.144954)
  11 Ni ( 0.000000,  0.000000,  0.136653)
  12 Ni ( 0.000000,  0.000000,  0.234148)
  13 Al ( 0.000000,  0.000000, -0.026869)
  14 Co ( 0.000000,  0.000000,  1.221697)
  15 Fe ( 0.000000,  0.000000,  2.136679)
  16 Co ( 0.000000,  0.000000,  1.304468)
  17 Co ( 0.000000,  0.000000,  1.076843)
  18 Ni ( 0.000000,  0.000000,  0.243914)
  19 Fe ( 0.000000,  0.000000,  2.332456)
  20 Ni ( 0.000000,  0.000000,  0.128562)
  21 Co ( 0.000000,  0.000000,  1.242756)
  22 Al ( 0.000000,  0.000000, -0.021142)
  23 Fe ( 0.000000,  0.000000,  2.116505)
  24 Co ( 0.000000,  0.000000,  0.340583)
  25 Fe ( 0.000000,  0.000000,  2.051331)
  26 Cr ( 0.000000,  0.000000, -2.051718)
  27 Ni ( 0.000000,  0.000000,  0.104934)
  28 Al ( 0.000000,  0.000000, -0.012835)
  29 Al ( 0.000000,  0.000000, -0.020142)
  30 Ni ( 0.000000,  0.000000,  0.315650)
  31 Cr ( 0.000000,  0.000000,  1.689987)
  32 Co ( 0.000000,  0.000000,  0.890820)
  33 Cr ( 0.000000,  0.000000, -1.281315)
  34 Cr ( 0.000000,  0.000000, -1.618094)
  35 Fe ( 0.000000,  0.000000,  1.962944)
  36 Cr ( 0.000000,  0.000000, -1.675623)
  37 Al ( 0.000000,  0.000000, -0.025992)
  38 Ni ( 0.000000,  0.000000,  0.131700)
  39 Fe ( 0.000000,  0.000000,  2.240560)
  40 Al ( 0.000000,  0.000000, -0.035821)
  41 Cr ( 0.000000,  0.000000, -2.030933)
  42 Al ( 0.000000,  0.000000, -0.026506)
  43 Fe ( 0.000000,  0.000000,  1.863424)
  44 Al ( 0.000000,  0.000000, -0.026417)
  45 Co ( 0.000000,  0.000000,  0.441853)
  46 Co ( 0.000000,  0.000000,  0.651562)
  47 Ni ( 0.000000,  0.000000,  0.122644)
  48 Ni ( 0.000000,  0.000000,  0.381823)
  49 Ni ( 0.000000,  0.000000,  0.332420)
  50 Co ( 0.000000,  0.000000,  1.203880)
  51 Fe ( 0.000000,  0.000000,  2.398344)
  52 Co ( 0.000000,  0.000000,  1.115362)
  53 Cr ( 0.000000,  0.000000, -1.972579)
  54 Cr ( 0.000000,  0.000000, -0.979787)
  55 Cr ( 0.000000,  0.000000,  1.527079)
  56 Cr ( 0.000000,  0.000000, -1.586617)
  57 Fe ( 0.000000,  0.000000,  2.053552)
  58 Fe ( 0.000000,  0.000000,  2.135377)
  59 Co ( 0.000000,  0.000000,  1.101776)
[...]
  93 Ni ( 0.000000,  0.000000,  0.275796)
  94 Cr ( 0.000000,  0.000000,  1.493286)
  95 Al ( 0.000000,  0.000000, -0.002843)
  96 Cr ( 0.000000,  0.000000,  0.888380)
  97 Cr ( 0.000000,  0.000000, -0.335372)
  98 Co ( 0.000000,  0.000000,  0.315863)
  99 Fe ( 0.000000,  0.000000,  1.950525)
 100 Co ( 0.000000,  0.000000,  0.467159)
 101 Cr ( 0.000000,  0.000000, -2.267343)
 102 Al ( 0.000000,  0.000000, -0.018351)
 103 Co ( 0.000000,  0.000000,  1.087452)
 104 Fe ( 0.000000,  0.000000,  2.483042)
 105 Ni ( 0.000000,  0.000000,  0.226981)
 106 Cr ( 0.000000,  0.000000, -1.481177)
 107 Co ( 0.000000,  0.000000,  0.890141)

Energy contributions relative to reference atoms: (reference = -3382523.201499)

Kinetic:       +229.743158
Potential:     -236.244592
External:        +0.000000
XC:            -850.802762
Entropy (-ST):   -4.103764
Local:          +33.267516
Free energy:   -828.140444
Extrapolated:  -826.088562

Spin contamination: 32.890283 electrons
Showing only first 2 kpts
                      Up                     Down
 Kpt  Band  Eigenvalues  Occupancy  Eigenvalues  Occupancy
  0   470      9.17342    0.99409     10.03749    0.02889
  0   471      9.17963    0.99372     10.04790    0.02611
  0   472      9.21034    0.99148     10.06017    0.02317
  0   473      9.23002    0.98965     10.07426    0.02018

  1   470      9.17809    0.99381     10.01861    0.03469
  1   471      9.19155    0.99293     10.02706    0.03197
  1   472      9.21579    0.99101     10.03854    0.02860
  1   473      9.22834    0.98982     10.04993    0.02560

Fermi level: 9.68601

No gap

Forces in eV/Ang:
  0 Co    0.25462   -0.47629    0.16359
  1 Fe    0.44915   -0.36636    0.12714
  2 Co    0.02374   -0.18511   -0.61465
  3 Al    0.28123   -0.05111   -0.13226
  4 Fe    0.26901   -0.07309   -0.63794
  5 Fe    0.01534    0.67060   -0.28640
  6 Fe    0.36138    0.29562   -0.81450
  7 Cr   -1.13368   -0.90405   -0.80924
  8 Co   -0.63312    0.38200   -0.49732
  9 Al   -0.23296   -0.67844   -1.40880
 10 Ni   -0.31747   -0.26745   -0.41334
 11 Ni   -0.19960   -0.33345   -0.41385
 12 Ni   -0.32708    0.51787    0.12610
 13 Al    0.73552   -0.30168   -0.12023
 14 Co    0.63141    0.35119    0.69820
 15 Fe   -0.09401   -0.14999    0.01589
 16 Co    0.49728    0.05138    0.23640
 17 Co   -0.40608   -0.62312    0.64062
 18 Ni   -0.45552   -0.17416   -0.03180
 19 Fe    0.26214   -0.63253    0.46449
 20 Ni   -0.14380   -0.05778   -0.43062
 21 Co    0.11317    0.62239    0.17160
 22 Al    0.24441    0.16526   -0.50908
 23 Fe   -0.46197    0.88562   -0.49913
 24 Co    0.37838   -0.10454   -0.27717
 25 Fe    0.71012   -0.03590   -0.35060
 26 Cr   -0.61990    0.07201    0.20107
 27 Ni    0.67882    0.52142   -0.25065
 28 Al   -1.00829    0.14305    0.30011
 29 Al   -0.72930    0.40196   -0.83215
 30 Ni   -0.10804    0.04890    0.42192
 31 Cr    0.93007    1.20033   -0.53830
 32 Co    0.45542   -0.29229    0.14424
 33 Cr    0.02739    0.05742   -0.48675
 34 Cr   -0.69946    0.24063    0.01699
 35 Fe   -0.42581    0.15336    0.12798
 36 Cr    0.08941   -0.74801   -0.71417
 37 Al   -0.21200   -0.06474   -0.11006
 38 Ni    0.36357    0.05246    0.10754
 39 Fe    0.60351    0.68256   -0.15269
 40 Al   -0.73208    0.60505   -0.30542
 41 Cr   -0.60717    1.41620   -0.01683
 42 Al    0.30935   -0.17837    0.94534
 43 Fe   -0.55032    0.66775    0.15990
 44 Al    1.04719   -0.09362    0.24226
 45 Co    0.02291    0.61040    0.43255
 46 Co   -0.15784   -0.37887   -0.08828
 47 Ni   -0.14058   -0.17752    0.09700
 48 Ni    0.59291    0.39289   -0.00203
 49 Ni    0.30159    0.29388   -0.48990
 50 Co    0.63728    0.21210   -0.27592
 51 Fe    1.32496   -0.37123    0.25857
 52 Co   -0.33147   -0.03271    0.27705
 53 Cr   -0.25894   -0.77135   -0.06025
 54 Cr    0.17707    0.13330   -0.03821
 55 Cr   -0.24399   -0.60765   -0.11473
 56 Cr   -0.74204    0.65233    1.26864
 57 Fe    0.28519   -0.01489    0.04445
 58 Fe   -0.65656    0.22642    0.07086
 59 Co   -0.44172    0.71290    0.40724
[...]
 93 Ni    0.27036   -0.14877   -0.29516
 94 Cr    0.06134    0.15749    0.28523
 95 Al   -1.16100    0.11177   -0.79356
 96 Cr   -0.18599    0.26108    0.79397
 97 Cr    0.56640   -0.07196    0.37205
 98 Co    0.19685    0.32706   -0.17004
 99 Fe    0.16429   -0.20652    0.57521
100 Co   -0.41504    0.57829    0.02383
101 Cr   -0.32876    1.00473    0.07469
102 Al    1.18647    0.20952   -1.50173
103 Co   -0.24926   -0.31027    0.37455
104 Fe   -0.06064    0.10536   -0.50842
105 Ni   -0.04402    0.20599    0.09747
106 Cr   -0.92726    0.43660    0.33757
107 Co   -0.27454   -0.16259   -0.05456

Date: Mon Apr 17 10:52:10 2023