User:   c.zeng@d0108
Date:   Thu Apr 13 19:34:44 2023
Arch:   x86_64
Pid:    62137
CWD:    /home/c.zeng/projects/hea-corrosion/hea-mlp/data-curation/bulk-md/dft-jobs/15
Python: 3.8.1
gpaw:   /home/c.zeng/usr/installs/gpaw/source/gpaw-22.8.0/gpaw
_gpaw:  /home/c.zeng/usr/installs/gpaw/source/gpaw-22.8.0/
        _gpaw.cpython-38-x86_64-linux-gnu.so
ase:    /home/c.zeng/.local/lib/python3.8/site-packages/ase-3.22.1-py3.8.egg/ase (version 3.22.1)
numpy:  /shared/centos7/python/3.8.1/lib/python3.8/site-packages/numpy (version 1.17.4)
scipy:  /shared/centos7/python/3.8.1/lib/python3.8/site-packages/scipy (version 1.4.1)
units:  Angstrom and eV
cores: 30
OpenMP: False
OMP_NUM_THREADS: 1

Input parameters:
  convergence: {energy: 0.0001}
  kpts: [2 2 2]
  maxiter: 666
  mode: {ecut: 350.0,
         name: pw}
  occupations: {fixmagmom: False,
                name: fermi-dirac,
                width: 0.1}
  spinpol: True
  xc: PBE

System changes: positions, numbers, cell, pbc, initial_charges, initial_magmoms

Initialize ...

species:
  Co:
    name: Cobalt
    id: 339d20d5b0b93d2de9531a1bee871d91
    Z: 27.0
    valence: 9
    core: 18
    charge: 0.0
    file: /home/c.zeng/usr/data/gpaw-setups-0.9.20000/Co.PBE.gz
    compensation charges: {type: gauss,
                           rc: 0.32,
                           lmax: 2}
    cutoffs: {filter: 1.87,
              core: 2.55}
    valence states:
      #              energy  rcut
      - 4s(2.00)    -5.469   1.005
      - 4p(0.00)    -1.277   1.058
      - 3d(7.00)    -8.205   1.005
      -  s          21.742   1.005
      -  p          25.934   1.058
      -  d          19.007   1.005

    # Using partial waves for Co as LCAO basis

  Fe:
    name: Iron
    id: 37abbd8d6c3c35915a9b583b742da910
    Z: 26.0
    valence: 8
    core: 18
    charge: 0.0
    file: /home/c.zeng/usr/data/gpaw-setups-0.9.20000/Fe.PBE.gz
    compensation charges: {type: gauss,
                           rc: 0.33,
                           lmax: 2}
    cutoffs: {filter: 2.06,
              core: 2.67}
    valence states:
      #              energy  rcut
      - 4s(2.00)    -5.291   1.164
      - 4p(0.00)    -1.326   1.058
      - 3d(6.00)    -7.505   1.058
      -  s          21.920   1.164
      -  p          25.885   1.058
      -  d          19.706   1.058

[...]

  Cr:
    name: Chromium
    id: 33f258bda2ca9f93018e70263a35547b
    Z: 24.0
    valence: 6
    core: 18
    charge: 0.0
    file: /home/c.zeng/usr/data/gpaw-setups-0.9.20000/Cr.PBE.gz
    compensation charges: {type: gauss,
                           rc: 0.35,
                           lmax: 2}
    cutoffs: {filter: 2.14,
              core: 3.04}
    valence states:
      #              energy  rcut
      - 4s(1.00)    -4.007   1.164
      - 4p(0.00)    -0.989   1.217
      - 3d(5.00)    -2.913   1.111
      -  s          23.205   1.164
      -  p          26.223   1.217
      -  d          24.299   1.111

[...]

  Ni:
    name: Nickel
    id: 0d9f38a9d6e76a2886f07bb4381f212b
    Z: 28.0
    valence: 16
    core: 12
    charge: 0.0
    file: /home/c.zeng/usr/data/gpaw-setups-0.9.20000/Ni.PBE.gz
    compensation charges: {type: gauss,
                           rc: 0.36,
                           lmax: 2}
    cutoffs: {filter: 2.14,
              core: 1.98}
    valence states:
      #              energy  rcut
      - 4s(2.00)    -5.642   1.164
      - 3p(6.00)   -71.394   1.207
      - 4p(0.00)    -1.226   1.207
      - 3d(8.00)    -8.875   1.138
      -  s          21.570   1.164
      -  d          18.337   1.138

    # Using partial waves for Ni as LCAO basis

Reference energy: -3846758.590871  # eV

Spin-polarized calculation.
Magnetic moment: 151.200000

Convergence criteria:
 Maximum [total energy] change in last 3 cyles: 0.0001 eV / electron
 Maximum integral of absolute [dens]ity change: 0.0001 electrons / valence electron
 Maximum integral of absolute [eigenst]ate change: 4e-08 eV^2 / valence electron
 Maximum number of scf [iter]ations: 666
 (Square brackets indicate name in SCF output, whereas a 'c' in
 the SCF output indicates the quantity has converged.)

Symmetries present (total): 1

  ( 1  0  0)
  ( 0  1  0)
  ( 0  0  1)

8 k-points: 2 x 2 x 2 Monkhorst-Pack grid
4 k-points in the irreducible part of the Brillouin zone
       k-points in crystal coordinates                weights
   0:     0.25000000   -0.25000000   -0.25000000          2/8
   1:     0.25000000   -0.25000000    0.25000000          2/8
   2:     0.25000000    0.25000000   -0.25000000          2/8
   3:     0.25000000    0.25000000    0.25000000          2/8

Wave functions: Plane wave expansion
  Cutoff energy: 350.000 eV
  Number of coefficients (min, max): 17755, 17755
  Pulay-stress correction: 0.000000 eV/Ang^3 (de/decut=0.000000)
  Using FFTW library
  ScaLapack parameters: grid=1x1, blocksize=None
  Wavefunction extrapolation:
    Improved wavefunction reuse through dual PAW basis

Occupation numbers: Fermi-Dirac:
  width: 0.1000  # eV

Eigensolver
   Davidson(niter=2)

Densities:
  Coarse grid: 48*48*48 grid
  Fine grid: 96*96*96 grid
  Total Charge: 0.000000

Density mixing:
  Method: difference
  Backend: pulay
  Linear mixing parameter: 0.05
  old densities: 5
  Damping of long wavelength oscillations: 50

Hamiltonian:
  XC and Coulomb potentials evaluated on a 96*96*96 grid
  Using the PBE Exchange-Correlation functional
  External potential:
    NoExternalPotential

XC parameters: PBE with 2 nearest neighbor stencil

Total number of cores used: 30
Parallelization over k-points: 2
Domain decomposition: 5 x 3 x 1

Number of atoms: 108
Number of atomic orbitals: 1053
Number of bands in calculation: 727
Number of valence electrons: 1053
Bands to converge: occupied

... initialized

Initializing position-dependent things.

Density initialized from atomic densities
Creating initial wave functions:
  727 bands from LCAO basis set

       /|   Cr      Co      Cr    |
      / |     Fe     Fe           |
     /  |       Cr     Cro        |
    /   |        CrFe    NiCr   Co|
   /    |Fe Ni               Cr   |
  /     |  CrFe     CNi Co    Co  |
 *      Cr  Cr CNi   CrNNi    NNie|
 | Co   |NiCo     CFe   CoCr      |
 |   Fe FeFeCr     CNi Co  CrCr   |
 |     Cr  Ni FCr   NiFNi     Ni  |
 |      Fe   FeFFe     FeCoCo NNi |
 |Ni   CoCoCo   CrNFe   NiNi      |
 |  Cr  .-CrCo-------Ni--FeNi-----Co
 |     /      CFe  Co Ni Co   Fe /
 |    FeCr      Ni              Fe
 |   /   FFer     Fe     Co Co /
 |  Cr              Ni    Cr  /
 | /          Co     Co      /
 |/    Fe      Cr           /
 *--------Cr---------------*

Positions:
   0 Co    -0.131472   -0.066431   10.680773    ( 0.0000,  0.0000,  2.1000)
   1 Co    -0.052618    1.870017    1.853842    ( 0.0000,  0.0000,  2.1000)
   2 Fe     1.950312   -0.013985    1.833005    ( 0.0000,  0.0000,  2.0000)
   3 Fe     1.858304    1.769708   10.681070    ( 0.0000,  0.0000,  2.0000)
   4 Cr     3.765192    0.003532   10.647019    ( 0.0000,  0.0000,  0.0000)
   5 Cr     3.427791    1.936399    2.016857    ( 0.0000,  0.0000,  0.0000)
   6 Co     5.235797   10.789115    1.798164    ( 0.0000,  0.0000,  2.1000)
   7 Cr     5.396209    1.852812   10.743765    ( 0.0000,  0.0000,  0.0000)
   8 Fe     6.871013   -0.050750   10.645743    ( 0.0000,  0.0000,  2.0000)
   9 Ni     7.259990    1.753686    1.711023    ( 0.0000,  0.0000,  1.5000)
  10 Ni     8.883580   -0.080155    1.909251    ( 0.0000,  0.0000,  1.5000)
  11 Co     8.761347    1.938028   10.592137    ( 0.0000,  0.0000,  2.1000)
  12 Cr    10.868414    3.473690    0.236717    ( 0.0000,  0.0000,  0.0000)
  13 Fe    10.590984    5.281567    1.826106    ( 0.0000,  0.0000,  2.0000)
  14 Cr     1.793244    3.607046    1.753559    ( 0.0000,  0.0000,  0.0000)
  15 Fe     1.700465    5.526980   10.687296    ( 0.0000,  0.0000,  2.0000)
  16 Ni     3.737337    3.397918   10.527250    ( 0.0000,  0.0000,  1.5000)
  17 Co     3.692634    5.299485    1.795034    ( 0.0000,  0.0000,  2.1000)
  18 Ni     5.369884    3.326663    2.163522    ( 0.0000,  0.0000,  1.5000)
  19 Cr     5.327742    5.136387   10.506489    ( 0.0000,  0.0000,  0.0000)
  20 Co     7.098775    3.570540   10.688909    ( 0.0000,  0.0000,  2.1000)
  21 Ni     6.977200    5.584013    1.637433    ( 0.0000,  0.0000,  1.5000)
  22 Co     8.914888    3.413024    1.827330    ( 0.0000,  0.0000,  2.1000)
  23 Cr     8.879954    5.144726    0.021823    ( 0.0000,  0.0000,  0.0000)
  24 Fe    -0.003730    7.253576   10.862760    ( 0.0000,  0.0000,  2.0000)
  25 Co    10.800960    9.040340    1.943767    ( 0.0000,  0.0000,  2.1000)
  26 Cr     1.821276    7.141046    1.814008    ( 0.0000,  0.0000,  0.0000)
  27 Cr     2.097056    8.788783   10.557685    ( 0.0000,  0.0000,  0.0000)
  28 Fe     3.533530    7.064818   10.507714    ( 0.0000,  0.0000,  2.0000)
  29 Cr     3.637935    8.874723    1.746754    ( 0.0000,  0.0000,  0.0000)
  30 Co     5.292419    7.027893    1.393222    ( 0.0000,  0.0000,  2.1000)
  31 Co     5.493274    8.674036   10.485904    ( 0.0000,  0.0000,  2.1000)
  32 Cr     7.250767    6.627141   10.335773    ( 0.0000,  0.0000,  0.0000)
  33 Ni     6.913602    9.003316    1.969719    ( 0.0000,  0.0000,  1.5000)
  34 Ni     8.745621    7.224368    1.608482    ( 0.0000,  0.0000,  1.5000)
  35 Cr     8.729966    8.897088   10.416818    ( 0.0000,  0.0000,  0.0000)
  36 Fe     0.099560   10.576144    3.595873    ( 0.0000,  0.0000,  2.0000)
  37 Ni    10.685081    1.752612    5.414435    ( 0.0000,  0.0000,  1.5000)
  38 Cr     1.777003   -0.197010    5.377483    ( 0.0000,  0.0000,  0.0000)
  39 Fe     1.671590    1.665866    3.528790    ( 0.0000,  0.0000,  2.0000)
  40 Fe     3.526659    0.053742    3.537571    ( 0.0000,  0.0000,  2.0000)
  41 Co     3.435178    1.889781    5.293755    ( 0.0000,  0.0000,  2.1000)
  42 Cr     5.279031   -0.000370    5.300741    ( 0.0000,  0.0000,  0.0000)
  43 Fe     5.254938    1.728265    3.666593    ( 0.0000,  0.0000,  2.0000)
  44 Fe     7.109434    0.048829    3.443209    ( 0.0000,  0.0000,  2.0000)
  45 Fe     7.050077    1.703422    5.307966    ( 0.0000,  0.0000,  2.0000)
  46 Ni     8.973631   -0.119320    5.240972    ( 0.0000,  0.0000,  1.5000)
  47 Co     9.232998    1.819952    3.668771    ( 0.0000,  0.0000,  2.1000)
  48 Cr     0.207941    3.702595    3.700441    ( 0.0000,  0.0000,  0.0000)
  49 Ni    -0.078646    5.549787    5.131062    ( 0.0000,  0.0000,  1.5000)
  50 Fe     1.808269    3.569498    5.289307    ( 0.0000,  0.0000,  2.0000)
  51 Co     1.882199    5.504810    3.665014    ( 0.0000,  0.0000,  2.1000)
  52 Co     3.532839    3.727161    3.666340    ( 0.0000,  0.0000,  2.1000)
  53 Fe     3.745590    5.351942    5.409772    ( 0.0000,  0.0000,  2.0000)
  54 Fe     5.284666    3.595016    5.249522    ( 0.0000,  0.0000,  2.0000)
  55 Ni     5.319079    5.484745    3.692999    ( 0.0000,  0.0000,  1.5000)
  56 Ni     7.133671    3.349260    3.551089    ( 0.0000,  0.0000,  1.5000)
  57 Fe     7.213147    5.473745    5.128691    ( 0.0000,  0.0000,  2.0000)
  58 Co     9.036180    3.490731    5.237158    ( 0.0000,  0.0000,  2.1000)
  59 Ni     8.783986    5.359289    3.499831    ( 0.0000,  0.0000,  1.5000)
[...]
  93 Ni     6.946880    5.023836    8.591922    ( 0.0000,  0.0000,  1.5000)
  94 Ni     8.664166    3.338938    8.635097    ( 0.0000,  0.0000,  1.5000)
  95 Cr     8.828963    5.266030    7.114954    ( 0.0000,  0.0000,  0.0000)
  96 Ni    -0.194597    6.961577    7.074277    ( 0.0000,  0.0000,  1.5000)
  97 Co    -0.150254    8.872852    8.693699    ( 0.0000,  0.0000,  2.1000)
  98 Fe     1.556996    7.023589    8.730246    ( 0.0000,  0.0000,  2.0000)
  99 Cr     1.545364    8.815456    7.018860    ( 0.0000,  0.0000,  0.0000)
 100 Co     3.623839    7.033840    7.120353    ( 0.0000,  0.0000,  2.1000)
 101 Cr     3.678815    8.756301    8.999957    ( 0.0000,  0.0000,  0.0000)
 102 Fe     5.492786    7.109758    8.857241    ( 0.0000,  0.0000,  2.0000)
 103 Co     5.367200    8.514362    6.857478    ( 0.0000,  0.0000,  2.1000)
 104 Ni     7.023735    6.780632    7.071492    ( 0.0000,  0.0000,  1.5000)
 105 Co     7.037272    8.768028    8.780216    ( 0.0000,  0.0000,  2.1000)
 106 Cr     8.937920    6.907548    8.973746    ( 0.0000,  0.0000,  0.0000)
 107 Cr     8.944028    9.038021    7.121334    ( 0.0000,  0.0000,  0.0000)

Unit cell:
           periodic     x           y           z      points  spacing
  1. axis:    yes   10.614300    0.000000    0.000000    48     0.2211
  2. axis:    yes    0.000000   10.614300    0.000000    48     0.2211
  3. axis:    yes    0.000000    0.000000   10.614300    48     0.2211

  Lengths:  10.614300  10.614300  10.614300
  Angles:   90.000000  90.000000  90.000000

Effective grid spacing dv^(1/3) = 0.2211

     iter     time        total  log10-change:  magmom
                         energy  eigst   dens
iter:   1 19:41:09 -1057.678192                  +151.4734
iter:   2 19:44:09  -939.371169  -0.28  -1.21    +85.7778
iter:   3 19:47:09  -933.084669  -0.91  -1.23    +69.8429
iter:   4 19:50:09  -910.641037  -1.24  -1.29    +65.3039
iter:   5 19:53:09  -893.278801  -1.62  -1.30    +59.2170
iter:   6 19:56:09  -891.427508  -1.36  -1.37    +59.2148
iter:   7 19:59:08  -893.855388  -1.22  -1.46    +57.7327
iter:   8 20:02:08  -872.243147  -1.51  -1.52    +55.5960
iter:   9 20:05:07  -871.823900  -2.13  -1.80    +56.4317
iter:  10 20:08:07  -870.975041  -2.28  -1.82    +58.0576
iter:  11 20:11:07  -870.741522  -2.60  -1.87    +59.7884
iter:  12 20:14:06  -871.140776  -2.67  -1.91    +61.5710
iter:  13 20:17:06  -873.359200  -2.43  -1.95    +62.7443
iter:  14 20:20:06  -873.007585  -2.39  -1.97    +63.7381
iter:  15 20:23:05  -872.101790  -2.62  -2.03    +64.2235
iter:  16 20:26:05  -872.474556  -2.64  -2.15    +64.8670
iter:  17 20:29:05  -871.789876  -2.89  -2.17    +65.8292
iter:  18 20:32:04  -871.753676  -3.27  -2.26    +66.5945
iter:  19 20:35:04  -871.869659  -3.39  -2.33    +66.8319
iter:  20 20:38:03  -872.017964  -3.14  -2.35    +67.3481
iter:  21 20:41:02  -871.844093  -3.23  -2.37    +67.6483
iter:  22 20:44:01  -871.701540  -3.30  -2.49    +67.9501
iter:  23 20:47:00  -871.731548  -3.70  -2.63    +68.3580
iter:  24 20:49:59  -871.783828c -3.75  -2.67    +68.8222
iter:  25 20:52:58  -871.773242c -3.83  -2.66    +69.0002
iter:  26 20:55:54  -871.759715c -3.76  -2.71    +69.1986
iter:  27 20:58:50  -871.765446c -3.98  -2.83    +69.5211
iter:  28 21:01:50  -871.781315c -4.15  -2.91    +69.6392
iter:  29 21:04:49  -871.772458c -4.40  -2.90    +69.7297
iter:  30 21:07:49  -871.786369c -4.47  -2.98    +69.9129
iter:  31 21:10:48  -871.789315c -4.71  -2.99    +70.0097
iter:  32 21:13:47  -871.794179c -4.76  -3.04    +70.1104
iter:  33 21:16:47  -871.799136c -4.77  -3.08    +70.1885
iter:  34 21:19:47  -871.801959c -4.84  -3.13    +70.2445
iter:  35 21:22:46  -871.802761c -4.92  -3.18    +70.2810
iter:  36 21:25:46  -871.806727c -5.03  -3.22    +70.3151
iter:  37 21:28:46  -871.809298c -5.03  -3.25    +70.3847
iter:  38 21:31:45  -871.812378c -4.98  -3.28    +70.4120
iter:  39 21:34:44  -871.812398c -5.11  -3.30    +70.3991
iter:  40 21:37:44  -871.816222c -5.08  -3.40    +70.4381
iter:  41 21:40:43  -871.817097c -5.23  -3.43    +70.4447
iter:  42 21:43:42  -871.819787c -5.22  -3.45    +70.4643
iter:  43 21:46:42  -871.820316c -5.38  -3.47    +70.4925
iter:  44 21:49:41  -871.820882c -5.51  -3.54    +70.5100
iter:  45 21:52:40  -871.822086c -5.64  -3.58    +70.5235
iter:  46 21:55:34  -871.823318c -5.69  -3.64    +70.5473
iter:  47 21:58:33  -871.823932c -5.87  -3.66    +70.5654
iter:  48 22:01:33  -871.824067c -5.87  -3.69    +70.5778
iter:  49 22:04:32  -871.825496c -6.03  -3.73    +70.6041
iter:  50 22:07:32  -871.825713c -5.99  -3.77    +70.6171
iter:  51 22:10:32  -871.826126c -6.11  -3.79    +70.6317
iter:  52 22:13:31  -871.827199c -6.12  -3.84    +70.6574
iter:  53 22:16:30  -871.827607c -6.15  -3.86    +70.6770
iter:  54 22:19:29  -871.827916c -6.19  -3.89    +70.6913
iter:  55 22:22:25  -871.829589c -6.02  -3.94    +70.7324
iter:  56 22:25:22  -871.829209c -6.26  -3.95    +70.7276
iter:  57 22:28:22  -871.829710c -6.32  -4.03c   +70.7394
iter:  58 22:31:21  -871.830311c -6.33  -4.07c   +70.7568
iter:  59 22:34:21  -871.830784c -6.39  -4.10c   +70.7684
iter:  60 22:37:20  -871.831218c -6.40  -4.14c   +70.7876
iter:  61 22:40:19  -871.832595c -5.93  -4.18c   +70.8327
iter:  62 22:43:19  -871.833553c -5.86  -4.17c   +70.8766
iter:  63 22:46:18  -871.834839c -5.61  -4.14c   +70.9393
iter:  64 22:49:17  -871.835264c -6.02  -4.03c   +70.9671
iter:  65 22:52:17  -871.835256c -6.70  -3.98    +70.9714
iter:  66 22:55:17  -871.835257c -6.59  -3.98    +70.9699
iter:  67 22:58:16  -871.835241c -6.90  -4.03c   +70.9727
iter:  68 23:01:16  -871.835562c -6.70  -4.08c   +70.9719
iter:  69 23:04:15  -871.835235c -6.52  -4.03c   +70.9722
iter:  70 23:07:14  -871.835153c -7.24  -4.09c   +70.9613
iter:  71 23:10:14  -871.835114c -7.20  -4.16c   +70.9568
iter:  72 23:13:13  -871.835229c -6.70  -4.14c   +70.9517
iter:  73 23:16:12  -871.834967c -6.81  -4.13c   +70.9483
iter:  74 23:19:12  -871.834901c -6.98  -4.29c   +70.9475
iter:  75 23:22:12  -871.835014c -7.20  -4.30c   +70.9478
iter:  76 23:25:06  -871.834832c -7.29  -4.33c   +70.9457
iter:  77 23:28:06  -871.834993c -7.17  -4.34c   +70.9444
iter:  78 23:31:05  -871.834832c -7.22  -4.37c   +70.9437
iter:  79 23:34:04  -871.834936c -7.40  -4.39c   +70.9424
iter:  80 23:37:03  -871.834828c -7.54c -4.43c   +70.9415

Converged after 80 iterations.

Dipole moment: (21.844239, 0.928531, -1.755573) |e|*Ang

Total magnetic moment: (0.000000, 0.000000, 70.941541)
Local magnetic moments:
   0 Co ( 0.000000,  0.000000,  1.464703)
   1 Co ( 0.000000,  0.000000,  1.040414)
   2 Fe ( 0.000000,  0.000000,  1.798564)
   3 Fe ( 0.000000,  0.000000,  1.788568)
   4 Cr ( 0.000000,  0.000000, -0.229410)
   5 Cr ( 0.000000,  0.000000, -1.174627)
   6 Co ( 0.000000,  0.000000,  0.367267)
   7 Cr ( 0.000000,  0.000000, -1.000479)
   8 Fe ( 0.000000,  0.000000,  2.014825)
   9 Ni ( 0.000000,  0.000000,  0.416095)
  10 Ni ( 0.000000,  0.000000,  0.568978)
  11 Co ( 0.000000,  0.000000,  1.582550)
  12 Cr ( 0.000000,  0.000000, -0.985941)
  13 Fe ( 0.000000,  0.000000,  1.742459)
  14 Cr ( 0.000000,  0.000000,  0.551079)
  15 Fe ( 0.000000,  0.000000,  1.889611)
  16 Ni ( 0.000000,  0.000000,  0.025626)
  17 Co ( 0.000000,  0.000000,  1.194317)
  18 Ni ( 0.000000,  0.000000,  0.397350)
  19 Cr ( 0.000000,  0.000000, -1.693909)
  20 Co ( 0.000000,  0.000000,  1.048618)
  21 Ni ( 0.000000,  0.000000,  0.146829)
  22 Co ( 0.000000,  0.000000,  1.294391)
  23 Cr ( 0.000000,  0.000000, -0.444415)
  24 Fe ( 0.000000,  0.000000,  2.059768)
  25 Co ( 0.000000,  0.000000,  1.395863)
  26 Cr ( 0.000000,  0.000000, -1.523054)
  27 Cr ( 0.000000,  0.000000, -0.464444)
  28 Fe ( 0.000000,  0.000000,  0.993199)
  29 Cr ( 0.000000,  0.000000, -0.820362)
  30 Co ( 0.000000,  0.000000,  1.221527)
  31 Co ( 0.000000,  0.000000,  0.776862)
  32 Cr ( 0.000000,  0.000000, -0.059353)
  33 Ni ( 0.000000,  0.000000,  0.527593)
  34 Ni ( 0.000000,  0.000000,  0.260732)
  35 Cr ( 0.000000,  0.000000, -1.818563)
  36 Fe ( 0.000000,  0.000000,  2.073578)
  37 Ni ( 0.000000,  0.000000,  0.380116)
  38 Cr ( 0.000000,  0.000000, -0.320071)
  39 Fe ( 0.000000,  0.000000,  1.683400)
  40 Fe ( 0.000000,  0.000000,  1.745361)
  41 Co ( 0.000000,  0.000000,  0.325296)
  42 Cr ( 0.000000,  0.000000, -1.205659)
  43 Fe ( 0.000000,  0.000000,  1.926659)
  44 Fe ( 0.000000,  0.000000,  2.497776)
  45 Fe ( 0.000000,  0.000000,  2.234002)
  46 Ni ( 0.000000,  0.000000,  0.410111)
  47 Co ( 0.000000,  0.000000,  1.441565)
  48 Cr ( 0.000000,  0.000000, -1.285740)
  49 Ni ( 0.000000,  0.000000,  0.119499)
  50 Fe ( 0.000000,  0.000000,  1.662481)
  51 Co ( 0.000000,  0.000000,  1.231012)
  52 Co ( 0.000000,  0.000000,  1.248887)
  53 Fe ( 0.000000,  0.000000,  2.163285)
  54 Fe ( 0.000000,  0.000000,  1.856050)
  55 Ni ( 0.000000,  0.000000,  0.484260)
  56 Ni ( 0.000000,  0.000000,  0.510065)
  57 Fe ( 0.000000,  0.000000,  1.906765)
  58 Co ( 0.000000,  0.000000,  0.998874)
  59 Ni ( 0.000000,  0.000000,  0.384279)
[...]
  93 Ni ( 0.000000,  0.000000,  0.203747)
  94 Ni ( 0.000000,  0.000000,  0.206797)
  95 Cr ( 0.000000,  0.000000,  0.202098)
  96 Ni ( 0.000000,  0.000000,  0.180789)
  97 Co ( 0.000000,  0.000000,  0.429054)
  98 Fe ( 0.000000,  0.000000,  2.358292)
  99 Cr ( 0.000000,  0.000000, -0.919953)
 100 Co ( 0.000000,  0.000000,  1.337147)
 101 Cr ( 0.000000,  0.000000, -0.331710)
 102 Fe ( 0.000000,  0.000000,  1.672325)
 103 Co ( 0.000000,  0.000000,  1.380118)
 104 Ni ( 0.000000,  0.000000,  0.389001)
 105 Co ( 0.000000,  0.000000,  0.949595)
 106 Cr ( 0.000000,  0.000000,  0.468554)
 107 Cr ( 0.000000,  0.000000, -1.205309)

Energy contributions relative to reference atoms: (reference = -3846758.590871)

Kinetic:       +394.764000
Potential:     -408.567246
External:        +0.000000
XC:            -895.857497
Entropy (-ST):   -4.687961
Local:          +40.169896
Free energy:   -874.178809
Extrapolated:  -871.834828

Spin contamination: 22.485633 electrons
Showing only first 2 kpts
                      Up                     Down
 Kpt  Band  Eigenvalues  Occupancy  Eigenvalues  Occupancy
  0   524      9.83682    0.99604     10.78688    0.01849
  0   525      9.85197    0.99540     10.79461    0.01714
  0   526      9.86480    0.99477     10.81663    0.01380
  0   527      9.87912    0.99397     10.82564    0.01262

  1   524      9.84304    0.99579     10.77470    0.02083
  1   525      9.85564    0.99523     10.78910    0.01809
  1   526      9.86768    0.99462     10.80758    0.01508
  1   527      9.87576    0.99417     10.81436    0.01411

Fermi level: 10.38969

No gap

Forces in eV/Ang:
  0 Co    0.70949    0.41126   -0.39830
  1 Co    0.97303   -1.61297   -0.85555
  2 Fe   -0.86428    0.13069   -1.13013
  3 Fe    0.13901   -0.28782   -0.21579
  4 Cr   -0.74967    0.41176   -0.38040
  5 Cr    0.28706   -0.52226   -0.63045
  6 Co    0.25989   -0.37678    0.59479
  7 Cr   -0.11344    0.22034   -0.15539
  8 Fe    2.09123   -0.02425    0.90824
  9 Ni   -0.94371   -0.36453    0.90991
 10 Ni    0.13699    0.46165   -0.87731
 11 Co    1.80745   -1.40183   -0.07799
 12 Cr   -0.76402    0.25191   -1.56620
 13 Fe   -0.10834    0.89354    0.35017
 14 Cr    0.54880    0.86032    0.45081
 15 Fe    0.29456   -1.03387   -0.52511
 16 Ni   -1.54747    1.27182    1.34074
 17 Co   -0.43383   -0.45313   -0.35402
 18 Ni   -0.25184    2.29410   -2.99067
 19 Cr   -0.55932    0.33424    0.55303
 20 Co   -0.38629    0.47477   -0.05597
 21 Ni    0.89811   -2.61348    2.36747
 22 Co   -0.36042    1.47042    0.19300
 23 Cr    0.73012   -0.27919    0.08776
 24 Fe    0.29311   -0.01590   -1.36243
 25 Co   -0.68894   -0.57892   -1.38495
 26 Cr   -0.32408   -0.89099    0.33757
 27 Cr   -2.10762    0.80509   -0.40515
 28 Fe    0.16857   -0.76784    0.48958
 29 Cr    0.63629    0.24099    0.00956
 30 Co   -0.13359    0.48080    1.73814
 31 Co   -0.57087    0.76192    1.42155
 32 Cr   -0.28790    1.95757   -0.33654
 33 Ni    1.07842   -1.36189   -2.34132
 34 Ni   -0.57241    0.02966    0.36034
 35 Cr   -0.07750    0.12000    1.17621
 36 Fe   -0.07372   -0.11797    0.48933
 37 Ni    0.64388    0.69969   -0.13561
 38 Cr   -0.14203    1.58816    0.12626
 39 Fe    0.39080    0.99207    0.52216
 40 Fe    0.00977   -0.75915    0.85743
 41 Co    0.46568   -1.76597   -1.59514
 42 Cr    0.03877   -0.31059    0.42160
 43 Fe    0.30395   -0.60416    0.33164
 44 Fe    0.17148    0.92202    1.57048
 45 Fe    0.69132   -0.26544   -0.31150
 46 Ni   -1.37230    2.66040    1.21784
 47 Co   -2.34884   -0.52880   -0.70490
 48 Cr   -0.54752   -0.67666   -1.18577
 49 Ni    1.35260   -0.96684    0.79363
 50 Fe   -0.69419    0.78517    0.05789
 51 Co   -0.13293   -0.07530   -0.73645
 52 Co   -0.42847   -0.32192   -0.66029
 53 Fe   -2.12966    0.46120   -0.32922
 54 Fe    0.22178    0.20681   -0.42684
 55 Ni    0.64005   -1.91734   -2.61923
 56 Ni    1.07197    0.89725    0.93573
 57 Fe   -1.57267   -2.13056    1.04301
 58 Co   -1.54305    0.86241    0.26815
 59 Ni    0.19970   -0.94723   -1.55790
[...]
 93 Ni    1.38008    0.71497    1.93954
 94 Ni    0.93688    0.59556    0.66741
 95 Cr   -0.58308   -0.78613   -0.75753
 96 Ni    0.50397    0.29005    0.32460
 97 Co    1.04179    0.18165    1.45512
 98 Fe    0.39870    0.65090    1.28895
 99 Cr    1.19704    0.58074    1.34960
100 Co   -0.89961    0.78723    0.37654
101 Cr   -0.46694    0.20348   -1.59510
102 Fe   -1.21315   -1.37691   -0.28651
103 Co    0.49319    1.95588    1.88472
104 Ni    1.67094    2.76048   -0.30445
105 Co    1.10174   -0.05007   -0.16545
106 Cr   -0.29796    0.97554   -0.84117
107 Cr   -1.41034   -1.25713    0.12647

Date: Thu Apr 13 23:37:26 2023