User:   c.zeng@d0025
Date:   Sat Apr 15 18:13:37 2023
Arch:   x86_64
Pid:    255764
CWD:    /home/c.zeng/projects/hea-corrosion/hea-mlp/data-curation/bulk-mcmc/dft-jobs/7
Python: 3.8.1
gpaw:   /home/c.zeng/usr/installs/gpaw/source/gpaw-22.8.0/gpaw
_gpaw:  /home/c.zeng/usr/installs/gpaw/source/gpaw-22.8.0/
        _gpaw.cpython-38-x86_64-linux-gnu.so
ase:    /home/c.zeng/.local/lib/python3.8/site-packages/ase-3.22.1-py3.8.egg/ase (version 3.22.1)
numpy:  /shared/centos7/python/3.8.1/lib/python3.8/site-packages/numpy (version 1.17.4)
scipy:  /shared/centos7/python/3.8.1/lib/python3.8/site-packages/scipy (version 1.4.1)
units:  Angstrom and eV
cores: 30
OpenMP: False
OMP_NUM_THREADS: 1

Input parameters:
  convergence: {energy: 0.0001}
  kpts: [2 2 2]
  maxiter: 666
  mode: {ecut: 350.0,
         name: pw}
  occupations: {fixmagmom: False,
                name: fermi-dirac,
                width: 0.1}
  spinpol: True
  xc: PBE

System changes: positions, numbers, cell, pbc, initial_charges, initial_magmoms

Initialize ...

species:
  Co:
    name: Cobalt
    id: 339d20d5b0b93d2de9531a1bee871d91
    Z: 27.0
    valence: 9
    core: 18
    charge: 0.0
    file: /home/c.zeng/usr/data/gpaw-setups-0.9.20000/Co.PBE.gz
    compensation charges: {type: gauss,
                           rc: 0.32,
                           lmax: 2}
    cutoffs: {filter: 1.87,
              core: 2.55}
    valence states:
      #              energy  rcut
      - 4s(2.00)    -5.469   1.005
      - 4p(0.00)    -1.277   1.058
      - 3d(7.00)    -8.205   1.005
      -  s          21.742   1.005
      -  p          25.934   1.058
      -  d          19.007   1.005

    # Using partial waves for Co as LCAO basis

  Fe:
    name: Iron
    id: 37abbd8d6c3c35915a9b583b742da910
    Z: 26.0
    valence: 8
    core: 18
    charge: 0.0
    file: /home/c.zeng/usr/data/gpaw-setups-0.9.20000/Fe.PBE.gz
    compensation charges: {type: gauss,
                           rc: 0.33,
                           lmax: 2}
    cutoffs: {filter: 2.06,
              core: 2.67}
    valence states:
      #              energy  rcut
      - 4s(2.00)    -5.291   1.164
      - 4p(0.00)    -1.326   1.058
      - 3d(6.00)    -7.505   1.058
      -  s          21.920   1.164
      -  p          25.885   1.058
      -  d          19.706   1.058

[...]

  Cr:
    name: Chromium
    id: 33f258bda2ca9f93018e70263a35547b
    Z: 24.0
    valence: 6
    core: 18
    charge: 0.0
    file: /home/c.zeng/usr/data/gpaw-setups-0.9.20000/Cr.PBE.gz
    compensation charges: {type: gauss,
                           rc: 0.35,
                           lmax: 2}
    cutoffs: {filter: 2.14,
              core: 3.04}
    valence states:
      #              energy  rcut
      - 4s(1.00)    -4.007   1.164
      - 4p(0.00)    -0.989   1.217
      - 3d(5.00)    -2.913   1.111
      -  s          23.205   1.164
      -  p          26.223   1.217
      -  d          24.299   1.111

[...]

  Ni:
    name: Nickel
    id: 0d9f38a9d6e76a2886f07bb4381f212b
    Z: 28.0
    valence: 16
    core: 12
    charge: 0.0
    file: /home/c.zeng/usr/data/gpaw-setups-0.9.20000/Ni.PBE.gz
    compensation charges: {type: gauss,
                           rc: 0.36,
                           lmax: 2}
    cutoffs: {filter: 2.14,
              core: 1.98}
    valence states:
      #              energy  rcut
      - 4s(2.00)    -5.642   1.164
      - 3p(6.00)   -71.394   1.207
      - 4p(0.00)    -1.226   1.207
      - 3d(8.00)    -8.875   1.138
      -  s          21.570   1.164
      -  d          18.337   1.138

    # Using partial waves for Ni as LCAO basis

Reference energy: -3846758.590871  # eV

Spin-polarized calculation.
Magnetic moment: 151.200000

Convergence criteria:
 Maximum [total energy] change in last 3 cyles: 0.0001 eV / electron
 Maximum integral of absolute [dens]ity change: 0.0001 electrons / valence electron
 Maximum integral of absolute [eigenst]ate change: 4e-08 eV^2 / valence electron
 Maximum number of scf [iter]ations: 666
 (Square brackets indicate name in SCF output, whereas a 'c' in
 the SCF output indicates the quantity has converged.)

Symmetries present (total): 1

  ( 1  0  0)
  ( 0  1  0)
  ( 0  0  1)

8 k-points: 2 x 2 x 2 Monkhorst-Pack grid
4 k-points in the irreducible part of the Brillouin zone
       k-points in crystal coordinates                weights
   0:     0.25000000   -0.25000000   -0.25000000          2/8
   1:     0.25000000   -0.25000000    0.25000000          2/8
   2:     0.25000000    0.25000000   -0.25000000          2/8
   3:     0.25000000    0.25000000    0.25000000          2/8

Wave functions: Plane wave expansion
  Cutoff energy: 350.000 eV
  Number of coefficients (min, max): 17755, 17755
  Pulay-stress correction: 0.000000 eV/Ang^3 (de/decut=0.000000)
  Using FFTW library
  ScaLapack parameters: grid=1x1, blocksize=None
  Wavefunction extrapolation:
    Improved wavefunction reuse through dual PAW basis

Occupation numbers: Fermi-Dirac:
  width: 0.1000  # eV

Eigensolver
   Davidson(niter=2)

Densities:
  Coarse grid: 48*48*48 grid
  Fine grid: 96*96*96 grid
  Total Charge: 0.000000

Density mixing:
  Method: difference
  Backend: pulay
  Linear mixing parameter: 0.05
  old densities: 5
  Damping of long wavelength oscillations: 50

Hamiltonian:
  XC and Coulomb potentials evaluated on a 96*96*96 grid
  Using the PBE Exchange-Correlation functional
  External potential:
    NoExternalPotential

XC parameters: PBE with 2 nearest neighbor stencil

Total number of cores used: 30
Parallelization over k-points: 2
Domain decomposition: 5 x 3 x 1

Number of atoms: 108
Number of atomic orbitals: 1053
Number of bands in calculation: 727
Number of valence electrons: 1053
Bands to converge: occupied

... initialized

Initializing position-dependent things.

Density initialized from atomic densities
Creating initial wave functions:
  727 bands from LCAO basis set

       /|  Ni       Cr      Cr    |
      / |   CrFe     Cr           |
     /  |       Co      Fe       Fe
    /   |Cr      CFe       Co     Cr
   /    | Co       Cr       NFe   |
  /  CCo|  FeCr     CoNi          |
 *    CrNi    FeCr   FeCrCo       |
 |      |CoNi   FeFeNi  CoNiFe   Ni
 |      | NiCo     CoNiFeNiNiCr   |
 |    Co|  CoFeCr   CoCrFe   NiCo |
 |      Cr    CrNiNi CrNiNi     Ni|
 |      |FeFe  CoFeCr   FeNiFe   Ni
 |      .-FeCo-----CrNiFe--NiNi---Co
 |   Cro     Fe       Ni         /
 |    CrCo     Cor     CNie     /
 |   /    Co               Cr  /
 |  /      Fe       Fe    CrFe/
 | / Fe     Cr       CrNi    /
 |/            Co       Ni  /
 *--------Co------Co-------*

Positions:
   0 Co    -0.012479   -0.003723   10.616104    ( 0.0000,  0.0000,  2.1000)
   1 Fe    -0.011321    1.761305    1.763386    ( 0.0000,  0.0000,  2.1000)
   2 Fe     1.758365    0.001326    1.769011    ( 0.0000,  0.0000,  2.0000)
   3 Co     1.752686    1.779222   10.610436    ( 0.0000,  0.0000,  2.0000)
   4 Co     3.541196    0.004726   10.616104    ( 0.0000,  0.0000,  0.0000)
   5 Fe     3.534711    1.782438    1.778999    ( 0.0000,  0.0000,  0.0000)
   6 Cr     5.305717   10.600629    1.767950    ( 0.0000,  0.0000,  2.1000)
   7 Co     5.324780    1.765604   10.614618    ( 0.0000,  0.0000,  0.0000)
   8 Co     7.089121    0.014598   10.619926    ( 0.0000,  0.0000,  2.0000)
   9 Fe     7.085279    1.771219    1.773543    ( 0.0000,  0.0000,  1.5000)
  10 Ni     8.850554    0.011470    1.768756    ( 0.0000,  0.0000,  1.5000)
  11 Ni     8.842381    1.777333   10.615680    ( 0.0000,  0.0000,  2.1000)
  12 Fe    10.590535    3.538203   -0.001956    ( 0.0000,  0.0000,  0.0000)
  13 Cr    10.624277    5.310674    1.769786    ( 0.0000,  0.0000,  2.0000)
  14 Co     1.761379    3.535623    1.784572    ( 0.0000,  0.0000,  0.0000)
  15 Cr     1.770200    5.301408   10.611753    ( 0.0000,  0.0000,  2.0000)
  16 Cr     3.556003    3.551407   10.618333    ( 0.0000,  0.0000,  1.5000)
  17 Fe     3.539370    5.311290    1.775199    ( 0.0000,  0.0000,  2.1000)
  18 Cr     5.320142    3.545059    1.779678    ( 0.0000,  0.0000,  1.5000)
  19 Fe     5.306980    5.314654   10.602720    ( 0.0000,  0.0000,  0.0000)
  20 Cr     7.081585    3.529127   10.614725    ( 0.0000,  0.0000,  2.1000)
  21 Ni     7.069241    5.303361    1.781271    ( 0.0000,  0.0000,  1.5000)
  22 Fe     8.841447    3.542671    1.781600    ( 0.0000,  0.0000,  2.1000)
  23 Cr     8.850893    5.290379    0.000220    ( 0.0000,  0.0000,  0.0000)
  24 Cr     0.005868    7.083411   10.614937    ( 0.0000,  0.0000,  2.0000)
  25 Ni    10.601043    8.849694    1.772960    ( 0.0000,  0.0000,  2.1000)
  26 Fe     1.773713    7.072329    1.777184    ( 0.0000,  0.0000,  0.0000)
  27 Ni     1.755520    8.842943   10.608324    ( 0.0000,  0.0000,  0.0000)
  28 Fe     3.544009    7.063116   10.610489    ( 0.0000,  0.0000,  2.0000)
  29 Co     3.542225    8.826820    1.785580    ( 0.0000,  0.0000,  0.0000)
  30 Cr     5.309835    7.081776    1.776600    ( 0.0000,  0.0000,  2.1000)
  31 Cr     5.331945    8.840321   10.604673    ( 0.0000,  0.0000,  2.1000)
  32 Co     7.068434    7.069028   10.623110    ( 0.0000,  0.0000,  0.0000)
  33 Fe     7.083750    8.846796    1.774509    ( 0.0000,  0.0000,  1.5000)
  34 Ni     8.841404    7.058180    1.777173    ( 0.0000,  0.0000,  1.5000)
  35 Cr     8.835524    8.853600   10.611753    ( 0.0000,  0.0000,  0.0000)
  36 Cr    -0.009351   10.618864    3.531070    ( 0.0000,  0.0000,  2.0000)
  37 Fe    10.602508    1.764818    5.300452    ( 0.0000,  0.0000,  1.5000)
  38 Cr     1.756720    0.001379    5.295867    ( 0.0000,  0.0000,  0.0000)
  39 Co     1.766506    1.767154    3.539222    ( 0.0000,  0.0000,  2.0000)
  40 Co     3.539742    0.013881    3.542873    ( 0.0000,  0.0000,  2.0000)
  41 Fe     3.548944    1.788658    5.306237    ( 0.0000,  0.0000,  2.1000)
  42 Fe     5.320174   -0.004685    5.301386    ( 0.0000,  0.0000,  0.0000)
  43 Co     5.316862    1.765551    3.538935    ( 0.0000,  0.0000,  2.0000)
  44 Ni     7.081086   -0.000289    3.531325    ( 0.0000,  0.0000,  2.0000)
  45 Cr     7.072902    1.777407    5.300537    ( 0.0000,  0.0000,  2.0000)
  46 Fe     8.840544    0.012372    5.307851    ( 0.0000,  0.0000,  1.5000)
  47 Ni     8.833592    1.767928    3.534318    ( 0.0000,  0.0000,  2.1000)
  48 Ni    -0.004066    3.525285    3.545951    ( 0.0000,  0.0000,  0.0000)
  49 Co    -0.001689    5.317934    5.307787    ( 0.0000,  0.0000,  1.5000)
  50 Cr     1.769043    3.555101    5.297279    ( 0.0000,  0.0000,  2.0000)
  51 Fe     1.773692    5.305929    3.538266    ( 0.0000,  0.0000,  2.1000)
  52 Co     3.542746    3.537364    3.547575    ( 0.0000,  0.0000,  2.1000)
  53 Fe     3.548477    5.306927    5.301153    ( 0.0000,  0.0000,  2.0000)
  54 Ni     5.316246    3.553031    5.303637    ( 0.0000,  0.0000,  2.0000)
  55 Fe     5.303286    5.303531    3.542385    ( 0.0000,  0.0000,  1.5000)
  56 Ni     7.074962    3.533023    3.537215    ( 0.0000,  0.0000,  1.5000)
  57 Cr     7.066046    5.306046    5.300081    ( 0.0000,  0.0000,  2.0000)
  58 Ni     8.834526    3.538160    5.294530    ( 0.0000,  0.0000,  2.1000)
  59 Ni     8.846255    5.300452    3.537672    ( 0.0000,  0.0000,  1.5000)
[...]
  93 Ni     7.071130    5.304220    8.839313    ( 0.0000,  0.0000,  1.5000)
  94 Co     8.837997    3.524669    8.843389    ( 0.0000,  0.0000,  1.5000)
  95 Ni     8.833772    5.299051    7.076862    ( 0.0000,  0.0000,  0.0000)
  96 Cr     0.012168    7.080333    7.083835    ( 0.0000,  0.0000,  1.5000)
  97 Fe    -0.017034    8.848707    8.843941    ( 0.0000,  0.0000,  2.1000)
  98 Co     1.777938    7.075503    8.840194    ( 0.0000,  0.0000,  2.0000)
  99 Fe     1.758800    8.840035    7.069803    ( 0.0000,  0.0000,  0.0000)
 100 Fe     3.549921    7.066194    7.070090    ( 0.0000,  0.0000,  2.1000)
 101 Co     3.553137    8.839111    8.836776    ( 0.0000,  0.0000,  0.0000)
 102 Cr     5.304189    7.079929    8.840215    ( 0.0000,  0.0000,  2.0000)
 103 Co     5.321946    8.832180    7.082997    ( 0.0000,  0.0000,  2.1000)
 104 Cr     7.057077    7.072149    7.064167    ( 0.0000,  0.0000,  1.5000)
 105 Fe     7.082402    8.855500    8.837487    ( 0.0000,  0.0000,  2.1000)
 106 Co     8.846786    7.077881    8.846732    ( 0.0000,  0.0000,  0.0000)
 107 Ni     8.839313    8.848272    7.075153    ( 0.0000,  0.0000,  0.0000)

Unit cell:
           periodic     x           y           z      points  spacing
  1. axis:    yes   10.614300    0.000000    0.000000    48     0.2211
  2. axis:    yes    0.000000   10.614300    0.000000    48     0.2211
  3. axis:    yes    0.000000    0.000000   10.614300    48     0.2211

  Lengths:  10.614300  10.614300  10.614300
  Angles:   90.000000  90.000000  90.000000

Effective grid spacing dv^(1/3) = 0.2211

     iter     time        total  log10-change:  magmom
                         energy  eigst   dens
iter:   1 18:20:07  -940.412933                  +151.0994
iter:   2 18:23:05  -953.611737  -0.58  -1.38    +117.4802
iter:   3 18:26:03  -911.871881  -1.01  -1.32    +85.7466
iter:   4 18:29:01  -893.062152  -1.47  -1.41    +73.1545
iter:   5 18:32:00  -892.435954  -1.98  -1.51    +64.8446
iter:   6 18:34:57  -896.327757  -1.99  -1.53    +61.4183
iter:   7 18:37:55  -891.357149  -1.83  -1.53    +59.0598
iter:   8 18:40:50  -888.270400  -1.67  -1.62    +57.2884
iter:   9 18:43:49  -889.675447  -2.00  -1.82    +56.4297
iter:  10 18:46:47  -891.233573  -2.21  -1.87    +55.9890
iter:  11 18:49:46  -887.848377  -2.53  -1.83    +55.9374
iter:  12 18:52:44  -887.816606  -2.90  -1.95    +55.8406
iter:  13 18:55:43  -889.075662  -2.82  -2.00    +56.0620
iter:  14 18:58:42  -889.202245  -2.69  -1.99    +56.2704
iter:  15 19:01:41  -891.045495  -2.62  -2.02    +56.4448
iter:  16 19:04:39  -891.991970  -2.42  -1.98    +56.3803
iter:  17 19:07:37  -892.177644  -2.35  -1.99    +56.1682
iter:  18 19:10:36  -889.539823  -2.64  -1.97    +56.5702
iter:  19 19:13:35  -889.711347  -2.95  -2.16    +56.7788
iter:  20 19:16:33  -889.202645  -3.17  -2.17    +56.8897
iter:  21 19:19:32  -889.192376  -3.42  -2.26    +57.2012
iter:  22 19:22:31  -889.411209  -3.52  -2.30    +57.7024
iter:  23 19:25:29  -890.172811  -3.06  -2.34    +58.0925
iter:  24 19:28:28  -889.784063  -3.14  -2.23    +58.1395
iter:  25 19:31:27  -890.490645  -3.02  -2.35    +58.3821
iter:  26 19:34:26  -889.969068  -3.10  -2.27    +58.6799
iter:  27 19:37:24  -890.320298  -3.12  -2.44    +58.8941
iter:  28 19:40:24  -889.891596  -3.45  -2.34    +58.8391
iter:  29 19:43:23  -889.996107  -3.58  -2.51    +58.9827
iter:  30 19:46:21  -889.891461c -3.98  -2.49    +59.1795
iter:  31 19:49:18  -889.935283c -4.24  -2.58    +59.4061
iter:  32 19:52:15  -890.042516  -3.95  -2.60    +59.6636
iter:  33 19:55:14  -890.112316  -3.93  -2.60    +59.7974
iter:  34 19:58:13  -890.232723  -3.73  -2.62    +59.9096
iter:  35 20:01:10  -890.373687  -3.54  -2.62    +59.9265
iter:  36 20:04:09  -890.208506  -3.62  -2.58    +59.8115
iter:  37 20:07:08  -890.245431  -3.85  -2.75    +59.8119
iter:  38 20:10:05  -890.170406c -3.98  -2.74    +59.9475
iter:  39 20:13:02  -890.175558c -4.35  -2.94    +59.9839
iter:  40 20:16:00  -890.159502c -4.67  -2.96    +59.9859
iter:  41 20:18:58  -890.167264c -5.03  -3.07    +60.0210
iter:  42 20:21:57  -890.177471c -5.08  -3.10    +60.0642
iter:  43 20:24:55  -890.186341c -4.99  -3.12    +60.0906
iter:  44 20:27:54  -890.194490c -4.92  -3.12    +60.0870
iter:  45 20:30:53  -890.199778c -4.87  -3.26    +60.0691
iter:  46 20:33:51  -890.208737c -4.83  -3.30    +60.0819
iter:  47 20:36:50  -890.209719c -4.95  -3.33    +60.0985
iter:  48 20:39:47  -890.214803c -5.03  -3.46    +60.0847
iter:  49 20:42:46  -890.215079c -5.40  -3.44    +60.0889
iter:  50 20:45:44  -890.220842c -5.36  -3.61    +60.1084
iter:  51 20:48:43  -890.225350c -5.62  -3.64    +60.1094
iter:  52 20:51:39  -890.244949c -4.76  -3.63    +60.1056
iter:  53 20:54:38  -890.230246c -5.15  -3.44    +60.1120
iter:  54 20:57:36  -890.242335c -5.13  -3.53    +60.0941
iter:  55 21:00:33  -890.242137c -5.71  -3.47    +60.0950
iter:  56 21:03:30  -890.247314c -5.45  -3.43    +60.0936
iter:  57 21:06:29  -890.254371c -5.15  -3.47    +60.0777
iter:  58 21:09:27  -890.259203c -5.31  -3.40    +60.0923
iter:  59 21:12:26  -890.265841c -5.03  -3.40    +60.0766
iter:  60 21:15:25  -890.263224c -5.37  -3.29    +60.0477
iter:  61 21:18:23  -890.268225c -5.32  -3.46    +60.0275
iter:  62 21:21:22  -890.270836c -5.53  -3.39    +60.0327
iter:  63 21:24:20  -890.274602c -5.28  -3.40    +60.0194
iter:  64 21:27:18  -890.274636c -5.63  -3.37    +60.0301
iter:  65 21:30:16  -890.279099c -5.43  -3.45    +60.0211
iter:  66 21:33:15  -890.282145c -5.36  -3.39    +60.0130
iter:  67 21:36:13  -890.281364c -5.65  -3.35    +59.9926
iter:  68 21:39:12  -890.284824c -5.58  -3.43    +59.9916
iter:  69 21:42:07  -890.291439c -5.31  -3.43    +59.9702
iter:  70 21:45:06  -890.297448c -5.24  -3.34    +59.9813
iter:  71 21:48:07  -890.293518c -5.67  -3.27    +59.9896
iter:  72 21:51:08  -890.296914c -5.38  -3.36    +59.9956
iter:  73 21:54:09  -890.298646c -4.95  -3.32    +60.0046
iter:  74 21:57:10  -890.299768c -4.79  -3.30    +60.0230
iter:  75 22:00:12  -890.296799c -4.98  -3.39    +59.9986
iter:  76 22:03:14  -890.294021c -5.49  -3.42    +60.0078
iter:  77 22:06:15  -890.293699c -5.77  -3.64    +60.0172
iter:  78 22:09:16  -890.293973c -5.88  -3.72    +60.0287
iter:  79 22:12:17  -890.294152c -6.24  -3.69    +60.0396
iter:  80 22:15:18  -890.294531c -6.27  -3.82    +60.0496
iter:  81 22:18:20  -890.295780c -5.98  -3.83    +60.0678
iter:  82 22:21:21  -890.295429c -6.21  -3.74    +60.0662
iter:  83 22:24:22  -890.296081c -6.14  -3.82    +60.0728
iter:  84 22:27:21  -890.296794c -5.95  -3.82    +60.0797
iter:  85 22:30:22  -890.296071c -5.98  -3.77    +60.0853
iter:  86 22:33:23  -890.296500c -6.37  -3.82    +60.1010
iter:  87 22:36:25  -890.296680c -6.33  -3.93    +60.1081
iter:  88 22:39:26  -890.296714c -6.65  -3.91    +60.1161
iter:  89 22:42:27  -890.297024c -6.70  -3.99    +60.1302
iter:  90 22:45:28  -890.297639c -6.34  -4.02c   +60.1554
iter:  91 22:48:29  -890.297923c -6.56  -4.02c   +60.1707
iter:  92 22:51:29  -890.298209c -6.91  -3.97    +60.1741
iter:  93 22:54:30  -890.298429c -6.96  -3.94    +60.1848
iter:  94 22:57:32  -890.298403c -7.24  -3.93    +60.1781
iter:  95 23:00:34  -890.299116c -6.44  -3.92    +60.1994
iter:  96 23:03:35  -890.299626c -6.11  -3.88    +60.2040
iter:  97 23:06:36  -890.299223c -5.92  -3.81    +60.2161
iter:  98 23:09:36  -890.299956c -6.04  -3.77    +60.2354
iter:  99 23:12:36  -890.299837c -6.16  -3.83    +60.2435
iter: 100 23:15:36  -890.299761c -6.29  -3.94    +60.2515
iter: 101 23:18:38  -890.299847c -6.76  -3.97    +60.2622
iter: 102 23:21:39  -890.300196c -6.49  -4.04c   +60.2908
iter: 103 23:24:40  -890.300371c -7.06  -4.06c   +60.2881
iter: 104 23:27:41  -890.300693c -6.73  -4.07c   +60.3033
iter: 105 23:30:39  -890.301832c -5.90  -4.11c   +60.3427
iter: 106 23:33:25  -890.300766c -6.01  -4.05c   +60.2970
iter: 107 23:36:07  -890.300355c -6.53  -4.32c   +60.2742
iter: 108 23:38:48  -890.300795c -6.58  -4.40c   +60.3057
iter: 109 23:41:31  -890.300631c -7.30  -4.57c   +60.2890
iter: 110 23:44:12  -890.300580c -7.71c -4.64c   +60.2845

Converged after 110 iterations.

Dipole moment: (6.319925, -1.923251, 0.766458) |e|*Ang

Total magnetic moment: (0.000000, 0.000000, 60.284492)
Local magnetic moments:
   0 Co ( 0.000000,  0.000000,  1.345646)
   1 Fe ( 0.000000,  0.000000,  2.352093)
   2 Fe ( 0.000000,  0.000000,  2.430002)
   3 Co ( 0.000000,  0.000000,  1.222992)
   4 Co ( 0.000000,  0.000000,  1.029758)
   5 Fe ( 0.000000,  0.000000,  2.089385)
   6 Cr ( 0.000000,  0.000000, -1.510577)
   7 Co ( 0.000000,  0.000000,  0.360177)
   8 Co ( 0.000000,  0.000000,  0.942021)
   9 Fe ( 0.000000,  0.000000,  2.179576)
  10 Ni ( 0.000000,  0.000000,  0.396339)
  11 Ni ( 0.000000,  0.000000,  0.398778)
  12 Fe ( 0.000000,  0.000000,  1.969551)
  13 Cr ( 0.000000,  0.000000, -0.714268)
  14 Co ( 0.000000,  0.000000,  1.064324)
  15 Cr ( 0.000000,  0.000000, -0.534549)
  16 Cr ( 0.000000,  0.000000, -0.536939)
  17 Fe ( 0.000000,  0.000000,  1.512875)
  18 Cr ( 0.000000,  0.000000, -1.266920)
  19 Fe ( 0.000000,  0.000000,  1.319127)
  20 Cr ( 0.000000,  0.000000, -0.393846)
  21 Ni ( 0.000000,  0.000000,  0.167135)
  22 Fe ( 0.000000,  0.000000,  2.108637)
  23 Cr ( 0.000000,  0.000000, -0.426409)
  24 Cr ( 0.000000,  0.000000,  0.066812)
  25 Ni ( 0.000000,  0.000000,  0.277555)
  26 Fe ( 0.000000,  0.000000,  2.055342)
  27 Ni ( 0.000000,  0.000000,  0.312122)
  28 Fe ( 0.000000,  0.000000,  1.594824)
  29 Co ( 0.000000,  0.000000,  0.979188)
  30 Cr ( 0.000000,  0.000000, -1.194840)
  31 Cr ( 0.000000,  0.000000,  0.604882)
  32 Co ( 0.000000,  0.000000,  0.702016)
  33 Fe ( 0.000000,  0.000000,  2.201437)
  34 Ni ( 0.000000,  0.000000,  0.200110)
  35 Cr ( 0.000000,  0.000000, -1.427460)
  36 Cr ( 0.000000,  0.000000, -1.820706)
  37 Fe ( 0.000000,  0.000000,  1.881352)
  38 Cr ( 0.000000,  0.000000, -0.984882)
  39 Co ( 0.000000,  0.000000,  1.022883)
  40 Co ( 0.000000,  0.000000,  1.058712)
  41 Fe ( 0.000000,  0.000000,  2.111948)
  42 Fe ( 0.000000,  0.000000,  2.347735)
  43 Co ( 0.000000,  0.000000,  1.129125)
  44 Ni ( 0.000000,  0.000000,  0.398788)
  45 Cr ( 0.000000,  0.000000, -1.427431)
  46 Fe ( 0.000000,  0.000000,  2.193974)
  47 Ni ( 0.000000,  0.000000,  0.298966)
  48 Ni ( 0.000000,  0.000000,  0.407476)
  49 Co ( 0.000000,  0.000000,  1.269786)
  50 Cr ( 0.000000,  0.000000, -1.569696)
  51 Fe ( 0.000000,  0.000000,  2.033832)
  52 Co ( 0.000000,  0.000000,  0.899541)
  53 Fe ( 0.000000,  0.000000,  2.108648)
  54 Ni ( 0.000000,  0.000000,  0.278074)
  55 Fe ( 0.000000,  0.000000,  1.914735)
  56 Ni ( 0.000000,  0.000000,  0.254830)
  57 Cr ( 0.000000,  0.000000,  1.018616)
  58 Ni ( 0.000000,  0.000000,  0.224294)
  59 Ni ( 0.000000,  0.000000,  0.240148)
[...]
  93 Ni ( 0.000000,  0.000000,  0.046381)
  94 Co ( 0.000000,  0.000000,  1.010482)
  95 Ni ( 0.000000,  0.000000,  0.132166)
  96 Cr ( 0.000000,  0.000000, -1.621267)
  97 Fe ( 0.000000,  0.000000,  1.857425)
  98 Co ( 0.000000,  0.000000,  1.054224)
  99 Fe ( 0.000000,  0.000000,  1.909104)
 100 Fe ( 0.000000,  0.000000,  1.878611)
 101 Co ( 0.000000,  0.000000,  0.839567)
 102 Cr ( 0.000000,  0.000000, -1.122528)
 103 Co ( 0.000000,  0.000000,  0.944574)
 104 Cr ( 0.000000,  0.000000, -1.577591)
 105 Fe ( 0.000000,  0.000000,  1.874768)
 106 Co ( 0.000000,  0.000000,  0.788989)
 107 Ni ( 0.000000,  0.000000,  0.222653)

Energy contributions relative to reference atoms: (reference = -3846758.590871)

Kinetic:        +99.867929
Potential:     -171.076214
External:        +0.000000
XC:            -856.835914
Entropy (-ST):   -4.728797
Local:          +40.108019
Free energy:   -892.664978
Extrapolated:  -890.300580

Spin contamination: 30.212206 electrons
Showing only first 2 kpts
                      Up                     Down
 Kpt  Band  Eigenvalues  Occupancy  Eigenvalues  Occupancy
  0   524      9.86836    0.99119     10.67845    0.03297
  0   525      9.88372    0.98974     10.69267    0.02873
  0   526      9.89788    0.98819     10.70637    0.02514
  0   527      9.90452    0.98739     10.71418    0.02330

  1   524      9.86152    0.99176     10.68649    0.03051
  1   525      9.87546    0.99054     10.70531    0.02540
  1   526      9.88215    0.98989     10.71998    0.02202
  1   527      9.89446    0.98859     10.72546    0.02087

Fermi level: 10.34061

No gap

Forces in eV/Ang:
  0 Co   -0.01950   -0.10568   -0.00969
  1 Fe    0.22640    0.17688    0.09364
  2 Fe    0.17897   -0.36941    0.04787
  3 Co    0.20211    0.05015   -0.03526
  4 Co    0.05838    0.04990   -0.21467
  5 Fe    0.13378    0.08805   -0.02939
  6 Cr   -0.07873    0.04669   -0.00068
  7 Co   -0.21069    0.05321   -0.13902
  8 Co   -0.23789   -0.10212   -0.03641
  9 Fe   -0.25454   -0.32952   -0.14159
 10 Ni   -0.10139   -0.02932   -0.01614
 11 Ni   -0.01964   -0.08957   -0.03242
 12 Fe    0.27094    0.35013   -0.20463
 13 Cr    0.11646   -0.13058    0.08976
 14 Co   -0.01342    0.01960    0.04926
 15 Cr   -0.19638    0.07407   -0.17952
 16 Cr   -0.34710   -0.27138   -0.11775
 17 Fe    0.12107   -0.28182   -0.10533
 18 Cr   -0.14192    0.02657    0.16365
 19 Fe    0.32451    0.03612    0.34838
 20 Cr   -0.08442    0.03760   -0.16302
 21 Ni   -0.00455    0.14624   -0.22097
 22 Fe    0.06645    0.14222    0.10634
 23 Cr    0.00241    0.51940   -0.46660
 24 Cr    0.04939   -0.55506   -0.30812
 25 Ni    0.25257   -0.17112   -0.12671
 26 Fe   -0.08025    0.48923    0.09123
 27 Ni    0.27752   -0.08922   -0.01097
 28 Fe   -0.23394    0.24275    0.03586
 29 Co   -0.00484    0.10362    0.02131
 30 Cr    0.29216   -0.09561   -0.51820
 31 Cr   -0.34850    0.38674   -0.10919
 32 Co    0.15986   -0.00796   -0.01269
 33 Fe    0.01772    0.04954   -0.10798
 34 Ni    0.04058    0.03606   -0.03092
 35 Cr   -0.16267   -0.15656   -0.05243
 36 Cr   -0.11854    0.06150   -0.04074
 37 Fe    0.41564   -0.04359    0.14954
 38 Cr    0.62125    0.21651    0.19689
 39 Co    0.07444    0.21315    0.10370
 40 Co   -0.08724   -0.25169   -0.02464
 41 Fe   -0.37554   -0.15819   -0.11594
 42 Fe    0.24894   -0.02187    0.03468
 43 Co   -0.08036    0.11040   -0.10100
 44 Ni   -0.00952    0.03942    0.03991
 45 Cr    0.10819    0.00571    0.12207
 46 Fe    0.05234   -0.26523    0.05699
 47 Ni    0.01931    0.12325    0.05511
 48 Ni   -0.02243    0.02156   -0.11261
 49 Co    0.07197   -0.06422    0.03874
 50 Cr    0.36057   -0.22096   -0.24767
 51 Fe   -0.18653   -0.30509   -0.04446
 52 Co    0.01921   -0.02602   -0.13379
 53 Fe   -0.02218   -0.11871    0.24344
 54 Ni   -0.01108   -0.16138    0.11174
 55 Fe   -0.09600    0.12656   -0.28513
 56 Ni   -0.06703    0.02273    0.03109
 57 Cr    0.00601    0.07900    0.28162
 58 Ni    0.15255    0.09487    0.08818
 59 Ni    0.10298    0.06125    0.07402
[...]
 93 Ni   -0.03354    0.24484    0.20916
 94 Co    0.22957    0.15424    0.12648
 95 Ni    0.15584    0.10816   -0.05725
 96 Cr   -0.18170   -0.21222    0.33493
 97 Fe    0.11746   -0.09505    0.04584
 98 Co   -0.12816    0.01133   -0.05393
 99 Fe    0.11361    0.01807    0.01729
100 Fe    0.04546    0.19722    0.31386
101 Co   -0.18180    0.04671    0.03542
102 Cr    0.05044    0.05466    0.42465
103 Co   -0.23295    0.02123    0.08171
104 Cr    0.45495    0.31998   -0.27581
105 Fe    0.20404   -0.34526    0.07981
106 Co    0.20397   -0.21227   -0.00549
107 Ni    0.07885   -0.10696   -0.06994

Date: Sat Apr 15 23:44:35 2023