User:   c.zeng@d0007
Date:   Thu Apr 13 20:27:18 2023
Arch:   x86_64
Pid:    281729
CWD:    /home/c.zeng/projects/hea-corrosion/hea-mlp/data-curation/bulk-md/dft-jobs/44
Python: 3.8.1
gpaw:   /home/c.zeng/usr/installs/gpaw/source/gpaw-22.8.0/gpaw
_gpaw:  /home/c.zeng/usr/installs/gpaw/source/gpaw-22.8.0/
        _gpaw.cpython-38-x86_64-linux-gnu.so
ase:    /home/c.zeng/.local/lib/python3.8/site-packages/ase-3.22.1-py3.8.egg/ase (version 3.22.1)
numpy:  /shared/centos7/python/3.8.1/lib/python3.8/site-packages/numpy (version 1.17.4)
scipy:  /shared/centos7/python/3.8.1/lib/python3.8/site-packages/scipy (version 1.4.1)
units:  Angstrom and eV
cores: 30
OpenMP: False
OMP_NUM_THREADS: 1

Input parameters:
  convergence: {energy: 0.0001}
  kpts: [2 2 2]
  maxiter: 666
  mode: {ecut: 350.0,
         name: pw}
  occupations: {fixmagmom: False,
                name: fermi-dirac,
                width: 0.1}
  spinpol: True
  xc: PBE

System changes: positions, numbers, cell, pbc, initial_charges, initial_magmoms

Initialize ...

species:
  Co:
    name: Cobalt
    id: 339d20d5b0b93d2de9531a1bee871d91
    Z: 27.0
    valence: 9
    core: 18
    charge: 0.0
    file: /home/c.zeng/usr/data/gpaw-setups-0.9.20000/Co.PBE.gz
    compensation charges: {type: gauss,
                           rc: 0.32,
                           lmax: 2}
    cutoffs: {filter: 1.87,
              core: 2.55}
    valence states:
      #              energy  rcut
      - 4s(2.00)    -5.469   1.005
      - 4p(0.00)    -1.277   1.058
      - 3d(7.00)    -8.205   1.005
      -  s          21.742   1.005
      -  p          25.934   1.058
      -  d          19.007   1.005

    # Using partial waves for Co as LCAO basis

  Ni:
    name: Nickel
    id: 0d9f38a9d6e76a2886f07bb4381f212b
    Z: 28.0
    valence: 16
    core: 12
    charge: 0.0
    file: /home/c.zeng/usr/data/gpaw-setups-0.9.20000/Ni.PBE.gz
    compensation charges: {type: gauss,
                           rc: 0.36,
                           lmax: 2}
    cutoffs: {filter: 2.14,
              core: 1.98}
    valence states:
      #              energy  rcut
      - 4s(2.00)    -5.642   1.164
      - 3p(6.00)   -71.394   1.207
      - 4p(0.00)    -1.226   1.207
      - 3d(8.00)    -8.875   1.138
      -  s          21.570   1.164
      -  d          18.337   1.138

[...]

  Al:
    name: Aluminium
    id: 0292cae29f5d6237e50f6abdd43a7bdd
    Z: 13.0
    valence: 3
    core: 10
    charge: 0.0
    file: /home/c.zeng/usr/data/gpaw-setups-0.9.20000/Al.PBE.gz
    compensation charges: {type: gauss,
                           rc: 0.34,
                           lmax: 2}
    cutoffs: {filter: 1.91,
              core: 2.36}
    valence states:
      #              energy  rcut
      - 3s(2.00)    -7.753   1.085
      - 3p(1.00)    -2.712   1.085
      -  s          19.459   1.085
      -  p          24.499   1.085
      -  d           0.000   1.085

[...]

  Cr:
    name: Chromium
    id: 33f258bda2ca9f93018e70263a35547b
    Z: 24.0
    valence: 6
    core: 18
    charge: 0.0
    file: /home/c.zeng/usr/data/gpaw-setups-0.9.20000/Cr.PBE.gz
    compensation charges: {type: gauss,
                           rc: 0.35,
                           lmax: 2}
    cutoffs: {filter: 2.14,
              core: 3.04}
    valence states:
      #              energy  rcut
      - 4s(1.00)    -4.007   1.164
      - 4p(0.00)    -0.989   1.217
      - 3d(5.00)    -2.913   1.111
      -  s          23.205   1.164
      -  p          26.223   1.217
      -  d          24.299   1.111

[...]

  Fe:
    name: Iron
    id: 37abbd8d6c3c35915a9b583b742da910
    Z: 26.0
    valence: 8
    core: 18
    charge: 0.0
    file: /home/c.zeng/usr/data/gpaw-setups-0.9.20000/Fe.PBE.gz
    compensation charges: {type: gauss,
                           rc: 0.33,
                           lmax: 2}
    cutoffs: {filter: 2.06,
              core: 2.67}
    valence states:
      #              energy  rcut
      - 4s(2.00)    -5.291   1.164
      - 4p(0.00)    -1.326   1.058
      - 3d(6.00)    -7.505   1.058
      -  s          21.920   1.164
      -  p          25.885   1.058
      -  d          19.706   1.058

    # Using partial waves for Fe as LCAO basis

Reference energy: -3548577.034362  # eV

Spin-polarized calculation.
Magnetic moment: 136.400000

Convergence criteria:
 Maximum [total energy] change in last 3 cyles: 0.0001 eV / electron
 Maximum integral of absolute [dens]ity change: 0.0001 electrons / valence electron
 Maximum integral of absolute [eigenst]ate change: 4e-08 eV^2 / valence electron
 Maximum number of scf [iter]ations: 666
 (Square brackets indicate name in SCF output, whereas a 'c' in
 the SCF output indicates the quantity has converged.)

Symmetries present (total): 1

  ( 1  0  0)
  ( 0  1  0)
  ( 0  0  1)

8 k-points: 2 x 2 x 2 Monkhorst-Pack grid
4 k-points in the irreducible part of the Brillouin zone
       k-points in crystal coordinates                weights
   0:     0.25000000   -0.25000000   -0.25000000          2/8
   1:     0.25000000   -0.25000000    0.25000000          2/8
   2:     0.25000000    0.25000000   -0.25000000          2/8
   3:     0.25000000    0.25000000    0.25000000          2/8

Wave functions: Plane wave expansion
  Cutoff energy: 350.000 eV
  Number of coefficients (min, max): 18331, 18331
  Pulay-stress correction: 0.000000 eV/Ang^3 (de/decut=0.000000)
  Using FFTW library
  ScaLapack parameters: grid=1x1, blocksize=None
  Wavefunction extrapolation:
    Improved wavefunction reuse through dual PAW basis

Occupation numbers: Fermi-Dirac:
  width: 0.1000  # eV

Eigensolver
   Davidson(niter=2)

Densities:
  Coarse grid: 48*48*48 grid
  Fine grid: 96*96*96 grid
  Total Charge: 0.000000

Density mixing:
  Method: difference
  Backend: pulay
  Linear mixing parameter: 0.05
  old densities: 5
  Damping of long wavelength oscillations: 50

Hamiltonian:
  XC and Coulomb potentials evaluated on a 96*96*96 grid
  Using the PBE Exchange-Correlation functional
  External potential:
    NoExternalPotential

XC parameters: PBE with 2 nearest neighbor stencil

Total number of cores used: 30
Parallelization over k-points: 2
Domain decomposition: 5 x 3 x 1

Number of atoms: 108
Number of atomic orbitals: 994
Number of bands in calculation: 674
Number of valence electrons: 980
Bands to converge: occupied

... initialized

Initializing position-dependent things.

Density initialized from atomic densities
Creating initial wave functions:
  674 bands from LCAO basis set

        .--------Cr---------------.
       /|  Cr                Cr   |
      / |   Co       FeFe    Al Fe|
     /  |Al    Ni       Ni        |
    /   Al      Fe       Ni      Ni
   /    | NCr      Fe      FeFe   |
  /   Cr|   CFeFe   CNi Al    Co  |
 *      Ni  CoCoAl   CoCoCr     Co|
 | Co   |FFe    CoCCr   CrCr     Ni
 |  Cr  | CrCo   CoCoFe  CrFe     |
 |     Fe  Ni NCr   CrCoNi   NFe  |
 |    NiFe  AlCoCo     CrCr       |
 |Ni   AlNiNi  Ni   Co  CrFe      |
 |      .-NiNi---CrCCr-----FeCr---Co
 |   FeNi    Cr     FeCAli       /
 |    / Al     Ni        Cr     /
 |   /          AlCo      CNi  /
 |  Co     Fe      Fe       Ni/
 | /          Fe     CoFe    /
 *----------------Cr-------*

Positions:
   0 Co    10.586455   -0.136971   10.789382    ( 0.0000,  0.0000,  2.1000)
   1 Ni    10.678567    1.843084    1.797412    ( 0.0000,  0.0000,  1.5000)
   2 Al     1.699891   -0.047312    1.855402    ( 0.0000,  0.0000,  0.0000)
   3 Cr     1.548103    1.605865   10.670649    ( 0.0000,  0.0000,  0.0000)
   4 Cr     3.593815   -0.136330   10.478897    ( 0.0000,  0.0000,  0.0000)
   5 Fe     3.481365    1.784913    1.705746    ( 0.0000,  0.0000,  2.0000)
   6 Fe     5.258603    0.117409    1.668266    ( 0.0000,  0.0000,  2.0000)
   7 Fe     5.363685    1.797472   -0.089175    ( 0.0000,  0.0000,  2.0000)
   8 Cr     7.016960    0.161554    0.039401    ( 0.0000,  0.0000,  0.0000)
   9 Fe     7.114186    1.859146    1.747754    ( 0.0000,  0.0000,  2.0000)
  10 Fe     8.912842    0.061548    1.920152    ( 0.0000,  0.0000,  2.0000)
  11 Al     8.994191    1.778565   -0.055914    ( 0.0000,  0.0000,  0.0000)
  12 Co    10.782870    3.654207   10.907322    ( 0.0000,  0.0000,  2.1000)
  13 Fe    10.772943    5.480415    2.047164    ( 0.0000,  0.0000,  2.0000)
  14 Al     1.833316    3.564482    1.991613    ( 0.0000,  0.0000,  0.0000)
  15 Al     1.669295    5.541453   10.681562    ( 0.0000,  0.0000,  0.0000)
  16 Cr     3.057296    3.681622   10.590697    ( 0.0000,  0.0000,  0.0000)
  17 Cr     3.474242    5.356676    1.857220    ( 0.0000,  0.0000,  0.0000)
  18 Al     5.311110    3.565883    1.731390    ( 0.0000,  0.0000,  0.0000)
  19 Co     5.405424    5.487302   10.813691    ( 0.0000,  0.0000,  2.1000)
  20 Co     7.247831    3.569614    0.083297    ( 0.0000,  0.0000,  2.1000)
  21 Cr     7.282750    5.521941    1.709672    ( 0.0000,  0.0000,  0.0000)
  22 Cr     8.936293    3.548402    1.925080    ( 0.0000,  0.0000,  0.0000)
  23 Cr     9.017203    5.262039    0.246486    ( 0.0000,  0.0000,  0.0000)
  24 Fe    10.688152    7.473416   10.592875    ( 0.0000,  0.0000,  2.0000)
  25 Al    10.861610    8.849973    1.863128    ( 0.0000,  0.0000,  0.0000)
  26 Ni     1.862282    7.235802    1.826555    ( 0.0000,  0.0000,  1.5000)
  27 Cr     1.930216    8.658544   10.600385    ( 0.0000,  0.0000,  0.0000)
  28 Fe     3.752462    7.065451   10.900937    ( 0.0000,  0.0000,  2.0000)
  29 Ni     3.495500    8.866755    1.903845    ( 0.0000,  0.0000,  1.5000)
  30 Co     5.344226    7.235552    1.894315    ( 0.0000,  0.0000,  2.1000)
  31 Fe     5.322262    9.055038   10.785996    ( 0.0000,  0.0000,  2.0000)
  32 Fe     7.256404    7.255826   10.674184    ( 0.0000,  0.0000,  2.0000)
  33 Cr     7.063812    9.100729    1.746145    ( 0.0000,  0.0000,  0.0000)
  34 Fe     8.893032    7.446313    1.863074    ( 0.0000,  0.0000,  2.0000)
  35 Cr     8.971945    8.994607   -0.030800    ( 0.0000,  0.0000,  0.0000)
  36 Ni    10.622431    0.135516    3.602396    ( 0.0000,  0.0000,  1.5000)
  37 Ni     0.037131    1.701402    5.428361    ( 0.0000,  0.0000,  1.5000)
  38 Co     1.820179   -0.000947    5.293631    ( 0.0000,  0.0000,  2.1000)
  39 Ni     1.866963    1.618048    3.698778    ( 0.0000,  0.0000,  1.5000)
  40 Co     3.583226   -0.034244    3.568271    ( 0.0000,  0.0000,  2.1000)
  41 Ni     3.617921    1.724478    5.359455    ( 0.0000,  0.0000,  1.5000)
  42 Co     5.460324   -0.163436    5.228699    ( 0.0000,  0.0000,  2.1000)
  43 Ni     5.181488    1.652805    3.633165    ( 0.0000,  0.0000,  1.5000)
  44 Cr     6.984688   -0.019997    3.709858    ( 0.0000,  0.0000,  0.0000)
  45 Co     7.192271    1.891911    5.200908    ( 0.0000,  0.0000,  2.1000)
  46 Al     8.834797   10.881132    5.153208    ( 0.0000,  0.0000,  0.0000)
  47 Ni     8.819189    2.180059    3.541205    ( 0.0000,  0.0000,  1.5000)
  48 Cr    10.707699    3.594755    3.776101    ( 0.0000,  0.0000,  0.0000)
  49 Fe    -0.257743    5.428570    5.283061    ( 0.0000,  0.0000,  2.0000)
  50 Fe     1.974098    3.412356    5.260335    ( 0.0000,  0.0000,  2.0000)
  51 Ni     1.814562    5.289377    4.091293    ( 0.0000,  0.0000,  1.5000)
  52 Ni     3.566415    3.391978    3.598027    ( 0.0000,  0.0000,  1.5000)
  53 Ni     3.791834    5.443489    5.399752    ( 0.0000,  0.0000,  1.5000)
  54 Co     5.202535    3.662411    5.300272    ( 0.0000,  0.0000,  2.1000)
  55 Cr     5.297298    5.485582    3.222761    ( 0.0000,  0.0000,  0.0000)
  56 Cr     6.923144    3.760265    3.396224    ( 0.0000,  0.0000,  0.0000)
  57 Co     7.163400    5.302660    5.200549    ( 0.0000,  0.0000,  2.1000)
  58 Cr     8.998725    3.622075    5.432108    ( 0.0000,  0.0000,  0.0000)
  59 Fe     8.856530    5.339927    3.400958    ( 0.0000,  0.0000,  2.0000)
[...]
  93 Ni     6.915330    5.164812    9.082072    ( 0.0000,  0.0000,  1.5000)
  94 Cr     9.089686    3.623439    9.093341    ( 0.0000,  0.0000,  0.0000)
  95 Cr     8.855555    5.338935    7.195332    ( 0.0000,  0.0000,  0.0000)
  96 Co    10.658143    7.167065    6.950766    ( 0.0000,  0.0000,  2.1000)
  97 Ni    10.707908    8.866291    8.814282    ( 0.0000,  0.0000,  1.5000)
  98 Ni     1.755501    7.208847    8.784105    ( 0.0000,  0.0000,  1.5000)
  99 Co     2.048015    8.750614    7.035400    ( 0.0000,  0.0000,  2.1000)
 100 Co     3.513223    6.882956    7.216699    ( 0.0000,  0.0000,  2.1000)
 101 Ni     3.625826    8.659188    8.976977    ( 0.0000,  0.0000,  1.5000)
 102 Fe     5.644008    7.193354    8.885374    ( 0.0000,  0.0000,  2.0000)
 103 Co     5.276582    8.780649    7.148791    ( 0.0000,  0.0000,  2.1000)
 104 Co     7.279151    7.058330    7.127083    ( 0.0000,  0.0000,  2.1000)
 105 Ni     7.022618    9.096668    8.781047    ( 0.0000,  0.0000,  1.5000)
 106 Fe     8.872693    7.253809    8.867403    ( 0.0000,  0.0000,  2.0000)
 107 Fe     8.970459    9.027713    7.114880    ( 0.0000,  0.0000,  2.0000)

Unit cell:
           periodic     x           y           z      points  spacing
  1. axis:    yes   10.722400    0.000000    0.000000    48     0.2234
  2. axis:    yes    0.000000   10.722400    0.000000    48     0.2234
  3. axis:    yes    0.000000    0.000000   10.722400    48     0.2234

  Lengths:  10.722400  10.722400  10.722400
  Angles:   90.000000  90.000000  90.000000

Effective grid spacing dv^(1/3) = 0.2234

     iter     time        total  log10-change:  magmom
                         energy  eigst   dens
iter:   1 20:32:50 -1016.800436                  +136.6833
iter:   2 20:35:21  -897.451836  -0.24  -1.19    +75.2426
iter:   3 20:37:52  -892.814084  -0.84  -1.22    +63.7170
iter:   4 20:40:23  -873.336331  -1.19  -1.27    +59.5214
iter:   5 20:42:53  -858.648547  -1.56  -1.28    +55.7165
iter:   6 20:45:24  -862.023739  -1.27  -1.36    +56.1008
iter:   7 20:47:55  -849.053123  -1.26  -1.42    +54.4875
iter:   8 20:50:25  -840.503477  -1.62  -1.56    +53.7526
iter:   9 20:52:53  -841.009407  -2.05  -1.75    +54.3805
iter:  10 20:55:20  -839.522236  -2.30  -1.76    +55.7375
iter:  11 20:57:51  -840.138594  -2.53  -1.84    +56.6441
iter:  12 21:00:22  -840.111071  -2.44  -1.83    +57.9836
iter:  13 21:02:53  -841.098537  -2.40  -1.89    +58.8647
iter:  14 21:05:23  -840.728165  -2.41  -1.94    +58.9487
iter:  15 21:07:53  -840.837219  -2.57  -1.98    +59.7950
iter:  16 21:10:24  -840.413503  -2.67  -2.02    +59.8144
iter:  17 21:12:55  -839.880323  -2.99  -2.07    +60.3340
iter:  18 21:15:25  -840.690858  -2.80  -2.19    +60.7012
iter:  19 21:17:56  -839.986507  -2.99  -2.13    +60.9450
iter:  20 21:20:27  -840.309837  -3.01  -2.24    +61.1473
iter:  21 21:22:58  -840.020465  -3.10  -2.25    +61.0058
iter:  22 21:25:29  -839.879088  -3.20  -2.36    +61.4658
iter:  23 21:28:00  -839.825546  -3.44  -2.45    +61.3987
iter:  24 21:30:30  -839.781526c -3.48  -2.54    +61.4763
iter:  25 21:33:00  -839.825384c -3.83  -2.61    +61.6481
iter:  26 21:35:31  -839.802394c -3.89  -2.63    +61.6468
iter:  27 21:38:02  -839.812927c -3.81  -2.68    +61.6563
iter:  28 21:40:33  -839.806374c -3.95  -2.72    +61.7114
iter:  29 21:43:04  -839.813719c -4.15  -2.83    +61.8630
iter:  30 21:45:35  -839.815125c -4.37  -2.86    +61.8390
iter:  31 21:48:05  -839.825160c -4.42  -2.95    +61.8372
iter:  32 21:50:36  -839.827244c -4.59  -3.00    +61.8431
iter:  33 21:53:07  -839.834921c -4.72  -3.06    +61.7954
iter:  34 21:55:38  -839.845151c -4.75  -3.12    +61.7818
iter:  35 21:58:09  -839.849907c -4.85  -3.13    +61.7245
iter:  36 22:00:40  -839.858034c -4.81  -3.21    +61.6804
iter:  37 22:03:11  -839.870887c -4.80  -3.26    +61.6058
iter:  38 22:05:42  -839.876165c -4.91  -3.28    +61.5377
iter:  39 22:08:13  -839.884450c -5.02  -3.33    +61.4626
iter:  40 22:10:43  -839.893264c -4.98  -3.37    +61.3855
iter:  41 22:13:10  -839.905983c -4.82  -3.38    +61.2033
iter:  42 22:15:39  -839.919075c -4.80  -3.40    +61.0716
iter:  43 22:18:10  -839.980532c -3.53  -3.36    +60.3584
iter:  44 22:20:41  -839.982424c -4.60  -3.16    +60.4217
iter:  45 22:23:12  -839.986668c -4.96  -3.14    +60.3858
iter:  46 22:25:43  -839.992308c -4.90  -3.12    +60.3443
iter:  47 22:28:14  -839.988605c -5.11  -3.11    +60.3606
iter:  48 22:30:45  -839.985166c -4.43  -3.18    +60.3344
iter:  49 22:33:15  -839.987471c -4.97  -3.14    +60.2900
iter:  50 22:35:45  -839.984936c -5.12  -3.15    +60.1799
iter:  51 22:38:16  -839.985422c -5.00  -3.23    +60.1206
iter:  52 22:40:47  -839.990355c -4.80  -3.26    +60.1017
iter:  53 22:43:18  -839.986022c -5.05  -3.24    +60.0866
iter:  54 22:45:48  -839.986380c -5.32  -3.43    +60.0844
iter:  55 22:48:19  -839.987093c -5.16  -3.43    +60.0555
iter:  56 22:50:50  -839.988134c -5.42  -3.53    +60.0640
iter:  57 22:53:19  -839.990059c -5.47  -3.53    +60.0581
iter:  58 22:55:50  -839.991085c -5.64  -3.56    +60.0615
iter:  59 22:58:21  -839.992306c -5.64  -3.57    +60.0736
iter:  60 23:00:51  -839.992477c -5.85  -3.57    +60.0699
iter:  61 23:03:22  -839.994145c -5.85  -3.63    +60.0500
iter:  62 23:05:53  -839.993604c -5.67  -3.59    +60.0631
iter:  63 23:08:20  -839.994633c -5.68  -3.75    +60.0571
iter:  64 23:10:50  -839.994952c -5.86  -3.69    +60.0663
iter:  65 23:13:21  -839.994551c -5.98  -3.77    +60.0583
iter:  66 23:15:52  -839.995147c -6.17  -3.81    +60.0585
iter:  67 23:18:22  -839.995244c -6.27  -3.85    +60.0660
iter:  68 23:20:53  -839.995557c -6.30  -3.95    +60.0655
iter:  69 23:23:23  -839.996404c -6.10  -4.01c   +60.0668
iter:  70 23:25:54  -839.996669c -6.17  -4.05c   +60.0752
iter:  71 23:28:25  -839.997076c -6.40  -4.06c   +60.0728
iter:  72 23:30:56  -839.997415c -6.55  -4.12c   +60.0773
iter:  73 23:33:27  -839.997386c -6.69  -4.13c   +60.0789
iter:  74 23:35:58  -839.997582c -6.76  -4.18c   +60.0801
iter:  75 23:38:29  -839.997876c -6.88  -4.21c   +60.0828
iter:  76 23:41:01  -839.997919c -6.91  -4.26c   +60.0849
iter:  77 23:43:32  -839.998213c -6.86  -4.30c   +60.0905
iter:  78 23:46:03  -839.998404c -6.98  -4.33c   +60.0914
iter:  79 23:48:33  -839.998419c -6.95  -4.36c   +60.0953
iter:  80 23:51:05  -839.998573c -7.12  -4.37c   +60.0973
iter:  81 23:53:36  -839.998652c -7.21  -4.43c   +60.0995
iter:  82 23:56:06  -839.998919c -7.01  -4.49c   +60.1037
iter:  83 23:58:37  -839.998894c -7.14  -4.45c   +60.1073
iter:  84 00:01:08  -839.999091c -7.15  -4.54c   +60.1109
iter:  85 00:03:38  -839.999245c -6.97  -4.58c   +60.1155
iter:  86 00:06:09  -839.999357c -7.05  -4.60c   +60.1223
iter:  87 00:08:40  -839.999521c -7.03  -4.64c   +60.1279
iter:  88 00:11:08  -840.000036c -6.10  -4.66c   +60.1521
iter:  89 00:13:38  -840.000437c -6.09  -4.55c   +60.1744
iter:  90 00:16:08  -840.000823c -6.07  -4.42c   +60.1994
iter:  91 00:18:38  -840.000864c -6.77  -4.34c   +60.2054
iter:  92 00:21:09  -840.000852c -7.17  -4.36c   +60.2051
iter:  93 00:23:40  -840.000816c -7.40c -4.41c   +60.2081

Converged after 93 iterations.

Dipole moment: (-1.066880, 25.534800, -4.635397) |e|*Ang

Total magnetic moment: (0.000000, 0.000000, 60.208126)
Local magnetic moments:
   0 Co ( 0.000000,  0.000000,  0.338861)
   1 Ni ( 0.000000,  0.000000,  0.062193)
   2 Al ( 0.000000,  0.000000, -0.005667)
   3 Cr ( 0.000000,  0.000000, -1.069017)
   4 Cr ( 0.000000,  0.000000, -1.180581)
   5 Fe ( 0.000000,  0.000000,  2.081683)
   6 Fe ( 0.000000,  0.000000,  1.720119)
   7 Fe ( 0.000000,  0.000000,  1.214559)
   8 Cr ( 0.000000,  0.000000, -0.740845)
   9 Fe ( 0.000000,  0.000000,  1.669901)
  10 Fe ( 0.000000,  0.000000,  2.398043)
  11 Al ( 0.000000,  0.000000, -0.017455)
  12 Co ( 0.000000,  0.000000, -0.249850)
  13 Fe ( 0.000000,  0.000000,  2.190271)
  14 Al ( 0.000000,  0.000000, -0.007829)
  15 Al ( 0.000000,  0.000000, -0.027500)
  16 Cr ( 0.000000,  0.000000, -1.671359)
  17 Cr ( 0.000000,  0.000000,  1.085186)
  18 Al ( 0.000000,  0.000000, -0.015749)
  19 Co ( 0.000000,  0.000000,  1.257674)
  20 Co ( 0.000000,  0.000000,  0.580031)
  21 Cr ( 0.000000,  0.000000, -0.102092)
  22 Cr ( 0.000000,  0.000000,  0.007854)
  23 Cr ( 0.000000,  0.000000, -1.062560)
  24 Fe ( 0.000000,  0.000000,  1.581306)
  25 Al ( 0.000000,  0.000000, -0.014329)
  26 Ni ( 0.000000,  0.000000,  0.179380)
  27 Cr ( 0.000000,  0.000000, -1.473551)
  28 Fe ( 0.000000,  0.000000,  2.024345)
  29 Ni ( 0.000000,  0.000000,  0.154337)
  30 Co ( 0.000000,  0.000000,  0.535790)
  31 Fe ( 0.000000,  0.000000,  1.726050)
  32 Fe ( 0.000000,  0.000000,  1.883540)
  33 Cr ( 0.000000,  0.000000, -1.077033)
  34 Fe ( 0.000000,  0.000000,  1.843025)
  35 Cr ( 0.000000,  0.000000, -1.035444)
  36 Ni ( 0.000000,  0.000000,  0.315117)
  37 Ni ( 0.000000,  0.000000,  0.162252)
  38 Co ( 0.000000,  0.000000,  1.451127)
  39 Ni ( 0.000000,  0.000000,  0.425730)
  40 Co ( 0.000000,  0.000000,  1.337872)
  41 Ni ( 0.000000,  0.000000,  0.371845)
  42 Co ( 0.000000,  0.000000,  0.735163)
  43 Ni ( 0.000000,  0.000000,  0.329341)
  44 Cr ( 0.000000,  0.000000,  0.705255)
  45 Co ( 0.000000,  0.000000,  0.799298)
  46 Al ( 0.000000,  0.000000, -0.008713)
  47 Ni ( 0.000000,  0.000000,  0.066631)
  48 Cr ( 0.000000,  0.000000, -1.312564)
  49 Fe ( 0.000000,  0.000000,  1.580903)
  50 Fe ( 0.000000,  0.000000,  2.298851)
  51 Ni ( 0.000000,  0.000000,  0.342222)
  52 Ni ( 0.000000,  0.000000,  0.397009)
  53 Ni ( 0.000000,  0.000000,  0.547763)
  54 Co ( 0.000000,  0.000000,  1.592478)
  55 Cr ( 0.000000,  0.000000, -0.386373)
  56 Cr ( 0.000000,  0.000000,  0.058477)
  57 Co ( 0.000000,  0.000000,  0.836966)
  58 Cr ( 0.000000,  0.000000,  0.630069)
  59 Fe ( 0.000000,  0.000000,  0.693430)
[...]
  93 Ni ( 0.000000,  0.000000,  0.387740)
  94 Cr ( 0.000000,  0.000000,  0.968054)
  95 Cr ( 0.000000,  0.000000, -1.418234)
  96 Co ( 0.000000,  0.000000,  1.281751)
  97 Ni ( 0.000000,  0.000000,  0.304859)
  98 Ni ( 0.000000,  0.000000,  0.386924)
  99 Co ( 0.000000,  0.000000,  1.402984)
 100 Co ( 0.000000,  0.000000,  1.593639)
 101 Ni ( 0.000000,  0.000000,  0.332005)
 102 Fe ( 0.000000,  0.000000,  2.388745)
 103 Co ( 0.000000,  0.000000,  1.337802)
 104 Co ( 0.000000,  0.000000,  1.212649)
 105 Ni ( 0.000000,  0.000000,  0.336328)
 106 Fe ( 0.000000,  0.000000,  2.174845)
 107 Fe ( 0.000000,  0.000000,  2.068536)

Energy contributions relative to reference atoms: (reference = -3548577.034362)

Kinetic:       +334.194251
Potential:     -336.517518
External:        +0.000000
XC:            -871.223768
Entropy (-ST):   -4.465458
Local:          +35.778949
Free energy:   -842.233544
Extrapolated:  -840.000816

Spin contamination: 24.105934 electrons
Showing only first 2 kpts
                      Up                     Down
 Kpt  Band  Eigenvalues  Occupancy  Eigenvalues  Occupancy
  0   488      9.53317    0.99369     10.38725    0.02983
  0   489      9.54100    0.99318     10.40341    0.02550
  0   490      9.56543    0.99131     10.41309    0.02320
  0   491      9.57408    0.99053     10.43148    0.01938

  1   488      9.52600    0.99412     10.39380    0.02800
  1   489      9.55021    0.99252     10.40251    0.02572
  1   490      9.56064    0.99171     10.40916    0.02411
  1   491      9.56594    0.99126     10.41847    0.02201

Fermi level: 10.03907

No gap

Forces in eV/Ang:
  0 Co    0.84357   -0.02844   -0.47470
  1 Ni    0.26542   -0.27778    0.66118
  2 Al    1.29381    0.74590    0.01406
  3 Cr    0.22304    0.99938   -0.70408
  4 Cr    0.01207    0.72859    0.83020
  5 Fe    0.19493   -0.85625   -0.50369
  6 Fe   -0.41521   -0.03863    0.60748
  7 Fe   -1.14961    0.33893    0.10670
  8 Cr    0.08100   -1.16190   -0.19067
  9 Fe   -0.11252   -0.73656    0.50745
 10 Fe   -0.32940   -0.08846   -0.19679
 11 Al    0.89822   -0.11328    0.77361
 12 Co    0.57628   -0.27808   -1.05727
 13 Fe    0.09527   -0.54580   -0.95413
 14 Al   -1.60676   -0.48844    0.29073
 15 Al   -1.56856    1.62136    0.36549
 16 Cr    3.14701   -1.76107    0.45991
 17 Cr    0.04114    0.40906   -0.19414
 18 Al   -1.32038   -0.95799   -1.77281
 19 Co   -0.16378   -0.91050    0.17193
 20 Co   -0.37166   -0.26445    0.15458
 21 Cr   -1.02390    0.40114   -0.35417
 22 Cr    0.40309    1.28455   -2.05886
 23 Cr    0.39941    1.37681   -0.72692
 24 Fe   -0.52903   -1.87904    0.88164
 25 Al   -1.40868   -0.04605    0.48989
 26 Ni   -0.45412   -1.34206    0.20592
 27 Cr   -0.66282    0.95847    0.45855
 28 Fe   -0.52901    0.77669   -0.93720
 29 Ni    0.59247    0.96508   -0.76015
 30 Co    0.64806    0.83733   -0.83582
 31 Fe    0.41967   -0.74669   -0.15812
 32 Fe   -0.36196    0.19357    0.60391
 33 Cr    0.29827   -0.62247    0.61823
 34 Fe   -0.41553   -1.16603   -0.66583
 35 Cr   -0.93375   -0.51664    0.20791
 36 Ni    1.04032   -0.28647   -0.30708
 37 Ni    0.18045    0.63415   -0.15452
 38 Co    0.40987   -0.90071    0.65092
 39 Ni   -0.99862    1.09111   -1.18641
 40 Co    0.02185   -0.58483    0.53653
 41 Ni    0.29248   -0.75049    0.65956
 42 Co   -1.54712    1.33656    2.13093
 43 Ni    1.68294    0.81558   -0.65941
 44 Cr    0.27517   -0.07213   -2.60081
 45 Co   -1.45850    0.44073    0.99706
 46 Al    1.19827   -0.07441    1.70855
 47 Ni    0.50650   -3.09500    0.85972
 48 Cr    0.13393   -0.16339    0.11078
 49 Fe    0.60027    0.34922    0.25671
 50 Fe   -1.05670   -0.09496    1.25769
 51 Ni    0.31966    0.68805   -2.47515
 52 Ni    0.68582    1.32186   -0.61438
 53 Ni   -0.20178   -0.09376   -0.34693
 54 Co    1.76734   -0.84838    0.52508
 55 Cr    0.50357   -0.71198    2.03707
 56 Cr    1.40731   -0.26314    1.90523
 57 Co   -0.57242   -0.04521    0.68066
 58 Cr   -0.86848   -0.35607   -0.37847
 59 Fe    0.18332    0.56728    0.94110
[...]
 93 Ni    2.39885    0.58678   -0.18727
 94 Cr   -0.22147    0.77692   -1.37154
 95 Cr    0.09656   -0.08138    0.34091
 96 Co    0.21741   -0.28595    1.52621
 97 Ni    0.11492    0.85812   -0.39536
 98 Ni   -0.49448   -1.22377    0.22941
 99 Co   -1.80976    0.36361    0.68671
100 Co    1.75786    1.43473   -0.71306
101 Ni    0.33109    0.72168   -0.47569
102 Fe   -1.35936   -0.33162    0.79635
103 Co    0.09043    0.72706   -0.40305
104 Co   -0.51891    0.65167   -0.01712
105 Ni    0.96420   -1.86053    1.89174
106 Fe   -0.06066   -0.69054    0.24856
107 Fe    0.00245   -1.63093   -1.05672

Date: Fri Apr 14 00:24:01 2023