User:   c.zeng@d0140
Date:   Sat Apr  8 06:57:48 2023
Arch:   x86_64
Pid:    27819
CWD:    /home/c.zeng/projects/hea-corrosion/hea-mlp/data-curation/volume/dft-jobs/26
Python: 3.8.1
gpaw:   /home/c.zeng/usr/installs/gpaw/source/gpaw-22.8.0/gpaw
_gpaw:  /home/c.zeng/usr/installs/gpaw/source/gpaw-22.8.0/
        _gpaw.cpython-38-x86_64-linux-gnu.so
ase:    /home/c.zeng/.local/lib/python3.8/site-packages/ase-3.22.1-py3.8.egg/ase (version 3.22.1)
numpy:  /shared/centos7/python/3.8.1/lib/python3.8/site-packages/numpy (version 1.17.4)
scipy:  /shared/centos7/python/3.8.1/lib/python3.8/site-packages/scipy (version 1.4.1)
units:  Angstrom and eV
cores: 64
OpenMP: False
OMP_NUM_THREADS: 1

Input parameters:
  convergence: {energy: 0.0001}
  kpts: [2 2 2]
  maxiter: 666
  mode: {ecut: 350.0,
         name: pw}
  occupations: {fixmagmom: False,
                name: fermi-dirac,
                width: 0.1}
  spinpol: True
  xc: PBE

System changes: positions, numbers, cell, pbc, initial_charges, initial_magmoms

Initialize ...

species:
  Cr:
    name: Chromium
    id: 33f258bda2ca9f93018e70263a35547b
    Z: 24.0
    valence: 6
    core: 18
    charge: 0.0
    file: /home/c.zeng/usr/data/gpaw-setups-0.9.20000/Cr.PBE.gz
    compensation charges: {type: gauss,
                           rc: 0.35,
                           lmax: 2}
    cutoffs: {filter: 2.14,
              core: 3.04}
    valence states:
      #              energy  rcut
      - 4s(1.00)    -4.007   1.164
      - 4p(0.00)    -0.989   1.217
      - 3d(5.00)    -2.913   1.111
      -  s          23.205   1.164
      -  p          26.223   1.217
      -  d          24.299   1.111

    # Using partial waves for Cr as LCAO basis

  Al:
    name: Aluminium
    id: 0292cae29f5d6237e50f6abdd43a7bdd
    Z: 13.0
    valence: 3
    core: 10
    charge: 0.0
    file: /home/c.zeng/usr/data/gpaw-setups-0.9.20000/Al.PBE.gz
    compensation charges: {type: gauss,
                           rc: 0.34,
                           lmax: 2}
    cutoffs: {filter: 1.91,
              core: 2.36}
    valence states:
      #              energy  rcut
      - 3s(2.00)    -7.753   1.085
      - 3p(1.00)    -2.712   1.085
      -  s          19.459   1.085
      -  p          24.499   1.085
      -  d           0.000   1.085

[...]

  Co:
    name: Cobalt
    id: 339d20d5b0b93d2de9531a1bee871d91
    Z: 27.0
    valence: 9
    core: 18
    charge: 0.0
    file: /home/c.zeng/usr/data/gpaw-setups-0.9.20000/Co.PBE.gz
    compensation charges: {type: gauss,
                           rc: 0.32,
                           lmax: 2}
    cutoffs: {filter: 1.87,
              core: 2.55}
    valence states:
      #              energy  rcut
      - 4s(2.00)    -5.469   1.005
      - 4p(0.00)    -1.277   1.058
      - 3d(7.00)    -8.205   1.005
      -  s          21.742   1.005
      -  p          25.934   1.058
      -  d          19.007   1.005

[...]

  Fe:
    name: Iron
    id: 37abbd8d6c3c35915a9b583b742da910
    Z: 26.0
    valence: 8
    core: 18
    charge: 0.0
    file: /home/c.zeng/usr/data/gpaw-setups-0.9.20000/Fe.PBE.gz
    compensation charges: {type: gauss,
                           rc: 0.33,
                           lmax: 2}
    cutoffs: {filter: 2.06,
              core: 2.67}
    valence states:
      #              energy  rcut
      - 4s(2.00)    -5.291   1.164
      - 4p(0.00)    -1.326   1.058
      - 3d(6.00)    -7.505   1.058
      -  s          21.920   1.164
      -  p          25.885   1.058
      -  d          19.706   1.058

[...]

  Ni:
    name: Nickel
    id: 0d9f38a9d6e76a2886f07bb4381f212b
    Z: 28.0
    valence: 16
    core: 12
    charge: 0.0
    file: /home/c.zeng/usr/data/gpaw-setups-0.9.20000/Ni.PBE.gz
    compensation charges: {type: gauss,
                           rc: 0.36,
                           lmax: 2}
    cutoffs: {filter: 2.14,
              core: 1.98}
    valence states:
      #              energy  rcut
      - 4s(2.00)    -5.642   1.164
      - 3p(6.00)   -71.394   1.207
      - 4p(0.00)    -1.226   1.207
      - 3d(8.00)    -8.875   1.138
      -  s          21.570   1.164
      -  d          18.337   1.138

    # Using partial waves for Ni as LCAO basis

Reference energy: -3699400.456887  # eV

Spin-polarized calculation.
Magnetic moment: 143.500000

Convergence criteria:
 Maximum [total energy] change in last 3 cyles: 0.0001 eV / electron
 Maximum integral of absolute [dens]ity change: 0.0001 electrons / valence electron
 Maximum integral of absolute [eigenst]ate change: 4e-08 eV^2 / valence electron
 Maximum number of scf [iter]ations: 666
 (Square brackets indicate name in SCF output, whereas a 'c' in
 the SCF output indicates the quantity has converged.)

Symmetries present (total): 1

  ( 1  0  0)
  ( 0  1  0)
  ( 0  0  1)

8 k-points: 2 x 2 x 2 Monkhorst-Pack grid
4 k-points in the irreducible part of the Brillouin zone
       k-points in crystal coordinates                weights
   0:     0.25000000   -0.25000000   -0.25000000          2/8
   1:     0.25000000   -0.25000000    0.25000000          2/8
   2:     0.25000000    0.25000000   -0.25000000          2/8
   3:     0.25000000    0.25000000    0.25000000          2/8

Wave functions: Plane wave expansion
  Cutoff energy: 350.000 eV
  Number of coefficients (min, max): 25839, 25839
  Pulay-stress correction: 0.000000 eV/Ang^3 (de/decut=0.000000)
  Using FFTW library
  ScaLapack parameters: grid=1x1, blocksize=None
  Wavefunction extrapolation:
    Improved wavefunction reuse through dual PAW basis

Occupation numbers: Fermi-Dirac:
  width: 0.1000  # eV

Eigensolver
   Davidson(niter=2)

Densities:
  Coarse grid: 54*54*54 grid
  Fine grid: 108*108*108 grid
  Total Charge: 0.000000

Density mixing:
  Method: difference
  Backend: pulay
  Linear mixing parameter: 0.05
  old densities: 5
  Damping of long wavelength oscillations: 50

Hamiltonian:
  XC and Coulomb potentials evaluated on a 108*108*108 grid
  Using the PBE Exchange-Correlation functional
  External potential:
    NoExternalPotential

XC parameters: PBE with 2 nearest neighbor stencil

Total number of cores used: 64
Parallelization over k-points: 4
Domain decomposition: 4 x 2 x 2

Number of atoms: 108
Number of atomic orbitals: 1025
Number of bands in calculation: 703
Number of valence electrons: 1020
Bands to converge: occupied

... initialized

Initializing position-dependent things.

Density initialized from atomic densities
Creating initial wave functions:
  703 bands from LCAO basis set

       /|   Ni                  Cr    |
      / |                 Al          |
     /  |    Fe                       |
    /  Ni        Cr        Fe         |
   /o   |  Ni     Cr CrFe      Cr     Cr
  /  NiCo   FeCo      Cr NiFe   Ni    |
 Cr   FeCo      NiNi Cr   CoCo        |
 |      | CoCrr     NiCo     Cr Fee   |
 |      |       Alo        Al        Ni
 | Ni   |  FeCo   Co NiNi CoFe Ni     Fe
 |   FeCr   NiCo Co   Fe FeCr   Fe    |
 |    CrNi   Cr CoFe CrNi NiNi   Ni   |
 |      |   Ni        Co        Co    |
 |     Ni Ni    Nio Cr     CrFe       |
 | Fe   .--FeCr------CoCo------Cr-----.
 |   CoFe     Fe Al   Cr NiNi        /
 |    CrFe      CoCr        Co      /
 |Al /    FeCr      CoCo     Cr    /
 | /         Fe                  /
 |/              Fe             /
 *---------Fe------------------*

Positions:
   0 Cr     0.000001    0.000001   -0.000004    ( 0.0000,  0.0000,  0.0000)
   1 Al     0.000000    2.004754    2.004754    ( 0.0000,  0.0000,  0.0000)
   2 Cr     2.004754   -0.000001    2.004754    ( 0.0000,  0.0000,  0.0000)
   3 Co     2.004754    2.004754   -0.000002    ( 0.0000,  0.0000,  2.1000)
   4 Fe     4.009496    0.000001    0.000000    ( 0.0000,  0.0000,  2.0000)
   5 Cr     4.009496    2.004754    2.004742    ( 0.0000,  0.0000,  0.0000)
   6 Ni     6.014250   -0.000001    2.004754    ( 0.0000,  0.0000,  1.5000)
   7 Fe     6.014250    2.004754    0.000001    ( 0.0000,  0.0000,  2.0000)
   8 Cr     8.019004    0.000003   -0.000000    ( 0.0000,  0.0000,  0.0000)
   9 Co     8.019004    2.004754    2.004754    ( 0.0000,  0.0000,  2.1000)
  10 Ni    10.023746   -0.000000    2.004754    ( 0.0000,  0.0000,  1.5000)
  11 Fe    10.023746    2.004754   -0.000001    ( 0.0000,  0.0000,  2.0000)
  12 Co     0.000001    4.009496   -0.000001    ( 0.0000,  0.0000,  2.1000)
  13 Co     0.000003    6.014250    2.004754    ( 0.0000,  0.0000,  2.1000)
  14 Fe     2.004754    4.009496    2.004754    ( 0.0000,  0.0000,  2.0000)
  15 Fe     2.004754    6.014250    0.000002    ( 0.0000,  0.0000,  2.0000)
  16 Fe     4.009496    4.009496    0.000001    ( 0.0000,  0.0000,  2.0000)
  17 Fe     4.009496    6.014250    2.004754    ( 0.0000,  0.0000,  2.0000)
  18 Cr     6.014250    4.009496    2.004742    ( 0.0000,  0.0000,  0.0000)
  19 Co     6.014250    6.014250    0.000000    ( 0.0000,  0.0000,  2.1000)
  20 Fe     8.019004    4.009496   -0.000001    ( 0.0000,  0.0000,  2.0000)
  21 Ni     8.019004    6.014250    2.004754    ( 0.0000,  0.0000,  1.5000)
  22 Co    10.023746    4.009496    2.004754    ( 0.0000,  0.0000,  2.1000)
  23 Cr    10.023746    6.014250    0.000001    ( 0.0000,  0.0000,  0.0000)
  24 Cr     0.000004    8.019004    0.000000    ( 0.0000,  0.0000,  0.0000)
  25 Ni     0.000000   10.023746    2.004754    ( 0.0000,  0.0000,  1.5000)
  26 Fe     2.004754    8.019004    2.004754    ( 0.0000,  0.0000,  2.0000)
  27 Ni     2.004754   10.023746   -0.000000    ( 0.0000,  0.0000,  1.5000)
  28 Co     4.009496    8.018992    0.000002    ( 0.0000,  0.0000,  2.1000)
  29 Co     4.009496   10.023746    2.004754    ( 0.0000,  0.0000,  2.1000)
  30 Co     6.014250    8.019004    2.004754    ( 0.0000,  0.0000,  2.1000)
  31 Cr     6.014250   10.023746    0.000002    ( 0.0000,  0.0000,  0.0000)
  32 Al     8.018992    8.019004   -0.000003    ( 0.0000,  0.0000,  0.0000)
  33 Cr     8.019004   10.023758    2.004754    ( 0.0000,  0.0000,  0.0000)
  34 Cr    10.023746    8.019004    2.004754    ( 0.0000,  0.0000,  0.0000)
  35 Cr    10.023746   10.023758   -0.000002    ( 0.0000,  0.0000,  0.0000)
  36 Fe    -0.000002   -0.000000    4.009496    ( 0.0000,  0.0000,  2.0000)
  37 Co    -0.000000    2.004754    6.014250    ( 0.0000,  0.0000,  2.1000)
  38 Cr     2.004754   -0.000000    6.014250    ( 0.0000,  0.0000,  0.0000)
  39 Fe     2.004754    2.004754    4.009496    ( 0.0000,  0.0000,  2.0000)
  40 Co     4.009496   -0.000002    4.009496    ( 0.0000,  0.0000,  2.1000)
  41 Ni     4.009496    2.004754    6.014250    ( 0.0000,  0.0000,  1.5000)
  42 Ni     6.014250    0.000000    6.014250    ( 0.0000,  0.0000,  1.5000)
  43 Al     6.014250    2.004742    4.009508    ( 0.0000,  0.0000,  0.0000)
  44 Fe     8.019004   -0.000001    4.009496    ( 0.0000,  0.0000,  2.0000)
  45 Co     8.019004    2.004754    6.014250    ( 0.0000,  0.0000,  2.1000)
  46 Fe    10.023746   -0.000000    6.014250    ( 0.0000,  0.0000,  2.0000)
  47 Ni    10.023746    2.004754    4.009496    ( 0.0000,  0.0000,  1.5000)
  48 Fe     0.000001    4.009496    4.009496    ( 0.0000,  0.0000,  2.0000)
  49 Fe     0.000000    6.014250    6.014250    ( 0.0000,  0.0000,  2.0000)
  50 Ni     2.004754    4.009496    6.014250    ( 0.0000,  0.0000,  1.5000)
  51 Ni     2.004754    6.014250    4.009496    ( 0.0000,  0.0000,  1.5000)
  52 Cr     4.009496    4.009496    4.009496    ( 0.0000,  0.0000,  0.0000)
  53 Co     4.009496    6.014250    6.014250    ( 0.0000,  0.0000,  2.1000)
  54 Fe     6.014250    4.009496    6.014250    ( 0.0000,  0.0000,  2.0000)
  55 Cr     6.014250    6.014250    4.009496    ( 0.0000,  0.0000,  0.0000)
  56 Co     8.019004    4.009496    4.009496    ( 0.0000,  0.0000,  2.1000)
  57 Fe     8.019004    6.014250    6.014250    ( 0.0000,  0.0000,  2.0000)
  58 Ni    10.023746    4.009496    6.014250    ( 0.0000,  0.0000,  1.5000)
  59 Fe    10.023746    6.014250    4.009496    ( 0.0000,  0.0000,  2.0000)
[...]
  93 Ni     8.019004    6.014250   10.023746    ( 0.0000,  0.0000,  1.5000)
  94 Co    10.023746    4.009496   10.023746    ( 0.0000,  0.0000,  2.1000)
  95 Cr    10.023746    6.014250    8.019004    ( 0.0000,  0.0000,  0.0000)
  96 Fe     0.000002    8.019004    8.019004    ( 0.0000,  0.0000,  2.0000)
  97 Ni     0.000002   10.023746   10.023746    ( 0.0000,  0.0000,  1.5000)
  98 Ni     2.004754    8.019004   10.023746    ( 0.0000,  0.0000,  1.5000)
  99 Fe     2.004754   10.023746    8.019004    ( 0.0000,  0.0000,  2.0000)
 100 Ni     4.009496    8.019004    8.019004    ( 0.0000,  0.0000,  1.5000)
 101 Cr     4.009496   10.023746   10.023746    ( 0.0000,  0.0000,  0.0000)
 102 Cr     6.014250    8.019004   10.023746    ( 0.0000,  0.0000,  0.0000)
 103 Cr     6.014250   10.023746    8.019004    ( 0.0000,  0.0000,  0.0000)
 104 Co     8.019004    8.019004    8.019004    ( 0.0000,  0.0000,  2.1000)
 105 Fe     8.019004   10.023746   10.023746    ( 0.0000,  0.0000,  2.0000)
 106 Cr    10.023746    8.019004   10.023746    ( 0.0000,  0.0000,  0.0000)
 107 Ni    10.023746   10.023746    8.019004    ( 0.0000,  0.0000,  1.5000)

Unit cell:
           periodic     x           y           z      points  spacing
  1. axis:    yes   12.028500    0.000000    0.000000    54     0.2228
  2. axis:    yes    0.000000   12.028500    0.000000    54     0.2228
  3. axis:    yes    0.000000    0.000000   12.028500    54     0.2228

  Lengths:  12.028500  12.028500  12.028500
  Angles:   90.000000  90.000000  90.000000

Effective grid spacing dv^(1/3) = 0.2228

     iter     time        total  log10-change:  magmom
                         energy  eigst   dens
iter:   1 07:00:38 -1069.829990                  +143.7772
iter:   2 07:01:54  -911.141201  +0.08  -1.15    +77.4212
iter:   3 07:03:09  -919.124578  -0.43  -1.05    +85.2757
iter:   4 07:04:23  -821.800900  -1.09  -1.14    +81.8139
iter:   5 07:05:37  -813.107871  -1.73  -1.32    +85.0435
iter:   6 07:06:50  -819.187324  -1.71  -1.35    +95.3612
iter:   7 07:08:04  -817.335381  -1.27  -1.33    +100.7591
iter:   8 07:09:22  -811.499146  -1.49  -1.36    +106.3237
iter:   9 07:10:34  -823.395258  -1.14  -1.45    +108.1120
iter:  10 07:11:47  -815.117573  -1.52  -1.47    +106.3248
iter:  11 07:12:59  -808.288604  -1.69  -1.53    +104.0790
iter:  12 07:14:12  -808.944834  -1.78  -1.58    +105.5694
iter:  13 07:15:24  -803.809859  -2.02  -1.61    +102.9845
iter:  14 07:16:37  -803.700067  -2.24  -1.76    +100.2897
iter:  15 07:17:49  -804.091147  -2.52  -1.80    +97.1557
iter:  16 07:19:01  -806.220224  -2.58  -1.86    +94.4398
iter:  17 07:20:13  -807.820129  -2.52  -1.89    +91.7523
iter:  18 07:21:26  -808.171284  -2.64  -1.87    +88.8042
iter:  19 07:22:39  -809.759474  -2.63  -1.97    +86.5832
iter:  20 07:23:51  -811.002904  -2.60  -2.00    +84.9913
iter:  21 07:25:04  -811.553376  -2.69  -2.01    +83.8027
iter:  22 07:26:16  -812.382478  -2.86  -2.07    +82.2204
iter:  23 07:27:28  -813.397617  -2.83  -2.12    +82.3228
iter:  24 07:28:42  -813.702509  -3.05  -2.10    +81.7057
iter:  25 07:29:54  -814.428633  -3.10  -2.12    +82.2705
iter:  26 07:31:08  -815.987311  -2.59  -2.09    +84.3330
iter:  27 07:32:20  -815.776738  -3.02  -2.03    +83.9149
iter:  28 07:33:33  -816.053356  -2.79  -2.06    +85.8255
iter:  29 07:34:46  -815.815405  -2.98  -2.14    +86.9863
iter:  30 07:35:58  -815.406607  -2.80  -2.16    +87.7935
iter:  31 07:37:11  -815.184810  -2.77  -2.17    +87.9903
iter:  32 07:38:24  -815.396224  -3.10  -2.20    +87.9703
iter:  33 07:39:38  -815.401647  -3.26  -2.24    +87.8528
iter:  34 07:40:51  -815.555342  -3.16  -2.29    +88.2009
iter:  35 07:42:04  -815.432178  -3.28  -2.28    +88.4465
iter:  36 07:43:17  -815.385525  -3.54  -2.33    +88.5246
iter:  37 07:44:30  -815.502741  -3.30  -2.37    +88.5613
iter:  38 07:45:42  -815.521898  -3.27  -2.35    +88.7498
iter:  39 07:46:56  -815.375415  -3.37  -2.34    +88.9152
iter:  40 07:48:09  -815.386262  -3.37  -2.42    +88.8189
iter:  41 07:49:22  -815.555305  -3.24  -2.42    +88.8151
iter:  42 07:50:35  -815.260624  -3.42  -2.38    +89.0357
iter:  43 07:51:48  -815.231370  -3.81  -2.55    +89.2414
iter:  44 07:53:00  -815.237405c -3.95  -2.56    +89.1862
iter:  45 07:54:13  -815.201445c -4.18  -2.58    +89.1751
iter:  46 07:55:26  -815.222504c -4.09  -2.63    +89.2508
iter:  47 07:56:38  -815.259256c -3.99  -2.61    +89.2765
iter:  48 07:57:50  -815.247117c -3.71  -2.62    +89.2216
iter:  49 07:59:03  -815.328386c -3.67  -2.62    +89.2159
iter:  50 08:00:16  -815.277964c -3.76  -2.60    +89.4033
iter:  51 08:01:30  -815.215195  -3.73  -2.69    +89.5264
iter:  52 08:02:43  -815.212492c -4.01  -2.73    +89.4698
iter:  53 08:03:56  -815.184184c -4.36  -2.75    +89.4158
iter:  54 08:05:08  -815.241179c -3.88  -2.96    +89.4495
iter:  55 08:06:22  -815.170974c -4.40  -2.77    +89.4195
iter:  56 08:07:35  -815.180511c -4.45  -3.13    +89.4631
iter:  57 08:08:49  -815.168320c -4.92  -3.05    +89.4503
iter:  58 08:10:01  -815.169490c -4.99  -3.23    +89.4539
iter:  59 08:11:14  -815.167489c -5.43  -3.23    +89.4550
iter:  60 08:12:27  -815.171841c -5.20  -3.30    +89.4394
iter:  61 08:13:40  -815.168378c -5.39  -3.27    +89.4554
iter:  62 08:14:53  -815.171403c -4.99  -3.36    +89.4656
iter:  63 08:16:08  -815.168377c -5.29  -3.40    +89.4544
iter:  64 08:17:21  -815.169794c -5.45  -3.49    +89.4545
iter:  65 08:18:34  -815.168814c -5.61  -3.55    +89.4533
iter:  66 08:19:47  -815.168108c -5.57  -3.62    +89.4583
iter:  67 08:21:01  -815.167848c -5.97  -3.58    +89.4414
iter:  68 08:22:14  -815.168100c -6.37  -3.74    +89.4405
iter:  69 08:23:28  -815.168374c -6.04  -3.80    +89.4407
iter:  70 08:24:38  -815.167948c -6.34  -3.73    +89.4403
iter:  71 08:25:48  -815.168171c -6.42  -3.91    +89.4392
iter:  72 08:26:59  -815.168210c -6.35  -3.93    +89.4392
iter:  73 08:28:12  -815.168734c -6.29  -3.97    +89.4395
iter:  74 08:29:24  -815.168306c -6.40  -3.95    +89.4400
iter:  75 08:30:37  -815.168349c -6.63  -4.06c   +89.4441
iter:  76 08:31:50  -815.168334c -6.95  -4.13c   +89.4443
iter:  77 08:33:03  -815.168313c -7.09  -4.18c   +89.4443
iter:  78 08:34:16  -815.168346c -7.24  -4.23c   +89.4445
iter:  79 08:35:28  -815.168321c -6.93  -4.25c   +89.4448
iter:  80 08:36:42  -815.168512c -6.77  -4.21c   +89.4449
iter:  81 08:37:55  -815.168423c -6.84  -4.19c   +89.4442
iter:  82 08:39:08  -815.168392c -6.95  -4.26c   +89.4452
iter:  83 08:40:21  -815.168374c -7.00  -4.32c   +89.4456
iter:  84 08:41:34  -815.168385c -7.65c -4.36c   +89.4456

Converged after 84 iterations.

Dipole moment: (0.086289, -0.192486, 0.004369) |e|*Ang

Total magnetic moment: (0.000000, 0.000000, 89.445567)
Local magnetic moments:
   0 Cr ( 0.000000,  0.000000, -3.185121)
   1 Al ( 0.000000,  0.000000, -0.028180)
   2 Cr ( 0.000000,  0.000000, -3.190338)
   3 Co ( 0.000000,  0.000000,  1.639081)
   4 Fe ( 0.000000,  0.000000,  2.820224)
   5 Cr ( 0.000000,  0.000000, -3.130762)
   6 Ni ( 0.000000,  0.000000,  0.380107)
   7 Fe ( 0.000000,  0.000000,  2.886246)
   8 Cr ( 0.000000,  0.000000, -3.128535)
   9 Co ( 0.000000,  0.000000,  1.778361)
  10 Ni ( 0.000000,  0.000000,  0.404856)
  11 Fe ( 0.000000,  0.000000,  2.997177)
  12 Co ( 0.000000,  0.000000,  1.870904)
  13 Co ( 0.000000,  0.000000,  1.770744)
  14 Fe ( 0.000000,  0.000000,  2.915842)
  15 Fe ( 0.000000,  0.000000,  3.064067)
  16 Fe ( 0.000000,  0.000000,  2.952125)
  17 Fe ( 0.000000,  0.000000,  2.920337)
  18 Cr ( 0.000000,  0.000000, -3.007889)
  19 Co ( 0.000000,  0.000000,  1.825407)
  20 Fe ( 0.000000,  0.000000,  3.057166)
  21 Ni ( 0.000000,  0.000000,  0.439722)
  22 Co ( 0.000000,  0.000000,  1.849562)
  23 Cr ( 0.000000,  0.000000, -3.168349)
  24 Cr ( 0.000000,  0.000000, -3.165934)
  25 Ni ( 0.000000,  0.000000,  0.306596)
  26 Fe ( 0.000000,  0.000000,  3.052798)
  27 Ni ( 0.000000,  0.000000,  0.550300)
  28 Co ( 0.000000,  0.000000,  1.840788)
  29 Co ( 0.000000,  0.000000,  1.861161)
  30 Co ( 0.000000,  0.000000,  1.817032)
  31 Cr ( 0.000000,  0.000000,  2.974757)
  32 Al ( 0.000000,  0.000000, -0.027541)
  33 Cr ( 0.000000,  0.000000, -3.150755)
  34 Cr ( 0.000000,  0.000000,  3.116211)
  35 Cr ( 0.000000,  0.000000,  3.001666)
  36 Fe ( 0.000000,  0.000000,  3.024402)
  37 Co ( 0.000000,  0.000000,  1.807809)
  38 Cr ( 0.000000,  0.000000, -3.167292)
  39 Fe ( 0.000000,  0.000000,  2.868585)
  40 Co ( 0.000000,  0.000000,  1.755962)
  41 Ni ( 0.000000,  0.000000,  0.377890)
  42 Ni ( 0.000000,  0.000000,  0.443180)
  43 Al ( 0.000000,  0.000000, -0.003644)
  44 Fe ( 0.000000,  0.000000,  2.952622)
  45 Co ( 0.000000,  0.000000,  1.811491)
  46 Fe ( 0.000000,  0.000000,  2.922069)
  47 Ni ( 0.000000,  0.000000,  0.718097)
  48 Fe ( 0.000000,  0.000000,  3.051036)
  49 Fe ( 0.000000,  0.000000,  3.032809)
  50 Ni ( 0.000000,  0.000000,  0.654099)
  51 Ni ( 0.000000,  0.000000,  0.621322)
  52 Cr ( 0.000000,  0.000000, -3.070270)
  53 Co ( 0.000000,  0.000000,  1.894235)
  54 Fe ( 0.000000,  0.000000,  2.984675)
  55 Cr ( 0.000000,  0.000000, -3.227970)
  56 Co ( 0.000000,  0.000000,  1.806307)
  57 Fe ( 0.000000,  0.000000,  3.082347)
  58 Ni ( 0.000000,  0.000000,  0.643679)
  59 Fe ( 0.000000,  0.000000,  3.051093)
[...]
  93 Ni ( 0.000000,  0.000000,  0.418705)
  94 Co ( 0.000000,  0.000000,  1.861691)
  95 Cr ( 0.000000,  0.000000, -3.273464)
  96 Fe ( 0.000000,  0.000000,  3.084901)
  97 Ni ( 0.000000,  0.000000,  0.480447)
  98 Ni ( 0.000000,  0.000000,  0.640123)
  99 Fe ( 0.000000,  0.000000,  3.021102)
 100 Ni ( 0.000000,  0.000000,  0.651748)
 101 Cr ( 0.000000,  0.000000, -3.137033)
 102 Cr ( 0.000000,  0.000000, -3.187600)
 103 Cr ( 0.000000,  0.000000,  3.037164)
 104 Co ( 0.000000,  0.000000,  1.796234)
 105 Fe ( 0.000000,  0.000000,  2.730491)
 106 Cr ( 0.000000,  0.000000,  3.052150)
 107 Ni ( 0.000000,  0.000000,  0.439880)

Energy contributions relative to reference atoms: (reference = -3699400.456887)

Kinetic:       -360.408734
Potential:     +213.019438
External:        +0.000000
XC:            -697.484036
Entropy (-ST):   -5.191186
Local:          +32.300541
Free energy:   -817.763978
Extrapolated:  -815.168385

Spin contamination: 73.287091 electrons
Showing only first 2 kpts
                      Up                     Down
 Kpt  Band  Eigenvalues  Occupancy  Eigenvalues  Occupancy
  0   508      5.25076    0.99987      6.49120    0.03090
  0   509      5.26388    0.99985      6.50693    0.02652
  0   510      5.27214    0.99984      6.51415    0.02472
  0   511      5.28598    0.99982      6.51905    0.02357

  1   508      5.24391    0.99988      6.49335    0.03026
  1   509      5.26070    0.99986      6.50822    0.02619
  1   510      5.26382    0.99985      6.51338    0.02491
  1   511      5.28226    0.99982      6.52328    0.02261

Fermi level: 6.14665

No gap

Forces in eV/Ang:
  0 Cr   -0.28722   -0.32107   -0.55252
  1 Al   -0.29836    0.30172    0.10197
  2 Cr    0.24453   -0.61204    0.33555
  3 Co    0.10254    0.13814   -0.07717
  4 Fe   -0.34842    0.13660    0.21326
  5 Cr   -0.10079   -0.30387   -0.50574
  6 Ni   -0.07044    0.06669    0.06755
  7 Fe    0.23724    0.09543    0.08139
  8 Cr    0.22362    0.30147   -0.09823
  9 Co    0.30310    0.06993   -0.03564
 10 Ni   -0.02416    0.02127    0.19532
 11 Fe   -0.28890    0.13970   -0.05839
 12 Co    0.01293    0.03922   -0.18062
 13 Co    0.19903   -0.41796    0.09286
 14 Fe   -0.13512    0.20732   -0.18788
 15 Fe    0.02557   -0.04147   -0.26638
 16 Fe    0.02896    0.19925   -0.24801
 17 Fe    0.06673    0.10875    0.08751
 18 Cr    0.57768    0.12138   -0.71316
 19 Co   -0.35526   -0.00314    0.03633
 20 Fe   -0.03504    0.05784   -0.04312
 21 Ni   -0.03295   -0.08289    0.12389
 22 Co   -0.04221    0.02592    0.09315
 23 Cr   -0.07451   -0.51462   -0.05398
 24 Cr    0.39566    0.44872   -0.07555
 25 Ni    0.00112    0.08112    0.06855
 26 Fe    0.06255    0.11345    0.18758
 27 Ni    0.10006   -0.08428    0.03442
 28 Co   -0.19603   -0.29955    0.18830
 29 Co   -0.06906   -0.09051    0.21080
 30 Co   -0.20217   -0.18469    0.18418
 31 Cr   -0.17549   -0.04658    0.35170
 32 Al   -0.32617   -0.46038    0.02519
 33 Cr    0.00063   -0.12650    0.51348
 34 Cr    0.07999   -0.36534    0.02474
 35 Cr    0.21792    0.76187    0.16707
 36 Fe   -0.17006   -0.13584    0.24258
 37 Co   -0.11425    0.23028   -0.27724
 38 Cr   -0.02004   -0.39312   -0.36261
 39 Fe    0.13393    0.06432    0.27483
 40 Co    0.02968   -0.38737    0.07609
 41 Ni    0.07552    0.05735    0.01537
 42 Ni    0.00004    0.09723   -0.12062
 43 Al    0.13053   -0.33433    0.15292
 44 Fe    0.21548    0.29469   -0.06460
 45 Co   -0.02418    0.22178   -0.12433
 46 Fe   -0.03312    0.12125   -0.27263
 47 Ni   -0.09525   -0.00384    0.05082
 48 Fe   -0.08345   -0.01079    0.21658
 49 Fe    0.14861   -0.24432    0.09676
 50 Ni   -0.00869    0.10981   -0.01025
 51 Ni    0.10581   -0.01489    0.01636
 52 Cr   -0.91848    0.17837    0.66669
 53 Co   -0.10977    0.10071    0.12044
 54 Fe    0.00279   -0.04640    0.40049
 55 Cr    0.43685    0.73692    0.21534
 56 Co    0.20385   -0.01569    0.07451
 57 Fe    0.06105    0.09918    0.13134
 58 Ni   -0.04782   -0.03653   -0.17881
 59 Fe   -0.11598   -0.29147    0.01858
[...]
 93 Ni   -0.13211   -0.06764   -0.01897
 94 Co    0.01692   -0.14757    0.16880
 95 Cr    0.00163   -0.14301    0.08954
 96 Fe    0.26312    0.11162   -0.19107
 97 Ni    0.13881   -0.02410   -0.17716
 98 Ni    0.07013   -0.08614   -0.15438
 99 Fe    0.22618   -0.52662   -0.05915
100 Ni   -0.15463   -0.07759   -0.10675
101 Cr   -0.53102    0.15823   -0.01183
102 Cr    0.32821   -0.37429   -0.28171
103 Cr   -0.16651   -0.36342   -0.24168
104 Co   -0.05714   -0.09365   -0.00725
105 Fe    0.46642    0.01009   -0.48102
106 Cr    0.11596   -0.28841   -0.10310
107 Ni   -0.04918   -0.02709   -0.00011

Date: Sat Apr  8 08:41:52 2023