User:   c.zeng@d0135
Date:   Sat Apr  8 06:01:39 2023
Arch:   x86_64
Pid:    96183
CWD:    /home/c.zeng/projects/hea-corrosion/hea-mlp/data-curation/volume/dft-jobs/17
Python: 3.8.1
gpaw:   /home/c.zeng/usr/installs/gpaw/source/gpaw-22.8.0/gpaw
_gpaw:  /home/c.zeng/usr/installs/gpaw/source/gpaw-22.8.0/
        _gpaw.cpython-38-x86_64-linux-gnu.so
ase:    /home/c.zeng/.local/lib/python3.8/site-packages/ase-3.22.1-py3.8.egg/ase (version 3.22.1)
numpy:  /shared/centos7/python/3.8.1/lib/python3.8/site-packages/numpy (version 1.17.4)
scipy:  /shared/centos7/python/3.8.1/lib/python3.8/site-packages/scipy (version 1.4.1)
units:  Angstrom and eV
cores: 64
OpenMP: False
OMP_NUM_THREADS: 1

Input parameters:
  convergence: {energy: 0.0001}
  kpts: [2 2 2]
  maxiter: 666
  mode: {ecut: 350.0,
         name: pw}
  occupations: {fixmagmom: False,
                name: fermi-dirac,
                width: 0.1}
  spinpol: True
  xc: PBE

System changes: positions, numbers, cell, pbc, initial_charges, initial_magmoms

Initialize ...

species:
  Co:
    name: Cobalt
    id: 339d20d5b0b93d2de9531a1bee871d91
    Z: 27.0
    valence: 9
    core: 18
    charge: 0.0
    file: /home/c.zeng/usr/data/gpaw-setups-0.9.20000/Co.PBE.gz
    compensation charges: {type: gauss,
                           rc: 0.32,
                           lmax: 2}
    cutoffs: {filter: 1.87,
              core: 2.55}
    valence states:
      #              energy  rcut
      - 4s(2.00)    -5.469   1.005
      - 4p(0.00)    -1.277   1.058
      - 3d(7.00)    -8.205   1.005
      -  s          21.742   1.005
      -  p          25.934   1.058
      -  d          19.007   1.005

    # Using partial waves for Co as LCAO basis

  Fe:
    name: Iron
    id: 37abbd8d6c3c35915a9b583b742da910
    Z: 26.0
    valence: 8
    core: 18
    charge: 0.0
    file: /home/c.zeng/usr/data/gpaw-setups-0.9.20000/Fe.PBE.gz
    compensation charges: {type: gauss,
                           rc: 0.33,
                           lmax: 2}
    cutoffs: {filter: 2.06,
              core: 2.67}
    valence states:
      #              energy  rcut
      - 4s(2.00)    -5.291   1.164
      - 4p(0.00)    -1.326   1.058
      - 3d(6.00)    -7.505   1.058
      -  s          21.920   1.164
      -  p          25.885   1.058
      -  d          19.706   1.058

[...]

  Cr:
    name: Chromium
    id: 33f258bda2ca9f93018e70263a35547b
    Z: 24.0
    valence: 6
    core: 18
    charge: 0.0
    file: /home/c.zeng/usr/data/gpaw-setups-0.9.20000/Cr.PBE.gz
    compensation charges: {type: gauss,
                           rc: 0.35,
                           lmax: 2}
    cutoffs: {filter: 2.14,
              core: 3.04}
    valence states:
      #              energy  rcut
      - 4s(1.00)    -4.007   1.164
      - 4p(0.00)    -0.989   1.217
      - 3d(5.00)    -2.913   1.111
      -  s          23.205   1.164
      -  p          26.223   1.217
      -  d          24.299   1.111

[...]

  Ni:
    name: Nickel
    id: 0d9f38a9d6e76a2886f07bb4381f212b
    Z: 28.0
    valence: 16
    core: 12
    charge: 0.0
    file: /home/c.zeng/usr/data/gpaw-setups-0.9.20000/Ni.PBE.gz
    compensation charges: {type: gauss,
                           rc: 0.36,
                           lmax: 2}
    cutoffs: {filter: 2.14,
              core: 1.98}
    valence states:
      #              energy  rcut
      - 4s(2.00)    -5.642   1.164
      - 3p(6.00)   -71.394   1.207
      - 4p(0.00)    -1.226   1.207
      - 3d(8.00)    -8.875   1.138
      -  s          21.570   1.164
      -  d          18.337   1.138

    # Using partial waves for Ni as LCAO basis

Reference energy: -3846758.590871  # eV

Spin-polarized calculation.
Magnetic moment: 151.200000

Convergence criteria:
 Maximum [total energy] change in last 3 cyles: 0.0001 eV / electron
 Maximum integral of absolute [dens]ity change: 0.0001 electrons / valence electron
 Maximum integral of absolute [eigenst]ate change: 4e-08 eV^2 / valence electron
 Maximum number of scf [iter]ations: 666
 (Square brackets indicate name in SCF output, whereas a 'c' in
 the SCF output indicates the quantity has converged.)

Symmetries present (total): 1

  ( 1  0  0)
  ( 0  1  0)
  ( 0  0  1)

8 k-points: 2 x 2 x 2 Monkhorst-Pack grid
4 k-points in the irreducible part of the Brillouin zone
       k-points in crystal coordinates                weights
   0:     0.25000000   -0.25000000   -0.25000000          2/8
   1:     0.25000000   -0.25000000    0.25000000          2/8
   2:     0.25000000    0.25000000   -0.25000000          2/8
   3:     0.25000000    0.25000000    0.25000000          2/8

Wave functions: Plane wave expansion
  Cutoff energy: 350.000 eV
  Number of coefficients (min, max): 17755, 17755
  Pulay-stress correction: 0.000000 eV/Ang^3 (de/decut=0.000000)
  Using FFTW library
  ScaLapack parameters: grid=1x1, blocksize=None
  Wavefunction extrapolation:
    Improved wavefunction reuse through dual PAW basis

Occupation numbers: Fermi-Dirac:
  width: 0.1000  # eV

Eigensolver
   Davidson(niter=2)

Densities:
  Coarse grid: 48*48*48 grid
  Fine grid: 96*96*96 grid
  Total Charge: 0.000000

Density mixing:
  Method: difference
  Backend: pulay
  Linear mixing parameter: 0.05
  old densities: 5
  Damping of long wavelength oscillations: 50

Hamiltonian:
  XC and Coulomb potentials evaluated on a 96*96*96 grid
  Using the PBE Exchange-Correlation functional
  External potential:
    NoExternalPotential

XC parameters: PBE with 2 nearest neighbor stencil

Total number of cores used: 64
Parallelization over k-points: 4
Domain decomposition: 4 x 2 x 2

Number of atoms: 108
Number of atomic orbitals: 1053
Number of bands in calculation: 727
Number of valence electrons: 1053
Bands to converge: occupied

... initialized

Initializing position-dependent things.

Density initialized from atomic densities
Creating initial wave functions:
  727 bands from LCAO basis set

       /|  Cr       Co      Cr    |
      / |   FeFe     Fe           |
     /  |       Cr      Co       Co
    /   |Fe      CCr     NiCr     Co
   /    | Fe       Fe       CCr   |
  /  CFe|  CrFe     CoNi          |
 *    NiCr    CoNi   CrNiNi       |
 |      |NiCo   NiCoFe  CoCrCo   Fe
 |      | FeCr     CoNiCoFeCrCr   |
 |    Cr|  NiFeCr   NiFeNi   NiNi |
 |      Fe    FeFe   CoFeCo     Ni|
 |      |CoCo  CrNiFe   NiNiNi   Co
 |      .-CrCo-----CoNiNi--NiCr---Co
 |   Cr/     Co       Ni         /
 |    FeCr     Fei     CCoo     /
 |   /    Fe               Fe  /
 |  /      Cr       Ni    CrCo/
 | / Fe     Ni       CoNi    /
 |/            Cr       Co  /
 *--------Cr------Fe-------*

Positions:
   0 Co    -0.012293   -0.003643   10.616204    ( 0.0000,  0.0000,  2.1000)
   1 Co    -0.011329    1.761247    1.763328    ( 0.0000,  0.0000,  2.1000)
   2 Fe     1.758031    0.001288    1.769091    ( 0.0000,  0.0000,  2.0000)
   3 Fe     1.752215    1.779260   10.610515    ( 0.0000,  0.0000,  2.0000)
   4 Cr     3.541346    0.004640   10.616417    ( 0.0000,  0.0000,  0.0000)
   5 Cr     3.534861    1.782476    1.779016    ( 0.0000,  0.0000,  0.0000)
   6 Co     5.305894   10.600633    1.768104    ( 0.0000,  0.0000,  2.1000)
   7 Cr     5.325117    1.765674   10.614718    ( 0.0000,  0.0000,  0.0000)
   8 Fe     7.089135    0.014590   10.619601    ( 0.0000,  0.0000,  2.0000)
   9 Ni     7.085590    1.771204    1.773411    ( 0.0000,  0.0000,  1.5000)
  10 Ni     8.850563    0.011341    1.768900    ( 0.0000,  0.0000,  1.5000)
  11 Co     8.842167    1.777222   10.615780    ( 0.0000,  0.0000,  2.1000)
  12 Cr    10.590507    3.538193   -0.001806    ( 0.0000,  0.0000,  0.0000)
  13 Fe    10.624059    5.310724    1.769856    ( 0.0000,  0.0000,  2.0000)
  14 Cr     1.761162    3.535742    1.784567    ( 0.0000,  0.0000,  0.0000)
  15 Fe     1.770227    5.301638   10.611757    ( 0.0000,  0.0000,  2.0000)
  16 Ni     3.556142    3.551589   10.618540    ( 0.0000,  0.0000,  1.5000)
  17 Co     3.539499    5.311361    1.774972    ( 0.0000,  0.0000,  2.1000)
  18 Ni     5.320489    3.545252    1.779419    ( 0.0000,  0.0000,  1.5000)
  19 Cr     5.307115    5.314651   10.603053    ( 0.0000,  0.0000,  0.0000)
  20 Co     7.081949    3.529065   10.614931    ( 0.0000,  0.0000,  2.1000)
  21 Ni     7.069551    5.303485    1.781234    ( 0.0000,  0.0000,  1.5000)
  22 Co     8.841424    3.542694    1.781638    ( 0.0000,  0.0000,  2.1000)
  23 Cr     8.850817    5.290610    0.000192    ( 0.0000,  0.0000,  0.0000)
  24 Fe     0.005786    7.083456   10.614931    ( 0.0000,  0.0000,  2.0000)
  25 Co    10.601068    8.849905    1.773274    ( 0.0000,  0.0000,  2.1000)
  26 Cr     1.773677    7.072449    1.777201    ( 0.0000,  0.0000,  0.0000)
  27 Cr     1.755526    8.843080   10.608668    ( 0.0000,  0.0000,  0.0000)
  28 Fe     3.544000    7.062960   10.610706    ( 0.0000,  0.0000,  2.0000)
  29 Cr     3.542386    8.826861    1.785692    ( 0.0000,  0.0000,  0.0000)
  30 Co     5.310034    7.081832    1.776713    ( 0.0000,  0.0000,  2.1000)
  31 Co     5.332038    8.840564   10.604645    ( 0.0000,  0.0000,  2.1000)
  32 Cr     7.068755    7.069084   10.623210    ( 0.0000,  0.0000,  0.0000)
  33 Ni     7.083934    8.846646    1.774706    ( 0.0000,  0.0000,  1.5000)
  34 Ni     8.841328    7.058438    1.777243    ( 0.0000,  0.0000,  1.5000)
  35 Cr     8.835458    8.853577   10.611704    ( 0.0000,  0.0000,  0.0000)
  36 Fe    -0.009298   10.618646    3.530965    ( 0.0000,  0.0000,  2.0000)
  37 Ni    10.602438    1.764984    5.300683    ( 0.0000,  0.0000,  1.5000)
  38 Cr     1.756885    0.001389    5.295885    ( 0.0000,  0.0000,  0.0000)
  39 Fe     1.766533    1.767266    3.539021    ( 0.0000,  0.0000,  2.0000)
  40 Fe     3.539955    0.014200    3.542970    ( 0.0000,  0.0000,  2.0000)
  41 Co     3.549169    1.789036    5.306001    ( 0.0000,  0.0000,  2.1000)
  42 Cr     5.320107   -0.004408    5.301351    ( 0.0000,  0.0000,  0.0000)
  43 Fe     5.316986    1.765461    3.539149    ( 0.0000,  0.0000,  2.0000)
  44 Fe     7.081015   -0.000246    3.531602    ( 0.0000,  0.0000,  2.0000)
  45 Fe     7.072905    1.777413    5.300449    ( 0.0000,  0.0000,  2.0000)
  46 Ni     8.840585    0.012298    5.308070    ( 0.0000,  0.0000,  1.5000)
  47 Co     8.833442    1.767945    3.534500    ( 0.0000,  0.0000,  2.1000)
  48 Cr    -0.004302    3.525435    3.545963    ( 0.0000,  0.0000,  0.0000)
  49 Ni    -0.001813    5.317846    5.307869    ( 0.0000,  0.0000,  1.5000)
  50 Fe     1.769060    3.555399    5.297106    ( 0.0000,  0.0000,  2.0000)
  51 Co     1.773741    5.305799    3.538385    ( 0.0000,  0.0000,  2.1000)
  52 Co     3.542747    3.537514    3.547662    ( 0.0000,  0.0000,  2.1000)
  53 Fe     3.548394    5.306828    5.300693    ( 0.0000,  0.0000,  2.0000)
  54 Fe     5.316392    3.553043    5.303474    ( 0.0000,  0.0000,  2.0000)
  55 Ni     5.303474    5.303506    3.542407    ( 0.0000,  0.0000,  1.5000)
  56 Ni     7.075283    3.533088    3.537259    ( 0.0000,  0.0000,  1.5000)
  57 Fe     7.066102    5.306181    5.300375    ( 0.0000,  0.0000,  2.0000)
  58 Co     8.834588    3.538098    5.294579    ( 0.0000,  0.0000,  2.1000)
  59 Ni     8.846370    5.300534    3.537663    ( 0.0000,  0.0000,  1.5000)
[...]
  93 Ni     7.071494    5.304143    8.839333    ( 0.0000,  0.0000,  1.5000)
  94 Ni     8.837878    3.524777    8.843409    ( 0.0000,  0.0000,  1.5000)
  95 Cr     8.833760    5.299176    7.076981    ( 0.0000,  0.0000,  0.0000)
  96 Ni     0.012235    7.080251    7.083987    ( 0.0000,  0.0000,  1.5000)
  97 Co    -0.016968    8.848864    8.843876    ( 0.0000,  0.0000,  2.1000)
  98 Fe     1.777891    7.075198    8.840320    ( 0.0000,  0.0000,  2.0000)
  99 Cr     1.759082    8.840023    7.069647    ( 0.0000,  0.0000,  0.0000)
 100 Co     3.549997    7.066218    7.070103    ( 0.0000,  0.0000,  2.1000)
 101 Cr     3.553383    8.839035    8.836775    ( 0.0000,  0.0000,  0.0000)
 102 Fe     5.304048    7.080006    8.840076    ( 0.0000,  0.0000,  2.0000)
 103 Co     5.321795    8.832168    7.083212    ( 0.0000,  0.0000,  2.1000)
 104 Ni     7.057196    7.072141    7.064170    ( 0.0000,  0.0000,  1.5000)
 105 Co     7.082204    8.855827    8.837348    ( 0.0000,  0.0000,  2.1000)
 106 Cr     8.846879    7.078043    8.846667    ( 0.0000,  0.0000,  0.0000)
 107 Cr     8.839301    8.848450    7.075166    ( 0.0000,  0.0000,  0.0000)

Unit cell:
           periodic     x           y           z      points  spacing
  1. axis:    yes   10.614400    0.000000    0.000000    48     0.2211
  2. axis:    yes    0.000000   10.614400    0.000000    48     0.2211
  3. axis:    yes    0.000000    0.000000   10.614400    48     0.2211

  Lengths:  10.614400  10.614400  10.614400
  Angles:   90.000000  90.000000  90.000000

Effective grid spacing dv^(1/3) = 0.2211

     iter     time        total  log10-change:  magmom
                         energy  eigst   dens
iter:   1 06:04:14 -1089.748347                  +151.4728
iter:   2 06:05:18  -955.053462  -0.28  -1.20    +84.6182
iter:   3 06:06:21  -948.443401  -0.91  -1.24    +69.2223
iter:   4 06:07:24  -934.707472  -1.20  -1.29    +65.0511
iter:   5 06:08:27  -911.429541  -1.58  -1.29    +59.0328
iter:   6 06:09:30  -908.424804  -1.32  -1.38    +58.7703
iter:   7 06:10:33  -909.115602  -1.22  -1.48    +57.3870
iter:   8 06:11:37  -889.033326  -1.64  -1.55    +55.7368
iter:   9 06:12:40  -888.289006  -2.28  -1.83    +56.7197
iter:  10 06:13:43  -888.692680  -2.41  -1.86    +58.3997
iter:  11 06:14:46  -888.516549  -2.68  -1.89    +59.7137
iter:  12 06:15:50  -889.009560  -2.71  -1.92    +61.0761
iter:  13 06:16:53  -890.753925  -2.51  -1.96    +62.3471
iter:  14 06:17:57  -890.770491  -2.40  -1.98    +63.0566
iter:  15 06:19:00  -890.796546c -2.51  -2.03    +63.6426
iter:  16 06:20:04  -890.254884  -2.63  -2.07    +63.7388
iter:  17 06:21:07  -890.021671  -2.83  -2.14    +64.5553
iter:  18 06:22:10  -889.765860  -2.95  -2.19    +65.3665
iter:  19 06:23:14  -889.818266  -3.17  -2.25    +65.5647
iter:  20 06:24:18  -889.654487  -3.31  -2.27    +65.8542
iter:  21 06:25:21  -889.687349  -3.30  -2.35    +66.1932
iter:  22 06:26:26  -889.609592c -3.53  -2.35    +66.7427
iter:  23 06:27:29  -889.763516  -3.44  -2.41    +66.8159
iter:  24 06:28:32  -889.702011  -3.45  -2.40    +66.8940
iter:  25 06:29:36  -889.901409  -3.31  -2.45    +67.2044
iter:  26 06:30:39  -889.719930  -3.45  -2.41    +67.3967
iter:  27 06:31:43  -889.863523  -3.46  -2.52    +67.5243
iter:  28 06:32:46  -889.715335  -3.66  -2.46    +67.3633
iter:  29 06:33:50  -889.718378  -3.73  -2.57    +67.5328
iter:  30 06:34:53  -889.677293c -4.06  -2.58    +67.5982
iter:  31 06:35:56  -889.723405c -4.08  -2.64    +67.6104
iter:  32 06:37:00  -889.721681c -4.14  -2.64    +67.5333
iter:  33 06:38:03  -889.768497c -3.90  -2.67    +67.4913
iter:  34 06:39:06  -889.779756c -4.01  -2.64    +67.5934
iter:  35 06:40:11  -889.828345c -3.79  -2.67    +67.5301
iter:  36 06:41:14  -889.798423c -3.95  -2.64    +67.4609
iter:  37 06:42:18  -889.782138c -3.97  -2.69    +67.3801
iter:  38 06:43:21  -889.753347c -4.18  -2.72    +67.4285
iter:  39 06:44:24  -889.753644c -4.46  -2.78    +67.4534
iter:  40 06:45:27  -889.747460c -4.73  -2.80    +67.3458
iter:  41 06:46:31  -889.763833c -4.54  -2.84    +67.3123
iter:  42 06:47:34  -889.771849c -4.51  -2.82    +67.2882
iter:  43 06:48:38  -889.807736c -4.33  -2.84    +67.2771
iter:  44 06:49:36  -889.817036c -4.09  -2.83    +67.2036
iter:  45 06:50:34  -889.827014c -4.08  -2.79    +67.1208
iter:  46 06:51:36  -889.801306c -4.18  -2.80    +67.1856
iter:  47 06:52:40  -889.793719c -4.35  -2.86    +67.1617
iter:  48 06:53:44  -889.778197c -4.65  -2.91    +67.1191
iter:  49 06:54:50  -889.773328c -5.07  -2.97    +67.0419
iter:  50 06:55:55  -889.780549c -4.88  -3.02    +67.0242
iter:  51 06:57:00  -889.787771c -5.04  -3.01    +66.9987
iter:  52 06:58:05  -889.801566c -4.52  -3.02    +66.9392
iter:  53 06:59:10  -889.822265c -4.36  -2.97    +66.9228
iter:  54 07:00:14  -889.824451c -4.24  -2.95    +66.9034
iter:  55 07:01:18  -889.805521c -4.45  -2.94    +66.9145
iter:  56 07:02:21  -889.799593c -4.49  -3.09    +66.8646
iter:  57 07:03:25  -889.786824c -5.02  -3.07    +66.8311
iter:  58 07:04:29  -889.784078c -5.23  -3.23    +66.8209
iter:  59 07:05:33  -889.785100c -5.99  -3.28    +66.8033
iter:  60 07:06:37  -889.792392c -5.23  -3.32    +66.7793
iter:  61 07:07:41  -889.793085c -5.01  -3.25    +66.7571
iter:  62 07:08:45  -889.807074c -4.75  -3.25    +66.7472
iter:  63 07:09:49  -889.793687c -4.91  -3.21    +66.7546
iter:  64 07:10:53  -889.800523c -4.84  -3.36    +66.7178
iter:  65 07:11:58  -889.790067c -5.21  -3.24    +66.7148
iter:  66 07:13:02  -889.789090c -5.65  -3.52    +66.6944
iter:  67 07:14:07  -889.789046c -6.16  -3.60    +66.6926
iter:  68 07:15:11  -889.789467c -6.66  -3.70    +66.6708
iter:  69 07:16:16  -889.791857c -5.81  -3.72    +66.6168
iter:  70 07:17:21  -889.790406c -6.06  -3.66    +66.6335
iter:  71 07:18:24  -889.793089c -5.82  -3.89    +66.6173
iter:  72 07:19:28  -889.791065c -6.07  -3.74    +66.6106
iter:  73 07:20:31  -889.791297c -6.53  -4.31c   +66.5951
iter:  74 07:21:35  -889.791527c -6.97  -4.26c   +66.5927
iter:  75 07:22:39  -889.791745c -7.00  -4.53c   +66.5788
iter:  76 07:23:43  -889.792111c -6.90  -4.55c   +66.5593
iter:  77 07:24:48  -889.792714c -6.54  -4.55c   +66.5256
iter:  78 07:25:52  -889.794972c -5.38  -4.42c   +66.3855
iter:  79 07:26:56  -889.795163c -6.34  -4.08c   +66.3825
iter:  80 07:28:00  -889.795259c -6.80  -4.06c   +66.3793
iter:  81 07:29:03  -889.795338c -7.03  -4.07c   +66.3724
iter:  82 07:30:07  -889.795226c -7.08  -4.05c   +66.3705
iter:  83 07:31:11  -889.795126c -6.62  -4.01c   +66.3682
iter:  84 07:32:15  -889.795310c -6.30  -3.90    +66.3710
iter:  85 07:33:19  -889.795145c -6.25  -3.80    +66.3706
iter:  86 07:34:23  -889.796044c -5.91  -3.88    +66.3781
iter:  87 07:35:28  -889.796472c -5.83  -3.77    +66.3717
iter:  88 07:36:33  -889.795043c -6.27  -3.79    +66.3534
iter:  89 07:37:37  -889.794654c -6.78  -4.18c   +66.3517
iter:  90 07:38:40  -889.795090c -6.67  -4.11c   +66.3529
iter:  91 07:39:44  -889.794920c -6.91  -4.13c   +66.3502
iter:  92 07:40:48  -889.794878c -7.01  -4.23c   +66.3465
iter:  93 07:41:52  -889.794826c -7.03  -4.23c   +66.3479
iter:  94 07:42:57  -889.795096c -6.71  -4.37c   +66.3478
iter:  95 07:44:01  -889.794916c -6.84  -4.19c   +66.3449
iter:  96 07:45:05  -889.794728c -7.18  -4.34c   +66.3430
iter:  97 07:46:08  -889.794860c -7.11  -4.48c   +66.3450
iter:  98 07:47:12  -889.794900c -7.22  -4.36c   +66.3449
iter:  99 07:48:16  -889.794790c -7.55c -4.44c   +66.3417

Converged after 99 iterations.

Dipole moment: (7.046944, -1.357324, 1.047363) |e|*Ang

Total magnetic moment: (0.000000, 0.000000, 66.341696)
Local magnetic moments:
   0 Co ( 0.000000,  0.000000,  1.278708)
   1 Co ( 0.000000,  0.000000,  0.948008)
   2 Fe ( 0.000000,  0.000000,  1.947642)
   3 Fe ( 0.000000,  0.000000,  1.670095)
   4 Cr ( 0.000000,  0.000000,  0.615704)
   5 Cr ( 0.000000,  0.000000, -1.176432)
   6 Co ( 0.000000,  0.000000,  0.748364)
   7 Cr ( 0.000000,  0.000000, -1.362115)
   8 Fe ( 0.000000,  0.000000,  2.297809)
   9 Ni ( 0.000000,  0.000000,  0.443643)
  10 Ni ( 0.000000,  0.000000,  0.534464)
  11 Co ( 0.000000,  0.000000,  1.554359)
  12 Cr ( 0.000000,  0.000000, -0.469836)
  13 Fe ( 0.000000,  0.000000,  1.723315)
  14 Cr ( 0.000000,  0.000000, -0.763712)
  15 Fe ( 0.000000,  0.000000,  1.589271)
  16 Ni ( 0.000000,  0.000000,  0.109910)
  17 Co ( 0.000000,  0.000000,  1.088296)
  18 Ni ( 0.000000,  0.000000,  0.308256)
  19 Cr ( 0.000000,  0.000000, -1.737110)
  20 Co ( 0.000000,  0.000000,  1.238250)
  21 Ni ( 0.000000,  0.000000,  0.268450)
  22 Co ( 0.000000,  0.000000,  1.234164)
  23 Cr ( 0.000000,  0.000000, -1.136861)
  24 Fe ( 0.000000,  0.000000,  1.709854)
  25 Co ( 0.000000,  0.000000,  1.167472)
  26 Cr ( 0.000000,  0.000000, -1.102831)
  27 Cr ( 0.000000,  0.000000, -0.941432)
  28 Fe ( 0.000000,  0.000000,  1.739760)
  29 Cr ( 0.000000,  0.000000, -1.270665)
  30 Co ( 0.000000,  0.000000,  1.205328)
  31 Co ( 0.000000,  0.000000,  0.690503)
  32 Cr ( 0.000000,  0.000000,  0.950889)
  33 Ni ( 0.000000,  0.000000,  0.399533)
  34 Ni ( 0.000000,  0.000000,  0.274911)
  35 Cr ( 0.000000,  0.000000, -1.623419)
  36 Fe ( 0.000000,  0.000000,  2.336780)
  37 Ni ( 0.000000,  0.000000,  0.260674)
  38 Cr ( 0.000000,  0.000000, -0.988961)
  39 Fe ( 0.000000,  0.000000,  1.658827)
  40 Fe ( 0.000000,  0.000000,  2.083564)
  41 Co ( 0.000000,  0.000000,  0.490410)
  42 Cr ( 0.000000,  0.000000, -1.417620)
  43 Fe ( 0.000000,  0.000000,  2.112312)
  44 Fe ( 0.000000,  0.000000,  2.485280)
  45 Fe ( 0.000000,  0.000000,  2.238408)
  46 Ni ( 0.000000,  0.000000,  0.478810)
  47 Co ( 0.000000,  0.000000,  1.498490)
  48 Cr ( 0.000000,  0.000000, -1.395616)
  49 Ni ( 0.000000,  0.000000,  0.182345)
  50 Fe ( 0.000000,  0.000000,  1.942267)
  51 Co ( 0.000000,  0.000000,  1.097944)
  52 Co ( 0.000000,  0.000000,  1.040919)
  53 Fe ( 0.000000,  0.000000,  2.218882)
  54 Fe ( 0.000000,  0.000000,  2.103376)
  55 Ni ( 0.000000,  0.000000,  0.518549)
  56 Ni ( 0.000000,  0.000000,  0.483591)
  57 Fe ( 0.000000,  0.000000,  2.240068)
  58 Co ( 0.000000,  0.000000,  1.168931)
  59 Ni ( 0.000000,  0.000000,  0.360667)
[...]
  93 Ni ( 0.000000,  0.000000,  0.198554)
  94 Ni ( 0.000000,  0.000000,  0.139472)
  95 Cr ( 0.000000,  0.000000, -1.229138)
  96 Ni ( 0.000000,  0.000000,  0.182496)
  97 Co ( 0.000000,  0.000000,  0.662580)
  98 Fe ( 0.000000,  0.000000,  1.764099)
  99 Cr ( 0.000000,  0.000000, -1.275225)
 100 Co ( 0.000000,  0.000000,  1.183252)
 101 Cr ( 0.000000,  0.000000, -1.029715)
 102 Fe ( 0.000000,  0.000000,  2.099522)
 103 Co ( 0.000000,  0.000000,  1.174553)
 104 Ni ( 0.000000,  0.000000,  0.230396)
 105 Co ( 0.000000,  0.000000,  0.941109)
 106 Cr ( 0.000000,  0.000000,  1.115464)
 107 Cr ( 0.000000,  0.000000, -1.396479)

Energy contributions relative to reference atoms: (reference = -3846758.590871)

Kinetic:       +121.956224
Potential:     -188.860225
External:        +0.000000
XC:            -860.584373
Entropy (-ST):   -4.705337
Local:          +40.046254
Free energy:   -892.147458
Extrapolated:  -889.794790

Spin contamination: 29.611172 electrons
Showing only first 2 kpts
                      Up                     Down
 Kpt  Band  Eigenvalues  Occupancy  Eigenvalues  Occupancy
  0   524      9.82019    0.99464     10.70672    0.02552
  0   525      9.83870    0.99355     10.71737    0.02300
  0   526      9.84370    0.99323     10.73114    0.02011
  0   527      9.85524    0.99240     10.74067    0.01831

  1   524      9.81606    0.99485     10.70641    0.02560
  1   525      9.82377    0.99444     10.71521    0.02350
  1   526      9.83766    0.99362     10.72588    0.02117
  1   527      9.84586    0.99308     10.74664    0.01727

Fermi level: 10.34249

No gap

Forces in eV/Ang:
  0 Co    0.09911   -0.14752   -0.09310
  1 Co   -0.10977    0.31921    0.01472
  2 Fe   -0.13406   -0.07285   -0.10188
  3 Fe    0.00873    0.12508    0.07780
  4 Cr    0.06074   -0.08122   -0.13070
  5 Cr    0.09310   -0.29133    0.30104
  6 Co   -0.03589    0.00528   -0.06952
  7 Cr   -0.08389   -0.01333   -0.19178
  8 Fe   -0.31065   -0.36598    0.19479
  9 Ni    0.01334    0.10371   -0.08778
 10 Ni   -0.06476    0.03776   -0.07416
 11 Co    0.26846   -0.02069    0.18632
 12 Cr    0.00965   -0.07613   -0.23549
 13 Fe    0.06854   -0.11510    0.06210
 14 Cr    0.19986    0.44845   -0.25498
 15 Fe    0.03297   -0.10166    0.23126
 16 Ni   -0.18685   -0.19821   -0.00053
 17 Co   -0.06152   -0.08653    0.08880
 18 Ni   -0.04843   -0.13679   -0.12627
 19 Cr    0.00685    0.06712    0.32866
 20 Co   -0.01789    0.08977    0.04302
 21 Ni    0.24347   -0.00550   -0.12103
 22 Co    0.14181   -0.24957   -0.29137
 23 Cr   -0.02546    0.17255   -0.01748
 24 Fe    0.12795    0.13460    0.11516
 25 Co    0.12778   -0.09338   -0.10930
 26 Cr   -0.12102   -0.47278   -0.13798
 27 Cr   -0.68885    0.30565   -0.05874
 28 Fe    0.06444    0.38846    0.39506
 29 Cr    0.58833    0.30226   -0.15765
 30 Co   -0.17132    0.02521   -0.17066
 31 Co   -0.34177   -0.13666    0.33596
 32 Cr    0.01770    0.17110    0.33258
 33 Ni   -0.14777    0.03259   -0.07008
 34 Ni   -0.01109    0.15350   -0.18799
 35 Cr    0.26116   -0.27448    0.00017
 36 Fe   -0.14744    0.04184   -0.03191
 37 Ni    0.01540    0.06075    0.03441
 38 Cr    0.21401    0.41728    0.02526
 39 Fe    0.02666    0.36478    0.10595
 40 Fe    0.02084   -0.41116    0.01739
 41 Co   -0.03675    0.04032   -0.01340
 42 Cr   -0.31773   -0.11705   -0.05344
 43 Fe   -0.17182    0.26945   -0.19941
 44 Fe    0.07254   -0.24708   -0.04702
 45 Fe    0.18212    0.24110    0.37595
 46 Ni    0.03525   -0.17561   -0.01047
 47 Co    0.16023    0.15303   -0.10970
 48 Cr   -0.13437   -0.05946   -0.07501
 49 Ni   -0.05059   -0.06237   -0.06633
 50 Fe   -0.11416   -0.28773    0.01628
 51 Co   -0.02972   -0.13226   -0.12378
 52 Co   -0.14828   -0.02185   -0.31842
 53 Fe    0.13440   -0.06335    0.17603
 54 Fe   -0.28846   -0.15915    0.24276
 55 Ni   -0.08059    0.07894   -0.10989
 56 Ni    0.04193   -0.03464    0.10562
 57 Fe    0.12548   -0.10238    0.15059
 58 Co    0.02009    0.02815    0.09803
 59 Ni    0.08100    0.05439    0.11229
[...]
 93 Ni    0.05159   -0.22358   -0.03140
 94 Ni    0.14449    0.16290    0.10875
 95 Cr    0.08041    0.15322    0.04239
 96 Ni   -0.34360    0.02153    0.02482
 97 Co    0.25371    0.11348   -0.10187
 98 Fe   -0.28917    0.24540   -0.04940
 99 Cr   -0.15960    0.17849    0.18776
100 Co    0.15256    0.34764    0.19921
101 Cr    0.69592   -0.21000    0.21264
102 Fe    0.14444    0.18039   -0.21321
103 Co   -0.11979    0.10737   -0.20900
104 Ni    0.30590    0.18401    0.13468
105 Co   -0.11102    0.04086   -0.25706
106 Cr   -0.03751   -0.10601   -0.45898
107 Cr    0.02475    0.04804    0.27608

Date: Sat Apr  8 07:48:30 2023