User:   c.zeng@d0066
Date:   Fri Apr 14 00:27:21 2023
Arch:   x86_64
Pid:    60658
CWD:    /home/c.zeng/projects/hea-corrosion/hea-mlp/data-curation/bulk-md/dft-jobs/64
Python: 3.8.1
gpaw:   /home/c.zeng/usr/installs/gpaw/source/gpaw-22.8.0/gpaw
_gpaw:  /home/c.zeng/usr/installs/gpaw/source/gpaw-22.8.0/
        _gpaw.cpython-38-x86_64-linux-gnu.so
ase:    /home/c.zeng/.local/lib/python3.8/site-packages/ase-3.22.1-py3.8.egg/ase (version 3.22.1)
numpy:  /shared/centos7/python/3.8.1/lib/python3.8/site-packages/numpy (version 1.17.4)
scipy:  /shared/centos7/python/3.8.1/lib/python3.8/site-packages/scipy (version 1.4.1)
units:  Angstrom and eV
cores: 30
OpenMP: False
OMP_NUM_THREADS: 1

Input parameters:
  convergence: {energy: 0.0001}
  kpts: [2 2 2]
  maxiter: 666
  mode: {ecut: 350.0,
         name: pw}
  occupations: {fixmagmom: False,
                name: fermi-dirac,
                width: 0.1}
  spinpol: True
  xc: PBE

System changes: positions, numbers, cell, pbc, initial_charges, initial_magmoms

Initialize ...

species:
  Fe:
    name: Iron
    id: 37abbd8d6c3c35915a9b583b742da910
    Z: 26.0
    valence: 8
    core: 18
    charge: 0.0
    file: /home/c.zeng/usr/data/gpaw-setups-0.9.20000/Fe.PBE.gz
    compensation charges: {type: gauss,
                           rc: 0.33,
                           lmax: 2}
    cutoffs: {filter: 2.06,
              core: 2.67}
    valence states:
      #              energy  rcut
      - 4s(2.00)    -5.291   1.164
      - 4p(0.00)    -1.326   1.058
      - 3d(6.00)    -7.505   1.058
      -  s          21.920   1.164
      -  p          25.885   1.058
      -  d          19.706   1.058

    # Using partial waves for Fe as LCAO basis

  Cr:
    name: Chromium
    id: 33f258bda2ca9f93018e70263a35547b
    Z: 24.0
    valence: 6
    core: 18
    charge: 0.0
    file: /home/c.zeng/usr/data/gpaw-setups-0.9.20000/Cr.PBE.gz
    compensation charges: {type: gauss,
                           rc: 0.35,
                           lmax: 2}
    cutoffs: {filter: 2.14,
              core: 3.04}
    valence states:
      #              energy  rcut
      - 4s(1.00)    -4.007   1.164
      - 4p(0.00)    -0.989   1.217
      - 3d(5.00)    -2.913   1.111
      -  s          23.205   1.164
      -  p          26.223   1.217
      -  d          24.299   1.111

[...]

  Ni:
    name: Nickel
    id: 0d9f38a9d6e76a2886f07bb4381f212b
    Z: 28.0
    valence: 16
    core: 12
    charge: 0.0
    file: /home/c.zeng/usr/data/gpaw-setups-0.9.20000/Ni.PBE.gz
    compensation charges: {type: gauss,
                           rc: 0.36,
                           lmax: 2}
    cutoffs: {filter: 2.14,
              core: 1.98}
    valence states:
      #              energy  rcut
      - 4s(2.00)    -5.642   1.164
      - 3p(6.00)   -71.394   1.207
      - 4p(0.00)    -1.226   1.207
      - 3d(8.00)    -8.875   1.138
      -  s          21.570   1.164
      -  d          18.337   1.138

[...]

  Al:
    name: Aluminium
    id: 0292cae29f5d6237e50f6abdd43a7bdd
    Z: 13.0
    valence: 3
    core: 10
    charge: 0.0
    file: /home/c.zeng/usr/data/gpaw-setups-0.9.20000/Al.PBE.gz
    compensation charges: {type: gauss,
                           rc: 0.34,
                           lmax: 2}
    cutoffs: {filter: 1.91,
              core: 2.36}
    valence states:
      #              energy  rcut
      - 3s(2.00)    -7.753   1.085
      - 3p(1.00)    -2.712   1.085
      -  s          19.459   1.085
      -  p          24.499   1.085
      -  d           0.000   1.085

[...]

  Co:
    name: Cobalt
    id: 339d20d5b0b93d2de9531a1bee871d91
    Z: 27.0
    valence: 9
    core: 18
    charge: 0.0
    file: /home/c.zeng/usr/data/gpaw-setups-0.9.20000/Co.PBE.gz
    compensation charges: {type: gauss,
                           rc: 0.32,
                           lmax: 2}
    cutoffs: {filter: 1.87,
              core: 2.55}
    valence states:
      #              energy  rcut
      - 4s(2.00)    -5.469   1.005
      - 4p(0.00)    -1.277   1.058
      - 3d(7.00)    -8.205   1.005
      -  s          21.742   1.005
      -  p          25.934   1.058
      -  d          19.007   1.005

    # Using partial waves for Co as LCAO basis

Reference energy: -3382523.201499  # eV

Spin-polarized calculation.
Magnetic moment: 128.800000

Convergence criteria:
 Maximum [total energy] change in last 3 cyles: 0.0001 eV / electron
 Maximum integral of absolute [dens]ity change: 0.0001 electrons / valence electron
 Maximum integral of absolute [eigenst]ate change: 4e-08 eV^2 / valence electron
 Maximum number of scf [iter]ations: 666
 (Square brackets indicate name in SCF output, whereas a 'c' in
 the SCF output indicates the quantity has converged.)

Symmetries present (total): 1

  ( 1  0  0)
  ( 0  1  0)
  ( 0  0  1)

8 k-points: 2 x 2 x 2 Monkhorst-Pack grid
4 k-points in the irreducible part of the Brillouin zone
       k-points in crystal coordinates                weights
   0:     0.25000000   -0.25000000   -0.25000000          2/8
   1:     0.25000000   -0.25000000    0.25000000          2/8
   2:     0.25000000    0.25000000   -0.25000000          2/8
   3:     0.25000000    0.25000000    0.25000000          2/8

Wave functions: Plane wave expansion
  Cutoff energy: 350.000 eV
  Number of coefficients (min, max): 18865, 18865
  Pulay-stress correction: 0.000000 eV/Ang^3 (de/decut=0.000000)
  Using FFTW library
  ScaLapack parameters: grid=1x1, blocksize=None
  Wavefunction extrapolation:
    Improved wavefunction reuse through dual PAW basis

Occupation numbers: Fermi-Dirac:
  width: 0.1000  # eV

Eigensolver
   Davidson(niter=2)

Densities:
  Coarse grid: 48*48*48 grid
  Fine grid: 96*96*96 grid
  Total Charge: 0.000000

Density mixing:
  Method: difference
  Backend: pulay
  Linear mixing parameter: 0.05
  old densities: 5
  Damping of long wavelength oscillations: 50

Hamiltonian:
  XC and Coulomb potentials evaluated on a 96*96*96 grid
  Using the PBE Exchange-Correlation functional
  External potential:
    NoExternalPotential

XC parameters: PBE with 2 nearest neighbor stencil

Total number of cores used: 30
Parallelization over k-points: 2
Domain decomposition: 5 x 3 x 1

Number of atoms: 108
Number of atomic orbitals: 961
Number of bands in calculation: 649
Number of valence electrons: 945
Bands to converge: occupied

... initialized

Initializing position-dependent things.

Density initialized from atomic densities
Creating initial wave functions:
  649 bands from LCAO basis set

        .--------------------------Fe
      / |  Al  Cr       Ni    Ni Ni|
     /  |       Al       Ni        |
    /  Fe          Cr      AlCo    |
   /    | CoCoFe Fe  CrCr    FNi   |
  /  FeCr           CoFeACo        |
 *      Co    Cr Nio      Fe     Ni|
 |      |CrFe   Cr  Al   FeCrCo   Co
 |    Co|   NiCr   AlAl    CCrNi  Ni
 |   CrCo  NiFe Fe  Ni NiNi  Cr    |
 |      Co  NiAl FeCo   AlCoFe NFe |
 |Co    |Al     CrFeCo   CrCo     Cr
 |      .-CAlAl--AlFe-NiCo--CoNi---.
 |    Co     Cr     Fe Fe    Ni   /
 |    Cr        Ni       Ni    Cr/
 |   / FeCFe     Coe      Co    /
 |  /      Fe        Co      Cr/
 | /          Ni              /
 |/             Al           /
 *------------------Al------*

Positions:
   0 Fe    10.769459   10.519018   10.764478    ( 0.0000,  0.0000,  2.0000)
   1 Cr    10.667257    1.840158    1.711238    ( 0.0000,  0.0000,  0.0000)
   2 Ni     1.517688   -0.174541    1.866068    ( 0.0000,  0.0000,  1.5000)
   3 Cr     1.930063    1.655909   10.755375    ( 0.0000,  0.0000,  0.0000)
   4 Al     3.490229   -0.215871    0.425189    ( 0.0000,  0.0000,  0.0000)
   5 Fe     3.598937    1.916613    1.774148    ( 0.0000,  0.0000,  2.0000)
   6 Ni     5.358556   10.931099    1.965490    ( 0.0000,  0.0000,  1.5000)
   7 Al     5.365777    1.924416    0.028958    ( 0.0000,  0.0000,  0.0000)
   8 Al     7.440681   10.946664    0.145679    ( 0.0000,  0.0000,  0.0000)
   9 Co     7.549686    1.796786    1.884313    ( 0.0000,  0.0000,  2.1000)
  10 Ni     9.191870   -0.140468    1.757434    ( 0.0000,  0.0000,  1.5000)
  11 Co     9.132266    1.875784   -0.245530    ( 0.0000,  0.0000,  2.1000)
  12 Ni    -0.088012    3.638209   10.754084    ( 0.0000,  0.0000,  1.5000)
  13 Cr    10.771034    5.316571    1.656833    ( 0.0000,  0.0000,  0.0000)
  14 Fe     1.670725    3.524188    1.698251    ( 0.0000,  0.0000,  2.0000)
  15 Cr     1.867405    5.471184   10.950091    ( 0.0000,  0.0000,  0.0000)
  16 Co     3.440889    3.645990   10.660955    ( 0.0000,  0.0000,  2.1000)
  17 Cr     3.481437    5.565090    1.693251    ( 0.0000,  0.0000,  0.0000)
  18 Co     5.643934    3.601761    1.734006    ( 0.0000,  0.0000,  2.1000)
  19 Fe     5.391009    5.495509    0.161714    ( 0.0000,  0.0000,  2.0000)
  20 Cr     7.141249    3.600436   -0.248867    ( 0.0000,  0.0000,  0.0000)
  21 Fe     7.282503    5.415913    1.679342    ( 0.0000,  0.0000,  2.0000)
  22 Co     8.991536    3.644748    1.607599    ( 0.0000,  0.0000,  2.1000)
  23 Al     9.023537    5.484522   10.660204    ( 0.0000,  0.0000,  0.0000)
  24 Ni    10.768128    7.203446   10.719086    ( 0.0000,  0.0000,  1.5000)
  25 Cr    10.740860    8.839128    1.939864    ( 0.0000,  0.0000,  0.0000)
  26 Cr     1.588610    7.137444    1.662497    ( 0.0000,  0.0000,  0.0000)
  27 Al     1.628612    8.882761   -0.209480    ( 0.0000,  0.0000,  0.0000)
  28 Cr     3.679905    7.238526   -0.044028    ( 0.0000,  0.0000,  0.0000)
  29 Cr     3.655082    8.914005    2.115597    ( 0.0000,  0.0000,  0.0000)
  30 Fe     5.540238    7.097788    1.865151    ( 0.0000,  0.0000,  2.0000)
  31 Fe     5.285101    8.937802    0.213014    ( 0.0000,  0.0000,  2.0000)
  32 Ni     7.261022    7.282505   -0.123677    ( 0.0000,  0.0000,  1.5000)
  33 Cr     7.209466    9.001047    1.619767    ( 0.0000,  0.0000,  0.0000)
  34 Co     8.974370    7.263138    1.909901    ( 0.0000,  0.0000,  2.1000)
  35 Ni     9.062508    8.918994   10.827647    ( 0.0000,  0.0000,  1.5000)
  36 Ni    -0.233627   10.712676    3.764071    ( 0.0000,  0.0000,  1.5000)
  37 Co    10.876977    1.784090    5.294660    ( 0.0000,  0.0000,  2.1000)
  38 Co     1.812370   10.956546    5.284355    ( 0.0000,  0.0000,  2.1000)
  39 Cr     1.628878    1.872599    3.538444    ( 0.0000,  0.0000,  0.0000)
  40 Fe     3.606797   10.877024    3.475832    ( 0.0000,  0.0000,  2.0000)
  41 Al     3.742672    1.698403    5.273348    ( 0.0000,  0.0000,  0.0000)
  42 Fe     5.524612   10.644500    5.515692    ( 0.0000,  0.0000,  2.0000)
  43 Ni     5.550412    1.608091    3.541168    ( 0.0000,  0.0000,  1.5000)
  44 Cr     7.446471   -0.086093    3.382589    ( 0.0000,  0.0000,  0.0000)
  45 Co     7.197784    1.791372    5.355976    ( 0.0000,  0.0000,  2.1000)
  46 Co     9.175613   10.829479    5.462933    ( 0.0000,  0.0000,  2.1000)
  47 Ni     9.083578    1.713094    3.635696    ( 0.0000,  0.0000,  1.5000)
  48 Ni    10.744413    3.578208    3.673864    ( 0.0000,  0.0000,  1.5000)
  49 Cr    10.884052    5.403603    5.648533    ( 0.0000,  0.0000,  0.0000)
  50 Co     1.723432    3.433713    5.432915    ( 0.0000,  0.0000,  2.1000)
  51 Al     1.686651    5.259749    3.444752    ( 0.0000,  0.0000,  0.0000)
[...]
 103 Co     5.262570    8.978787    7.152847    ( 0.0000,  0.0000,  2.1000)
 104 Al     7.414825    7.484116    7.334838    ( 0.0000,  0.0000,  0.0000)
 105 Ni     7.162732    9.124693    8.916733    ( 0.0000,  0.0000,  1.5000)
 106 Co     9.193931    7.203386    9.087801    ( 0.0000,  0.0000,  2.1000)
 107 Fe     8.877198    9.194229    7.414328    ( 0.0000,  0.0000,  2.0000)

Unit cell:
           periodic     x           y           z      points  spacing
  1. axis:    yes   10.820500    0.000000    0.000000    48     0.2254
  2. axis:    yes    0.000000   10.820500    0.000000    48     0.2254
  3. axis:    yes    0.000000    0.000000   10.820500    48     0.2254

  Lengths:  10.820500  10.820500  10.820500
  Angles:   90.000000  90.000000  90.000000

Effective grid spacing dv^(1/3) = 0.2254

     iter     time        total  log10-change:  magmom
                         energy  eigst   dens
iter:   1 00:32:07  -974.975888                  +129.0866
iter:   2 00:34:16  -870.896377  -0.21  -1.18    +72.2416
iter:   3 00:36:26  -856.116610  -0.84  -1.20    +61.9280
iter:   4 00:38:36  -838.229183  -1.24  -1.27    +58.0457
iter:   5 00:40:45  -830.201400  -1.54  -1.29    +55.7862
iter:   6 00:42:54  -829.671525  -1.33  -1.34    +55.8996
iter:   7 00:45:03  -822.609772  -1.25  -1.39    +54.1646
iter:   8 00:47:34  -814.422252  -1.58  -1.51    +53.6760
iter:   9 00:49:47  -813.054453  -1.88  -1.66    +54.7425
iter:  10 00:51:17  -810.868036  -2.37  -1.72    +55.9806
iter:  11 00:52:46  -811.519382  -2.48  -1.81    +58.0324
iter:  12 00:54:16  -813.138130  -2.35  -1.84    +59.3152
iter:  13 00:55:46  -812.064072  -2.37  -1.84    +60.3098
iter:  14 00:57:16  -812.640832  -2.45  -1.95    +61.3911
iter:  15 00:58:46  -812.055478  -2.65  -1.94    +62.1938
iter:  16 01:00:17  -811.725197  -2.87  -2.03    +62.5616
iter:  17 01:01:49  -811.742875  -3.07  -2.09    +63.5452
iter:  18 01:03:21  -811.800541c -3.07  -2.14    +63.9473
iter:  19 01:04:53  -811.968561  -3.01  -2.21    +64.5836
iter:  20 01:06:25  -811.867648  -3.11  -2.23    +64.7655
iter:  21 01:07:57  -811.846858  -3.26  -2.31    +65.0861
iter:  22 01:09:29  -811.821284c -3.38  -2.35    +65.2678
iter:  23 01:11:01  -811.817397c -3.51  -2.41    +65.3729
iter:  24 01:12:33  -811.857707c -3.54  -2.48    +65.4327
iter:  25 01:14:04  -811.847235c -3.69  -2.49    +65.5544
iter:  26 01:15:36  -811.881847c -3.76  -2.56    +65.7828
iter:  27 01:17:08  -811.885064c -3.95  -2.57    +65.8554
iter:  28 01:18:40  -811.908999c -3.92  -2.61    +65.9431
iter:  29 01:20:12  -811.921071c -4.16  -2.65    +66.0346
iter:  30 01:21:44  -811.939884c -4.16  -2.68    +66.0286
iter:  31 01:23:16  -811.973368c -4.15  -2.72    +66.1715
iter:  32 01:24:48  -811.990732c -4.28  -2.74    +66.1972
iter:  33 01:26:20  -811.997772c -4.29  -2.76    +66.2545
iter:  34 01:27:52  -812.014948c -4.39  -2.80    +66.2709
iter:  35 01:29:23  -812.035051c -4.37  -2.84    +66.3382
iter:  36 01:30:56  -812.042173c -4.47  -2.86    +66.2830
iter:  37 01:32:28  -812.052349c -4.46  -2.90    +66.3688
iter:  38 01:34:00  -812.063177c -4.51  -2.95    +66.3379
iter:  39 01:35:31  -812.066514c -4.73  -2.97    +66.3554
iter:  40 01:37:03  -812.074652c -4.66  -3.01    +66.3757
iter:  41 01:38:36  -812.083019c -4.68  -3.05    +66.3897
iter:  42 01:40:08  -812.085741c -4.81  -3.05    +66.3611
iter:  43 01:41:40  -812.089322c -4.88  -3.10    +66.4126
iter:  44 01:43:12  -812.094265c -4.90  -3.14    +66.3988
iter:  45 01:44:44  -812.095312c -5.05  -3.15    +66.3965
iter:  46 01:46:16  -812.096564c -5.05  -3.19    +66.4083
iter:  47 01:47:48  -812.098719c -5.25  -3.25    +66.4194
iter:  48 01:49:20  -812.100159c -5.29  -3.27    +66.4061
iter:  49 01:50:52  -812.101071c -5.41  -3.30    +66.4244
iter:  50 01:52:24  -812.103714c -5.27  -3.34    +66.4256
iter:  51 01:53:56  -812.103505c -5.40  -3.34    +66.4222
iter:  52 01:55:28  -812.104519c -5.46  -3.38    +66.4340
iter:  53 01:57:00  -812.106062c -5.58  -3.43    +66.4433
iter:  54 01:58:32  -812.107183c -5.58  -3.44    +66.4389
iter:  55 02:00:04  -812.107983c -5.66  -3.48    +66.4467
iter:  56 02:01:37  -812.109615c -5.58  -3.51    +66.4435
iter:  57 02:03:09  -812.109984c -5.78  -3.53    +66.4384
iter:  58 02:04:41  -812.111383c -5.71  -3.56    +66.4438
iter:  59 02:06:13  -812.112657c -5.82  -3.61    +66.4433
iter:  60 02:07:46  -812.113799c -5.77  -3.62    +66.4383
iter:  61 02:09:18  -812.114559c -5.91  -3.66    +66.4430
iter:  62 02:10:50  -812.115947c -5.87  -3.71    +66.4355
iter:  63 02:12:22  -812.116658c -6.04  -3.72    +66.4319
iter:  64 02:13:54  -812.117899c -5.89  -3.73    +66.4307
iter:  65 02:15:26  -812.119269c -5.81  -3.83    +66.4204
iter:  66 02:16:58  -812.119748c -6.06  -3.81    +66.4171
iter:  67 02:18:30  -812.120966c -6.02  -3.90    +66.4206
iter:  68 02:20:02  -812.122418c -5.89  -3.92    +66.4083
iter:  69 02:21:35  -812.126817c -5.13  -3.93    +66.3942
iter:  70 02:23:07  -812.131376c -5.00  -3.83    +66.3914
iter:  71 02:24:40  -812.129664c -6.02  -3.70    +66.4002
iter:  72 02:26:12  -812.131761c -5.58  -3.76    +66.4056
iter:  73 02:27:44  -812.131811c -6.11  -3.71    +66.4047
iter:  74 02:29:17  -812.133697c -5.74  -3.72    +66.4180
iter:  75 02:30:49  -812.132928c -5.49  -3.59    +66.4346
iter:  76 02:32:22  -812.133039c -5.99  -3.66    +66.4365
iter:  77 02:33:54  -812.135447c -5.43  -3.79    +66.4367
iter:  78 02:35:27  -812.133738c -5.88  -3.66    +66.4318
iter:  79 02:36:59  -812.134456c -6.14  -3.83    +66.4431
iter:  80 02:38:32  -812.134949c -6.33  -3.89    +66.4401
iter:  81 02:40:04  -812.137488c -5.31  -3.88    +66.4388
iter:  82 02:41:37  -812.135718c -5.75  -3.67    +66.4387
iter:  83 02:43:09  -812.137245c -5.75  -3.72    +66.4369
iter:  84 02:44:42  -812.139999c -5.28  -3.71    +66.4425
iter:  85 02:46:15  -812.136650c -5.11  -3.63    +66.4261
iter:  86 02:47:47  -812.138893c -5.47  -3.75    +66.4424
iter:  87 02:49:21  -812.138006c -6.44  -3.64    +66.4431
iter:  88 02:50:54  -812.138936c -6.08  -3.72    +66.4397
iter:  89 02:52:27  -812.139275c -5.50  -3.67    +66.4402
iter:  90 02:54:00  -812.139012c -5.77  -3.55    +66.4477
iter:  91 02:55:33  -812.141661c -5.45  -3.70    +66.4535
iter:  92 02:57:06  -812.139785c -5.70  -3.58    +66.4650
iter:  93 02:58:39  -812.140392c -5.91  -3.73    +66.4774
iter:  94 03:00:12  -812.140299c -6.22  -3.74    +66.4787
iter:  95 03:01:45  -812.140853c -5.84  -3.85    +66.4963
iter:  96 03:03:18  -812.141635c -5.79  -4.04c   +66.5232
iter:  97 03:04:51  -812.141457c -6.32  -3.95    +66.5202
iter:  98 03:06:24  -812.142166c -6.19  -4.04c   +66.5385
iter:  99 03:07:57  -812.142369c -6.49  -4.09c   +66.5502
iter: 100 03:09:30  -812.142878c -6.38  -4.11c   +66.5742
iter: 101 03:11:03  -812.143366c -6.39  -4.14c   +66.5931
iter: 102 03:12:36  -812.143899c -6.58  -4.18c   +66.6044
iter: 103 03:14:09  -812.144262c -6.64  -4.19c   +66.6179
iter: 104 03:15:42  -812.145529c -5.85  -4.24c   +66.6528
iter: 105 03:17:15  -812.144833c -6.48  -4.22c   +66.6314
iter: 106 03:18:49  -812.143986c -6.17  -4.33c   +66.6070
iter: 107 03:20:22  -812.145732c -5.70  -4.32c   +66.6590
iter: 108 03:21:55  -812.146993c -5.72  -4.32c   +66.6990
iter: 109 03:23:28  -812.146709c -6.78  -4.40c   +66.6909
iter: 110 03:25:01  -812.147592c -6.22  -4.40c   +66.7122
iter: 111 03:26:35  -812.148564c -5.94  -4.32c   +66.7351
iter: 112 03:28:08  -812.145510c -5.13  -4.24c   +66.6517
iter: 113 03:29:41  -812.148092c -5.37  -4.24c   +66.7234
iter: 114 03:31:14  -812.148211c -6.41  -4.38c   +66.7260
iter: 115 03:32:48  -812.148662c -6.34  -4.37c   +66.7393
iter: 116 03:34:21  -812.148705c -7.02  -4.32c   +66.7383
iter: 117 03:35:54  -812.148995c -6.60  -4.34c   +66.7430
iter: 118 03:37:28  -812.149215c -6.63  -4.28c   +66.7521
iter: 119 03:39:01  -812.149515c -6.69  -4.25c   +66.7630
iter: 120 03:40:35  -812.150090c -6.39  -4.35c   +66.7766
iter: 121 03:42:08  -812.150259c -6.85  -4.29c   +66.7796
iter: 122 03:43:41  -812.151052c -6.19  -4.25c   +66.7903
iter: 123 03:45:15  -812.151085c -6.59  -4.09c   +66.7889
iter: 124 03:46:48  -812.151556c -6.40  -4.14c   +66.7977
iter: 125 03:48:21  -812.151246c -6.91  -4.06c   +66.7905
iter: 126 03:49:55  -812.152042c -6.18  -4.05c   +66.8136
iter: 127 03:51:28  -812.154482c -4.93  -3.99    +66.8979
iter: 128 03:53:01  -812.153641c -6.14  -3.79    +66.8723
iter: 129 03:54:35  -812.153740c -6.53  -3.91    +66.8778
iter: 130 03:56:08  -812.154275c -6.40  -3.97    +66.8804
iter: 131 03:57:41  -812.154263c -5.83  -3.86    +66.8791
iter: 132 03:59:15  -812.153993c -6.19  -3.74    +66.8959
iter: 133 04:00:48  -812.154658c -5.96  -4.03c   +66.8975
iter: 134 04:02:22  -812.154151c -6.60  -3.86    +66.8988
iter: 135 04:03:55  -812.154317c -6.72  -4.13c   +66.8937
iter: 136 04:05:29  -812.154590c -6.58  -4.14c   +66.9052
iter: 137 04:07:02  -812.154823c -6.53  -4.15c   +66.9139
iter: 138 04:08:36  -812.155045c -6.65  -4.15c   +66.9180
iter: 139 04:10:09  -812.155394c -6.36  -4.10c   +66.9264
iter: 140 04:11:42  -812.155387c -6.45  -4.00    +66.9194
iter: 141 04:13:16  -812.155360c -6.30  -3.97    +66.9288
iter: 142 04:14:49  -812.155283c -6.63  -4.11c   +66.9325
iter: 143 04:16:23  -812.155620c -6.26  -4.26c   +66.9424
iter: 144 04:17:56  -812.155228c -6.08  -4.02c   +66.9368
iter: 145 04:19:29  -812.155215c -6.77  -4.16c   +66.9330
iter: 146 04:21:03  -812.155221c -7.29  -4.47c   +66.9348
iter: 147 04:22:36  -812.155249c -7.44c -4.58c   +66.9364

Converged after 147 iterations.

Dipole moment: (50.735907, 20.236555, 24.931260) |e|*Ang

Total magnetic moment: (0.000000, 0.000000, 66.936402)
Local magnetic moments:
   0 Fe ( 0.000000,  0.000000,  2.265143)
   1 Cr ( 0.000000,  0.000000,  1.802127)
   2 Ni ( 0.000000,  0.000000,  0.044199)
   3 Cr ( 0.000000,  0.000000, -2.192747)
   4 Al ( 0.000000,  0.000000, -0.011677)
   5 Fe ( 0.000000,  0.000000,  2.158011)
   6 Ni ( 0.000000,  0.000000,  0.203436)
   7 Al ( 0.000000,  0.000000, -0.023204)
   8 Al ( 0.000000,  0.000000, -0.019038)
   9 Co ( 0.000000,  0.000000,  1.323958)
  10 Ni ( 0.000000,  0.000000,  0.034696)
  11 Co ( 0.000000,  0.000000,  1.097795)
  12 Ni ( 0.000000,  0.000000,  0.268260)
  13 Cr ( 0.000000,  0.000000,  1.029796)
  14 Fe ( 0.000000,  0.000000,  1.316274)
  15 Cr ( 0.000000,  0.000000, -0.682267)
  16 Co ( 0.000000,  0.000000,  0.901093)
  17 Cr ( 0.000000,  0.000000,  0.397692)
  18 Co ( 0.000000,  0.000000,  1.228352)
  19 Fe ( 0.000000,  0.000000,  1.885100)
  20 Cr ( 0.000000,  0.000000, -1.773351)
  21 Fe ( 0.000000,  0.000000,  2.192885)
  22 Co ( 0.000000,  0.000000,  1.126474)
  23 Al ( 0.000000,  0.000000, -0.018801)
  24 Ni ( 0.000000,  0.000000,  0.191398)
  25 Cr ( 0.000000,  0.000000, -0.387929)
  26 Cr ( 0.000000,  0.000000,  0.072656)
  27 Al ( 0.000000,  0.000000, -0.019914)
  28 Cr ( 0.000000,  0.000000, -0.800893)
  29 Cr ( 0.000000,  0.000000, -1.806342)
  30 Fe ( 0.000000,  0.000000,  1.730797)
  31 Fe ( 0.000000,  0.000000,  1.371989)
  32 Ni ( 0.000000,  0.000000,  0.273523)
  33 Cr ( 0.000000,  0.000000, -1.568189)
  34 Co ( 0.000000,  0.000000,  0.095675)
  35 Ni ( 0.000000,  0.000000,  0.271035)
  36 Ni ( 0.000000,  0.000000,  0.364454)
  37 Co ( 0.000000,  0.000000,  1.442513)
  38 Co ( 0.000000,  0.000000,  1.288461)
  39 Cr ( 0.000000,  0.000000, -1.901258)
  40 Fe ( 0.000000,  0.000000,  2.070345)
  41 Al ( 0.000000,  0.000000, -0.038656)
  42 Fe ( 0.000000,  0.000000,  2.077654)
  43 Ni ( 0.000000,  0.000000,  0.408663)
  44 Cr ( 0.000000,  0.000000,  0.630500)
  45 Co ( 0.000000,  0.000000,  1.560305)
  46 Co ( 0.000000,  0.000000,  1.470526)
  47 Ni ( 0.000000,  0.000000,  0.432295)
  48 Ni ( 0.000000,  0.000000,  0.253377)
  49 Cr ( 0.000000,  0.000000,  1.956925)
  50 Co ( 0.000000,  0.000000,  1.110029)
  51 Al ( 0.000000,  0.000000, -0.026829)
  52 Al ( 0.000000,  0.000000, -0.043991)
  53 Fe ( 0.000000,  0.000000,  2.148315)
  54 Fe ( 0.000000,  0.000000,  2.337105)
  55 Fe ( 0.000000,  0.000000,  2.206417)
  56 Ni ( 0.000000,  0.000000,  0.560516)
  57 Ni ( 0.000000,  0.000000,  0.199136)
  58 Co ( 0.000000,  0.000000,  1.297221)
  59 Co ( 0.000000,  0.000000,  1.073771)
[...]
  93 Cr ( 0.000000,  0.000000,  1.450709)
  94 Fe ( 0.000000,  0.000000,  1.752926)
  95 Cr ( 0.000000,  0.000000, -1.295734)
  96 Ni ( 0.000000,  0.000000,  0.223933)
  97 Fe ( 0.000000,  0.000000,  2.373817)
  98 Co ( 0.000000,  0.000000,  0.398219)
  99 Ni ( 0.000000,  0.000000,  0.427477)
 100 Cr ( 0.000000,  0.000000,  0.798918)
 101 Al ( 0.000000,  0.000000, -0.003082)
 102 Cr ( 0.000000,  0.000000,  0.600064)
 103 Co ( 0.000000,  0.000000,  0.426359)
 104 Al ( 0.000000,  0.000000, -0.023444)
 105 Ni ( 0.000000,  0.000000,  0.217296)
 106 Co ( 0.000000,  0.000000,  0.906552)
 107 Fe ( 0.000000,  0.000000,  2.127322)

Energy contributions relative to reference atoms: (reference = -3382523.201499)

Kinetic:       +402.998689
Potential:     -375.880202
External:        +0.000000
XC:            -870.457291
Entropy (-ST):   -4.192196
Local:          +33.279653
Free energy:   -814.251347
Extrapolated:  -812.155249

Spin contamination: 22.798487 electrons
Showing only first 2 kpts
                      Up                     Down
 Kpt  Band  Eigenvalues  Occupancy  Eigenvalues  Occupancy
  0   470      9.11435    0.99701     10.09822    0.01749
  0   471      9.12222    0.99677     10.11233    0.01522
  0   472      9.14502    0.99594     10.12837    0.01299
  0   473      9.16075    0.99526     10.14659    0.01085

  1   470      9.13371    0.99638     10.10978    0.01561
  1   471      9.13868    0.99619     10.11677    0.01457
  1   472      9.15778    0.99539     10.13241    0.01249
  1   473      9.16660    0.99497     10.15126    0.01036

Fermi level: 9.69536

No gap

Forces in eV/Ang:
  0 Fe    0.02577    2.09504   -0.45287
  1 Cr    0.51353   -0.28931    0.05103
  2 Ni    0.59625    0.79569   -0.46892
  3 Cr   -1.43210    1.41917    0.35346
  4 Al    0.63864    1.03892   -1.24127
  5 Fe   -0.53548    0.19072    0.31250
  6 Ni    1.20264   -1.42543   -2.42186
  7 Al   -0.48654   -0.76543    0.09175
  8 Al   -0.89837   -0.44476   -0.62292
  9 Co   -1.28458    0.37476   -0.50864
 10 Ni   -0.17964    0.54875    0.04237
 11 Co   -0.35023   -1.07619    1.42204
 12 Ni    1.30088   -0.29422   -0.51524
 13 Cr   -0.33419    0.47702    0.85868
 14 Fe    0.81314   -0.14749   -0.04178
 15 Cr   -0.93024   -0.55582   -0.93988
 16 Co    0.68207   -0.46777    1.13308
 17 Cr    0.74474   -1.18662   -0.94070
 18 Co   -0.64587   -0.36182    0.50191
 19 Fe   -0.08600   -0.69033   -0.74573
 20 Cr    1.03303    1.14249    0.98131
 21 Fe   -0.01565   -0.03982   -0.29899
 22 Co    0.02894   -0.19318    0.33375
 23 Al    0.79213   -0.00269    1.84071
 24 Ni    0.39739   -0.26724    0.75218
 25 Cr    0.53858   -0.06324   -0.61652
 26 Cr    0.41814    0.62483    1.86863
 27 Al    1.15044   -0.17145    1.43254
 28 Cr   -0.04636   -0.07958    1.24056
 29 Cr   -0.31704   -0.36806   -0.50890
 30 Fe   -0.35707    1.03695    0.04961
 31 Fe    1.26287    0.40479   -0.05903
 32 Ni   -0.69187    0.13474    0.27618
 33 Cr   -0.51141   -0.32546    1.19614
 34 Co    1.12321   -0.04289   -2.37637
 35 Ni   -0.42012   -0.28364    0.21091
 36 Ni    2.11801    0.77276   -2.04225
 37 Co   -0.56517    0.27681    1.22061
 38 Co   -0.11438   -0.65841    0.66403
 39 Cr    0.31724   -0.29158   -0.87162
 40 Fe   -0.78302   -0.37559    0.09711
 41 Al   -0.43300    0.76428    0.57938
 42 Fe   -0.49267    1.47985   -1.34879
 43 Ni    0.17349    2.02370    1.04021
 44 Cr   -0.88644   -0.41056    0.80998
 45 Co    0.50389    0.03385   -0.15054
 46 Co   -2.40115    0.74459    0.53520
 47 Ni   -0.32121    0.79129    0.38614
 48 Ni   -0.59516    0.70999   -0.47407
 49 Cr   -0.51662   -1.71078   -0.99399
 50 Co    0.56862    0.57722    0.18867
 51 Al   -1.11380   -0.31430    1.57715
 52 Al   -0.74246   -1.32466   -0.54981
 53 Fe   -0.03616    0.57724   -0.68091
 54 Fe   -0.24246    0.86650    0.01558
 55 Fe    0.47683    0.91446    0.25382
 56 Ni   -0.72655   -1.17865    0.86416
 57 Ni   -0.31661   -0.24922    0.25349
 58 Co    0.32745    0.11392   -1.75158
 59 Co    1.90082   -1.01923    1.20201
[...]
 93 Cr   -2.11550    0.13736   -1.39745
 94 Fe    0.83626   -0.05963   -1.66654
 95 Cr    0.97186    0.31652   -0.10662
 96 Ni   -0.15060    1.33431    1.50458
 97 Fe   -1.48114    0.17267   -0.47606
 98 Co   -0.48510    0.30903   -0.09573
 99 Ni   -0.02472   -1.02368   -1.45959
100 Cr    1.01735    0.62954    0.32982
101 Al   -5.59133    5.13693   -1.04063
102 Cr    5.67466   -5.07196   -0.13613
103 Co    1.09281   -0.53943   -0.05622
104 Al   -2.85329   -1.99899    0.86805
105 Ni   -1.38584   -0.00441    1.63068
106 Co   -1.17454    0.90551   -1.45291
107 Fe    2.44388   -0.04942   -2.10468

Date: Fri Apr 14 04:22:58 2023