User:   c.zeng@d0090
Date:   Fri Apr 14 19:43:52 2023
Arch:   x86_64
Pid:    72534
CWD:    /home/c.zeng/projects/hea-corrosion/hea-mlp/data-curation/bulk-mcmc/dft-jobs/161
Python: 3.8.1
gpaw:   /home/c.zeng/usr/installs/gpaw/source/gpaw-22.8.0/gpaw
_gpaw:  /home/c.zeng/usr/installs/gpaw/source/gpaw-22.8.0/
        _gpaw.cpython-38-x86_64-linux-gnu.so
ase:    /home/c.zeng/.local/lib/python3.8/site-packages/ase-3.22.1-py3.8.egg/ase (version 3.22.1)
numpy:  /shared/centos7/python/3.8.1/lib/python3.8/site-packages/numpy (version 1.17.4)
scipy:  /shared/centos7/python/3.8.1/lib/python3.8/site-packages/scipy (version 1.4.1)
units:  Angstrom and eV
cores: 30
OpenMP: False
OMP_NUM_THREADS: 1

Input parameters:
  convergence: {energy: 0.0001}
  kpts: [2 2 2]
  maxiter: 666
  mode: {ecut: 350.0,
         name: pw}
  occupations: {fixmagmom: False,
                name: fermi-dirac,
                width: 0.1}
  spinpol: True
  xc: PBE

System changes: positions, numbers, cell, pbc, initial_charges, initial_magmoms

Initialize ...

species:
  Co:
    name: Cobalt
    id: 339d20d5b0b93d2de9531a1bee871d91
    Z: 27.0
    valence: 9
    core: 18
    charge: 0.0
    file: /home/c.zeng/usr/data/gpaw-setups-0.9.20000/Co.PBE.gz
    compensation charges: {type: gauss,
                           rc: 0.32,
                           lmax: 2}
    cutoffs: {filter: 1.87,
              core: 2.55}
    valence states:
      #              energy  rcut
      - 4s(2.00)    -5.469   1.005
      - 4p(0.00)    -1.277   1.058
      - 3d(7.00)    -8.205   1.005
      -  s          21.742   1.005
      -  p          25.934   1.058
      -  d          19.007   1.005

    # Using partial waves for Co as LCAO basis

  Fe:
    name: Iron
    id: 37abbd8d6c3c35915a9b583b742da910
    Z: 26.0
    valence: 8
    core: 18
    charge: 0.0
    file: /home/c.zeng/usr/data/gpaw-setups-0.9.20000/Fe.PBE.gz
    compensation charges: {type: gauss,
                           rc: 0.33,
                           lmax: 2}
    cutoffs: {filter: 2.06,
              core: 2.67}
    valence states:
      #              energy  rcut
      - 4s(2.00)    -5.291   1.164
      - 4p(0.00)    -1.326   1.058
      - 3d(6.00)    -7.505   1.058
      -  s          21.920   1.164
      -  p          25.885   1.058
      -  d          19.706   1.058

[...]

  Al:
    name: Aluminium
    id: 0292cae29f5d6237e50f6abdd43a7bdd
    Z: 13.0
    valence: 3
    core: 10
    charge: 0.0
    file: /home/c.zeng/usr/data/gpaw-setups-0.9.20000/Al.PBE.gz
    compensation charges: {type: gauss,
                           rc: 0.34,
                           lmax: 2}
    cutoffs: {filter: 1.91,
              core: 2.36}
    valence states:
      #              energy  rcut
      - 3s(2.00)    -7.753   1.085
      - 3p(1.00)    -2.712   1.085
      -  s          19.459   1.085
      -  p          24.499   1.085
      -  d           0.000   1.085

[...]

  Cr:
    name: Chromium
    id: 33f258bda2ca9f93018e70263a35547b
    Z: 24.0
    valence: 6
    core: 18
    charge: 0.0
    file: /home/c.zeng/usr/data/gpaw-setups-0.9.20000/Cr.PBE.gz
    compensation charges: {type: gauss,
                           rc: 0.35,
                           lmax: 2}
    cutoffs: {filter: 2.14,
              core: 3.04}
    valence states:
      #              energy  rcut
      - 4s(1.00)    -4.007   1.164
      - 4p(0.00)    -0.989   1.217
      - 3d(5.00)    -2.913   1.111
      -  s          23.205   1.164
      -  p          26.223   1.217
      -  d          24.299   1.111

[...]

  Ni:
    name: Nickel
    id: 0d9f38a9d6e76a2886f07bb4381f212b
    Z: 28.0
    valence: 16
    core: 12
    charge: 0.0
    file: /home/c.zeng/usr/data/gpaw-setups-0.9.20000/Ni.PBE.gz
    compensation charges: {type: gauss,
                           rc: 0.36,
                           lmax: 2}
    cutoffs: {filter: 2.14,
              core: 1.98}
    valence states:
      #              energy  rcut
      - 4s(2.00)    -5.642   1.164
      - 3p(6.00)   -71.394   1.207
      - 4p(0.00)    -1.226   1.207
      - 3d(8.00)    -8.875   1.138
      -  s          21.570   1.164
      -  d          18.337   1.138

    # Using partial waves for Ni as LCAO basis

Reference energy: -3382523.201499  # eV

Spin-polarized calculation.
Magnetic moment: 128.800000

Convergence criteria:
 Maximum [total energy] change in last 3 cyles: 0.0001 eV / electron
 Maximum integral of absolute [dens]ity change: 0.0001 electrons / valence electron
 Maximum integral of absolute [eigenst]ate change: 4e-08 eV^2 / valence electron
 Maximum number of scf [iter]ations: 666
 (Square brackets indicate name in SCF output, whereas a 'c' in
 the SCF output indicates the quantity has converged.)

Symmetries present (total): 1

  ( 1  0  0)
  ( 0  1  0)
  ( 0  0  1)

8 k-points: 2 x 2 x 2 Monkhorst-Pack grid
4 k-points in the irreducible part of the Brillouin zone
       k-points in crystal coordinates                weights
   0:     0.25000000   -0.25000000   -0.25000000          2/8
   1:     0.25000000   -0.25000000    0.25000000          2/8
   2:     0.25000000    0.25000000   -0.25000000          2/8
   3:     0.25000000    0.25000000    0.25000000          2/8

Wave functions: Plane wave expansion
  Cutoff energy: 350.000 eV
  Number of coefficients (min, max): 18865, 18865
  Pulay-stress correction: 0.000000 eV/Ang^3 (de/decut=0.000000)
  Using FFTW library
  ScaLapack parameters: grid=1x1, blocksize=None
  Wavefunction extrapolation:
    Improved wavefunction reuse through dual PAW basis

Occupation numbers: Fermi-Dirac:
  width: 0.1000  # eV

Eigensolver
   Davidson(niter=2)

Densities:
  Coarse grid: 48*48*48 grid
  Fine grid: 96*96*96 grid
  Total Charge: 0.000000

Density mixing:
  Method: difference
  Backend: pulay
  Linear mixing parameter: 0.05
  old densities: 5
  Damping of long wavelength oscillations: 50

Hamiltonian:
  XC and Coulomb potentials evaluated on a 96*96*96 grid
  Using the PBE Exchange-Correlation functional
  External potential:
    NoExternalPotential

XC parameters: PBE with 2 nearest neighbor stencil

Total number of cores used: 30
Parallelization over k-points: 2
Domain decomposition: 5 x 3 x 1

Number of atoms: 108
Number of atomic orbitals: 961
Number of bands in calculation: 649
Number of valence electrons: 945
Bands to converge: occupied

... initialized

Initializing position-dependent things.

Density initialized from atomic densities
Creating initial wave functions:
  649 bands from LCAO basis set

       /|                     Co   |
      / |            Co Fe     CrFe|
     /  |       Cr       Ni       Cr
    /   |Fe       Fel     FCor     |
   /i   | Coo        Fe      Co    |
  /  CrAl   NCr       Ni           |
 *      Ni     CoCo   AlFeCrCo   Cr|
 |      |FeNi   CrNiAl   NiAlNi   Co
 | CrCo | AlNi   AlAlFe     Ni     |
 |     Co  FeCr Cr  Fe CoNi  CrNi  |
 |      CoNi   AlCr   FeFeCoNi  Fe |
 |Al    |CoCr   AlCrFe   CrCo     Co
 |      .-CrCo-----NiCr-CoFeCrNi---.
 |     /   Ni Fe    Cr FeNi    Al /
 |    Fe       AFei       Al     /
 |   /  Co         Al       Cr  /
 |  /      Fe       Al       Fe/
 | / Fe     Co       Ni Ni    /
 |/             Cr       Ni  /
 *--------Co----------------*

Positions:
   0 Co    10.764147   10.861293   10.805330    ( 0.0000,  0.0000,  2.0000)
   1 Fe    10.786221    1.792513    1.813624    ( 0.0000,  0.0000,  0.0000)
   2 Fe     1.744156    0.036560    1.851269    ( 0.0000,  0.0000,  1.5000)
   3 Al     1.736571    1.831142   10.798805    ( 0.0000,  0.0000,  0.0000)
   4 Co     3.575126    0.057318    0.061759    ( 0.0000,  0.0000,  0.0000)
   5 Fe     3.594289    1.817617    1.845577    ( 0.0000,  0.0000,  2.0000)
   6 Fe     5.429813   10.817005    1.865054    ( 0.0000,  0.0000,  1.5000)
   7 Cr     5.429608    1.929425    0.057134    ( 0.0000,  0.0000,  0.0000)
   8 Fe     7.316909   10.723332    0.087382    ( 0.0000,  0.0000,  0.0000)
   9 Al     7.263142    1.825786    1.869404    ( 0.0000,  0.0000,  2.1000)
  10 Ni     9.063554    0.025226    1.863474    ( 0.0000,  0.0000,  1.5000)
  11 Ni     9.049217    1.829703    0.033106    ( 0.0000,  0.0000,  2.1000)
  12 Ni     0.004792    3.558981   10.794801    ( 0.0000,  0.0000,  1.5000)
  13 Al    10.759710    5.390697    1.778165    ( 0.0000,  0.0000,  0.0000)
  14 Co     1.733585    3.561849    1.761112    ( 0.0000,  0.0000,  2.0000)
  15 Fe     1.776899    5.391834   10.795505    ( 0.0000,  0.0000,  0.0000)
  16 Co     3.565452    3.619360   10.832619    ( 0.0000,  0.0000,  2.1000)
  17 Fe     3.633221    5.394614    1.719551    ( 0.0000,  0.0000,  0.0000)
  18 Ni     5.471624    3.659114    1.836033    ( 0.0000,  0.0000,  2.1000)
  19 Fe     5.440212    5.373060   -0.002773    ( 0.0000,  0.0000,  2.0000)
  20 Ni     7.258997    3.609080    0.031294    ( 0.0000,  0.0000,  0.0000)
  21 Fe     7.268941    5.378362    1.785274    ( 0.0000,  0.0000,  2.0000)
  22 Al     9.030724    3.577636    1.833728    ( 0.0000,  0.0000,  2.1000)
  23 Co     9.040420    5.372281   10.801110    ( 0.0000,  0.0000,  0.0000)
  24 Fe    10.791663    7.196206   10.792486    ( 0.0000,  0.0000,  1.5000)
  25 Co    10.758434    9.040387    1.848239    ( 0.0000,  0.0000,  0.0000)
  26 Cr     1.690487    7.202493    1.786032    ( 0.0000,  0.0000,  0.0000)
  27 Ni     1.652691    8.981047    0.027217    ( 0.0000,  0.0000,  0.0000)
  28 Al     3.631241    7.164437    0.034633    ( 0.0000,  0.0000,  0.0000)
  29 Al     3.625452    9.063759    1.801678    ( 0.0000,  0.0000,  0.0000)
  30 Ni     5.490852    7.187095    1.746342    ( 0.0000,  0.0000,  2.0000)
  31 Cr     5.426935    8.989152    0.009861    ( 0.0000,  0.0000,  2.0000)
  32 Fe     7.229122    7.237075   -0.008698    ( 0.0000,  0.0000,  1.5000)
  33 Cr     7.249194    8.995850    1.810713    ( 0.0000,  0.0000,  0.0000)
  34 Cr     9.052073    7.204300    1.764218    ( 0.0000,  0.0000,  2.1000)
  35 Co     9.092553    8.989639   10.808760    ( 0.0000,  0.0000,  1.5000)
  36 Cr    -0.000975   10.826235    3.639789    ( 0.0000,  0.0000,  1.5000)
  37 Al    10.822772    1.771770    5.422044    ( 0.0000,  0.0000,  2.1000)
  38 Ni     1.754263   10.802084    5.428872    ( 0.0000,  0.0000,  2.1000)
  39 Fe     1.741873    1.774270    3.610801    ( 0.0000,  0.0000,  0.0000)
  40 Al     3.591183   10.794152    3.612143    ( 0.0000,  0.0000,  2.0000)
  41 Cr     3.593088    1.736744    5.455177    ( 0.0000,  0.0000,  0.0000)
  42 Al     5.437150   10.794563    5.400804    ( 0.0000,  0.0000,  2.0000)
  43 Fe     5.451931    1.783251    3.601387    ( 0.0000,  0.0000,  1.5000)
  44 Al     7.226222    0.007781    3.626209    ( 0.0000,  0.0000,  0.0000)
  45 Fe     7.236069    1.766512    5.381392    ( 0.0000,  0.0000,  2.1000)
  46 Co     9.034587   10.848850    5.403844    ( 0.0000,  0.0000,  2.1000)
  47 Ni     9.031558    1.804946    3.616730    ( 0.0000,  0.0000,  1.5000)
  48 Ni    10.773885    3.543973    3.617867    ( 0.0000,  0.0000,  1.5000)
  49 Ni    10.772186    5.358409    5.454917    ( 0.0000,  0.0000,  0.0000)
  50 Co     1.757531    3.575678    5.428937    ( 0.0000,  0.0000,  2.1000)
  51 Co     1.621766    5.386986    3.572550    ( 0.0000,  0.0000,  0.0000)
[...]
iter:  82 21:35:19  -825.198993c -5.93  -4.12c   +56.9132
iter:  83 21:36:37  -825.200302c -6.28  -4.20c   +56.9457
iter:  84 21:37:56  -825.202283c -6.07  -4.14c   +56.9469
iter:  85 21:39:14  -825.210500c -5.08  -4.19c   +57.0218
iter:  86 21:40:32  -825.194629c -4.65  -3.90    +56.8708
iter:  87 21:41:51  -825.193174c -5.54  -4.24c   +56.8554
iter:  88 21:43:09  -825.198772c -5.58  -4.24c   +56.9276
iter:  89 21:44:28  -825.190290c -5.12  -4.25c   +56.7904
iter:  90 21:45:46  -825.180334c -4.64  -4.10c   +56.5587
iter:  91 21:47:05  -825.170878c -4.37  -3.72    +56.2081
iter:  92 21:48:23  -825.170160c -4.90  -3.47    +56.0444
iter:  93 21:49:42  -825.173048c -5.63  -3.41    +56.0205
iter:  94 21:51:01  -825.171722c -6.16  -3.43    +56.0471
iter:  95 21:52:19  -825.176578c -5.31  -3.43    +55.9801
iter:  96 21:53:38  -825.171432c -5.56  -3.42    +56.0562
iter:  97 21:54:56  -825.176032c -4.80  -3.43    +56.0088
iter:  98 21:56:15  -825.171594c -5.20  -3.37    +56.0505
iter:  99 21:57:34  -825.173419c -5.20  -3.48    +56.0878
iter: 100 21:58:52  -825.175663c -5.55  -3.61    +56.1428
iter: 101 22:00:11  -825.179832c -5.34  -3.75    +56.1773
iter: 102 22:01:29  -825.181893c -5.47  -3.70    +56.2244
iter: 103 22:02:48  -825.183726c -5.66  -3.80    +56.2520
iter: 104 22:04:06  -825.185794c -5.65  -3.79    +56.2756
iter: 105 22:05:25  -825.188361c -5.68  -3.83    +56.3077
iter: 106 22:06:44  -825.190843c -5.65  -4.00    +56.3408
iter: 107 22:08:02  -825.192411c -6.01  -4.00c   +56.3666
iter: 108 22:09:20  -825.197903c -5.29  -4.03c   +56.4439
iter: 109 22:10:39  -825.194153c -5.92  -3.89    +56.3918
iter: 110 22:11:58  -825.202112c -5.11  -3.97    +56.5169
iter: 111 22:13:16  -825.201975c -6.00  -3.77    +56.5251
iter: 112 22:14:35  -825.204771c -5.68  -3.77    +56.5871
iter: 113 22:15:53  -825.207936c -5.56  -3.82    +56.6376
iter: 114 22:17:11  -825.209452c -5.79  -3.65    +56.6850
iter: 115 22:18:30  -825.210403c -5.91  -3.64    +56.7176
iter: 116 22:19:48  -825.213089c -5.62  -3.66    +56.7698
iter: 117 22:21:07  -825.213693c -5.88  -3.64    +56.7940
iter: 118 22:22:25  -825.217492c -5.35  -3.66    +56.8530
iter: 119 22:23:44  -825.217140c -5.81  -3.53    +56.8668
iter: 120 22:25:02  -825.219447c -5.78  -3.69    +56.9303
iter: 121 22:26:21  -825.219487c -5.61  -3.69    +56.8879
iter: 122 22:27:39  -825.227255c -5.15  -3.51    +57.0195
iter: 123 22:28:58  -825.223418c -5.37  -3.40    +56.9822
iter: 124 22:30:17  -825.225964c -5.33  -3.48    +57.0689
iter: 125 22:31:35  -825.225753c -5.72  -3.48    +57.0986
iter: 126 22:32:53  -825.230783c -5.21  -3.60    +57.1858
iter: 127 22:34:12  -825.228618c -5.83  -3.47    +57.2057
iter: 128 22:35:30  -825.231502c -5.52  -3.69    +57.2884
iter: 129 22:36:49  -825.234464c -5.30  -3.71    +57.3693
iter: 130 22:38:07  -825.233477c -5.80  -3.65    +57.3543
iter: 131 22:39:26  -825.235138c -5.80  -3.81    +57.4121
iter: 132 22:40:44  -825.235275c -6.24  -3.89    +57.4259
iter: 133 22:42:02  -825.237702c -5.83  -3.93    +57.5019
iter: 134 22:43:21  -825.236465c -6.19  -3.96    +57.4622
iter: 135 22:44:39  -825.236629c -5.95  -3.97    +57.4500
iter: 136 22:45:57  -825.238889c -5.90  -3.93    +57.5370
iter: 137 22:47:16  -825.235152c -5.41  -4.05c   +57.3692
iter: 138 22:48:34  -825.232557c -5.38  -3.86    +57.2438
iter: 139 22:49:53  -825.235518c -5.91  -3.78    +57.3559
iter: 140 22:51:11  -825.231044c -5.22  -3.87    +57.1268
iter: 141 22:52:30  -825.229008c -5.12  -3.67    +56.9294
iter: 142 22:53:48  -825.231868c -5.75  -3.53    +56.9781
iter: 143 22:55:07  -825.230097c -6.07  -3.47    +56.9553
iter: 144 22:56:25  -825.231023c -6.19  -3.56    +56.9856
iter: 145 22:57:44  -825.231445c -6.25  -3.60    +57.0129
iter: 146 22:59:02  -825.231592c -5.07  -3.62    +57.0338
iter: 147 23:00:21  -825.232800c -5.28  -3.48    +57.0573
iter: 148 23:01:39  -825.232915c -5.52  -3.54    +57.1420
iter: 149 23:02:58  -825.235321c -5.57  -3.83    +57.2199
iter: 150 23:04:16  -825.238094c -5.51  -3.90    +57.3196
iter: 151 23:05:35  -825.240268c -5.51  -3.90    +57.4037
iter: 152 23:06:53  -825.242380c -5.76  -4.08c   +57.4705
iter: 153 23:08:12  -825.241805c -6.34  -3.96    +57.4666
iter: 154 23:09:30  -825.244412c -5.83  -4.17c   +57.5551
iter: 155 23:10:49  -825.243367c -6.68  -4.22c   +57.5198
iter: 156 23:12:08  -825.243514c -6.56  -4.26c   +57.5092
iter: 157 23:13:26  -825.245790c -5.95  -4.35c   +57.6039
iter: 158 23:14:45  -825.241425c -5.27  -4.23c   +57.3899
iter: 159 23:16:04  -825.240798c -5.46  -4.09c   +57.3002
iter: 160 23:17:22  -825.242784c -5.54  -3.90    +57.2790
iter: 161 23:18:41  -825.244111c -6.10  -3.81    +57.3456
iter: 162 23:19:59  -825.246271c -5.78  -3.88    +57.4219
iter: 163 23:21:18  -825.250198c -5.33  -3.92    +57.5536
iter: 164 23:22:37  -825.249396c -6.42  -3.86    +57.5377
iter: 165 23:23:56  -825.251213c -5.49  -3.95    +57.5979
iter: 166 23:25:15  -825.250994c -5.87  -3.66    +57.6269
iter: 167 23:26:33  -825.252140c -5.95  -4.09c   +57.6826
iter: 168 23:27:52  -825.253320c -6.08  -4.03c   +57.7282
iter: 169 23:29:11  -825.255720c -5.65  -4.11c   +57.8233
iter: 170 23:30:30  -825.253132c -5.94  -3.97    +57.7129
iter: 171 23:31:49  -825.249637c -5.22  -4.15c   +57.5097
iter: 172 23:33:08  -825.250814c -6.45  -4.09c   +57.5500
iter: 173 23:34:26  -825.253945c -5.50  -4.13c   +57.6669
iter: 174 23:35:45  -825.258422c -5.13  -4.09c   +57.8220
iter: 175 23:37:04  -825.255346c -5.69  -3.87    +57.7007
iter: 176 23:38:23  -825.258982c -5.30  -3.90    +57.8591
iter: 177 23:39:42  -825.256848c -6.06  -3.82    +57.7832
iter: 178 23:41:01  -825.259219c -5.73  -3.91    +57.8874
iter: 179 23:42:20  -825.259930c -6.09  -3.83    +57.8882
iter: 180 23:43:39  -825.260211c -5.74  -3.75    +57.9519
iter: 181 23:44:58  -825.261824c -5.92  -3.81    +57.9882
iter: 182 23:46:17  -825.262842c -5.68  -3.74    +58.0450
iter: 183 23:47:36  -825.264332c -5.58  -3.68    +58.0715
iter: 184 23:48:54  -825.263716c -5.85  -3.66    +58.1090
iter: 185 23:50:13  -825.265096c -5.93  -3.86    +58.1534
iter: 186 23:51:32  -825.264841c -6.37  -3.80    +58.1664
iter: 187 23:52:51  -825.266656c -5.98  -3.89    +58.2290
iter: 188 23:54:10  -825.262412c -5.25  -3.80    +58.0261
iter: 189 23:55:29  -825.260355c -5.27  -3.91    +57.8617
iter: 190 23:56:50  -825.260655c -5.98  -3.93    +57.8619
iter: 191 23:58:11  -825.261202c -6.35  -3.93    +57.8971
iter: 192 23:59:32  -825.261063c -6.94  -3.97    +57.8924
iter: 193 00:00:53  -825.261654c -6.53  -4.00c   +57.9348
iter: 194 00:02:13  -825.261373c -7.11  -4.00    +57.9079
iter: 195 00:03:34  -825.262026c -6.46  -4.01c   +57.9419
iter: 196 00:04:55  -825.261847c -7.21  -4.02c   +57.9316
iter: 197 00:06:16  -825.262505c -6.36  -4.02c   +57.9608
iter: 198 00:07:37  -825.263333c -6.04  -4.07c   +58.0179
iter: 199 00:08:58  -825.262790c -6.33  -4.08c   +57.9741
iter: 200 00:10:19  -825.262313c -6.28  -4.24c   +57.9238
iter: 201 00:11:40  -825.262521c -6.64  -4.17c   +57.9487
iter: 202 00:13:01  -825.262478c -7.10  -4.33c   +57.9532
iter: 203 00:14:21  -825.262971c -6.56  -4.44c   +57.9813
iter: 204 00:15:43  -825.261910c -5.89  -4.37c   +57.9346
iter: 205 00:17:04  -825.261272c -5.82  -4.33c   +57.9095
iter: 206 00:18:25  -825.261344c -6.29  -4.10c   +57.9178
iter: 207 00:19:46  -825.261804c -5.52  -4.02c   +57.9530
iter: 208 00:21:07  -825.262834c -5.01  -3.83    +58.0232
iter: 209 00:22:28  -825.263853c -5.93  -3.62    +58.0426
iter: 210 00:23:49  -825.263189c -6.17  -3.59    +58.0225
iter: 211 00:25:10  -825.263881c -6.07  -3.56    +58.0641
iter: 212 00:26:31  -825.264837c -6.31  -3.60    +58.0775
iter: 213 00:27:52  -825.266299c -4.71  -3.56    +58.0849
iter: 214 00:29:13  -825.264547c -5.06  -3.44    +58.1094
iter: 215 00:30:34  -825.263070c -5.50  -3.51    +58.1741
iter: 216 00:31:55  -825.264508c -5.67  -3.96    +58.1959
iter: 217 00:33:16  -825.265950c -5.61  -3.88    +58.2258
iter: 218 00:34:37  -825.267005c -5.87  -4.00    +58.2681
iter: 219 00:35:58  -825.267882c -6.30  -4.04c   +58.2923
iter: 220 00:37:19  -825.262102c -4.74  -3.97    +58.0243
iter: 221 00:38:40  -825.262081c -5.72  -3.86    +57.9652
iter: 222 00:40:01  -825.262658c -6.12  -3.85    +57.9363
iter: 223 00:41:22  -825.264184c -5.47  -3.87    +57.8878
iter: 224 00:42:43  -825.264552c -6.17  -3.96    +57.8916
iter: 225 00:44:05  -825.265943c -5.66  -3.99    +57.8961
iter: 226 00:45:26  -825.264502c -5.92  -3.69    +57.8925
iter: 227 00:46:47  -825.264990c -6.17  -3.83    +57.9027
iter: 228 00:48:08  -825.265213c -5.81  -3.92    +57.9103
iter: 229 00:49:29  -825.264814c -6.11  -3.76    +57.9425
iter: 230 00:50:50  -825.265136c -6.32  -4.00c   +57.9640
iter: 231 00:52:11  -825.265194c -6.38  -4.09c   +57.9847
iter: 232 00:53:32  -825.265034c -6.49  -4.00    +57.9811
iter: 233 00:54:53  -825.265124c -6.84  -4.15c   +57.9896
iter: 234 00:56:14  -825.265141c -6.66  -4.15c   +57.9943
iter: 235 00:57:35  -825.265306c -6.68  -4.23c   +58.0077
iter: 236 00:58:56  -825.265115c -7.02  -4.30c   +58.0100
iter: 237 01:00:17  -825.265246c -7.08  -4.37c   +58.0193
iter: 238 01:01:39  -825.265310c -7.16  -4.43c   +58.0384
iter: 239 01:03:00  -825.265208c -7.21  -4.53c   +58.0163
iter: 240 01:04:22  -825.265096c -6.25  -4.58c   +57.9531
iter: 241 01:05:43  -825.265076c -6.90  -4.47c   +57.9386
iter: 242 01:07:04  -825.265071c -7.22  -4.42c   +57.9425
iter: 243 01:08:25  -825.265039c -7.60c -4.58c   +57.9474

Converged after 243 iterations.

Dipole moment: (28.812775, -4.398762, -10.429997) |e|*Ang

Total magnetic moment: (0.000000, 0.000000, 57.947395)
Local magnetic moments:
   0 Co ( 0.000000,  0.000000,  1.271119)
   1 Fe ( 0.000000,  0.000000,  2.398653)
   2 Fe ( 0.000000,  0.000000,  2.298967)
   3 Al ( 0.000000,  0.000000, -0.041510)
   4 Co ( 0.000000,  0.000000,  1.368297)
   5 Fe ( 0.000000,  0.000000,  2.452409)
   6 Fe ( 0.000000,  0.000000,  1.903450)
   7 Cr ( 0.000000,  0.000000, -2.370711)
   8 Fe ( 0.000000,  0.000000,  2.226458)
   9 Al ( 0.000000,  0.000000, -0.016283)
  10 Ni ( 0.000000,  0.000000,  0.217608)
  11 Ni ( 0.000000,  0.000000,  0.118480)
  12 Ni ( 0.000000,  0.000000,  0.173479)
  13 Al ( 0.000000,  0.000000, -0.024506)
  14 Co ( 0.000000,  0.000000,  1.243198)
  15 Fe ( 0.000000,  0.000000,  1.914317)
  16 Co ( 0.000000,  0.000000,  1.191575)
  17 Fe ( 0.000000,  0.000000,  2.261844)
  18 Ni ( 0.000000,  0.000000,  0.224466)
  19 Fe ( 0.000000,  0.000000,  2.171085)
  20 Ni ( 0.000000,  0.000000,  0.081927)
  21 Fe ( 0.000000,  0.000000,  2.183348)
  22 Al ( 0.000000,  0.000000, -0.030488)
  23 Co ( 0.000000,  0.000000,  0.723507)
  24 Fe ( 0.000000,  0.000000,  1.710371)
  25 Co ( 0.000000,  0.000000,  1.048081)
  26 Cr ( 0.000000,  0.000000, -1.965790)
  27 Ni ( 0.000000,  0.000000,  0.108741)
  28 Al ( 0.000000,  0.000000, -0.016334)
  29 Al ( 0.000000,  0.000000, -0.025568)
  30 Ni ( 0.000000,  0.000000,  0.241776)
  31 Cr ( 0.000000,  0.000000,  1.586927)
  32 Fe ( 0.000000,  0.000000,  2.000388)
  33 Cr ( 0.000000,  0.000000, -1.420482)
  34 Cr ( 0.000000,  0.000000, -1.747682)
  35 Co ( 0.000000,  0.000000,  0.981116)
  36 Cr ( 0.000000,  0.000000, -1.370510)
  37 Al ( 0.000000,  0.000000, -0.021999)
  38 Ni ( 0.000000,  0.000000,  0.079341)
  39 Fe ( 0.000000,  0.000000,  2.238740)
  40 Al ( 0.000000,  0.000000, -0.038279)
  41 Cr ( 0.000000,  0.000000, -1.977740)
  42 Al ( 0.000000,  0.000000, -0.031581)
  43 Fe ( 0.000000,  0.000000,  1.785841)
  44 Al ( 0.000000,  0.000000, -0.028273)
  45 Fe ( 0.000000,  0.000000,  1.851204)
  46 Co ( 0.000000,  0.000000,  0.912511)
  47 Ni ( 0.000000,  0.000000,  0.210303)
  48 Ni ( 0.000000,  0.000000,  0.365977)
  49 Ni ( 0.000000,  0.000000,  0.205054)
  50 Co ( 0.000000,  0.000000,  1.008945)
  51 Co ( 0.000000,  0.000000,  1.175968)
  52 Co ( 0.000000,  0.000000,  1.152517)
  53 Cr ( 0.000000,  0.000000,  1.715767)
  54 Cr ( 0.000000,  0.000000, -1.511957)
  55 Cr ( 0.000000,  0.000000, -1.744240)
  56 Cr ( 0.000000,  0.000000,  0.809353)
  57 Co ( 0.000000,  0.000000,  1.132710)
  58 Co ( 0.000000,  0.000000,  1.112168)
  59 Co ( 0.000000,  0.000000,  0.996826)
[...]
  93 Ni ( 0.000000,  0.000000,  0.313918)
  94 Cr ( 0.000000,  0.000000,  0.937452)
  95 Al ( 0.000000,  0.000000, -0.019266)
  96 Cr ( 0.000000,  0.000000,  1.152461)
  97 Cr ( 0.000000,  0.000000,  0.631704)
  98 Co ( 0.000000,  0.000000,  0.380138)
  99 Co ( 0.000000,  0.000000,  0.908721)
 100 Co ( 0.000000,  0.000000, -0.284463)
 101 Cr ( 0.000000,  0.000000, -2.203644)
 102 Al ( 0.000000,  0.000000, -0.026150)
 103 Fe ( 0.000000,  0.000000,  2.191986)
 104 Fe ( 0.000000,  0.000000,  2.486624)
 105 Ni ( 0.000000,  0.000000,  0.328609)
 106 Cr ( 0.000000,  0.000000, -1.442366)
 107 Co ( 0.000000,  0.000000,  1.083717)

Energy contributions relative to reference atoms: (reference = -3382523.201499)

Kinetic:       +210.049036
Potential:     -220.542781
External:        +0.000000
XC:            -845.939426
Entropy (-ST):   -4.277668
Local:          +33.306965
Free energy:   -827.403873
Extrapolated:  -825.265039

Spin contamination: 28.170037 electrons
Showing only first 2 kpts
                      Up                     Down
 Kpt  Band  Eigenvalues  Occupancy  Eigenvalues  Occupancy
  0   470      9.15985    0.99439     10.02826    0.02914
  0   471      9.17412    0.99354     10.04173    0.02556
  0   472      9.19316    0.99219     10.06232    0.02091
  0   473      9.20271    0.99142     10.07113    0.01918

  1   470      9.16073    0.99434     10.03559    0.02714
  1   471      9.16940    0.99383     10.04590    0.02455
  1   472      9.18439    0.99284     10.06746    0.01988
  1   473      9.19414    0.99212     10.07690    0.01812

Fermi level: 9.67766

No gap

Forces in eV/Ang:
  0 Co    0.18756   -0.58011    0.25916
  1 Fe    0.32034   -0.25443    0.03001
  2 Fe   -0.07702   -0.38590   -0.78191
  3 Al    0.41895   -0.17780   -0.36257
  4 Co    0.24986   -0.20489   -0.56184
  5 Fe    0.16905    0.76387   -0.32308
  6 Fe    0.22129    0.25806   -0.76564
  7 Cr   -1.18172   -0.90409   -0.80392
  8 Fe   -0.53067    0.38719   -0.48778
  9 Al   -0.22726   -0.44713   -1.14079
 10 Ni   -0.16607   -0.26564   -0.39394
 11 Ni   -0.19356   -0.35224   -0.45149
 12 Ni   -0.35282    0.49446    0.00764
 13 Al    0.76364   -0.55923   -0.15831
 14 Co    0.56879    0.30448    0.76167
 15 Fe   -0.20266   -0.27526   -0.11993
 16 Co    0.47970    0.19791    0.07290
 17 Fe   -0.56133   -0.91467    0.90991
 18 Ni   -0.50185   -0.27500   -0.05255
 19 Fe    0.25058   -0.52845    0.04056
 20 Ni   -0.08092   -0.07017   -0.41798
 21 Fe   -0.03833    0.49739   -0.05506
 22 Al    0.34154    0.17642   -0.55800
 23 Co   -0.28321    0.44464   -0.54529
 24 Fe    0.24200    0.07382   -0.09627
 25 Co    0.16973    0.12435   -0.36157
 26 Cr   -0.64003    0.23078    0.03923
 27 Ni    0.68996    0.51988   -0.28727
 28 Al   -0.98277    0.21311   -0.04202
 29 Al   -0.56451    0.41991   -1.12786
 30 Ni   -0.31417    0.15341    0.46011
 31 Cr    0.34113    1.29544   -0.60869
 32 Fe    0.89112   -0.33468    0.29073
 33 Cr    0.04560    0.16881   -0.48873
 34 Cr   -0.38184    0.33509   -0.07672
 35 Co   -0.07456    0.12016    0.32798
 36 Cr   -0.01979   -0.84691   -0.69533
 37 Al   -0.17512    0.18650    0.09351
 38 Ni    0.39493   -0.07923    0.17145
 39 Fe    0.48164    0.64381   -0.01841
 40 Al   -0.43831    0.76349   -0.09391
 41 Cr   -0.73204    1.36087    0.13595
 42 Al    0.09548   -0.13829    0.76212
 43 Fe   -0.56991    0.49292    0.31789
 44 Al    1.02185   -0.25012    0.08806
 45 Fe    0.28080    0.67322    0.49894
 46 Co   -0.04771   -0.44136   -0.02680
 47 Ni   -0.04411   -0.16021    0.12129
 48 Ni    0.57629    0.40982   -0.05824
 49 Ni    0.41926    0.17727   -0.36171
 50 Co    0.47625    0.08398   -0.30556
 51 Co    1.01893   -0.13263    0.28422
 52 Co   -0.27864   -0.06113    0.28314
 53 Cr   -0.13796   -0.95594   -0.42057
 54 Cr    0.22848    0.13464    0.28500
 55 Cr    0.09570   -0.52534   -0.21066
 56 Cr   -0.78766    0.76956    1.35348
 57 Co    0.16934    0.10789    0.07892
 58 Co   -0.57267    0.30322    0.21632
 59 Co   -0.48724    0.41975    0.63007
[...]
 93 Ni    0.34685   -0.23763   -0.18711
 94 Cr    0.41799    0.40623    0.66114
 95 Al   -1.24253   -0.11024   -0.99297
 96 Cr    0.16689    0.39728    0.74427
 97 Cr    0.45589    0.19833    0.40976
 98 Co    0.18876    0.25112   -0.15710
 99 Co    0.31500   -0.24428    0.26200
100 Co   -0.42516    0.51500   -0.05491
101 Cr   -0.50481    1.03768    0.14974
102 Al    0.92290    0.01959   -1.45374
103 Fe   -0.36562   -0.26788    0.56798
104 Fe    0.02860   -0.15150   -0.63096
105 Ni   -0.02240    0.11803    0.03683
106 Cr   -0.66630    0.48246    0.38121
107 Co   -0.41792   -0.15801   -0.22199

Date: Sat Apr 15 01:08:42 2023