User:   c.zeng@d0109
Date:   Sat Apr 15 19:20:08 2023
Arch:   x86_64
Pid:    16492
CWD:    /home/c.zeng/projects/hea-corrosion/hea-mlp/data-curation/bulk-mcmc/dft-jobs/76
Python: 3.8.1
gpaw:   /home/c.zeng/usr/installs/gpaw/source/gpaw-22.8.0/gpaw
_gpaw:  /home/c.zeng/usr/installs/gpaw/source/gpaw-22.8.0/
        _gpaw.cpython-38-x86_64-linux-gnu.so
ase:    /home/c.zeng/.local/lib/python3.8/site-packages/ase-3.22.1-py3.8.egg/ase (version 3.22.1)
numpy:  /shared/centos7/python/3.8.1/lib/python3.8/site-packages/numpy (version 1.17.4)
scipy:  /shared/centos7/python/3.8.1/lib/python3.8/site-packages/scipy (version 1.4.1)
units:  Angstrom and eV
cores: 30
OpenMP: False
OMP_NUM_THREADS: 1

Input parameters:
  convergence: {energy: 0.0001}
  kpts: [2 2 2]
  maxiter: 666
  mode: {ecut: 350.0,
         name: pw}
  occupations: {fixmagmom: False,
                name: fermi-dirac,
                width: 0.1}
  spinpol: True
  xc: PBE

System changes: positions, numbers, cell, pbc, initial_charges, initial_magmoms

Initialize ...

species:
  Cr:
    name: Chromium
    id: 33f258bda2ca9f93018e70263a35547b
    Z: 24.0
    valence: 6
    core: 18
    charge: 0.0
    file: /home/c.zeng/usr/data/gpaw-setups-0.9.20000/Cr.PBE.gz
    compensation charges: {type: gauss,
                           rc: 0.35,
                           lmax: 2}
    cutoffs: {filter: 2.14,
              core: 3.04}
    valence states:
      #              energy  rcut
      - 4s(1.00)    -4.007   1.164
      - 4p(0.00)    -0.989   1.217
      - 3d(5.00)    -2.913   1.111
      -  s          23.205   1.164
      -  p          26.223   1.217
      -  d          24.299   1.111

    # Using partial waves for Cr as LCAO basis

  Ni:
    name: Nickel
    id: 0d9f38a9d6e76a2886f07bb4381f212b
    Z: 28.0
    valence: 16
    core: 12
    charge: 0.0
    file: /home/c.zeng/usr/data/gpaw-setups-0.9.20000/Ni.PBE.gz
    compensation charges: {type: gauss,
                           rc: 0.36,
                           lmax: 2}
    cutoffs: {filter: 2.14,
              core: 1.98}
    valence states:
      #              energy  rcut
      - 4s(2.00)    -5.642   1.164
      - 3p(6.00)   -71.394   1.207
      - 4p(0.00)    -1.226   1.207
      - 3d(8.00)    -8.875   1.138
      -  s          21.570   1.164
      -  d          18.337   1.138

[...]

  Fe:
    name: Iron
    id: 37abbd8d6c3c35915a9b583b742da910
    Z: 26.0
    valence: 8
    core: 18
    charge: 0.0
    file: /home/c.zeng/usr/data/gpaw-setups-0.9.20000/Fe.PBE.gz
    compensation charges: {type: gauss,
                           rc: 0.33,
                           lmax: 2}
    cutoffs: {filter: 2.06,
              core: 2.67}
    valence states:
      #              energy  rcut
      - 4s(2.00)    -5.291   1.164
      - 4p(0.00)    -1.326   1.058
      - 3d(6.00)    -7.505   1.058
      -  s          21.920   1.164
      -  p          25.885   1.058
      -  d          19.706   1.058

[...]

  Co:
    name: Cobalt
    id: 339d20d5b0b93d2de9531a1bee871d91
    Z: 27.0
    valence: 9
    core: 18
    charge: 0.0
    file: /home/c.zeng/usr/data/gpaw-setups-0.9.20000/Co.PBE.gz
    compensation charges: {type: gauss,
                           rc: 0.32,
                           lmax: 2}
    cutoffs: {filter: 1.87,
              core: 2.55}
    valence states:
      #              energy  rcut
      - 4s(2.00)    -5.469   1.005
      - 4p(0.00)    -1.277   1.058
      - 3d(7.00)    -8.205   1.005
      -  s          21.742   1.005
      -  p          25.934   1.058
      -  d          19.007   1.005

[...]

  Al:
    name: Aluminium
    id: 0292cae29f5d6237e50f6abdd43a7bdd
    Z: 13.0
    valence: 3
    core: 10
    charge: 0.0
    file: /home/c.zeng/usr/data/gpaw-setups-0.9.20000/Al.PBE.gz
    compensation charges: {type: gauss,
                           rc: 0.34,
                           lmax: 2}
    cutoffs: {filter: 1.91,
              core: 2.36}
    valence states:
      #              energy  rcut
      - 3s(2.00)    -7.753   1.085
      - 3p(1.00)    -2.712   1.085
      -  s          19.459   1.085
      -  p          24.499   1.085
      -  d           0.000   1.085

    # Using partial waves for Al as LCAO basis

Reference energy: -3699400.456887  # eV

Spin-polarized calculation.
Magnetic moment: 143.500000

Convergence criteria:
 Maximum [total energy] change in last 3 cyles: 0.0001 eV / electron
 Maximum integral of absolute [dens]ity change: 0.0001 electrons / valence electron
 Maximum integral of absolute [eigenst]ate change: 4e-08 eV^2 / valence electron
 Maximum number of scf [iter]ations: 666
 (Square brackets indicate name in SCF output, whereas a 'c' in
 the SCF output indicates the quantity has converged.)

Symmetries present (total): 1

  ( 1  0  0)
  ( 0  1  0)
  ( 0  0  1)

8 k-points: 2 x 2 x 2 Monkhorst-Pack grid
4 k-points in the irreducible part of the Brillouin zone
       k-points in crystal coordinates                weights
   0:     0.25000000   -0.25000000   -0.25000000          2/8
   1:     0.25000000   -0.25000000    0.25000000          2/8
   2:     0.25000000    0.25000000   -0.25000000          2/8
   3:     0.25000000    0.25000000    0.25000000          2/8

Wave functions: Plane wave expansion
  Cutoff energy: 350.000 eV
  Number of coefficients (min, max): 18052, 18052
  Pulay-stress correction: 0.000000 eV/Ang^3 (de/decut=0.000000)
  Using FFTW library
  ScaLapack parameters: grid=1x1, blocksize=None
  Wavefunction extrapolation:
    Improved wavefunction reuse through dual PAW basis

Occupation numbers: Fermi-Dirac:
  width: 0.1000  # eV

Eigensolver
   Davidson(niter=2)

Densities:
  Coarse grid: 48*48*48 grid
  Fine grid: 96*96*96 grid
  Total Charge: 0.000000

Density mixing:
  Method: difference
  Backend: pulay
  Linear mixing parameter: 0.05
  old densities: 5
  Damping of long wavelength oscillations: 50

Hamiltonian:
  XC and Coulomb potentials evaluated on a 96*96*96 grid
  Using the PBE Exchange-Correlation functional
  External potential:
    NoExternalPotential

XC parameters: PBE with 2 nearest neighbor stencil

Total number of cores used: 30
Parallelization over k-points: 2
Domain decomposition: 5 x 3 x 1

Number of atoms: 108
Number of atomic orbitals: 1025
Number of bands in calculation: 703
Number of valence electrons: 1020
Bands to converge: occupied

... initialized

Initializing position-dependent things.

Density initialized from atomic densities
Creating initial wave functions:
  703 bands from LCAO basis set

        Cr------------------------.
       /|  Co                Co   |
      Cr|   Cr         Cr         |
     / Fe      Fe       Al        |
    /   CCo      Cr       Fe      |
   /e   | CoNi     CoAl    NiNi   |
  /  FeCr  CrCo     NiNiCo        |
 *    FeFe  FeCoCr     CoAl       |
 |     CoFeCr  CoFe Ni  CrFeNi    |
 | Fe   NiNiNiCo CrNiNiFe  Ni     |
 |   CoCr  CrAlCr   CrCrCr   Fe   |
 |    FeCr  FeFeCoCr CoFeNi   Ni  |
 |     NiFeFe  Ni CrNi  CoFeFe    |
 |      .-CoNiCo-FeCrCrCo--CoCr---.
 |   CrCo    CoAl   CrNiFe       /
 |    / Ni    NiFe       Ni     /
 |   /            Ni           /
 |Ni/      Co       Co        /
 |/            Cr           /
 *----------------Ni-------*

Positions:
   0 Cr     0.005316   -0.016350   10.639749    ( 0.0000,  0.0000,  0.0000)
   1 Ni    10.672340    1.801276    1.786848    ( 0.0000,  0.0000,  0.0000)
   2 Fe     1.795727   10.625972    1.782259    ( 0.0000,  0.0000,  0.0000)
   3 Cr     1.780787    1.796175   10.644605    ( 0.0000,  0.0000,  2.1000)
   4 Fe     3.523539   -0.014558    0.017268    ( 0.0000,  0.0000,  2.0000)
   5 Co     3.522568    1.781672    1.746648    ( 0.0000,  0.0000,  0.0000)
   6 Co     5.320952   10.642342    1.763136    ( 0.0000,  0.0000,  1.5000)
   7 Cr     5.342082    1.828767    0.007462    ( 0.0000,  0.0000,  2.0000)
   8 Ni     7.144895    0.019195    0.012033    ( 0.0000,  0.0000,  0.0000)
   9 Co     7.143497    1.798064    1.764939    ( 0.0000,  0.0000,  2.1000)
  10 Ni     8.891362   10.651627    1.788353    ( 0.0000,  0.0000,  1.5000)
  11 Co     8.888779    1.804777   10.642609    ( 0.0000,  0.0000,  2.0000)
  12 Fe     0.008694    3.581540   10.650250    ( 0.0000,  0.0000,  2.1000)
  13 Cr     0.018979    5.332745    1.789751    ( 0.0000,  0.0000,  2.1000)
  14 Ni     1.778129    3.600941    1.760019    ( 0.0000,  0.0000,  2.0000)
  15 Co     1.790423    5.343267   -0.017766    ( 0.0000,  0.0000,  2.0000)
  16 Ni     3.542802    3.589864   -0.015614    ( 0.0000,  0.0000,  2.0000)
  17 Co     3.526837    5.358538    1.765793    ( 0.0000,  0.0000,  2.0000)
  18 Fe     5.336650    3.606501    1.755815    ( 0.0000,  0.0000,  0.0000)
  19 Cr     5.300399    5.323642   -0.012797    ( 0.0000,  0.0000,  2.1000)
  20 Al     7.122858    3.584816   10.659524    ( 0.0000,  0.0000,  2.0000)
  21 Ni     7.120500    5.315168    1.805502    ( 0.0000,  0.0000,  1.5000)
  22 Ni     8.892034    3.590952    1.773146    ( 0.0000,  0.0000,  2.1000)
  23 Fe     8.925340    5.301487   -0.003100    ( 0.0000,  0.0000,  0.0000)
  24 Cr     0.023055    7.096680   -0.007939    ( 0.0000,  0.0000,  0.0000)
  25 Ni     0.019141    8.871245    1.787510    ( 0.0000,  0.0000,  1.5000)
  26 Co     1.784372    7.104567    1.776443    ( 0.0000,  0.0000,  2.0000)
  27 Co     1.779944    8.867628   10.659406    ( 0.0000,  0.0000,  1.5000)
  28 Ni     3.547785    7.097897    0.009215    ( 0.0000,  0.0000,  2.1000)
  29 Ni     3.541137    8.858109    1.788225    ( 0.0000,  0.0000,  2.1000)
  30 Cr     5.295105    7.099391    1.787894    ( 0.0000,  0.0000,  2.1000)
  31 Cr     5.303685    8.873828    0.029898    ( 0.0000,  0.0000,  0.0000)
  32 Cr     7.106883    7.088719   10.645159    ( 0.0000,  0.0000,  0.0000)
  33 Co     7.111055    8.901137    1.809472    ( 0.0000,  0.0000,  0.0000)
  34 Co     8.939384    7.093404    1.799238    ( 0.0000,  0.0000,  0.0000)
  35 Co     8.919972    8.915853   10.664881    ( 0.0000,  0.0000,  0.0000)
  36 Ni    10.679704   10.658873    3.584517    ( 0.0000,  0.0000,  2.0000)
  37 Fe    10.670921    1.796367    5.340289    ( 0.0000,  0.0000,  2.1000)
  38 Fe     1.770350   10.649001    5.343491    ( 0.0000,  0.0000,  0.0000)
  39 Co     1.791800    1.784671    3.584891    ( 0.0000,  0.0000,  2.0000)
  40 Cr     3.529718   10.626388    3.565234    ( 0.0000,  0.0000,  2.1000)
  41 Fe     3.535716    1.793465    5.367289    ( 0.0000,  0.0000,  1.5000)
  42 Co     5.311497    0.001574    5.366254    ( 0.0000,  0.0000,  1.5000)
  43 Al     5.332627    1.768055    3.580793    ( 0.0000,  0.0000,  0.0000)
  44 Ni     7.136966   10.673941    3.563804    ( 0.0000,  0.0000,  2.0000)
  45 Ni     7.136774    1.794126    5.358944    ( 0.0000,  0.0000,  2.1000)
  46 Co     8.925938   10.673621    5.347589    ( 0.0000,  0.0000,  2.0000)
  47 Fe     8.883827    1.779111    3.582404    ( 0.0000,  0.0000,  1.5000)
  48 Cr    -0.010038    3.572341    3.580996    ( 0.0000,  0.0000,  2.0000)
  49 Co    10.685573    5.328935    5.338550    ( 0.0000,  0.0000,  2.0000)
  50 Cr     1.784180    3.582949    5.348357    ( 0.0000,  0.0000,  1.5000)
  51 Fe     1.766326    5.339510    3.565255    ( 0.0000,  0.0000,  1.5000)
[...]
  99 Cr     1.775184    8.850318    7.108494    ( 0.0000,  0.0000,  2.0000)
 100 Co     3.530401    7.086478    7.104972    ( 0.0000,  0.0000,  1.5000)
 101 Fe     3.524841    8.851001    8.894798    ( 0.0000,  0.0000,  0.0000)
 102 Co     5.310654    7.102827    8.871128    ( 0.0000,  0.0000,  0.0000)
 103 Ni     5.290613    8.850286    7.104876    ( 0.0000,  0.0000,  0.0000)
 104 Co     7.129016    7.083330    7.142750    ( 0.0000,  0.0000,  2.1000)
 105 Al     7.143241    8.903186    8.854384    ( 0.0000,  0.0000,  2.0000)
 106 Ni     8.926504    7.115858    8.862313    ( 0.0000,  0.0000,  0.0000)
 107 Ni     8.932896    8.877648    7.127479    ( 0.0000,  0.0000,  1.5000)

Unit cell:
           periodic     x           y           z      points  spacing
  1. axis:    yes   10.671700    0.000000    0.000000    48     0.2223
  2. axis:    yes    0.000000   10.671700    0.000000    48     0.2223
  3. axis:    yes    0.000000    0.000000   10.671700    48     0.2223

  Lengths:  10.671700  10.671700  10.671700
  Angles:   90.000000  90.000000  90.000000

Effective grid spacing dv^(1/3) = 0.2223

     iter     time        total  log10-change:  magmom
                         energy  eigst   dens
iter:   1 19:26:00  -969.298418                  +143.1934
iter:   2 19:28:34  -924.930377  -0.44  -1.32    +106.4759
iter:   3 19:31:07  -912.726335  -0.85  -1.31    +76.2561
iter:   4 19:33:41  -878.885217  -1.34  -1.34    +65.1155
iter:   5 19:36:15  -875.507410  -1.83  -1.45    +59.0803
iter:   6 19:38:49  -877.348708  -1.85  -1.48    +55.3935
iter:   7 19:41:21  -878.470331  -1.60  -1.51    +53.6747
iter:   8 19:43:54  -869.796822  -1.74  -1.54    +52.7598
iter:   9 19:46:34  -879.617088  -1.78  -1.74    +52.2938
iter:  10 19:50:15  -868.264310  -1.98  -1.65    +51.8986
iter:  11 19:52:49  -868.451082  -2.56  -1.88    +52.2724
iter:  12 19:55:23  -868.714686  -2.68  -1.93    +53.0829
iter:  13 19:57:57  -868.900884  -2.74  -1.95    +53.6636
iter:  14 20:00:31  -870.164289  -2.66  -2.02    +54.3584
iter:  15 20:03:06  -870.427623  -2.63  -2.02    +54.7762
iter:  16 20:05:39  -870.891285  -2.63  -2.05    +55.4547
iter:  17 20:08:13  -869.719176  -2.89  -2.07    +55.7728
iter:  18 20:10:47  -869.994083  -3.04  -2.21    +56.4162
iter:  19 20:13:20  -870.146601  -3.09  -2.25    +56.8629
iter:  20 20:15:54  -869.939472  -3.27  -2.25    +57.1575
iter:  21 20:18:28  -870.434772  -3.04  -2.33    +57.6396
iter:  22 20:21:01  -870.278517  -3.15  -2.29    +57.8105
iter:  23 20:23:35  -870.400027  -3.16  -2.36    +58.1054
iter:  24 20:27:03  -870.115124  -3.42  -2.36    +58.3138
iter:  25 20:29:57  -870.345041  -3.40  -2.52    +58.7247
iter:  26 20:32:31  -870.216049  -3.63  -2.46    +58.7183
iter:  27 20:35:05  -870.266378  -3.85  -2.56    +58.9481
iter:  28 20:37:39  -870.296985c -3.93  -2.59    +59.2083
iter:  29 20:40:13  -870.397690  -3.79  -2.63    +59.4376
iter:  30 20:42:46  -870.361932c -4.12  -2.58    +59.5390
iter:  31 20:45:20  -870.446499c -3.93  -2.69    +59.7101
iter:  32 20:47:53  -870.533470  -3.79  -2.68    +59.9464
iter:  33 20:50:26  -870.527606c -3.80  -2.65    +59.9619
iter:  34 20:52:59  -870.543173c -3.83  -2.72    +60.0161
iter:  35 20:55:32  -870.624138c -3.79  -2.78    +60.0950
iter:  36 20:58:05  -870.559511c -3.98  -2.70    +60.2201
iter:  37 21:00:38  -870.571804c -4.33  -2.85    +60.3438
iter:  38 21:03:11  -870.582214c -4.65  -2.91    +60.3900
iter:  39 21:05:44  -870.625996c -4.48  -2.93    +60.5572
iter:  40 21:09:20  -870.714013  -3.86  -2.87    +60.9309
iter:  41 21:12:07  -870.776281  -4.21  -2.80    +60.9939
iter:  42 21:14:40  -870.732176c -4.60  -2.75    +60.9258
iter:  43 21:17:14  -870.805186c -4.36  -2.78    +61.0241
iter:  44 21:19:47  -870.789015c -4.85  -2.73    +61.0095
iter:  45 21:22:20  -870.745397c -4.12  -2.73    +61.0880
iter:  46 21:24:55  -870.778921c -4.28  -2.81    +61.0478
iter:  47 21:27:29  -870.796038c -4.31  -2.76    +61.0567
iter:  48 21:30:03  -870.813665c -4.06  -2.77    +61.0575
iter:  49 21:32:37  -870.783969c -4.40  -2.73    +61.0540
iter:  50 21:35:11  -870.803368c -4.53  -2.84    +61.0769
iter:  51 21:37:45  -870.806170c -4.43  -2.85    +61.0979
iter:  52 21:40:19  -870.847295c -4.20  -2.92    +61.1820
iter:  53 21:42:52  -870.853297c -4.18  -2.91    +61.2163
iter:  54 21:45:27  -870.845895c -4.30  -2.91    +61.2504
iter:  55 21:48:01  -870.858269c -4.49  -3.07    +61.3230
iter:  56 21:50:34  -870.869054c -4.69  -3.08    +61.3664
iter:  57 21:53:09  -870.880255c -4.86  -3.12    +61.4526
iter:  58 21:56:28  -870.906492c -4.76  -3.24    +61.5607
iter:  59 21:59:28  -870.951729c -4.42  -3.22    +61.7775
iter:  60 22:02:03  -871.014913  -4.07  -3.15    +62.1190
iter:  61 22:04:38  -871.105593  -3.47  -3.11    +62.7413
iter:  62 22:07:12  -871.106705c -4.70  -2.95    +62.5946
iter:  63 22:09:48  -871.117017c -4.92  -2.95    +62.6000
iter:  64 22:12:21  -871.146755c -4.60  -2.94    +62.5648
iter:  65 22:14:55  -871.141101c -5.00  -2.87    +62.5804
iter:  66 22:17:30  -871.194184c -3.86  -2.87    +62.5048
iter:  67 22:20:04  -871.102884c -4.25  -2.72    +62.5047
iter:  68 22:22:38  -871.231887  -3.74  -2.97    +62.4445
iter:  69 22:25:12  -871.077514  -4.17  -2.71    +62.4307
iter:  70 22:27:47  -871.095428  -4.60  -3.16    +62.4040
iter:  71 22:30:21  -871.089183c -4.78  -3.09    +62.3880
iter:  72 22:32:55  -871.099001c -4.64  -3.20    +62.3660
iter:  73 22:35:29  -871.092349c -4.91  -3.15    +62.3781
iter:  74 22:38:02  -871.097235c -5.11  -3.27    +62.3948
iter:  75 22:40:36  -871.099989c -5.15  -3.32    +62.3954
iter:  76 22:43:46  -871.103375c -5.21  -3.33    +62.4035
iter:  77 22:46:59  -871.106683c -5.24  -3.37    +62.4277
iter:  78 22:49:34  -871.110809c -5.30  -3.38    +62.4432
iter:  79 22:52:08  -871.113453c -5.24  -3.38    +62.4473
iter:  80 22:54:43  -871.116215c -5.28  -3.44    +62.4532
iter:  81 22:57:17  -871.120762c -5.19  -3.42    +62.4799
iter:  82 22:59:51  -871.121443c -5.34  -3.43    +62.4975
iter:  83 23:02:24  -871.128804c -5.06  -3.53    +62.5137
iter:  84 23:04:59  -871.127293c -5.37  -3.41    +62.5234
iter:  85 23:07:33  -871.130639c -5.42  -3.57    +62.5558
iter:  86 23:10:07  -871.134790c -5.48  -3.62    +62.5773
iter:  87 23:12:41  -871.134966c -6.08  -3.60    +62.5839
iter:  88 23:15:15  -871.141721c -5.31  -3.67    +62.6261
iter:  89 23:17:47  -871.134120c -5.33  -3.65    +62.5634
iter:  90 23:20:21  -871.149916c -4.81  -3.61    +62.6676
iter:  91 23:22:55  -871.140414c -5.17  -3.50    +62.5994
iter:  92 23:25:29  -871.148446c -5.24  -3.49    +62.6667
iter:  93 23:28:48  -871.146589c -5.86  -3.52    +62.6553
iter:  94 23:31:48  -871.148433c -5.92  -3.58    +62.6326
iter:  95 23:34:23  -871.155487c -5.08  -3.62    +62.6660
iter:  96 23:36:57  -871.154665c -5.58  -3.49    +62.6810
iter:  97 23:39:31  -871.158292c -5.50  -3.72    +62.7059
iter:  98 23:42:05  -871.162917c -5.40  -3.78    +62.7412
iter:  99 23:44:39  -871.167892c -5.28  -3.87    +62.7675
iter: 100 23:47:13  -871.168018c -6.01  -3.89    +62.7722
iter: 101 23:49:47  -871.172230c -5.58  -4.03c   +62.8023
iter: 102 23:52:21  -871.179819c -5.08  -4.08c   +62.8602
iter: 103 23:54:55  -871.198885c -4.34  -4.02c   +63.0162
iter: 104 23:57:29  -871.217461c -4.19  -3.76    +63.1815
iter: 105 00:00:03  -871.236022c -4.00  -3.52    +63.3997
iter: 106 00:03:33  -871.246723c -3.84  -3.33    +63.6583
iter: 107 00:06:23  -871.246139c -4.85  -3.17    +63.6002
iter: 108 00:08:57  -871.245728c -5.23  -3.20    +63.5951
iter: 109 00:11:31  -871.246432c -5.37  -3.20    +63.5845
iter: 110 00:14:05  -871.243326c -5.46  -3.19    +63.5723
iter: 111 00:16:39  -871.237070c -4.66  -3.19    +63.5510
iter: 112 00:19:14  -871.240745c -4.38  -3.10    +63.5516
iter: 113 00:21:48  -871.223037c -5.15  -3.06    +63.4844
iter: 114 00:24:22  -871.225168c -5.01  -3.35    +63.3885
iter: 115 00:26:57  -871.225642c -5.26  -3.26    +63.3936
iter: 116 00:29:31  -871.223124c -5.10  -3.28    +63.3542
iter: 117 00:32:05  -871.221654c -5.12  -3.36    +63.3348
iter: 118 00:34:39  -871.224667c -4.89  -3.49    +63.3116
iter: 119 00:37:12  -871.221169c -5.23  -3.36    +63.2965
iter: 120 00:39:46  -871.221130c -5.46  -3.56    +63.2862
iter: 121 00:42:20  -871.220934c -5.72  -3.69    +63.2713
iter: 122 00:44:54  -871.220869c -5.96  -3.69    +63.2639
iter: 123 00:47:28  -871.221061c -5.91  -3.78    +63.2524
iter: 124 00:50:02  -871.221673c -5.96  -3.77    +63.2475
iter: 125 00:52:35  -871.221392c -5.98  -3.79    +63.2391
iter: 126 00:55:08  -871.221071c -5.93  -3.81    +63.2327
iter: 127 00:58:47  -871.221528c -6.07  -3.85    +63.2307
iter: 128 01:01:27  -871.221187c -6.05  -3.87    +63.2257
iter: 129 01:04:02  -871.221219c -6.26  -3.92    +63.2220
iter: 130 01:06:36  -871.220762c -6.37  -3.96    +63.2157
iter: 131 01:09:10  -871.220835c -6.58  -4.03c   +63.2139
iter: 132 01:11:45  -871.220880c -6.66  -4.13c   +63.2104
iter: 133 01:14:19  -871.220731c -6.87  -4.16c   +63.2067
iter: 134 01:16:53  -871.220860c -6.52  -4.24c   +63.2031
iter: 135 01:19:27  -871.220728c -6.67  -4.13c   +63.2029
iter: 136 01:22:02  -871.220863c -6.61  -4.18c   +63.2015
iter: 137 01:24:34  -871.220515c -6.75  -4.20c   +63.1999
iter: 138 01:27:08  -871.220505c -6.71  -4.41c   +63.1999
iter: 139 01:29:42  -871.220521c -7.24  -4.33c   +63.1999
iter: 140 01:32:17  -871.220426c -7.21  -4.62c   +63.1985
iter: 141 01:34:50  -871.220474c -7.68c -4.54c   +63.1985

Converged after 141 iterations.

Dipole moment: (-10.706467, 8.290914, 9.008748) |e|*Ang

Total magnetic moment: (0.000000, 0.000000, 63.198487)
Local magnetic moments:
   0 Cr ( 0.000000,  0.000000,  0.708820)
   1 Ni ( 0.000000,  0.000000,  0.265399)
   2 Fe ( 0.000000,  0.000000, -1.751044)
   3 Cr ( 0.000000,  0.000000, -1.220557)
   4 Fe ( 0.000000,  0.000000,  1.988644)
   5 Co ( 0.000000,  0.000000,  0.840166)
   6 Co ( 0.000000,  0.000000,  0.834063)
   7 Cr ( 0.000000,  0.000000, -1.477852)
   8 Ni ( 0.000000,  0.000000,  0.363087)
   9 Co ( 0.000000,  0.000000,  1.083236)
  10 Ni ( 0.000000,  0.000000,  0.372001)
  11 Co ( 0.000000,  0.000000,  1.119764)
  12 Fe ( 0.000000,  0.000000,  2.272252)
  13 Cr ( 0.000000,  0.000000, -1.195176)
  14 Ni ( 0.000000,  0.000000,  0.281138)
  15 Co ( 0.000000,  0.000000,  1.371511)
  16 Ni ( 0.000000,  0.000000,  0.238104)
  17 Co ( 0.000000,  0.000000,  0.913457)
  18 Fe ( 0.000000,  0.000000,  1.914584)
  19 Cr ( 0.000000,  0.000000, -1.363656)
  20 Al ( 0.000000,  0.000000, -0.019173)
  21 Ni ( 0.000000,  0.000000,  0.170692)
  22 Ni ( 0.000000,  0.000000,  0.197165)
  23 Fe ( 0.000000,  0.000000,  1.954349)
  24 Cr ( 0.000000,  0.000000, -1.530815)
  25 Ni ( 0.000000,  0.000000,  0.301847)
  26 Co ( 0.000000,  0.000000,  1.129952)
  27 Co ( 0.000000,  0.000000,  0.807386)
  28 Ni ( 0.000000,  0.000000,  0.231218)
  29 Ni ( 0.000000,  0.000000,  0.089772)
  30 Cr ( 0.000000,  0.000000,  0.655954)
  31 Cr ( 0.000000,  0.000000, -1.541209)
  32 Cr ( 0.000000,  0.000000,  1.216156)
  33 Co ( 0.000000,  0.000000,  1.132864)
  34 Co ( 0.000000,  0.000000,  0.964615)
  35 Co ( 0.000000,  0.000000,  1.206408)
  36 Ni ( 0.000000,  0.000000,  0.343050)
  37 Fe ( 0.000000,  0.000000,  1.982492)
  38 Fe ( 0.000000,  0.000000,  1.836700)
  39 Co ( 0.000000,  0.000000,  1.251136)
  40 Cr ( 0.000000,  0.000000,  1.259071)
  41 Fe ( 0.000000,  0.000000,  1.859903)
  42 Co ( 0.000000,  0.000000,  0.794793)
  43 Al ( 0.000000,  0.000000, -0.027874)
  44 Ni ( 0.000000,  0.000000,  0.342298)
  45 Ni ( 0.000000,  0.000000,  0.181025)
  46 Co ( 0.000000,  0.000000,  1.198746)
  47 Fe ( 0.000000,  0.000000,  2.462931)
  48 Cr ( 0.000000,  0.000000, -1.293864)
  49 Co ( 0.000000,  0.000000,  1.022237)
  50 Cr ( 0.000000,  0.000000, -1.594717)
  51 Fe ( 0.000000,  0.000000,  2.136547)
  52 Ni ( 0.000000,  0.000000,  0.165666)
  53 Al ( 0.000000,  0.000000, -0.037182)
  54 Co ( 0.000000,  0.000000,  0.872269)
  55 Cr ( 0.000000,  0.000000,  0.393324)
  56 Cr ( 0.000000,  0.000000, -1.505382)
  57 Cr ( 0.000000,  0.000000, -1.505852)
  58 Ni ( 0.000000,  0.000000,  0.188578)
  59 Fe ( 0.000000,  0.000000,  2.047059)
[...]
  93 Ni ( 0.000000,  0.000000,  0.232815)
  94 Al ( 0.000000,  0.000000, -0.039520)
  95 Fe ( 0.000000,  0.000000,  2.339723)
  96 Fe ( 0.000000,  0.000000,  2.288816)
  97 Fe ( 0.000000,  0.000000,  1.955727)
  98 Co ( 0.000000,  0.000000,  1.267257)
  99 Cr ( 0.000000,  0.000000, -1.683816)
 100 Co ( 0.000000,  0.000000,  1.258395)
 101 Fe ( 0.000000,  0.000000,  2.060599)
 102 Co ( 0.000000,  0.000000,  1.144148)
 103 Ni ( 0.000000,  0.000000,  0.412671)
 104 Co ( 0.000000,  0.000000,  1.265018)
 105 Al ( 0.000000,  0.000000, -0.024954)
 106 Ni ( 0.000000,  0.000000,  0.327572)
 107 Ni ( 0.000000,  0.000000,  0.321822)

Energy contributions relative to reference atoms: (reference = -3699400.456887)

Kinetic:       +155.491310
Potential:     -203.294519
External:        +0.000000
XC:            -858.952448
Entropy (-ST):   -4.447452
Local:          +37.758909
Free energy:   -873.444200
Extrapolated:  -871.220474

Spin contamination: 31.104462 electrons
Showing only first 2 kpts
                      Up                     Down
 Kpt  Band  Eigenvalues  Occupancy  Eigenvalues  Occupancy
  0   508      9.64308    0.99393     10.52515    0.02359
  0   509      9.65810    0.99295     10.53412    0.02161
  0   510      9.66923    0.99212     10.54747    0.01896
  0   511      9.68545    0.99075     10.55992    0.01678

  1   508      9.64995    0.99350     10.52902    0.02271
  1   509      9.65807    0.99295     10.54770    0.01891
  1   510      9.66659    0.99233     10.55290    0.01797
  1   511      9.68222    0.99104     10.56254    0.01635

Fermi level: 10.15283

No gap

Forces in eV/Ang:
  0 Cr    0.22252    0.05052    0.36249
  1 Ni    0.01236   -0.18791   -0.07611
  2 Fe   -0.30050    0.30506   -0.16258
  3 Cr    0.28134    0.01769    0.33230
  4 Fe    0.18309    0.15081    0.35932
  5 Co    0.06144    0.06819   -0.07702
  6 Co    0.17482   -0.01597   -0.11753
  7 Cr   -0.85061   -0.91647   -0.01157
  8 Ni   -0.31076   -0.09423   -0.03235
  9 Co   -0.24938   -0.30758   -0.01837
 10 Ni    0.16248    0.25281   -0.15984
 11 Co    0.37096   -0.35995    0.68917
 12 Fe    0.30662   -0.28412    0.77328
 13 Cr    0.06965    0.13154   -0.14774
 14 Ni    0.00815   -0.50322    0.28321
 15 Co   -0.13559    0.00706    0.06169
 16 Ni   -0.05936   -0.16475    0.19569
 17 Co    0.24711   -0.16653    0.13669
 18 Fe   -0.49179   -0.09210    0.12074
 19 Cr   -0.44368    0.77894    0.16931
 20 Al    0.44722   -0.06929    0.96329
 21 Ni    0.17601    0.34235   -0.16509
 22 Ni    0.27672   -0.47057    0.22654
 23 Fe    0.24743    1.09292    0.20834
 24 Cr   -0.32575    0.21577    0.07679
 25 Ni   -0.08409    0.02348   -0.34115
 26 Co   -0.12374    0.00501   -0.06386
 27 Co   -0.22301    0.25584    0.07527
 28 Ni    0.08755   -0.11778   -0.31406
 29 Ni    0.06407    0.27724   -0.25503
 30 Cr    0.20844   -0.28125   -0.13757
 31 Cr    0.21017    0.09010    0.34554
 32 Cr    0.10718   -0.18976    0.64010
 33 Co   -0.03861    0.12760   -0.37704
 34 Co   -0.38523    0.11979   -0.34884
 35 Co   -0.02254   -0.40781    0.44387
 36 Ni    0.06925    0.17198   -0.12701
 37 Fe    0.35450   -0.18368    0.03333
 38 Fe   -0.32880   -0.00730    0.12763
 39 Co   -0.02630    0.11822   -0.17211
 40 Cr   -0.33756   -0.13124   -0.37789
 41 Fe   -0.38581    0.24016    0.30348
 42 Co   -0.06676   -0.50276    0.10596
 43 Al   -0.08281   -0.03507   -0.19078
 44 Ni   -0.15735   -0.25930    0.03406
 45 Ni   -0.15375    0.01018   -0.02266
 46 Co    0.09226   -0.07353   -0.04953
 47 Fe    0.04511    0.00086   -0.25292
 48 Cr   -0.26335   -0.10114   -0.33631
 49 Co   -0.08529   -0.17321   -0.03826
 50 Cr   -0.66224   -0.67399    0.05700
 51 Fe   -0.21099   -0.02417   -0.30259
 52 Ni    0.23555   -0.34655   -0.40689
 53 Al    0.26490    0.20099    0.15689
 54 Co    0.16050   -0.27727   -0.07137
 55 Cr    0.51281   -0.12352   -0.79667
 56 Cr    0.32477    0.37461   -0.43740
 57 Cr   -0.08064    0.41952    0.36688
 58 Ni    0.20563    0.01438    0.00430
 59 Fe   -0.17995   -0.16107   -0.11759
[...]
 93 Ni    0.18936    0.37274    0.37713
 94 Al    0.09654    0.09466   -0.36478
 95 Fe   -0.18496    0.39154   -0.29839
 96 Fe    0.06181    0.23239   -0.22397
 97 Fe    0.12149   -0.24255    0.26941
 98 Co    0.14269    0.02816    0.14284
 99 Cr   -0.03804    0.04244   -0.26114
100 Co    0.04601    0.42296    0.38678
101 Fe    0.20475    0.15282   -0.12747
102 Co   -0.08254   -0.16196    0.16433
103 Ni    0.15258    0.30437   -0.06046
104 Co   -0.25837   -0.10128   -0.66198
105 Al   -0.17995   -0.22213    0.14093
106 Ni   -0.16428   -0.28876    0.38360
107 Ni   -0.18453    0.12008   -0.41105

Date: Sun Apr 16 01:35:15 2023