User:   c.zeng@d0066
Date:   Sat Apr 15 13:54:24 2023
Arch:   x86_64
Pid:    120171
CWD:    /home/c.zeng/projects/hea-corrosion/hea-mlp/data-curation/bulk-mcmc/dft-jobs/41
Python: 3.8.1
gpaw:   /home/c.zeng/usr/installs/gpaw/source/gpaw-22.8.0/gpaw
_gpaw:  /home/c.zeng/usr/installs/gpaw/source/gpaw-22.8.0/
        _gpaw.cpython-38-x86_64-linux-gnu.so
ase:    /home/c.zeng/.local/lib/python3.8/site-packages/ase-3.22.1-py3.8.egg/ase (version 3.22.1)
numpy:  /shared/centos7/python/3.8.1/lib/python3.8/site-packages/numpy (version 1.17.4)
scipy:  /shared/centos7/python/3.8.1/lib/python3.8/site-packages/scipy (version 1.4.1)
units:  Angstrom and eV
cores: 30
OpenMP: False
OMP_NUM_THREADS: 1

Input parameters:
  convergence: {energy: 0.0001}
  kpts: [2 2 2]
  maxiter: 666
  mode: {ecut: 350.0,
         name: pw}
  occupations: {fixmagmom: False,
                name: fermi-dirac,
                width: 0.1}
  spinpol: True
  xc: PBE

System changes: positions, numbers, cell, pbc, initial_charges, initial_magmoms

Initialize ...

species:
  Co:
    name: Cobalt
    id: 339d20d5b0b93d2de9531a1bee871d91
    Z: 27.0
    valence: 9
    core: 18
    charge: 0.0
    file: /home/c.zeng/usr/data/gpaw-setups-0.9.20000/Co.PBE.gz
    compensation charges: {type: gauss,
                           rc: 0.32,
                           lmax: 2}
    cutoffs: {filter: 1.87,
              core: 2.55}
    valence states:
      #              energy  rcut
      - 4s(2.00)    -5.469   1.005
      - 4p(0.00)    -1.277   1.058
      - 3d(7.00)    -8.205   1.005
      -  s          21.742   1.005
      -  p          25.934   1.058
      -  d          19.007   1.005

    # Using partial waves for Co as LCAO basis

  Fe:
    name: Iron
    id: 37abbd8d6c3c35915a9b583b742da910
    Z: 26.0
    valence: 8
    core: 18
    charge: 0.0
    file: /home/c.zeng/usr/data/gpaw-setups-0.9.20000/Fe.PBE.gz
    compensation charges: {type: gauss,
                           rc: 0.33,
                           lmax: 2}
    cutoffs: {filter: 2.06,
              core: 2.67}
    valence states:
      #              energy  rcut
      - 4s(2.00)    -5.291   1.164
      - 4p(0.00)    -1.326   1.058
      - 3d(6.00)    -7.505   1.058
      -  s          21.920   1.164
      -  p          25.885   1.058
      -  d          19.706   1.058

[...]

  Cr:
    name: Chromium
    id: 33f258bda2ca9f93018e70263a35547b
    Z: 24.0
    valence: 6
    core: 18
    charge: 0.0
    file: /home/c.zeng/usr/data/gpaw-setups-0.9.20000/Cr.PBE.gz
    compensation charges: {type: gauss,
                           rc: 0.35,
                           lmax: 2}
    cutoffs: {filter: 2.14,
              core: 3.04}
    valence states:
      #              energy  rcut
      - 4s(1.00)    -4.007   1.164
      - 4p(0.00)    -0.989   1.217
      - 3d(5.00)    -2.913   1.111
      -  s          23.205   1.164
      -  p          26.223   1.217
      -  d          24.299   1.111

[...]

  Ni:
    name: Nickel
    id: 0d9f38a9d6e76a2886f07bb4381f212b
    Z: 28.0
    valence: 16
    core: 12
    charge: 0.0
    file: /home/c.zeng/usr/data/gpaw-setups-0.9.20000/Ni.PBE.gz
    compensation charges: {type: gauss,
                           rc: 0.36,
                           lmax: 2}
    cutoffs: {filter: 2.14,
              core: 1.98}
    valence states:
      #              energy  rcut
      - 4s(2.00)    -5.642   1.164
      - 3p(6.00)   -71.394   1.207
      - 4p(0.00)    -1.226   1.207
      - 3d(8.00)    -8.875   1.138
      -  s          21.570   1.164
      -  d          18.337   1.138

    # Using partial waves for Ni as LCAO basis

Reference energy: -3846758.590871  # eV

Spin-polarized calculation.
Magnetic moment: 151.200000

Convergence criteria:
 Maximum [total energy] change in last 3 cyles: 0.0001 eV / electron
 Maximum integral of absolute [dens]ity change: 0.0001 electrons / valence electron
 Maximum integral of absolute [eigenst]ate change: 4e-08 eV^2 / valence electron
 Maximum number of scf [iter]ations: 666
 (Square brackets indicate name in SCF output, whereas a 'c' in
 the SCF output indicates the quantity has converged.)

Symmetries present (total): 1

  ( 1  0  0)
  ( 0  1  0)
  ( 0  0  1)

8 k-points: 2 x 2 x 2 Monkhorst-Pack grid
4 k-points in the irreducible part of the Brillouin zone
       k-points in crystal coordinates                weights
   0:     0.25000000   -0.25000000   -0.25000000          2/8
   1:     0.25000000   -0.25000000    0.25000000          2/8
   2:     0.25000000    0.25000000   -0.25000000          2/8
   3:     0.25000000    0.25000000    0.25000000          2/8

Wave functions: Plane wave expansion
  Cutoff energy: 350.000 eV
  Number of coefficients (min, max): 17755, 17755
  Pulay-stress correction: 0.000000 eV/Ang^3 (de/decut=0.000000)
  Using FFTW library
  ScaLapack parameters: grid=1x1, blocksize=None
  Wavefunction extrapolation:
    Improved wavefunction reuse through dual PAW basis

Occupation numbers: Fermi-Dirac:
  width: 0.1000  # eV

Eigensolver
   Davidson(niter=2)

Densities:
  Coarse grid: 48*48*48 grid
  Fine grid: 96*96*96 grid
  Total Charge: 0.000000

Density mixing:
  Method: difference
  Backend: pulay
  Linear mixing parameter: 0.05
  old densities: 5
  Damping of long wavelength oscillations: 50

Hamiltonian:
  XC and Coulomb potentials evaluated on a 96*96*96 grid
  Using the PBE Exchange-Correlation functional
  External potential:
    NoExternalPotential

XC parameters: PBE with 2 nearest neighbor stencil

Total number of cores used: 30
Parallelization over k-points: 2
Domain decomposition: 5 x 3 x 1

Number of atoms: 108
Number of atomic orbitals: 1053
Number of bands in calculation: 727
Number of valence electrons: 1053
Bands to converge: occupied

... initialized

Initializing position-dependent things.

Density initialized from atomic densities
Creating initial wave functions:
  727 bands from LCAO basis set

       /|  Cr       Ni      Cr    |
      / |   NiFe     Cr           |
     /  |       Co      Fe       Fe
    /   |Cr      CFe       Co     Cr
   /    | Co       Cr       NFe   |
  /  CCo|  FeNi     CoNi          |
 *    CrCr    FeNi   FeCrCo       |
 |      |CoCr   FeFeNi  CoNiFe   Cr
 |      | NiCo     CoCrFeCrNiNi   |
 |    Co|  CoFeCr   CoCrFe   CrCo |
 |      Ni    NiNiNi CrNiNi     Ni|
 |      |FeFe  CoFeNi   FeCrFe   Ni
 |      .-FeCo-----CrCrFe--CrNi---Co
 |   Nio     Fe       Ni         /
 |    CrCo     Coi     CCre     /
 |   /    Co               Cr  /
 |  /      Fe       Fe    CrFe/
 | / Fe     Cr       NiNi    /
 |/            Co       Cr  /
 *--------Co------Co-------*

Positions:
   0 Co    -0.012479   -0.003723   10.616104    ( 0.0000,  0.0000,  2.1000)
   1 Fe    -0.011321    1.761305    1.763386    ( 0.0000,  0.0000,  2.1000)
   2 Fe     1.758365    0.001326    1.769011    ( 0.0000,  0.0000,  2.0000)
   3 Co     1.752686    1.779222   10.610436    ( 0.0000,  0.0000,  2.0000)
   4 Co     3.541196    0.004726   10.616104    ( 0.0000,  0.0000,  0.0000)
   5 Fe     3.534711    1.782438    1.778999    ( 0.0000,  0.0000,  0.0000)
   6 Cr     5.305717   10.600629    1.767950    ( 0.0000,  0.0000,  2.1000)
   7 Co     5.324780    1.765604   10.614618    ( 0.0000,  0.0000,  0.0000)
   8 Co     7.089121    0.014598   10.619926    ( 0.0000,  0.0000,  2.0000)
   9 Fe     7.085279    1.771219    1.773543    ( 0.0000,  0.0000,  1.5000)
  10 Ni     8.850554    0.011470    1.768756    ( 0.0000,  0.0000,  1.5000)
  11 Cr     8.842381    1.777333   10.615680    ( 0.0000,  0.0000,  2.1000)
  12 Fe    10.590535    3.538203   -0.001956    ( 0.0000,  0.0000,  0.0000)
  13 Ni    10.624277    5.310674    1.769786    ( 0.0000,  0.0000,  2.0000)
  14 Co     1.761379    3.535623    1.784572    ( 0.0000,  0.0000,  0.0000)
  15 Cr     1.770200    5.301408   10.611753    ( 0.0000,  0.0000,  2.0000)
  16 Cr     3.556003    3.551407   10.618333    ( 0.0000,  0.0000,  1.5000)
  17 Fe     3.539370    5.311290    1.775199    ( 0.0000,  0.0000,  2.1000)
  18 Ni     5.320142    3.545059    1.779678    ( 0.0000,  0.0000,  1.5000)
  19 Fe     5.306980    5.314654   10.602720    ( 0.0000,  0.0000,  0.0000)
  20 Ni     7.081585    3.529127   10.614725    ( 0.0000,  0.0000,  2.1000)
  21 Ni     7.069241    5.303361    1.781271    ( 0.0000,  0.0000,  1.5000)
  22 Fe     8.841447    3.542671    1.781600    ( 0.0000,  0.0000,  2.1000)
  23 Cr     8.850893    5.290379    0.000220    ( 0.0000,  0.0000,  0.0000)
  24 Cr     0.005868    7.083411   10.614937    ( 0.0000,  0.0000,  2.0000)
  25 Ni    10.601043    8.849694    1.772960    ( 0.0000,  0.0000,  2.1000)
  26 Fe     1.773713    7.072329    1.777184    ( 0.0000,  0.0000,  0.0000)
  27 Cr     1.755520    8.842943   10.608324    ( 0.0000,  0.0000,  0.0000)
  28 Fe     3.544009    7.063116   10.610489    ( 0.0000,  0.0000,  2.0000)
  29 Co     3.542225    8.826820    1.785580    ( 0.0000,  0.0000,  0.0000)
  30 Cr     5.309835    7.081776    1.776600    ( 0.0000,  0.0000,  2.1000)
  31 Ni     5.331945    8.840321   10.604673    ( 0.0000,  0.0000,  2.1000)
  32 Co     7.068434    7.069028   10.623110    ( 0.0000,  0.0000,  0.0000)
  33 Fe     7.083750    8.846796    1.774509    ( 0.0000,  0.0000,  1.5000)
  34 Cr     8.841404    7.058180    1.777173    ( 0.0000,  0.0000,  1.5000)
  35 Cr     8.835524    8.853600   10.611753    ( 0.0000,  0.0000,  0.0000)
  36 Cr    -0.009351   10.618864    3.531070    ( 0.0000,  0.0000,  2.0000)
  37 Fe    10.602508    1.764818    5.300452    ( 0.0000,  0.0000,  1.5000)
  38 Ni     1.756720    0.001379    5.295867    ( 0.0000,  0.0000,  0.0000)
  39 Co     1.766506    1.767154    3.539222    ( 0.0000,  0.0000,  2.0000)
  40 Co     3.539742    0.013881    3.542873    ( 0.0000,  0.0000,  2.0000)
  41 Fe     3.548944    1.788658    5.306237    ( 0.0000,  0.0000,  2.1000)
  42 Fe     5.320174   -0.004685    5.301386    ( 0.0000,  0.0000,  0.0000)
  43 Co     5.316862    1.765551    3.538935    ( 0.0000,  0.0000,  2.0000)
  44 Cr     7.081086   -0.000289    3.531325    ( 0.0000,  0.0000,  2.0000)
  45 Ni     7.072902    1.777407    5.300537    ( 0.0000,  0.0000,  2.0000)
  46 Fe     8.840544    0.012372    5.307851    ( 0.0000,  0.0000,  1.5000)
  47 Cr     8.833592    1.767928    3.534318    ( 0.0000,  0.0000,  2.1000)
  48 Ni    -0.004066    3.525285    3.545951    ( 0.0000,  0.0000,  0.0000)
  49 Co    -0.001689    5.317934    5.307787    ( 0.0000,  0.0000,  1.5000)
  50 Ni     1.769043    3.555101    5.297279    ( 0.0000,  0.0000,  2.0000)
  51 Fe     1.773692    5.305929    3.538266    ( 0.0000,  0.0000,  2.1000)
  52 Co     3.542746    3.537364    3.547575    ( 0.0000,  0.0000,  2.1000)
  53 Fe     3.548477    5.306927    5.301153    ( 0.0000,  0.0000,  2.0000)
  54 Ni     5.316246    3.553031    5.303637    ( 0.0000,  0.0000,  2.0000)
  55 Fe     5.303286    5.303531    3.542385    ( 0.0000,  0.0000,  1.5000)
  56 Cr     7.074962    3.533023    3.537215    ( 0.0000,  0.0000,  1.5000)
  57 Cr     7.066046    5.306046    5.300081    ( 0.0000,  0.0000,  2.0000)
  58 Ni     8.834526    3.538160    5.294530    ( 0.0000,  0.0000,  2.1000)
  59 Cr     8.846255    5.300452    3.537672    ( 0.0000,  0.0000,  1.5000)
[...]
  93 Ni     7.071130    5.304220    8.839313    ( 0.0000,  0.0000,  1.5000)
  94 Co     8.837997    3.524669    8.843389    ( 0.0000,  0.0000,  1.5000)
  95 Ni     8.833772    5.299051    7.076862    ( 0.0000,  0.0000,  0.0000)
  96 Cr     0.012168    7.080333    7.083835    ( 0.0000,  0.0000,  1.5000)
  97 Fe    -0.017034    8.848707    8.843941    ( 0.0000,  0.0000,  2.1000)
  98 Co     1.777938    7.075503    8.840194    ( 0.0000,  0.0000,  2.0000)
  99 Fe     1.758800    8.840035    7.069803    ( 0.0000,  0.0000,  0.0000)
 100 Fe     3.549921    7.066194    7.070090    ( 0.0000,  0.0000,  2.1000)
 101 Co     3.553137    8.839111    8.836776    ( 0.0000,  0.0000,  0.0000)
 102 Cr     5.304189    7.079929    8.840215    ( 0.0000,  0.0000,  2.0000)
 103 Co     5.321946    8.832180    7.082997    ( 0.0000,  0.0000,  2.1000)
 104 Cr     7.057077    7.072149    7.064167    ( 0.0000,  0.0000,  1.5000)
 105 Fe     7.082402    8.855500    8.837487    ( 0.0000,  0.0000,  2.1000)
 106 Co     8.846786    7.077881    8.846732    ( 0.0000,  0.0000,  0.0000)
 107 Ni     8.839313    8.848272    7.075153    ( 0.0000,  0.0000,  0.0000)

Unit cell:
           periodic     x           y           z      points  spacing
  1. axis:    yes   10.614300    0.000000    0.000000    48     0.2211
  2. axis:    yes    0.000000   10.614300    0.000000    48     0.2211
  3. axis:    yes    0.000000    0.000000   10.614300    48     0.2211

  Lengths:  10.614300  10.614300  10.614300
  Angles:   90.000000  90.000000  90.000000

Effective grid spacing dv^(1/3) = 0.2211

     iter     time        total  log10-change:  magmom
                         energy  eigst   dens
iter:   1 13:58:26  -941.128909                  +151.1072
iter:   2 13:59:58  -960.806296  -0.56  -1.37    +115.5278
iter:   3 14:01:30  -914.171327  -0.97  -1.31    +88.2026
iter:   4 14:03:02  -892.900880  -1.49  -1.41    +72.4326
iter:   5 14:04:34  -890.767949  -1.98  -1.51    +65.1370
iter:   6 14:06:07  -896.528958  -1.97  -1.54    +60.7027
iter:   7 14:07:39  -891.782061  -1.83  -1.53    +59.1483
iter:   8 14:09:11  -888.244374  -1.78  -1.61    +57.4807
iter:   9 14:10:43  -895.451296  -1.86  -1.79    +57.3183
iter:  10 14:12:16  -888.813709  -2.09  -1.73    +56.7821
iter:  11 14:13:48  -888.735058  -2.48  -1.89    +56.9176
iter:  12 14:15:20  -887.811384  -2.83  -1.93    +57.4330
iter:  13 14:16:52  -889.314255  -2.74  -1.99    +58.1481
iter:  14 14:18:25  -889.047196  -2.71  -1.98    +58.5162
iter:  15 14:19:57  -890.848323  -2.68  -2.02    +59.1080
iter:  16 14:21:29  -892.144396  -2.37  -2.00    +59.5724
iter:  17 14:23:01  -892.536772  -2.37  -1.98    +59.7703
iter:  18 14:24:34  -890.189962  -2.52  -1.99    +59.7229
iter:  19 14:26:06  -890.218362  -2.87  -2.16    +60.2824
iter:  20 14:27:38  -889.497079  -3.06  -2.18    +60.7404
iter:  21 14:29:10  -889.449475  -3.57  -2.28    +61.4779
iter:  22 14:30:42  -889.656630  -3.61  -2.35    +62.3766
iter:  23 14:32:15  -889.846122  -3.60  -2.36    +63.2425
iter:  24 14:33:47  -890.693200  -2.94  -2.39    +64.0673
iter:  25 14:35:19  -890.367173  -3.13  -2.31    +64.0274
iter:  26 14:36:52  -890.409100  -3.14  -2.40    +64.5553
iter:  27 14:38:25  -890.341646c -3.44  -2.47    +64.7575
iter:  28 14:39:58  -890.387739c -3.45  -2.52    +65.2461
iter:  29 14:41:30  -890.340672c -3.80  -2.55    +65.4556
iter:  30 14:43:02  -890.362894c -4.10  -2.62    +65.8224
iter:  31 14:44:34  -890.425532c -4.19  -2.68    +66.2136
iter:  32 14:46:07  -890.465804c -4.34  -2.69    +66.4944
iter:  33 14:47:39  -890.554531  -4.09  -2.71    +66.9024
iter:  34 14:49:11  -890.624018  -4.02  -2.76    +66.9975
iter:  35 14:50:44  -890.668890  -3.86  -2.78    +67.2148
iter:  36 14:52:16  -890.660743c -4.06  -2.82    +67.3066
iter:  37 14:53:49  -890.694332c -4.11  -2.99    +67.4767
iter:  38 14:55:21  -890.713970c -4.32  -3.02    +67.6381
iter:  39 14:56:53  -890.732105c -4.54  -3.12    +67.7667
iter:  40 14:58:25  -890.777006c -4.52  -3.21    +68.0146
iter:  41 14:59:58  -890.873904  -4.04  -3.21    +68.4390
iter:  42 15:01:30  -891.012296  -3.57  -3.05    +69.0833
iter:  43 15:03:02  -891.111950  -3.31  -2.94    +69.8022
iter:  44 15:04:34  -891.098198c -4.52  -2.80    +69.4206
iter:  45 15:06:06  -891.109787c -5.03  -2.85    +69.3873
iter:  46 15:07:42  -891.166610c -4.35  -2.83    +69.2617
iter:  47 15:09:22  -891.186242c -4.08  -2.76    +69.3144
iter:  48 15:11:02  -891.245219c -3.87  -2.65    +69.3020
iter:  49 15:12:42  -891.261769c -3.72  -2.64    +69.2685
iter:  50 15:14:22  -891.218757c -3.42  -2.60    +69.2851
iter:  51 15:16:03  -891.113655  -3.63  -2.62    +69.2401
iter:  52 15:17:42  -891.087224  -3.83  -2.72    +68.9402
iter:  53 15:19:21  -891.032586c -4.22  -2.78    +68.8837
iter:  54 15:21:00  -891.048348c -4.21  -2.95    +68.8398
iter:  55 15:22:39  -891.024514c -4.37  -2.91    +68.7911
iter:  56 15:24:18  -891.020579c -4.60  -2.98    +68.7191
iter:  57 15:25:57  -891.018975c -4.63  -3.03    +68.6822
iter:  58 15:27:36  -891.024951c -4.60  -3.05    +68.7005
iter:  59 15:29:15  -891.014603c -4.67  -3.02    +68.6659
iter:  60 15:30:54  -891.019112c -4.74  -3.09    +68.6178
iter:  61 15:32:33  -891.022855c -4.68  -3.10    +68.6280
iter:  62 15:34:12  -891.007690c -4.76  -3.10    +68.6289
iter:  63 15:35:51  -891.012166c -5.05  -3.17    +68.6242
iter:  64 15:37:30  -891.010513c -4.97  -3.16    +68.5751
iter:  65 15:39:08  -891.008240c -4.97  -3.19    +68.5890
iter:  66 15:40:47  -891.007882c -5.09  -3.23    +68.6054
iter:  67 15:42:26  -891.007545c -5.12  -3.25    +68.5827
iter:  68 15:44:06  -891.010815c -4.96  -3.26    +68.5711
iter:  69 15:45:46  -891.006747c -5.19  -3.26    +68.5666
iter:  70 15:47:25  -891.006817c -5.24  -3.30    +68.5993
iter:  71 15:49:05  -891.005725c -5.17  -3.34    +68.5788
iter:  72 15:50:45  -891.005423c -5.38  -3.35    +68.5662
iter:  73 15:52:25  -891.004604c -5.54  -3.41    +68.5779
iter:  74 15:54:05  -891.003183c -5.34  -3.46    +68.5833
iter:  75 15:55:46  -891.004041c -5.60  -3.41    +68.5837
iter:  76 15:57:26  -891.002739c -5.65  -3.46    +68.5580
iter:  77 15:59:06  -891.003834c -5.50  -3.52    +68.5698
iter:  78 16:00:44  -891.002734c -5.61  -3.48    +68.5786
iter:  79 16:02:23  -891.001787c -5.82  -3.55    +68.5708
iter:  80 16:04:03  -891.003712c -5.73  -3.60    +68.5670
iter:  81 16:05:42  -891.001885c -5.96  -3.57    +68.5670
iter:  82 16:07:21  -891.001999c -6.09  -3.64    +68.5830
iter:  83 16:09:00  -891.002031c -6.01  -3.67    +68.5759
iter:  84 16:10:41  -891.002371c -6.06  -3.65    +68.5712
iter:  85 16:12:20  -891.002097c -6.07  -3.68    +68.5744
iter:  86 16:14:00  -891.001506c -6.00  -3.73    +68.5763
iter:  87 16:15:40  -891.002360c -6.05  -3.68    +68.5763
iter:  88 16:17:20  -891.001792c -6.07  -3.72    +68.5653
iter:  89 16:19:00  -891.002165c -6.15  -3.76    +68.5724
iter:  90 16:20:40  -891.001807c -6.18  -3.75    +68.5812
iter:  91 16:22:20  -891.001547c -6.17  -3.81    +68.5812
iter:  92 16:24:00  -891.002343c -6.42  -3.83    +68.5820
iter:  93 16:25:39  -891.001544c -6.34  -3.84    +68.5833
iter:  94 16:27:18  -891.001840c -6.24  -3.87    +68.5908
iter:  95 16:28:58  -891.001735c -6.29  -3.85    +68.5861
iter:  96 16:30:37  -891.001823c -6.33  -3.86    +68.5791
iter:  97 16:32:17  -891.002144c -6.11  -3.95    +68.5812
iter:  98 16:33:57  -891.001306c -6.40  -3.88    +68.5820
iter:  99 16:35:37  -891.001784c -6.50  -3.99    +68.5830
iter: 100 16:37:17  -891.001732c -6.52  -4.05c   +68.5797
iter: 101 16:38:57  -891.001729c -6.79  -4.04c   +68.5841
iter: 102 16:40:37  -891.001538c -6.94  -4.12c   +68.5897
iter: 103 16:42:17  -891.001547c -6.83  -4.21c   +68.5906
iter: 104 16:43:57  -891.001723c -7.28  -4.15c   +68.5915
iter: 105 16:45:37  -891.001423c -6.95  -4.25c   +68.5929
iter: 106 16:47:17  -891.001596c -6.83  -4.22c   +68.5951
iter: 107 16:48:56  -891.001497c -6.88  -4.17c   +68.5936
iter: 108 16:50:36  -891.001637c -6.90  -4.26c   +68.5922
iter: 109 16:52:16  -891.001772c -6.86  -4.30c   +68.5957
iter: 110 16:53:56  -891.001473c -7.13  -4.24c   +68.5974
iter: 111 16:55:35  -891.001672c -7.37  -4.46c   +68.5995
iter: 112 16:57:15  -891.001642c -7.90c -4.47c   +68.5993

Converged after 112 iterations.

Dipole moment: (6.717768, -1.931099, 0.683548) |e|*Ang

Total magnetic moment: (0.000000, 0.000000, 68.599285)
Local magnetic moments:
   0 Co ( 0.000000,  0.000000,  1.004228)
   1 Fe ( 0.000000,  0.000000,  1.877121)
   2 Fe ( 0.000000,  0.000000,  2.242091)
   3 Co ( 0.000000,  0.000000,  1.158607)
   4 Co ( 0.000000,  0.000000,  1.074515)
   5 Fe ( 0.000000,  0.000000,  2.256337)
   6 Cr ( 0.000000,  0.000000, -1.528760)
   7 Co ( 0.000000,  0.000000,  1.015315)
   8 Co ( 0.000000,  0.000000,  1.012777)
   9 Fe ( 0.000000,  0.000000,  1.927556)
  10 Ni ( 0.000000,  0.000000,  0.104976)
  11 Cr ( 0.000000,  0.000000, -1.775153)
  12 Fe ( 0.000000,  0.000000,  1.996358)
  13 Ni ( 0.000000,  0.000000,  0.197154)
  14 Co ( 0.000000,  0.000000,  1.154022)
  15 Cr ( 0.000000,  0.000000, -0.801373)
  16 Cr ( 0.000000,  0.000000, -1.320161)
  17 Fe ( 0.000000,  0.000000,  2.035228)
  18 Ni ( 0.000000,  0.000000,  0.339429)
  19 Fe ( 0.000000,  0.000000,  2.272452)
  20 Ni ( 0.000000,  0.000000,  0.306261)
  21 Ni ( 0.000000,  0.000000,  0.126159)
  22 Fe ( 0.000000,  0.000000,  1.758503)
  23 Cr ( 0.000000,  0.000000, -1.325249)
  24 Cr ( 0.000000,  0.000000,  0.523687)
  25 Ni ( 0.000000,  0.000000,  0.186345)
  26 Fe ( 0.000000,  0.000000,  2.005410)
  27 Cr ( 0.000000,  0.000000, -1.554827)
  28 Fe ( 0.000000,  0.000000,  1.988750)
  29 Co ( 0.000000,  0.000000,  1.324946)
  30 Cr ( 0.000000,  0.000000, -1.765880)
  31 Ni ( 0.000000,  0.000000,  0.188892)
  32 Co ( 0.000000,  0.000000,  0.895373)
  33 Fe ( 0.000000,  0.000000,  1.787008)
  34 Cr ( 0.000000,  0.000000,  0.917823)
  35 Cr ( 0.000000,  0.000000, -1.261243)
  36 Cr ( 0.000000,  0.000000, -1.346098)
  37 Fe ( 0.000000,  0.000000,  2.224207)
  38 Ni ( 0.000000,  0.000000,  0.391185)
  39 Co ( 0.000000,  0.000000,  1.496783)
  40 Co ( 0.000000,  0.000000,  1.413236)
  41 Fe ( 0.000000,  0.000000,  2.395951)
  42 Fe ( 0.000000,  0.000000,  2.199115)
  43 Co ( 0.000000,  0.000000,  1.028174)
  44 Cr ( 0.000000,  0.000000, -0.870793)
  45 Ni ( 0.000000,  0.000000,  0.166810)
  46 Fe ( 0.000000,  0.000000,  1.591927)
  47 Cr ( 0.000000,  0.000000,  0.156514)
  48 Ni ( 0.000000,  0.000000,  0.380555)
  49 Co ( 0.000000,  0.000000,  1.429589)
  50 Ni ( 0.000000,  0.000000,  0.580746)
  51 Fe ( 0.000000,  0.000000,  2.501937)
  52 Co ( 0.000000,  0.000000,  1.426006)
  53 Fe ( 0.000000,  0.000000,  2.341195)
  54 Ni ( 0.000000,  0.000000,  0.255312)
  55 Fe ( 0.000000,  0.000000,  2.135566)
  56 Cr ( 0.000000,  0.000000, -1.080235)
  57 Cr ( 0.000000,  0.000000,  1.004194)
  58 Ni ( 0.000000,  0.000000,  0.160657)
  59 Cr ( 0.000000,  0.000000, -1.265342)
[...]
  93 Ni ( 0.000000,  0.000000,  0.130355)
  94 Co ( 0.000000,  0.000000,  1.225787)
  95 Ni ( 0.000000,  0.000000,  0.137204)
  96 Cr ( 0.000000,  0.000000, -1.573641)
  97 Fe ( 0.000000,  0.000000,  1.878337)
  98 Co ( 0.000000,  0.000000,  0.950559)
  99 Fe ( 0.000000,  0.000000,  2.038519)
 100 Fe ( 0.000000,  0.000000,  2.230730)
 101 Co ( 0.000000,  0.000000,  1.140240)
 102 Cr ( 0.000000,  0.000000, -1.645184)
 103 Co ( 0.000000,  0.000000,  1.042575)
 104 Cr ( 0.000000,  0.000000, -1.409512)
 105 Fe ( 0.000000,  0.000000,  2.048954)
 106 Co ( 0.000000,  0.000000,  0.836771)
 107 Ni ( 0.000000,  0.000000,  0.247224)

Energy contributions relative to reference atoms: (reference = -3846758.590871)

Kinetic:       +144.661412
Potential:     -206.760529
External:        +0.000000
XC:            -866.646359
Entropy (-ST):   -4.505730
Local:          +39.996699
Free energy:   -893.254507
Extrapolated:  -891.001642

Spin contamination: 31.870683 electrons
Showing only first 2 kpts
                      Up                     Down
 Kpt  Band  Eigenvalues  Occupancy  Eigenvalues  Occupancy
  0   524      9.79545    0.99635     10.74120    0.02089
  0   525      9.80727    0.99590     10.75771    0.01777
  0   526      9.81499    0.99557     10.76514    0.01652
  0   527      9.83726    0.99447     10.78421    0.01369

  1   524      9.79660    0.99631     10.75017    0.01913
  1   525      9.80837    0.99585     10.76007    0.01736
  1   526      9.81249    0.99568     10.77958    0.01433
  1   527      9.82511    0.99510     10.78459    0.01364

Fermi level: 10.35646

No gap

Forces in eV/Ang:
  0 Co    0.05901   -0.09941   -0.03231
  1 Fe    0.14203    0.19107   -0.09243
  2 Fe    0.04119   -0.19262   -0.02161
  3 Co    0.07504   -0.02153    0.19383
  4 Co    0.14603   -0.17993    0.01825
  5 Fe    0.27684    0.22052   -0.14177
  6 Cr   -0.18781    0.19848   -0.32252
  7 Co   -0.29087   -0.04016    0.09431
  8 Co   -0.17730   -0.26670    0.12632
  9 Fe   -0.27953   -0.12275   -0.10972
 10 Ni   -0.01661   -0.10249    0.03291
 11 Cr    0.03620    0.00049    0.01016
 12 Fe    0.52757    0.41704    0.24863
 13 Ni    0.00403   -0.27009   -0.04967
 14 Co   -0.08925   -0.12509   -0.23750
 15 Cr   -0.17932    0.28872    0.06071
 16 Cr   -0.07425   -0.22133    0.32405
 17 Fe    0.05815   -0.43366    0.08369
 18 Ni   -0.22048   -0.22079   -0.00366
 19 Fe    0.18079   -0.08312    0.06552
 20 Ni   -0.00764    0.07674   -0.00384
 21 Ni    0.09068    0.05845   -0.06822
 22 Fe    0.26942    0.26057    0.10542
 23 Cr   -0.15113    0.42422   -0.19244
 24 Cr    0.16010   -0.62688   -0.51010
 25 Ni    0.12745    0.02197    0.08423
 26 Fe   -0.20920    0.36134    0.12423
 27 Cr    0.28191   -0.06174   -0.21089
 28 Fe   -0.10798    0.31825   -0.20921
 29 Co    0.00332    0.20227    0.12785
 30 Cr   -0.00685    0.07997   -0.07293
 31 Ni   -0.23306    0.13915    0.10690
 32 Co    0.18257    0.17972    0.04948
 33 Fe   -0.23939    0.19181   -0.28978
 34 Cr   -0.08028   -0.09410   -0.03270
 35 Cr    0.07018   -0.11032   -0.02537
 36 Cr    0.23849    0.05182    0.19687
 37 Fe    0.47108    0.00894   -0.01003
 38 Ni    0.15461    0.01576    0.07519
 39 Co    0.04299    0.15263    0.01419
 40 Co   -0.05999   -0.38393   -0.07317
 41 Fe   -0.30613    0.00166    0.13041
 42 Fe    0.35725    0.03859    0.12852
 43 Co   -0.03689    0.05042   -0.11236
 44 Cr    0.09761    0.10877    0.32109
 45 Ni    0.05975   -0.01127    0.12303
 46 Fe   -0.55903   -0.03549   -0.07346
 47 Cr   -0.07340    0.11825    0.09696
 48 Ni    0.02022    0.06719   -0.11197
 49 Co    0.01031   -0.04707   -0.06037
 50 Ni   -0.12784   -0.14970    0.25771
 51 Fe   -0.13995   -0.21427    0.03786
 52 Co    0.07216   -0.02264   -0.16931
 53 Fe    0.07881   -0.24492    0.12967
 54 Ni   -0.07142   -0.26072    0.01386
 55 Fe   -0.03848    0.06029   -0.23139
 56 Cr   -0.28904   -0.33461    0.17966
 57 Cr    0.00364   -0.00744   -0.18868
 58 Ni    0.17440   -0.08144    0.06226
 59 Cr    0.31884    0.12196    0.17977
[...]
 93 Ni    0.17766    0.10626    0.03964
 94 Co    0.18159    0.15850    0.06982
 95 Ni    0.03753    0.17319    0.07039
 96 Cr   -0.20758   -0.09991    0.19537
 97 Fe    0.05742   -0.21514   -0.11151
 98 Co   -0.17900   -0.15952   -0.00246
 99 Fe    0.26054    0.19934    0.36393
100 Fe   -0.09020    0.15928    0.40723
101 Co   -0.15137    0.17546   -0.09729
102 Cr   -0.20654    0.11447    0.27312
103 Co   -0.14309    0.03110   -0.11486
104 Cr    0.53029   -0.06371   -0.29079
105 Fe   -0.09690   -0.24138    0.14717
106 Co    0.14603   -0.06064    0.04350
107 Ni   -0.00449   -0.16172   -0.06762

Date: Sat Apr 15 16:57:34 2023