User:   c.zeng@d0007
Date:   Sat Apr 15 03:17:31 2023
Arch:   x86_64
Pid:    17193
CWD:    /home/c.zeng/projects/hea-corrosion/hea-mlp/data-curation/bulk-mcmc/dft-jobs/207
Python: 3.8.1
gpaw:   /home/c.zeng/usr/installs/gpaw/source/gpaw-22.8.0/gpaw
_gpaw:  /home/c.zeng/usr/installs/gpaw/source/gpaw-22.8.0/
        _gpaw.cpython-38-x86_64-linux-gnu.so
ase:    /home/c.zeng/.local/lib/python3.8/site-packages/ase-3.22.1-py3.8.egg/ase (version 3.22.1)
numpy:  /shared/centos7/python/3.8.1/lib/python3.8/site-packages/numpy (version 1.17.4)
scipy:  /shared/centos7/python/3.8.1/lib/python3.8/site-packages/scipy (version 1.4.1)
units:  Angstrom and eV
cores: 30
OpenMP: False
OMP_NUM_THREADS: 1

Input parameters:
  convergence: {energy: 0.0001}
  kpts: [2 2 2]
  maxiter: 666
  mode: {ecut: 350.0,
         name: pw}
  occupations: {fixmagmom: False,
                name: fermi-dirac,
                width: 0.1}
  spinpol: True
  xc: PBE

System changes: positions, numbers, cell, pbc, initial_charges, initial_magmoms

Initialize ...

species:
  Cr:
    name: Chromium
    id: 33f258bda2ca9f93018e70263a35547b
    Z: 24.0
    valence: 6
    core: 18
    charge: 0.0
    file: /home/c.zeng/usr/data/gpaw-setups-0.9.20000/Cr.PBE.gz
    compensation charges: {type: gauss,
                           rc: 0.35,
                           lmax: 2}
    cutoffs: {filter: 2.14,
              core: 3.04}
    valence states:
      #              energy  rcut
      - 4s(1.00)    -4.007   1.164
      - 4p(0.00)    -0.989   1.217
      - 3d(5.00)    -2.913   1.111
      -  s          23.205   1.164
      -  p          26.223   1.217
      -  d          24.299   1.111

    # Using partial waves for Cr as LCAO basis

  Al:
    name: Aluminium
    id: 0292cae29f5d6237e50f6abdd43a7bdd
    Z: 13.0
    valence: 3
    core: 10
    charge: 0.0
    file: /home/c.zeng/usr/data/gpaw-setups-0.9.20000/Al.PBE.gz
    compensation charges: {type: gauss,
                           rc: 0.34,
                           lmax: 2}
    cutoffs: {filter: 1.91,
              core: 2.36}
    valence states:
      #              energy  rcut
      - 3s(2.00)    -7.753   1.085
      - 3p(1.00)    -2.712   1.085
      -  s          19.459   1.085
      -  p          24.499   1.085
      -  d           0.000   1.085

[...]

  Co:
    name: Cobalt
    id: 339d20d5b0b93d2de9531a1bee871d91
    Z: 27.0
    valence: 9
    core: 18
    charge: 0.0
    file: /home/c.zeng/usr/data/gpaw-setups-0.9.20000/Co.PBE.gz
    compensation charges: {type: gauss,
                           rc: 0.32,
                           lmax: 2}
    cutoffs: {filter: 1.87,
              core: 2.55}
    valence states:
      #              energy  rcut
      - 4s(2.00)    -5.469   1.005
      - 4p(0.00)    -1.277   1.058
      - 3d(7.00)    -8.205   1.005
      -  s          21.742   1.005
      -  p          25.934   1.058
      -  d          19.007   1.005

[...]

  Ni:
    name: Nickel
    id: 0d9f38a9d6e76a2886f07bb4381f212b
    Z: 28.0
    valence: 16
    core: 12
    charge: 0.0
    file: /home/c.zeng/usr/data/gpaw-setups-0.9.20000/Ni.PBE.gz
    compensation charges: {type: gauss,
                           rc: 0.36,
                           lmax: 2}
    cutoffs: {filter: 2.14,
              core: 1.98}
    valence states:
      #              energy  rcut
      - 4s(2.00)    -5.642   1.164
      - 3p(6.00)   -71.394   1.207
      - 4p(0.00)    -1.226   1.207
      - 3d(8.00)    -8.875   1.138
      -  s          21.570   1.164
      -  d          18.337   1.138

[...]

  Fe:
    name: Iron
    id: 37abbd8d6c3c35915a9b583b742da910
    Z: 26.0
    valence: 8
    core: 18
    charge: 0.0
    file: /home/c.zeng/usr/data/gpaw-setups-0.9.20000/Fe.PBE.gz
    compensation charges: {type: gauss,
                           rc: 0.33,
                           lmax: 2}
    cutoffs: {filter: 2.06,
              core: 2.67}
    valence states:
      #              energy  rcut
      - 4s(2.00)    -5.291   1.164
      - 4p(0.00)    -1.326   1.058
      - 3d(6.00)    -7.505   1.058
      -  s          21.920   1.164
      -  p          25.885   1.058
      -  d          19.706   1.058

    # Using partial waves for Fe as LCAO basis

Reference energy: -3235165.067515  # eV

Spin-polarized calculation.
Magnetic moment: 121.100000

Convergence criteria:
 Maximum [total energy] change in last 3 cyles: 0.0001 eV / electron
 Maximum integral of absolute [dens]ity change: 0.0001 electrons / valence electron
 Maximum integral of absolute [eigenst]ate change: 4e-08 eV^2 / valence electron
 Maximum number of scf [iter]ations: 666
 (Square brackets indicate name in SCF output, whereas a 'c' in
 the SCF output indicates the quantity has converged.)

Symmetries present (total): 1

  ( 1  0  0)
  ( 0  1  0)
  ( 0  0  1)

8 k-points: 2 x 2 x 2 Monkhorst-Pack grid
4 k-points in the irreducible part of the Brillouin zone
       k-points in crystal coordinates                weights
   0:     0.25000000   -0.25000000   -0.25000000          2/8
   1:     0.25000000   -0.25000000    0.25000000          2/8
   2:     0.25000000    0.25000000   -0.25000000          2/8
   3:     0.25000000    0.25000000    0.25000000          2/8

Wave functions: Plane wave expansion
  Cutoff energy: 350.000 eV
  Number of coefficients (min, max): 19084, 19084
  Pulay-stress correction: 0.000000 eV/Ang^3 (de/decut=0.000000)
  Using FFTW library
  ScaLapack parameters: grid=1x1, blocksize=None
  Wavefunction extrapolation:
    Improved wavefunction reuse through dual PAW basis

Occupation numbers: Fermi-Dirac:
  width: 0.1000  # eV

Eigensolver
   Davidson(niter=2)

Densities:
  Coarse grid: 48*48*48 grid
  Fine grid: 96*96*96 grid
  Total Charge: 0.000000

Density mixing:
  Method: difference
  Backend: pulay
  Linear mixing parameter: 0.05
  old densities: 5
  Damping of long wavelength oscillations: 50

Hamiltonian:
  XC and Coulomb potentials evaluated on a 96*96*96 grid
  Using the PBE Exchange-Correlation functional
  External potential:
    NoExternalPotential

XC parameters: PBE with 2 nearest neighbor stencil

Total number of cores used: 30
Parallelization over k-points: 2
Domain decomposition: 5 x 3 x 1

Number of atoms: 108
Number of atomic orbitals: 933
Number of bands in calculation: 624
Number of valence electrons: 912
Bands to converge: occupied

... initialized

Initializing position-dependent things.

Density initialized from atomic densities
Creating initial wave functions:
  624 bands from LCAO basis set

        .--------Al----------------.
       /|           Fe             |
      / |    FeFe     Ni           |
     / Ni       Cr       Al        |
    /   |Fe      CrCo       Fe     |
   /    | NiNi      ACo            |
  /    Co  FerAlAl    Co Fe  CoAl  |
 *      Fe     AlCoAl   CrFe     Cr|
 |      |FeCr   NiFeFe   AlCrNi   Co
 |      | CoCr   AlCoCoAl CrNiFe   |
 |     Fe  Al CoCo  CrNi Ni  CrCr  |
 |      Cr  Cr CrNiCo CoNiCoAl   Fe|
 |      |NiCo   CoAlAl   CoCrFe   Fe
 |      .-FeCr-----NiCr-Al--NiFe---.
 |     Al  Cr CoCr    Al Co  Cr Ni/
 |    / Co              Ni       Ni
 |   /           Ali      NiFe  /
 |  /      Ni       Fe     NiAl/
 | /                   Fe     /i
 *--------------------------Cr

Positions:
   0 Cr    10.797848    0.093654    0.085777    ( 0.0000,  0.0000,  0.0000)
   1 Al    10.831824    1.844742    1.870716    ( 0.0000,  0.0000,  2.0000)
   2 Cr     1.786803   10.847372    1.827335    ( 0.0000,  0.0000,  0.0000)
   3 Co     1.769614    1.870531   -0.031264    ( 0.0000,  0.0000,  0.0000)
   4 Al     3.620857   10.822050   10.833629    ( 0.0000,  0.0000,  1.5000)
   5 Ni     3.571246    1.883176    1.708402    ( 0.0000,  0.0000,  0.0000)
   6 Co     5.521103   10.788063    1.666217    ( 0.0000,  0.0000,  0.0000)
   7 Al     5.520831    1.813973   10.830911    ( 0.0000,  0.0000,  1.5000)
   8 Al     7.330846    0.011025   10.815657    ( 0.0000,  0.0000,  2.0000)
   9 Fe     7.282018    1.809483    1.793250    ( 0.0000,  0.0000,  2.1000)
  10 Fe     9.029996    0.022005    1.811918    ( 0.0000,  0.0000,  1.5000)
  11 Fe     9.007196    1.868639   10.825714    ( 0.0000,  0.0000,  2.0000)
  12 Ni    10.861310    3.649723    0.014171    ( 0.0000,  0.0000,  2.0000)
  13 Ni    10.867442    5.463468    1.819235    ( 0.0000,  0.0000,  2.1000)
  14 Co     1.756088    3.650267    1.845949    ( 0.0000,  0.0000,  0.0000)
  15 Fe     1.790358    5.439092   10.869084    ( 0.0000,  0.0000,  2.1000)
  16 Ni     3.687842    3.622792   -0.049287    ( 0.0000,  0.0000,  2.0000)
  17 Co     3.667347    5.391145    1.745368    ( 0.0000,  0.0000,  0.0000)
  18 Al     5.497977    3.634415    1.792370    ( 0.0000,  0.0000,  2.0000)
  19 Ni     5.524908    5.448029    0.002551    ( 0.0000,  0.0000,  2.0000)
  20 Co     7.223340    3.611877   10.834270    ( 0.0000,  0.0000,  0.0000)
  21 Al     7.217762    5.474830    1.807776    ( 0.0000,  0.0000,  2.1000)
  22 Ni     9.073442    3.654344    1.775148    ( 0.0000,  0.0000,  0.0000)
  23 Ni     9.008740    5.418608    0.007692    ( 0.0000,  0.0000,  2.0000)
  24 Ni    10.859190    7.178720    0.014480    ( 0.0000,  0.0000,  1.5000)
  25 Fe    -0.018106    8.970948    1.875391    ( 0.0000,  0.0000,  0.0000)
  26 Fe     1.817615    7.224025    1.802546    ( 0.0000,  0.0000,  1.5000)
  27 Cr     1.880729    8.993464   10.874031    ( 0.0000,  0.0000,  0.0000)
  28 Fe     3.684428    7.260447   -0.001356    ( 0.0000,  0.0000,  2.0000)
  29 Co     3.612616    9.025636    1.761807    ( 0.0000,  0.0000,  1.5000)
  30 Ni     5.481440    7.275114    1.811211    ( 0.0000,  0.0000,  1.5000)
  31 Fe     5.461261    9.048153   10.833988    ( 0.0000,  0.0000,  1.5000)
  32 Ni     7.245704    7.257881    0.056891    ( 0.0000,  0.0000,  2.1000)
  33 Co     7.301969    9.004609    1.790315    ( 0.0000,  0.0000,  0.0000)
  34 Ni     9.029343    7.181775    1.815549    ( 0.0000,  0.0000,  2.0000)
  35 Cr     9.030561    9.042010    0.020232    ( 0.0000,  0.0000,  1.5000)
  36 Fe    -0.031046    0.001947    3.645701    ( 0.0000,  0.0000,  2.0000)
  37 Fe    10.825910    1.804351    5.434602    ( 0.0000,  0.0000,  2.1000)
  38 Cr     1.743552   10.849296    5.484376    ( 0.0000,  0.0000,  0.0000)
  39 Al     1.769755    1.791891    3.636068    ( 0.0000,  0.0000,  1.5000)
  40 Al     3.516667   10.719828    3.663227    ( 0.0000,  0.0000,  0.0000)
  41 Co     3.644244    1.785205    5.586728    ( 0.0000,  0.0000,  0.0000)
  42 Al     5.484778   10.815439    5.504022    ( 0.0000,  0.0000,  0.0000)
  43 Cr     5.457934    1.842230    3.658769    ( 0.0000,  0.0000,  0.0000)
  44 Cr     7.360615   10.815439    3.672229    ( 0.0000,  0.0000,  0.0000)
  45 Al     7.266884    1.811614    5.485528    ( 0.0000,  0.0000,  2.1000)
  46 Al     9.077986    0.023590    5.491921    ( 0.0000,  0.0000,  0.0000)
  47 Co     9.066788    1.824226    3.671175    ( 0.0000,  0.0000,  1.5000)
  48 Fe    -0.047135    3.649615    3.617291    ( 0.0000,  0.0000,  2.0000)
  49 Cr    10.809264    5.435993    5.379805    ( 0.0000,  0.0000,  2.0000)
  50 Cr     1.752316    3.624989    5.344676    ( 0.0000,  0.0000,  0.0000)
  51 Ni     1.805786    5.472046    3.619389    ( 0.0000,  0.0000,  2.1000)
[...]
  98 Ni     1.863247    7.257381    9.054785    ( 0.0000,  0.0000,  2.0000)
  99 Fe     1.858343    9.053708    7.225808    ( 0.0000,  0.0000,  2.1000)
 100 Al     3.683906    7.292456    7.235550    ( 0.0000,  0.0000,  2.0000)
 101 Cr     3.628218    9.069550    9.051262    ( 0.0000,  0.0000,  2.1000)
 102 Co     5.530605    7.331890    9.040129    ( 0.0000,  0.0000,  0.0000)
 103 Al     5.476232    9.097209    7.250467    ( 0.0000,  0.0000,  2.0000)
 104 Cr     7.256827    7.264242    7.208456    ( 0.0000,  0.0000,  2.1000)
 105 Al     7.272548    9.136437    9.056861    ( 0.0000,  0.0000,  1.5000)
 106 Fe     8.936493    7.190875    9.109767    ( 0.0000,  0.0000,  0.0000)
 107 Co     8.994682    9.112169    7.218480    ( 0.0000,  0.0000,  0.0000)

Unit cell:
           periodic     x           y           z      points  spacing
  1. axis:    yes   10.872400    0.000000    0.000000    48     0.2265
  2. axis:    yes    0.000000   10.872400    0.000000    48     0.2265
  3. axis:    yes    0.000000    0.000000   10.872400    48     0.2265

  Lengths:  10.872400  10.872400  10.872400
  Angles:   90.000000  90.000000  90.000000

Effective grid spacing dv^(1/3) = 0.2265

     iter     time        total  log10-change:  magmom
                         energy  eigst   dens
iter:   1 03:22:01  -944.712481                  +120.1685
iter:   2 03:24:08  -848.785077  -0.23  -1.21    +76.2989
iter:   3 03:26:15  -846.332496  -0.73  -1.23    +44.4671
iter:   4 03:28:20  -818.836832  -1.16  -1.26    +41.0778
iter:   5 03:30:17  -811.141874  -1.64  -1.34    +37.9166
iter:   6 03:32:15  -814.526807  -1.58  -1.39    +37.9869
iter:   7 03:34:12  -806.240383  -1.49  -1.41    +37.6805
iter:   8 03:36:10  -807.190963  -1.58  -1.53    +38.2808
iter:   9 03:38:08  -808.558898  -1.74  -1.58    +39.1179
iter:  10 03:40:05  -802.443635  -1.89  -1.60    +39.5189
iter:  11 03:42:02  -802.075864  -2.29  -1.73    +40.5900
iter:  12 03:44:00  -801.916664  -2.38  -1.78    +42.1690
iter:  13 03:45:57  -804.658058  -2.28  -1.83    +43.6963
iter:  14 03:47:55  -803.098333  -2.33  -1.78    +44.9632
iter:  15 03:49:52  -804.026966  -2.35  -1.87    +46.3106
iter:  16 03:51:49  -804.066207  -2.29  -1.89    +47.2613
iter:  17 03:53:47  -803.241380  -2.48  -1.93    +48.5009
iter:  18 03:55:45  -802.750472  -2.65  -1.98    +49.4821
iter:  19 03:57:42  -803.023294  -2.87  -2.04    +50.3672
iter:  20 03:59:39  -803.073505  -2.81  -2.07    +51.4407
iter:  21 04:01:37  -802.704617  -3.08  -2.07    +52.2605
iter:  22 04:03:34  -802.947660  -3.21  -2.16    +53.4451
iter:  23 04:05:30  -803.324751  -3.09  -2.18    +54.0952
iter:  24 04:07:33  -803.318103  -2.98  -2.17    +54.5714
iter:  25 04:09:57  -803.659603  -2.95  -2.22    +55.4239
iter:  26 04:11:55  -803.832805  -2.93  -2.22    +55.9511
iter:  27 04:13:52  -803.790077  -2.98  -2.24    +56.5657
iter:  28 04:15:49  -803.613458  -3.28  -2.24    +57.1262
iter:  29 04:17:47  -803.664337  -3.27  -2.38    +57.9325
iter:  30 04:19:45  -803.628942c -3.73  -2.36    +58.4156
iter:  31 04:21:42  -803.727969  -3.84  -2.43    +59.0142
iter:  32 04:23:40  -803.891371  -3.55  -2.45    +59.5752
iter:  33 04:25:38  -804.155445  -3.23  -2.44    +59.8898
iter:  34 04:27:35  -803.883131  -3.54  -2.38    +60.1413
iter:  35 04:29:33  -804.070494  -3.40  -2.67    +60.4267
iter:  36 04:31:30  -803.944688  -3.69  -2.56    +60.5754
iter:  37 04:33:28  -803.963913  -3.90  -2.76    +60.9172
iter:  38 04:35:26  -803.957269c -4.31  -2.75    +61.1237
iter:  39 04:37:23  -803.986272c -4.25  -2.88    +61.4003
iter:  40 04:39:20  -803.990305c -4.54  -2.86    +61.6256
iter:  41 04:41:18  -804.021044c -4.55  -2.91    +61.9295
iter:  42 04:43:15  -804.031488c -4.84  -2.87    +62.0665
iter:  43 04:45:13  -804.050892c -4.37  -2.88    +62.3819
iter:  44 04:47:10  -804.047641c -4.36  -2.93    +62.5117
iter:  45 04:49:07  -804.061266c -4.34  -3.05    +62.5882
iter:  46 04:51:04  -804.070805c -4.37  -3.05    +62.6425
iter:  47 04:53:01  -804.063867c -4.70  -3.03    +62.6621
iter:  48 04:54:58  -804.071757c -4.83  -3.16    +62.7512
iter:  49 04:56:55  -804.076271c -4.95  -3.18    +62.7651
iter:  50 04:58:58  -804.081756c -5.07  -3.19    +62.7814
iter:  51 05:01:23  -804.085527c -4.91  -3.23    +62.8147
iter:  52 05:03:22  -804.086614c -5.08  -3.24    +62.8230
iter:  53 05:05:19  -804.092370c -4.90  -3.35    +62.8250
iter:  54 05:07:16  -804.092659c -5.12  -3.41    +62.8188
iter:  55 05:09:14  -804.097007c -5.20  -3.43    +62.8410
iter:  56 05:11:12  -804.098650c -5.39  -3.50    +62.8407
iter:  57 05:13:09  -804.101522c -5.62  -3.54    +62.8323
iter:  58 05:15:07  -804.107672c -5.32  -3.57    +62.8248
iter:  59 05:17:04  -804.097327c -4.92  -3.52    +62.8340
iter:  60 05:19:01  -804.111070c -4.79  -3.49    +62.8294
iter:  61 05:20:59  -804.110110c -5.67  -3.54    +62.8517
iter:  62 05:22:56  -804.114291c -5.41  -3.57    +62.8351
iter:  63 05:24:54  -804.117574c -5.40  -3.59    +62.8311
iter:  64 05:26:51  -804.120568c -5.51  -3.45    +62.8104
iter:  65 05:28:49  -804.123961c -5.42  -3.51    +62.8011
iter:  66 05:30:47  -804.126362c -5.74  -3.43    +62.7991
iter:  67 05:32:44  -804.132640c -5.39  -3.46    +62.7876
iter:  68 05:34:41  -804.136646c -5.32  -3.41    +62.7822
iter:  69 05:36:39  -804.139207c -5.69  -3.33    +62.7717
iter:  70 05:38:36  -804.152589c -4.70  -3.34    +62.7169
iter:  71 05:40:33  -804.151208c -5.32  -3.25    +62.6510
iter:  72 05:42:30  -804.155770c -5.48  -3.33    +62.6003
iter:  73 05:44:27  -804.179217c -4.13  -3.31    +62.2854
iter:  74 05:46:46  -804.178921c -5.09  -3.17    +62.3403
iter:  75 05:48:54  -804.183112c -5.23  -3.17    +62.2510
iter:  76 05:50:51  -804.189091c -4.87  -3.16    +62.1409
iter:  77 05:52:49  -804.197026c -4.79  -3.11    +62.0669
iter:  78 05:54:46  -804.205433c -4.54  -3.02    +62.0792
iter:  79 05:56:43  -804.197389c -4.57  -2.94    +62.0269
iter:  80 05:58:41  -804.200231c -4.42  -2.98    +62.0560
iter:  81 06:00:38  -804.188880c -4.33  -2.95    +62.0374
iter:  82 06:02:35  -804.181138c -4.66  -3.02    +62.0603
iter:  83 06:04:32  -804.179161c -4.93  -3.13    +62.0265
iter:  84 06:06:30  -804.176031c -5.04  -3.17    +62.0077
iter:  85 06:08:28  -804.180714c -4.53  -3.18    +62.0298
iter:  86 06:10:25  -804.202998c -4.26  -3.16    +62.0335
iter:  87 06:12:22  -804.173731c -4.60  -3.00    +62.0220
iter:  88 06:14:19  -804.173322c -4.75  -3.30    +62.0072
iter:  89 06:16:40  -804.171610c -4.94  -3.23    +62.0313
iter:  90 06:18:49  -804.169432c -5.19  -3.36    +62.0746
iter:  91 06:20:45  -804.167261c -5.74  -3.48    +62.0638
iter:  92 06:22:43  -804.168180c -5.57  -3.59    +62.0720
iter:  93 06:24:40  -804.167399c -5.69  -3.53    +62.0767
iter:  94 06:26:37  -804.169062c -5.62  -3.60    +62.0856
iter:  95 06:28:35  -804.167492c -5.57  -3.57    +62.0799
iter:  96 06:30:31  -804.167185c -5.49  -3.59    +62.0740
iter:  97 06:32:28  -804.167586c -5.62  -3.58    +62.0904
iter:  98 06:34:26  -804.167251c -5.87  -3.66    +62.0900
iter:  99 06:36:23  -804.166914c -5.82  -3.74    +62.0862
iter: 100 06:38:20  -804.166129c -6.20  -3.76    +62.0808
iter: 101 06:40:18  -804.166683c -6.21  -3.80    +62.0830
iter: 102 06:42:15  -804.166878c -6.20  -3.87    +62.0813
iter: 103 06:44:13  -804.166298c -6.09  -3.84    +62.0734
iter: 104 06:46:10  -804.166238c -6.35  -3.85    +62.0703
iter: 105 06:48:06  -804.166605c -6.03  -3.95    +62.0688
iter: 106 06:50:03  -804.166919c -6.23  -3.85    +62.0682
iter: 107 06:52:00  -804.166198c -6.33  -3.95    +62.0568
iter: 108 06:53:57  -804.166044c -6.65  -4.02c   +62.0521
iter: 109 06:55:53  -804.166306c -6.66  -4.08c   +62.0505
iter: 110 06:58:08  -804.166233c -7.04  -4.08c   +62.0453
iter: 111 07:00:17  -804.166237c -7.19  -4.17c   +62.0404
iter: 112 07:02:14  -804.166192c -7.12  -4.16c   +62.0330
iter: 113 07:04:12  -804.166543c -6.97  -4.19c   +62.0338
iter: 114 07:06:09  -804.166292c -6.69  -4.13c   +62.0236
iter: 115 07:08:06  -804.166169c -6.54  -4.26c   +62.0179
iter: 116 07:10:04  -804.166294c -6.81  -4.17c   +62.0143
iter: 117 07:12:01  -804.166351c -6.98  -4.71c   +62.0057
iter: 118 07:13:59  -804.166266c -6.41  -4.75c   +62.0346
iter: 119 07:15:57  -804.166321c -5.27  -4.70c   +62.1322
iter: 120 07:17:54  -804.166716c -5.32  -4.34c   +62.2037
iter: 121 07:19:51  -804.166981c -5.80  -4.15c   +62.2266
iter: 122 07:21:48  -804.167036c -6.30  -4.09c   +62.2305
iter: 123 07:23:46  -804.167113c -6.65  -4.07c   +62.2294
iter: 124 07:25:43  -804.167168c -6.76  -4.05c   +62.2256
iter: 125 07:27:40  -804.166970c -6.56  -4.03c   +62.2199
iter: 126 07:29:37  -804.166507c -6.49  -3.98    +62.2223
iter: 127 07:31:34  -804.167439c -6.29  -3.98    +62.2195
iter: 128 07:33:31  -804.166387c -6.55  -3.88    +62.2121
iter: 129 07:35:28  -804.166353c -5.93  -4.01c   +62.2070
iter: 130 07:37:25  -804.166266c -6.42  -3.94    +62.2070
iter: 131 07:39:22  -804.166118c -6.89  -4.04c   +62.2034
iter: 132 07:41:19  -804.166079c -6.71  -4.25c   +62.2003
iter: 133 07:43:16  -804.166216c -6.55  -4.13c   +62.1986
iter: 134 07:45:13  -804.165979c -6.83  -4.32c   +62.1935
iter: 135 07:47:10  -804.166204c -6.91  -4.38c   +62.1928
iter: 136 07:49:07  -804.165947c -7.02  -4.37c   +62.1876
iter: 137 07:51:04  -804.165933c -7.21  -4.53c   +62.1864
iter: 138 07:53:12  -804.166004c -7.30  -4.50c   +62.1841
iter: 139 07:55:33  -804.165963c -7.28  -4.69c   +62.1791
iter: 140 07:57:30  -804.165972c -7.95c -4.78c   +62.1789

Converged after 140 iterations.

Dipole moment: (29.794196, 17.371867, 7.887116) |e|*Ang

Total magnetic moment: (0.000000, 0.000000, 62.178941)
Local magnetic moments:
   0 Cr ( 0.000000,  0.000000, -1.954921)
   1 Al ( 0.000000,  0.000000, -0.033999)
   2 Cr ( 0.000000,  0.000000,  1.679909)
   3 Co ( 0.000000,  0.000000,  1.194747)
   4 Al ( 0.000000,  0.000000, -0.015778)
   5 Ni ( 0.000000,  0.000000,  0.150463)
   6 Co ( 0.000000,  0.000000,  0.954088)
   7 Al ( 0.000000,  0.000000, -0.027800)
   8 Al ( 0.000000,  0.000000, -0.046393)
   9 Fe ( 0.000000,  0.000000,  2.088307)
  10 Fe ( 0.000000,  0.000000,  1.995851)
  11 Fe ( 0.000000,  0.000000,  2.267499)
  12 Ni ( 0.000000,  0.000000,  0.476381)
  13 Ni ( 0.000000,  0.000000,  0.456282)
  14 Co ( 0.000000,  0.000000,  1.179831)
  15 Fe ( 0.000000,  0.000000,  2.538709)
  16 Ni ( 0.000000,  0.000000,  0.259957)
  17 Co ( 0.000000,  0.000000,  1.245235)
  18 Al ( 0.000000,  0.000000, -0.031164)
  19 Ni ( 0.000000,  0.000000,  0.353371)
  20 Co ( 0.000000,  0.000000,  1.293388)
  21 Al ( 0.000000,  0.000000, -0.018379)
  22 Ni ( 0.000000,  0.000000,  0.285376)
  23 Ni ( 0.000000,  0.000000,  0.491843)
  24 Ni ( 0.000000,  0.000000,  0.397516)
  25 Fe ( 0.000000,  0.000000,  2.104597)
  26 Fe ( 0.000000,  0.000000,  2.316053)
  27 Cr ( 0.000000,  0.000000, -1.616114)
  28 Fe ( 0.000000,  0.000000,  2.278071)
  29 Co ( 0.000000,  0.000000,  0.677568)
  30 Ni ( 0.000000,  0.000000,  0.110134)
  31 Fe ( 0.000000,  0.000000,  2.283229)
  32 Ni ( 0.000000,  0.000000,  0.329398)
  33 Co ( 0.000000,  0.000000,  1.048967)
  34 Ni ( 0.000000,  0.000000,  0.165197)
  35 Cr ( 0.000000,  0.000000,  1.287866)
  36 Fe ( 0.000000,  0.000000,  1.919887)
  37 Fe ( 0.000000,  0.000000,  1.714526)
  38 Cr ( 0.000000,  0.000000, -1.464830)
  39 Al ( 0.000000,  0.000000, -0.023704)
  40 Al ( 0.000000,  0.000000,  0.001375)
  41 Co ( 0.000000,  0.000000,  0.071704)
  42 Al ( 0.000000,  0.000000, -0.011172)
  43 Cr ( 0.000000,  0.000000, -2.194586)
  44 Cr ( 0.000000,  0.000000,  0.754405)
  45 Al ( 0.000000,  0.000000, -0.019827)
  46 Al ( 0.000000,  0.000000, -0.023049)
  47 Co ( 0.000000,  0.000000,  0.912863)
  48 Fe ( 0.000000,  0.000000,  2.130800)
  49 Cr ( 0.000000,  0.000000,  0.818587)
  50 Cr ( 0.000000,  0.000000, -2.013568)
  51 Ni ( 0.000000,  0.000000,  0.312126)
  52 Cr ( 0.000000,  0.000000,  1.926905)
  53 Co ( 0.000000,  0.000000,  0.601046)
  54 Ni ( 0.000000,  0.000000,  0.186813)
  55 Al ( 0.000000,  0.000000, -0.022401)
  56 Cr ( 0.000000,  0.000000,  1.844111)
  57 Ni ( 0.000000,  0.000000,  0.199100)
  58 Co ( 0.000000,  0.000000,  0.916719)
  59 Cr ( 0.000000,  0.000000, -1.874986)
[...]
  93 Co ( 0.000000,  0.000000,  1.390934)
  94 Fe ( 0.000000,  0.000000,  2.345613)
  95 Cr ( 0.000000,  0.000000,  1.073637)
  96 Cr ( 0.000000,  0.000000, -1.816752)
  97 Ni ( 0.000000,  0.000000,  0.235741)
  98 Ni ( 0.000000,  0.000000,  0.303076)
  99 Fe ( 0.000000,  0.000000,  2.023908)
 100 Al ( 0.000000,  0.000000, -0.031236)
 101 Cr ( 0.000000,  0.000000,  0.528584)
 102 Co ( 0.000000,  0.000000,  0.685701)
 103 Al ( 0.000000,  0.000000, -0.002196)
 104 Cr ( 0.000000,  0.000000, -1.613565)
 105 Al ( 0.000000,  0.000000, -0.022313)
 106 Fe ( 0.000000,  0.000000,  2.321304)
 107 Co ( 0.000000,  0.000000,  0.781156)

Energy contributions relative to reference atoms: (reference = -3235165.067515)

Kinetic:       +256.945779
Potential:     -245.307976
External:        +0.000000
XC:            -844.930198
Entropy (-ST):   -4.148899
Local:          +31.200873
Free energy:   -806.240422
Extrapolated:  -804.165972

Spin contamination: 25.002165 electrons
Showing only first 2 kpts
                      Up                     Down
 Kpt  Band  Eigenvalues  Occupancy  Eigenvalues  Occupancy
  0   454      8.98657    0.99535      9.91506    0.01950
  0   455      8.99253    0.99507      9.93191    0.01653
  0   456      8.99694    0.99485      9.94423    0.01464
  0   457      9.01857    0.99361      9.95335    0.01338

  1   454      8.96544    0.99624      9.90389    0.02175
  1   455      8.97987    0.99565      9.92733    0.01729
  1   456      8.99064    0.99516      9.93705    0.01571
  1   457      9.00549    0.99439      9.94470    0.01457

Fermi level: 9.52329

No gap

Forces in eV/Ang:
  0 Cr    0.54611   -0.74422   -0.70507
  1 Al   -0.73059    0.80778   -0.53836
  2 Cr   -0.62593   -0.09944   -1.10231
  3 Co    0.13266    0.03590   -0.18006
  4 Al    0.16005    0.57374    0.81827
  5 Ni    0.27959   -0.57345    0.53855
  6 Co   -0.23794    0.23922    1.07897
  7 Al   -0.59218    0.19043    0.07535
  8 Al   -0.84340    0.04227    1.81576
  9 Fe    0.26325   -0.16839    0.52253
 10 Fe    0.18235   -0.29439    0.33387
 11 Fe    0.57314    0.27756   -0.03741
 12 Ni   -0.06977   -0.21957   -0.13468
 13 Ni   -0.00979   -0.16640    0.03770
 14 Co    0.39328    0.01541   -0.31510
 15 Fe    0.48536   -0.19805    0.54012
 16 Ni   -0.38308   -0.01546    0.14654
 17 Co   -0.46658    0.56690    0.18863
 18 Al   -0.99885   -0.27933   -0.64569
 19 Ni   -0.37485    0.07384   -0.30404
 20 Co    0.41030    0.00882   -0.03065
 21 Al    1.12705    0.59930   -1.04929
 22 Ni   -0.45218   -0.11007    0.32089
 23 Ni    0.09959   -0.11545   -0.16215
 24 Ni   -0.05053    0.66029   -0.12003
 25 Fe   -0.62979    0.14181   -0.51960
 26 Fe    0.21175   -0.15211   -0.07508
 27 Cr   -1.00190   -0.51958   -0.03079
 28 Fe   -0.01471   -0.00781    0.55400
 29 Co    0.37811   -0.20884    0.57346
 30 Ni   -0.59279    0.23051    0.10544
 31 Fe    0.00672   -0.59226    0.50028
 32 Ni   -0.14126    0.00225   -0.62625
 33 Co   -0.03808    0.14987    0.42943
 34 Ni    0.34738    0.57342    0.02200
 35 Cr    1.02169   -0.33316    0.29121
 36 Fe   -0.25335   -0.13098   -0.18670
 37 Fe    0.12309    0.72041   -0.29026
 38 Cr    0.52743    0.21767    0.32681
 39 Al    0.92638    0.45428    0.14432
 40 Al    1.95820    0.93209   -0.48943
 41 Co    0.00129    0.18357   -0.33980
 42 Al   -1.03543    1.52486   -0.69420
 43 Cr   -0.33021   -0.27788   -0.60059
 44 Cr   -0.87749    0.04035   -1.38141
 45 Al    0.19225    1.08304    0.29976
 46 Al    0.12149   -0.30283   -0.43095
 47 Co   -0.39714    0.09035   -0.29161
 48 Fe   -0.16226    0.39652    0.26339
 49 Cr    0.09344    0.28753    0.35865
 50 Cr    0.35406    0.25695    0.89371
 51 Ni    0.28876    0.00736    0.04579
 52 Cr   -0.48489   -0.22311    0.30769
 53 Co   -0.65855    0.10109    0.22188
 54 Ni    0.00278   -0.38624   -0.06054
 55 Al   -0.39713    1.02631    0.99538
 56 Cr    1.02386   -1.07447   -0.47629
 57 Ni    0.24550   -0.32686   -0.11674
 58 Co   -0.02161    0.33622   -0.08473
 59 Cr    0.57483   -0.66058    0.60086
[...]
 93 Co   -0.00054    0.32097    0.13227
 94 Fe   -0.22836   -0.26478    0.16076
 95 Cr   -0.20275    0.15260   -0.38360
 96 Cr   -0.10185    0.19359    0.57267
 97 Ni   -0.49187   -0.33044    0.07778
 98 Ni   -0.42355   -0.17294   -0.07790
 99 Fe   -0.83753   -0.15052    0.08029
100 Al   -0.58883   -0.82056   -0.53641
101 Cr    0.00373   -0.32069    0.13373
102 Co   -0.23064   -0.45923    0.25129
103 Al   -0.38626   -0.59413    0.92651
104 Cr    0.61490   -1.34838    0.93002
105 Al   -0.23271   -1.55817   -0.22125
106 Fe    0.56094    0.38287   -0.48433
107 Co    0.67332   -0.90280    0.40313

Date: Sat Apr 15 07:57:51 2023