User:   c.zeng@d0053
Date:   Fri Apr 14 00:37:25 2023
Arch:   x86_64
Pid:    194814
CWD:    /home/c.zeng/projects/hea-corrosion/hea-mlp/data-curation/bulk-md/dft-jobs/67
Python: 3.8.1
gpaw:   /home/c.zeng/usr/installs/gpaw/source/gpaw-22.8.0/gpaw
_gpaw:  /home/c.zeng/usr/installs/gpaw/source/gpaw-22.8.0/
        _gpaw.cpython-38-x86_64-linux-gnu.so
ase:    /home/c.zeng/.local/lib/python3.8/site-packages/ase-3.22.1-py3.8.egg/ase (version 3.22.1)
numpy:  /shared/centos7/python/3.8.1/lib/python3.8/site-packages/numpy (version 1.17.4)
scipy:  /shared/centos7/python/3.8.1/lib/python3.8/site-packages/scipy (version 1.4.1)
units:  Angstrom and eV
cores: 30
OpenMP: False
OMP_NUM_THREADS: 1

Input parameters:
  convergence: {energy: 0.0001}
  kpts: [2 2 2]
  maxiter: 666
  mode: {ecut: 350.0,
         name: pw}
  occupations: {fixmagmom: False,
                name: fermi-dirac,
                width: 0.1}
  spinpol: True
  xc: PBE

System changes: positions, numbers, cell, pbc, initial_charges, initial_magmoms

Initialize ...

species:
  Fe:
    name: Iron
    id: 37abbd8d6c3c35915a9b583b742da910
    Z: 26.0
    valence: 8
    core: 18
    charge: 0.0
    file: /home/c.zeng/usr/data/gpaw-setups-0.9.20000/Fe.PBE.gz
    compensation charges: {type: gauss,
                           rc: 0.33,
                           lmax: 2}
    cutoffs: {filter: 2.06,
              core: 2.67}
    valence states:
      #              energy  rcut
      - 4s(2.00)    -5.291   1.164
      - 4p(0.00)    -1.326   1.058
      - 3d(6.00)    -7.505   1.058
      -  s          21.920   1.164
      -  p          25.885   1.058
      -  d          19.706   1.058

    # Using partial waves for Fe as LCAO basis

  Cr:
    name: Chromium
    id: 33f258bda2ca9f93018e70263a35547b
    Z: 24.0
    valence: 6
    core: 18
    charge: 0.0
    file: /home/c.zeng/usr/data/gpaw-setups-0.9.20000/Cr.PBE.gz
    compensation charges: {type: gauss,
                           rc: 0.35,
                           lmax: 2}
    cutoffs: {filter: 2.14,
              core: 3.04}
    valence states:
      #              energy  rcut
      - 4s(1.00)    -4.007   1.164
      - 4p(0.00)    -0.989   1.217
      - 3d(5.00)    -2.913   1.111
      -  s          23.205   1.164
      -  p          26.223   1.217
      -  d          24.299   1.111

[...]

  Ni:
    name: Nickel
    id: 0d9f38a9d6e76a2886f07bb4381f212b
    Z: 28.0
    valence: 16
    core: 12
    charge: 0.0
    file: /home/c.zeng/usr/data/gpaw-setups-0.9.20000/Ni.PBE.gz
    compensation charges: {type: gauss,
                           rc: 0.36,
                           lmax: 2}
    cutoffs: {filter: 2.14,
              core: 1.98}
    valence states:
      #              energy  rcut
      - 4s(2.00)    -5.642   1.164
      - 3p(6.00)   -71.394   1.207
      - 4p(0.00)    -1.226   1.207
      - 3d(8.00)    -8.875   1.138
      -  s          21.570   1.164
      -  d          18.337   1.138

[...]

  Al:
    name: Aluminium
    id: 0292cae29f5d6237e50f6abdd43a7bdd
    Z: 13.0
    valence: 3
    core: 10
    charge: 0.0
    file: /home/c.zeng/usr/data/gpaw-setups-0.9.20000/Al.PBE.gz
    compensation charges: {type: gauss,
                           rc: 0.34,
                           lmax: 2}
    cutoffs: {filter: 1.91,
              core: 2.36}
    valence states:
      #              energy  rcut
      - 3s(2.00)    -7.753   1.085
      - 3p(1.00)    -2.712   1.085
      -  s          19.459   1.085
      -  p          24.499   1.085
      -  d           0.000   1.085

[...]

  Co:
    name: Cobalt
    id: 339d20d5b0b93d2de9531a1bee871d91
    Z: 27.0
    valence: 9
    core: 18
    charge: 0.0
    file: /home/c.zeng/usr/data/gpaw-setups-0.9.20000/Co.PBE.gz
    compensation charges: {type: gauss,
                           rc: 0.32,
                           lmax: 2}
    cutoffs: {filter: 1.87,
              core: 2.55}
    valence states:
      #              energy  rcut
      - 4s(2.00)    -5.469   1.005
      - 4p(0.00)    -1.277   1.058
      - 3d(7.00)    -8.205   1.005
      -  s          21.742   1.005
      -  p          25.934   1.058
      -  d          19.007   1.005

    # Using partial waves for Co as LCAO basis

Reference energy: -3382523.201499  # eV

Spin-polarized calculation.
Magnetic moment: 128.800000

Convergence criteria:
 Maximum [total energy] change in last 3 cyles: 0.0001 eV / electron
 Maximum integral of absolute [dens]ity change: 0.0001 electrons / valence electron
 Maximum integral of absolute [eigenst]ate change: 4e-08 eV^2 / valence electron
 Maximum number of scf [iter]ations: 666
 (Square brackets indicate name in SCF output, whereas a 'c' in
 the SCF output indicates the quantity has converged.)

Symmetries present (total): 1

  ( 1  0  0)
  ( 0  1  0)
  ( 0  0  1)

8 k-points: 2 x 2 x 2 Monkhorst-Pack grid
4 k-points in the irreducible part of the Brillouin zone
       k-points in crystal coordinates                weights
   0:     0.25000000   -0.25000000   -0.25000000          2/8
   1:     0.25000000   -0.25000000    0.25000000          2/8
   2:     0.25000000    0.25000000   -0.25000000          2/8
   3:     0.25000000    0.25000000    0.25000000          2/8

Wave functions: Plane wave expansion
  Cutoff energy: 350.000 eV
  Number of coefficients (min, max): 18865, 18865
  Pulay-stress correction: 0.000000 eV/Ang^3 (de/decut=0.000000)
  Using FFTW library
  ScaLapack parameters: grid=1x1, blocksize=None
  Wavefunction extrapolation:
    Improved wavefunction reuse through dual PAW basis

Occupation numbers: Fermi-Dirac:
  width: 0.1000  # eV

Eigensolver
   Davidson(niter=2)

Densities:
  Coarse grid: 48*48*48 grid
  Fine grid: 96*96*96 grid
  Total Charge: 0.000000

Density mixing:
  Method: difference
  Backend: pulay
  Linear mixing parameter: 0.05
  old densities: 5
  Damping of long wavelength oscillations: 50

Hamiltonian:
  XC and Coulomb potentials evaluated on a 96*96*96 grid
  Using the PBE Exchange-Correlation functional
  External potential:
    NoExternalPotential

XC parameters: PBE with 2 nearest neighbor stencil

Total number of cores used: 30
Parallelization over k-points: 2
Domain decomposition: 5 x 3 x 1

Number of atoms: 108
Number of atomic orbitals: 961
Number of bands in calculation: 649
Number of valence electrons: 945
Bands to converge: occupied

... initialized

Initializing position-dependent things.

Density initialized from atomic densities
Creating initial wave functions:
  649 bands from LCAO basis set

        Fe-------------------------.
       /|  Al                Ni    |
      / |    Co         Ni     Ni  |
     /  |                Ni       Fe
    /   |Cr     AlFe        Co     |
   /Ni  |Co Co     CrCo      Fe    |
  /  FeCr  Ni FeAl     CrCo        |
 *      CoAl   CrNi  Fe   Fe  CoNi |
 | Co   |CrFe   CrCo Al  FeCr    Co|
 |      |Al NiCr   Al Al  CrCrNi   |
 |    Co|  Ni FFe   Ni NiNi   CCr  |
 |     Co Fe   AlFeCo   AlCo    Fe |
 |     CAl  Al Cr FeCo  Cr Co      |
 |      .-Cr-Al------Ni---AlCCo----.
 |  NiCor    CrNi  Fee Fe         /
 |    Ni      Cr Co     Ni       /
 |   /  FeFe              CoNi  /
 |  /      Fe  Ni   Co       Cr/
 | / Ni              Cr Ni    /

Positions:
   0 Fe    10.976390   10.648662   10.758201    ( 0.0000,  0.0000,  2.0000)
   1 Cr    10.724477    1.964232    1.556445    ( 0.0000,  0.0000,  0.0000)
   2 Ni     1.760780    0.067106    1.922429    ( 0.0000,  0.0000,  1.5000)
   3 Cr     1.729202    1.932396   10.749175    ( 0.0000,  0.0000,  0.0000)
   4 Al     3.550362    0.009382   -0.156027    ( 0.0000,  0.0000,  0.0000)
   5 Fe     3.586043    1.582079    1.698483    ( 0.0000,  0.0000,  2.0000)
   6 Ni     5.487631   11.166357    1.945181    ( 0.0000,  0.0000,  1.5000)
   7 Al     5.378150    1.941433   -0.334635    ( 0.0000,  0.0000,  0.0000)
   8 Al     7.157533   10.654274    0.062558    ( 0.0000,  0.0000,  0.0000)
   9 Co     7.307746    1.868971    1.707437    ( 0.0000,  0.0000,  2.1000)
  10 Ni     9.283914    0.091836    1.718910    ( 0.0000,  0.0000,  1.5000)
  11 Co     9.167508    1.698706   -0.213559    ( 0.0000,  0.0000,  2.1000)
  12 Ni     0.339852    3.698386   10.717563    ( 0.0000,  0.0000,  1.5000)
  13 Cr    10.879929    5.341458    2.012308    ( 0.0000,  0.0000,  0.0000)
  14 Fe     2.048871    3.510232    1.784996    ( 0.0000,  0.0000,  2.0000)
  15 Cr     1.931432    5.364404   10.807819    ( 0.0000,  0.0000,  0.0000)
  16 Co     3.522878    3.738679   10.595881    ( 0.0000,  0.0000,  2.1000)
  17 Cr     3.505327    5.518152    1.646941    ( 0.0000,  0.0000,  0.0000)
  18 Co     5.482601    3.698504    1.843190    ( 0.0000,  0.0000,  2.1000)
  19 Fe     5.362172    5.396519   -0.009738    ( 0.0000,  0.0000,  2.0000)
  20 Cr     7.111479    3.555341    0.114346    ( 0.0000,  0.0000,  0.0000)
  21 Fe     7.445489    5.125296    1.897410    ( 0.0000,  0.0000,  2.0000)
  22 Co     9.054091    3.613519    1.643546    ( 0.0000,  0.0000,  2.1000)
  23 Al     9.227138    5.451679   10.886431    ( 0.0000,  0.0000,  0.0000)
  24 Ni    10.924623    7.052894   10.870308    ( 0.0000,  0.0000,  1.5000)
  25 Cr    10.947631    9.126131    1.929716    ( 0.0000,  0.0000,  0.0000)
  26 Cr     1.828042    7.132694    1.935307    ( 0.0000,  0.0000,  0.0000)
  27 Al     1.679518    8.789463   -0.145802    ( 0.0000,  0.0000,  0.0000)
  28 Cr     3.543416    7.136003    0.110530    ( 0.0000,  0.0000,  0.0000)
  29 Cr     3.323107    8.981811    1.849427    ( 0.0000,  0.0000,  0.0000)
  30 Fe     5.470764    6.899080    1.679505    ( 0.0000,  0.0000,  2.0000)
  31 Fe     5.273292    8.771464    0.040166    ( 0.0000,  0.0000,  2.0000)
  32 Ni     7.346003    7.382995   -0.191243    ( 0.0000,  0.0000,  1.5000)
  33 Cr     6.924259    8.818626    2.042667    ( 0.0000,  0.0000,  0.0000)
  34 Co     8.849515    7.210704    1.702346    ( 0.0000,  0.0000,  2.1000)
  35 Ni     9.111778    8.645616   10.808280    ( 0.0000,  0.0000,  1.5000)
  36 Ni    -0.022156   11.034703    3.592529    ( 0.0000,  0.0000,  1.5000)
  37 Co    10.699327    1.712707    5.310027    ( 0.0000,  0.0000,  2.1000)
  38 Co     1.926821   10.822789    5.383960    ( 0.0000,  0.0000,  2.1000)
  39 Cr     2.089879    1.777840    3.793427    ( 0.0000,  0.0000,  0.0000)
  40 Fe     3.626857   10.844449    3.476765    ( 0.0000,  0.0000,  2.0000)
  41 Al     3.830346    1.798714    5.512543    ( 0.0000,  0.0000,  0.0000)
  42 Fe     5.425560   10.698796    5.367200    ( 0.0000,  0.0000,  2.0000)
  43 Ni     5.287543    1.980583    3.638935    ( 0.0000,  0.0000,  1.5000)
  44 Cr     7.099670   -0.011699    3.721435    ( 0.0000,  0.0000,  0.0000)
  45 Co     7.079202    1.797536    5.329168    ( 0.0000,  0.0000,  2.1000)
  46 Co     8.839915   10.766773    5.192942    ( 0.0000,  0.0000,  2.1000)
  47 Ni     8.796524    1.835945    3.559728    ( 0.0000,  0.0000,  1.5000)
  48 Ni    10.968370    3.312838    3.558446    ( 0.0000,  0.0000,  1.5000)
  49 Cr    10.552888    5.439061    5.578002    ( 0.0000,  0.0000,  0.0000)
  50 Co     1.505524    3.835359    5.425884    ( 0.0000,  0.0000,  2.1000)
  51 Al     1.371343    5.469018    3.554898    ( 0.0000,  0.0000,  0.0000)
  52 Al     3.750923    4.015526    3.561836    ( 0.0000,  0.0000,  0.0000)
  53 Fe     3.703581    5.399867    5.484429    ( 0.0000,  0.0000,  2.0000)
  54 Fe     5.491370    3.693988    5.472388    ( 0.0000,  0.0000,  2.0000)
  55 Fe     5.596906    5.439793    3.695040    ( 0.0000,  0.0000,  2.0000)
  56 Ni     7.224037    3.544920    3.660133    ( 0.0000,  0.0000,  1.5000)
  57 Ni     7.324773    5.336725    5.488354    ( 0.0000,  0.0000,  1.5000)
  58 Co     9.160835    3.460872    5.312053    ( 0.0000,  0.0000,  2.1000)
  59 Co     9.026626    5.130734    3.877636    ( 0.0000,  0.0000,  2.1000)
[...]
  93 Cr     7.268155    5.334251    9.017354    ( 0.0000,  0.0000,  0.0000)
  94 Fe     9.181167    3.729968    9.176078    ( 0.0000,  0.0000,  2.0000)
  95 Cr     9.125755    5.432584    7.347866    ( 0.0000,  0.0000,  0.0000)
  96 Ni    10.549568    7.254579    7.280301    ( 0.0000,  0.0000,  1.5000)
  97 Fe    10.804849    9.056873    9.034507    ( 0.0000,  0.0000,  2.0000)
  98 Co     1.552892    7.115067    8.988409    ( 0.0000,  0.0000,  2.1000)
  99 Ni     1.656329    8.857724    7.268907    ( 0.0000,  0.0000,  1.5000)
 100 Cr     3.734811    7.214285    7.232950    ( 0.0000,  0.0000,  0.0000)
 101 Al     3.828613    8.914290    8.914848    ( 0.0000,  0.0000,  0.0000)
 102 Cr     5.488254    7.070101    8.907963    ( 0.0000,  0.0000,  0.0000)
 103 Co     5.505876    9.274826    7.371651    ( 0.0000,  0.0000,  2.1000)
 104 Al     7.430742    7.300460    7.331964    ( 0.0000,  0.0000,  0.0000)
 105 Ni     7.382257    9.001983    9.035318    ( 0.0000,  0.0000,  1.5000)
 106 Co     9.061497    7.073676    9.194589    ( 0.0000,  0.0000,  2.1000)
 107 Fe     9.011147    9.205201    7.403240    ( 0.0000,  0.0000,  2.0000)

Unit cell:
           periodic     x           y           z      points  spacing
  1. axis:    yes   10.820500    0.000000    0.000000    48     0.2254
  2. axis:    yes    0.000000   10.820500    0.000000    48     0.2254
  3. axis:    yes    0.000000    0.000000   10.820500    48     0.2254

  Lengths:  10.820500  10.820500  10.820500
  Angles:   90.000000  90.000000  90.000000

Effective grid spacing dv^(1/3) = 0.2254

     iter     time        total  log10-change:  magmom
                         energy  eigst   dens
iter:   1 00:42:12  -973.213981                  +129.0867
iter:   2 00:44:20  -865.104855  -0.22  -1.18    +71.3271
iter:   3 00:46:29  -853.310212  -0.85  -1.20    +59.4230
iter:   4 00:48:36  -834.568876  -1.24  -1.27    +55.6931
iter:   5 00:50:44  -825.741764  -1.55  -1.29    +52.5314
iter:   6 00:52:53  -822.165275  -1.43  -1.34    +52.9509
iter:   7 00:55:00  -819.503970  -1.23  -1.41    +51.6583
iter:   8 00:57:08  -811.365812  -1.62  -1.51    +51.7548
iter:   9 00:59:16  -809.247993  -1.88  -1.64    +52.7320
iter:  10 01:01:24  -807.166339  -2.32  -1.72    +53.5503
iter:  11 01:03:33  -807.465057  -2.51  -1.80    +55.4273
iter:  12 01:05:42  -809.328569  -2.35  -1.83    +56.7544
iter:  13 01:07:49  -808.687391  -2.32  -1.82    +57.8435
iter:  14 01:09:57  -808.511797  -2.46  -1.90    +58.5761
iter:  15 01:12:06  -808.175807  -2.61  -1.94    +59.7369
iter:  16 01:14:14  -807.848385  -2.78  -2.01    +60.5383
iter:  17 01:16:22  -807.662739  -3.05  -2.07    +61.2618
iter:  18 01:18:30  -808.219568  -2.96  -2.13    +62.0662
iter:  19 01:20:38  -808.296522  -2.87  -2.11    +62.4857
iter:  20 01:22:45  -808.491299  -2.78  -2.14    +62.7936
iter:  21 01:24:53  -807.897779  -2.94  -2.15    +62.9168
iter:  22 01:27:01  -808.270517  -2.88  -2.32    +63.3840
iter:  23 01:29:30  -807.795578  -3.14  -2.27    +63.5272
iter:  24 01:32:21  -807.885824  -3.39  -2.46    +63.6795
iter:  25 01:34:31  -807.895360  -3.44  -2.45    +63.7761
iter:  26 01:36:38  -807.890640c -3.51  -2.47    +63.9650
iter:  27 01:38:46  -807.856653c -3.74  -2.54    +64.1293
iter:  28 01:40:55  -807.901971c -3.86  -2.59    +64.1755
iter:  29 01:43:03  -807.917052c -3.83  -2.64    +64.1449
iter:  30 01:45:13  -807.929689c -3.97  -2.64    +64.2151
iter:  31 01:47:20  -807.983634c -3.84  -2.71    +64.3050
iter:  32 01:49:28  -807.982237c -3.98  -2.71    +64.2901
iter:  33 01:51:37  -807.992566c -3.98  -2.74    +64.2540
iter:  34 01:53:44  -808.009847c -4.13  -2.79    +64.3163
iter:  35 01:55:52  -808.012306c -4.24  -2.83    +64.3963
iter:  36 01:58:01  -808.024562c -4.57  -2.86    +64.3709
iter:  37 02:00:09  -808.037182c -4.72  -2.89    +64.3239
iter:  38 02:02:17  -808.069128c -4.55  -2.90    +64.3401
iter:  39 02:04:24  -808.138544  -3.95  -2.85    +64.4128
iter:  40 02:06:32  -808.134999c -4.73  -2.79    +64.4589
iter:  41 02:08:40  -808.158816c -4.29  -2.79    +64.4558
iter:  42 02:10:49  -808.145785c -4.21  -2.79    +64.5040
iter:  43 02:12:57  -808.164733c -3.96  -2.87    +64.5934
iter:  44 02:15:05  -808.117986c -4.24  -2.79    +64.5703
iter:  45 02:17:13  -808.140933c -4.26  -3.11    +64.4690
iter:  46 02:19:47  -808.135633c -4.47  -3.01    +64.4793
iter:  47 02:22:34  -808.127871c -4.70  -3.11    +64.5256
iter:  48 02:24:42  -808.132531c -5.05  -3.30    +64.5038
iter:  49 02:26:50  -808.139418c -5.00  -3.37    +64.4951
iter:  50 02:28:58  -808.143469c -5.16  -3.34    +64.4732
iter:  51 02:31:07  -808.144644c -5.54  -3.39    +64.4732
iter:  52 02:33:14  -808.150657c -5.18  -3.45    +64.4653
iter:  53 02:35:23  -808.151192c -5.48  -3.47    +64.4712
iter:  54 02:37:31  -808.153894c -5.34  -3.46    +64.4593
iter:  55 02:39:39  -808.158969c -5.21  -3.59    +64.4488
iter:  56 02:41:47  -808.158297c -5.78  -3.56    +64.4554
iter:  57 02:43:56  -808.162102c -5.53  -3.66    +64.4379
iter:  58 02:46:04  -808.166474c -5.30  -3.68    +64.4430
iter:  59 02:48:38  -808.175342c -4.78  -3.67    +64.4317
iter:  60 02:51:25  -808.196089c -4.02  -3.64    +64.4276
iter:  61 02:53:34  -808.199628c -4.71  -3.35    +64.4708
iter:  62 02:55:42  -808.201766c -4.80  -3.32    +64.5443
iter:  63 02:57:50  -808.203607c -5.01  -3.29    +64.5883
iter:  64 02:59:59  -808.205144c -5.59  -3.25    +64.5928
iter:  65 03:02:07  -808.207697c -5.08  -3.24    +64.5975
iter:  66 03:04:16  -808.206044c -5.58  -3.16    +64.6002
iter:  67 03:06:23  -808.203015c -5.22  -3.23    +64.5981
iter:  68 03:08:31  -808.196105c -4.98  -3.28    +64.5706
iter:  69 03:10:39  -808.210096c -4.35  -3.25    +64.5193
iter:  70 03:12:47  -808.190012c -4.62  -3.05    +64.4843
iter:  71 03:14:55  -808.189478c -5.00  -3.38    +64.3925
iter:  72 03:17:03  -808.187286c -5.35  -3.39    +64.3490
iter:  73 03:19:10  -808.189080c -5.32  -3.55    +64.2684
iter:  74 03:21:28  -808.189870c -5.23  -3.56    +64.2524
iter:  75 03:24:20  -808.188206c -5.56  -3.58    +64.2525
iter:  76 03:26:38  -808.187791c -5.92  -3.64    +64.2366
iter:  77 03:28:45  -808.189729c -5.61  -3.65    +64.2227
iter:  78 03:30:54  -808.189933c -5.60  -3.61    +64.2121
iter:  79 03:33:01  -808.187809c -5.69  -3.66    +64.2175
iter:  80 03:35:09  -808.187960c -5.88  -3.68    +64.2100
iter:  81 03:37:18  -808.187775c -6.05  -3.96    +64.1970
iter:  82 03:39:26  -808.188451c -6.23  -3.96    +64.1954
iter:  83 03:41:33  -808.187674c -6.41  -3.96    +64.1915
iter:  84 03:43:41  -808.187554c -6.49  -4.06c   +64.1881
iter:  85 03:45:49  -808.188038c -6.65  -4.05c   +64.1804
iter:  86 03:48:03  -808.187739c -6.91  -4.10c   +64.1786
iter:  87 03:50:56  -808.187801c -7.01  -4.18c   +64.1720
iter:  88 03:53:20  -808.187642c -7.31  -4.18c   +64.1687
iter:  89 03:55:28  -808.187831c -7.16  -4.20c   +64.1628
iter:  90 03:57:36  -808.187836c -6.87  -4.21c   +64.1565
iter:  91 03:59:08  -808.187584c -6.72  -4.26c   +64.1527
iter:  92 04:00:39  -808.188038c -6.78  -4.20c   +64.1508
iter:  93 04:02:11  -808.187704c -6.81  -4.24c   +64.1447
iter:  94 04:03:42  -808.187835c -7.18  -4.44c   +64.1405
iter:  95 04:05:14  -808.187638c -7.36  -4.54c   +64.1374
iter:  96 04:06:45  -808.187788c -7.57c -4.49c   +64.1332

Converged after 96 iterations.

Dipole moment: (-1.759430, 9.109670, 43.215597) |e|*Ang

Total magnetic moment: (0.000000, 0.000000, 64.133176)
Local magnetic moments:
   0 Fe ( 0.000000,  0.000000,  2.065369)
   1 Cr ( 0.000000,  0.000000,  1.662801)
   2 Ni ( 0.000000,  0.000000,  0.200109)
   3 Cr ( 0.000000,  0.000000, -1.684102)
   4 Al ( 0.000000,  0.000000, -0.027118)
   5 Fe ( 0.000000,  0.000000,  2.271925)
   6 Ni ( 0.000000,  0.000000,  0.287080)
   7 Al ( 0.000000,  0.000000, -0.013800)
   8 Al ( 0.000000,  0.000000, -0.012290)
   9 Co ( 0.000000,  0.000000,  1.403163)
  10 Ni ( 0.000000,  0.000000,  0.038609)
  11 Co ( 0.000000,  0.000000,  0.971587)
  12 Ni ( 0.000000,  0.000000,  0.141498)
  13 Cr ( 0.000000,  0.000000,  1.451297)
  14 Fe ( 0.000000,  0.000000,  1.770564)
  15 Cr ( 0.000000,  0.000000, -0.839708)
  16 Co ( 0.000000,  0.000000,  0.879376)
  17 Cr ( 0.000000,  0.000000,  0.034609)
  18 Co ( 0.000000,  0.000000,  1.198842)
  19 Fe ( 0.000000,  0.000000,  1.911157)
  20 Cr ( 0.000000,  0.000000, -1.756872)
  21 Fe ( 0.000000,  0.000000,  2.356946)
  22 Co ( 0.000000,  0.000000,  1.037490)
  23 Al ( 0.000000,  0.000000, -0.035558)
  24 Ni ( 0.000000,  0.000000,  0.122489)
  25 Cr ( 0.000000,  0.000000, -1.697145)
  26 Cr ( 0.000000,  0.000000, -0.669922)
  27 Al ( 0.000000,  0.000000, -0.025744)
  28 Cr ( 0.000000,  0.000000, -0.312081)
  29 Cr ( 0.000000,  0.000000,  1.183335)
  30 Fe ( 0.000000,  0.000000,  1.920457)
  31 Fe ( 0.000000,  0.000000,  1.965325)
  32 Ni ( 0.000000,  0.000000,  0.335818)
  33 Cr ( 0.000000,  0.000000, -2.092239)
  34 Co ( 0.000000,  0.000000,  1.000091)
  35 Ni ( 0.000000,  0.000000,  0.400046)
  36 Ni ( 0.000000,  0.000000,  0.246716)
  37 Co ( 0.000000,  0.000000,  1.615418)
  38 Co ( 0.000000,  0.000000,  1.060979)
  39 Cr ( 0.000000,  0.000000, -2.195687)
  40 Fe ( 0.000000,  0.000000,  1.767441)
  41 Al ( 0.000000,  0.000000, -0.043492)
  42 Fe ( 0.000000,  0.000000,  1.923904)
  43 Ni ( 0.000000,  0.000000,  0.297145)
  44 Cr ( 0.000000,  0.000000, -1.197680)
  45 Co ( 0.000000,  0.000000,  1.397540)
  46 Co ( 0.000000,  0.000000,  0.927120)
  47 Ni ( 0.000000,  0.000000,  0.482375)
  48 Ni ( 0.000000,  0.000000,  0.307163)
  49 Cr ( 0.000000,  0.000000,  0.827756)
  50 Co ( 0.000000,  0.000000,  1.082225)
  51 Al ( 0.000000,  0.000000, -0.000783)
  52 Al ( 0.000000,  0.000000, -0.038838)
  53 Fe ( 0.000000,  0.000000,  1.857778)
  54 Fe ( 0.000000,  0.000000,  2.044153)
  55 Fe ( 0.000000,  0.000000,  1.808358)
  56 Ni ( 0.000000,  0.000000,  0.534758)
  57 Ni ( 0.000000,  0.000000,  0.142533)
  58 Co ( 0.000000,  0.000000,  1.232830)
  59 Co ( 0.000000,  0.000000,  1.172702)
[...]
  93 Cr ( 0.000000,  0.000000,  1.625004)
  94 Fe ( 0.000000,  0.000000,  1.998137)
  95 Cr ( 0.000000,  0.000000, -0.966236)
  96 Ni ( 0.000000,  0.000000,  0.195822)
  97 Fe ( 0.000000,  0.000000,  2.048558)
  98 Co ( 0.000000,  0.000000,  0.636560)
  99 Ni ( 0.000000,  0.000000,  0.429322)
 100 Cr ( 0.000000,  0.000000,  1.292287)
 101 Al ( 0.000000,  0.000000, -0.007419)
 102 Cr ( 0.000000,  0.000000, -1.431339)
 103 Co ( 0.000000,  0.000000,  0.564743)
 104 Al ( 0.000000,  0.000000, -0.019664)
 105 Ni ( 0.000000,  0.000000,  0.358969)
 106 Co ( 0.000000,  0.000000,  0.793774)
 107 Fe ( 0.000000,  0.000000,  2.444823)

Energy contributions relative to reference atoms: (reference = -3382523.201499)

Kinetic:       +443.373044
Potential:     -408.125328
External:        +0.000000
XC:            -874.475778
Entropy (-ST):   -4.279239
Local:          +33.179894
Free energy:   -810.327407
Extrapolated:  -808.187788

Spin contamination: 24.032345 electrons
Showing only first 2 kpts
                      Up                     Down
 Kpt  Band  Eigenvalues  Occupancy  Eigenvalues  Occupancy
  0   470      9.15553    0.99616     10.09504    0.02110
  0   471      9.16564    0.99575     10.11077    0.01809
  0   472      9.17204    0.99547     10.11764    0.01690
  0   473      9.18370    0.99491     10.13875    0.01373

  1   470      9.15526    0.99617     10.09161    0.02182
  1   471      9.17478    0.99535     10.11375    0.01756
  1   472      9.18559    0.99482     10.12008    0.01650
  1   473      9.20391    0.99378     10.13526    0.01421

Fermi level: 9.71133

No gap

Forces in eV/Ang:
  0 Fe   -0.05662    1.31105    0.50713
  1 Cr    0.97415   -0.95656    0.75029
  2 Ni   -0.07191    0.35549   -1.03804
  3 Cr    0.79209   -1.42245    0.41665
  4 Al    0.21810   -1.00141    1.94856
  5 Fe   -0.21603    2.59407    0.13449
  6 Ni    0.44706   -1.99722   -1.51874
  7 Al   -0.83535    0.01688    2.05373
  8 Al    0.69910    0.05541    0.47877
  9 Co   -0.28951   -0.02355    0.00845
 10 Ni   -1.38396   -0.51756   -0.20372
 11 Co    0.57305    1.12981    2.15672
 12 Ni   -2.07587   -0.38228    1.13892
 13 Cr   -3.56801   -0.61351   -4.69158
 14 Fe   -0.67598   -0.12008    0.12291
 15 Cr   -0.50606    0.44768   -0.71843
 16 Co    0.49883   -0.76169    0.55601
 17 Cr   -0.05530   -0.10131    0.17304
 18 Co   -0.60586   -0.55226   -0.38426
 19 Fe    0.65142   -0.45854   -0.47990
 20 Cr    1.66572    1.54212   -0.60247
 21 Fe   -1.28595    2.06574   -0.41191
 22 Co    0.89180   -1.06160    0.60193
 23 Al   -0.97711   -0.37331    0.31617
 24 Ni   -0.34632    0.27928    0.70152
 25 Cr   -0.94006   -0.82992   -0.75138
 26 Cr   -0.86331    1.58366   -0.96001
 27 Al    0.71446    0.57490    0.60009
 28 Cr    0.45906    0.32421   -1.04673
 29 Cr    1.07285   -0.17987   -0.20452
 30 Fe    1.07550    0.95594    1.25607
 31 Fe    0.61277    0.78124    0.25728
 32 Ni   -2.78957   -2.17890    1.66350
 33 Cr    0.92070    1.28624   -2.35141
 34 Co    0.64757   -0.31972    1.90725
 35 Ni    1.11152    3.50461    0.93428
 36 Ni    0.02869   -0.60438   -0.04285
 37 Co    0.76230    0.15928    0.92514
 38 Co   -0.51778   -0.36734    0.14900
 39 Cr   -1.62499    0.69152   -1.13735
 40 Fe   -0.60004    0.46623    0.79372
 41 Al   -1.07563    0.20386   -0.91340
 42 Fe   -0.25826    1.27191    0.71940
 43 Ni    0.07153   -0.03697   -0.15972
 44 Cr    0.04040    0.56957   -0.80293
 45 Co    0.18806   -0.09099    0.27883
 46 Co    1.09559    0.72771    1.30167
 47 Ni    1.36933   -0.78133   -0.14128
 48 Ni   -0.89303    0.78097   -0.72760
 49 Cr   -0.63276   -0.80344   -0.39468
 50 Co    1.59756   -0.51909    0.42536
 51 Al    3.88900   -0.86030    4.98958
 52 Al   -0.78448   -2.19993    0.53014
 53 Fe   -1.38848    0.83366   -0.25062
 54 Fe   -0.20745   -0.22746   -0.59978
 55 Fe   -0.67581   -0.50867   -0.47447
 56 Ni   -0.41011    0.18412   -0.08407
 57 Ni   -0.45079    0.35159    0.26458
 58 Co   -0.43037   -0.61708    1.06766
 59 Co    0.59058    1.57277   -2.43335
[...]
 93 Cr   -0.58125    0.04409    0.03305
 94 Fe   -0.09379   -1.03962   -0.48230
 95 Cr   -0.33968   -0.53558   -0.22544
 96 Ni    0.28867    0.24339    0.59599
 97 Fe   -0.03058   -1.56342   -0.23234
 98 Co    1.83655    0.29710   -0.50508
 99 Ni    2.01104   -0.44983   -0.39467
100 Cr   -1.25475   -0.12714   -0.62736
101 Al   -1.96765    0.09722    0.42025
102 Cr    0.05383    0.19134    0.90178
103 Co    0.68978   -0.79766   -1.21778
104 Al   -1.20916   -0.03869    0.18228
105 Ni   -1.39553    0.91626   -0.04180
106 Co    0.95516   -0.26565   -1.86596
107 Fe    0.21896    0.30437   -1.74528

Date: Fri Apr 14 04:07:07 2023