User:   c.zeng@d0127
Date:   Fri Apr 14 04:32:14 2023
Arch:   x86_64
Pid:    136034
CWD:    /home/c.zeng/projects/hea-corrosion/hea-mlp/data-curation/bulk-mcmc/dft-jobs/101
Python: 3.8.1
gpaw:   /home/c.zeng/usr/installs/gpaw/source/gpaw-22.8.0/gpaw
_gpaw:  /home/c.zeng/usr/installs/gpaw/source/gpaw-22.8.0/
        _gpaw.cpython-38-x86_64-linux-gnu.so
ase:    /home/c.zeng/.local/lib/python3.8/site-packages/ase-3.22.1-py3.8.egg/ase (version 3.22.1)
numpy:  /shared/centos7/python/3.8.1/lib/python3.8/site-packages/numpy (version 1.17.4)
scipy:  /shared/centos7/python/3.8.1/lib/python3.8/site-packages/scipy (version 1.4.1)
units:  Angstrom and eV
cores: 30
OpenMP: False
OMP_NUM_THREADS: 1

Input parameters:
  convergence: {energy: 0.0001}
  kpts: [2 2 2]
  maxiter: 666
  mode: {ecut: 350.0,
         name: pw}
  occupations: {fixmagmom: False,
                name: fermi-dirac,
                width: 0.1}
  spinpol: True
  xc: PBE

System changes: positions, numbers, cell, pbc, initial_charges, initial_magmoms

Initialize ...

species:
  Co:
    name: Cobalt
    id: 339d20d5b0b93d2de9531a1bee871d91
    Z: 27.0
    valence: 9
    core: 18
    charge: 0.0
    file: /home/c.zeng/usr/data/gpaw-setups-0.9.20000/Co.PBE.gz
    compensation charges: {type: gauss,
                           rc: 0.32,
                           lmax: 2}
    cutoffs: {filter: 1.87,
              core: 2.55}
    valence states:
      #              energy  rcut
      - 4s(2.00)    -5.469   1.005
      - 4p(0.00)    -1.277   1.058
      - 3d(7.00)    -8.205   1.005
      -  s          21.742   1.005
      -  p          25.934   1.058
      -  d          19.007   1.005

    # Using partial waves for Co as LCAO basis

  Fe:
    name: Iron
    id: 37abbd8d6c3c35915a9b583b742da910
    Z: 26.0
    valence: 8
    core: 18
    charge: 0.0
    file: /home/c.zeng/usr/data/gpaw-setups-0.9.20000/Fe.PBE.gz
    compensation charges: {type: gauss,
                           rc: 0.33,
                           lmax: 2}
    cutoffs: {filter: 2.06,
              core: 2.67}
    valence states:
      #              energy  rcut
      - 4s(2.00)    -5.291   1.164
      - 4p(0.00)    -1.326   1.058
      - 3d(6.00)    -7.505   1.058
      -  s          21.920   1.164
      -  p          25.885   1.058
      -  d          19.706   1.058

[...]

  Ni:
    name: Nickel
    id: 0d9f38a9d6e76a2886f07bb4381f212b
    Z: 28.0
    valence: 16
    core: 12
    charge: 0.0
    file: /home/c.zeng/usr/data/gpaw-setups-0.9.20000/Ni.PBE.gz
    compensation charges: {type: gauss,
                           rc: 0.36,
                           lmax: 2}
    cutoffs: {filter: 2.14,
              core: 1.98}
    valence states:
      #              energy  rcut
      - 4s(2.00)    -5.642   1.164
      - 3p(6.00)   -71.394   1.207
      - 4p(0.00)    -1.226   1.207
      - 3d(8.00)    -8.875   1.138
      -  s          21.570   1.164
      -  d          18.337   1.138

[...]

  Al:
    name: Aluminium
    id: 0292cae29f5d6237e50f6abdd43a7bdd
    Z: 13.0
    valence: 3
    core: 10
    charge: 0.0
    file: /home/c.zeng/usr/data/gpaw-setups-0.9.20000/Al.PBE.gz
    compensation charges: {type: gauss,
                           rc: 0.34,
                           lmax: 2}
    cutoffs: {filter: 1.91,
              core: 2.36}
    valence states:
      #              energy  rcut
      - 3s(2.00)    -7.753   1.085
      - 3p(1.00)    -2.712   1.085
      -  s          19.459   1.085
      -  p          24.499   1.085
      -  d           0.000   1.085

[...]

  Cr:
    name: Chromium
    id: 33f258bda2ca9f93018e70263a35547b
    Z: 24.0
    valence: 6
    core: 18
    charge: 0.0
    file: /home/c.zeng/usr/data/gpaw-setups-0.9.20000/Cr.PBE.gz
    compensation charges: {type: gauss,
                           rc: 0.35,
                           lmax: 2}
    cutoffs: {filter: 2.14,
              core: 3.04}
    valence states:
      #              energy  rcut
      - 4s(1.00)    -4.007   1.164
      - 4p(0.00)    -0.989   1.217
      - 3d(5.00)    -2.913   1.111
      -  s          23.205   1.164
      -  p          26.223   1.217
      -  d          24.299   1.111

    # Using partial waves for Cr as LCAO basis

Reference energy: -3548577.034362  # eV

Spin-polarized calculation.
Magnetic moment: 136.400000

Convergence criteria:
 Maximum [total energy] change in last 3 cyles: 0.0001 eV / electron
 Maximum integral of absolute [dens]ity change: 0.0001 electrons / valence electron
 Maximum integral of absolute [eigenst]ate change: 4e-08 eV^2 / valence electron
 Maximum number of scf [iter]ations: 666
 (Square brackets indicate name in SCF output, whereas a 'c' in
 the SCF output indicates the quantity has converged.)

Symmetries present (total): 1

  ( 1  0  0)
  ( 0  1  0)
  ( 0  0  1)

8 k-points: 2 x 2 x 2 Monkhorst-Pack grid
4 k-points in the irreducible part of the Brillouin zone
       k-points in crystal coordinates                weights
   0:     0.25000000   -0.25000000   -0.25000000          2/8
   1:     0.25000000   -0.25000000    0.25000000          2/8
   2:     0.25000000    0.25000000   -0.25000000          2/8
   3:     0.25000000    0.25000000    0.25000000          2/8

Wave functions: Plane wave expansion
  Cutoff energy: 350.000 eV
  Number of coefficients (min, max): 18331, 18331
  Pulay-stress correction: 0.000000 eV/Ang^3 (de/decut=0.000000)
  Using FFTW library
  ScaLapack parameters: grid=1x1, blocksize=None
  Wavefunction extrapolation:
    Improved wavefunction reuse through dual PAW basis

Occupation numbers: Fermi-Dirac:
  width: 0.1000  # eV

Eigensolver
   Davidson(niter=2)

Densities:
  Coarse grid: 48*48*48 grid
  Fine grid: 96*96*96 grid
  Total Charge: 0.000000

Density mixing:
  Method: difference
  Backend: pulay
  Linear mixing parameter: 0.05
  old densities: 5
  Damping of long wavelength oscillations: 50

Hamiltonian:
  XC and Coulomb potentials evaluated on a 96*96*96 grid
  Using the PBE Exchange-Correlation functional
  External potential:
    NoExternalPotential

XC parameters: PBE with 2 nearest neighbor stencil

Total number of cores used: 30
Parallelization over k-points: 2
Domain decomposition: 5 x 3 x 1

Number of atoms: 108
Number of atomic orbitals: 994
Number of bands in calculation: 674
Number of valence electrons: 980
Bands to converge: occupied

... initialized

Initializing position-dependent things.

Density initialized from atomic densities
Creating initial wave functions:
  674 bands from LCAO basis set

        Co-------Co---------------.
       /|  Co       Fe            |
      / |   NiCr     CrCo     CrCo|
     / Al       CAl     Ni        |
    /   CCo      Ni      FAl      |
   /    | CoCo     Co      CoCo   |
  /   Co|  NiFeAl   NiNi    CrCr  |
 *      Cr  CrCoNi   CoNiNi   FeNi|
 |Fe   NiNiCr   CrNCr   FeCr      |
 | Fe   | AlAl   NiNiCr    Cr     |
 |     Co  CoFeNi   FeNiAl  NiNi  |
 |      Fe    FeNi   FeAlFe   AlCr|
 |Cr    |CoNi   NFeFe   FeFe     Fe
 |      .-FeCr-----FeCr--FeCoNi---.
 |     Cr    CoCr     FeCo  Cr Fe/
 |    / Al      Co       Cr     /
 Cr  /            Cr           /
 |  /      Ni      Cr       Fe/
 | / Co              Fe      /
 |/                     Co  /

Positions:
   0 Co    10.732479   -0.010418   10.721263    ( 0.0000,  0.0000,  2.1000)
   1 Fe    10.706231    1.787006    1.816653    ( 0.0000,  0.0000,  1.5000)
   2 Co     1.827923    0.046024    1.820803    ( 0.0000,  0.0000,  0.0000)
   3 Co     1.781666    1.794790   10.668295    ( 0.0000,  0.0000,  0.0000)
   4 Co     3.605675   -0.024615   10.696977    ( 0.0000,  0.0000,  0.0000)
   5 Ni     3.626284    1.755611    1.827590    ( 0.0000,  0.0000,  2.0000)
   6 Fe     5.347186   -0.032870    1.798425    ( 0.0000,  0.0000,  2.0000)
   7 Al     5.383406    1.755353   -0.004078    ( 0.0000,  0.0000,  2.0000)
   8 Fe     7.108694   -0.021619    0.052076    ( 0.0000,  0.0000,  0.0000)
   9 Cr     7.129131    1.783639    1.838109    ( 0.0000,  0.0000,  2.0000)
  10 Al     8.928414   -0.004386    1.840918    ( 0.0000,  0.0000,  2.0000)
  11 Co     8.945645    1.852509    0.063651    ( 0.0000,  0.0000,  0.0000)
  12 Co    10.721403    3.615743   10.707625    ( 0.0000,  0.0000,  2.1000)
  13 Fe    10.714905    5.407607    1.816064    ( 0.0000,  0.0000,  2.0000)
  14 Al     1.786931    3.537020    1.885127    ( 0.0000,  0.0000,  0.0000)
  15 Co     1.774396    5.426328   10.657058    ( 0.0000,  0.0000,  0.0000)
  16 Co     3.564340    3.564490   10.690115    ( 0.0000,  0.0000,  0.0000)
  17 Co     3.570334    5.434059    1.813919    ( 0.0000,  0.0000,  0.0000)
  18 Co     5.350145    3.574934    1.808708    ( 0.0000,  0.0000,  0.0000)
  19 Al     5.345084    5.410577   10.703464    ( 0.0000,  0.0000,  2.1000)
  20 Fe     7.157695    3.624514    0.002553    ( 0.0000,  0.0000,  2.1000)
  21 Fe     7.157792    5.380200    1.803904    ( 0.0000,  0.0000,  0.0000)
  22 Cr     8.944980    3.620622    1.842988    ( 0.0000,  0.0000,  0.0000)
  23 Al     8.940316    5.370571   -0.005231    ( 0.0000,  0.0000,  0.0000)
  24 Co    10.674578    7.138041   10.683446    ( 0.0000,  0.0000,  2.0000)
  25 Fe    10.668413    8.869012    1.800001    ( 0.0000,  0.0000,  0.0000)
  26 Fe     1.807904    7.157309    1.806960    ( 0.0000,  0.0000,  1.5000)
  27 Co     1.808086    8.895217   10.689064    ( 0.0000,  0.0000,  0.0000)
  28 Cr     3.612462    7.185391   10.698339    ( 0.0000,  0.0000,  2.0000)
  29 Ni     3.598277    8.905404    1.808097    ( 0.0000,  0.0000,  1.5000)
  30 Fe     5.362229    7.149643    1.778835    ( 0.0000,  0.0000,  2.1000)
  31 Fe     5.368084    8.904170   10.708750    ( 0.0000,  0.0000,  2.0000)
  32 Co     7.127640    7.124156   10.700741    ( 0.0000,  0.0000,  2.0000)
  33 Fe     7.139982    8.914904    1.783157    ( 0.0000,  0.0000,  0.0000)
  34 Co     8.884516    7.107975    1.798232    ( 0.0000,  0.0000,  2.0000)
  35 Cr     8.895410    8.880302    0.005476    ( 0.0000,  0.0000,  0.0000)
  36 Cr    10.737840    0.006469    3.587908    ( 0.0000,  0.0000,  1.5000)
  37 Cr     0.009110    1.816214    5.359506    ( 0.0000,  0.0000,  1.5000)
  38 Cr     1.833434   -0.010553    5.335488    ( 0.0000,  0.0000,  2.1000)
  39 Cr     1.814369    1.777409    3.664755    ( 0.0000,  0.0000,  1.5000)
  40 Ni     3.608002   -0.027958    3.615958    ( 0.0000,  0.0000,  2.1000)
  41 Ni     3.597397    1.774364    5.368180    ( 0.0000,  0.0000,  1.5000)
  42 Co     5.355185   -0.018813    5.365682    ( 0.0000,  0.0000,  2.1000)
  43 Cr     5.354005    1.762698    3.609396    ( 0.0000,  0.0000,  1.5000)
  44 Cr     7.096449    0.004839    3.553950    ( 0.0000,  0.0000,  0.0000)
  45 Fe     7.124574    1.817747    5.354692    ( 0.0000,  0.0000,  2.1000)
  46 Fe     8.888698   10.712332    5.289714    ( 0.0000,  0.0000,  0.0000)
  47 Co     8.931727    1.815495    3.558979    ( 0.0000,  0.0000,  1.5000)
  48 Ni    10.700248    3.599864    3.631730    ( 0.0000,  0.0000,  0.0000)
  49 Ni    -0.007893    5.382698    5.388017    ( 0.0000,  0.0000,  2.0000)
  50 Fe     1.794265    3.594073    5.365264    ( 0.0000,  0.0000,  2.0000)
  51 Co     1.782020    5.398675    3.628600    ( 0.0000,  0.0000,  1.5000)
  52 Cr     3.583351    3.582086    3.661657    ( 0.0000,  0.0000,  1.5000)
  53 Fe     3.572253    5.392895    5.375354    ( 0.0000,  0.0000,  1.5000)
  54 Ni     5.361747    3.593312    5.376780    ( 0.0000,  0.0000,  2.1000)
  55 Fe     5.348633    5.403146    3.628053    ( 0.0000,  0.0000,  0.0000)
  56 Cr     7.166745    3.584809    3.633875    ( 0.0000,  0.0000,  0.0000)
  57 Ni     7.149503    5.367108    5.369102    ( 0.0000,  0.0000,  2.1000)
  58 Fe     8.930869    3.577164    5.375332    ( 0.0000,  0.0000,  0.0000)
  59 Fe     8.940702    5.382345    3.619239    ( 0.0000,  0.0000,  2.0000)
[...]
  93 Ni     7.158199    5.390858    8.905983    ( 0.0000,  0.0000,  1.5000)
  94 Ni     8.930826    3.597912    8.885374    ( 0.0000,  0.0000,  0.0000)
  95 Cr     8.935737    5.388735    7.127651    ( 0.0000,  0.0000,  0.0000)
  96 Ni    10.717929    7.165190    7.144378    ( 0.0000,  0.0000,  2.1000)
  97 Al    10.739341    8.898756    8.943093    ( 0.0000,  0.0000,  1.5000)
  98 Co     1.793750    7.182882    8.888666    ( 0.0000,  0.0000,  1.5000)
  99 Ni     1.836501    8.904825    7.123094    ( 0.0000,  0.0000,  2.1000)
 100 Co     3.587511    7.157223    7.133645    ( 0.0000,  0.0000,  2.1000)
 101 Co     3.596025    8.923803    8.905018    ( 0.0000,  0.0000,  1.5000)
 102 Co     5.369413    7.149278    8.921112    ( 0.0000,  0.0000,  2.0000)
 103 Ni     5.343776    8.916533    7.143070    ( 0.0000,  0.0000,  2.1000)
 104 Ni     7.139778    7.140400    7.139349    ( 0.0000,  0.0000,  2.1000)
 105 Ni     7.106892    8.889835    8.908727    ( 0.0000,  0.0000,  1.5000)
 106 Co     8.907419    7.146362    8.906765    ( 0.0000,  0.0000,  2.0000)
 107 Cr     8.922313    8.892279    7.115031    ( 0.0000,  0.0000,  2.0000)

Unit cell:
           periodic     x           y           z      points  spacing
  1. axis:    yes   10.722400    0.000000    0.000000    48     0.2234
  2. axis:    yes    0.000000   10.722400    0.000000    48     0.2234
  3. axis:    yes    0.000000    0.000000   10.722400    48     0.2234

  Lengths:  10.722400  10.722400  10.722400
  Angles:   90.000000  90.000000  90.000000

Effective grid spacing dv^(1/3) = 0.2234

     iter     time        total  log10-change:  magmom
                         energy  eigst   dens
iter:   1 04:36:45  -925.512615                  +135.9423
iter:   2 04:38:28  -894.985622  -0.46  -1.32    +99.2073
iter:   3 04:40:13  -884.793233  -0.90  -1.31    +70.3446
iter:   4 04:41:57  -858.362587  -1.40  -1.33    +60.9695
iter:   5 04:43:42  -856.085859  -1.81  -1.44    +54.8081
iter:   6 04:45:26  -856.640124  -1.88  -1.46    +52.1305
iter:   7 04:47:10  -856.908926  -1.64  -1.50    +50.4519
iter:   8 04:48:55  -851.809563  -1.64  -1.52    +49.6429
iter:   9 04:50:39  -863.998732  -1.65  -1.69    +49.4063
iter:  10 04:52:23  -849.494962  -1.88  -1.59    +48.6870
iter:  11 04:54:08  -850.447756  -2.28  -1.84    +49.0290
iter:  12 04:55:52  -849.323454  -2.52  -1.84    +49.3224
iter:  13 04:57:36  -850.100122  -2.45  -1.90    +49.7998
iter:  14 04:59:21  -849.776983  -2.56  -1.90    +50.5047
iter:  15 05:01:05  -851.442932  -2.45  -1.99    +50.9771
iter:  16 05:02:50  -851.734126  -2.40  -1.98    +51.5392
iter:  17 05:04:34  -851.919829  -2.45  -1.97    +51.6002
iter:  18 05:06:18  -850.373389  -2.65  -2.00    +52.3950
iter:  19 05:08:02  -850.909116  -2.67  -2.14    +52.9944
iter:  20 05:09:46  -849.949002  -3.04  -2.09    +53.2622
iter:  21 05:11:31  -850.047213  -3.33  -2.25    +54.0246
iter:  22 05:13:15  -850.115467  -3.43  -2.29    +54.4359
iter:  23 05:15:00  -850.234224  -3.51  -2.29    +55.3422
iter:  24 05:16:44  -850.596076  -3.29  -2.34    +56.1354
iter:  25 05:18:30  -850.671342  -3.40  -2.32    +56.0658
iter:  26 05:20:14  -850.763920  -3.22  -2.31    +56.7391
iter:  27 05:21:58  -851.009262  -3.24  -2.37    +57.1562
iter:  28 05:23:43  -851.086193  -3.18  -2.33    +57.6884
iter:  29 05:25:27  -851.051512c -3.39  -2.39    +57.8666
iter:  30 05:27:11  -850.980708  -3.64  -2.41    +58.3292
iter:  31 05:28:55  -851.026071c -3.86  -2.47    +58.5617
iter:  32 05:30:40  -851.092966  -4.13  -2.50    +58.9457
iter:  33 05:32:24  -851.331120  -3.27  -2.51    +59.9573
iter:  34 05:34:08  -851.491642  -3.34  -2.56    +60.0099
iter:  35 05:35:53  -851.422114  -3.64  -2.59    +60.0283
iter:  36 05:37:37  -851.443343c -3.81  -2.71    +59.9876
iter:  37 05:39:21  -851.441817c -4.05  -2.79    +60.1754
iter:  38 05:41:06  -851.466710c -4.37  -2.87    +60.2314
iter:  39 05:42:50  -851.481329c -4.66  -2.96    +60.2690
iter:  40 05:44:34  -851.531505c -4.33  -2.98    +60.4569
iter:  41 05:46:18  -851.552049c -4.47  -3.02    +60.5074
iter:  42 05:48:03  -851.580008c -4.38  -3.04    +60.6461
iter:  43 05:49:47  -851.610490c -4.45  -3.14    +60.7721
iter:  44 05:51:31  -851.629099c -4.58  -3.17    +60.8997
iter:  45 05:53:16  -851.663916c -4.50  -3.20    +61.0533
iter:  46 05:55:00  -851.719383c -4.30  -3.20    +61.2695
iter:  47 05:56:45  -851.696639c -5.11  -3.05    +61.1816
iter:  48 05:58:29  -851.762341c -4.08  -3.12    +61.4756
iter:  49 06:00:14  -851.841378  -3.70  -3.07    +61.8443
iter:  50 06:01:58  -851.915428  -3.77  -2.94    +62.1895
iter:  51 06:03:42  -851.928720c -4.34  -2.81    +62.3272
iter:  52 06:05:27  -851.945161c -4.79  -2.80    +62.4221
iter:  53 06:07:11  -851.946144c -4.53  -2.78    +62.5235
iter:  54 06:08:55  -851.924379c -4.38  -2.75    +62.5715
iter:  55 06:10:39  -851.981743c -3.69  -2.78    +62.7157
iter:  56 06:12:24  -851.915728c -3.73  -2.64    +62.6865
iter:  57 06:14:08  -851.913216c -3.82  -2.75    +62.4711
iter:  58 06:15:53  -851.873705c -4.05  -2.77    +62.4025
iter:  59 06:17:37  -851.870870c -4.28  -2.89    +62.5769
iter:  60 06:19:21  -851.854460c -4.79  -2.95    +62.4827
iter:  61 06:21:05  -851.862109c -4.73  -3.06    +62.4846
iter:  62 06:22:50  -851.864367c -4.70  -3.06    +62.4924
iter:  63 06:24:35  -851.868565c -4.79  -3.06    +62.5189
iter:  64 06:26:19  -851.868973c -4.66  -3.08    +62.4975
iter:  65 06:28:04  -851.868639c -4.61  -3.13    +62.4706
iter:  66 06:29:48  -851.878948c -4.55  -3.14    +62.5226
iter:  67 06:31:33  -851.867331c -4.88  -3.11    +62.5866
iter:  68 06:33:18  -851.867209c -5.06  -3.27    +62.5866
iter:  69 06:35:02  -851.865710c -5.24  -3.30    +62.5786
iter:  70 06:36:47  -851.865012c -5.69  -3.34    +62.5927
iter:  71 06:38:31  -851.867006c -5.73  -3.43    +62.6416
iter:  72 06:40:16  -851.867488c -5.60  -3.44    +62.6516
iter:  73 06:42:00  -851.867958c -5.94  -3.42    +62.6648
iter:  74 06:43:45  -851.870180c -5.64  -3.47    +62.6956
iter:  75 06:45:29  -851.874422c -5.27  -3.44    +62.7062
iter:  76 06:47:14  -851.871306c -5.26  -3.38    +62.6954
iter:  77 06:48:58  -851.871196c -5.36  -3.45    +62.6793
iter:  78 06:50:43  -851.876862c -5.22  -3.45    +62.7262
iter:  79 06:52:28  -851.872189c -5.34  -3.43    +62.7606
iter:  80 06:54:13  -851.871548c -5.77  -3.55    +62.7695
iter:  81 06:55:58  -851.871808c -6.12  -3.64    +62.7785
iter:  82 06:57:43  -851.874157c -5.66  -3.71    +62.7966
iter:  83 06:59:57  -851.874091c -5.80  -3.60    +62.8024
iter:  84 07:02:00  -851.872994c -5.99  -3.71    +62.7902
iter:  85 07:03:45  -851.874331c -6.05  -4.03c   +62.8055
iter:  86 07:05:30  -851.874022c -6.36  -3.93    +62.8143
iter:  87 07:07:15  -851.874195c -6.58  -4.05c   +62.8283
iter:  88 07:09:00  -851.874619c -6.46  -4.20c   +62.8431
iter:  89 07:10:45  -851.874859c -6.88  -4.17c   +62.8501
iter:  90 07:12:30  -851.875511c -6.40  -4.21c   +62.8719
iter:  91 07:14:16  -851.875045c -6.87  -4.16c   +62.8531
iter:  92 07:16:01  -851.877221c -5.58  -4.15c   +62.9137
iter:  93 07:17:46  -851.876861c -6.65  -4.01c   +62.9186
iter:  94 07:19:32  -851.877666c -6.43  -4.07c   +62.9377
iter:  95 07:21:17  -851.877696c -6.51  -4.10c   +62.9598
iter:  96 07:23:09  -851.878153c -6.63  -4.00    +62.9699
iter:  97 07:25:26  -851.878646c -6.20  -3.95    +62.9667
iter:  98 07:27:21  -851.878406c -6.27  -3.83    +62.9700
iter:  99 07:29:06  -851.878209c -6.61  -4.07c   +62.9688
iter: 100 07:30:51  -851.879511c -6.18  -4.11c   +62.9810
iter: 101 07:32:37  -851.878685c -6.45  -3.96    +62.9862
iter: 102 07:34:22  -851.878954c -6.82  -4.26c   +62.9933
iter: 103 07:36:08  -851.879137c -6.88  -4.26c   +62.9988
iter: 104 07:37:53  -851.879133c -7.61c -4.29c   +62.9993

Converged after 104 iterations.

Dipole moment: (-1.777344, 13.273169, 14.378367) |e|*Ang

Total magnetic moment: (0.000000, 0.000000, 62.999312)
Local magnetic moments:
   0 Co ( 0.000000,  0.000000,  1.130767)
   1 Fe ( 0.000000,  0.000000,  2.204551)
   2 Co ( 0.000000,  0.000000,  1.451115)
   3 Co ( 0.000000,  0.000000,  1.289521)
   4 Co ( 0.000000,  0.000000,  1.226689)
   5 Ni ( 0.000000,  0.000000,  0.212799)
   6 Fe ( 0.000000,  0.000000,  1.962994)
   7 Al ( 0.000000,  0.000000, -0.016665)
   8 Fe ( 0.000000,  0.000000, -1.485277)
   9 Cr ( 0.000000,  0.000000,  0.913170)
  10 Al ( 0.000000,  0.000000, -0.015978)
  11 Co ( 0.000000,  0.000000,  1.044024)
  12 Co ( 0.000000,  0.000000,  1.084438)
  13 Fe ( 0.000000,  0.000000,  2.268499)
  14 Al ( 0.000000,  0.000000, -0.030651)
  15 Co ( 0.000000,  0.000000,  1.195317)
  16 Co ( 0.000000,  0.000000,  1.293198)
  17 Co ( 0.000000,  0.000000,  1.100646)
  18 Co ( 0.000000,  0.000000,  1.063954)
  19 Al ( 0.000000,  0.000000, -0.040818)
  20 Fe ( 0.000000,  0.000000,  2.221918)
  21 Fe ( 0.000000,  0.000000,  2.072378)
  22 Cr ( 0.000000,  0.000000, -1.219458)
  23 Al ( 0.000000,  0.000000, -0.035898)
  24 Co ( 0.000000,  0.000000,  1.024130)
  25 Fe ( 0.000000,  0.000000,  2.233907)
  26 Fe ( 0.000000,  0.000000,  2.260335)
  27 Co ( 0.000000,  0.000000,  1.455181)
  28 Cr ( 0.000000,  0.000000, -2.075004)
  29 Ni ( 0.000000,  0.000000,  0.458654)
  30 Fe ( 0.000000,  0.000000,  1.970727)
  31 Fe ( 0.000000,  0.000000,  2.133100)
  32 Co ( 0.000000,  0.000000,  1.142007)
  33 Fe ( 0.000000,  0.000000,  1.821302)
  34 Co ( 0.000000,  0.000000,  1.215977)
  35 Cr ( 0.000000,  0.000000, -1.576652)
  36 Cr ( 0.000000,  0.000000, -1.577198)
  37 Cr ( 0.000000,  0.000000, -0.291196)
  38 Cr ( 0.000000,  0.000000,  0.587808)
  39 Cr ( 0.000000,  0.000000,  0.381468)
  40 Ni ( 0.000000,  0.000000,  0.274875)
  41 Ni ( 0.000000,  0.000000,  0.155479)
  42 Co ( 0.000000,  0.000000,  1.068663)
  43 Cr ( 0.000000,  0.000000,  0.516073)
  44 Cr ( 0.000000,  0.000000, -1.406431)
  45 Fe ( 0.000000,  0.000000,  1.503489)
  46 Fe ( 0.000000,  0.000000,  2.073656)
  47 Co ( 0.000000,  0.000000,  0.450573)
  48 Ni ( 0.000000,  0.000000,  0.287265)
  49 Ni ( 0.000000,  0.000000,  0.168032)
  50 Fe ( 0.000000,  0.000000,  2.032549)
  51 Co ( 0.000000,  0.000000,  0.892572)
  52 Cr ( 0.000000,  0.000000, -1.690302)
  53 Fe ( 0.000000,  0.000000,  2.168493)
  54 Ni ( 0.000000,  0.000000,  0.104480)
  55 Fe ( 0.000000,  0.000000,  2.176511)
  56 Cr ( 0.000000,  0.000000, -1.445393)
  57 Ni ( 0.000000,  0.000000,  0.192042)
  58 Fe ( 0.000000,  0.000000,  1.824109)
  59 Fe ( 0.000000,  0.000000,  1.720062)
[...]
  93 Ni ( 0.000000,  0.000000,  0.227676)
  94 Ni ( 0.000000,  0.000000,  0.175300)
  95 Cr ( 0.000000,  0.000000, -1.309121)
  96 Ni ( 0.000000,  0.000000,  0.029968)
  97 Al ( 0.000000,  0.000000, -0.014815)
  98 Co ( 0.000000,  0.000000,  1.213407)
  99 Ni ( 0.000000,  0.000000,  0.117000)
 100 Co ( 0.000000,  0.000000,  1.233030)
 101 Co ( 0.000000,  0.000000,  1.340079)
 102 Co ( 0.000000,  0.000000,  1.266219)
 103 Ni ( 0.000000,  0.000000,  0.349567)
 104 Ni ( 0.000000,  0.000000,  0.278039)
 105 Ni ( 0.000000,  0.000000,  0.239661)
 106 Co ( 0.000000,  0.000000,  0.599451)
 107 Cr ( 0.000000,  0.000000, -1.251457)

Energy contributions relative to reference atoms: (reference = -3548577.034362)

Kinetic:       +185.455666
Potential:     -217.120258
External:        +0.000000
XC:            -853.951076
Entropy (-ST):   -4.563035
Local:          +36.018052
Free energy:   -854.160651
Extrapolated:  -851.879133

Spin contamination: 26.801218 electrons
Showing only first 2 kpts
                      Up                     Down
 Kpt  Band  Eigenvalues  Occupancy  Eigenvalues  Occupancy
  0   488      9.48539    0.99386     10.36647    0.02358
  0   489      9.50666    0.99242     10.37902    0.02086
  0   490      9.51851    0.99148     10.38747    0.01920
  0   491      9.52630    0.99079     10.39560    0.01773

  1   488      9.48426    0.99393     10.37408    0.02189
  1   489      9.50098    0.99284     10.38434    0.01980
  1   490      9.51521    0.99175     10.39495    0.01784
  1   491      9.53558    0.98990     10.41173    0.01513

Fermi level: 9.99414

No gap

Forces in eV/Ang:
  0 Co    0.05063    0.23089    0.05042
  1 Fe    0.13159    0.01506   -0.32880
  2 Co   -0.16668   -0.49135   -0.11863
  3 Co    0.13103   -0.14291    0.31085
  4 Co   -0.40651   -0.11858    0.22389
  5 Ni   -0.44166    0.09019   -0.22089
  6 Fe   -0.20502   -0.52011    0.09011
  7 Al   -0.78709    0.76841    0.41331
  8 Fe    0.23768    0.22445   -0.53472
  9 Cr    0.08404    0.56532   -0.07624
 10 Al    0.27157   -0.03961   -0.78272
 11 Co    0.00041    0.00563   -0.62595
 12 Co    0.15790   -0.40975    0.04031
 13 Fe    0.18326   -0.03766   -0.30081
 14 Al    0.03070    0.78386   -1.28271
 15 Co    0.16251   -0.31555    0.24519
 16 Co   -0.29956    0.23925    0.25470
 17 Co   -0.18537   -0.38689    0.00155
 18 Co   -0.02706    0.23321    0.13576
 19 Al    0.34556   -1.16225   -0.01472
 20 Fe    0.07030   -0.58800   -0.12910
 21 Fe   -0.20491   -0.45970    0.06939
 22 Cr    0.32205   -0.76999    0.12211
 23 Al   -0.26796    0.45661   -0.52680
 24 Co    0.45024   -0.00842    0.38149
 25 Fe    0.60445    0.16838   -0.33933
 26 Fe   -0.08512    0.00854   -0.33578
 27 Co    0.28702    0.25002    0.53165
 28 Cr   -1.15290    0.50899   -0.07491
 29 Ni   -0.41912    0.43005   -0.14919
 30 Fe   -0.30775    0.26408   -0.00260
 31 Fe    0.00639    0.07006    0.09561
 32 Co    0.15510    0.59269    0.08903
 33 Fe    0.00555    0.07043   -0.31013
 34 Co    0.44072    0.27854    0.08079
 35 Cr   -0.58206   -0.38972   -0.08025
 36 Cr    0.56574   -0.44355    0.72787
 37 Cr    0.23004   -0.15753   -0.07470
 38 Cr   -0.57660    0.28886    0.05004
 39 Cr    0.03028   -0.88120   -0.09138
 40 Ni   -0.13281    0.24309   -0.37843
 41 Ni   -0.08526   -0.17894   -0.07773
 42 Co    0.13479   -0.11512    0.07490
 43 Cr   -0.11966    0.14165   -0.06969
 44 Cr   -0.34783    0.08683    0.74664
 45 Fe    0.10090   -0.15468   -0.29951
 46 Fe    0.37803   -0.33905    0.13301
 47 Co    0.11698    0.19403    0.42686
 48 Ni    0.09913    0.01199   -0.14178
 49 Ni   -0.03505   -0.46904   -0.17259
 50 Fe   -0.42067   -0.00367   -0.24356
 51 Co    0.16573   -0.16447   -0.39398
 52 Cr    0.70187    0.12012    0.05681
 53 Fe    0.39075    0.03961   -0.25975
 54 Ni    0.25442    0.07471   -0.18682
 55 Fe   -0.37566   -0.99640   -0.53317
 56 Cr   -0.35880    0.03164    0.08698
 57 Ni   -0.11311   -0.03543   -0.02556
 58 Fe    0.03738    0.20653   -0.45717
 59 Fe    0.07467   -0.60468   -0.02928
[...]
 93 Ni   -0.07291   -0.19400   -0.16611
 94 Ni    0.13751   -0.24401    0.51140
 95 Cr    0.10211   -0.10948    0.19029
 96 Ni   -0.16855   -0.10112    0.06555
 97 Al    0.66370   -0.30555    0.04883
 98 Co    0.48026   -0.64030    0.35104
 99 Ni   -0.24850    0.35295    0.22401
100 Co    0.07236    0.01467    0.22081
101 Co   -0.07134   -0.04746    0.31726
102 Co   -0.25806    0.11145   -0.38208
103 Ni   -0.05728    0.11464    0.06987
104 Ni    0.09170    0.11422    0.11703
105 Ni    0.36531    0.28004    0.03861
106 Co   -0.11359    0.17021   -0.04292
107 Cr   -0.47706    0.29991   -0.07760

Date: Fri Apr 14 07:38:16 2023