User:   c.zeng@d0139
Date:   Sat Apr  8 03:25:03 2023
Arch:   x86_64
Pid:    86809
CWD:    /home/c.zeng/projects/hea-corrosion/hea-mlp/data-curation/volume/dft-jobs/126
Python: 3.8.1
gpaw:   /home/c.zeng/usr/installs/gpaw/source/gpaw-22.8.0/gpaw
_gpaw:  /home/c.zeng/usr/installs/gpaw/source/gpaw-22.8.0/
        _gpaw.cpython-38-x86_64-linux-gnu.so
ase:    /home/c.zeng/.local/lib/python3.8/site-packages/ase-3.22.1-py3.8.egg/ase (version 3.22.1)
numpy:  /shared/centos7/python/3.8.1/lib/python3.8/site-packages/numpy (version 1.17.4)
scipy:  /shared/centos7/python/3.8.1/lib/python3.8/site-packages/scipy (version 1.4.1)
units:  Angstrom and eV
cores: 64
OpenMP: False
OMP_NUM_THREADS: 1

Input parameters:
  convergence: {energy: 0.0001}
  kpts: [2 2 2]
  maxiter: 666
  mode: {ecut: 350.0,
         name: pw}
  occupations: {fixmagmom: False,
                name: fermi-dirac,
                width: 0.1}
  spinpol: True
  xc: PBE

System changes: positions, numbers, cell, pbc, initial_charges, initial_magmoms

Initialize ...

species:
  Al:
    name: Aluminium
    id: 0292cae29f5d6237e50f6abdd43a7bdd
    Z: 13.0
    valence: 3
    core: 10
    charge: 0.0
    file: /home/c.zeng/usr/data/gpaw-setups-0.9.20000/Al.PBE.gz
    compensation charges: {type: gauss,
                           rc: 0.34,
                           lmax: 2}
    cutoffs: {filter: 1.91,
              core: 2.36}
    valence states:
      #              energy  rcut
      - 3s(2.00)    -7.753   1.085
      - 3p(1.00)    -2.712   1.085
      -  s          19.459   1.085
      -  p          24.499   1.085
      -  d           0.000   1.085

    # Using partial waves for Al as LCAO basis

  Fe:
    name: Iron
    id: 37abbd8d6c3c35915a9b583b742da910
    Z: 26.0
    valence: 8
    core: 18
    charge: 0.0
    file: /home/c.zeng/usr/data/gpaw-setups-0.9.20000/Fe.PBE.gz
    compensation charges: {type: gauss,
                           rc: 0.33,
                           lmax: 2}
    cutoffs: {filter: 2.06,
              core: 2.67}
    valence states:
      #              energy  rcut
      - 4s(2.00)    -5.291   1.164
      - 4p(0.00)    -1.326   1.058
      - 3d(6.00)    -7.505   1.058
      -  s          21.920   1.164
      -  p          25.885   1.058
      -  d          19.706   1.058

[...]

  Cr:
    name: Chromium
    id: 33f258bda2ca9f93018e70263a35547b
    Z: 24.0
    valence: 6
    core: 18
    charge: 0.0
    file: /home/c.zeng/usr/data/gpaw-setups-0.9.20000/Cr.PBE.gz
    compensation charges: {type: gauss,
                           rc: 0.35,
                           lmax: 2}
    cutoffs: {filter: 2.14,
              core: 3.04}
    valence states:
      #              energy  rcut
      - 4s(1.00)    -4.007   1.164
      - 4p(0.00)    -0.989   1.217
      - 3d(5.00)    -2.913   1.111
      -  s          23.205   1.164
      -  p          26.223   1.217
      -  d          24.299   1.111

[...]

  Ni:
    name: Nickel
    id: 0d9f38a9d6e76a2886f07bb4381f212b
    Z: 28.0
    valence: 16
    core: 12
    charge: 0.0
    file: /home/c.zeng/usr/data/gpaw-setups-0.9.20000/Ni.PBE.gz
    compensation charges: {type: gauss,
                           rc: 0.36,
                           lmax: 2}
    cutoffs: {filter: 2.14,
              core: 1.98}
    valence states:
      #              energy  rcut
      - 4s(2.00)    -5.642   1.164
      - 3p(6.00)   -71.394   1.207
      - 4p(0.00)    -1.226   1.207
      - 3d(8.00)    -8.875   1.138
      -  s          21.570   1.164
      -  d          18.337   1.138

[...]

  Co:
    name: Cobalt
    id: 339d20d5b0b93d2de9531a1bee871d91
    Z: 27.0
    valence: 9
    core: 18
    charge: 0.0
    file: /home/c.zeng/usr/data/gpaw-setups-0.9.20000/Co.PBE.gz
    compensation charges: {type: gauss,
                           rc: 0.32,
                           lmax: 2}
    cutoffs: {filter: 1.87,
              core: 2.55}
    valence states:
      #              energy  rcut
      - 4s(2.00)    -5.469   1.005
      - 4p(0.00)    -1.277   1.058
      - 3d(7.00)    -8.205   1.005
      -  s          21.742   1.005
      -  p          25.934   1.058
      -  d          19.007   1.005

    # Using partial waves for Co as LCAO basis

Reference energy: -3235165.067515  # eV

Spin-polarized calculation.
Magnetic moment: 121.100000

Convergence criteria:
 Maximum [total energy] change in last 3 cyles: 0.0001 eV / electron
 Maximum integral of absolute [dens]ity change: 0.0001 electrons / valence electron
 Maximum integral of absolute [eigenst]ate change: 4e-08 eV^2 / valence electron
 Maximum number of scf [iter]ations: 666
 (Square brackets indicate name in SCF output, whereas a 'c' in
 the SCF output indicates the quantity has converged.)

Symmetries present (total): 1

  ( 1  0  0)
  ( 0  1  0)
  ( 0  0  1)

8 k-points: 2 x 2 x 2 Monkhorst-Pack grid
4 k-points in the irreducible part of the Brillouin zone
       k-points in crystal coordinates                weights
   0:     0.25000000   -0.25000000   -0.25000000          2/8
   1:     0.25000000   -0.25000000    0.25000000          2/8
   2:     0.25000000    0.25000000   -0.25000000          2/8
   3:     0.25000000    0.25000000    0.25000000          2/8

Wave functions: Plane wave expansion
  Cutoff energy: 350.000 eV
  Number of coefficients (min, max): 19024, 19024
  Pulay-stress correction: 0.000000 eV/Ang^3 (de/decut=0.000000)
  Using FFTW library
  ScaLapack parameters: grid=1x1, blocksize=None
  Wavefunction extrapolation:
    Improved wavefunction reuse through dual PAW basis

Occupation numbers: Fermi-Dirac:
  width: 0.1000  # eV

Eigensolver
   Davidson(niter=2)

Densities:
  Coarse grid: 48*48*48 grid
  Fine grid: 96*96*96 grid
  Total Charge: 0.000000

Density mixing:
  Method: difference
  Backend: pulay
  Linear mixing parameter: 0.05
  old densities: 5
  Damping of long wavelength oscillations: 50

Hamiltonian:
  XC and Coulomb potentials evaluated on a 96*96*96 grid
  Using the PBE Exchange-Correlation functional
  External potential:
    NoExternalPotential

XC parameters: PBE with 2 nearest neighbor stencil

Total number of cores used: 64
Parallelization over k-points: 4
Domain decomposition: 4 x 2 x 2

Number of atoms: 108
Number of atomic orbitals: 933
Number of bands in calculation: 624
Number of valence electrons: 912
Bands to converge: occupied

... initialized

Initializing position-dependent things.

Density initialized from atomic densities
Creating initial wave functions:
  624 bands from LCAO basis set

        .--------Ni----------------.
       /|  Cr       Ni             |
      / |    Cr       Co           |
     / Al       Co       Ni        |
    /   | Fe     CoAl       Al     |
   /    |            Cr            |
  /     |  CoAl Ni  FeCo Fe  CrCr  |
 *      Cr     FeCoFe   CoNi     Al|
 |     CrAlAl   NiNiFe   NiFeAl    |
 |      | FeCr   AlCoCrNi AlFeCr   |
 |     Co  Fe NiCr  Cr CrFe  CrFe  |
 Co   CoAl   CrAlNiNi AlNiNi       |
 |     AlCoAl   NiCoCo   CrCrCo    |
 | Fe   .-NiCo-----NiAl-Cr--Fe-----.
 |   Co/     Al Al    Co Ni  Ni   /
 |    NNir     Fe       Co       /
 Fe  /   Co      Fee      Ale   /
 |Fe/      Al       Co         /
 | /e       Fe         Ni     /
 |/    Cr                    /
 *--------------------------Al

Positions:
   0 Al    10.858407    0.010052    0.009809    ( 0.0000,  0.0000,  0.0000)
   1 Fe    10.862100    1.810267    1.812613    ( 0.0000,  0.0000,  2.0000)
   2 Cr     1.811201   10.861513    1.811831    ( 0.0000,  0.0000,  0.0000)
   3 Cr     1.809789    1.813504    0.001044    ( 0.0000,  0.0000,  0.0000)
   4 Ni     3.620142   10.857082   10.860482    ( 0.0000,  0.0000,  1.5000)
   5 Al     3.606261    1.825495    1.794115    ( 0.0000,  0.0000,  0.0000)
   6 Al     5.439751   10.847241    1.784437    ( 0.0000,  0.0000,  0.0000)
   7 Ni     5.436351    1.811809   10.859732    ( 0.0000,  0.0000,  1.5000)
   8 Fe     7.243858    0.000638   10.859797    ( 0.0000,  0.0000,  2.0000)
   9 Co     7.242935    1.809126    1.804466    ( 0.0000,  0.0000,  2.1000)
  10 Ni     9.049161    0.002336    1.808800    ( 0.0000,  0.0000,  1.5000)
  11 Fe     9.047412    1.809778   10.860644    ( 0.0000,  0.0000,  2.0000)
  12 Fe    10.863295    3.623292    0.001440    ( 0.0000,  0.0000,  2.0000)
  13 Co    10.862969    5.432603    1.809973    ( 0.0000,  0.0000,  2.1000)
  14 Cr     1.807182    3.620371    1.811483    ( 0.0000,  0.0000,  0.0000)
  15 Co     1.806693    5.431702   10.862534    ( 0.0000,  0.0000,  2.1000)
  16 Fe     3.621142    3.621500    0.000883    ( 0.0000,  0.0000,  2.0000)
  17 Al     3.622380    5.422447    1.802489    ( 0.0000,  0.0000,  0.0000)
  18 Fe     5.431713    3.623119    1.808225    ( 0.0000,  0.0000,  2.0000)
  19 Fe     5.435178    5.430138    0.002457    ( 0.0000,  0.0000,  2.0000)
  20 Cr     7.239036    3.619903   10.859395    ( 0.0000,  0.0000,  0.0000)
  21 Co     7.239133    5.435732    1.806986    ( 0.0000,  0.0000,  2.1000)
  22 Al     9.061544    3.620924    1.800317    ( 0.0000,  0.0000,  0.0000)
  23 Fe     9.051953    5.432049    0.000147    ( 0.0000,  0.0000,  2.0000)
  24 Ni    10.863186    7.235723    0.003261    ( 0.0000,  0.0000,  1.5000)
  25 Al     0.001560    9.043882    1.820010    ( 0.0000,  0.0000,  0.0000)
  26 Ni     1.807779    7.242001    1.808551    ( 0.0000,  0.0000,  1.5000)
  27 Cr     1.818381    9.047988   10.862057    ( 0.0000,  0.0000,  0.0000)
  28 Fe     3.619849    7.244847    0.001651    ( 0.0000,  0.0000,  2.0000)
  29 Ni     3.618481    9.050693    1.805618    ( 0.0000,  0.0000,  1.5000)
  30 Ni     5.436199    7.242653    1.808779    ( 0.0000,  0.0000,  1.5000)
  31 Ni     5.430453    9.052300   10.861644    ( 0.0000,  0.0000,  1.5000)
  32 Co     7.241958    7.241599    0.004446    ( 0.0000,  0.0000,  2.1000)
  33 Cr     7.243033    9.047423    1.806802    ( 0.0000,  0.0000,  0.0000)
  34 Fe     9.049889    7.238721    1.809343    ( 0.0000,  0.0000,  2.0000)
  35 Ni     9.044816    9.051323    0.002360    ( 0.0000,  0.0000,  1.5000)
  36 Fe     0.000718    0.002001    3.622847    ( 0.0000,  0.0000,  2.0000)
  37 Co    10.859776    1.808789    5.431235    ( 0.0000,  0.0000,  2.1000)
  38 Cr     1.806117   10.860677    5.433711    ( 0.0000,  0.0000,  0.0000)
  39 Ni     1.804651    1.810701    3.620251    ( 0.0000,  0.0000,  1.5000)
  40 Al     3.603719   10.840680    3.626877    ( 0.0000,  0.0000,  0.0000)
  41 Al     3.619827    1.813047    5.448625    ( 0.0000,  0.0000,  0.0000)
  42 Cr     5.433657   10.856680    5.438284    ( 0.0000,  0.0000,  0.0000)
  43 Al     5.438013    1.827385    3.628430    ( 0.0000,  0.0000,  0.0000)
  44 Al     7.257621   10.854019    3.627496    ( 0.0000,  0.0000,  0.0000)
  45 Co     7.243945    1.809952    5.437708    ( 0.0000,  0.0000,  2.1000)
  46 Cr     9.053387    0.002114    5.434558    ( 0.0000,  0.0000,  0.0000)
  47 Ni     9.056091    1.807627    3.623564    ( 0.0000,  0.0000,  1.5000)
  48 Fe     0.001819    3.620447    3.620772    ( 0.0000,  0.0000,  2.0000)
  49 Fe    10.858222    5.431332    5.425804    ( 0.0000,  0.0000,  2.0000)
  50 Al     1.801686    3.620403    5.420394    ( 0.0000,  0.0000,  0.0000)
  51 Co     1.807117    5.432017    3.621446    ( 0.0000,  0.0000,  2.1000)
  52 Co     3.622836    3.622912    3.620555    ( 0.0000,  0.0000,  2.1000)
  53 Ni     3.624998    5.429551    5.429573    ( 0.0000,  0.0000,  1.5000)
  54 Ni     5.429062    3.625052    5.432875    ( 0.0000,  0.0000,  1.5000)
  55 Co     5.431398    5.430322    3.622174    ( 0.0000,  0.0000,  2.1000)
  56 Al     7.235408    3.628430    3.629364    ( 0.0000,  0.0000,  0.0000)
  57 Cr     7.240741    5.434070    5.433961    ( 0.0000,  0.0000,  0.0000)
  58 Ni     9.054408    3.619621    5.434656    ( 0.0000,  0.0000,  1.5000)
  59 Cr     9.055363    5.437144    3.622934    ( 0.0000,  0.0000,  0.0000)
[...]
  93 Co     7.241176    5.427237    9.052724    ( 0.0000,  0.0000,  2.1000)
  94 Ni     9.048575    3.621652    9.051551    ( 0.0000,  0.0000,  1.5000)
  95 Fe     9.049085    5.428269    7.239709    ( 0.0000,  0.0000,  2.0000)
  96 Al    -0.000512    7.242989    7.222786    ( 0.0000,  0.0000,  0.0000)
  97 Al     0.011095    9.060262    9.051366    ( 0.0000,  0.0000,  0.0000)
  98 Fe     1.813362    7.243533    9.054245    ( 0.0000,  0.0000,  2.0000)
  99 Co     1.816306    9.053669    7.239666    ( 0.0000,  0.0000,  2.1000)
 100 Fe     3.622271    7.247530    7.237254    ( 0.0000,  0.0000,  2.0000)
 101 Co     3.618861    9.054212    9.051225    ( 0.0000,  0.0000,  2.1000)
 102 Al     5.438110    7.252048    9.050584    ( 0.0000,  0.0000,  0.0000)
 103 Fe     5.430605    9.053854    7.238482    ( 0.0000,  0.0000,  2.0000)
 104 Co     7.240817    7.241534    7.236342    ( 0.0000,  0.0000,  2.1000)
 105 Ni     7.239763    9.057351    9.052116    ( 0.0000,  0.0000,  1.5000)
 106 Al     9.034052    7.231367    9.061055    ( 0.0000,  0.0000,  0.0000)
 107 Cr     9.046185    9.056200    7.237178    ( 0.0000,  0.0000,  0.0000)

Unit cell:
           periodic     x           y           z      points  spacing
  1. axis:    yes   10.862100    0.000000    0.000000    48     0.2263
  2. axis:    yes    0.000000   10.862100    0.000000    48     0.2263
  3. axis:    yes    0.000000    0.000000   10.862100    48     0.2263

  Lengths:  10.862100  10.862100  10.862100
  Angles:   90.000000  90.000000  90.000000

Effective grid spacing dv^(1/3) = 0.2263

     iter     time        total  log10-change:  magmom
                         energy  eigst   dens
iter:   1 03:27:27  -970.899716                  +121.3857
iter:   2 03:28:40  -857.316684  -0.18  -1.17    +66.2902
iter:   3 03:29:49  -843.922161  -0.85  -1.20    +57.6903
iter:   4 03:31:00  -829.507155  -1.23  -1.26    +53.8186
iter:   5 03:32:10  -817.701474  -1.52  -1.29    +51.8315
iter:   6 03:33:22  -812.862507  -1.34  -1.36    +52.4868
iter:   7 03:34:33  -815.464357  -1.34  -1.47    +52.0199
iter:   8 03:35:45  -807.727902  -1.69  -1.52    +52.4019
iter:   9 03:36:56  -805.337318  -2.11  -1.65    +53.7132
iter:  10 03:38:06  -805.588863  -2.45  -1.76    +54.8096
iter:  11 03:39:15  -805.923921  -2.49  -1.78    +55.9308
iter:  12 03:40:26  -806.984410  -2.33  -1.83    +57.3535
iter:  13 03:41:38  -806.402914  -2.45  -1.84    +57.6521
iter:  14 03:42:50  -806.037290  -2.71  -1.93    +58.0886
iter:  15 03:44:02  -806.341463  -2.87  -2.00    +58.6949
iter:  16 03:45:13  -806.334718  -2.94  -2.03    +58.8153
iter:  17 03:46:24  -806.280033c -2.94  -2.08    +59.0973
iter:  18 03:47:35  -806.279471c -3.08  -2.15    +59.1445
iter:  19 03:48:46  -806.292115c -3.14  -2.22    +59.0409
iter:  20 03:49:57  -806.266456c -3.30  -2.27    +59.0895
iter:  21 03:51:08  -806.354944c -3.32  -2.33    +58.8790
iter:  22 03:52:19  -806.293654c -3.38  -2.35    +58.7174
iter:  23 03:53:31  -806.319710c -3.60  -2.42    +58.5770
iter:  24 03:54:42  -806.375239c -3.64  -2.47    +58.2646
iter:  25 03:55:53  -806.389747c -3.78  -2.49    +58.0586
iter:  26 03:57:05  -806.461458c -3.74  -2.54    +57.8254
iter:  27 03:58:15  -806.460140c -3.86  -2.53    +57.5865
iter:  28 03:59:28  -806.488821c -3.99  -2.59    +57.3141
iter:  29 04:00:39  -806.520589c -4.02  -2.63    +57.0667
iter:  30 04:01:50  -806.541805c -4.22  -2.65    +56.8678
iter:  31 04:03:02  -806.574129c -4.14  -2.69    +56.5753
iter:  32 04:04:15  -806.610659c -4.21  -2.73    +56.3646
iter:  33 04:05:28  -806.626690c -4.30  -2.74    +56.1884
iter:  34 04:06:37  -806.646755c -4.36  -2.79    +56.0384
iter:  35 04:07:49  -806.666590c -4.39  -2.81    +55.8470
iter:  36 04:09:00  -806.683487c -4.44  -2.85    +55.7632
iter:  37 04:10:11  -806.698294c -4.48  -2.88    +55.6325
iter:  38 04:11:23  -806.716498c -4.49  -2.92    +55.4761
iter:  39 04:12:34  -806.728489c -4.61  -2.94    +55.3975
iter:  40 04:13:47  -806.737154c -4.76  -2.97    +55.3453
iter:  41 04:14:58  -806.754027c -4.59  -3.01    +55.2141
iter:  42 04:16:10  -806.761396c -4.79  -3.04    +55.2087
iter:  43 04:17:21  -806.769109c -4.78  -3.06    +55.1607
iter:  44 04:18:33  -806.779678c -4.78  -3.11    +55.0989
iter:  45 04:19:44  -806.786507c -4.94  -3.14    +55.0826
iter:  46 04:20:55  -806.792213c -4.95  -3.16    +55.0774
iter:  47 04:22:07  -806.800049c -4.95  -3.20    +55.0380
iter:  48 04:23:19  -806.803996c -5.13  -3.23    +55.0351
iter:  49 04:24:31  -806.811739c -5.04  -3.27    +55.0315
iter:  50 04:25:43  -806.816256c -5.17  -3.29    +55.0285
iter:  51 04:26:55  -806.822904c -5.09  -3.32    +55.0376
iter:  52 04:28:07  -806.826358c -5.28  -3.34    +55.0516
iter:  53 04:29:19  -806.832486c -5.19  -3.37    +55.0598
iter:  54 04:30:30  -806.836853c -5.26  -3.40    +55.0788
iter:  55 04:31:34  -806.842528c -5.21  -3.43    +55.0996
iter:  56 04:32:29  -806.845489c -5.43  -3.46    +55.1147
iter:  57 04:33:37  -806.851393c -5.20  -3.49    +55.1495
iter:  58 04:34:46  -806.853090c -5.56  -3.50    +55.1634
iter:  59 04:35:57  -806.858225c -5.33  -3.54    +55.1940
iter:  60 04:37:06  -806.859966c -5.63  -3.58    +55.2119
iter:  61 04:38:16  -806.865663c -5.33  -3.61    +55.2507
iter:  62 04:39:26  -806.865184c -5.98  -3.63    +55.2501
iter:  63 04:40:38  -806.869784c -5.53  -3.67    +55.2953
iter:  64 04:41:48  -806.869842c -6.03  -3.68    +55.2922
iter:  65 04:42:59  -806.874712c -5.53  -3.71    +55.3314
iter:  66 04:44:09  -806.877295c -5.70  -3.75    +55.3643
iter:  67 04:45:19  -806.882910c -5.36  -3.78    +55.4201
iter:  68 04:46:30  -806.895129c -4.80  -3.81    +55.5499
iter:  69 04:47:40  -806.922460c -4.05  -3.74    +55.9185
iter:  70 04:48:48  -806.934451c -3.97  -3.46    +56.2933
iter:  71 04:50:00  -806.933245c -5.09  -3.30    +56.1797
iter:  72 04:51:08  -806.933957c -5.50  -3.35    +56.2146
iter:  73 04:52:19  -806.934218c -5.71  -3.34    +56.2371
iter:  74 04:53:29  -806.934978c -5.69  -3.35    +56.2406
iter:  75 04:54:39  -806.931957c -5.65  -3.28    +56.2405
iter:  76 04:55:50  -806.932936c -4.84  -3.35    +56.2384
iter:  77 04:56:59  -806.933446c -4.79  -3.19    +56.2241
iter:  78 04:58:08  -806.931751c -4.85  -3.22    +56.1581
iter:  79 04:59:19  -806.929111c -4.83  -3.23    +56.1526
iter:  80 05:00:29  -806.927948c -5.28  -3.28    +56.0826
iter:  81 05:01:38  -806.923327c -5.09  -3.37    +56.0474
iter:  82 05:02:49  -806.925962c -5.29  -3.59    +56.0281
iter:  83 05:04:00  -806.922968c -5.77  -3.55    +56.0036
iter:  84 05:05:10  -806.923172c -6.20  -3.68    +55.9800
iter:  85 05:06:20  -806.922876c -6.04  -3.72    +55.9526
iter:  86 05:07:29  -806.922586c -6.15  -3.73    +55.9513
iter:  87 05:08:40  -806.922365c -6.30  -3.79    +55.9398
iter:  88 05:09:49  -806.922347c -6.28  -3.87    +55.9289
iter:  89 05:10:58  -806.921990c -6.52  -3.90    +55.9247
iter:  90 05:12:10  -806.921931c -6.72  -3.98    +55.9179
iter:  91 05:13:20  -806.921697c -6.81  -4.04c   +55.9060
iter:  92 05:14:31  -806.921605c -6.80  -4.06c   +55.9011
iter:  93 05:15:39  -806.921524c -6.92  -4.10c   +55.8969
iter:  94 05:16:50  -806.921334c -6.92  -4.16c   +55.8916
iter:  95 05:18:00  -806.921260c -7.07  -4.22c   +55.8886
iter:  96 05:19:10  -806.921245c -7.20  -4.27c   +55.8859
iter:  97 05:20:20  -806.921090c -7.13  -4.32c   +55.8824
iter:  98 05:21:30  -806.921088c -7.40c -4.35c   +55.8805

Converged after 98 iterations.

Dipole moment: (0.114126, 1.596830, -0.846241) |e|*Ang

Total magnetic moment: (0.000000, 0.000000, 55.880490)
Local magnetic moments:
   0 Al ( 0.000000,  0.000000, -0.012967)
   1 Fe ( 0.000000,  0.000000,  2.035503)
   2 Cr ( 0.000000,  0.000000, -2.065749)
   3 Cr ( 0.000000,  0.000000,  1.522737)
   4 Ni ( 0.000000,  0.000000,  0.121943)
   5 Al ( 0.000000,  0.000000, -0.008257)
   6 Al ( 0.000000,  0.000000, -0.013418)
   7 Ni ( 0.000000,  0.000000,  0.304621)
   8 Fe ( 0.000000,  0.000000,  2.424741)
   9 Co ( 0.000000,  0.000000,  0.824874)
  10 Ni ( 0.000000,  0.000000,  0.237346)
  11 Fe ( 0.000000,  0.000000,  2.116725)
  12 Fe ( 0.000000,  0.000000,  2.096509)
  13 Co ( 0.000000,  0.000000,  1.364011)
  14 Cr ( 0.000000,  0.000000, -2.001892)
  15 Co ( 0.000000,  0.000000,  0.997371)
  16 Fe ( 0.000000,  0.000000,  2.061582)
  17 Al ( 0.000000,  0.000000, -0.036820)
  18 Fe ( 0.000000,  0.000000,  2.245959)
  19 Fe ( 0.000000,  0.000000,  2.253915)
  20 Cr ( 0.000000,  0.000000, -2.148460)
  21 Co ( 0.000000,  0.000000,  1.079729)
  22 Al ( 0.000000,  0.000000, -0.033918)
  23 Fe ( 0.000000,  0.000000,  2.258006)
  24 Ni ( 0.000000,  0.000000,  0.177415)
  25 Al ( 0.000000,  0.000000, -0.026346)
  26 Ni ( 0.000000,  0.000000,  0.360378)
  27 Cr ( 0.000000,  0.000000,  1.486066)
  28 Fe ( 0.000000,  0.000000,  2.306475)
  29 Ni ( 0.000000,  0.000000,  0.272214)
  30 Ni ( 0.000000,  0.000000,  0.320546)
  31 Ni ( 0.000000,  0.000000,  0.311157)
  32 Co ( 0.000000,  0.000000,  1.345168)
  33 Cr ( 0.000000,  0.000000, -2.130477)
  34 Fe ( 0.000000,  0.000000,  2.257672)
  35 Ni ( 0.000000,  0.000000,  0.188789)
  36 Fe ( 0.000000,  0.000000,  1.916068)
  37 Co ( 0.000000,  0.000000,  0.942523)
  38 Cr ( 0.000000,  0.000000, -1.942740)
  39 Ni ( 0.000000,  0.000000, -0.007850)
  40 Al ( 0.000000,  0.000000,  0.006156)
  41 Al ( 0.000000,  0.000000, -0.000919)
  42 Cr ( 0.000000,  0.000000, -1.823484)
  43 Al ( 0.000000,  0.000000, -0.001984)
  44 Al ( 0.000000,  0.000000, -0.003495)
  45 Co ( 0.000000,  0.000000,  0.119575)
  46 Cr ( 0.000000,  0.000000, -1.783326)
  47 Ni ( 0.000000,  0.000000,  0.211880)
  48 Fe ( 0.000000,  0.000000,  2.293538)
  49 Fe ( 0.000000,  0.000000,  2.014057)
  50 Al ( 0.000000,  0.000000, -0.027900)
  51 Co ( 0.000000,  0.000000,  1.221362)
  52 Co ( 0.000000,  0.000000,  0.954235)
  53 Ni ( 0.000000,  0.000000,  0.369790)
  54 Ni ( 0.000000,  0.000000,  0.114909)
  55 Co ( 0.000000,  0.000000,  1.167785)
  56 Al ( 0.000000,  0.000000, -0.008027)
  57 Cr ( 0.000000,  0.000000, -1.739014)
  58 Ni ( 0.000000,  0.000000,  0.091269)
  59 Cr ( 0.000000,  0.000000, -1.739373)
[...]
  93 Co ( 0.000000,  0.000000,  1.377576)
  94 Ni ( 0.000000,  0.000000,  0.237213)
  95 Fe ( 0.000000,  0.000000,  2.075421)
  96 Al ( 0.000000,  0.000000, -0.032688)
  97 Al ( 0.000000,  0.000000, -0.023806)
  98 Fe ( 0.000000,  0.000000,  1.849243)
  99 Co ( 0.000000,  0.000000,  1.078639)
 100 Fe ( 0.000000,  0.000000,  2.286084)
 101 Co ( 0.000000,  0.000000,  1.319952)
 102 Al ( 0.000000,  0.000000, -0.048231)
 103 Fe ( 0.000000,  0.000000,  2.490169)
 104 Co ( 0.000000,  0.000000,  1.248729)
 105 Ni ( 0.000000,  0.000000,  0.364600)
 106 Al ( 0.000000,  0.000000, -0.029468)
 107 Cr ( 0.000000,  0.000000,  1.526305)

Energy contributions relative to reference atoms: (reference = -3235165.067515)

Kinetic:       +274.419239
Potential:     -260.901647
External:        +0.000000
XC:            -849.733643
Entropy (-ST):   -4.000362
Local:          +31.295145
Free energy:   -808.921269
Extrapolated:  -806.921088

Spin contamination: 31.648199 electrons
Showing only first 2 kpts
                      Up                     Down
 Kpt  Band  Eigenvalues  Occupancy  Eigenvalues  Occupancy
  0   454      9.00718    0.99648      9.93119    0.02673
  0   455      9.03093    0.99554      9.93604    0.02550
  0   456      9.05308    0.99444      9.95318    0.02157
  0   457      9.06826    0.99353      9.96221    0.01974

  1   454      9.02639    0.99574      9.92194    0.02924
  1   455      9.03465    0.99537      9.93572    0.02558
  1   456      9.04560    0.99484      9.95998    0.02018
  1   457      9.06094    0.99399      9.96655    0.01892

Fermi level: 9.57170

No gap

Forces in eV/Ang:
  0 Al   -1.10226    0.18071    0.34461
  1 Fe    0.09489    0.08512    0.47721
  2 Cr   -0.23127   -0.11741   -0.24924
  3 Cr   -0.10723   -0.00982   -0.31770
  4 Ni   -0.02738   -0.24283   -0.25005
  5 Al   -0.07731    0.72005   -0.54329
  6 Al   -0.13237   -0.36720   -1.59214
  7 Ni    0.14868    0.08598   -0.06355
  8 Fe    0.45434   -0.03389   -0.30322
  9 Co   -0.01723   -0.04468   -0.07375
 10 Ni   -0.13284    0.07581   -0.00385
 11 Fe   -0.45986    0.25962    0.13620
 12 Fe    0.04450    0.42950    0.01170
 13 Co    0.60707    0.18432   -0.04996
 14 Cr   -1.09862    0.00529   -0.05931
 15 Co   -0.33652    0.01469   -0.04388
 16 Fe    0.19123    0.38480   -0.00574
 17 Al    0.08888    0.04761   -0.12522
 18 Fe    0.25474    0.23124   -0.13915
 19 Fe    0.55945   -0.06979    0.03943
 20 Cr   -0.53263   -0.00778   -0.42101
 21 Co   -0.20085    0.32384    0.09813
 22 Al    0.40688   -0.28201   -0.14226
 23 Fe   -0.26465   -0.10011   -0.10876
 24 Ni    0.26913   -0.12467   -0.04659
 25 Al   -0.45207   -0.87180    0.21177
 26 Ni   -0.07284   -0.29793    0.03766
 27 Cr    0.77863    0.22224   -0.09406
 28 Fe   -0.20099    0.31587   -0.09195
 29 Ni    0.06256   -0.15726   -0.03067
 30 Ni    0.10256   -0.23222   -0.20431
 31 Ni   -0.07996    0.00591   -0.06815
 32 Co   -0.06619   -0.12005    0.55805
 33 Cr    0.38827   -0.68593   -0.45975
 34 Fe   -0.43131   -0.62426   -0.17412
 35 Ni    0.14212    0.12678   -0.04927
 36 Fe    0.15672    0.65268    0.42546
 37 Co   -0.00935   -0.40732    0.13564
 38 Cr   -1.11054   -0.27129    0.84269
 39 Ni   -0.10947   -0.14386    0.05341
 40 Al   -0.53348   -0.93643    0.27652
 41 Al   -0.29350    0.23674    0.31493
 42 Cr    0.38176   -0.50242    0.84183
 43 Al    0.52078    1.02850    0.49299
 44 Al    0.95821    0.48135    0.19949
 45 Co   -0.05074   -0.26689    0.26232
 46 Cr    0.31221    0.27513    0.48186
 47 Ni    0.30921   -0.01368   -0.15013
 48 Fe   -0.13555    0.11833   -0.01597
 49 Fe   -0.29164   -0.18612   -0.34959
 50 Al   -0.15562   -0.12278   -1.08068
 51 Co   -0.39427    0.01946    0.09461
 52 Co    0.12295    0.37457   -0.09819
 53 Ni    0.22356   -0.14586    0.04365
 54 Ni    0.08185    0.17683   -0.01253
 55 Co    0.06255   -0.07877    0.00131
 56 Al    0.04748   -0.10432    0.30709
 57 Cr   -0.47131    1.04375    0.37068
 58 Ni   -0.02525    0.02928    0.20249
 59 Cr    0.78349    1.07889    0.21915
[...]
 93 Co    0.01560   -0.51969   -0.06813
 94 Ni   -0.10008    0.23015   -0.12511
 95 Fe   -0.24493   -0.50082   -0.12209
 96 Al    0.19044   -0.13027   -0.52360
 97 Al   -0.10304    0.23731   -0.11623
 98 Fe    0.10599   -0.13065    0.18866
 99 Co    0.27453    0.02960   -0.18860
100 Fe   -0.09119    0.35056   -0.37964
101 Co   -0.10784    0.46828   -0.13265
102 Al    0.91862    0.47878    0.05052
103 Fe    0.13411    0.47051   -0.36727
104 Co   -0.09086   -0.06996   -0.68190
105 Ni   -0.14779    0.21153    0.04393
106 Al   -1.18787    0.03607    0.73501
107 Cr   -0.48406    0.69892   -0.72220

Date: Sat Apr  8 05:21:50 2023