User:   c.zeng@d0011
Date:   Fri Apr 14 04:46:21 2023
Arch:   x86_64
Pid:    19549
CWD:    /home/c.zeng/projects/hea-corrosion/hea-mlp/data-curation/bulk-mcmc/dft-jobs/104
Python: 3.8.1
gpaw:   /home/c.zeng/usr/installs/gpaw/source/gpaw-22.8.0/gpaw
_gpaw:  /home/c.zeng/usr/installs/gpaw/source/gpaw-22.8.0/
        _gpaw.cpython-38-x86_64-linux-gnu.so
ase:    /home/c.zeng/.local/lib/python3.8/site-packages/ase-3.22.1-py3.8.egg/ase (version 3.22.1)
numpy:  /shared/centos7/python/3.8.1/lib/python3.8/site-packages/numpy (version 1.17.4)
scipy:  /shared/centos7/python/3.8.1/lib/python3.8/site-packages/scipy (version 1.4.1)
units:  Angstrom and eV
cores: 30
OpenMP: False
OMP_NUM_THREADS: 1

Input parameters:
  convergence: {energy: 0.0001}
  kpts: [2 2 2]
  maxiter: 666
  mode: {ecut: 350.0,
         name: pw}
  occupations: {fixmagmom: False,
                name: fermi-dirac,
                width: 0.1}
  spinpol: True
  xc: PBE

System changes: positions, numbers, cell, pbc, initial_charges, initial_magmoms

Initialize ...

species:
  Co:
    name: Cobalt
    id: 339d20d5b0b93d2de9531a1bee871d91
    Z: 27.0
    valence: 9
    core: 18
    charge: 0.0
    file: /home/c.zeng/usr/data/gpaw-setups-0.9.20000/Co.PBE.gz
    compensation charges: {type: gauss,
                           rc: 0.32,
                           lmax: 2}
    cutoffs: {filter: 1.87,
              core: 2.55}
    valence states:
      #              energy  rcut
      - 4s(2.00)    -5.469   1.005
      - 4p(0.00)    -1.277   1.058
      - 3d(7.00)    -8.205   1.005
      -  s          21.742   1.005
      -  p          25.934   1.058
      -  d          19.007   1.005

    # Using partial waves for Co as LCAO basis

  Fe:
    name: Iron
    id: 37abbd8d6c3c35915a9b583b742da910
    Z: 26.0
    valence: 8
    core: 18
    charge: 0.0
    file: /home/c.zeng/usr/data/gpaw-setups-0.9.20000/Fe.PBE.gz
    compensation charges: {type: gauss,
                           rc: 0.33,
                           lmax: 2}
    cutoffs: {filter: 2.06,
              core: 2.67}
    valence states:
      #              energy  rcut
      - 4s(2.00)    -5.291   1.164
      - 4p(0.00)    -1.326   1.058
      - 3d(6.00)    -7.505   1.058
      -  s          21.920   1.164
      -  p          25.885   1.058
      -  d          19.706   1.058

[...]

  Ni:
    name: Nickel
    id: 0d9f38a9d6e76a2886f07bb4381f212b
    Z: 28.0
    valence: 16
    core: 12
    charge: 0.0
    file: /home/c.zeng/usr/data/gpaw-setups-0.9.20000/Ni.PBE.gz
    compensation charges: {type: gauss,
                           rc: 0.36,
                           lmax: 2}
    cutoffs: {filter: 2.14,
              core: 1.98}
    valence states:
      #              energy  rcut
      - 4s(2.00)    -5.642   1.164
      - 3p(6.00)   -71.394   1.207
      - 4p(0.00)    -1.226   1.207
      - 3d(8.00)    -8.875   1.138
      -  s          21.570   1.164
      -  d          18.337   1.138

[...]

  Al:
    name: Aluminium
    id: 0292cae29f5d6237e50f6abdd43a7bdd
    Z: 13.0
    valence: 3
    core: 10
    charge: 0.0
    file: /home/c.zeng/usr/data/gpaw-setups-0.9.20000/Al.PBE.gz
    compensation charges: {type: gauss,
                           rc: 0.34,
                           lmax: 2}
    cutoffs: {filter: 1.91,
              core: 2.36}
    valence states:
      #              energy  rcut
      - 3s(2.00)    -7.753   1.085
      - 3p(1.00)    -2.712   1.085
      -  s          19.459   1.085
      -  p          24.499   1.085
      -  d           0.000   1.085

[...]

  Cr:
    name: Chromium
    id: 33f258bda2ca9f93018e70263a35547b
    Z: 24.0
    valence: 6
    core: 18
    charge: 0.0
    file: /home/c.zeng/usr/data/gpaw-setups-0.9.20000/Cr.PBE.gz
    compensation charges: {type: gauss,
                           rc: 0.35,
                           lmax: 2}
    cutoffs: {filter: 2.14,
              core: 3.04}
    valence states:
      #              energy  rcut
      - 4s(1.00)    -4.007   1.164
      - 4p(0.00)    -0.989   1.217
      - 3d(5.00)    -2.913   1.111
      -  s          23.205   1.164
      -  p          26.223   1.217
      -  d          24.299   1.111

    # Using partial waves for Cr as LCAO basis

Reference energy: -3548577.034362  # eV

Spin-polarized calculation.
Magnetic moment: 136.400000

Convergence criteria:
 Maximum [total energy] change in last 3 cyles: 0.0001 eV / electron
 Maximum integral of absolute [dens]ity change: 0.0001 electrons / valence electron
 Maximum integral of absolute [eigenst]ate change: 4e-08 eV^2 / valence electron
 Maximum number of scf [iter]ations: 666
 (Square brackets indicate name in SCF output, whereas a 'c' in
 the SCF output indicates the quantity has converged.)

Symmetries present (total): 1

  ( 1  0  0)
  ( 0  1  0)
  ( 0  0  1)

8 k-points: 2 x 2 x 2 Monkhorst-Pack grid
4 k-points in the irreducible part of the Brillouin zone
       k-points in crystal coordinates                weights
   0:     0.25000000   -0.25000000   -0.25000000          2/8
   1:     0.25000000   -0.25000000    0.25000000          2/8
   2:     0.25000000    0.25000000   -0.25000000          2/8
   3:     0.25000000    0.25000000    0.25000000          2/8

Wave functions: Plane wave expansion
  Cutoff energy: 350.000 eV
  Number of coefficients (min, max): 18331, 18331
  Pulay-stress correction: 0.000000 eV/Ang^3 (de/decut=0.000000)
  Using FFTW library
  ScaLapack parameters: grid=1x1, blocksize=None
  Wavefunction extrapolation:
    Improved wavefunction reuse through dual PAW basis

Occupation numbers: Fermi-Dirac:
  width: 0.1000  # eV

Eigensolver
   Davidson(niter=2)

Densities:
  Coarse grid: 48*48*48 grid
  Fine grid: 96*96*96 grid
  Total Charge: 0.000000

Density mixing:
  Method: difference
  Backend: pulay
  Linear mixing parameter: 0.05
  old densities: 5
  Damping of long wavelength oscillations: 50

Hamiltonian:
  XC and Coulomb potentials evaluated on a 96*96*96 grid
  Using the PBE Exchange-Correlation functional
  External potential:
    NoExternalPotential

XC parameters: PBE with 2 nearest neighbor stencil

Total number of cores used: 30
Parallelization over k-points: 2
Domain decomposition: 5 x 3 x 1

Number of atoms: 108
Number of atomic orbitals: 994
Number of bands in calculation: 674
Number of valence electrons: 980
Bands to converge: occupied

... initialized

Initializing position-dependent things.

Density initialized from atomic densities
Creating initial wave functions:
  674 bands from LCAO basis set

        Co-------Co---------------.
       /|  Co       Fe            |
      / |   AlCr     CrCo     CrCo|
     / Ni       CAl     Ni        |
    /   CCo      Ni      FAl      |
   /    | CoCo     Co      CoCo   |
  /   Co|  NiFeAl   NiNi    CrCr  |
 *      Cr  CrCoNi   CoNiNi   FeNi|
 |Fe   NiNiCr   CrNCr   FeCr      |
 | Fe   | NiAl   NiNiCr    Cr     |
 |     Co  CoFeNi   FeNiAl  NiAl  |
 |      Fe    FeNi   FeAlFe   AlCr|
 |Cr    |CoNi   NFeFe   FeFe     Fe
 |      .-FeCr-----FeCr--FeCoNi---.
 |     Cr    CoCr     FeCo  Cr Fe/
 |    / Al      Co       Cr     /
 Cr  /            Cr           /
 |  /      Ni      Cr       Fe/
 | / Co              Fe      /
 |/                     Co  /

Positions:
   0 Co    10.732479   -0.010418   10.721263    ( 0.0000,  0.0000,  2.1000)
   1 Fe    10.706231    1.787006    1.816653    ( 0.0000,  0.0000,  1.5000)
   2 Co     1.827923    0.046024    1.820803    ( 0.0000,  0.0000,  0.0000)
   3 Co     1.781666    1.794790   10.668295    ( 0.0000,  0.0000,  0.0000)
   4 Co     3.605675   -0.024615   10.696977    ( 0.0000,  0.0000,  0.0000)
   5 Ni     3.626284    1.755611    1.827590    ( 0.0000,  0.0000,  2.0000)
   6 Fe     5.347186   -0.032870    1.798425    ( 0.0000,  0.0000,  2.0000)
   7 Al     5.383406    1.755353   -0.004078    ( 0.0000,  0.0000,  2.0000)
   8 Fe     7.108694   -0.021619    0.052076    ( 0.0000,  0.0000,  0.0000)
   9 Cr     7.129131    1.783639    1.838109    ( 0.0000,  0.0000,  2.0000)
  10 Al     8.928414   -0.004386    1.840918    ( 0.0000,  0.0000,  2.0000)
  11 Co     8.945645    1.852509    0.063651    ( 0.0000,  0.0000,  0.0000)
  12 Co    10.721403    3.615743   10.707625    ( 0.0000,  0.0000,  2.1000)
  13 Fe    10.714905    5.407607    1.816064    ( 0.0000,  0.0000,  2.0000)
  14 Al     1.786931    3.537020    1.885127    ( 0.0000,  0.0000,  0.0000)
  15 Co     1.774396    5.426328   10.657058    ( 0.0000,  0.0000,  0.0000)
  16 Co     3.564340    3.564490   10.690115    ( 0.0000,  0.0000,  0.0000)
  17 Co     3.570334    5.434059    1.813919    ( 0.0000,  0.0000,  0.0000)
  18 Co     5.350145    3.574934    1.808708    ( 0.0000,  0.0000,  0.0000)
  19 Al     5.345084    5.410577   10.703464    ( 0.0000,  0.0000,  2.1000)
  20 Fe     7.157695    3.624514    0.002553    ( 0.0000,  0.0000,  2.1000)
  21 Fe     7.157792    5.380200    1.803904    ( 0.0000,  0.0000,  0.0000)
  22 Cr     8.944980    3.620622    1.842988    ( 0.0000,  0.0000,  0.0000)
  23 Al     8.940316    5.370571   -0.005231    ( 0.0000,  0.0000,  0.0000)
  24 Co    10.674578    7.138041   10.683446    ( 0.0000,  0.0000,  2.0000)
  25 Fe    10.668413    8.869012    1.800001    ( 0.0000,  0.0000,  0.0000)
  26 Fe     1.807904    7.157309    1.806960    ( 0.0000,  0.0000,  1.5000)
  27 Co     1.808086    8.895217   10.689064    ( 0.0000,  0.0000,  0.0000)
  28 Cr     3.612462    7.185391   10.698339    ( 0.0000,  0.0000,  2.0000)
  29 Ni     3.598277    8.905404    1.808097    ( 0.0000,  0.0000,  1.5000)
  30 Fe     5.362229    7.149643    1.778835    ( 0.0000,  0.0000,  2.1000)
  31 Fe     5.368084    8.904170   10.708750    ( 0.0000,  0.0000,  2.0000)
  32 Co     7.127640    7.124156   10.700741    ( 0.0000,  0.0000,  2.0000)
  33 Fe     7.139982    8.914904    1.783157    ( 0.0000,  0.0000,  0.0000)
  34 Co     8.884516    7.107975    1.798232    ( 0.0000,  0.0000,  2.0000)
  35 Cr     8.895410    8.880302    0.005476    ( 0.0000,  0.0000,  0.0000)
  36 Cr    10.737840    0.006469    3.587908    ( 0.0000,  0.0000,  1.5000)
  37 Cr     0.009110    1.816214    5.359506    ( 0.0000,  0.0000,  1.5000)
  38 Cr     1.833434   -0.010553    5.335488    ( 0.0000,  0.0000,  2.1000)
  39 Cr     1.814369    1.777409    3.664755    ( 0.0000,  0.0000,  1.5000)
  40 Ni     3.608002   -0.027958    3.615958    ( 0.0000,  0.0000,  2.1000)
  41 Ni     3.597397    1.774364    5.368180    ( 0.0000,  0.0000,  1.5000)
  42 Co     5.355185   -0.018813    5.365682    ( 0.0000,  0.0000,  2.1000)
  43 Cr     5.354005    1.762698    3.609396    ( 0.0000,  0.0000,  1.5000)
  44 Cr     7.096449    0.004839    3.553950    ( 0.0000,  0.0000,  0.0000)
  45 Fe     7.124574    1.817747    5.354692    ( 0.0000,  0.0000,  2.1000)
  46 Fe     8.888698   10.712332    5.289714    ( 0.0000,  0.0000,  0.0000)
  47 Co     8.931727    1.815495    3.558979    ( 0.0000,  0.0000,  1.5000)
  48 Ni    10.700248    3.599864    3.631730    ( 0.0000,  0.0000,  0.0000)
  49 Al    -0.007893    5.382698    5.388017    ( 0.0000,  0.0000,  2.0000)
  50 Fe     1.794265    3.594073    5.365264    ( 0.0000,  0.0000,  2.0000)
  51 Co     1.782020    5.398675    3.628600    ( 0.0000,  0.0000,  1.5000)
[...]
iter: 303 17:42:49  -851.557988c -4.26  -3.36    +62.5532
iter: 304 17:45:10  -851.557341c -5.12  -3.59    +62.5161
iter: 305 17:47:31  -851.556728c -5.51  -3.46    +62.5133
iter: 306 17:49:53  -851.556519c -5.66  -3.45    +62.5287
iter: 307 17:52:13  -851.556763c -5.52  -3.50    +62.5332
iter: 308 17:54:34  -851.558704c -5.36  -3.44    +62.5104
iter: 309 17:56:56  -851.559346c -4.82  -3.37    +62.5055
iter: 310 17:59:24  -851.556800c -5.06  -3.27    +62.5265
iter: 311 18:02:26  -851.559484c -5.17  -3.47    +62.5116
iter: 312 18:04:47  -851.554694c -5.38  -3.38    +62.4975
iter: 313 18:07:08  -851.555544c -5.39  -3.63    +62.5174
iter: 314 18:09:30  -851.556299c -5.64  -3.59    +62.5040
iter: 315 18:11:52  -851.557125c -5.59  -3.70    +62.4936
iter: 316 18:14:13  -851.556363c -5.76  -3.68    +62.4922
iter: 317 18:16:35  -851.556898c -5.64  -3.74    +62.4880
iter: 318 18:18:56  -851.557138c -5.92  -3.73    +62.5115
iter: 319 18:21:18  -851.558549c -5.78  -3.93    +62.5052
iter: 320 18:23:38  -851.557332c -5.97  -3.77    +62.5057
iter: 321 18:25:59  -851.558160c -6.00  -3.94    +62.5209
iter: 322 18:28:20  -851.558631c -6.19  -4.01c   +62.5180
iter: 323 18:30:41  -851.558907c -6.18  -4.11c   +62.5245
iter: 324 18:33:02  -851.559153c -6.40  -4.30c   +62.5284
iter: 325 18:35:23  -851.559711c -6.22  -4.20c   +62.5439
iter: 326 18:37:44  -851.560070c -6.62  -4.29c   +62.5468
iter: 327 18:40:05  -851.560609c -6.19  -4.36c   +62.5539
iter: 328 18:42:26  -851.560249c -7.18  -4.37c   +62.5491
iter: 329 18:44:46  -851.558158c -5.32  -4.47c   +62.5120
iter: 330 18:47:08  -851.557588c -5.88  -4.26c   +62.5040
iter: 331 18:49:28  -851.557172c -6.10  -4.19c   +62.4949
iter: 332 18:51:48  -851.555690c -5.18  -4.11c   +62.4409
iter: 333 18:54:09  -851.555427c -5.54  -3.83    +62.4105
iter: 334 18:57:13  -851.556162c -6.26  -3.74    +62.4277
iter: 335 18:59:39  -851.555258c -5.84  -3.79    +62.4102
iter: 336 19:02:00  -851.555261c -6.05  -3.72    +62.4117
iter: 337 19:04:22  -851.555816c -5.84  -3.69    +62.4147
iter: 338 19:06:43  -851.555144c -5.80  -3.63    +62.3979
iter: 339 19:09:04  -851.555465c -6.06  -3.64    +62.4328
iter: 340 19:11:24  -851.557464c -5.57  -3.74    +62.4509
iter: 341 19:13:46  -851.559418c -5.14  -3.60    +62.4505
iter: 342 19:16:07  -851.555396c -5.45  -3.46    +62.4116
iter: 343 19:18:28  -851.556254c -5.87  -3.83    +62.4409
iter: 344 19:20:49  -851.557189c -5.88  -4.09c   +62.4405
iter: 345 19:23:10  -851.557589c -5.83  -4.07c   +62.4520
iter: 346 19:25:31  -851.558542c -6.07  -4.15c   +62.4721
iter: 347 19:27:52  -851.558696c -6.40  -4.26c   +62.4809
iter: 348 19:30:12  -851.559462c -6.15  -4.34c   +62.4920
iter: 349 19:32:33  -851.558802c -6.67  -4.33c   +62.4807
iter: 350 19:34:53  -851.556715c -5.27  -4.40c   +62.4480
iter: 351 19:37:14  -851.558105c -5.94  -4.14c   +62.4703
iter: 352 19:39:35  -851.557332c -6.32  -4.38c   +62.4546
iter: 353 19:42:45  -851.557347c -6.97  -4.21c   +62.4503
iter: 354 19:45:07  -851.557904c -6.41  -4.33c   +62.4625
iter: 355 19:47:29  -851.557514c -6.83  -4.29c   +62.4645
iter: 356 19:49:49  -851.557855c -6.67  -4.40c   +62.4853
iter: 357 19:52:10  -851.558018c -6.34  -4.23c   +62.4617
iter: 358 19:54:31  -851.558793c -6.10  -4.59c   +62.4703
iter: 359 19:56:52  -851.557910c -6.30  -4.42c   +62.4602
iter: 360 19:59:14  -851.553432c -4.52  -4.69c   +62.3791
iter: 361 20:01:35  -851.554428c -5.96  -3.77    +62.3906
iter: 362 20:03:57  -851.557189c -4.98  -3.87    +62.4287
iter: 363 20:06:18  -851.556945c -6.42  -4.32c   +62.4308
iter: 364 20:08:39  -851.558155c -5.66  -4.29c   +62.4473
iter: 365 20:11:00  -851.557560c -6.52  -4.54c   +62.4432
iter: 366 20:13:21  -851.559092c -5.58  -4.40c   +62.4657
iter: 367 20:15:42  -851.558141c -6.20  -4.45c   +62.4552
iter: 368 20:18:02  -851.558925c -6.34  -4.72c   +62.4719
iter: 369 20:20:24  -851.555249c -4.85  -4.66c   +62.3912
iter: 370 20:22:44  -851.541672c -3.42  -4.02c   +61.9914
iter: 371 20:25:05  -851.567717c -3.21  -3.21    +62.6403
iter: 372 20:27:26  -851.570627c -4.18  -3.67    +62.6815
iter: 373 20:30:30  -851.571221c -4.96  -3.60    +62.6914
iter: 374 20:32:57  -851.565818c -4.87  -3.59    +62.5807
iter: 375 20:35:19  -851.568698c -5.47  -3.76    +62.6353
iter: 376 20:37:40  -851.567568c -6.26  -3.67    +62.6246
iter: 377 20:40:00  -851.569582c -5.65  -3.71    +62.6588
iter: 378 20:42:22  -851.568526c -6.37  -3.59    +62.6557
iter: 379 20:44:43  -851.570260c -5.61  -3.69    +62.6833
iter: 380 20:47:04  -851.570389c -5.18  -3.58    +62.6833
iter: 381 20:49:24  -851.569120c -5.66  -3.56    +62.6865
iter: 382 20:51:45  -851.569183c -5.98  -3.78    +62.7039
iter: 383 20:54:05  -851.570026c -6.25  -3.84    +62.7142
iter: 384 20:56:25  -851.571104c -5.87  -3.85    +62.7269
iter: 385 20:58:46  -851.570235c -6.61  -3.85    +62.7244
iter: 386 21:01:06  -851.570495c -6.38  -3.91    +62.7427
iter: 387 21:03:27  -851.571620c -5.94  -3.87    +62.7390
iter: 388 21:05:47  -851.572010c -5.87  -3.85    +62.7455
iter: 389 21:08:08  -851.572384c -5.78  -4.00c   +62.7485
iter: 390 21:10:28  -851.572239c -6.31  -3.85    +62.7500
iter: 391 21:12:49  -851.573222c -6.09  -4.11c   +62.7646
iter: 392 21:15:09  -851.572942c -6.95  -4.18c   +62.7624
iter: 393 21:17:30  -851.573385c -6.45  -4.20c   +62.7647
iter: 394 21:19:50  -851.573815c -6.48  -4.15c   +62.7655
iter: 395 21:22:50  -851.574297c -6.43  -4.19c   +62.7659
iter: 396 21:25:20  -851.575183c -6.15  -4.14c   +62.7725
iter: 397 21:27:41  -851.572162c -5.26  -4.14c   +62.7291
iter: 398 21:30:01  -851.566076c -4.13  -4.05c   +62.5539
iter: 399 21:32:22  -851.564489c -4.48  -3.55    +62.4377
iter: 400 21:34:43  -851.564259c -5.10  -3.47    +62.3833
iter: 401 21:37:04  -851.564585c -5.35  -3.44    +62.3367
iter: 402 21:39:25  -851.564863c -5.71  -3.41    +62.3021
iter: 403 21:41:46  -851.571127c -5.02  -3.39    +62.3134
iter: 404 21:44:07  -851.564442c -5.06  -3.20    +62.2991
iter: 405 21:46:28  -851.564832c -5.31  -3.36    +62.2743
iter: 406 21:48:49  -851.569510c -4.73  -3.36    +62.2529
iter: 407 21:51:10  -851.564968c -4.68  -3.25    +62.2518
iter: 408 21:53:30  -851.560245c -5.30  -3.31    +62.3192
iter: 409 21:55:49  -851.559976c -5.57  -3.66    +62.3103
iter: 410 21:58:10  -851.561706c -5.53  -3.78    +62.3440
iter: 411 22:00:31  -851.561093c -5.78  -3.67    +62.3640
iter: 412 22:02:51  -851.561746c -5.88  -3.86    +62.3871
iter: 413 22:05:11  -851.562496c -5.91  -3.90    +62.3887
iter: 414 22:07:32  -851.562090c -5.92  -3.86    +62.4093
iter: 415 22:09:52  -851.562718c -6.19  -3.97    +62.4396
iter: 416 22:12:14  -851.563196c -6.14  -4.12c   +62.4535
iter: 417 22:14:35  -851.563860c -6.05  -4.20c   +62.4685
iter: 418 22:17:33  -851.563710c -6.71  -4.12c   +62.4684
iter: 419 22:20:06  -851.564392c -6.23  -4.34c   +62.4963
iter: 420 22:22:27  -851.564341c -7.18  -4.44c   +62.4917
iter: 421 22:24:48  -851.564789c -6.47  -4.41c   +62.5079
iter: 422 22:27:08  -851.564486c -7.17  -4.46c   +62.4974
iter: 423 22:29:28  -851.562584c -5.25  -4.52c   +62.4216
iter: 424 22:31:49  -851.562648c -6.21  -4.13c   +62.4151
iter: 425 22:34:12  -851.563089c -6.35  -4.05c   +62.4193
iter: 426 22:36:33  -851.563945c -6.17  -4.03c   +62.4332
iter: 427 22:38:54  -851.558749c -4.46  -4.06c   +62.3457
iter: 428 22:41:15  -851.558690c -5.36  -3.76    +62.3573
iter: 429 22:43:35  -851.559146c -5.80  -3.76    +62.4003
iter: 430 22:45:56  -851.559450c -5.68  -3.68    +62.3984
iter: 431 22:48:16  -851.559061c -5.86  -3.73    +62.4120
iter: 432 22:50:36  -851.559049c -5.48  -3.69    +62.4412
iter: 433 22:52:56  -851.558980c -5.99  -3.81    +62.4457
iter: 434 22:55:16  -851.558890c -6.08  -3.83    +62.4259
iter: 435 22:57:36  -851.559715c -6.19  -4.10c   +62.4373
iter: 436 22:59:57  -851.559524c -6.08  -3.98    +62.4429
iter: 437 23:02:17  -851.560296c -6.14  -3.99    +62.4616
iter: 438 23:04:37  -851.560508c -6.18  -4.12c   +62.4688
iter: 439 23:07:40  -851.561053c -6.13  -4.08c   +62.4809
iter: 440 23:10:09  -851.560881c -6.69  -4.18c   +62.4820
iter: 441 23:12:29  -851.561345c -6.26  -4.40c   +62.4908
iter: 442 23:14:50  -851.561565c -6.88  -4.38c   +62.4918
iter: 443 23:17:10  -851.562054c -6.26  -4.58c   +62.5034
iter: 444 23:19:31  -851.560848c -5.91  -4.47c   +62.4702
iter: 445 23:21:52  -851.557254c -4.62  -4.41c   +62.3758
iter: 446 23:24:13  -851.555633c -4.75  -3.92    +62.3225
iter: 447 23:26:34  -851.551824c -4.03  -3.72    +62.1681
iter: 448 23:28:55  -851.555644c -4.38  -3.40    +62.3266
iter: 449 23:31:16  -851.556383c -5.08  -3.71    +62.3604
iter: 450 23:33:36  -851.557057c -5.45  -3.80    +62.3860
iter: 451 23:35:56  -851.557011c -6.40  -3.86    +62.3906
iter: 452 23:38:16  -851.557242c -6.16  -3.87    +62.4031
iter: 453 23:40:36  -851.558179c -6.05  -3.86    +62.4165
iter: 454 23:42:57  -851.558307c -5.75  -3.84    +62.4204
iter: 455 23:45:18  -851.557684c -5.71  -3.71    +62.4138
iter: 456 23:47:39  -851.557897c -6.04  -3.84    +62.4201
iter: 457 23:49:59  -851.558513c -5.96  -4.11c   +62.4287
iter: 458 23:52:19  -851.558387c -6.29  -4.03c   +62.4321
iter: 459 23:54:39  -851.559607c -6.11  -4.26c   +62.4540
iter: 460 23:57:01  -851.559320c -6.51  -4.16c   +62.4558
iter: 461 23:59:21  -851.559812c -6.23  -4.33c   +62.4708
iter: 462 00:02:29  -851.559826c -6.82  -4.36c   +62.4732
iter: 463 00:04:51  -851.560446c -6.29  -4.44c   +62.4885
iter: 464 00:07:12  -851.560234c -7.40c -4.53c   +62.4837

Converged after 464 iterations.

Dipole moment: (-1.866734, 13.104773, 14.371947) |e|*Ang

Total magnetic moment: (0.000000, 0.000000, 62.483677)
Local magnetic moments:
   0 Co ( 0.000000,  0.000000,  1.017064)
   1 Fe ( 0.000000,  0.000000,  2.194068)
   2 Co ( 0.000000,  0.000000,  1.448231)
   3 Co ( 0.000000,  0.000000,  1.125155)
   4 Co ( 0.000000,  0.000000,  1.091354)
   5 Ni ( 0.000000,  0.000000,  0.198559)
   6 Fe ( 0.000000,  0.000000,  1.956764)
   7 Al ( 0.000000,  0.000000, -0.018256)
   8 Fe ( 0.000000,  0.000000, -1.498285)
   9 Cr ( 0.000000,  0.000000,  0.952554)
  10 Al ( 0.000000,  0.000000, -0.014600)
  11 Co ( 0.000000,  0.000000,  1.028234)
  12 Co ( 0.000000,  0.000000,  1.055012)
  13 Fe ( 0.000000,  0.000000,  2.254993)
  14 Al ( 0.000000,  0.000000, -0.029758)
  15 Co ( 0.000000,  0.000000,  1.260540)
  16 Co ( 0.000000,  0.000000,  1.277286)
  17 Co ( 0.000000,  0.000000,  1.141304)
  18 Co ( 0.000000,  0.000000,  1.067235)
  19 Al ( 0.000000,  0.000000, -0.041884)
  20 Fe ( 0.000000,  0.000000,  2.209843)
  21 Fe ( 0.000000,  0.000000,  2.054543)
  22 Cr ( 0.000000,  0.000000, -1.338022)
  23 Al ( 0.000000,  0.000000, -0.035413)
  24 Co ( 0.000000,  0.000000,  1.202151)
  25 Fe ( 0.000000,  0.000000,  2.223821)
  26 Fe ( 0.000000,  0.000000,  2.305643)
  27 Co ( 0.000000,  0.000000,  1.476828)
  28 Cr ( 0.000000,  0.000000, -2.086006)
  29 Ni ( 0.000000,  0.000000,  0.461741)
  30 Fe ( 0.000000,  0.000000,  1.982530)
  31 Fe ( 0.000000,  0.000000,  2.128598)
  32 Co ( 0.000000,  0.000000,  1.166601)
  33 Fe ( 0.000000,  0.000000,  1.798206)
  34 Co ( 0.000000,  0.000000,  1.074685)
  35 Cr ( 0.000000,  0.000000, -1.299854)
  36 Cr ( 0.000000,  0.000000, -1.598116)
  37 Cr ( 0.000000,  0.000000, -0.033559)
  38 Cr ( 0.000000,  0.000000,  0.873412)
  39 Cr ( 0.000000,  0.000000,  0.309896)
  40 Ni ( 0.000000,  0.000000,  0.284960)
  41 Ni ( 0.000000,  0.000000,  0.139646)
  42 Co ( 0.000000,  0.000000,  1.070490)
  43 Cr ( 0.000000,  0.000000,  0.395531)
  44 Cr ( 0.000000,  0.000000, -1.433624)
  45 Fe ( 0.000000,  0.000000,  1.556609)
  46 Fe ( 0.000000,  0.000000,  2.001551)
  47 Co ( 0.000000,  0.000000,  0.393880)
  48 Ni ( 0.000000,  0.000000,  0.273175)
  49 Al ( 0.000000,  0.000000, -0.018557)
  50 Fe ( 0.000000,  0.000000,  2.032550)
  51 Co ( 0.000000,  0.000000,  0.994279)
  52 Cr ( 0.000000,  0.000000, -1.676950)
  53 Fe ( 0.000000,  0.000000,  2.219715)
  54 Ni ( 0.000000,  0.000000,  0.095822)
  55 Fe ( 0.000000,  0.000000,  2.192179)
  56 Cr ( 0.000000,  0.000000, -1.384738)
  57 Ni ( 0.000000,  0.000000,  0.202087)
  58 Fe ( 0.000000,  0.000000,  1.703519)
  59 Fe ( 0.000000,  0.000000,  1.570039)
[...]
  93 Ni ( 0.000000,  0.000000,  0.268106)
  94 Ni ( 0.000000,  0.000000,  0.200852)
  95 Cr ( 0.000000,  0.000000,  0.446910)
  96 Ni ( 0.000000,  0.000000,  0.106469)
  97 Ni ( 0.000000,  0.000000,  0.187057)
  98 Co ( 0.000000,  0.000000,  1.359110)
  99 Ni ( 0.000000,  0.000000,  0.185922)
 100 Co ( 0.000000,  0.000000,  1.448066)
 101 Co ( 0.000000,  0.000000,  1.269711)
 102 Co ( 0.000000,  0.000000,  1.322957)
 103 Ni ( 0.000000,  0.000000,  0.346617)
 104 Ni ( 0.000000,  0.000000,  0.262023)
 105 Ni ( 0.000000,  0.000000,  0.219457)
 106 Co ( 0.000000,  0.000000,  0.687791)
 107 Cr ( 0.000000,  0.000000,  0.317145)

Energy contributions relative to reference atoms: (reference = -3548577.034362)

Kinetic:       +172.659756
Potential:     -206.871893
External:        +0.000000
XC:            -851.030897
Entropy (-ST):   -4.565615
Local:          +35.965608
Free energy:   -853.843041
Extrapolated:  -851.560234

Spin contamination: 25.465122 electrons
Showing only first 2 kpts
                      Up                     Down
 Kpt  Band  Eigenvalues  Occupancy  Eigenvalues  Occupancy
  0   488      9.48871    0.99374     10.35651    0.02631
  0   489      9.49898    0.99306     10.36424    0.02440
  0   490      9.51379    0.99197     10.38097    0.02072
  0   491      9.53478    0.99011     10.39745    0.01762

  1   488      9.48743    0.99382     10.36486    0.02425
  1   489      9.49169    0.99355     10.38331    0.02025
  1   490      9.50919    0.99232     10.39173    0.01864
  1   491      9.52704    0.99084     10.40018    0.01716

Fermi level: 9.99538

No gap

Forces in eV/Ang:
  0 Co   -0.25162    0.13228    0.08117
  1 Fe    0.14155   -0.02176   -0.32680
  2 Co   -0.18122   -0.45422   -0.16155
  3 Co    0.09229    0.03698    0.47343
  4 Co   -0.31967   -0.07163    0.37648
  5 Ni   -0.45550    0.08204   -0.24372
  6 Fe   -0.21501   -0.52128    0.09341
  7 Al   -0.75713    0.77365    0.41886
  8 Fe    0.44863    0.19192   -0.61311
  9 Cr    0.05568    0.55648   -0.04845
 10 Al    0.31243   -0.05534   -0.84945
 11 Co    0.00370   -0.09588   -0.74595
 12 Co    0.14082   -0.37760    0.00749
 13 Fe    0.15644   -0.05284   -0.15074
 14 Al    0.00756    0.70889   -1.32499
 15 Co    0.14632   -0.34367    0.20255
 16 Co   -0.29882    0.28257    0.28833
 17 Co   -0.19689   -0.40389    0.04783
 18 Co   -0.00730    0.23290    0.15488
 19 Al    0.37716   -1.17037   -0.01110
 20 Fe    0.10369   -0.58320   -0.14109
 21 Fe   -0.14868   -0.45890    0.10932
 22 Cr    0.31425   -0.77222    0.11487
 23 Al   -0.25778    0.46423   -0.54170
 24 Co    0.48896    0.24666    0.15551
 25 Fe    0.57350    0.09141   -0.23166
 26 Fe   -0.01764    0.09319   -0.44803
 27 Co   -0.07598   -0.09710    0.60160
 28 Cr   -1.11320    0.54470   -0.06869
 29 Ni   -0.42680    0.43484   -0.14540
 30 Fe   -0.28235    0.26352    0.00785
 31 Fe    0.01801    0.09759    0.07764
 32 Co    0.17094    0.62886    0.09198
 33 Fe    0.01585    0.07263   -0.20988
 34 Co    0.34552    0.36396   -0.04450
 35 Cr   -0.01105   -0.50044   -0.58384
 36 Cr    0.53776   -0.38015    0.76043
 37 Cr    0.18155    0.09121   -0.23864
 38 Cr   -0.57633    0.36304    0.24708
 39 Cr    0.05028   -0.83793   -0.16883
 40 Ni   -0.09099    0.24508   -0.40741
 41 Ni   -0.06038   -0.16593   -0.07113
 42 Co    0.14189    0.02470    0.00151
 43 Cr   -0.12425    0.12603   -0.05806
 44 Cr   -0.36588    0.11025    0.73372
 45 Fe    0.12137   -0.17316   -0.29980
 46 Fe    0.49819   -0.37844    0.20594
 47 Co    0.10010    0.18834    0.44674
 48 Ni    0.06641   -0.23844   -0.31747
 49 Al    0.86672   -0.55639    0.20585
 50 Fe   -0.09632   -0.39303   -0.16141
 51 Co    0.33462    0.05397   -0.34400
 52 Cr    0.67633    0.11135    0.01540
 53 Fe   -0.12758    0.27044   -0.23629
 54 Ni    0.27525    0.05873   -0.19498
 55 Fe   -0.34070   -0.98216   -0.53372
 56 Cr   -0.37722    0.00731    0.08119
 57 Ni   -0.05133   -0.01599   -0.06492
 58 Fe   -0.23771   -0.09262   -0.35829
 59 Fe   -0.29111   -0.25212   -0.06314
[...]
 93 Ni   -0.03756   -0.22435   -0.23065
 94 Ni    0.13312   -0.25963    0.49644
 95 Cr   -0.56152    0.04648    0.66537
 96 Ni   -0.10469    0.17988    0.14061
 97 Ni   -0.27842    0.19792   -0.06080
 98 Co    0.16201   -0.34571    0.37025
 99 Ni   -0.43398    0.12247    0.15844
100 Co   -0.10235    0.04339    0.26879
101 Co    0.23513   -0.34355    0.18248
102 Co   -0.24712    0.12514   -0.33598
103 Ni   -0.06508    0.12872    0.07373
104 Ni    0.18418    0.16203    0.13951
105 Ni    0.39954    0.29550    0.03223
106 Co    0.15616    0.30227   -0.11440
107 Cr    0.07560    0.14822    0.41191

Date: Sat Apr 15 00:07:35 2023