User:   c.zeng@d0106
Date:   Sat Apr 15 10:15:33 2023
Arch:   x86_64
Pid:    147893
CWD:    /home/c.zeng/projects/hea-corrosion/hea-mlp/data-curation/bulk-mcmc/dft-jobs/247
Python: 3.8.1
gpaw:   /home/c.zeng/usr/installs/gpaw/source/gpaw-22.8.0/gpaw
_gpaw:  /home/c.zeng/usr/installs/gpaw/source/gpaw-22.8.0/
        _gpaw.cpython-38-x86_64-linux-gnu.so
ase:    /home/c.zeng/.local/lib/python3.8/site-packages/ase-3.22.1-py3.8.egg/ase (version 3.22.1)
numpy:  /shared/centos7/python/3.8.1/lib/python3.8/site-packages/numpy (version 1.17.4)
scipy:  /shared/centos7/python/3.8.1/lib/python3.8/site-packages/scipy (version 1.4.1)
units:  Angstrom and eV
cores: 30
OpenMP: False
OMP_NUM_THREADS: 1

Input parameters:
  convergence: {energy: 0.0001}
  kpts: [2 2 2]
  maxiter: 666
  mode: {ecut: 350.0,
         name: pw}
  occupations: {fixmagmom: False,
                name: fermi-dirac,
                width: 0.1}
  spinpol: True
  xc: PBE

System changes: positions, numbers, cell, pbc, initial_charges, initial_magmoms

Initialize ...

species:
  Cr:
    name: Chromium
    id: 33f258bda2ca9f93018e70263a35547b
    Z: 24.0
    valence: 6
    core: 18
    charge: 0.0
    file: /home/c.zeng/usr/data/gpaw-setups-0.9.20000/Cr.PBE.gz
    compensation charges: {type: gauss,
                           rc: 0.35,
                           lmax: 2}
    cutoffs: {filter: 2.14,
              core: 3.04}
    valence states:
      #              energy  rcut
      - 4s(1.00)    -4.007   1.164
      - 4p(0.00)    -0.989   1.217
      - 3d(5.00)    -2.913   1.111
      -  s          23.205   1.164
      -  p          26.223   1.217
      -  d          24.299   1.111

    # Using partial waves for Cr as LCAO basis

  Al:
    name: Aluminium
    id: 0292cae29f5d6237e50f6abdd43a7bdd
    Z: 13.0
    valence: 3
    core: 10
    charge: 0.0
    file: /home/c.zeng/usr/data/gpaw-setups-0.9.20000/Al.PBE.gz
    compensation charges: {type: gauss,
                           rc: 0.34,
                           lmax: 2}
    cutoffs: {filter: 1.91,
              core: 2.36}
    valence states:
      #              energy  rcut
      - 3s(2.00)    -7.753   1.085
      - 3p(1.00)    -2.712   1.085
      -  s          19.459   1.085
      -  p          24.499   1.085
      -  d           0.000   1.085

[...]

  Ni:
    name: Nickel
    id: 0d9f38a9d6e76a2886f07bb4381f212b
    Z: 28.0
    valence: 16
    core: 12
    charge: 0.0
    file: /home/c.zeng/usr/data/gpaw-setups-0.9.20000/Ni.PBE.gz
    compensation charges: {type: gauss,
                           rc: 0.36,
                           lmax: 2}
    cutoffs: {filter: 2.14,
              core: 1.98}
    valence states:
      #              energy  rcut
      - 4s(2.00)    -5.642   1.164
      - 3p(6.00)   -71.394   1.207
      - 4p(0.00)    -1.226   1.207
      - 3d(8.00)    -8.875   1.138
      -  s          21.570   1.164
      -  d          18.337   1.138

[...]

  Co:
    name: Cobalt
    id: 339d20d5b0b93d2de9531a1bee871d91
    Z: 27.0
    valence: 9
    core: 18
    charge: 0.0
    file: /home/c.zeng/usr/data/gpaw-setups-0.9.20000/Co.PBE.gz
    compensation charges: {type: gauss,
                           rc: 0.32,
                           lmax: 2}
    cutoffs: {filter: 1.87,
              core: 2.55}
    valence states:
      #              energy  rcut
      - 4s(2.00)    -5.469   1.005
      - 4p(0.00)    -1.277   1.058
      - 3d(7.00)    -8.205   1.005
      -  s          21.742   1.005
      -  p          25.934   1.058
      -  d          19.007   1.005

[...]

  Fe:
    name: Iron
    id: 37abbd8d6c3c35915a9b583b742da910
    Z: 26.0
    valence: 8
    core: 18
    charge: 0.0
    file: /home/c.zeng/usr/data/gpaw-setups-0.9.20000/Fe.PBE.gz
    compensation charges: {type: gauss,
                           rc: 0.33,
                           lmax: 2}
    cutoffs: {filter: 2.06,
              core: 2.67}
    valence states:
      #              energy  rcut
      - 4s(2.00)    -5.291   1.164
      - 4p(0.00)    -1.326   1.058
      - 3d(6.00)    -7.505   1.058
      -  s          21.920   1.164
      -  p          25.885   1.058
      -  d          19.706   1.058

    # Using partial waves for Fe as LCAO basis

Reference energy: -3235165.067515  # eV

Spin-polarized calculation.
Magnetic moment: 121.100000

Convergence criteria:
 Maximum [total energy] change in last 3 cyles: 0.0001 eV / electron
 Maximum integral of absolute [dens]ity change: 0.0001 electrons / valence electron
 Maximum integral of absolute [eigenst]ate change: 4e-08 eV^2 / valence electron
 Maximum number of scf [iter]ations: 666
 (Square brackets indicate name in SCF output, whereas a 'c' in
 the SCF output indicates the quantity has converged.)

Symmetries present (total): 1

  ( 1  0  0)
  ( 0  1  0)
  ( 0  0  1)

8 k-points: 2 x 2 x 2 Monkhorst-Pack grid
4 k-points in the irreducible part of the Brillouin zone
       k-points in crystal coordinates                weights
   0:     0.25000000   -0.25000000   -0.25000000          2/8
   1:     0.25000000   -0.25000000    0.25000000          2/8
   2:     0.25000000    0.25000000   -0.25000000          2/8
   3:     0.25000000    0.25000000    0.25000000          2/8

Wave functions: Plane wave expansion
  Cutoff energy: 350.000 eV
  Number of coefficients (min, max): 19084, 19084
  Pulay-stress correction: 0.000000 eV/Ang^3 (de/decut=0.000000)
  Using FFTW library
  ScaLapack parameters: grid=1x1, blocksize=None
  Wavefunction extrapolation:
    Improved wavefunction reuse through dual PAW basis

Occupation numbers: Fermi-Dirac:
  width: 0.1000  # eV

Eigensolver
   Davidson(niter=2)

Densities:
  Coarse grid: 48*48*48 grid
  Fine grid: 96*96*96 grid
  Total Charge: 0.000000

Density mixing:
  Method: difference
  Backend: pulay
  Linear mixing parameter: 0.05
  old densities: 5
  Damping of long wavelength oscillations: 50

Hamiltonian:
  XC and Coulomb potentials evaluated on a 96*96*96 grid
  Using the PBE Exchange-Correlation functional
  External potential:
    NoExternalPotential

XC parameters: PBE with 2 nearest neighbor stencil

Total number of cores used: 30
Parallelization over k-points: 2
Domain decomposition: 5 x 3 x 1

Number of atoms: 108
Number of atomic orbitals: 933
Number of bands in calculation: 624
Number of valence electrons: 912
Bands to converge: occupied

... initialized

Initializing position-dependent things.

Density initialized from atomic densities
Creating initial wave functions:
  624 bands from LCAO basis set

        .--------Al----------------.
       /|           Fe             |
      / |    FeFe     Ni           |
     / Cr       Ni       Al        |
    /   |Fe      CrCo       Fe     |
   /    | NiNi      ACo            |
  /    Co  FeiAlAl    Co Fe  CoAl  |
 *      Fe     AlCoAl   CrFe     Cr|
 |      |FeNi   NiFeFe   AlNiCr   Co
 |      | CoCr   AlCoCoAl CrCrFe   |
 |     Fe  Al CoCo  CrCr Ni  NiCr  |
 |      Cr  Ni CrNiCo CoNiCoAl   Fe|
 |      |NiCo   CoAlAl   CoCrFe   Fe
 |      .-FeCr-----NiCr-Al--NiFe---.
 |     Al  Cr CoNi    Al Co  Ni Cr/
 |    / Co              Cr       Cr
 |   /           Ali      NiFe  /
 |  /      Ni       Fe     CrAl/
 | /                   Fe     /i
 *--------------------------Cr

Positions:
   0 Cr    10.797848    0.093654    0.085777    ( 0.0000,  0.0000,  0.0000)
   1 Al    10.831824    1.844742    1.870716    ( 0.0000,  0.0000,  2.0000)
   2 Ni     1.786803   10.847372    1.827335    ( 0.0000,  0.0000,  0.0000)
   3 Co     1.769614    1.870531   -0.031264    ( 0.0000,  0.0000,  0.0000)
   4 Al     3.620857   10.822050   10.833629    ( 0.0000,  0.0000,  1.5000)
   5 Ni     3.571246    1.883176    1.708402    ( 0.0000,  0.0000,  0.0000)
   6 Co     5.521103   10.788063    1.666217    ( 0.0000,  0.0000,  0.0000)
   7 Al     5.520831    1.813973   10.830911    ( 0.0000,  0.0000,  1.5000)
   8 Al     7.330846    0.011025   10.815657    ( 0.0000,  0.0000,  2.0000)
   9 Fe     7.282018    1.809483    1.793250    ( 0.0000,  0.0000,  2.1000)
  10 Fe     9.029996    0.022005    1.811918    ( 0.0000,  0.0000,  1.5000)
  11 Fe     9.007196    1.868639   10.825714    ( 0.0000,  0.0000,  2.0000)
  12 Ni    10.861310    3.649723    0.014171    ( 0.0000,  0.0000,  2.0000)
  13 Cr    10.867442    5.463468    1.819235    ( 0.0000,  0.0000,  2.1000)
  14 Co     1.756088    3.650267    1.845949    ( 0.0000,  0.0000,  0.0000)
  15 Fe     1.790358    5.439092   10.869084    ( 0.0000,  0.0000,  2.1000)
  16 Ni     3.687842    3.622792   -0.049287    ( 0.0000,  0.0000,  2.0000)
  17 Co     3.667347    5.391145    1.745368    ( 0.0000,  0.0000,  0.0000)
  18 Al     5.497977    3.634415    1.792370    ( 0.0000,  0.0000,  2.0000)
  19 Ni     5.524908    5.448029    0.002551    ( 0.0000,  0.0000,  2.0000)
  20 Co     7.223340    3.611877   10.834270    ( 0.0000,  0.0000,  0.0000)
  21 Al     7.217762    5.474830    1.807776    ( 0.0000,  0.0000,  2.1000)
  22 Ni     9.073442    3.654344    1.775148    ( 0.0000,  0.0000,  0.0000)
  23 Cr     9.008740    5.418608    0.007692    ( 0.0000,  0.0000,  2.0000)
  24 Cr    10.859190    7.178720    0.014480    ( 0.0000,  0.0000,  1.5000)
  25 Fe    -0.018106    8.970948    1.875391    ( 0.0000,  0.0000,  0.0000)
  26 Fe     1.817615    7.224025    1.802546    ( 0.0000,  0.0000,  1.5000)
  27 Cr     1.880729    8.993464   10.874031    ( 0.0000,  0.0000,  0.0000)
  28 Fe     3.684428    7.260447   -0.001356    ( 0.0000,  0.0000,  2.0000)
  29 Co     3.612616    9.025636    1.761807    ( 0.0000,  0.0000,  1.5000)
  30 Ni     5.481440    7.275114    1.811211    ( 0.0000,  0.0000,  1.5000)
  31 Fe     5.461261    9.048153   10.833988    ( 0.0000,  0.0000,  1.5000)
  32 Cr     7.245704    7.257881    0.056891    ( 0.0000,  0.0000,  2.1000)
  33 Co     7.301969    9.004609    1.790315    ( 0.0000,  0.0000,  0.0000)
  34 Ni     9.029343    7.181775    1.815549    ( 0.0000,  0.0000,  2.0000)
  35 Ni     9.030561    9.042010    0.020232    ( 0.0000,  0.0000,  1.5000)
  36 Fe    -0.031046    0.001947    3.645701    ( 0.0000,  0.0000,  2.0000)
  37 Fe    10.825910    1.804351    5.434602    ( 0.0000,  0.0000,  2.1000)
  38 Ni     1.743552   10.849296    5.484376    ( 0.0000,  0.0000,  0.0000)
  39 Al     1.769755    1.791891    3.636068    ( 0.0000,  0.0000,  1.5000)
  40 Al     3.516667   10.719828    3.663227    ( 0.0000,  0.0000,  0.0000)
  41 Co     3.644244    1.785205    5.586728    ( 0.0000,  0.0000,  0.0000)
  42 Al     5.484778   10.815439    5.504022    ( 0.0000,  0.0000,  0.0000)
  43 Ni     5.457934    1.842230    3.658769    ( 0.0000,  0.0000,  0.0000)
  44 Cr     7.360615   10.815439    3.672229    ( 0.0000,  0.0000,  0.0000)
  45 Al     7.266884    1.811614    5.485528    ( 0.0000,  0.0000,  2.1000)
  46 Al     9.077986    0.023590    5.491921    ( 0.0000,  0.0000,  0.0000)
  47 Co     9.066788    1.824226    3.671175    ( 0.0000,  0.0000,  1.5000)
  48 Fe    -0.047135    3.649615    3.617291    ( 0.0000,  0.0000,  2.0000)
  49 Cr    10.809264    5.435993    5.379805    ( 0.0000,  0.0000,  2.0000)
  50 Cr     1.752316    3.624989    5.344676    ( 0.0000,  0.0000,  0.0000)
  51 Ni     1.805786    5.472046    3.619389    ( 0.0000,  0.0000,  2.1000)
[...]
  Angles:   90.000000  90.000000  90.000000

Effective grid spacing dv^(1/3) = 0.2265

     iter     time        total  log10-change:  magmom
                         energy  eigst   dens
iter:   1 10:18:44  -930.480122                  +120.1500
iter:   2 10:19:56  -838.594599  -0.26  -1.24    +79.8052
iter:   3 10:21:09  -834.865809  -0.78  -1.27    +47.1289
iter:   4 10:22:21  -819.537421  -1.22  -1.29    +43.6228
iter:   5 10:23:33  -812.644789  -1.67  -1.35    +41.2792
iter:   6 10:24:46  -814.618587  -1.61  -1.40    +40.2752
iter:   7 10:25:58  -809.232372  -1.38  -1.42    +39.5326
iter:   8 10:27:10  -805.336595  -1.72  -1.55    +39.6523
iter:   9 10:28:22  -807.599325  -1.86  -1.64    +40.1374
iter:  10 10:29:35  -802.657334  -2.08  -1.64    +40.7408
iter:  11 10:30:47  -802.881477  -2.45  -1.80    +41.9460
iter:  12 10:31:59  -803.132253  -2.50  -1.83    +42.8979
iter:  13 10:33:12  -803.991649  -2.54  -1.90    +44.3132
iter:  14 10:34:24  -804.255571  -2.50  -1.91    +45.0356
iter:  15 10:35:36  -803.767966  -2.76  -1.96    +46.1508
iter:  16 10:36:49  -804.016085  -2.89  -2.05    +47.2547
iter:  17 10:38:01  -803.940234  -3.06  -2.09    +47.8259
iter:  18 10:39:13  -804.150371  -3.03  -2.15    +49.0308
iter:  19 10:40:25  -804.263265  -3.06  -2.22    +49.4744
iter:  20 10:41:38  -804.272452  -3.21  -2.26    +50.2356
iter:  21 10:42:50  -804.341456c -3.39  -2.34    +50.6459
iter:  22 10:44:03  -804.508371  -3.21  -2.38    +51.2487
iter:  23 10:45:15  -804.510681  -3.56  -2.40    +51.6029
iter:  24 10:46:27  -804.678018  -3.42  -2.47    +52.1760
iter:  25 10:47:40  -804.809068  -3.54  -2.49    +52.5634
iter:  26 10:48:52  -804.879363  -3.72  -2.50    +52.7605
iter:  27 10:50:04  -805.053111  -3.40  -2.53    +53.0573
iter:  28 10:51:17  -805.092832  -3.91  -2.54    +53.0706
iter:  29 10:52:29  -805.197244  -3.64  -2.57    +52.9368
iter:  30 10:53:42  -805.217998  -3.87  -2.60    +52.9442
iter:  31 10:54:54  -805.254188c -3.71  -2.69    +52.9679
iter:  32 10:56:07  -805.273846c -4.06  -2.83    +52.7876
iter:  33 10:57:19  -805.301629c -4.26  -2.93    +52.7622
iter:  34 10:58:32  -805.337928c -4.27  -2.95    +52.6501
iter:  35 10:59:44  -805.386146c -4.15  -2.98    +52.5323
iter:  36 11:00:56  -805.491808  -3.59  -2.98    +52.3562
iter:  37 11:02:09  -805.516960  -4.32  -2.88    +52.4537
iter:  38 11:03:21  -805.485845c -4.45  -2.88    +51.9957
iter:  39 11:04:34  -805.491067c -4.32  -2.96    +51.5981
iter:  40 11:05:46  -805.515809c -4.57  -2.97    +52.0517
iter:  41 11:06:58  -805.526418c -4.24  -2.98    +51.9098
iter:  42 11:08:11  -805.535593c -4.31  -2.95    +52.0850
iter:  43 11:09:23  -805.545830c -4.63  -3.01    +52.1343
iter:  44 11:10:36  -805.574871c -4.54  -3.05    +52.2679
iter:  45 11:11:48  -805.566015c -5.03  -3.03    +52.2492
iter:  46 11:13:00  -805.591894c -4.67  -3.07    +52.3527
iter:  47 11:14:13  -805.590965c -5.57  -3.07    +52.3573
iter:  48 11:15:25  -805.624531c -4.55  -3.08    +52.4800
iter:  49 11:16:38  -805.602803c -4.75  -3.10    +52.3890
iter:  50 11:17:50  -805.612588c -4.60  -3.24    +52.3681
iter:  51 11:19:03  -805.632443c -4.75  -3.20    +52.5243
iter:  52 11:20:15  -805.653522c -4.84  -3.32    +52.6598
iter:  53 11:21:27  -805.703418c -4.38  -3.33    +52.9495
iter:  54 11:22:40  -805.612226c -4.00  -3.25    +52.3989
iter:  55 11:23:52  -805.581526  -4.37  -3.39    +52.1757
iter:  56 11:25:05  -805.567021c -4.58  -3.47    +52.0619
iter:  57 11:26:17  -805.572876c -4.85  -3.45    +51.9875
iter:  58 11:27:29  -805.594254c -4.70  -3.50    +52.1236
iter:  59 11:28:42  -805.614490c -4.79  -3.50    +52.2465
iter:  60 11:29:55  -805.550377c -3.99  -3.45    +51.7837
iter:  61 11:31:07  -805.528450c -4.15  -3.46    +51.4851
iter:  62 11:32:20  -805.526361c -4.44  -3.38    +51.3014
iter:  63 11:33:32  -805.538574c -4.87  -3.36    +51.4483
iter:  64 11:34:45  -805.537763c -5.15  -3.40    +51.3095
iter:  65 11:35:58  -805.555122c -4.74  -3.47    +51.3277
iter:  66 11:37:10  -805.544673c -5.31  -3.35    +51.3486
iter:  67 11:38:23  -805.559886c -5.08  -3.55    +51.3777
iter:  68 11:39:35  -805.565269c -5.41  -3.64    +51.4020
iter:  69 11:40:48  -805.589928c -4.59  -3.66    +51.5096
iter:  70 11:42:01  -805.590824c -5.54  -3.63    +51.4796
iter:  71 11:43:13  -805.602485c -5.12  -3.61    +51.5320
iter:  72 11:44:26  -805.672312c -3.57  -3.57    +51.7756
iter:  73 11:45:38  -805.691442c -4.00  -3.24    +51.7827
iter:  74 11:46:51  -805.699615c -4.57  -3.15    +51.7311
iter:  75 11:48:03  -805.699536c -5.13  -3.11    +51.7239
iter:  76 11:49:16  -805.705415c -5.07  -3.13    +51.6757
iter:  77 11:50:29  -805.708450c -4.69  -3.13    +51.6688
iter:  78 11:51:41  -805.713911c -4.17  -3.04    +51.6531
iter:  79 11:52:54  -805.706345c -4.62  -2.99    +51.5840
iter:  80 11:54:07  -805.706506c -4.72  -3.08    +51.4484
iter:  81 11:55:19  -805.714475c -4.51  -3.12    +51.3701
iter:  82 11:56:32  -805.709252c -4.82  -3.06    +51.2914
iter:  83 11:57:44  -805.714609c -4.83  -3.20    +51.1992
iter:  84 11:58:57  -805.718148c -4.70  -3.21    +51.1807
iter:  85 12:00:10  -805.720864c -4.75  -3.18    +51.0831
iter:  86 12:01:22  -805.726390c -4.98  -3.24    +51.0266
iter:  87 12:02:35  -805.726160c -5.04  -3.23    +50.9584
iter:  88 12:03:47  -805.733582c -4.80  -3.36    +50.8974
iter:  89 12:05:00  -805.737067c -4.75  -3.31    +50.8579
iter:  90 12:06:13  -805.736545c -4.99  -3.27    +50.8041
iter:  91 12:07:25  -805.741207c -5.29  -3.60    +50.7694
iter:  92 12:08:38  -805.748842c -5.12  -3.61    +50.6868
iter:  93 12:09:48  -805.750131c -5.68  -3.58    +50.6924
iter:  94 12:10:57  -805.761233c -5.13  -3.42    +50.6166
iter:  95 12:12:05  -805.743947c -4.69  -3.42    +50.8037
iter:  96 12:13:13  -805.755355c -5.35  -3.47    +50.6963
iter:  97 12:14:22  -805.757720c -5.06  -3.44    +50.6300
iter:  98 12:15:30  -805.776234c -4.47  -3.52    +50.4978
iter:  99 12:16:38  -805.765982c -5.42  -3.31    +50.5265
iter: 100 12:17:47  -805.769130c -5.24  -3.57    +50.5178
iter: 101 12:18:55  -805.775331c -4.75  -3.48    +50.4850
iter: 102 12:20:03  -805.771552c -5.06  -3.33    +50.4663
iter: 103 12:21:11  -805.773345c -5.35  -3.61    +50.4531
iter: 104 12:22:20  -805.773609c -5.45  -3.66    +50.4541
iter: 105 12:23:28  -805.775390c -5.61  -3.68    +50.4687
iter: 106 12:24:37  -805.776950c -5.95  -3.83    +50.4671
iter: 107 12:25:45  -805.777824c -6.24  -3.82    +50.4635
iter: 108 12:26:53  -805.780256c -5.68  -3.79    +50.4599
iter: 109 12:28:02  -805.782575c -5.57  -3.78    +50.4650
iter: 110 12:29:11  -805.784126c -5.55  -3.80    +50.4768
iter: 111 12:30:20  -805.784815c -5.65  -3.69    +50.4878
iter: 112 12:31:28  -805.785707c -6.03  -3.70    +50.4911
iter: 113 12:32:37  -805.791300c -5.05  -3.74    +50.5290
iter: 114 12:33:46  -805.788665c -5.82  -3.67    +50.4980
iter: 115 12:34:54  -805.789738c -5.84  -3.73    +50.4911
iter: 116 12:36:03  -805.789991c -5.94  -3.77    +50.5068
iter: 117 12:37:11  -805.791355c -5.99  -3.86    +50.5264
iter: 118 12:38:20  -805.791703c -6.30  -3.84    +50.5316
iter: 119 12:39:29  -805.793397c -5.61  -3.96    +50.5718
iter: 120 12:40:38  -805.795593c -5.62  -3.96    +50.6023
iter: 121 12:41:47  -805.796595c -5.95  -4.02c   +50.6119
iter: 122 12:42:56  -805.798073c -5.84  -3.97    +50.6232
iter: 123 12:44:05  -805.797511c -6.74  -3.90    +50.6190
iter: 124 12:45:14  -805.799934c -5.65  -3.91    +50.6350
iter: 125 12:46:27  -805.800323c -5.94  -3.84    +50.6360
iter: 126 12:47:48  -805.802079c -5.75  -3.85    +50.6379
iter: 127 12:49:10  -805.802336c -5.94  -3.78    +50.6496
iter: 128 12:50:31  -805.802695c -5.68  -3.86    +50.6590
iter: 129 12:51:52  -805.802955c -5.71  -3.71    +50.6657
iter: 130 12:53:13  -805.802907c -5.97  -3.73    +50.6891
iter: 131 12:54:32  -805.803447c -6.12  -3.94    +50.7033
iter: 132 12:55:52  -805.803874c -5.96  -4.06c   +50.7100
iter: 133 12:57:12  -805.804643c -5.87  -4.11c   +50.7239
iter: 134 12:58:31  -805.805036c -6.19  -4.11c   +50.7310
iter: 135 12:59:51  -805.806013c -5.51  -4.14c   +50.7625
iter: 136 13:01:10  -805.807749c -5.12  -4.07c   +50.8033
iter: 137 13:02:29  -805.807871c -6.09  -3.84    +50.7956
iter: 138 13:03:49  -805.807946c -6.28  -3.82    +50.8017
iter: 139 13:05:08  -805.808178c -6.03  -3.81    +50.8078
iter: 140 13:06:28  -805.808353c -5.98  -3.82    +50.8089
iter: 141 13:07:47  -805.808310c -5.74  -3.83    +50.8031
iter: 142 13:09:07  -805.809253c -5.76  -3.57    +50.8027
iter: 143 13:10:26  -805.808984c -5.75  -3.64    +50.7962
iter: 144 13:11:45  -805.807978c -5.82  -3.69    +50.7957
iter: 145 13:13:05  -805.808073c -5.92  -3.76    +50.7956
iter: 146 13:14:28  -805.808956c -5.51  -3.79    +50.7922
iter: 147 13:15:49  -805.807181c -6.08  -3.68    +50.7957
iter: 148 13:17:09  -805.807267c -6.75  -4.05c   +50.8020
iter: 149 13:18:32  -805.807051c -6.98  -4.14c   +50.8005
iter: 150 13:19:42  -805.807191c -7.09  -4.17c   +50.8031
iter: 151 13:20:51  -805.807208c -6.95  -4.19c   +50.8028
iter: 152 13:21:59  -805.806993c -6.91  -4.17c   +50.8033
iter: 153 13:23:08  -805.807051c -7.01  -4.27c   +50.8032
iter: 154 13:24:16  -805.807027c -7.28  -4.31c   +50.8051
iter: 155 13:25:25  -805.807003c -7.36  -4.46c   +50.8064
iter: 156 13:26:33  -805.807130c -7.10  -4.49c   +50.8083
iter: 157 13:27:42  -805.807080c -7.30  -4.40c   +50.8084
iter: 158 13:28:50  -805.806976c -7.37  -4.50c   +50.8092
iter: 159 13:29:59  -805.807044c -7.61c -4.54c   +50.8097

Converged after 159 iterations.

Dipole moment: (29.613908, 17.132914, 7.292856) |e|*Ang

Total magnetic moment: (0.000000, 0.000000, 50.809720)
Local magnetic moments:
   0 Cr ( 0.000000,  0.000000, -2.187290)
   1 Al ( 0.000000,  0.000000, -0.034562)
   2 Ni ( 0.000000,  0.000000,  0.111988)
   3 Co ( 0.000000,  0.000000,  1.113071)
   4 Al ( 0.000000,  0.000000, -0.026755)
   5 Ni ( 0.000000,  0.000000,  0.156343)
   6 Co ( 0.000000,  0.000000,  1.013099)
   7 Al ( 0.000000,  0.000000, -0.030032)
   8 Al ( 0.000000,  0.000000, -0.045175)
   9 Fe ( 0.000000,  0.000000,  2.228243)
  10 Fe ( 0.000000,  0.000000,  2.028874)
  11 Fe ( 0.000000,  0.000000,  1.992025)
  12 Ni ( 0.000000,  0.000000,  0.261805)
  13 Cr ( 0.000000,  0.000000, -1.350768)
  14 Co ( 0.000000,  0.000000,  0.889156)
  15 Fe ( 0.000000,  0.000000,  2.171922)
  16 Ni ( 0.000000,  0.000000,  0.334131)
  17 Co ( 0.000000,  0.000000,  1.217288)
  18 Al ( 0.000000,  0.000000, -0.033957)
  19 Ni ( 0.000000,  0.000000,  0.287532)
  20 Co ( 0.000000,  0.000000,  1.130193)
  21 Al ( 0.000000,  0.000000, -0.013200)
  22 Ni ( 0.000000,  0.000000,  0.198529)
  23 Cr ( 0.000000,  0.000000,  0.926322)
  24 Cr ( 0.000000,  0.000000, -1.530196)
  25 Fe ( 0.000000,  0.000000,  2.282018)
  26 Fe ( 0.000000,  0.000000,  2.074494)
  27 Cr ( 0.000000,  0.000000, -1.814102)
  28 Fe ( 0.000000,  0.000000,  2.424016)
  29 Co ( 0.000000,  0.000000,  0.918523)
  30 Ni ( 0.000000,  0.000000,  0.100356)
  31 Fe ( 0.000000,  0.000000,  2.266792)
  32 Cr ( 0.000000,  0.000000, -1.624773)
  33 Co ( 0.000000,  0.000000,  1.019146)
  34 Ni ( 0.000000,  0.000000,  0.074011)
  35 Ni ( 0.000000,  0.000000, -0.039298)
  36 Fe ( 0.000000,  0.000000,  2.400879)
  37 Fe ( 0.000000,  0.000000,  2.041781)
  38 Ni ( 0.000000,  0.000000,  0.285518)
  39 Al ( 0.000000,  0.000000, -0.030733)
  40 Al ( 0.000000,  0.000000, -0.014985)
  41 Co ( 0.000000,  0.000000,  0.723656)
  42 Al ( 0.000000,  0.000000, -0.002518)
  43 Ni ( 0.000000,  0.000000,  0.040186)
  44 Cr ( 0.000000,  0.000000, -2.114490)
  45 Al ( 0.000000,  0.000000, -0.014052)
  46 Al ( 0.000000,  0.000000, -0.027084)
  47 Co ( 0.000000,  0.000000,  0.811315)
  48 Fe ( 0.000000,  0.000000,  1.904313)
  49 Cr ( 0.000000,  0.000000, -0.608726)
  50 Cr ( 0.000000,  0.000000, -1.979009)
  51 Ni ( 0.000000,  0.000000,  0.153932)
  52 Cr ( 0.000000,  0.000000,  1.872124)
  53 Co ( 0.000000,  0.000000,  0.721770)
  54 Ni ( 0.000000,  0.000000,  0.194451)
  55 Al ( 0.000000,  0.000000, -0.020411)
  56 Cr ( 0.000000,  0.000000,  1.614084)
  57 Cr ( 0.000000,  0.000000, -1.148278)
  58 Co ( 0.000000,  0.000000,  0.954653)
  59 Cr ( 0.000000,  0.000000, -0.379010)
[...]
  93 Co ( 0.000000,  0.000000,  1.188669)
  94 Fe ( 0.000000,  0.000000,  2.131964)
  95 Ni ( 0.000000,  0.000000,  0.120340)
  96 Cr ( 0.000000,  0.000000, -1.824400)
  97 Cr ( 0.000000,  0.000000,  1.770916)
  98 Ni ( 0.000000,  0.000000,  0.199743)
  99 Fe ( 0.000000,  0.000000,  2.127510)
 100 Al ( 0.000000,  0.000000, -0.032163)
 101 Ni ( 0.000000,  0.000000,  0.142438)
 102 Co ( 0.000000,  0.000000,  0.692252)
 103 Al ( 0.000000,  0.000000, -0.000328)
 104 Cr ( 0.000000,  0.000000,  0.993525)
 105 Al ( 0.000000,  0.000000, -0.004959)
 106 Fe ( 0.000000,  0.000000, -1.929222)
 107 Co ( 0.000000,  0.000000,  0.592576)

Energy contributions relative to reference atoms: (reference = -3235165.067515)

Kinetic:       +235.555725
Potential:     -228.475949
External:        +0.000000
XC:            -842.138223
Entropy (-ST):   -3.976642
Local:          +31.239724
Free energy:   -807.795365
Extrapolated:  -805.807044

Spin contamination: 29.508527 electrons
Showing only first 2 kpts
                      Up                     Down
 Kpt  Band  Eigenvalues  Occupancy  Eigenvalues  Occupancy
  0   454      9.04084    0.99279      9.86805    0.03398
  0   455      9.05299    0.99186      9.88276    0.02947
  0   456      9.06868    0.99050      9.89714    0.02563
  0   457      9.08091    0.98927      9.90554    0.02361

  1   454      9.04015    0.99284      9.86854    0.03382
  1   455      9.05871    0.99139      9.87875    0.03064
  1   456      9.07264    0.99012      9.89575    0.02598
  1   457      9.08451    0.98888      9.90484    0.02377

Fermi level: 9.53333

No gap

Forces in eV/Ang:
  0 Cr    0.30069   -1.04362   -0.40721
  1 Al   -0.44468    0.70672   -0.68117
  2 Ni   -0.02346   -0.00584   -0.08519
  3 Co    0.12154   -0.10306   -0.18999
  4 Al   -0.20158    0.67166    0.36292
  5 Ni    0.45375   -0.50876    0.61064
  6 Co   -0.16586    0.27258    0.93804
  7 Al   -1.02667    0.24309   -0.32961
  8 Al   -0.58946   -0.19965    2.07876
  9 Fe    0.31769   -0.24931    0.68907
 10 Fe    0.06419   -0.55461    0.25155
 11 Fe    0.50138    0.29641    0.13076
 12 Ni   -0.12856   -0.31778   -0.13248
 13 Cr    0.27156   -0.44616    0.36867
 14 Co    0.40544    0.08121   -0.36427
 15 Fe    0.21431   -0.12568    0.61887
 16 Ni   -0.43172   -0.06758    0.19786
 17 Co   -0.49969    0.47660    0.20845
 18 Al   -1.05642   -0.73399   -0.28826
 19 Ni   -0.20433    0.11626   -0.29521
 20 Co    0.43540    0.09932   -0.01068
 21 Al    0.80165    0.10739   -0.01863
 22 Ni   -0.52324   -0.10590    0.27267
 23 Cr   -0.13547    0.10481   -0.56359
 24 Cr   -0.15469    0.97096    0.18283
 25 Fe   -0.38110    0.36525   -0.98699
 26 Fe    0.08646   -0.25973   -0.07413
 27 Cr   -0.58202   -0.34009    0.19558
 28 Fe   -0.11913    0.04005    0.41070
 29 Co    0.24727   -0.13630    0.43321
 30 Ni   -0.65071    0.21248   -0.02167
 31 Fe    0.05475   -0.44781    0.69417
 32 Cr    0.03136    0.28192   -0.69909
 33 Co   -0.23773    0.26580    0.39055
 34 Ni    0.22086    0.52725    0.10382
 35 Ni    0.17699    0.04196   -0.25523
 36 Fe   -0.44913   -0.28667   -0.19881
 37 Fe    0.14558    0.74281   -0.17197
 38 Ni    0.84206    0.14722   -0.25686
 39 Al    0.88629   -0.02905    0.14678
 40 Al    1.48561    1.30590   -0.62216
 41 Co   -0.05020    0.27665   -0.43212
 42 Al   -1.04153    1.76738   -0.92664
 43 Ni   -0.20583   -0.53379   -0.06588
 44 Cr   -0.92330    0.27574   -1.82850
 45 Al   -0.31597    1.18643   -0.08360
 46 Al    0.21055   -0.55360   -0.50992
 47 Co   -0.26579    0.16124   -0.10137
 48 Fe   -0.08218    0.43709    0.32645
 49 Cr   -0.30441    0.28022    0.21331
 50 Cr    0.52032    0.33225    0.73408
 51 Ni    0.34604   -0.06635    0.08894
 52 Cr   -0.87569   -0.15936    0.38697
 53 Co   -0.58463    0.03195    0.27012
 54 Ni   -0.14442   -0.60905   -0.20899
 55 Al   -0.57296    1.04689    0.64854
 56 Cr    1.23194   -0.32307   -0.24414
 57 Cr    0.49921   -0.46055    0.50590
 58 Co    0.06929    0.30955   -0.16851
 59 Cr    0.46414   -0.51630    0.41238
[...]
 93 Co   -0.26595    0.21641   -0.07639
 94 Fe   -0.23803   -0.39167   -0.04507
 95 Ni    0.13080   -0.01215    0.06048
 96 Cr    0.15776    0.46771    0.53407
 97 Cr   -0.59405   -0.97681    0.65816
 98 Ni   -0.29460   -0.07979   -0.08737
 99 Fe   -0.55666   -0.12332   -0.18408
100 Al   -0.60517   -0.58769   -0.28934
101 Ni    0.25662   -0.39438    0.14389
102 Co   -0.01551   -0.63160    0.09936
103 Al   -0.54051   -0.67732    1.16321
104 Cr    0.74279   -1.14759    0.92102
105 Al    0.04256   -1.60005   -0.45083
106 Fe    0.70252    0.24674   -0.46900
107 Co    0.72892   -0.83214    0.34415

Date: Sat Apr 15 13:30:15 2023