User:   c.zeng@d0141
Date:   Sat Apr  8 06:12:57 2023
Arch:   x86_64
Pid:    10672
CWD:    /home/c.zeng/projects/hea-corrosion/hea-mlp/data-curation/volume/dft-jobs/18
Python: 3.8.1
gpaw:   /home/c.zeng/usr/installs/gpaw/source/gpaw-22.8.0/gpaw
_gpaw:  /home/c.zeng/usr/installs/gpaw/source/gpaw-22.8.0/
        _gpaw.cpython-38-x86_64-linux-gnu.so
ase:    /home/c.zeng/.local/lib/python3.8/site-packages/ase-3.22.1-py3.8.egg/ase (version 3.22.1)
numpy:  /shared/centos7/python/3.8.1/lib/python3.8/site-packages/numpy (version 1.17.4)
scipy:  /shared/centos7/python/3.8.1/lib/python3.8/site-packages/scipy (version 1.4.1)
units:  Angstrom and eV
cores: 64
OpenMP: False
OMP_NUM_THREADS: 1

Input parameters:
  convergence: {energy: 0.0001}
  kpts: [2 2 2]
  maxiter: 666
  mode: {ecut: 350.0,
         name: pw}
  occupations: {fixmagmom: False,
                name: fermi-dirac,
                width: 0.1}
  spinpol: True
  xc: PBE

System changes: positions, numbers, cell, pbc, initial_charges, initial_magmoms

Initialize ...

species:
  Co:
    name: Cobalt
    id: 339d20d5b0b93d2de9531a1bee871d91
    Z: 27.0
    valence: 9
    core: 18
    charge: 0.0
    file: /home/c.zeng/usr/data/gpaw-setups-0.9.20000/Co.PBE.gz
    compensation charges: {type: gauss,
                           rc: 0.32,
                           lmax: 2}
    cutoffs: {filter: 1.87,
              core: 2.55}
    valence states:
      #              energy  rcut
      - 4s(2.00)    -5.469   1.005
      - 4p(0.00)    -1.277   1.058
      - 3d(7.00)    -8.205   1.005
      -  s          21.742   1.005
      -  p          25.934   1.058
      -  d          19.007   1.005

    # Using partial waves for Co as LCAO basis

  Fe:
    name: Iron
    id: 37abbd8d6c3c35915a9b583b742da910
    Z: 26.0
    valence: 8
    core: 18
    charge: 0.0
    file: /home/c.zeng/usr/data/gpaw-setups-0.9.20000/Fe.PBE.gz
    compensation charges: {type: gauss,
                           rc: 0.33,
                           lmax: 2}
    cutoffs: {filter: 2.06,
              core: 2.67}
    valence states:
      #              energy  rcut
      - 4s(2.00)    -5.291   1.164
      - 4p(0.00)    -1.326   1.058
      - 3d(6.00)    -7.505   1.058
      -  s          21.920   1.164
      -  p          25.885   1.058
      -  d          19.706   1.058

[...]

  Cr:
    name: Chromium
    id: 33f258bda2ca9f93018e70263a35547b
    Z: 24.0
    valence: 6
    core: 18
    charge: 0.0
    file: /home/c.zeng/usr/data/gpaw-setups-0.9.20000/Cr.PBE.gz
    compensation charges: {type: gauss,
                           rc: 0.35,
                           lmax: 2}
    cutoffs: {filter: 2.14,
              core: 3.04}
    valence states:
      #              energy  rcut
      - 4s(1.00)    -4.007   1.164
      - 4p(0.00)    -0.989   1.217
      - 3d(5.00)    -2.913   1.111
      -  s          23.205   1.164
      -  p          26.223   1.217
      -  d          24.299   1.111

[...]

  Ni:
    name: Nickel
    id: 0d9f38a9d6e76a2886f07bb4381f212b
    Z: 28.0
    valence: 16
    core: 12
    charge: 0.0
    file: /home/c.zeng/usr/data/gpaw-setups-0.9.20000/Ni.PBE.gz
    compensation charges: {type: gauss,
                           rc: 0.36,
                           lmax: 2}
    cutoffs: {filter: 2.14,
              core: 1.98}
    valence states:
      #              energy  rcut
      - 4s(2.00)    -5.642   1.164
      - 3p(6.00)   -71.394   1.207
      - 4p(0.00)    -1.226   1.207
      - 3d(8.00)    -8.875   1.138
      -  s          21.570   1.164
      -  d          18.337   1.138

    # Using partial waves for Ni as LCAO basis

Reference energy: -3846758.590871  # eV

Spin-polarized calculation.
Magnetic moment: 151.200000

Convergence criteria:
 Maximum [total energy] change in last 3 cyles: 0.0001 eV / electron
 Maximum integral of absolute [dens]ity change: 0.0001 electrons / valence electron
 Maximum integral of absolute [eigenst]ate change: 4e-08 eV^2 / valence electron
 Maximum number of scf [iter]ations: 666
 (Square brackets indicate name in SCF output, whereas a 'c' in
 the SCF output indicates the quantity has converged.)

Symmetries present (total): 1

  ( 1  0  0)
  ( 0  1  0)
  ( 0  0  1)

8 k-points: 2 x 2 x 2 Monkhorst-Pack grid
4 k-points in the irreducible part of the Brillouin zone
       k-points in crystal coordinates                weights
   0:     0.25000000   -0.25000000   -0.25000000          2/8
   1:     0.25000000   -0.25000000    0.25000000          2/8
   2:     0.25000000    0.25000000   -0.25000000          2/8
   3:     0.25000000    0.25000000    0.25000000          2/8

Wave functions: Plane wave expansion
  Cutoff energy: 350.000 eV
  Number of coefficients (min, max): 17755, 17755
  Pulay-stress correction: 0.000000 eV/Ang^3 (de/decut=0.000000)
  Using FFTW library
  ScaLapack parameters: grid=1x1, blocksize=None
  Wavefunction extrapolation:
    Improved wavefunction reuse through dual PAW basis

Occupation numbers: Fermi-Dirac:
  width: 0.1000  # eV

Eigensolver
   Davidson(niter=2)

Densities:
  Coarse grid: 48*48*48 grid
  Fine grid: 96*96*96 grid
  Total Charge: 0.000000

Density mixing:
  Method: difference
  Backend: pulay
  Linear mixing parameter: 0.05
  old densities: 5
  Damping of long wavelength oscillations: 50

Hamiltonian:
  XC and Coulomb potentials evaluated on a 96*96*96 grid
  Using the PBE Exchange-Correlation functional
  External potential:
    NoExternalPotential

XC parameters: PBE with 2 nearest neighbor stencil

Total number of cores used: 64
Parallelization over k-points: 4
Domain decomposition: 4 x 2 x 2

Number of atoms: 108
Number of atomic orbitals: 1053
Number of bands in calculation: 727
Number of valence electrons: 1053
Bands to converge: occupied

... initialized

Initializing position-dependent things.

Density initialized from atomic densities
Creating initial wave functions:
  727 bands from LCAO basis set

       /|  Cr       Co      Cr    |
      / |   FeFe     Fe           |
     /  |       Cr      Co       Co
    /   |Fe      CCr     NiCr     Co
   /    | Fe       Feo      CCr   |
  /  CFe|  CrFe       Ni          |
 *    NiCr    CoNi   CrNiNi       |
 |      |NiCo   NiCoFe  CoCrCo   Fe
 |      | FeCr     CoNiCoFeCrCr   |
 |    Cr|  NiFeCr   NiFeNi   NiNi |
 |      Fe    FeFe   CoFeCo     Ni|
 |      |CoCo  CrNiFe   NiNiNi   Co
 |      .-CrCo-----CoNiNi--NiCr---Co
 |   Cr/     Co       Ni         /
 |    FeCr     Fei     CCoo     /
 |   /    Fe               Fe  /
 |  /      Cr       Ni    CrCo/
 | / Fe     Ni       CoNi    /
 |/            Cr       Co  /
 *--------Cr------Fe-------*

Positions:
   0 Co    -0.012163   -0.003536   10.616098    ( 0.0000,  0.0000,  2.1000)
   1 Co    -0.011249    1.761300    1.763317    ( 0.0000,  0.0000,  2.1000)
   2 Fe     1.758116    0.001334    1.769102    ( 0.0000,  0.0000,  2.0000)
   3 Fe     1.752342    1.778899   10.610430    ( 0.0000,  0.0000,  2.0000)
   4 Cr     3.541166    0.004518   10.616311    ( 0.0000,  0.0000,  0.0000)
   5 Cr     3.534765    1.782168    1.778931    ( 0.0000,  0.0000,  0.0000)
   6 Co     5.305873   10.600856    1.768051    ( 0.0000,  0.0000,  2.1000)
   7 Cr     5.324862    1.765674   10.614612    ( 0.0000,  0.0000,  0.0000)
   8 Fe     7.088997    0.014470   10.619601    ( 0.0000,  0.0000,  2.0000)
   9 Ni     7.085515    1.771193    1.773358    ( 0.0000,  0.0000,  1.5000)
  10 Ni     8.850626    0.011265    1.768794    ( 0.0000,  0.0000,  1.5000)
  11 Co     8.842368    1.777116   10.615674    ( 0.0000,  0.0000,  2.1000)
  12 Cr    10.591070    3.538077   -0.001841    ( 0.0000,  0.0000,  0.0000)
  13 Fe    10.624271    5.310660    1.769718    ( 0.0000,  0.0000,  2.0000)
  14 Cr     1.761481    3.535720    1.784270    ( 0.0000,  0.0000,  0.0000)
  15 Fe     1.770355    5.301744   10.611789    ( 0.0000,  0.0000,  2.0000)
  16 Ni     3.555654    3.551504   10.618433    ( 0.0000,  0.0000,  1.5000)
  17 Co     3.539425    5.311456    1.774919    ( 0.0000,  0.0000,  2.1000)
  18 Ni     5.320054    3.545157    1.779302    ( 0.0000,  0.0000,  1.5000)
  19 Cr     5.306882    5.314598   10.603043    ( 0.0000,  0.0000,  0.0000)
  20 Co     7.081779    3.528991   10.614931    ( 0.0000,  0.0000,  2.1000)
  21 Ni     7.069541    5.303474    1.781096    ( 0.0000,  0.0000,  1.5000)
  22 Co     8.841583    3.542588    1.781298    ( 0.0000,  0.0000,  2.1000)
  23 Cr     8.850871    5.290663    0.000130    ( 0.0000,  0.0000,  0.0000)
  24 Fe     0.005988    7.083392   10.614931    ( 0.0000,  0.0000,  2.0000)
  25 Co    10.601525    8.849873    1.773029    ( 0.0000,  0.0000,  2.1000)
  26 Cr     1.773698    7.072396    1.777084    ( 0.0000,  0.0000,  0.0000)
  27 Cr     1.755654    8.843196   10.608573    ( 0.0000,  0.0000,  0.0000)
  28 Fe     3.543872    7.063193   10.610685    ( 0.0000,  0.0000,  2.0000)
  29 Cr     3.542322    8.827126    1.785310    ( 0.0000,  0.0000,  0.0000)
  30 Co     5.309832    7.081790    1.776638    ( 0.0000,  0.0000,  2.1000)
  31 Co     5.331624    8.840649   10.604645    ( 0.0000,  0.0000,  2.1000)
  32 Cr     7.068628    7.069360   10.623210    ( 0.0000,  0.0000,  0.0000)
  33 Ni     7.083637    8.846720    1.774547    ( 0.0000,  0.0000,  1.5000)
  34 Ni     8.841487    7.058735    1.777095    ( 0.0000,  0.0000,  1.5000)
  35 Cr     8.835841    8.853768   10.611725    ( 0.0000,  0.0000,  0.0000)
  36 Fe    -0.009155   10.618752    3.530986    ( 0.0000,  0.0000,  2.0000)
  37 Ni    10.602586    1.764962    5.300725    ( 0.0000,  0.0000,  1.5000)
  38 Cr     1.756959    0.001316    5.295970    ( 0.0000,  0.0000,  0.0000)
  39 Fe     1.766523    1.767287    3.539021    ( 0.0000,  0.0000,  2.0000)
  40 Fe     3.539754    0.013916    3.542896    ( 0.0000,  0.0000,  2.0000)
  41 Co     3.548946    1.788696    5.306001    ( 0.0000,  0.0000,  2.1000)
  42 Cr     5.319980   -0.004541    5.301362    ( 0.0000,  0.0000,  0.0000)
  43 Fe     5.316764    1.765525    3.539149    ( 0.0000,  0.0000,  2.0000)
  44 Fe     7.080909   -0.000272    3.531549    ( 0.0000,  0.0000,  2.0000)
  45 Fe     7.072905    1.777371    5.300513    ( 0.0000,  0.0000,  2.0000)
  46 Ni     8.840649    0.012117    5.308039    ( 0.0000,  0.0000,  1.5000)
  47 Co     8.833611    1.767903    3.534436    ( 0.0000,  0.0000,  2.1000)
  48 Cr    -0.004011    3.525552    3.545857    ( 0.0000,  0.0000,  0.0000)
  49 Ni    -0.001524    5.317846    5.307890    ( 0.0000,  0.0000,  1.5000)
  50 Fe     1.769314    3.555272    5.297329    ( 0.0000,  0.0000,  2.0000)
  51 Co     1.773804    5.305863    3.538342    ( 0.0000,  0.0000,  2.1000)
  52 Co     3.542577    3.537504    3.547619    ( 0.0000,  0.0000,  2.1000)
  53 Fe     3.548267    5.307009    5.301033    ( 0.0000,  0.0000,  2.0000)
  54 Fe     5.316010    3.552958    5.303570    ( 0.0000,  0.0000,  2.0000)
  55 Ni     5.303283    5.303506    3.542471    ( 0.0000,  0.0000,  1.5000)
  56 Ni     7.075124    3.533088    3.537238    ( 0.0000,  0.0000,  1.5000)
  57 Fe     7.066080    5.306075    5.300449    ( 0.0000,  0.0000,  2.0000)
  58 Co     8.834768    3.538013    5.294707    ( 0.0000,  0.0000,  2.1000)
  59 Ni     8.846370    5.300428    3.537620    ( 0.0000,  0.0000,  1.5000)
[...]
  93 Ni     7.071430    5.304143    8.839237    ( 0.0000,  0.0000,  1.5000)
  94 Ni     8.838016    3.524872    8.843589    ( 0.0000,  0.0000,  1.5000)
  95 Cr     8.833941    5.299154    7.076918    ( 0.0000,  0.0000,  0.0000)
  96 Ni     0.012293    7.080251    7.083997    ( 0.0000,  0.0000,  1.5000)
  97 Co    -0.016687    8.848833    8.844024    ( 0.0000,  0.0000,  2.1000)
  98 Fe     1.777827    7.075156    8.840277    ( 0.0000,  0.0000,  2.0000)
  99 Cr     1.759167    8.840023    7.070093    ( 0.0000,  0.0000,  0.0000)
 100 Co     3.549944    7.066473    7.070231    ( 0.0000,  0.0000,  2.1000)
 101 Cr     3.553096    8.839025    8.836881    ( 0.0000,  0.0000,  0.0000)
 102 Fe     5.303941    7.079943    8.840182    ( 0.0000,  0.0000,  2.0000)
 103 Co     5.321593    8.832263    7.083308    ( 0.0000,  0.0000,  2.1000)
 104 Ni     7.057132    7.072322    7.064202    ( 0.0000,  0.0000,  1.5000)
 105 Co     7.082108    8.855658    8.837465    ( 0.0000,  0.0000,  2.1000)
 106 Cr     8.847028    7.078064    8.846710    ( 0.0000,  0.0000,  0.0000)
 107 Cr     8.839492    8.848588    7.075495    ( 0.0000,  0.0000,  0.0000)

Unit cell:
           periodic     x           y           z      points  spacing
  1. axis:    yes   10.614400    0.000000    0.000000    48     0.2211
  2. axis:    yes    0.000000   10.614400    0.000000    48     0.2211
  3. axis:    yes    0.000000    0.000000   10.614400    48     0.2211

  Lengths:  10.614400  10.614400  10.614400
  Angles:   90.000000  90.000000  90.000000

Effective grid spacing dv^(1/3) = 0.2211

     iter     time        total  log10-change:  magmom
                         energy  eigst   dens
iter:   1 06:15:38 -1089.737595                  +151.4728
iter:   2 06:16:50  -955.038091  -0.28  -1.20    +84.6210
iter:   3 06:18:01  -948.410258  -0.91  -1.24    +69.2291
iter:   4 06:19:14  -934.725040  -1.20  -1.29    +65.0560
iter:   5 06:20:25  -911.432707  -1.58  -1.29    +59.0377
iter:   6 06:21:38  -908.417592  -1.32  -1.38    +58.7740
iter:   7 06:22:50  -909.141324  -1.22  -1.48    +57.3905
iter:   8 06:24:01  -889.035624  -1.64  -1.55    +55.7390
iter:   9 06:25:12  -888.288265  -2.29  -1.83    +56.7210
iter:  10 06:26:23  -888.697512  -2.41  -1.86    +58.4020
iter:  11 06:27:35  -888.521685  -2.68  -1.89    +59.7133
iter:  12 06:28:47  -889.011564  -2.71  -1.92    +61.0741
iter:  13 06:29:58  -890.762756  -2.51  -1.96    +62.3457
iter:  14 06:31:10  -890.770905  -2.40  -1.98    +63.0525
iter:  15 06:32:21  -890.793065c -2.51  -2.03    +63.6375
iter:  16 06:33:32  -890.252431  -2.63  -2.07    +63.7342
iter:  17 06:34:44  -890.023433  -2.83  -2.14    +64.5512
iter:  18 06:35:55  -889.766987  -2.95  -2.19    +65.3602
iter:  19 06:37:06  -889.821666  -3.17  -2.25    +65.5575
iter:  20 06:38:17  -889.657797  -3.31  -2.27    +65.8467
iter:  21 06:39:29  -889.691334  -3.30  -2.35    +66.1854
iter:  22 06:40:40  -889.612551c -3.53  -2.35    +66.7343
iter:  23 06:41:52  -889.767319  -3.44  -2.41    +66.8061
iter:  24 06:43:04  -889.704093  -3.45  -2.40    +66.8838
iter:  25 06:44:15  -889.902263  -3.31  -2.46    +67.1949
iter:  26 06:45:26  -889.721749  -3.46  -2.41    +67.3868
iter:  27 06:46:38  -889.865317  -3.46  -2.52    +67.5141
iter:  28 06:47:48  -889.716816  -3.66  -2.46    +67.3540
iter:  29 06:48:58  -889.721114  -3.73  -2.57    +67.5239
iter:  30 06:50:10  -889.680015c -4.06  -2.58    +67.5883
iter:  31 06:51:21  -889.726509c -4.08  -2.64    +67.6001
iter:  32 06:52:31  -889.724398c -4.14  -2.64    +67.5229
iter:  33 06:53:40  -889.771411c -3.90  -2.67    +67.4808
iter:  34 06:54:53  -889.781800c -4.01  -2.64    +67.5829
iter:  35 06:56:04  -889.830350c -3.79  -2.67    +67.5194
iter:  36 06:57:15  -889.800319c -3.95  -2.64    +67.4505
iter:  37 06:58:30  -889.784256c -3.97  -2.69    +67.3695
iter:  38 06:59:43  -889.755783c -4.18  -2.72    +67.4180
iter:  39 07:00:54  -889.756311c -4.46  -2.78    +67.4425
iter:  40 07:02:05  -889.750133c -4.73  -2.80    +67.3350
iter:  41 07:03:19  -889.766518c -4.53  -2.84    +67.3014
iter:  42 07:04:30  -889.774401c -4.51  -2.82    +67.2775
iter:  43 07:05:41  -889.810148c -4.33  -2.84    +67.2664
iter:  44 07:06:53  -889.819165c -4.09  -2.83    +67.1927
iter:  45 07:08:04  -889.829092c -4.08  -2.79    +67.1099
iter:  46 07:09:16  -889.803652c -4.18  -2.80    +67.1746
iter:  47 07:10:28  -889.796293c -4.35  -2.87    +67.1505
iter:  48 07:11:41  -889.780846c -4.65  -2.91    +67.1077
iter:  49 07:12:52  -889.775999c -5.07  -2.97    +67.0300
iter:  50 07:14:05  -889.783192c -4.88  -3.02    +67.0126
iter:  51 07:15:15  -889.790368c -5.05  -3.01    +66.9870
iter:  52 07:16:28  -889.804106c -4.52  -3.02    +66.9273
iter:  53 07:17:40  -889.824743c -4.36  -2.97    +66.9109
iter:  54 07:18:52  -889.826859c -4.24  -2.95    +66.8914
iter:  55 07:20:04  -889.808073c -4.45  -2.94    +66.9026
iter:  56 07:21:16  -889.802272c -4.49  -3.09    +66.8526
iter:  57 07:22:28  -889.789436c -5.02  -3.07    +66.8189
iter:  58 07:23:40  -889.786699c -5.23  -3.23    +66.8087
iter:  59 07:24:52  -889.787710c -5.99  -3.28    +66.7911
iter:  60 07:26:04  -889.794977c -5.23  -3.32    +66.7670
iter:  61 07:27:16  -889.795643c -5.01  -3.25    +66.7447
iter:  62 07:28:28  -889.809655c -4.75  -3.25    +66.7348
iter:  63 07:29:38  -889.796277c -4.91  -3.21    +66.7422
iter:  64 07:30:49  -889.803153c -4.84  -3.36    +66.7053
iter:  65 07:32:01  -889.792674c -5.21  -3.24    +66.7023
iter:  66 07:33:14  -889.791698c -5.65  -3.52    +66.6818
iter:  67 07:34:25  -889.791647c -6.16  -3.60    +66.6800
iter:  68 07:35:37  -889.792067c -6.66  -3.70    +66.6581
iter:  69 07:36:46  -889.794457c -5.81  -3.72    +66.6040
iter:  70 07:37:58  -889.793004c -6.06  -3.66    +66.6207
iter:  71 07:39:08  -889.795695c -5.82  -3.89    +66.6044
iter:  72 07:40:19  -889.793665c -6.07  -3.74    +66.5977
iter:  73 07:41:31  -889.793897c -6.53  -4.31c   +66.5822
iter:  74 07:42:43  -889.794128c -6.96  -4.26c   +66.5798
iter:  75 07:43:55  -889.794345c -7.00  -4.53c   +66.5658
iter:  76 07:45:07  -889.794710c -6.91  -4.54c   +66.5464
iter:  77 07:46:18  -889.795304c -6.55  -4.55c   +66.5130
iter:  78 07:47:29  -889.797540c -5.39  -4.42c   +66.3740
iter:  79 07:48:42  -889.797751c -6.33  -4.09c   +66.3698
iter:  80 07:49:54  -889.797853c -6.79  -4.06c   +66.3663
iter:  81 07:51:04  -889.797934c -7.02  -4.07c   +66.3592
iter:  82 07:52:16  -889.797829c -7.07  -4.05c   +66.3566
iter:  83 07:53:28  -889.797734c -6.67  -4.01c   +66.3548
iter:  84 07:54:40  -889.797912c -6.31  -3.91    +66.3570
iter:  85 07:55:52  -889.797776c -6.25  -3.79    +66.3564
iter:  86 07:57:03  -889.798623c -5.90  -3.87    +66.3640
iter:  87 07:58:14  -889.799115c -5.83  -3.77    +66.3578
iter:  88 07:59:25  -889.797711c -6.23  -3.79    +66.3387
iter:  89 08:00:37  -889.797259c -6.72  -4.14c   +66.3372
iter:  90 08:01:49  -889.797663c -6.70  -4.10c   +66.3389
iter:  91 08:03:00  -889.797490c -6.95  -4.13c   +66.3359
iter:  92 08:04:13  -889.797449c -7.07  -4.23c   +66.3325
iter:  93 08:05:24  -889.797419c -7.08  -4.24c   +66.3339
iter:  94 08:06:36  -889.797710c -6.69  -4.37c   +66.3339
iter:  95 08:07:49  -889.797529c -6.80  -4.17c   +66.3312
iter:  96 08:09:00  -889.797306c -7.15  -4.33c   +66.3286
iter:  97 08:10:12  -889.797489c -7.12  -4.45c   +66.3309
iter:  98 08:11:22  -889.797517c -7.20  -4.37c   +66.3307
iter:  99 08:12:35  -889.797399c -7.51c -4.42c   +66.3274

Converged after 99 iterations.

Dipole moment: (6.816753, -1.326348, 1.090443) |e|*Ang

Total magnetic moment: (0.000000, 0.000000, 66.327427)
Local magnetic moments:
   0 Co ( 0.000000,  0.000000,  1.278404)
   1 Co ( 0.000000,  0.000000,  0.947991)
   2 Fe ( 0.000000,  0.000000,  1.946624)
   3 Fe ( 0.000000,  0.000000,  1.669227)
   4 Cr ( 0.000000,  0.000000,  0.613964)
   5 Cr ( 0.000000,  0.000000, -1.175269)
   6 Co ( 0.000000,  0.000000,  0.747756)
   7 Cr ( 0.000000,  0.000000, -1.361643)
   8 Fe ( 0.000000,  0.000000,  2.298047)
   9 Ni ( 0.000000,  0.000000,  0.443662)
  10 Ni ( 0.000000,  0.000000,  0.534385)
  11 Co ( 0.000000,  0.000000,  1.554389)
  12 Cr ( 0.000000,  0.000000, -0.469503)
  13 Fe ( 0.000000,  0.000000,  1.723501)
  14 Cr ( 0.000000,  0.000000, -0.762995)
  15 Fe ( 0.000000,  0.000000,  1.587751)
  16 Ni ( 0.000000,  0.000000,  0.109748)
  17 Co ( 0.000000,  0.000000,  1.088034)
  18 Ni ( 0.000000,  0.000000,  0.308191)
  19 Cr ( 0.000000,  0.000000, -1.737500)
  20 Co ( 0.000000,  0.000000,  1.238230)
  21 Ni ( 0.000000,  0.000000,  0.268506)
  22 Co ( 0.000000,  0.000000,  1.234462)
  23 Cr ( 0.000000,  0.000000, -1.138297)
  24 Fe ( 0.000000,  0.000000,  1.709476)
  25 Co ( 0.000000,  0.000000,  1.167080)
  26 Cr ( 0.000000,  0.000000, -1.103518)
  27 Cr ( 0.000000,  0.000000, -0.939211)
  28 Fe ( 0.000000,  0.000000,  1.738844)
  29 Cr ( 0.000000,  0.000000, -1.269838)
  30 Co ( 0.000000,  0.000000,  1.205257)
  31 Co ( 0.000000,  0.000000,  0.689071)
  32 Cr ( 0.000000,  0.000000,  0.951923)
  33 Ni ( 0.000000,  0.000000,  0.399633)
  34 Ni ( 0.000000,  0.000000,  0.274827)
  35 Cr ( 0.000000,  0.000000, -1.623660)
  36 Fe ( 0.000000,  0.000000,  2.336799)
  37 Ni ( 0.000000,  0.000000,  0.260825)
  38 Cr ( 0.000000,  0.000000, -0.989650)
  39 Fe ( 0.000000,  0.000000,  1.658829)
  40 Fe ( 0.000000,  0.000000,  2.083460)
  41 Co ( 0.000000,  0.000000,  0.490481)
  42 Cr ( 0.000000,  0.000000, -1.417831)
  43 Fe ( 0.000000,  0.000000,  2.112704)
  44 Fe ( 0.000000,  0.000000,  2.485549)
  45 Fe ( 0.000000,  0.000000,  2.238996)
  46 Ni ( 0.000000,  0.000000,  0.478820)
  47 Co ( 0.000000,  0.000000,  1.498750)
  48 Cr ( 0.000000,  0.000000, -1.396557)
  49 Ni ( 0.000000,  0.000000,  0.182347)
  50 Fe ( 0.000000,  0.000000,  1.941995)
  51 Co ( 0.000000,  0.000000,  1.097970)
  52 Co ( 0.000000,  0.000000,  1.041041)
  53 Fe ( 0.000000,  0.000000,  2.218959)
  54 Fe ( 0.000000,  0.000000,  2.103685)
  55 Ni ( 0.000000,  0.000000,  0.518642)
  56 Ni ( 0.000000,  0.000000,  0.483725)
  57 Fe ( 0.000000,  0.000000,  2.240800)
  58 Co ( 0.000000,  0.000000,  1.169365)
  59 Ni ( 0.000000,  0.000000,  0.360632)
[...]
  93 Ni ( 0.000000,  0.000000,  0.198546)
  94 Ni ( 0.000000,  0.000000,  0.139411)
  95 Cr ( 0.000000,  0.000000, -1.231464)
  96 Ni ( 0.000000,  0.000000,  0.182301)
  97 Co ( 0.000000,  0.000000,  0.661949)
  98 Fe ( 0.000000,  0.000000,  1.763335)
  99 Cr ( 0.000000,  0.000000, -1.273801)
 100 Co ( 0.000000,  0.000000,  1.182641)
 101 Cr ( 0.000000,  0.000000, -1.027352)
 102 Fe ( 0.000000,  0.000000,  2.099274)
 103 Co ( 0.000000,  0.000000,  1.174334)
 104 Ni ( 0.000000,  0.000000,  0.230308)
 105 Co ( 0.000000,  0.000000,  0.940783)
 106 Cr ( 0.000000,  0.000000,  1.116379)
 107 Cr ( 0.000000,  0.000000, -1.396641)

Energy contributions relative to reference atoms: (reference = -3846758.590871)

Kinetic:       +121.887192
Potential:     -188.819391
External:        +0.000000
XC:            -860.572590
Entropy (-ST):   -4.705255
Local:          +40.060018
Free energy:   -892.150027
Extrapolated:  -889.797399

Spin contamination: 29.613965 electrons
Showing only first 2 kpts
                      Up                     Down
 Kpt  Band  Eigenvalues  Occupancy  Eigenvalues  Occupancy
  0   524      9.82021    0.99464     10.70656    0.02556
  0   525      9.83869    0.99355     10.71729    0.02302
  0   526      9.84378    0.99322     10.73107    0.02011
  0   527      9.85528    0.99240     10.74060    0.01832

  1   524      9.81611    0.99485     10.70626    0.02563
  1   525      9.82381    0.99444     10.71509    0.02352
  1   526      9.83764    0.99362     10.72574    0.02119
  1   527      9.84587    0.99308     10.74650    0.01729

Fermi level: 10.34246

No gap

Forces in eV/Ang:
  0 Co    0.09936   -0.14797   -0.09236
  1 Co   -0.10950    0.31848    0.01460
  2 Fe   -0.13487   -0.07261   -0.10191
  3 Fe    0.00771    0.12602    0.07787
  4 Cr    0.06187   -0.08050   -0.13100
  5 Cr    0.09303   -0.28966    0.30142
  6 Co   -0.03672    0.00388   -0.06951
  7 Cr   -0.08278   -0.01346   -0.19081
  8 Fe   -0.30964   -0.36508    0.19403
  9 Ni    0.01394    0.10423   -0.08775
 10 Ni   -0.06476    0.03853   -0.07350
 11 Co    0.26667   -0.02005    0.18719
 12 Cr    0.00763   -0.07618   -0.23579
 13 Fe    0.06688   -0.11454    0.06300
 14 Cr    0.19842    0.44804   -0.25356
 15 Fe    0.03278   -0.10125    0.23032
 16 Ni   -0.18322   -0.19749   -0.00022
 17 Co   -0.06108   -0.08690    0.08874
 18 Ni   -0.04551   -0.13589   -0.12551
 19 Cr    0.00796    0.06761    0.32827
 20 Co   -0.01749    0.09007    0.04269
 21 Ni    0.24294   -0.00549   -0.12030
 22 Co    0.14034   -0.24875   -0.28913
 23 Cr   -0.02596    0.17294   -0.01720
 24 Fe    0.12727    0.13454    0.11442
 25 Co    0.12526   -0.09265   -0.10773
 26 Cr   -0.12134   -0.47258   -0.13765
 27 Cr   -0.68927    0.30558   -0.05878
 28 Fe    0.06501    0.38631    0.39486
 29 Cr    0.58892    0.30137   -0.15606
 30 Co   -0.17034    0.02529   -0.17032
 31 Co   -0.33996   -0.13704    0.33532
 32 Cr    0.01837    0.16924    0.33214
 33 Ni   -0.14563    0.03179   -0.06871
 34 Ni   -0.01207    0.15096   -0.18691
 35 Cr    0.25865   -0.27534   -0.00003
 36 Fe   -0.14793    0.04065   -0.03253
 37 Ni    0.01435    0.06092    0.03458
 38 Cr    0.21319    0.41693    0.02449
 39 Fe    0.02697    0.36460    0.10585
 40 Fe    0.02230   -0.40939    0.01791
 41 Co   -0.03546    0.04146   -0.01347
 42 Cr   -0.31692   -0.11594   -0.05344
 43 Fe   -0.17094    0.26827   -0.19900
 44 Fe    0.07318   -0.24675   -0.04662
 45 Fe    0.18232    0.24095    0.37504
 46 Ni    0.03487   -0.17419   -0.00984
 47 Co    0.15881    0.15366   -0.10923
 48 Cr   -0.13549   -0.06023   -0.07431
 49 Ni   -0.05191   -0.06250   -0.06650
 50 Fe   -0.11553   -0.28632    0.01484
 51 Co   -0.02892   -0.13259   -0.12254
 52 Co   -0.14772   -0.02159   -0.31751
 53 Fe    0.13478   -0.06345    0.17233
 54 Fe   -0.28665   -0.15854    0.24231
 55 Ni   -0.08031    0.07935   -0.11008
 56 Ni    0.04310   -0.03487    0.10552
 57 Fe    0.12480   -0.10161    0.15049
 58 Co    0.01899    0.02839    0.09690
 59 Ni    0.08129    0.05486    0.11201
[...]
 93 Ni    0.05157   -0.22312   -0.03068
 94 Ni    0.14321    0.16228    0.10765
 95 Cr    0.07912    0.15271    0.04309
 96 Ni   -0.34337    0.02178    0.02521
 97 Co    0.25219    0.11353   -0.10272
 98 Fe   -0.28889    0.24480   -0.04870
 99 Cr   -0.15985    0.17899    0.18614
100 Co    0.15309    0.34680    0.19885
101 Cr    0.69767   -0.21009    0.21242
102 Fe    0.14515    0.18105   -0.21386
103 Co   -0.11890    0.10676   -0.20890
104 Ni    0.30543    0.18228    0.13406
105 Co   -0.11063    0.04224   -0.25708
106 Cr   -0.03875   -0.10633   -0.45870
107 Cr    0.02315    0.04759    0.27520

Date: Sat Apr  8 08:12:49 2023