User:   c.zeng@d0075
Date:   Fri Apr 14 10:47:03 2023
Arch:   x86_64
Pid:    141441
CWD:    /home/c.zeng/projects/hea-corrosion/hea-mlp/data-curation/bulk-mcmc/dft-jobs/125
Python: 3.8.1
gpaw:   /home/c.zeng/usr/installs/gpaw/source/gpaw-22.8.0/gpaw
_gpaw:  /home/c.zeng/usr/installs/gpaw/source/gpaw-22.8.0/
        _gpaw.cpython-38-x86_64-linux-gnu.so
ase:    /home/c.zeng/.local/lib/python3.8/site-packages/ase-3.22.1-py3.8.egg/ase (version 3.22.1)
numpy:  /shared/centos7/python/3.8.1/lib/python3.8/site-packages/numpy (version 1.17.4)
scipy:  /shared/centos7/python/3.8.1/lib/python3.8/site-packages/scipy (version 1.4.1)
units:  Angstrom and eV
cores: 30
OpenMP: False
OMP_NUM_THREADS: 1

Input parameters:
  convergence: {energy: 0.0001}
  kpts: [2 2 2]
  maxiter: 666
  mode: {ecut: 350.0,
         name: pw}
  occupations: {fixmagmom: False,
                name: fermi-dirac,
                width: 0.1}
  spinpol: True
  xc: PBE

System changes: positions, numbers, cell, pbc, initial_charges, initial_magmoms

Initialize ...

species:
  Co:
    name: Cobalt
    id: 339d20d5b0b93d2de9531a1bee871d91
    Z: 27.0
    valence: 9
    core: 18
    charge: 0.0
    file: /home/c.zeng/usr/data/gpaw-setups-0.9.20000/Co.PBE.gz
    compensation charges: {type: gauss,
                           rc: 0.32,
                           lmax: 2}
    cutoffs: {filter: 1.87,
              core: 2.55}
    valence states:
      #              energy  rcut
      - 4s(2.00)    -5.469   1.005
      - 4p(0.00)    -1.277   1.058
      - 3d(7.00)    -8.205   1.005
      -  s          21.742   1.005
      -  p          25.934   1.058
      -  d          19.007   1.005

    # Using partial waves for Co as LCAO basis

  Fe:
    name: Iron
    id: 37abbd8d6c3c35915a9b583b742da910
    Z: 26.0
    valence: 8
    core: 18
    charge: 0.0
    file: /home/c.zeng/usr/data/gpaw-setups-0.9.20000/Fe.PBE.gz
    compensation charges: {type: gauss,
                           rc: 0.33,
                           lmax: 2}
    cutoffs: {filter: 2.06,
              core: 2.67}
    valence states:
      #              energy  rcut
      - 4s(2.00)    -5.291   1.164
      - 4p(0.00)    -1.326   1.058
      - 3d(6.00)    -7.505   1.058
      -  s          21.920   1.164
      -  p          25.885   1.058
      -  d          19.706   1.058

[...]

  Ni:
    name: Nickel
    id: 0d9f38a9d6e76a2886f07bb4381f212b
    Z: 28.0
    valence: 16
    core: 12
    charge: 0.0
    file: /home/c.zeng/usr/data/gpaw-setups-0.9.20000/Ni.PBE.gz
    compensation charges: {type: gauss,
                           rc: 0.36,
                           lmax: 2}
    cutoffs: {filter: 2.14,
              core: 1.98}
    valence states:
      #              energy  rcut
      - 4s(2.00)    -5.642   1.164
      - 3p(6.00)   -71.394   1.207
      - 4p(0.00)    -1.226   1.207
      - 3d(8.00)    -8.875   1.138
      -  s          21.570   1.164
      -  d          18.337   1.138

[...]

  Al:
    name: Aluminium
    id: 0292cae29f5d6237e50f6abdd43a7bdd
    Z: 13.0
    valence: 3
    core: 10
    charge: 0.0
    file: /home/c.zeng/usr/data/gpaw-setups-0.9.20000/Al.PBE.gz
    compensation charges: {type: gauss,
                           rc: 0.34,
                           lmax: 2}
    cutoffs: {filter: 1.91,
              core: 2.36}
    valence states:
      #              energy  rcut
      - 3s(2.00)    -7.753   1.085
      - 3p(1.00)    -2.712   1.085
      -  s          19.459   1.085
      -  p          24.499   1.085
      -  d           0.000   1.085

[...]

  Cr:
    name: Chromium
    id: 33f258bda2ca9f93018e70263a35547b
    Z: 24.0
    valence: 6
    core: 18
    charge: 0.0
    file: /home/c.zeng/usr/data/gpaw-setups-0.9.20000/Cr.PBE.gz
    compensation charges: {type: gauss,
                           rc: 0.35,
                           lmax: 2}
    cutoffs: {filter: 2.14,
              core: 3.04}
    valence states:
      #              energy  rcut
      - 4s(1.00)    -4.007   1.164
      - 4p(0.00)    -0.989   1.217
      - 3d(5.00)    -2.913   1.111
      -  s          23.205   1.164
      -  p          26.223   1.217
      -  d          24.299   1.111

    # Using partial waves for Cr as LCAO basis

Reference energy: -3548577.034362  # eV

Spin-polarized calculation.
Magnetic moment: 136.400000

Convergence criteria:
 Maximum [total energy] change in last 3 cyles: 0.0001 eV / electron
 Maximum integral of absolute [dens]ity change: 0.0001 electrons / valence electron
 Maximum integral of absolute [eigenst]ate change: 4e-08 eV^2 / valence electron
 Maximum number of scf [iter]ations: 666
 (Square brackets indicate name in SCF output, whereas a 'c' in
 the SCF output indicates the quantity has converged.)

Symmetries present (total): 1

  ( 1  0  0)
  ( 0  1  0)
  ( 0  0  1)

8 k-points: 2 x 2 x 2 Monkhorst-Pack grid
4 k-points in the irreducible part of the Brillouin zone
       k-points in crystal coordinates                weights
   0:     0.25000000   -0.25000000   -0.25000000          2/8
   1:     0.25000000   -0.25000000    0.25000000          2/8
   2:     0.25000000    0.25000000   -0.25000000          2/8
   3:     0.25000000    0.25000000    0.25000000          2/8

Wave functions: Plane wave expansion
  Cutoff energy: 350.000 eV
  Number of coefficients (min, max): 18331, 18331
  Pulay-stress correction: 0.000000 eV/Ang^3 (de/decut=0.000000)
  Using FFTW library
  ScaLapack parameters: grid=1x1, blocksize=None
  Wavefunction extrapolation:
    Improved wavefunction reuse through dual PAW basis

Occupation numbers: Fermi-Dirac:
  width: 0.1000  # eV

Eigensolver
   Davidson(niter=2)

Densities:
  Coarse grid: 48*48*48 grid
  Fine grid: 96*96*96 grid
  Total Charge: 0.000000

Density mixing:
  Method: difference
  Backend: pulay
  Linear mixing parameter: 0.05
  old densities: 5
  Damping of long wavelength oscillations: 50

Hamiltonian:
  XC and Coulomb potentials evaluated on a 96*96*96 grid
  Using the PBE Exchange-Correlation functional
  External potential:
    NoExternalPotential

XC parameters: PBE with 2 nearest neighbor stencil

Total number of cores used: 30
Parallelization over k-points: 2
Domain decomposition: 5 x 3 x 1

Number of atoms: 108
Number of atomic orbitals: 994
Number of bands in calculation: 674
Number of valence electrons: 980
Bands to converge: occupied

... initialized

Initializing position-dependent things.

Density initialized from atomic densities
Creating initial wave functions:
  674 bands from LCAO basis set

        Co-------Co---------------.
       /|  Co       Fe            |
      / |   NiCr     CrCo     CrCo|
     / Al       CAl     Ni        |
    /   CCo      Ni      FAl      |
   /    | CoCo     Co      CoCo   |
  /   Co|  NiFeAl   NiNi    CrCr  |
 *      Cr  CrCoNi   CoNiNi   FeNi|
 |Fe   NiNiCr   CrNCr   FeCr      |
 | Fe   | NiAl   NiNiCr    Cr     |
 |     Co  CoFeNi   FeNiAl  NiAl  |
 |      Fe    FeNi   FeAlFe   AlCr|
 |Cr    |CoNi   NFeFe   FeFe     Fe
 |      .-FeCr-----FeCr--FeCoNi---.
 |     Cr    CoCr     FeCo  Cr Fe/
 |    / Al      Co       Cr     /
 Cr  /            Cr           /
 |  /      Ni      Cr       Fe/
 | / Co              Fe      /
 |/                     Co  /

Positions:
   0 Co    10.732479   -0.010418   10.721263    ( 0.0000,  0.0000,  2.1000)
   1 Fe    10.706231    1.787006    1.816653    ( 0.0000,  0.0000,  1.5000)
   2 Co     1.827923    0.046024    1.820803    ( 0.0000,  0.0000,  0.0000)
   3 Co     1.781666    1.794790   10.668295    ( 0.0000,  0.0000,  0.0000)
   4 Co     3.605675   -0.024615   10.696977    ( 0.0000,  0.0000,  0.0000)
   5 Ni     3.626284    1.755611    1.827590    ( 0.0000,  0.0000,  2.0000)
   6 Fe     5.347186   -0.032870    1.798425    ( 0.0000,  0.0000,  2.0000)
   7 Al     5.383406    1.755353   -0.004078    ( 0.0000,  0.0000,  2.0000)
   8 Fe     7.108694   -0.021619    0.052076    ( 0.0000,  0.0000,  0.0000)
   9 Cr     7.129131    1.783639    1.838109    ( 0.0000,  0.0000,  2.0000)
  10 Al     8.928414   -0.004386    1.840918    ( 0.0000,  0.0000,  2.0000)
  11 Co     8.945645    1.852509    0.063651    ( 0.0000,  0.0000,  0.0000)
  12 Co    10.721403    3.615743   10.707625    ( 0.0000,  0.0000,  2.1000)
  13 Fe    10.714905    5.407607    1.816064    ( 0.0000,  0.0000,  2.0000)
  14 Al     1.786931    3.537020    1.885127    ( 0.0000,  0.0000,  0.0000)
  15 Co     1.774396    5.426328   10.657058    ( 0.0000,  0.0000,  0.0000)
  16 Co     3.564340    3.564490   10.690115    ( 0.0000,  0.0000,  0.0000)
  17 Co     3.570334    5.434059    1.813919    ( 0.0000,  0.0000,  0.0000)
  18 Co     5.350145    3.574934    1.808708    ( 0.0000,  0.0000,  0.0000)
  19 Al     5.345084    5.410577   10.703464    ( 0.0000,  0.0000,  2.1000)
  20 Fe     7.157695    3.624514    0.002553    ( 0.0000,  0.0000,  2.1000)
  21 Fe     7.157792    5.380200    1.803904    ( 0.0000,  0.0000,  0.0000)
  22 Cr     8.944980    3.620622    1.842988    ( 0.0000,  0.0000,  0.0000)
  23 Al     8.940316    5.370571   -0.005231    ( 0.0000,  0.0000,  0.0000)
  24 Co    10.674578    7.138041   10.683446    ( 0.0000,  0.0000,  2.0000)
  25 Fe    10.668413    8.869012    1.800001    ( 0.0000,  0.0000,  0.0000)
  26 Fe     1.807904    7.157309    1.806960    ( 0.0000,  0.0000,  1.5000)
  27 Co     1.808086    8.895217   10.689064    ( 0.0000,  0.0000,  0.0000)
  28 Cr     3.612462    7.185391   10.698339    ( 0.0000,  0.0000,  2.0000)
  29 Ni     3.598277    8.905404    1.808097    ( 0.0000,  0.0000,  1.5000)
  30 Fe     5.362229    7.149643    1.778835    ( 0.0000,  0.0000,  2.1000)
  31 Fe     5.368084    8.904170   10.708750    ( 0.0000,  0.0000,  2.0000)
  32 Co     7.127640    7.124156   10.700741    ( 0.0000,  0.0000,  2.0000)
  33 Fe     7.139982    8.914904    1.783157    ( 0.0000,  0.0000,  0.0000)
  34 Co     8.884516    7.107975    1.798232    ( 0.0000,  0.0000,  2.0000)
  35 Cr     8.895410    8.880302    0.005476    ( 0.0000,  0.0000,  0.0000)
  36 Cr    10.737840    0.006469    3.587908    ( 0.0000,  0.0000,  1.5000)
  37 Cr     0.009110    1.816214    5.359506    ( 0.0000,  0.0000,  1.5000)
  38 Cr     1.833434   -0.010553    5.335488    ( 0.0000,  0.0000,  2.1000)
  39 Cr     1.814369    1.777409    3.664755    ( 0.0000,  0.0000,  1.5000)
  40 Ni     3.608002   -0.027958    3.615958    ( 0.0000,  0.0000,  2.1000)
  41 Ni     3.597397    1.774364    5.368180    ( 0.0000,  0.0000,  1.5000)
  42 Co     5.355185   -0.018813    5.365682    ( 0.0000,  0.0000,  2.1000)
  43 Cr     5.354005    1.762698    3.609396    ( 0.0000,  0.0000,  1.5000)
  44 Cr     7.096449    0.004839    3.553950    ( 0.0000,  0.0000,  0.0000)
  45 Fe     7.124574    1.817747    5.354692    ( 0.0000,  0.0000,  2.1000)
  46 Fe     8.888698   10.712332    5.289714    ( 0.0000,  0.0000,  0.0000)
  47 Co     8.931727    1.815495    3.558979    ( 0.0000,  0.0000,  1.5000)
  48 Ni    10.700248    3.599864    3.631730    ( 0.0000,  0.0000,  0.0000)
  49 Al    -0.007893    5.382698    5.388017    ( 0.0000,  0.0000,  2.0000)
  50 Fe     1.794265    3.594073    5.365264    ( 0.0000,  0.0000,  2.0000)
  51 Co     1.782020    5.398675    3.628600    ( 0.0000,  0.0000,  1.5000)
[...]
  93 Ni     7.158199    5.390858    8.905983    ( 0.0000,  0.0000,  1.5000)
  94 Ni     8.930826    3.597912    8.885374    ( 0.0000,  0.0000,  0.0000)
  95 Cr     8.935737    5.388735    7.127651    ( 0.0000,  0.0000,  0.0000)
  96 Ni    10.717929    7.165190    7.144378    ( 0.0000,  0.0000,  2.1000)
  97 Al    10.739341    8.898756    8.943093    ( 0.0000,  0.0000,  1.5000)
  98 Co     1.793750    7.182882    8.888666    ( 0.0000,  0.0000,  1.5000)
  99 Ni     1.836501    8.904825    7.123094    ( 0.0000,  0.0000,  2.1000)
 100 Co     3.587511    7.157223    7.133645    ( 0.0000,  0.0000,  2.1000)
 101 Co     3.596025    8.923803    8.905018    ( 0.0000,  0.0000,  1.5000)
 102 Co     5.369413    7.149278    8.921112    ( 0.0000,  0.0000,  2.0000)
 103 Ni     5.343776    8.916533    7.143070    ( 0.0000,  0.0000,  2.1000)
 104 Ni     7.139778    7.140400    7.139349    ( 0.0000,  0.0000,  2.1000)
 105 Ni     7.106892    8.889835    8.908727    ( 0.0000,  0.0000,  1.5000)
 106 Co     8.907419    7.146362    8.906765    ( 0.0000,  0.0000,  2.0000)
 107 Cr     8.922313    8.892279    7.115031    ( 0.0000,  0.0000,  2.0000)

Unit cell:
           periodic     x           y           z      points  spacing
  1. axis:    yes   10.722400    0.000000    0.000000    48     0.2234
  2. axis:    yes    0.000000   10.722400    0.000000    48     0.2234
  3. axis:    yes    0.000000    0.000000   10.722400    48     0.2234

  Lengths:  10.722400  10.722400  10.722400
  Angles:   90.000000  90.000000  90.000000

Effective grid spacing dv^(1/3) = 0.2234

     iter     time        total  log10-change:  magmom
                         energy  eigst   dens
iter:   1 10:50:50  -926.183230                  +135.8721
iter:   2 10:52:16  -902.299844  -0.45  -1.32    +98.8193
iter:   3 10:53:43  -888.499054  -0.86  -1.29    +69.4382
iter:   4 10:55:10  -857.497583  -1.41  -1.32    +59.6471
iter:   5 10:56:37  -854.842455  -1.84  -1.45    +53.7619
iter:   6 10:58:04  -857.047277  -1.87  -1.47    +51.0418
iter:   7 10:59:31  -858.096359  -1.63  -1.50    +49.6411
iter:   8 11:00:58  -850.034161  -1.70  -1.51    +48.9415
iter:   9 11:02:25  -863.558257  -1.62  -1.70    +48.8540
iter:  10 11:03:52  -848.649380  -1.92  -1.60    +48.2566
iter:  11 11:05:19  -850.117541  -2.35  -1.87    +48.8515
iter:  12 11:06:46  -848.703159  -2.64  -1.85    +49.3564
iter:  13 11:08:13  -849.570087  -2.62  -1.94    +50.2277
iter:  14 11:09:40  -849.840167  -2.63  -1.96    +51.1022
iter:  15 11:11:08  -850.969126  -2.58  -2.06    +51.5976
iter:  16 11:12:35  -851.208602  -2.62  -2.00    +52.4145
iter:  17 11:14:02  -850.178398  -2.77  -2.02    +52.7690
iter:  18 11:15:29  -850.089652  -3.00  -2.16    +53.7099
iter:  19 11:16:57  -850.303930  -2.96  -2.21    +54.3708
iter:  20 11:18:24  -850.104502  -3.27  -2.24    +54.7054
iter:  21 11:19:51  -850.771069  -2.93  -2.31    +55.5016
iter:  22 11:21:18  -850.421815  -3.11  -2.25    +55.5640
iter:  23 11:22:45  -850.437899  -3.23  -2.35    +56.4395
iter:  24 11:24:11  -850.710474  -3.23  -2.43    +56.7980
iter:  25 11:25:38  -850.425223  -3.45  -2.39    +56.9070
iter:  26 11:27:05  -850.674615  -3.44  -2.60    +57.6968
iter:  27 11:28:32  -850.589769  -3.87  -2.55    +57.7104
iter:  28 11:29:59  -850.744752  -3.69  -2.62    +58.3122
iter:  29 11:31:27  -850.805361  -3.91  -2.64    +58.7423
iter:  30 11:32:54  -850.917928  -3.84  -2.65    +59.6002
iter:  31 11:34:21  -851.132994  -3.56  -2.66    +60.6234
iter:  32 11:35:48  -851.783676  -2.75  -2.62    +63.3773
iter:  33 11:37:15  -851.686966  -4.15  -2.41    +62.6759
iter:  34 11:38:42  -851.826188  -3.57  -2.44    +63.5563
iter:  35 11:40:09  -851.785900  -3.68  -2.41    +63.8760
iter:  36 11:41:36  -851.702169  -3.95  -2.44    +64.0682
iter:  37 11:43:04  -851.743066c -3.02  -2.51    +64.0159
iter:  38 11:44:31  -851.698049c -3.33  -2.51    +63.9736
iter:  39 11:45:58  -851.597260  -3.50  -2.55    +63.8359
iter:  40 11:47:25  -851.586067  -4.06  -2.70    +63.6807
iter:  41 11:48:52  -851.601091c -4.12  -2.75    +63.4299
iter:  42 11:50:19  -851.629700c -4.24  -2.81    +63.2515
iter:  43 11:51:46  -851.641535c -4.43  -2.83    +63.2460
iter:  44 11:53:13  -851.661363c -4.22  -2.86    +63.1066
iter:  45 11:54:40  -851.681427c -4.40  -2.88    +63.2122
iter:  46 11:56:07  -851.674430c -4.49  -2.88    +63.2418
iter:  47 11:57:34  -851.685237c -4.42  -2.98    +63.3230
iter:  48 11:59:01  -851.681307c -4.28  -3.00    +63.3284
iter:  49 12:00:28  -851.679154c -4.61  -3.13    +63.4101
iter:  50 12:01:55  -851.679749c -5.14  -3.26    +63.4086
iter:  51 12:03:22  -851.683899c -5.20  -3.31    +63.4206
iter:  52 12:04:50  -851.690050c -4.96  -3.34    +63.4680
iter:  53 12:06:17  -851.692320c -5.20  -3.34    +63.4700
iter:  54 12:07:44  -851.694654c -5.15  -3.45    +63.5013
iter:  55 12:09:11  -851.696189c -5.37  -3.47    +63.5238
iter:  56 12:10:38  -851.697284c -5.42  -3.52    +63.5453
iter:  57 12:12:05  -851.699035c -5.56  -3.64    +63.5818
iter:  58 12:13:32  -851.700341c -5.80  -3.68    +63.6031
iter:  59 12:15:00  -851.704182c -5.36  -3.73    +63.6674
iter:  60 12:16:27  -851.707541c -5.28  -3.74    +63.7161
iter:  61 12:17:54  -851.713132c -4.94  -3.75    +63.8104
iter:  62 12:19:21  -851.717889c -5.01  -3.72    +63.8831
iter:  63 12:20:49  -851.707031c -4.70  -3.61    +63.6893
iter:  64 12:22:16  -851.713473c -5.36  -3.73    +63.8067
iter:  65 12:23:43  -851.710080c -5.84  -3.64    +63.7514
iter:  66 12:25:10  -851.716556c -5.12  -3.68    +63.8497
iter:  67 12:26:37  -851.712801c -5.83  -3.59    +63.8128
iter:  68 12:28:04  -851.725952c -4.47  -3.64    +63.9802
iter:  69 12:29:31  -851.725476c -5.59  -3.49    +63.9803
iter:  70 12:30:59  -851.729512c -5.34  -3.49    +64.0094
iter:  71 12:32:27  -851.740799c -4.49  -3.45    +64.0962
iter:  72 12:33:55  -851.733894c -5.25  -3.35    +64.0540
iter:  73 12:35:23  -851.746951c -4.54  -3.40    +64.1631
iter:  74 12:36:53  -851.743356c -5.80  -3.32    +64.1706
iter:  75 12:38:23  -851.748778c -5.27  -3.35    +64.2338
iter:  76 12:39:53  -851.753582c -5.05  -3.31    +64.3067
iter:  77 12:41:23  -851.751657c -6.03  -3.25    +64.2957
iter:  78 12:42:53  -851.766787c -4.76  -3.28    +64.3441
iter:  79 12:44:24  -851.755073c -4.95  -3.09    +64.3457
iter:  80 12:45:54  -851.759322c -4.52  -3.23    +64.3491
iter:  81 12:47:24  -851.747370c -5.20  -3.12    +64.3385
iter:  82 12:48:54  -851.751559c -4.95  -3.34    +64.2618
iter:  83 12:50:24  -851.746809c -5.38  -3.25    +64.2816
iter:  84 12:51:54  -851.748607c -5.48  -3.40    +64.2552
iter:  85 12:53:24  -851.746048c -5.06  -3.38    +64.2273
iter:  86 12:54:54  -851.748466c -5.42  -3.51    +64.2200
iter:  87 12:56:24  -851.746478c -5.63  -3.49    +64.2109
iter:  88 12:57:55  -851.746937c -5.93  -3.54    +64.1982
iter:  89 12:59:25  -851.746980c -6.04  -3.61    +64.1833
iter:  90 13:00:55  -851.747870c -5.88  -3.63    +64.1826
iter:  91 13:02:25  -851.747679c -6.05  -3.67    +64.1635
iter:  92 13:03:56  -851.748092c -6.18  -3.74    +64.1502
iter:  93 13:05:26  -851.748102c -6.22  -3.81    +64.1302
iter:  94 13:06:56  -851.748505c -6.40  -3.80    +64.1224
iter:  95 13:08:26  -851.748511c -6.13  -3.88    +64.1075
iter:  96 13:09:56  -851.748863c -6.36  -3.86    +64.1062
iter:  97 13:11:27  -851.748985c -6.47  -3.97    +64.0952
iter:  98 13:12:57  -851.749554c -6.32  -4.02c   +64.0788
iter:  99 13:14:27  -851.749552c -6.69  -4.05c   +64.0724
iter: 100 13:15:57  -851.750024c -6.44  -4.09c   +64.0557
iter: 101 13:17:28  -851.749952c -6.69  -4.10c   +64.0521
iter: 102 13:18:58  -851.750403c -6.52  -4.14c   +64.0427
iter: 103 13:20:29  -851.750383c -7.01  -4.23c   +64.0375
iter: 104 13:21:59  -851.750887c -6.59  -4.27c   +64.0266
iter: 105 13:23:30  -851.751016c -6.81  -4.27c   +64.0176
iter: 106 13:25:00  -851.751430c -6.43  -4.31c   +63.9972
iter: 107 13:26:31  -851.751551c -6.87  -4.33c   +63.9927
iter: 108 13:28:02  -851.752066c -6.43  -4.37c   +63.9807
iter: 109 13:29:32  -851.752047c -7.05  -4.37c   +63.9762
iter: 110 13:31:03  -851.752472c -6.60  -4.40c   +63.9673
iter: 111 13:32:34  -851.752597c -6.99  -4.36c   +63.9611
iter: 112 13:34:05  -851.752705c -7.25  -4.32c   +63.9578
iter: 113 13:35:36  -851.753248c -6.36  -4.32c   +63.9386
iter: 114 13:37:07  -851.753632c -6.42  -4.26c   +63.9244
iter: 115 13:38:38  -851.753142c -6.81  -4.19c   +63.9369
iter: 116 13:40:09  -851.754275c -5.97  -4.21c   +63.9049
iter: 117 13:41:40  -851.754515c -6.35  -4.15c   +63.8954
iter: 118 13:43:11  -851.755005c -6.25  -4.16c   +63.8796
iter: 119 13:44:42  -851.755376c -6.40  -4.14c   +63.8790
iter: 120 13:46:13  -851.755470c -6.70  -3.97    +63.8699
iter: 121 13:47:44  -851.755704c -6.03  -4.05c   +63.8456
iter: 122 13:49:15  -851.755818c -6.69  -4.05c   +63.8521
iter: 123 13:50:46  -851.755964c -6.30  -4.08c   +63.8351
iter: 124 13:52:17  -851.755702c -6.57  -3.98    +63.8303
iter: 125 13:53:48  -851.756134c -6.64  -4.17c   +63.8233
iter: 126 13:55:19  -851.756243c -6.85  -4.20c   +63.8171
iter: 127 13:56:50  -851.756444c -6.81  -4.20c   +63.8080
iter: 128 13:58:21  -851.756552c -6.71  -4.23c   +63.7936
iter: 129 13:59:52  -851.756591c -7.08  -4.21c   +63.7931
iter: 130 14:01:23  -851.756616c -6.56  -4.11c   +63.7781
iter: 131 14:02:54  -851.756975c -6.57  -4.12c   +63.7841
iter: 132 14:04:25  -851.757091c -6.41  -4.24c   +63.7767
iter: 133 14:05:56  -851.757410c -6.52  -4.45c   +63.7634
iter: 134 14:07:28  -851.757329c -7.40c -4.52c   +63.7648

Converged after 134 iterations.

Dipole moment: (-1.715235, 13.289550, 14.376389) |e|*Ang

Total magnetic moment: (0.000000, 0.000000, 63.764848)
Local magnetic moments:
   0 Co ( 0.000000,  0.000000,  1.131118)
   1 Fe ( 0.000000,  0.000000,  2.217508)
   2 Co ( 0.000000,  0.000000,  1.447779)
   3 Co ( 0.000000,  0.000000,  1.294367)
   4 Co ( 0.000000,  0.000000,  1.229969)
   5 Ni ( 0.000000,  0.000000,  0.213311)
   6 Fe ( 0.000000,  0.000000,  1.967894)
   7 Al ( 0.000000,  0.000000, -0.017166)
   8 Fe ( 0.000000,  0.000000, -1.523873)
   9 Cr ( 0.000000,  0.000000,  0.918049)
  10 Al ( 0.000000,  0.000000, -0.015259)
  11 Co ( 0.000000,  0.000000,  1.046155)
  12 Co ( 0.000000,  0.000000,  1.096199)
  13 Fe ( 0.000000,  0.000000,  2.253079)
  14 Al ( 0.000000,  0.000000, -0.030602)
  15 Co ( 0.000000,  0.000000,  1.224415)
  16 Co ( 0.000000,  0.000000,  1.298638)
  17 Co ( 0.000000,  0.000000,  1.137575)
  18 Co ( 0.000000,  0.000000,  1.074311)
  19 Al ( 0.000000,  0.000000, -0.040979)
  20 Fe ( 0.000000,  0.000000,  2.213189)
  21 Fe ( 0.000000,  0.000000,  2.062552)
  22 Cr ( 0.000000,  0.000000, -1.206560)
  23 Al ( 0.000000,  0.000000, -0.035462)
  24 Co ( 0.000000,  0.000000,  1.025069)
  25 Fe ( 0.000000,  0.000000,  2.233277)
  26 Fe ( 0.000000,  0.000000,  2.278261)
  27 Co ( 0.000000,  0.000000,  1.457612)
  28 Cr ( 0.000000,  0.000000, -2.078929)
  29 Ni ( 0.000000,  0.000000,  0.485468)
  30 Fe ( 0.000000,  0.000000,  1.990657)
  31 Fe ( 0.000000,  0.000000,  2.137930)
  32 Co ( 0.000000,  0.000000,  1.155834)
  33 Fe ( 0.000000,  0.000000,  1.822161)
  34 Co ( 0.000000,  0.000000,  1.164453)
  35 Cr ( 0.000000,  0.000000, -1.544728)
  36 Cr ( 0.000000,  0.000000, -1.580174)
  37 Cr ( 0.000000,  0.000000, -0.392973)
  38 Cr ( 0.000000,  0.000000,  0.707728)
  39 Cr ( 0.000000,  0.000000,  0.412603)
  40 Ni ( 0.000000,  0.000000,  0.289088)
  41 Ni ( 0.000000,  0.000000,  0.155316)
  42 Co ( 0.000000,  0.000000,  1.059430)
  43 Cr ( 0.000000,  0.000000,  0.500994)
  44 Cr ( 0.000000,  0.000000, -1.398200)
  45 Fe ( 0.000000,  0.000000,  1.574447)
  46 Fe ( 0.000000,  0.000000,  2.072755)
  47 Co ( 0.000000,  0.000000,  0.408698)
  48 Ni ( 0.000000,  0.000000,  0.288933)
  49 Al ( 0.000000,  0.000000, -0.022808)
  50 Fe ( 0.000000,  0.000000,  2.014766)
  51 Co ( 0.000000,  0.000000,  0.975471)
  52 Cr ( 0.000000,  0.000000, -1.700279)
  53 Fe ( 0.000000,  0.000000,  2.217664)
  54 Ni ( 0.000000,  0.000000,  0.093192)
  55 Fe ( 0.000000,  0.000000,  2.196286)
  56 Cr ( 0.000000,  0.000000, -1.433586)
  57 Ni ( 0.000000,  0.000000,  0.159304)
  58 Fe ( 0.000000,  0.000000,  1.757637)
  59 Fe ( 0.000000,  0.000000,  1.619572)
[...]
  93 Ni ( 0.000000,  0.000000,  0.236506)
  94 Ni ( 0.000000,  0.000000,  0.150302)
  95 Cr ( 0.000000,  0.000000, -0.666849)
  96 Ni ( 0.000000,  0.000000,  0.049021)
  97 Al ( 0.000000,  0.000000, -0.015871)
  98 Co ( 0.000000,  0.000000,  1.210410)
  99 Ni ( 0.000000,  0.000000,  0.196473)
 100 Co ( 0.000000,  0.000000,  1.433280)
 101 Co ( 0.000000,  0.000000,  1.367758)
 102 Co ( 0.000000,  0.000000,  1.273406)
 103 Ni ( 0.000000,  0.000000,  0.357346)
 104 Ni ( 0.000000,  0.000000,  0.269727)
 105 Ni ( 0.000000,  0.000000,  0.239733)
 106 Co ( 0.000000,  0.000000,  0.630850)
 107 Cr ( 0.000000,  0.000000, -1.239006)

Energy contributions relative to reference atoms: (reference = -3548577.034362)

Kinetic:       +184.539249
Potential:     -216.540558
External:        +0.000000
XC:            -853.417475
Entropy (-ST):   -4.552980
Local:          +35.937945
Free energy:   -854.033819
Extrapolated:  -851.757329

Spin contamination: 26.034762 electrons
Showing only first 2 kpts
                      Up                     Down
 Kpt  Band  Eigenvalues  Occupancy  Eigenvalues  Occupancy
  0   488      9.48121    0.99420     10.37214    0.02265
  0   489      9.48956    0.99370     10.38175    0.02062
  0   490      9.50747    0.99248     10.39116    0.01880
  0   491      9.52167    0.99134     10.40009    0.01722

  1   488      9.46927    0.99485     10.37217    0.02264
  1   489      9.48435    0.99402     10.37844    0.02130
  1   490      9.50789    0.99244     10.39992    0.01725
  1   491      9.52366    0.99117     10.40977    0.01566

Fermi level: 9.99568

No gap

Forces in eV/Ang:
  0 Co    0.05543    0.22705    0.06101
  1 Fe    0.11883   -0.02203   -0.35632
  2 Co   -0.15049   -0.46728   -0.15610
  3 Co    0.14060   -0.16587    0.32237
  4 Co   -0.41440   -0.11946    0.23417
  5 Ni   -0.44598    0.08078   -0.21345
  6 Fe   -0.19928   -0.51888    0.09187
  7 Al   -0.77944    0.77175    0.40977
  8 Fe    0.26095    0.24271   -0.53509
  9 Cr    0.07829    0.56737   -0.07851
 10 Al    0.27504   -0.04558   -0.78021
 11 Co   -0.00905    0.00442   -0.62017
 12 Co    0.16206   -0.41339    0.03679
 13 Fe    0.16921   -0.00890   -0.21873
 14 Al    0.01893    0.75396   -1.29045
 15 Co    0.14781   -0.31263    0.24698
 16 Co   -0.29268    0.24511    0.26069
 17 Co   -0.20966   -0.38840    0.03560
 18 Co   -0.00323    0.23204    0.13587
 19 Al    0.36842   -1.17414   -0.00812
 20 Fe    0.07560   -0.59047   -0.10440
 21 Fe   -0.16091   -0.46994    0.09303
 22 Cr    0.30140   -0.78090    0.14670
 23 Al   -0.26039    0.46161   -0.52289
 24 Co    0.44184   -0.01179    0.37307
 25 Fe    0.58402    0.09064   -0.28068
 26 Fe   -0.04233    0.03254   -0.41378
 27 Co    0.28872    0.25652    0.55151
 28 Cr   -1.15869    0.52352   -0.08502
 29 Ni   -0.44083    0.42766   -0.15972
 30 Fe   -0.26195    0.25947    0.01383
 31 Fe    0.02010    0.07525    0.08421
 32 Co    0.17246    0.58945    0.09976
 33 Fe    0.04636    0.07852   -0.29505
 34 Co    0.36487    0.28594   -0.04131
 35 Cr   -0.59223   -0.39594   -0.06315
 36 Cr    0.56005   -0.43731    0.72765
 37 Cr    0.22368   -0.05944   -0.04385
 38 Cr   -0.56667    0.36235    0.08728
 39 Cr    0.02866   -0.88110   -0.13463
 40 Ni   -0.12417    0.25397   -0.38744
 41 Ni   -0.09357   -0.18603   -0.08944
 42 Co    0.19093   -0.02947    0.07779
 43 Cr   -0.13257    0.13026   -0.08405
 44 Cr   -0.31843    0.06169    0.73569
 45 Fe    0.08868   -0.09454   -0.23207
 46 Fe    0.39488   -0.34280    0.11528
 47 Co    0.12292    0.22676    0.40448
 48 Ni    0.07834   -0.22406   -0.33051
 49 Al    0.91908   -0.55708    0.15496
 50 Fe   -0.11128   -0.41777   -0.14422
 51 Co    0.34229    0.04516   -0.37296
 52 Cr    0.67361    0.11976    0.04024
 53 Fe   -0.11397    0.29407   -0.23097
 54 Ni    0.28141    0.07067   -0.15917
 55 Fe   -0.34657   -0.98728   -0.53353
 56 Cr   -0.35821    0.03409    0.05930
 57 Ni   -0.08800   -0.06489   -0.02283
 58 Fe   -0.30160   -0.08525   -0.31773
 59 Fe   -0.33913   -0.54030   -0.31069
[...]
 93 Ni    0.00248   -0.19260   -0.23413
 94 Ni    0.10587   -0.24154    0.45444
 95 Cr   -0.59753   -0.09298    0.74240
 96 Ni    0.12360    0.02714    0.09778
 97 Al    0.67442   -0.30210    0.07684
 98 Co    0.45867   -0.62463    0.35247
 99 Ni   -0.31696    0.19771    0.12979
100 Co   -0.12522    0.02273    0.23888
101 Co   -0.08374   -0.07575    0.28792
102 Co   -0.23598    0.10622   -0.34131
103 Ni   -0.01520    0.10700    0.06475
104 Ni    0.13171    0.09561    0.13179
105 Ni    0.35571    0.28145    0.02102
106 Co   -0.08619    0.17124   -0.09141
107 Cr   -0.46161    0.28263   -0.05892

Date: Fri Apr 14 14:07:46 2023