User:   c.zeng@d0008
Date:   Fri Apr 14 00:47:36 2023
Arch:   x86_64
Pid:    62742
CWD:    /home/c.zeng/projects/hea-corrosion/hea-mlp/data-curation/bulk-md/dft-jobs/69
Python: 3.8.1
gpaw:   /home/c.zeng/usr/installs/gpaw/source/gpaw-22.8.0/gpaw
_gpaw:  /home/c.zeng/usr/installs/gpaw/source/gpaw-22.8.0/
        _gpaw.cpython-38-x86_64-linux-gnu.so
ase:    /home/c.zeng/.local/lib/python3.8/site-packages/ase-3.22.1-py3.8.egg/ase (version 3.22.1)
numpy:  /shared/centos7/python/3.8.1/lib/python3.8/site-packages/numpy (version 1.17.4)
scipy:  /shared/centos7/python/3.8.1/lib/python3.8/site-packages/scipy (version 1.4.1)
units:  Angstrom and eV
cores: 30
OpenMP: False
OMP_NUM_THREADS: 1

Input parameters:
  convergence: {energy: 0.0001}
  kpts: [2 2 2]
  maxiter: 666
  mode: {ecut: 350.0,
         name: pw}
  occupations: {fixmagmom: False,
                name: fermi-dirac,
                width: 0.1}
  spinpol: True
  xc: PBE

System changes: positions, numbers, cell, pbc, initial_charges, initial_magmoms

Initialize ...

species:
  Fe:
    name: Iron
    id: 37abbd8d6c3c35915a9b583b742da910
    Z: 26.0
    valence: 8
    core: 18
    charge: 0.0
    file: /home/c.zeng/usr/data/gpaw-setups-0.9.20000/Fe.PBE.gz
    compensation charges: {type: gauss,
                           rc: 0.33,
                           lmax: 2}
    cutoffs: {filter: 2.06,
              core: 2.67}
    valence states:
      #              energy  rcut
      - 4s(2.00)    -5.291   1.164
      - 4p(0.00)    -1.326   1.058
      - 3d(6.00)    -7.505   1.058
      -  s          21.920   1.164
      -  p          25.885   1.058
      -  d          19.706   1.058

    # Using partial waves for Fe as LCAO basis

  Cr:
    name: Chromium
    id: 33f258bda2ca9f93018e70263a35547b
    Z: 24.0
    valence: 6
    core: 18
    charge: 0.0
    file: /home/c.zeng/usr/data/gpaw-setups-0.9.20000/Cr.PBE.gz
    compensation charges: {type: gauss,
                           rc: 0.35,
                           lmax: 2}
    cutoffs: {filter: 2.14,
              core: 3.04}
    valence states:
      #              energy  rcut
      - 4s(1.00)    -4.007   1.164
      - 4p(0.00)    -0.989   1.217
      - 3d(5.00)    -2.913   1.111
      -  s          23.205   1.164
      -  p          26.223   1.217
      -  d          24.299   1.111

[...]

  Ni:
    name: Nickel
    id: 0d9f38a9d6e76a2886f07bb4381f212b
    Z: 28.0
    valence: 16
    core: 12
    charge: 0.0
    file: /home/c.zeng/usr/data/gpaw-setups-0.9.20000/Ni.PBE.gz
    compensation charges: {type: gauss,
                           rc: 0.36,
                           lmax: 2}
    cutoffs: {filter: 2.14,
              core: 1.98}
    valence states:
      #              energy  rcut
      - 4s(2.00)    -5.642   1.164
      - 3p(6.00)   -71.394   1.207
      - 4p(0.00)    -1.226   1.207
      - 3d(8.00)    -8.875   1.138
      -  s          21.570   1.164
      -  d          18.337   1.138

[...]

  Al:
    name: Aluminium
    id: 0292cae29f5d6237e50f6abdd43a7bdd
    Z: 13.0
    valence: 3
    core: 10
    charge: 0.0
    file: /home/c.zeng/usr/data/gpaw-setups-0.9.20000/Al.PBE.gz
    compensation charges: {type: gauss,
                           rc: 0.34,
                           lmax: 2}
    cutoffs: {filter: 1.91,
              core: 2.36}
    valence states:
      #              energy  rcut
      - 3s(2.00)    -7.753   1.085
      - 3p(1.00)    -2.712   1.085
      -  s          19.459   1.085
      -  p          24.499   1.085
      -  d           0.000   1.085

[...]

  Co:
    name: Cobalt
    id: 339d20d5b0b93d2de9531a1bee871d91
    Z: 27.0
    valence: 9
    core: 18
    charge: 0.0
    file: /home/c.zeng/usr/data/gpaw-setups-0.9.20000/Co.PBE.gz
    compensation charges: {type: gauss,
                           rc: 0.32,
                           lmax: 2}
    cutoffs: {filter: 1.87,
              core: 2.55}
    valence states:
      #              energy  rcut
      - 4s(2.00)    -5.469   1.005
      - 4p(0.00)    -1.277   1.058
      - 3d(7.00)    -8.205   1.005
      -  s          21.742   1.005
      -  p          25.934   1.058
      -  d          19.007   1.005

    # Using partial waves for Co as LCAO basis

Reference energy: -3382523.201499  # eV

Spin-polarized calculation.
Magnetic moment: 128.800000

Convergence criteria:
 Maximum [total energy] change in last 3 cyles: 0.0001 eV / electron
 Maximum integral of absolute [dens]ity change: 0.0001 electrons / valence electron
 Maximum integral of absolute [eigenst]ate change: 4e-08 eV^2 / valence electron
 Maximum number of scf [iter]ations: 666
 (Square brackets indicate name in SCF output, whereas a 'c' in
 the SCF output indicates the quantity has converged.)

Symmetries present (total): 1

  ( 1  0  0)
  ( 0  1  0)
  ( 0  0  1)

8 k-points: 2 x 2 x 2 Monkhorst-Pack grid
4 k-points in the irreducible part of the Brillouin zone
       k-points in crystal coordinates                weights
   0:     0.25000000   -0.25000000   -0.25000000          2/8
   1:     0.25000000   -0.25000000    0.25000000          2/8
   2:     0.25000000    0.25000000   -0.25000000          2/8
   3:     0.25000000    0.25000000    0.25000000          2/8

Wave functions: Plane wave expansion
  Cutoff energy: 350.000 eV
  Number of coefficients (min, max): 18865, 18865
  Pulay-stress correction: 0.000000 eV/Ang^3 (de/decut=0.000000)
  Using FFTW library
  ScaLapack parameters: grid=1x1, blocksize=None
  Wavefunction extrapolation:
    Improved wavefunction reuse through dual PAW basis

Occupation numbers: Fermi-Dirac:
  width: 0.1000  # eV

Eigensolver
   Davidson(niter=2)

Densities:
  Coarse grid: 48*48*48 grid
  Fine grid: 96*96*96 grid
  Total Charge: 0.000000

Density mixing:
  Method: difference
  Backend: pulay
  Linear mixing parameter: 0.05
  old densities: 5
  Damping of long wavelength oscillations: 50

Hamiltonian:
  XC and Coulomb potentials evaluated on a 96*96*96 grid
  Using the PBE Exchange-Correlation functional
  External potential:
    NoExternalPotential

XC parameters: PBE with 2 nearest neighbor stencil

Total number of cores used: 30
Parallelization over k-points: 2
Domain decomposition: 5 x 3 x 1

Number of atoms: 108
Number of atomic orbitals: 961
Number of bands in calculation: 649
Number of valence electrons: 945
Bands to converge: occupied

... initialized

Initializing position-dependent things.

Density initialized from atomic densities
Creating initial wave functions:
  649 bands from LCAO basis set

      / |      Cr       Ni     Ni  |
     / Fe            Cr  Ni        |
    /   |    Co AlFer      Alo     |
   /    | Co         Cr      FNi   |
  /  FeCr  NioFe     CoCr          |
 *      Co     CrNi   FeAFe     Ni |
 |     CCr  Fe   FCoAl     CrCo    |
 |   Co |Al Ni     AlAl  Cr   Ni   |
 |     Co  NiFe     Ni NNi     Cr  |
 Fe     CFe Ni Fee       ACo    Fe |
 |Co   CrAAl      Fe      Cr       |
 | Ni   .-CrAl---AlFCoi-CoACo------.
 |   Cr/   AlCr Ni  Fe       Coi  /
 |    Cr         Co   Fe Nio     /
 Ni  /  FerFe        Co         /
 |Cr/                          /
 | /          NiAl      Ni    /
 |/                     Co   /
 Fe-------------------------*

Positions:
   0 Fe    10.993487   10.863877   11.007583    ( 0.0000,  0.0000,  2.0000)
   1 Cr    10.895254    1.970058    1.662729    ( 0.0000,  0.0000,  0.0000)
   2 Ni     1.724335   -0.117905    1.845353    ( 0.0000,  0.0000,  1.5000)
   3 Cr     2.024622    2.087007   10.800872    ( 0.0000,  0.0000,  0.0000)
   4 Al     3.780486   -0.010434    0.124789    ( 0.0000,  0.0000,  0.0000)
   5 Fe     3.578179    1.913368    1.961246    ( 0.0000,  0.0000,  2.0000)
   6 Ni     5.353039   10.924953    2.000364    ( 0.0000,  0.0000,  1.5000)
   7 Al     5.218293    2.311361    0.060533    ( 0.0000,  0.0000,  0.0000)
   8 Al     7.243186   10.445946    0.097895    ( 0.0000,  0.0000,  0.0000)
   9 Co     7.318257    1.956258    1.892937    ( 0.0000,  0.0000,  2.1000)
  10 Ni     9.199637    0.029791    1.729032    ( 0.0000,  0.0000,  1.5000)
  11 Co     8.804887    1.513540    0.009884    ( 0.0000,  0.0000,  2.1000)
  12 Ni    -0.016773    3.525465   10.683015    ( 0.0000,  0.0000,  1.5000)
  13 Cr    10.955430    5.446883    1.684317    ( 0.0000,  0.0000,  0.0000)
  14 Fe     1.754608    3.811440    1.557679    ( 0.0000,  0.0000,  2.0000)
  15 Cr     1.893560    5.558649   10.853200    ( 0.0000,  0.0000,  0.0000)
  16 Co     3.655668    4.052217   10.805435    ( 0.0000,  0.0000,  2.1000)
  17 Cr     3.447837    5.402934    1.741481    ( 0.0000,  0.0000,  0.0000)
  18 Co     5.421349    3.791925    1.835038    ( 0.0000,  0.0000,  2.1000)
  19 Fe     5.607521    5.364413   -0.187631    ( 0.0000,  0.0000,  2.0000)
  20 Cr     7.276660    3.562571   -0.142765    ( 0.0000,  0.0000,  0.0000)
  21 Fe     7.211018    5.294428    1.696250    ( 0.0000,  0.0000,  2.0000)
  22 Co     9.246836    3.611866    1.818403    ( 0.0000,  0.0000,  2.1000)
  23 Al     8.879317    5.236474   10.564552    ( 0.0000,  0.0000,  0.0000)
  24 Ni    11.014518    6.932840   10.911415    ( 0.0000,  0.0000,  1.5000)
  25 Cr    10.911741    8.758852    2.051398    ( 0.0000,  0.0000,  0.0000)
  26 Cr     1.784820    7.106126    2.065220    ( 0.0000,  0.0000,  0.0000)
  27 Al     1.776628    8.751387    0.192390    ( 0.0000,  0.0000,  0.0000)
  28 Cr     3.643063    7.182524   -0.058844    ( 0.0000,  0.0000,  0.0000)
  29 Cr     3.679904    9.299382    2.197419    ( 0.0000,  0.0000,  0.0000)
  30 Fe     5.332841    7.251882    2.024083    ( 0.0000,  0.0000,  2.0000)
  31 Fe     5.256430    9.021161    0.174483    ( 0.0000,  0.0000,  2.0000)
  32 Ni     7.131339    7.432899   -0.161735    ( 0.0000,  0.0000,  1.5000)
  33 Cr     7.623776    8.835718    1.856399    ( 0.0000,  0.0000,  0.0000)
  34 Co     9.257388    6.891015    1.474186    ( 0.0000,  0.0000,  2.1000)
  35 Ni     9.164769    9.034736   10.856238    ( 0.0000,  0.0000,  1.5000)
  36 Ni     0.069856   10.856032    3.583514    ( 0.0000,  0.0000,  1.5000)
  37 Co    10.839972    1.710064    5.621885    ( 0.0000,  0.0000,  2.1000)
  38 Co     1.694748   10.798186    5.550539    ( 0.0000,  0.0000,  2.1000)
  39 Cr     1.702118    1.899467    3.441238    ( 0.0000,  0.0000,  0.0000)
  40 Fe     3.597825   10.708347    3.889439    ( 0.0000,  0.0000,  2.0000)
  41 Al     3.326673    1.739730    5.533931    ( 0.0000,  0.0000,  0.0000)
  42 Fe     5.572202   10.708423    5.402733    ( 0.0000,  0.0000,  2.0000)
  43 Ni     5.387147    1.826978    3.639199    ( 0.0000,  0.0000,  1.5000)
  44 Cr     6.999435   -0.122505    3.435003    ( 0.0000,  0.0000,  0.0000)
  45 Co     7.174104    1.630220    5.191783    ( 0.0000,  0.0000,  2.1000)
  46 Co     9.264488   10.855677    5.533281    ( 0.0000,  0.0000,  2.1000)
  47 Ni     9.345360    1.652358    3.586017    ( 0.0000,  0.0000,  1.5000)
  48 Ni    10.839588    3.694047    3.440098    ( 0.0000,  0.0000,  1.5000)
  49 Cr    10.798917    4.863613    5.336770    ( 0.0000,  0.0000,  0.0000)
  50 Co     1.823095    3.394630    5.428107    ( 0.0000,  0.0000,  2.1000)
  51 Al     1.673628    5.285762    3.777401    ( 0.0000,  0.0000,  0.0000)
  52 Al     3.551164    3.676174    3.565809    ( 0.0000,  0.0000,  0.0000)
  53 Fe     3.448825    5.334515    5.296513    ( 0.0000,  0.0000,  2.0000)
  54 Fe     5.263923    3.620698    5.138029    ( 0.0000,  0.0000,  2.0000)
  55 Fe     5.347981    5.379401    3.497498    ( 0.0000,  0.0000,  2.0000)
  56 Ni     7.117633    3.679995    3.954987    ( 0.0000,  0.0000,  1.5000)
  57 Ni     7.293644    5.411143    5.411732    ( 0.0000,  0.0000,  1.5000)
  58 Co     9.031550    3.228820    5.490697    ( 0.0000,  0.0000,  2.1000)
  59 Co     9.106810    5.258886    3.401577    ( 0.0000,  0.0000,  2.1000)
[...]
  93 Cr     7.223528    5.686553    8.640555    ( 0.0000,  0.0000,  0.0000)
  94 Fe     8.831853    3.432355    8.940649    ( 0.0000,  0.0000,  2.0000)
  95 Cr     9.055205    5.329142    7.206026    ( 0.0000,  0.0000,  0.0000)
  96 Ni    10.500053    7.217534    7.327607    ( 0.0000,  0.0000,  1.5000)
  97 Fe    10.913842    8.933844    8.985984    ( 0.0000,  0.0000,  2.0000)
  98 Co     1.918777    7.006864    9.010844    ( 0.0000,  0.0000,  2.1000)
  99 Ni     1.600735    8.909236    7.114016    ( 0.0000,  0.0000,  1.5000)
 100 Cr     3.632669    7.167000    6.996087    ( 0.0000,  0.0000,  0.0000)
 101 Al     3.621550    8.781716    8.598761    ( 0.0000,  0.0000,  0.0000)
 102 Cr     5.295519    7.104103    9.163399    ( 0.0000,  0.0000,  0.0000)
 103 Co     5.512620    9.025409    6.966338    ( 0.0000,  0.0000,  2.1000)
 104 Al     7.375227    7.303303    7.068612    ( 0.0000,  0.0000,  0.0000)
 105 Ni     7.184552    9.178233    8.884535    ( 0.0000,  0.0000,  1.5000)
 106 Co     8.822912    7.249020    9.018004    ( 0.0000,  0.0000,  2.1000)
 107 Fe     9.022902    9.009623    7.312129    ( 0.0000,  0.0000,  2.0000)

Unit cell:
           periodic     x           y           z      points  spacing
  1. axis:    yes   10.820500    0.000000    0.000000    48     0.2254
  2. axis:    yes    0.000000   10.820500    0.000000    48     0.2254
  3. axis:    yes    0.000000    0.000000   10.820500    48     0.2254

  Lengths:  10.820500  10.820500  10.820500
  Angles:   90.000000  90.000000  90.000000

Effective grid spacing dv^(1/3) = 0.2254

     iter     time        total  log10-change:  magmom
                         energy  eigst   dens
iter:   1 00:52:25  -969.900442                  +129.0865
iter:   2 00:54:33  -865.909436  -0.22  -1.18    +72.0656
iter:   3 00:56:41  -853.308031  -0.84  -1.20    +61.7518
iter:   4 00:58:50  -831.644101  -1.28  -1.26    +57.7567
iter:   5 01:00:57  -824.275656  -1.55  -1.30    +55.0534
iter:   6 01:03:05  -825.057383  -1.30  -1.34    +55.7400
iter:   7 01:05:14  -817.641898  -1.28  -1.40    +54.6047
iter:   8 01:07:22  -810.008481  -1.64  -1.52    +53.5368
iter:   9 01:09:30  -809.900098  -1.84  -1.66    +55.3154
iter:  10 01:11:37  -806.591078  -2.36  -1.70    +55.7223
iter:  11 01:13:59  -807.314877  -2.44  -1.81    +57.8261
iter:  12 01:17:01  -809.042485  -2.34  -1.84    +58.6815
iter:  13 01:19:09  -807.672308  -2.37  -1.83    +59.2649
iter:  14 01:21:18  -808.046886  -2.49  -1.95    +60.0908
iter:  15 01:23:26  -807.662178  -2.66  -1.98    +60.7056
iter:  16 01:25:34  -807.530364  -2.86  -2.05    +61.1677
iter:  17 01:27:42  -807.862158  -2.98  -2.09    +61.8888
iter:  18 01:29:50  -807.437592  -3.05  -2.09    +61.9621
iter:  19 01:31:58  -807.657622  -3.02  -2.23    +62.3549
iter:  20 01:34:06  -807.659433  -3.07  -2.24    +62.4944
iter:  21 01:36:55  -807.436265  -3.26  -2.28    +62.5162
iter:  22 01:39:32  -807.538120  -3.46  -2.40    +62.7540
iter:  23 01:41:41  -807.472789  -3.50  -2.40    +62.7701
iter:  24 01:43:49  -807.487300c -3.60  -2.48    +62.8368
iter:  25 01:45:59  -807.530557c -3.68  -2.54    +62.8667
iter:  26 01:48:07  -807.547557c -3.83  -2.55    +62.9871
iter:  27 01:50:16  -807.556154c -3.93  -2.57    +62.9389
iter:  28 01:52:25  -807.595670c -3.91  -2.63    +62.9512
iter:  29 01:54:33  -807.588502c -4.11  -2.63    +63.0054
iter:  30 01:56:42  -807.617397c -4.14  -2.69    +63.0452
iter:  31 01:58:51  -807.640673c -4.15  -2.73    +63.0183
iter:  32 02:00:59  -807.652626c -4.37  -2.75    +63.1351
iter:  33 02:03:08  -807.667960c -4.24  -2.78    +63.1102
iter:  34 02:05:16  -807.681025c -4.40  -2.81    +63.1448
iter:  35 02:07:42  -807.688981c -4.45  -2.84    +63.2125
iter:  36 02:10:42  -807.704738c -4.44  -2.89    +63.2918
iter:  37 02:12:51  -807.719691c -4.49  -2.92    +63.2795
iter:  38 02:15:01  -807.731939c -4.43  -2.95    +63.3809
iter:  39 02:17:09  -807.735061c -4.57  -2.95    +63.3452
iter:  40 02:19:18  -807.754267c -4.40  -3.03    +63.3540
iter:  41 02:21:26  -807.741967c -4.69  -2.99    +63.3447
iter:  42 02:23:36  -807.748374c -4.88  -3.13    +63.3647
iter:  43 02:25:45  -807.755115c -4.94  -3.16    +63.3938
iter:  44 02:27:53  -807.758030c -5.00  -3.19    +63.4154
iter:  45 02:30:02  -807.762628c -5.06  -3.23    +63.4437
iter:  46 02:32:11  -807.766697c -4.99  -3.27    +63.4437
iter:  47 02:34:19  -807.767020c -5.30  -3.27    +63.4695
iter:  48 02:36:28  -807.770127c -5.31  -3.33    +63.5137
iter:  49 02:38:36  -807.772068c -5.30  -3.36    +63.5096
iter:  50 02:40:44  -807.773641c -5.41  -3.39    +63.5501
iter:  51 02:43:07  -807.775686c -5.46  -3.44    +63.5865
iter:  52 02:46:08  -807.778603c -5.31  -3.46    +63.6190
iter:  53 02:48:17  -807.780477c -5.41  -3.47    +63.6433
iter:  54 02:50:27  -807.780873c -5.53  -3.48    +63.6718
iter:  55 02:52:36  -807.781364c -5.65  -3.53    +63.6697
iter:  56 02:54:44  -807.782402c -5.78  -3.58    +63.6909
iter:  57 02:56:54  -807.783326c -5.78  -3.62    +63.7179
iter:  58 02:59:03  -807.785449c -5.54  -3.65    +63.7478
iter:  59 03:01:12  -807.785679c -5.82  -3.67    +63.7649
iter:  60 03:03:21  -807.785947c -5.94  -3.68    +63.7818
iter:  61 03:05:30  -807.786316c -6.09  -3.75    +63.7814
iter:  62 03:07:39  -807.786688c -6.21  -3.79    +63.7967
iter:  63 03:09:48  -807.787096c -6.32  -3.84    +63.8095
iter:  64 03:11:56  -807.787389c -6.19  -3.88    +63.8235
iter:  65 03:14:05  -807.787945c -6.28  -3.88    +63.8344
iter:  66 03:16:14  -807.788320c -6.39  -3.91    +63.8447
iter:  67 03:18:23  -807.788215c -6.42  -3.92    +63.8492
iter:  68 03:20:32  -807.788292c -6.58  -3.98    +63.8603
iter:  69 03:22:41  -807.788710c -6.68  -4.00    +63.8666
iter:  70 03:24:55  -807.788827c -6.70  -4.02c   +63.8761
iter:  71 03:28:06  -807.788775c -6.60  -4.04c   +63.8837
iter:  72 03:30:17  -807.788967c -6.65  -4.03c   +63.8891
iter:  73 03:32:26  -807.789255c -6.67  -4.04c   +63.8985
iter:  74 03:34:35  -807.789485c -6.63  -4.09c   +63.9037
iter:  75 03:36:44  -807.789213c -6.74  -4.10c   +63.9087
iter:  76 03:38:53  -807.789451c -6.71  -4.14c   +63.9140
iter:  77 03:41:02  -807.789750c -6.88  -4.14c   +63.9193
iter:  78 03:43:11  -807.789778c -6.83  -4.17c   +63.9307
iter:  79 03:45:20  -807.789666c -6.78  -4.21c   +63.9360
iter:  80 03:47:28  -807.789755c -7.06  -4.20c   +63.9449
iter:  81 03:49:37  -807.790062c -6.94  -4.29c   +63.9521
iter:  82 03:51:46  -807.790061c -6.99  -4.31c   +63.9570
iter:  83 03:53:54  -807.790041c -6.94  -4.27c   +63.9664
iter:  84 03:56:03  -807.790240c -6.98  -4.35c   +63.9751
iter:  85 03:58:12  -807.790427c -7.12  -4.37c   +63.9826
iter:  86 04:00:21  -807.790458c -7.27  -4.36c   +63.9883
iter:  87 04:02:29  -807.790497c -7.11  -4.44c   +63.9992
iter:  88 04:04:51  -807.790581c -7.10  -4.43c   +64.0070
iter:  89 04:07:57  -807.790561c -7.41c -4.38c   +64.0098

Converged after 89 iterations.

Dipole moment: (-17.858109, 17.781439, -2.408122) |e|*Ang

Total magnetic moment: (0.000000, 0.000000, 64.009803)
Local magnetic moments:
   0 Fe ( 0.000000,  0.000000,  2.294209)
   1 Cr ( 0.000000,  0.000000,  1.128284)
   2 Ni ( 0.000000,  0.000000,  0.089895)
   3 Cr ( 0.000000,  0.000000, -1.711229)
   4 Al ( 0.000000,  0.000000, -0.007224)
   5 Fe ( 0.000000,  0.000000,  2.069605)
   6 Ni ( 0.000000,  0.000000,  0.065716)
   7 Al ( 0.000000,  0.000000, -0.019305)
   8 Al ( 0.000000,  0.000000, -0.022747)
   9 Co ( 0.000000,  0.000000,  1.639431)
  10 Ni ( 0.000000,  0.000000,  0.334748)
  11 Co ( 0.000000,  0.000000,  1.256874)
  12 Ni ( 0.000000,  0.000000,  0.272903)
  13 Cr ( 0.000000,  0.000000, -0.057400)
  14 Fe ( 0.000000,  0.000000,  0.011472)
  15 Cr ( 0.000000,  0.000000, -0.403183)
  16 Co ( 0.000000,  0.000000,  0.624357)
  17 Cr ( 0.000000,  0.000000, -0.134460)
  18 Co ( 0.000000,  0.000000,  1.202919)
  19 Fe ( 0.000000,  0.000000,  2.015962)
  20 Cr ( 0.000000,  0.000000, -1.810924)
  21 Fe ( 0.000000,  0.000000,  2.439271)
  22 Co ( 0.000000,  0.000000,  1.010844)
  23 Al ( 0.000000,  0.000000, -0.028823)
  24 Ni ( 0.000000,  0.000000,  0.106598)
  25 Cr ( 0.000000,  0.000000,  0.096138)
  26 Cr ( 0.000000,  0.000000,  0.323790)
  27 Al ( 0.000000,  0.000000, -0.017110)
  28 Cr ( 0.000000,  0.000000,  0.255030)
  29 Cr ( 0.000000,  0.000000, -1.793549)
  30 Fe ( 0.000000,  0.000000,  2.296299)
  31 Fe ( 0.000000,  0.000000,  1.698679)
  32 Ni ( 0.000000,  0.000000,  0.298278)
  33 Cr ( 0.000000,  0.000000,  1.790038)
  34 Co ( 0.000000,  0.000000,  0.860020)
  35 Ni ( 0.000000,  0.000000,  0.251590)
  36 Ni ( 0.000000,  0.000000,  0.247220)
  37 Co ( 0.000000,  0.000000,  1.634154)
  38 Co ( 0.000000,  0.000000,  1.358393)
  39 Cr ( 0.000000,  0.000000, -1.802989)
  40 Fe ( 0.000000,  0.000000,  1.796569)
  41 Al ( 0.000000,  0.000000, -0.031881)
  42 Fe ( 0.000000,  0.000000,  1.847951)
  43 Ni ( 0.000000,  0.000000,  0.405432)
  44 Cr ( 0.000000,  0.000000, -1.805355)
  45 Co ( 0.000000,  0.000000,  1.537264)
  46 Co ( 0.000000,  0.000000,  1.359383)
  47 Ni ( 0.000000,  0.000000,  0.450755)
  48 Ni ( 0.000000,  0.000000,  0.154326)
  49 Cr ( 0.000000,  0.000000,  1.190719)
  50 Co ( 0.000000,  0.000000,  0.629921)
  51 Al ( 0.000000,  0.000000, -0.015815)
  52 Al ( 0.000000,  0.000000, -0.036502)
  53 Fe ( 0.000000,  0.000000,  1.596632)
  54 Fe ( 0.000000,  0.000000,  2.095164)
  55 Fe ( 0.000000,  0.000000,  2.081472)
  56 Ni ( 0.000000,  0.000000,  0.597901)
  57 Ni ( 0.000000,  0.000000,  0.116268)
  58 Co ( 0.000000,  0.000000,  1.256642)
  59 Co ( 0.000000,  0.000000,  0.978428)
[...]
  93 Cr ( 0.000000,  0.000000,  1.192896)
  94 Fe ( 0.000000,  0.000000,  2.063696)
  95 Cr ( 0.000000,  0.000000, -1.232155)
  96 Ni ( 0.000000,  0.000000,  0.147693)
  97 Fe ( 0.000000,  0.000000,  2.674635)
  98 Co ( 0.000000,  0.000000,  0.632371)
  99 Ni ( 0.000000,  0.000000,  0.438144)
 100 Cr ( 0.000000,  0.000000,  1.405177)
 101 Al ( 0.000000,  0.000000, -0.007200)
 102 Cr ( 0.000000,  0.000000, -0.943866)
 103 Co ( 0.000000,  0.000000,  0.587749)
 104 Al ( 0.000000,  0.000000, -0.009494)
 105 Ni ( 0.000000,  0.000000,  0.151753)
 106 Co ( 0.000000,  0.000000,  0.905193)
 107 Fe ( 0.000000,  0.000000,  1.774796)

Energy contributions relative to reference atoms: (reference = -3382523.201499)

Kinetic:       +467.750386
Potential:     -427.693724
External:        +0.000000
XC:            -878.783548
Entropy (-ST):   -4.172897
Local:          +33.022774
Free energy:   -809.877009
Extrapolated:  -807.790561

Spin contamination: 22.900855 electrons
Showing only first 2 kpts
                      Up                     Down
 Kpt  Band  Eigenvalues  Occupancy  Eigenvalues  Occupancy
  0   470      9.15519    0.99667     10.11807    0.01929
  0   471      9.16009    0.99650     10.12559    0.01792
  0   472      9.17975    0.99574     10.14389    0.01497
  0   473      9.19330    0.99513     10.14899    0.01423

  1   470      9.15228    0.99676     10.12311    0.01836
  1   471      9.16462    0.99634     10.13088    0.01701
  1   472      9.18499    0.99551     10.14589    0.01468
  1   473      9.20838    0.99434     10.15121    0.01393

Fermi level: 9.72522

No gap

Forces in eV/Ang:
  0 Fe   -1.15365   -0.38628   -1.24132
  1 Cr    0.13840   -0.80339    0.36236
  2 Ni    1.02421    0.66034    0.31424
  3 Cr   -0.18281   -0.92091    0.34263
  4 Al   -1.46473    1.14279   -0.89063
  5 Fe   -0.54090   -0.63968   -0.70760
  6 Ni   -0.01187    0.15569   -1.53224
  7 Al    0.49036   -1.84070   -0.00810
  8 Al   -0.39980    1.73746   -0.25504
  9 Co    0.01767    0.05436    0.09402
 10 Ni   -0.60597   -0.68157    1.32029
 11 Co    0.56484    1.46559   -0.59176
 12 Ni   -1.03619    0.69806    0.84587
 13 Cr   -0.60360   -1.38106    1.57943
 14 Fe    0.31155   -1.22032    1.17194
 15 Cr    0.64543   -0.91680   -0.99597
 16 Co   -0.41371   -1.63502   -0.52018
 17 Cr    1.29138    1.54761    1.06402
 18 Co    0.15523   -0.66780    0.50464
 19 Fe    0.04581    0.14895    1.09497
 20 Cr   -0.22802   -0.49878    0.38284
 21 Fe    0.45476    0.46446    0.27086
 22 Co   -2.08269   -0.65622   -1.29502
 23 Al    1.33365    1.66423    0.61447
 24 Ni   -1.50633    3.14679   -2.43032
 25 Cr   -1.72285    0.32950   -0.35506
 26 Cr    0.11437    0.43005   -0.89520
 27 Al    0.04595    1.21785   -1.09938
 28 Cr    1.08168    0.26996    1.03205
 29 Cr   -0.38719   -1.44031   -2.51637
 30 Fe    0.45924   -0.22806   -1.33799
 31 Fe    0.37380   -1.10958   -0.37591
 32 Ni    0.30545   -0.60322    1.07675
 33 Cr   -0.83107    0.02205    1.09418
 34 Co   -1.99854    1.17205    1.46905
 35 Ni    0.80621   -0.92525   -0.28620
 36 Ni    0.73307   -0.99174    0.22236
 37 Co    0.59071    0.95803   -0.62932
 38 Co    0.13331   -0.21842   -0.82773
 39 Cr   -0.15767   -0.90051    0.01373
 40 Fe   -0.15277    1.16983   -0.83930
 41 Al    1.60602   -0.20299   -0.60513
 42 Fe   -0.83710    0.93155    0.02845
 43 Ni   -0.37240    0.06400   -0.16166
 44 Cr    2.30053    0.97062    0.68993
 45 Co    0.85777   -0.13030    0.78740
 46 Co   -0.94116   -0.03160   -0.67623
 47 Ni   -1.82889    1.20687   -0.10425
 48 Ni    0.65161   -1.74842    0.37877
 49 Cr   -2.38785    1.81121    1.81021
 50 Co   -1.25384    1.02945   -0.78361
 51 Al    0.43412   -0.23222   -2.15605
 52 Al   -0.07729   -1.05383   -0.40514
 53 Fe    0.60398    0.27506    0.65619
 54 Fe   -0.66553   -0.01546    2.38809
 55 Fe    0.30254    0.79235    0.19385
 56 Ni    1.66504   -1.05188   -2.79944
 57 Ni    0.34919    1.88877   -0.35553
 58 Co   -0.04360    0.90521   -1.12276
 59 Co   -0.25865   -0.15216    1.31709
[...]
 93 Cr   -0.74710   -3.02855    1.64848
 94 Fe    0.18476    0.18859    0.05742
 95 Cr   -0.34550    0.27386    0.14243
 96 Ni    3.26737   -0.95646    1.26802
 97 Fe    0.23471   -0.06317    0.71415
 98 Co   -1.22805    1.39420   -0.93444
 99 Ni    0.83072   -0.05252    0.55147
100 Cr   -0.97418   -1.83302   -0.83383
101 Al   -1.01780    2.10598    1.82914
102 Cr    1.01530    0.38948   -1.09901
103 Co   -0.15381   -0.29877    0.96387
104 Al   -2.37282    1.09711   -0.44098
105 Ni   -0.13844   -1.45794    0.87310
106 Co    1.36713    0.26550    0.61345
107 Fe    0.88159    0.57330   -0.93256

Date: Fri Apr 14 04:08:18 2023