User:   c.zeng@d0073
Date:   Sat Apr 15 16:11:25 2023
Arch:   x86_64
Pid:    246051
CWD:    /home/c.zeng/projects/hea-corrosion/hea-mlp/data-curation/bulk-mcmc/dft-jobs/55
Python: 3.8.1
gpaw:   /home/c.zeng/usr/installs/gpaw/source/gpaw-22.8.0/gpaw
_gpaw:  /home/c.zeng/usr/installs/gpaw/source/gpaw-22.8.0/
        _gpaw.cpython-38-x86_64-linux-gnu.so
ase:    /home/c.zeng/.local/lib/python3.8/site-packages/ase-3.22.1-py3.8.egg/ase (version 3.22.1)
numpy:  /shared/centos7/python/3.8.1/lib/python3.8/site-packages/numpy (version 1.17.4)
scipy:  /shared/centos7/python/3.8.1/lib/python3.8/site-packages/scipy (version 1.4.1)
units:  Angstrom and eV
cores: 30
OpenMP: False
OMP_NUM_THREADS: 1

Input parameters:
  convergence: {energy: 0.0001}
  kpts: [2 2 2]
  maxiter: 666
  mode: {ecut: 350.0,
         name: pw}
  occupations: {fixmagmom: False,
                name: fermi-dirac,
                width: 0.1}
  spinpol: True
  xc: PBE

System changes: positions, numbers, cell, pbc, initial_charges, initial_magmoms

Initialize ...

species:
  Cr:
    name: Chromium
    id: 33f258bda2ca9f93018e70263a35547b
    Z: 24.0
    valence: 6
    core: 18
    charge: 0.0
    file: /home/c.zeng/usr/data/gpaw-setups-0.9.20000/Cr.PBE.gz
    compensation charges: {type: gauss,
                           rc: 0.35,
                           lmax: 2}
    cutoffs: {filter: 2.14,
              core: 3.04}
    valence states:
      #              energy  rcut
      - 4s(1.00)    -4.007   1.164
      - 4p(0.00)    -0.989   1.217
      - 3d(5.00)    -2.913   1.111
      -  s          23.205   1.164
      -  p          26.223   1.217
      -  d          24.299   1.111

    # Using partial waves for Cr as LCAO basis

  Ni:
    name: Nickel
    id: 0d9f38a9d6e76a2886f07bb4381f212b
    Z: 28.0
    valence: 16
    core: 12
    charge: 0.0
    file: /home/c.zeng/usr/data/gpaw-setups-0.9.20000/Ni.PBE.gz
    compensation charges: {type: gauss,
                           rc: 0.36,
                           lmax: 2}
    cutoffs: {filter: 2.14,
              core: 1.98}
    valence states:
      #              energy  rcut
      - 4s(2.00)    -5.642   1.164
      - 3p(6.00)   -71.394   1.207
      - 4p(0.00)    -1.226   1.207
      - 3d(8.00)    -8.875   1.138
      -  s          21.570   1.164
      -  d          18.337   1.138

[...]

  Fe:
    name: Iron
    id: 37abbd8d6c3c35915a9b583b742da910
    Z: 26.0
    valence: 8
    core: 18
    charge: 0.0
    file: /home/c.zeng/usr/data/gpaw-setups-0.9.20000/Fe.PBE.gz
    compensation charges: {type: gauss,
                           rc: 0.33,
                           lmax: 2}
    cutoffs: {filter: 2.06,
              core: 2.67}
    valence states:
      #              energy  rcut
      - 4s(2.00)    -5.291   1.164
      - 4p(0.00)    -1.326   1.058
      - 3d(6.00)    -7.505   1.058
      -  s          21.920   1.164
      -  p          25.885   1.058
      -  d          19.706   1.058

[...]

  Co:
    name: Cobalt
    id: 339d20d5b0b93d2de9531a1bee871d91
    Z: 27.0
    valence: 9
    core: 18
    charge: 0.0
    file: /home/c.zeng/usr/data/gpaw-setups-0.9.20000/Co.PBE.gz
    compensation charges: {type: gauss,
                           rc: 0.32,
                           lmax: 2}
    cutoffs: {filter: 1.87,
              core: 2.55}
    valence states:
      #              energy  rcut
      - 4s(2.00)    -5.469   1.005
      - 4p(0.00)    -1.277   1.058
      - 3d(7.00)    -8.205   1.005
      -  s          21.742   1.005
      -  p          25.934   1.058
      -  d          19.007   1.005

[...]

  Al:
    name: Aluminium
    id: 0292cae29f5d6237e50f6abdd43a7bdd
    Z: 13.0
    valence: 3
    core: 10
    charge: 0.0
    file: /home/c.zeng/usr/data/gpaw-setups-0.9.20000/Al.PBE.gz
    compensation charges: {type: gauss,
                           rc: 0.34,
                           lmax: 2}
    cutoffs: {filter: 1.91,
              core: 2.36}
    valence states:
      #              energy  rcut
      - 3s(2.00)    -7.753   1.085
      - 3p(1.00)    -2.712   1.085
      -  s          19.459   1.085
      -  p          24.499   1.085
      -  d           0.000   1.085

    # Using partial waves for Al as LCAO basis

Reference energy: -3699400.456887  # eV

Spin-polarized calculation.
Magnetic moment: 143.500000

Convergence criteria:
 Maximum [total energy] change in last 3 cyles: 0.0001 eV / electron
 Maximum integral of absolute [dens]ity change: 0.0001 electrons / valence electron
 Maximum integral of absolute [eigenst]ate change: 4e-08 eV^2 / valence electron
 Maximum number of scf [iter]ations: 666
 (Square brackets indicate name in SCF output, whereas a 'c' in
 the SCF output indicates the quantity has converged.)

Symmetries present (total): 1

  ( 1  0  0)
  ( 0  1  0)
  ( 0  0  1)

8 k-points: 2 x 2 x 2 Monkhorst-Pack grid
4 k-points in the irreducible part of the Brillouin zone
       k-points in crystal coordinates                weights
   0:     0.25000000   -0.25000000   -0.25000000          2/8
   1:     0.25000000   -0.25000000    0.25000000          2/8
   2:     0.25000000    0.25000000   -0.25000000          2/8
   3:     0.25000000    0.25000000    0.25000000          2/8

Wave functions: Plane wave expansion
  Cutoff energy: 350.000 eV
  Number of coefficients (min, max): 18052, 18052
  Pulay-stress correction: 0.000000 eV/Ang^3 (de/decut=0.000000)
  Using FFTW library
  ScaLapack parameters: grid=1x1, blocksize=None
  Wavefunction extrapolation:
    Improved wavefunction reuse through dual PAW basis

Occupation numbers: Fermi-Dirac:
  width: 0.1000  # eV

Eigensolver
   Davidson(niter=2)

Densities:
  Coarse grid: 48*48*48 grid
  Fine grid: 96*96*96 grid
  Total Charge: 0.000000

Density mixing:
  Method: difference
  Backend: pulay
  Linear mixing parameter: 0.05
  old densities: 5
  Damping of long wavelength oscillations: 50

Hamiltonian:
  XC and Coulomb potentials evaluated on a 96*96*96 grid
  Using the PBE Exchange-Correlation functional
  External potential:
    NoExternalPotential

XC parameters: PBE with 2 nearest neighbor stencil

Total number of cores used: 30
Parallelization over k-points: 2
Domain decomposition: 5 x 3 x 1

Number of atoms: 108
Number of atomic orbitals: 1025
Number of bands in calculation: 703
Number of valence electrons: 1020
Bands to converge: occupied

... initialized

Initializing position-dependent things.

Density initialized from atomic densities
Creating initial wave functions:
  703 bands from LCAO basis set

        Cr------------------------.
       /|  Co                Co   |
      Cr|   Ni         Cr         |
     / Fe      Fe       Al        |
    /   CCo      Ni       Fe      |
   /e   | CoCr     CoAl    NiNi   |
  /  FeCr  NiCo     CrCrCo        |
 *    FeFe  FeCoCr     CoAl       |
 |     CoFeCr  CoFe Ni  CrFeNi    |
 | Fe   NiNiNiCo NiNiCrFe  Ni     |
 |   CoCr  NiAlCr   CrNiCr   Fe   |
 |    FeCr  FeFeCoCr CoFeNi   Ni  |
 |     CrFeFe  Cr CrNi  CoFeFe    |
 |      .-CoNiCo-FeNiCrCo--CoCr---.
 |   NiCo    CoAl   CrCrFe       /
 |    / Ni    NiFe       Ni     /
 |   /            Ni           /
 |Ni/      Co       Co        /
 |/            Cr           /
 *----------------Cr-------*

Positions:
   0 Cr     0.005316   -0.016350   10.639749    ( 0.0000,  0.0000,  0.0000)
   1 Ni    10.672340    1.801276    1.786848    ( 0.0000,  0.0000,  0.0000)
   2 Fe     1.795727   10.625972    1.782259    ( 0.0000,  0.0000,  0.0000)
   3 Cr     1.780787    1.796175   10.644605    ( 0.0000,  0.0000,  2.1000)
   4 Fe     3.523539   -0.014558    0.017268    ( 0.0000,  0.0000,  2.0000)
   5 Co     3.522568    1.781672    1.746648    ( 0.0000,  0.0000,  0.0000)
   6 Co     5.320952   10.642342    1.763136    ( 0.0000,  0.0000,  1.5000)
   7 Cr     5.342082    1.828767    0.007462    ( 0.0000,  0.0000,  2.0000)
   8 Cr     7.144895    0.019195    0.012033    ( 0.0000,  0.0000,  0.0000)
   9 Co     7.143497    1.798064    1.764939    ( 0.0000,  0.0000,  2.1000)
  10 Ni     8.891362   10.651627    1.788353    ( 0.0000,  0.0000,  1.5000)
  11 Co     8.888779    1.804777   10.642609    ( 0.0000,  0.0000,  2.0000)
  12 Fe     0.008694    3.581540   10.650250    ( 0.0000,  0.0000,  2.1000)
  13 Ni     0.018979    5.332745    1.789751    ( 0.0000,  0.0000,  2.1000)
  14 Ni     1.778129    3.600941    1.760019    ( 0.0000,  0.0000,  2.0000)
  15 Co     1.790423    5.343267   -0.017766    ( 0.0000,  0.0000,  2.0000)
  16 Cr     3.542802    3.589864   -0.015614    ( 0.0000,  0.0000,  2.0000)
  17 Co     3.526837    5.358538    1.765793    ( 0.0000,  0.0000,  2.0000)
  18 Fe     5.336650    3.606501    1.755815    ( 0.0000,  0.0000,  0.0000)
  19 Ni     5.300399    5.323642   -0.012797    ( 0.0000,  0.0000,  2.1000)
  20 Al     7.122858    3.584816   10.659524    ( 0.0000,  0.0000,  2.0000)
  21 Cr     7.120500    5.315168    1.805502    ( 0.0000,  0.0000,  1.5000)
  22 Ni     8.892034    3.590952    1.773146    ( 0.0000,  0.0000,  2.1000)
  23 Fe     8.925340    5.301487   -0.003100    ( 0.0000,  0.0000,  0.0000)
  24 Cr     0.023055    7.096680   -0.007939    ( 0.0000,  0.0000,  0.0000)
  25 Cr     0.019141    8.871245    1.787510    ( 0.0000,  0.0000,  1.5000)
  26 Co     1.784372    7.104567    1.776443    ( 0.0000,  0.0000,  2.0000)
  27 Co     1.779944    8.867628   10.659406    ( 0.0000,  0.0000,  1.5000)
  28 Ni     3.547785    7.097897    0.009215    ( 0.0000,  0.0000,  2.1000)
  29 Cr     3.541137    8.858109    1.788225    ( 0.0000,  0.0000,  2.1000)
  30 Ni     5.295105    7.099391    1.787894    ( 0.0000,  0.0000,  2.1000)
  31 Cr     5.303685    8.873828    0.029898    ( 0.0000,  0.0000,  0.0000)
  32 Cr     7.106883    7.088719   10.645159    ( 0.0000,  0.0000,  0.0000)
  33 Co     7.111055    8.901137    1.809472    ( 0.0000,  0.0000,  0.0000)
  34 Co     8.939384    7.093404    1.799238    ( 0.0000,  0.0000,  0.0000)
  35 Co     8.919972    8.915853   10.664881    ( 0.0000,  0.0000,  0.0000)
  36 Ni    10.679704   10.658873    3.584517    ( 0.0000,  0.0000,  2.0000)
  37 Fe    10.670921    1.796367    5.340289    ( 0.0000,  0.0000,  2.1000)
  38 Fe     1.770350   10.649001    5.343491    ( 0.0000,  0.0000,  0.0000)
  39 Co     1.791800    1.784671    3.584891    ( 0.0000,  0.0000,  2.0000)
  40 Ni     3.529718   10.626388    3.565234    ( 0.0000,  0.0000,  2.1000)
  41 Fe     3.535716    1.793465    5.367289    ( 0.0000,  0.0000,  1.5000)
  42 Co     5.311497    0.001574    5.366254    ( 0.0000,  0.0000,  1.5000)
  43 Al     5.332627    1.768055    3.580793    ( 0.0000,  0.0000,  0.0000)
  44 Ni     7.136966   10.673941    3.563804    ( 0.0000,  0.0000,  2.0000)
  45 Ni     7.136774    1.794126    5.358944    ( 0.0000,  0.0000,  2.1000)
  46 Co     8.925938   10.673621    5.347589    ( 0.0000,  0.0000,  2.0000)
  47 Fe     8.883827    1.779111    3.582404    ( 0.0000,  0.0000,  1.5000)
  48 Cr    -0.010038    3.572341    3.580996    ( 0.0000,  0.0000,  2.0000)
  49 Co    10.685573    5.328935    5.338550    ( 0.0000,  0.0000,  2.0000)
  50 Cr     1.784180    3.582949    5.348357    ( 0.0000,  0.0000,  1.5000)
  51 Fe     1.766326    5.339510    3.565255    ( 0.0000,  0.0000,  1.5000)
[...]
                         energy  eigst   dens
iter:   1 16:16:51  -995.848865                  +143.2034
iter:   2 16:19:08  -989.860902  -0.34  -1.27    +104.5097
iter:   3 16:21:25  -909.212851  -0.77  -1.20    +75.1483
iter:   4 16:23:43  -880.297120  -1.40  -1.33    +63.4812
iter:   5 16:26:01  -878.488040  -1.77  -1.44    +56.7570
iter:   6 16:28:19  -877.046027  -1.87  -1.45    +53.8756
iter:   7 16:30:36  -878.333248  -1.59  -1.50    +51.9387
iter:   8 16:32:54  -870.203022  -1.58  -1.52    +50.8240
iter:   9 16:35:13  -870.819581  -1.79  -1.71    +50.2084
iter:  10 16:37:31  -867.374085  -2.27  -1.77    +49.7515
iter:  11 16:39:51  -867.649129  -2.56  -1.87    +50.5032
iter:  12 16:42:03  -867.882540  -2.74  -1.91    +51.4473
iter:  13 16:44:24  -868.347461  -2.65  -1.93    +52.0303
iter:  14 16:46:44  -868.993462  -2.60  -1.98    +52.7472
iter:  15 16:49:04  -870.298118  -2.52  -2.06    +53.3175
iter:  16 16:51:24  -869.353218  -2.62  -2.01    +53.8912
iter:  17 16:53:44  -869.234131  -2.83  -2.11    +54.2652
iter:  18 16:56:03  -869.149881  -3.00  -2.16    +54.7307
iter:  19 16:58:23  -869.193782c -3.09  -2.21    +55.4212
iter:  20 17:00:44  -869.106332c -3.21  -2.26    +55.8854
iter:  21 17:03:04  -869.322324  -3.23  -2.32    +56.5601
iter:  22 17:05:24  -869.461031  -3.18  -2.32    +56.9260
iter:  23 17:07:44  -869.394577  -3.30  -2.33    +57.3561
iter:  24 17:10:04  -869.605284  -3.27  -2.40    +57.9898
iter:  25 17:12:24  -869.546640  -3.42  -2.41    +58.3244
iter:  26 17:14:43  -869.575504c -3.53  -2.44    +58.7937
iter:  27 17:17:03  -869.598966c -3.84  -2.48    +59.1543
iter:  28 17:19:23  -869.692655  -3.87  -2.54    +59.6683
iter:  29 17:21:42  -869.761788  -4.04  -2.54    +60.0251
iter:  30 17:24:02  -869.888860  -3.87  -2.57    +60.5350
iter:  31 17:26:21  -869.919626  -4.00  -2.56    +60.7250
iter:  32 17:28:37  -870.075562  -3.48  -2.64    +61.2152
iter:  33 17:30:54  -870.117787  -3.71  -2.70    +61.2737
iter:  34 17:33:14  -870.139101c -3.80  -2.72    +61.5601
iter:  35 17:35:34  -870.205177c -4.07  -2.84    +61.9131
iter:  36 17:37:54  -870.262438  -4.21  -2.87    +62.1255
iter:  37 17:40:13  -870.370128  -3.93  -2.90    +62.5839
iter:  38 17:42:33  -870.548206  -3.39  -2.85    +63.2742
iter:  39 17:44:53  -870.567561  -4.21  -2.73    +63.1374
iter:  40 17:47:13  -870.606275c -4.18  -2.72    +62.9481
iter:  41 17:49:32  -870.586761c -4.59  -2.68    +62.9323
iter:  42 17:51:51  -870.564279c -4.40  -2.72    +62.8428
iter:  43 17:54:11  -870.614207c -3.76  -2.76    +62.8418
iter:  44 17:56:30  -870.564725c -3.74  -2.62    +62.8433
iter:  45 17:58:49  -870.593591c -3.83  -2.70    +62.7288
iter:  46 18:01:09  -870.518047c -4.28  -2.69    +62.7488
iter:  47 18:03:25  -870.510834c -4.62  -2.82    +62.7814
iter:  48 18:05:41  -870.534942c -4.23  -2.87    +62.7390
iter:  49 18:08:01  -870.517876c -4.34  -2.85    +62.7576
iter:  50 18:10:21  -870.558414c -4.11  -2.97    +62.7831
iter:  51 18:12:41  -870.508596c -4.36  -2.85    +62.7449
iter:  52 18:15:00  -870.514322c -4.73  -3.14    +62.7352
iter:  53 18:17:21  -870.510681c -5.05  -3.13    +62.7571
iter:  54 18:19:40  -870.512262c -5.20  -3.21    +62.7973
iter:  55 18:22:00  -870.513258c -5.38  -3.23    +62.7936
iter:  56 18:24:20  -870.521822c -4.96  -3.31    +62.8171
iter:  57 18:26:40  -870.519615c -5.07  -3.29    +62.8457
iter:  58 18:29:00  -870.522766c -5.08  -3.33    +62.8609
iter:  59 18:31:20  -870.520003c -5.30  -3.33    +62.8618
iter:  60 18:33:40  -870.524925c -5.31  -3.55    +62.8918
iter:  61 18:35:59  -870.522736c -5.66  -3.46    +62.8924
iter:  62 18:38:19  -870.524687c -5.70  -3.57    +62.9094
iter:  63 18:40:38  -870.526995c -5.66  -3.65    +62.9344
iter:  64 18:42:58  -870.529289c -5.57  -3.65    +62.9723
iter:  65 18:45:17  -870.530442c -5.73  -3.68    +62.9862
iter:  66 18:47:37  -870.531790c -5.69  -3.63    +63.0125
iter:  67 18:49:56  -870.535175c -5.64  -3.85    +63.0590
iter:  68 18:52:15  -870.537480c -5.75  -3.85    +63.0864
iter:  69 18:54:34  -870.540470c -5.65  -3.88    +63.1255
iter:  70 18:56:54  -870.542244c -5.91  -3.86    +63.1467
iter:  71 18:59:13  -870.534922c -5.20  -3.83    +63.0457
iter:  72 19:01:29  -870.534183c -6.06  -3.91    +63.0274
iter:  73 19:03:47  -870.537601c -5.77  -3.96    +63.0785
iter:  74 19:06:07  -870.535294c -6.18  -3.91    +63.0344
iter:  75 19:08:27  -870.538174c -6.00  -4.07c   +63.0790
iter:  76 19:10:47  -870.534598c -5.77  -4.07c   +63.0177
iter:  77 19:13:06  -870.529594c -5.34  -3.99    +62.8990
iter:  78 19:15:26  -870.535097c -5.55  -4.10c   +63.0087
iter:  79 19:17:46  -870.533950c -6.65  -4.22c   +62.9767
iter:  80 19:20:06  -870.536688c -5.93  -4.28c   +63.0247
iter:  81 19:22:25  -870.534446c -6.40  -4.28c   +62.9807
iter:  82 19:24:45  -870.526101c -5.00  -4.47c   +62.7954
iter:  83 19:27:04  -870.535871c -5.09  -4.14c   +62.9992
iter:  84 19:29:20  -870.533214c -6.55  -4.41c   +62.9410
iter:  85 19:31:40  -870.533511c -7.20  -4.54c   +62.9335
iter:  86 19:33:59  -870.535227c -6.25  -4.57c   +62.9916
iter:  87 19:36:19  -870.531671c -5.43  -4.51c   +62.8338
iter:  88 19:38:39  -870.530248c -5.20  -4.35c   +62.6893
iter:  89 19:40:59  -870.531007c -4.73  -4.06c   +62.4849
iter:  90 19:43:19  -870.533605c -5.24  -3.78    +62.4844
iter:  91 19:45:39  -870.535500c -5.73  -3.72    +62.5350
iter:  92 19:47:59  -870.551360c -4.36  -3.71    +62.9486
iter:  93 19:50:18  -870.562279c -4.35  -3.55    +63.2466
iter:  94 19:52:38  -870.571825c -4.34  -3.43    +63.5187
iter:  95 19:54:58  -870.570452c -5.08  -3.30    +63.4540
iter:  96 19:57:14  -870.569373c -5.16  -3.28    +63.5194
iter:  97 19:59:31  -870.569772c -5.63  -3.34    +63.5248
iter:  98 20:01:51  -870.569052c -5.07  -3.35    +63.5434
iter:  99 20:04:11  -870.571549c -4.67  -3.26    +63.5409
iter: 100 20:06:31  -870.561922c -5.35  -3.22    +63.4855
iter: 101 20:08:50  -870.563662c -5.51  -3.49    +63.4523
iter: 102 20:11:10  -870.565042c -5.25  -3.44    +63.4325
iter: 103 20:13:30  -870.565767c -5.09  -3.40    +63.4193
iter: 104 20:15:48  -870.562130c -5.48  -3.44    +63.4310
iter: 105 20:18:02  -870.565810c -5.16  -3.66    +63.4198
iter: 106 20:20:22  -870.562512c -5.53  -3.47    +63.4170
iter: 107 20:22:42  -870.562945c -5.73  -3.70    +63.4174
iter: 108 20:25:02  -870.562678c -5.96  -3.71    +63.4295
iter: 109 20:27:21  -870.562674c -6.08  -3.81    +63.4323
iter: 110 20:29:41  -870.563085c -6.05  -3.83    +63.4344
iter: 111 20:32:01  -870.563217c -6.49  -3.90    +63.4429
iter: 112 20:34:21  -870.563851c -6.12  -3.97    +63.4567
iter: 113 20:36:40  -870.563809c -6.27  -3.88    +63.4667
iter: 114 20:39:00  -870.564296c -6.19  -3.96    +63.4743
iter: 115 20:41:20  -870.564592c -6.34  -3.97    +63.4873
iter: 116 20:43:39  -870.564682c -6.43  -4.05c   +63.5016
iter: 117 20:45:59  -870.565039c -6.47  -4.02c   +63.5106
iter: 118 20:48:14  -870.565388c -6.69  -4.12c   +63.5223
iter: 119 20:50:32  -870.565425c -7.30  -4.14c   +63.5239
iter: 120 20:52:52  -870.566181c -6.37  -4.13c   +63.5362
iter: 121 20:55:12  -870.566071c -6.75  -4.06c   +63.5347
iter: 122 20:57:31  -870.566445c -6.40  -4.10c   +63.5555
iter: 123 20:59:51  -870.567018c -6.32  -4.14c   +63.5674
iter: 124 21:02:11  -870.567375c -6.45  -4.11c   +63.5795
iter: 125 21:04:31  -870.567686c -6.69  -4.14c   +63.5903
iter: 126 21:06:50  -870.568092c -6.63  -4.23c   +63.6036
iter: 127 21:09:11  -870.568360c -6.95  -4.24c   +63.6104
iter: 128 21:11:30  -870.562029c -4.61  -4.23c   +63.4204
iter: 129 21:13:50  -870.561178c -5.36  -4.17c   +63.3821
iter: 130 21:16:08  -870.561451c -6.27  -4.09c   +63.3961
iter: 131 21:18:28  -870.561605c -6.50  -4.14c   +63.3975
iter: 132 21:20:48  -870.561738c -6.59  -4.08c   +63.4088
iter: 133 21:23:07  -870.561701c -6.22  -4.15c   +63.4187
iter: 134 21:25:27  -870.561762c -6.67  -4.12c   +63.4144
iter: 135 21:27:46  -870.562162c -6.66  -4.24c   +63.4356
iter: 136 21:30:04  -870.561800c -7.26  -4.28c   +63.4260
iter: 137 21:32:22  -870.561313c -6.42  -4.43c   +63.4098
iter: 138 21:34:41  -870.562104c -6.33  -4.26c   +63.4424
iter: 139 21:37:02  -870.562236c -6.95  -4.48c   +63.4522
iter: 140 21:39:22  -870.562653c -6.54  -4.44c   +63.4679
iter: 141 21:41:41  -870.562601c -7.02  -4.32c   +63.4692
iter: 142 21:44:01  -870.563069c -6.74  -4.49c   +63.4874
iter: 143 21:46:20  -870.562497c -6.84  -4.53c   +63.4633
iter: 144 21:48:40  -870.558910c -4.97  -4.69c   +63.2762
iter: 145 21:51:00  -870.559178c -6.25  -4.15c   +63.2911
iter: 146 21:53:19  -870.559733c -6.40  -4.18c   +63.3261
iter: 147 21:55:39  -870.560131c -6.49  -4.24c   +63.3486
iter: 148 21:57:58  -870.559412c -6.27  -4.29c   +63.3071
iter: 149 22:00:17  -870.560085c -6.39  -4.21c   +63.3292
iter: 150 22:02:33  -870.559326c -6.45  -4.08c   +63.3007
iter: 151 22:04:53  -870.559182c -7.08  -4.14c   +63.3054
iter: 152 22:07:13  -870.559515c -7.02  -4.27c   +63.3243
iter: 153 22:09:33  -870.559530c -6.54  -4.33c   +63.3341
iter: 154 22:11:52  -870.559752c -6.85  -4.24c   +63.3431
iter: 155 22:14:13  -870.560050c -6.69  -4.30c   +63.3707
iter: 156 22:16:32  -870.560151c -7.21  -4.54c   +63.3703
iter: 157 22:18:52  -870.560385c -6.95  -4.52c   +63.3853
iter: 158 22:21:11  -870.560969c -6.41  -4.55c   +63.4163
iter: 159 22:23:31  -870.560367c -6.54  -4.64c   +63.3805
iter: 160 22:25:49  -870.559051c -5.68  -4.59c   +63.3014
iter: 161 22:28:04  -870.559121c -7.01  -4.38c   +63.3021
iter: 162 22:30:24  -870.559227c -7.59c -4.39c   +63.3108

Converged after 162 iterations.

Dipole moment: (-10.602727, 7.547748, 8.781147) |e|*Ang

Total magnetic moment: (0.000000, 0.000000, 63.310774)
Local magnetic moments:
   0 Cr ( 0.000000,  0.000000, -0.898129)
   1 Ni ( 0.000000,  0.000000,  0.268821)
   2 Fe ( 0.000000,  0.000000,  2.149031)
   3 Cr ( 0.000000,  0.000000, -0.851913)
   4 Fe ( 0.000000,  0.000000,  1.790868)
   5 Co ( 0.000000,  0.000000,  1.044656)
   6 Co ( 0.000000,  0.000000,  0.385378)
   7 Cr ( 0.000000,  0.000000, -0.446304)
   8 Cr ( 0.000000,  0.000000, -1.114017)
   9 Co ( 0.000000,  0.000000,  0.890603)
  10 Ni ( 0.000000,  0.000000,  0.211354)
  11 Co ( 0.000000,  0.000000,  0.935434)
  12 Fe ( 0.000000,  0.000000,  2.384878)
  13 Ni ( 0.000000,  0.000000,  0.362001)
  14 Ni ( 0.000000,  0.000000,  0.306037)
  15 Co ( 0.000000,  0.000000,  1.303248)
  16 Cr ( 0.000000,  0.000000, -1.035272)
  17 Co ( 0.000000,  0.000000,  1.166673)
  18 Fe ( 0.000000,  0.000000,  1.860321)
  19 Ni ( 0.000000,  0.000000,  0.165830)
  20 Al ( 0.000000,  0.000000, -0.015912)
  21 Cr ( 0.000000,  0.000000, -1.051126)
  22 Ni ( 0.000000,  0.000000,  0.151568)
  23 Fe ( 0.000000,  0.000000,  1.850651)
  24 Cr ( 0.000000,  0.000000, -1.598893)
  25 Cr ( 0.000000,  0.000000, -1.371660)
  26 Co ( 0.000000,  0.000000,  1.057123)
  27 Co ( 0.000000,  0.000000,  0.946036)
  28 Ni ( 0.000000,  0.000000,  0.341142)
  29 Cr ( 0.000000,  0.000000, -1.066733)
  30 Ni ( 0.000000,  0.000000,  0.119851)
  31 Cr ( 0.000000,  0.000000, -0.025699)
  32 Cr ( 0.000000,  0.000000, -0.394140)
  33 Co ( 0.000000,  0.000000,  0.997686)
  34 Co ( 0.000000,  0.000000,  0.828722)
  35 Co ( 0.000000,  0.000000,  0.642615)
  36 Ni ( 0.000000,  0.000000,  0.442873)
  37 Fe ( 0.000000,  0.000000,  2.046595)
  38 Fe ( 0.000000,  0.000000,  2.315355)
  39 Co ( 0.000000,  0.000000,  1.324236)
  40 Ni ( 0.000000,  0.000000,  0.284124)
  41 Fe ( 0.000000,  0.000000,  1.921844)
  42 Co ( 0.000000,  0.000000,  0.398749)
  43 Al ( 0.000000,  0.000000, -0.021627)
  44 Ni ( 0.000000,  0.000000,  0.325428)
  45 Ni ( 0.000000,  0.000000,  0.064329)
  46 Co ( 0.000000,  0.000000,  1.167313)
  47 Fe ( 0.000000,  0.000000,  2.442937)
  48 Cr ( 0.000000,  0.000000, -1.915949)
  49 Co ( 0.000000,  0.000000,  1.126885)
  50 Cr ( 0.000000,  0.000000, -1.625264)
  51 Fe ( 0.000000,  0.000000,  2.210910)
  52 Ni ( 0.000000,  0.000000,  0.207551)
  53 Al ( 0.000000,  0.000000, -0.037682)
  54 Co ( 0.000000,  0.000000,  0.420258)
  55 Cr ( 0.000000,  0.000000,  0.736451)
  56 Cr ( 0.000000,  0.000000, -1.569485)
  57 Ni ( 0.000000,  0.000000,  0.272812)
  58 Ni ( 0.000000,  0.000000,  0.223787)
  59 Fe ( 0.000000,  0.000000,  2.193983)
[...]
  93 Cr ( 0.000000,  0.000000, -0.341796)
  94 Al ( 0.000000,  0.000000, -0.034263)
  95 Fe ( 0.000000,  0.000000,  2.074246)
  96 Fe ( 0.000000,  0.000000,  2.481617)
  97 Fe ( 0.000000,  0.000000,  2.284057)
  98 Co ( 0.000000,  0.000000,  1.372255)
  99 Ni ( 0.000000,  0.000000,  0.639740)
 100 Co ( 0.000000,  0.000000,  1.386840)
 101 Fe ( 0.000000,  0.000000,  2.236655)
 102 Co ( 0.000000,  0.000000,  0.767275)
 103 Cr ( 0.000000,  0.000000, -1.599007)
 104 Co ( 0.000000,  0.000000,  1.149191)
 105 Al ( 0.000000,  0.000000, -0.011184)
 106 Ni ( 0.000000,  0.000000,  0.230561)
 107 Ni ( 0.000000,  0.000000,  0.401386)

Energy contributions relative to reference atoms: (reference = -3699400.456887)

Kinetic:       +142.650966
Potential:     -193.160607
External:        +0.000000
XC:            -855.602760
Entropy (-ST):   -4.465202
Local:          +37.785775
Free energy:   -872.791828
Extrapolated:  -870.559227

Spin contamination: 27.603367 electrons
Showing only first 2 kpts
                      Up                     Down
 Kpt  Band  Eigenvalues  Occupancy  Eigenvalues  Occupancy
  0   508      9.64802    0.99383     10.54225    0.02062
  0   509      9.65708    0.99325     10.54711    0.01966
  0   510      9.67561    0.99188     10.55716    0.01781
  0   511      9.68162    0.99139     10.56710    0.01615

  1   508      9.63993    0.99431     10.52757    0.02380
  1   509      9.65743    0.99322     10.53640    0.02183
  1   510      9.66468    0.99272     10.55816    0.01764
  1   511      9.67548    0.99189     10.57158    0.01546

Fermi level: 10.15618

No gap

Forces in eV/Ang:
  0 Cr   -0.25181    0.26818    0.02751
  1 Ni   -0.01874   -0.24854   -0.11136
  2 Fe   -0.22049    0.25979    0.20220
  3 Cr    0.38884   -0.07437    0.18371
  4 Fe    0.44018    0.46739   -0.05973
  5 Co   -0.08191   -0.02457   -0.02657
  6 Co    0.08859   -0.06051   -0.23112
  7 Cr   -0.95750   -1.10136    0.11854
  8 Cr   -0.16207    0.33875    0.46555
  9 Co   -0.07639   -0.05171   -0.11913
 10 Ni    0.18842    0.28137   -0.26183
 11 Co    0.31317   -0.71976    0.78838
 12 Fe    0.51409   -0.31653    0.72119
 13 Ni   -0.12023    0.11728   -0.17616
 14 Ni    0.02925   -0.39192    0.14533
 15 Co   -0.08062    0.14163    0.03527
 16 Cr   -0.25334   -0.16158    0.20105
 17 Co    0.16860   -0.26771    0.26452
 18 Fe   -0.26258   -0.31485    0.07185
 19 Ni    0.27523    0.33735    0.11689
 20 Al   -0.05450   -0.53254    0.76118
 21 Cr   -0.27849    1.15361    0.17115
 22 Ni    0.23376   -0.42158    0.11828
 23 Fe   -0.21501    1.06585    0.12719
 24 Cr   -0.32871   -0.03304   -0.08712
 25 Cr   -0.02711    0.05582   -0.07812
 26 Co   -0.16363    0.11355   -0.22192
 27 Co   -0.17219    0.00383    0.29450
 28 Ni   -0.00886    0.09059   -0.25598
 29 Cr   -0.11343    0.22714   -0.25003
 30 Ni    0.42240    0.04749    0.00717
 31 Cr    0.02309    0.17045    0.10391
 32 Cr    0.31156   -0.22494    1.05070
 33 Co   -0.05178   -0.31250   -0.46935
 34 Co   -0.24444    0.18788   -0.44548
 35 Co    0.02350   -0.46530    0.43317
 36 Ni    0.16236    0.07401   -0.18782
 37 Fe    0.22090    0.06444   -0.01014
 38 Fe    0.01131   -0.10020   -0.36349
 39 Co   -0.11222    0.04757   -0.15294
 40 Ni    0.22196    0.28360    0.06314
 41 Fe   -0.30149    0.15553    0.20674
 42 Co   -0.00742   -0.59692    0.10867
 43 Al   -0.35322   -0.38751   -0.25492
 44 Ni   -0.18442   -0.27251    0.01634
 45 Ni   -0.12640   -0.10818    0.12527
 46 Co   -0.01081   -0.11155    0.04472
 47 Fe    0.13289   -0.08011   -0.29171
 48 Cr   -0.23734   -0.20869   -0.46900
 49 Co   -0.03713   -0.22758    0.06690
 50 Cr   -0.57945   -0.51690   -0.01398
 51 Fe   -0.13261   -0.05028   -0.28607
 52 Ni    0.24370   -0.34460   -0.38151
 53 Al    0.30559    0.15901    0.11854
 54 Co    0.44172   -0.23498   -0.17952
 55 Cr    0.52321   -0.28024   -0.61172
 56 Cr    0.24808    0.55727    0.13502
 57 Ni   -0.11521   -0.01283   -0.00696
 58 Ni    0.12678    0.06275    0.10996
 59 Fe   -0.19623   -0.12276   -0.13999
[...]
 93 Cr   -0.41692    1.42623   -0.30487
 94 Al    0.76003   -0.33793   -0.06541
 95 Fe   -0.16742    0.13322   -0.18543
 96 Fe   -0.00555    0.11752   -0.27506
 97 Fe    0.19439   -0.05755    0.42961
 98 Co    0.14072    0.01079    0.20587
 99 Ni   -0.03632    0.10542   -0.03737
100 Co    0.03364    0.42007    0.31659
101 Fe    0.26944    0.37481   -0.16743
102 Co    0.10783   -0.17922    0.17709
103 Cr   -0.64780    0.37076   -0.29939
104 Co   -0.24569   -0.07564   -0.37741
105 Al    0.12670   -0.61850    0.21739
106 Ni   -0.18770   -0.25442    0.51776
107 Ni   -0.18441    0.04796   -0.46355

Date: Sat Apr 15 22:30:48 2023