User:   c.zeng@d0026
Date:   Sat Apr 15 08:49:47 2023
Arch:   x86_64
Pid:    70938
CWD:    /home/c.zeng/projects/hea-corrosion/hea-mlp/data-curation/bulk-mcmc/dft-jobs/241
Python: 3.8.1
gpaw:   /home/c.zeng/usr/installs/gpaw/source/gpaw-22.8.0/gpaw
_gpaw:  /home/c.zeng/usr/installs/gpaw/source/gpaw-22.8.0/
        _gpaw.cpython-38-x86_64-linux-gnu.so
ase:    /home/c.zeng/.local/lib/python3.8/site-packages/ase-3.22.1-py3.8.egg/ase (version 3.22.1)
numpy:  /shared/centos7/python/3.8.1/lib/python3.8/site-packages/numpy (version 1.17.4)
scipy:  /shared/centos7/python/3.8.1/lib/python3.8/site-packages/scipy (version 1.4.1)
units:  Angstrom and eV
cores: 30
OpenMP: False
OMP_NUM_THREADS: 1

Input parameters:
  convergence: {energy: 0.0001}
  kpts: [2 2 2]
  maxiter: 666
  mode: {ecut: 350.0,
         name: pw}
  occupations: {fixmagmom: False,
                name: fermi-dirac,
                width: 0.1}
  spinpol: True
  xc: PBE

System changes: positions, numbers, cell, pbc, initial_charges, initial_magmoms

Initialize ...

species:
  Cr:
    name: Chromium
    id: 33f258bda2ca9f93018e70263a35547b
    Z: 24.0
    valence: 6
    core: 18
    charge: 0.0
    file: /home/c.zeng/usr/data/gpaw-setups-0.9.20000/Cr.PBE.gz
    compensation charges: {type: gauss,
                           rc: 0.35,
                           lmax: 2}
    cutoffs: {filter: 2.14,
              core: 3.04}
    valence states:
      #              energy  rcut
      - 4s(1.00)    -4.007   1.164
      - 4p(0.00)    -0.989   1.217
      - 3d(5.00)    -2.913   1.111
      -  s          23.205   1.164
      -  p          26.223   1.217
      -  d          24.299   1.111

    # Using partial waves for Cr as LCAO basis

  Al:
    name: Aluminium
    id: 0292cae29f5d6237e50f6abdd43a7bdd
    Z: 13.0
    valence: 3
    core: 10
    charge: 0.0
    file: /home/c.zeng/usr/data/gpaw-setups-0.9.20000/Al.PBE.gz
    compensation charges: {type: gauss,
                           rc: 0.34,
                           lmax: 2}
    cutoffs: {filter: 1.91,
              core: 2.36}
    valence states:
      #              energy  rcut
      - 3s(2.00)    -7.753   1.085
      - 3p(1.00)    -2.712   1.085
      -  s          19.459   1.085
      -  p          24.499   1.085
      -  d           0.000   1.085

[...]

  Ni:
    name: Nickel
    id: 0d9f38a9d6e76a2886f07bb4381f212b
    Z: 28.0
    valence: 16
    core: 12
    charge: 0.0
    file: /home/c.zeng/usr/data/gpaw-setups-0.9.20000/Ni.PBE.gz
    compensation charges: {type: gauss,
                           rc: 0.36,
                           lmax: 2}
    cutoffs: {filter: 2.14,
              core: 1.98}
    valence states:
      #              energy  rcut
      - 4s(2.00)    -5.642   1.164
      - 3p(6.00)   -71.394   1.207
      - 4p(0.00)    -1.226   1.207
      - 3d(8.00)    -8.875   1.138
      -  s          21.570   1.164
      -  d          18.337   1.138

[...]

  Co:
    name: Cobalt
    id: 339d20d5b0b93d2de9531a1bee871d91
    Z: 27.0
    valence: 9
    core: 18
    charge: 0.0
    file: /home/c.zeng/usr/data/gpaw-setups-0.9.20000/Co.PBE.gz
    compensation charges: {type: gauss,
                           rc: 0.32,
                           lmax: 2}
    cutoffs: {filter: 1.87,
              core: 2.55}
    valence states:
      #              energy  rcut
      - 4s(2.00)    -5.469   1.005
      - 4p(0.00)    -1.277   1.058
      - 3d(7.00)    -8.205   1.005
      -  s          21.742   1.005
      -  p          25.934   1.058
      -  d          19.007   1.005

[...]

  Fe:
    name: Iron
    id: 37abbd8d6c3c35915a9b583b742da910
    Z: 26.0
    valence: 8
    core: 18
    charge: 0.0
    file: /home/c.zeng/usr/data/gpaw-setups-0.9.20000/Fe.PBE.gz
    compensation charges: {type: gauss,
                           rc: 0.33,
                           lmax: 2}
    cutoffs: {filter: 2.06,
              core: 2.67}
    valence states:
      #              energy  rcut
      - 4s(2.00)    -5.291   1.164
      - 4p(0.00)    -1.326   1.058
      - 3d(6.00)    -7.505   1.058
      -  s          21.920   1.164
      -  p          25.885   1.058
      -  d          19.706   1.058

    # Using partial waves for Fe as LCAO basis

Reference energy: -3235165.067515  # eV

Spin-polarized calculation.
Magnetic moment: 121.100000

Convergence criteria:
 Maximum [total energy] change in last 3 cyles: 0.0001 eV / electron
 Maximum integral of absolute [dens]ity change: 0.0001 electrons / valence electron
 Maximum integral of absolute [eigenst]ate change: 4e-08 eV^2 / valence electron
 Maximum number of scf [iter]ations: 666
 (Square brackets indicate name in SCF output, whereas a 'c' in
 the SCF output indicates the quantity has converged.)

Symmetries present (total): 1

  ( 1  0  0)
  ( 0  1  0)
  ( 0  0  1)

8 k-points: 2 x 2 x 2 Monkhorst-Pack grid
4 k-points in the irreducible part of the Brillouin zone
       k-points in crystal coordinates                weights
   0:     0.25000000   -0.25000000   -0.25000000          2/8
   1:     0.25000000   -0.25000000    0.25000000          2/8
   2:     0.25000000    0.25000000   -0.25000000          2/8
   3:     0.25000000    0.25000000    0.25000000          2/8

Wave functions: Plane wave expansion
  Cutoff energy: 350.000 eV
  Number of coefficients (min, max): 19084, 19084
  Pulay-stress correction: 0.000000 eV/Ang^3 (de/decut=0.000000)
  Using FFTW library
  ScaLapack parameters: grid=1x1, blocksize=None
  Wavefunction extrapolation:
    Improved wavefunction reuse through dual PAW basis

Occupation numbers: Fermi-Dirac:
  width: 0.1000  # eV

Eigensolver
   Davidson(niter=2)

Densities:
  Coarse grid: 48*48*48 grid
  Fine grid: 96*96*96 grid
  Total Charge: 0.000000

Density mixing:
  Method: difference
  Backend: pulay
  Linear mixing parameter: 0.05
  old densities: 5
  Damping of long wavelength oscillations: 50

Hamiltonian:
  XC and Coulomb potentials evaluated on a 96*96*96 grid
  Using the PBE Exchange-Correlation functional
  External potential:
    NoExternalPotential

XC parameters: PBE with 2 nearest neighbor stencil

Total number of cores used: 30
Parallelization over k-points: 2
Domain decomposition: 5 x 3 x 1

Number of atoms: 108
Number of atomic orbitals: 933
Number of bands in calculation: 624
Number of valence electrons: 912
Bands to converge: occupied

... initialized

Initializing position-dependent things.

Density initialized from atomic densities
Creating initial wave functions:
  624 bands from LCAO basis set

        .--------Al----------------.
       /|           Fe             |
      / |    FeFe     Ni           |
     / Ni       Ni       Al        |
    /   |Fe      NiCo       Fe     |
   /    | NiCr      ACo            |
  /    Co  FeiAlAl    Co Fe  CoAl  |
 *      Fe     AlCoAl   NiFe     Cr|
 |      |FeNi   NiFeFe   AlNiCr   Co
 |      | CoCr   AlCoCoAl CrCrFe   |
 |     Fe  Al CoCo  CrCr Cr  NiNi  |
 |      Cr  Ni CrNiCo CoNiCoAl   Fe|
 |      |CrCo   CoAlAl   CoNiFe   Fe
 |      .-FeCr-----CrNi-Al--CrFe---.
 |     Al  Cr CoNi    Al Co  Ni Ni/
 |    / Co              Cr       Cr
 |   /           Alr      CrFe  /
 |  /      Cr       Fe     NiAl/
 | /                   Fe     /i
 *--------------------------Cr

Positions:
   0 Cr    10.797848    0.093654    0.085777    ( 0.0000,  0.0000,  0.0000)
   1 Al    10.831824    1.844742    1.870716    ( 0.0000,  0.0000,  2.0000)
   2 Ni     1.786803   10.847372    1.827335    ( 0.0000,  0.0000,  0.0000)
   3 Co     1.769614    1.870531   -0.031264    ( 0.0000,  0.0000,  0.0000)
   4 Al     3.620857   10.822050   10.833629    ( 0.0000,  0.0000,  1.5000)
   5 Cr     3.571246    1.883176    1.708402    ( 0.0000,  0.0000,  0.0000)
   6 Co     5.521103   10.788063    1.666217    ( 0.0000,  0.0000,  0.0000)
   7 Al     5.520831    1.813973   10.830911    ( 0.0000,  0.0000,  1.5000)
   8 Al     7.330846    0.011025   10.815657    ( 0.0000,  0.0000,  2.0000)
   9 Fe     7.282018    1.809483    1.793250    ( 0.0000,  0.0000,  2.1000)
  10 Fe     9.029996    0.022005    1.811918    ( 0.0000,  0.0000,  1.5000)
  11 Fe     9.007196    1.868639   10.825714    ( 0.0000,  0.0000,  2.0000)
  12 Ni    10.861310    3.649723    0.014171    ( 0.0000,  0.0000,  2.0000)
  13 Ni    10.867442    5.463468    1.819235    ( 0.0000,  0.0000,  2.1000)
  14 Co     1.756088    3.650267    1.845949    ( 0.0000,  0.0000,  0.0000)
  15 Fe     1.790358    5.439092   10.869084    ( 0.0000,  0.0000,  2.1000)
  16 Cr     3.687842    3.622792   -0.049287    ( 0.0000,  0.0000,  2.0000)
  17 Co     3.667347    5.391145    1.745368    ( 0.0000,  0.0000,  0.0000)
  18 Al     5.497977    3.634415    1.792370    ( 0.0000,  0.0000,  2.0000)
  19 Cr     5.524908    5.448029    0.002551    ( 0.0000,  0.0000,  2.0000)
  20 Co     7.223340    3.611877   10.834270    ( 0.0000,  0.0000,  0.0000)
  21 Al     7.217762    5.474830    1.807776    ( 0.0000,  0.0000,  2.1000)
  22 Cr     9.073442    3.654344    1.775148    ( 0.0000,  0.0000,  0.0000)
  23 Ni     9.008740    5.418608    0.007692    ( 0.0000,  0.0000,  2.0000)
  24 Cr    10.859190    7.178720    0.014480    ( 0.0000,  0.0000,  1.5000)
  25 Fe    -0.018106    8.970948    1.875391    ( 0.0000,  0.0000,  0.0000)
  26 Fe     1.817615    7.224025    1.802546    ( 0.0000,  0.0000,  1.5000)
  27 Cr     1.880729    8.993464   10.874031    ( 0.0000,  0.0000,  0.0000)
  28 Fe     3.684428    7.260447   -0.001356    ( 0.0000,  0.0000,  2.0000)
  29 Co     3.612616    9.025636    1.761807    ( 0.0000,  0.0000,  1.5000)
  30 Cr     5.481440    7.275114    1.811211    ( 0.0000,  0.0000,  1.5000)
  31 Fe     5.461261    9.048153   10.833988    ( 0.0000,  0.0000,  1.5000)
  32 Cr     7.245704    7.257881    0.056891    ( 0.0000,  0.0000,  2.1000)
  33 Co     7.301969    9.004609    1.790315    ( 0.0000,  0.0000,  0.0000)
  34 Cr     9.029343    7.181775    1.815549    ( 0.0000,  0.0000,  2.0000)
  35 Ni     9.030561    9.042010    0.020232    ( 0.0000,  0.0000,  1.5000)
  36 Fe    -0.031046    0.001947    3.645701    ( 0.0000,  0.0000,  2.0000)
  37 Fe    10.825910    1.804351    5.434602    ( 0.0000,  0.0000,  2.1000)
  38 Ni     1.743552   10.849296    5.484376    ( 0.0000,  0.0000,  0.0000)
  39 Al     1.769755    1.791891    3.636068    ( 0.0000,  0.0000,  1.5000)
  40 Al     3.516667   10.719828    3.663227    ( 0.0000,  0.0000,  0.0000)
  41 Co     3.644244    1.785205    5.586728    ( 0.0000,  0.0000,  0.0000)
  42 Al     5.484778   10.815439    5.504022    ( 0.0000,  0.0000,  0.0000)
  43 Ni     5.457934    1.842230    3.658769    ( 0.0000,  0.0000,  0.0000)
  44 Cr     7.360615   10.815439    3.672229    ( 0.0000,  0.0000,  0.0000)
  45 Al     7.266884    1.811614    5.485528    ( 0.0000,  0.0000,  2.1000)
  46 Al     9.077986    0.023590    5.491921    ( 0.0000,  0.0000,  0.0000)
  47 Co     9.066788    1.824226    3.671175    ( 0.0000,  0.0000,  1.5000)
  48 Fe    -0.047135    3.649615    3.617291    ( 0.0000,  0.0000,  2.0000)
  49 Ni    10.809264    5.435993    5.379805    ( 0.0000,  0.0000,  2.0000)
  50 Cr     1.752316    3.624989    5.344676    ( 0.0000,  0.0000,  0.0000)
  51 Cr     1.805786    5.472046    3.619389    ( 0.0000,  0.0000,  2.1000)
  52 Cr     3.649408    3.633491    3.631251    ( 0.0000,  0.0000,  2.1000)
  53 Co     3.657628    5.433797    5.434015    ( 0.0000,  0.0000,  1.5000)
  54 Ni     5.413368    3.672642    5.480309    ( 0.0000,  0.0000,  1.5000)
  55 Al     5.413835    5.465588    3.639666    ( 0.0000,  0.0000,  2.1000)
  56 Ni     7.223449    3.731734    3.720829    ( 0.0000,  0.0000,  0.0000)
  57 Cr     7.220557    5.483180    5.485572    ( 0.0000,  0.0000,  0.0000)
  58 Co     9.069039    3.623673    5.469720    ( 0.0000,  0.0000,  1.5000)
  59 Ni     9.064766    5.503837    3.636731    ( 0.0000,  0.0000,  0.0000)
[...]
  93 Co     7.214631    5.385893    9.048577    ( 0.0000,  0.0000,  2.1000)
  94 Fe     8.994291    3.655975    9.039237    ( 0.0000,  0.0000,  1.5000)
  95 Ni     9.006577    5.423262    7.223296    ( 0.0000,  0.0000,  2.0000)
  96 Cr    -0.070637    7.291956    7.110419    ( 0.0000,  0.0000,  0.0000)
  97 Ni     0.073012    9.104570    9.068375    ( 0.0000,  0.0000,  0.0000)
  98 Ni     1.863247    7.257381    9.054785    ( 0.0000,  0.0000,  2.0000)
  99 Fe     1.858343    9.053708    7.225808    ( 0.0000,  0.0000,  2.1000)
 100 Al     3.683906    7.292456    7.235550    ( 0.0000,  0.0000,  2.0000)
 101 Ni     3.628218    9.069550    9.051262    ( 0.0000,  0.0000,  2.1000)
 102 Co     5.530605    7.331890    9.040129    ( 0.0000,  0.0000,  0.0000)
 103 Al     5.476232    9.097209    7.250467    ( 0.0000,  0.0000,  2.0000)
 104 Ni     7.256827    7.264242    7.208456    ( 0.0000,  0.0000,  2.1000)
 105 Al     7.272548    9.136437    9.056861    ( 0.0000,  0.0000,  1.5000)
 106 Fe     8.936493    7.190875    9.109767    ( 0.0000,  0.0000,  0.0000)
 107 Co     8.994682    9.112169    7.218480    ( 0.0000,  0.0000,  0.0000)

Unit cell:
           periodic     x           y           z      points  spacing
  1. axis:    yes   10.872400    0.000000    0.000000    48     0.2265
  2. axis:    yes    0.000000   10.872400    0.000000    48     0.2265
  3. axis:    yes    0.000000    0.000000   10.872400    48     0.2265

  Lengths:  10.872400  10.872400  10.872400
  Angles:   90.000000  90.000000  90.000000

Effective grid spacing dv^(1/3) = 0.2265

     iter     time        total  log10-change:  magmom
                         energy  eigst   dens
iter:   1 08:54:16  -930.315644                  +120.1256
iter:   2 08:56:23  -855.008375  -0.29  -1.24    +81.4989
iter:   3 08:58:30  -844.956248  -0.70  -1.25    +47.3898
iter:   4 09:00:38  -817.163207  -1.12  -1.27    +43.0688
iter:   5 09:02:46  -808.679529  -1.69  -1.36    +39.8950
iter:   6 09:04:53  -811.771833  -1.73  -1.42    +39.1558
iter:   7 09:07:01  -806.617994  -1.56  -1.44    +38.2412
iter:   8 09:09:08  -802.711071  -1.73  -1.51    +38.1500
iter:   9 09:11:15  -807.504455  -1.80  -1.64    +39.2100
iter:  10 09:13:23  -802.009416  -2.01  -1.63    +39.4089
iter:  11 09:15:30  -802.164857  -2.45  -1.79    +40.6183
iter:  12 09:17:37  -802.838635  -2.53  -1.84    +42.0063
iter:  13 09:19:44  -802.749675  -2.58  -1.85    +42.8240
iter:  14 09:21:51  -803.808951  -2.54  -1.93    +43.9281
iter:  15 09:23:59  -803.698114  -2.58  -1.97    +44.4072
iter:  16 09:26:05  -803.948908  -2.66  -2.00    +45.5496
iter:  17 09:28:12  -803.611913  -2.91  -2.04    +45.9512
iter:  18 09:30:19  -803.889375  -3.05  -2.14    +47.0292
iter:  19 09:32:27  -804.033849  -3.14  -2.19    +47.5710
iter:  20 09:34:33  -804.438436  -3.05  -2.25    +48.4122
iter:  21 09:36:41  -804.559241  -3.04  -2.25    +48.7953
iter:  22 09:38:48  -804.534070  -3.26  -2.31    +49.2105
iter:  23 09:40:55  -804.745602  -3.25  -2.40    +49.3392
iter:  24 09:43:02  -804.807038  -3.58  -2.40    +49.7466
iter:  25 09:45:09  -805.018243  -3.36  -2.45    +49.9979
iter:  26 09:47:15  -805.120688  -3.48  -2.44    +50.0900
iter:  27 09:49:23  -805.331954  -3.28  -2.45    +50.1123
iter:  28 09:51:30  -805.590044  -3.39  -2.39    +49.9956
iter:  29 09:53:37  -805.376544  -3.56  -2.31    +50.0623
iter:  30 09:55:43  -805.376548  -3.90  -2.41    +49.9961
iter:  31 09:57:50  -805.497870  -3.79  -2.41    +49.8679
iter:  32 09:59:57  -805.447174  -3.39  -2.36    +49.8687
iter:  33 10:02:04  -805.450266c -3.71  -2.38    +49.8394
iter:  34 10:04:12  -805.369949c -3.87  -2.38    +49.7483
iter:  35 10:06:19  -805.362271c -4.04  -2.44    +49.5747
iter:  36 10:08:26  -805.300958c -3.67  -2.46    +49.4801
iter:  37 10:10:33  -805.271816c -4.16  -2.56    +49.3039
iter:  38 10:12:40  -805.288214c -4.30  -2.61    +48.9927
iter:  39 10:14:47  -805.315014c -4.17  -2.64    +48.7184
iter:  40 10:16:54  -805.317925c -4.23  -2.65    +48.6118
iter:  41 10:19:01  -805.315789c -4.24  -2.67    +48.4436
iter:  42 10:21:07  -805.317695c -4.25  -2.73    +48.3480
iter:  43 10:23:14  -805.325247c -4.39  -2.81    +48.2690
iter:  44 10:25:20  -805.327107c -4.58  -2.85    +48.1828
iter:  45 10:27:27  -805.338522c -4.59  -2.88    +48.0861
iter:  46 10:29:33  -805.336981c -4.74  -2.88    +48.0680
iter:  47 10:31:40  -805.342435c -4.61  -2.91    +47.9773
iter:  48 10:33:45  -805.342221c -4.68  -2.94    +47.9687
iter:  49 10:35:47  -805.343164c -4.89  -3.05    +47.9363
iter:  50 10:37:53  -805.345908c -5.12  -3.09    +47.9047
iter:  51 10:40:00  -805.350053c -5.05  -3.13    +47.8831
iter:  52 10:42:07  -805.351193c -4.98  -3.13    +47.8543
iter:  53 10:44:14  -805.350785c -5.10  -3.17    +47.8074
iter:  54 10:46:21  -805.351288c -5.33  -3.22    +47.8082
iter:  55 10:48:28  -805.354421c -5.42  -3.28    +47.7765
iter:  56 10:50:35  -805.353677c -5.50  -3.29    +47.7662
iter:  57 10:52:41  -805.356145c -5.41  -3.32    +47.7482
iter:  58 10:54:47  -805.356979c -5.49  -3.34    +47.7311
iter:  59 10:56:54  -805.357361c -5.52  -3.38    +47.7005
iter:  60 10:59:01  -805.358558c -5.70  -3.41    +47.6927
iter:  61 11:01:07  -805.361052c -5.67  -3.45    +47.6682
iter:  62 11:03:13  -805.360494c -5.77  -3.46    +47.6618
iter:  63 11:05:19  -805.361880c -5.74  -3.51    +47.6456
iter:  64 11:07:25  -805.362934c -5.93  -3.54    +47.6332
iter:  65 11:09:32  -805.363663c -5.85  -3.58    +47.6138
iter:  66 11:11:37  -805.364559c -5.94  -3.58    +47.6072
iter:  67 11:13:41  -805.366008c -5.95  -3.64    +47.5866
iter:  68 11:15:48  -805.365853c -6.07  -3.67    +47.5782
iter:  69 11:17:55  -805.366810c -6.05  -3.69    +47.5634
iter:  70 11:20:01  -805.367562c -6.18  -3.73    +47.5498
iter:  71 11:22:08  -805.368170c -6.00  -3.77    +47.5322
iter:  72 11:24:15  -805.368616c -6.22  -3.75    +47.5298
iter:  73 11:26:22  -805.369468c -6.20  -3.81    +47.5138
iter:  74 11:28:28  -805.369767c -6.12  -3.85    +47.5005
iter:  75 11:30:34  -805.370348c -6.26  -3.84    +47.4920
iter:  76 11:32:41  -805.370982c -6.28  -3.89    +47.4806
iter:  77 11:34:47  -805.371446c -6.14  -3.92    +47.4653
iter:  78 11:36:53  -805.371784c -6.40  -3.91    +47.4649
iter:  79 11:39:00  -805.372453c -6.35  -3.96    +47.4541
iter:  80 11:41:07  -805.372923c -6.03  -4.00    +47.4399
iter:  81 11:43:13  -805.373352c -6.29  -3.99    +47.4344
iter:  82 11:45:19  -805.373913c -6.27  -4.02c   +47.4254
iter:  83 11:47:26  -805.374886c -5.78  -4.04c   +47.4072
iter:  84 11:49:33  -805.377244c -5.06  -4.00c   +47.3739
iter:  85 11:51:39  -805.376675c -6.25  -3.82    +47.3918
iter:  86 11:53:46  -805.376887c -6.53  -3.86    +47.3950
iter:  87 11:55:52  -805.376888c -6.85  -3.83    +47.3961
iter:  88 11:57:58  -805.377197c -6.71  -3.83    +47.3965
iter:  89 12:00:05  -805.377840c -5.94  -3.85    +47.3981
iter:  90 12:02:11  -805.376763c -6.14  -3.79    +47.3978
iter:  91 12:04:17  -805.376693c -5.94  -3.79    +47.3852
iter:  92 12:06:23  -805.376692c -6.46  -3.81    +47.3907
iter:  93 12:08:29  -805.376908c -6.24  -3.95    +47.3927
iter:  94 12:10:36  -805.376648c -6.44  -3.88    +47.3912
iter:  95 12:12:41  -805.376495c -6.64  -4.07c   +47.3941
iter:  96 12:14:46  -805.376754c -6.79  -4.07c   +47.3954
iter:  97 12:16:54  -805.376542c -7.11  -4.15c   +47.3987
iter:  98 12:19:00  -805.376608c -7.39  -4.21c   +47.4012
iter:  99 12:21:07  -805.376494c -7.16  -4.26c   +47.4027
iter: 100 12:23:13  -805.376530c -7.27  -4.30c   +47.4043
iter: 101 12:25:20  -805.376485c -7.18  -4.38c   +47.4066
iter: 102 12:27:27  -805.376509c -7.48c -4.46c   +47.4067

Converged after 102 iterations.

Dipole moment: (29.701009, 16.344998, 7.739158) |e|*Ang

Total magnetic moment: (0.000000, 0.000000, 47.406702)
Local magnetic moments:
   0 Cr ( 0.000000,  0.000000, -2.200361)
   1 Al ( 0.000000,  0.000000, -0.030006)
   2 Ni ( 0.000000,  0.000000,  0.063945)
   3 Co ( 0.000000,  0.000000,  0.946067)
   4 Al ( 0.000000,  0.000000, -0.021793)
   5 Cr ( 0.000000,  0.000000, -2.066866)
   6 Co ( 0.000000,  0.000000,  0.898938)
   7 Al ( 0.000000,  0.000000, -0.017599)
   8 Al ( 0.000000,  0.000000, -0.043118)
   9 Fe ( 0.000000,  0.000000,  2.306347)
  10 Fe ( 0.000000,  0.000000,  2.146370)
  11 Fe ( 0.000000,  0.000000,  1.939264)
  12 Ni ( 0.000000,  0.000000,  0.246086)
  13 Ni ( 0.000000,  0.000000,  0.214454)
  14 Co ( 0.000000,  0.000000,  0.787208)
  15 Fe ( 0.000000,  0.000000,  2.218084)
  16 Cr ( 0.000000,  0.000000,  1.412410)
  17 Co ( 0.000000,  0.000000,  0.067384)
  18 Al ( 0.000000,  0.000000, -0.017231)
  19 Cr ( 0.000000,  0.000000, -0.303490)
  20 Co ( 0.000000,  0.000000,  0.965029)
  21 Al ( 0.000000,  0.000000,  0.009993)
  22 Cr ( 0.000000,  0.000000, -2.272437)
  23 Ni ( 0.000000,  0.000000,  0.051296)
  24 Cr ( 0.000000,  0.000000, -1.722221)
  25 Fe ( 0.000000,  0.000000,  2.107355)
  26 Fe ( 0.000000,  0.000000,  1.964193)
  27 Cr ( 0.000000,  0.000000, -1.922117)
  28 Fe ( 0.000000,  0.000000,  2.165876)
  29 Co ( 0.000000,  0.000000,  0.777481)
  30 Cr ( 0.000000,  0.000000, -1.198111)
  31 Fe ( 0.000000,  0.000000,  2.061235)
  32 Cr ( 0.000000,  0.000000, -0.756322)
  33 Co ( 0.000000,  0.000000,  0.743071)
  34 Cr ( 0.000000,  0.000000, -1.156763)
  35 Ni ( 0.000000,  0.000000, -0.068654)
  36 Fe ( 0.000000,  0.000000,  2.389150)
  37 Fe ( 0.000000,  0.000000,  1.896239)
  38 Ni ( 0.000000,  0.000000,  0.362108)
  39 Al ( 0.000000,  0.000000, -0.028079)
  40 Al ( 0.000000,  0.000000, -0.006558)
  41 Co ( 0.000000,  0.000000,  0.930879)
  42 Al ( 0.000000,  0.000000, -0.016584)
  43 Ni ( 0.000000,  0.000000, -0.094289)
  44 Cr ( 0.000000,  0.000000, -2.046498)
  45 Al ( 0.000000,  0.000000, -0.011803)
  46 Al ( 0.000000,  0.000000, -0.020870)
  47 Co ( 0.000000,  0.000000,  0.882006)
  48 Fe ( 0.000000,  0.000000,  2.114957)
  49 Ni ( 0.000000,  0.000000,  0.234411)
  50 Cr ( 0.000000,  0.000000, -1.947972)
  51 Cr ( 0.000000,  0.000000, -1.591140)
  52 Cr ( 0.000000,  0.000000,  1.845001)
  53 Co ( 0.000000,  0.000000,  0.548125)
  54 Ni ( 0.000000,  0.000000,  0.103045)
  55 Al ( 0.000000,  0.000000, -0.009480)
  56 Ni ( 0.000000,  0.000000,  0.054365)
  57 Cr ( 0.000000,  0.000000, -1.827801)
  58 Co ( 0.000000,  0.000000,  1.187254)
  59 Ni ( 0.000000,  0.000000,  0.064171)
[...]
  93 Co ( 0.000000,  0.000000,  1.208706)
  94 Fe ( 0.000000,  0.000000,  2.273010)
  95 Ni ( 0.000000,  0.000000,  0.336553)
  96 Cr ( 0.000000,  0.000000, -2.314160)
  97 Ni ( 0.000000,  0.000000,  0.103803)
  98 Ni ( 0.000000,  0.000000,  0.200221)
  99 Fe ( 0.000000,  0.000000,  2.499167)
 100 Al ( 0.000000,  0.000000, -0.032746)
 101 Ni ( 0.000000,  0.000000,  0.195978)
 102 Co ( 0.000000,  0.000000,  0.444033)
 103 Al ( 0.000000,  0.000000, -0.002027)
 104 Ni ( 0.000000,  0.000000,  0.171603)
 105 Al ( 0.000000,  0.000000, -0.022018)
 106 Fe ( 0.000000,  0.000000,  2.347686)
 107 Co ( 0.000000,  0.000000,  0.935626)

Energy contributions relative to reference atoms: (reference = -3235165.067515)

Kinetic:       +255.115434
Potential:     -243.898912
External:        +0.000000
XC:            -845.740238
Entropy (-ST):   -4.016909
Local:          +31.155662
Free energy:   -807.384963
Extrapolated:  -805.376509

Spin contamination: 32.394980 electrons
Showing only first 2 kpts
                      Up                     Down
 Kpt  Band  Eigenvalues  Occupancy  Eigenvalues  Occupancy
  0   454      9.06566    0.99130      9.84477    0.04500
  0   455      9.07682    0.99029      9.86432    0.03731
  0   456      9.10041    0.98774      9.87738    0.03290
  0   457      9.10326    0.98739      9.89322    0.02821

  1   454      9.05048    0.99252      9.83312    0.05029
  1   455      9.07055    0.99087      9.85840    0.03950
  1   456      9.08540    0.98943      9.87385    0.03404
  1   457      9.11615    0.98567      9.88298    0.03116

Fermi level: 9.53928

Gap: 0.006 eV
Transition (v -> c):
  (s=1, k=3, n=432, [0.25, 0.25, 0.25]) -> (s=1, k=3, n=433, [0.25, 0.25, 0.25])

Forces in eV/Ang:
  0 Cr    0.31823   -0.96582   -0.31525
  1 Al    0.14156    0.14376   -0.67652
  2 Ni   -0.01794    0.17981   -0.09796
  3 Co   -0.02666   -0.24113   -0.16417
  4 Al   -0.10104    0.27843    0.08029
  5 Cr    0.26072    0.14756    0.41600
  6 Co   -0.34056    0.37566    0.97980
  7 Al   -0.39367   -0.00053   -0.59542
  8 Al   -0.67967   -0.26652    2.00655
  9 Fe    0.42973   -0.17059    0.88101
 10 Fe    0.08211   -0.45561    0.33468
 11 Fe    0.55586    0.24024    0.14515
 12 Ni    0.01919   -0.32253   -0.08984
 13 Ni   -0.07607   -0.00507   -0.03011
 14 Co    0.28102    0.12877   -0.25952
 15 Fe    0.15069   -0.10348    0.57437
 16 Cr   -0.65095   -0.39398    0.87271
 17 Co   -0.22039    0.14024    0.24228
 18 Al   -0.12525   -0.80708    0.57125
 19 Cr    0.03469    0.44583   -0.79895
 20 Co    0.13613    0.41196   -0.03290
 21 Al    1.54663   -0.56151    0.42053
 22 Cr   -0.62028   -0.32498    0.22524
 23 Ni    0.04833   -0.02609   -0.07409
 24 Cr   -0.05878    0.87600    0.18435
 25 Fe   -0.44965    0.18801   -0.84999
 26 Fe    0.19290   -0.20939   -0.17237
 27 Cr   -0.63349   -0.41559    0.18269
 28 Fe   -0.00580    0.13068    0.11846
 29 Co    0.09360   -0.12405    0.42626
 30 Cr   -1.09996    0.97019   -0.51963
 31 Fe    0.06515   -0.66601    0.67066
 32 Cr   -0.34373    0.04744   -0.63620
 33 Co    0.08785    0.01862    0.49009
 34 Cr    0.61381    1.17570    0.25646
 35 Ni    0.45998    0.10069   -0.40400
 36 Fe   -0.38789   -0.32697   -0.14675
 37 Fe    0.10362    0.52626   -0.21190
 38 Ni    0.80331    0.17612   -0.14202
 39 Al    0.60632   -0.08307    0.44131
 40 Al    1.41546    1.11369   -0.54228
 41 Co   -0.22296    0.26267   -0.40212
 42 Al   -1.31337    1.66956   -0.57480
 43 Ni   -0.16255   -0.63947   -0.12259
 44 Cr   -0.98458    0.16968   -2.10254
 45 Al   -0.76041    1.52332   -0.92353
 46 Al    0.20820   -0.90923   -0.78278
 47 Co   -0.28870    0.24583   -0.08920
 48 Fe   -0.06949    0.41371    0.42146
 49 Ni    0.31453   -0.09031    0.33503
 50 Cr    0.26462    0.44037    1.13116
 51 Cr    0.26109    0.32134   -0.46086
 52 Cr   -0.77005   -0.42461    0.47180
 53 Co   -0.57219    0.05960    0.36836
 54 Ni   -0.19929   -0.51008   -0.14959
 55 Al   -0.43895    0.44398    1.03364
 56 Ni    0.19850   -0.33811   -0.75759
 57 Cr    0.57372   -0.24538    0.57463
 58 Co   -0.02608    0.08231   -0.08401
 59 Ni   -0.13740   -0.55281   -0.17421
[...]
 93 Co   -0.09189    0.22680    0.03745
 94 Fe   -0.36547   -0.33457    0.12172
 95 Ni    0.12763   -0.01016    0.18321
 96 Cr    0.05631    0.41158    0.48268
 97 Ni   -0.49189   -0.34640    0.12614
 98 Ni   -0.33570   -0.07010   -0.04772
 99 Fe   -0.86326   -0.12578   -0.00148
100 Al   -0.51750   -0.61834   -0.30156
101 Ni    0.19542   -0.33495    0.14557
102 Co   -0.25941   -0.75716    0.45339
103 Al   -0.76165   -0.57924    1.17156
104 Ni    0.10886   -0.12305    0.52272
105 Al   -0.10545   -1.75012   -0.59859
106 Fe    0.56532    0.34472   -0.59076
107 Co    0.78942   -0.61664    0.39805

Date: Sat Apr 15 12:27:46 2023