User:   c.zeng@d0022
Date:   Fri Apr 14 18:03:04 2023
Arch:   x86_64
Pid:    188588
CWD:    /home/c.zeng/projects/hea-corrosion/hea-mlp/data-curation/bulk-mcmc/dft-jobs/158
Python: 3.8.1
gpaw:   /home/c.zeng/usr/installs/gpaw/source/gpaw-22.8.0/gpaw
_gpaw:  /home/c.zeng/usr/installs/gpaw/source/gpaw-22.8.0/
        _gpaw.cpython-38-x86_64-linux-gnu.so
ase:    /home/c.zeng/.local/lib/python3.8/site-packages/ase-3.22.1-py3.8.egg/ase (version 3.22.1)
numpy:  /shared/centos7/python/3.8.1/lib/python3.8/site-packages/numpy (version 1.17.4)
scipy:  /shared/centos7/python/3.8.1/lib/python3.8/site-packages/scipy (version 1.4.1)
units:  Angstrom and eV
cores: 30
OpenMP: False
OMP_NUM_THREADS: 1

Input parameters:
  convergence: {energy: 0.0001}
  kpts: [2 2 2]
  maxiter: 666
  mode: {ecut: 350.0,
         name: pw}
  occupations: {fixmagmom: False,
                name: fermi-dirac,
                width: 0.1}
  spinpol: True
  xc: PBE

System changes: positions, numbers, cell, pbc, initial_charges, initial_magmoms

Initialize ...

species:
  Co:
    name: Cobalt
    id: 339d20d5b0b93d2de9531a1bee871d91
    Z: 27.0
    valence: 9
    core: 18
    charge: 0.0
    file: /home/c.zeng/usr/data/gpaw-setups-0.9.20000/Co.PBE.gz
    compensation charges: {type: gauss,
                           rc: 0.32,
                           lmax: 2}
    cutoffs: {filter: 1.87,
              core: 2.55}
    valence states:
      #              energy  rcut
      - 4s(2.00)    -5.469   1.005
      - 4p(0.00)    -1.277   1.058
      - 3d(7.00)    -8.205   1.005
      -  s          21.742   1.005
      -  p          25.934   1.058
      -  d          19.007   1.005

    # Using partial waves for Co as LCAO basis

  Fe:
    name: Iron
    id: 37abbd8d6c3c35915a9b583b742da910
    Z: 26.0
    valence: 8
    core: 18
    charge: 0.0
    file: /home/c.zeng/usr/data/gpaw-setups-0.9.20000/Fe.PBE.gz
    compensation charges: {type: gauss,
                           rc: 0.33,
                           lmax: 2}
    cutoffs: {filter: 2.06,
              core: 2.67}
    valence states:
      #              energy  rcut
      - 4s(2.00)    -5.291   1.164
      - 4p(0.00)    -1.326   1.058
      - 3d(6.00)    -7.505   1.058
      -  s          21.920   1.164
      -  p          25.885   1.058
      -  d          19.706   1.058

[...]

  Al:
    name: Aluminium
    id: 0292cae29f5d6237e50f6abdd43a7bdd
    Z: 13.0
    valence: 3
    core: 10
    charge: 0.0
    file: /home/c.zeng/usr/data/gpaw-setups-0.9.20000/Al.PBE.gz
    compensation charges: {type: gauss,
                           rc: 0.34,
                           lmax: 2}
    cutoffs: {filter: 1.91,
              core: 2.36}
    valence states:
      #              energy  rcut
      - 3s(2.00)    -7.753   1.085
      - 3p(1.00)    -2.712   1.085
      -  s          19.459   1.085
      -  p          24.499   1.085
      -  d           0.000   1.085

[...]

  Cr:
    name: Chromium
    id: 33f258bda2ca9f93018e70263a35547b
    Z: 24.0
    valence: 6
    core: 18
    charge: 0.0
    file: /home/c.zeng/usr/data/gpaw-setups-0.9.20000/Cr.PBE.gz
    compensation charges: {type: gauss,
                           rc: 0.35,
                           lmax: 2}
    cutoffs: {filter: 2.14,
              core: 3.04}
    valence states:
      #              energy  rcut
      - 4s(1.00)    -4.007   1.164
      - 4p(0.00)    -0.989   1.217
      - 3d(5.00)    -2.913   1.111
      -  s          23.205   1.164
      -  p          26.223   1.217
      -  d          24.299   1.111

[...]

  Ni:
    name: Nickel
    id: 0d9f38a9d6e76a2886f07bb4381f212b
    Z: 28.0
    valence: 16
    core: 12
    charge: 0.0
    file: /home/c.zeng/usr/data/gpaw-setups-0.9.20000/Ni.PBE.gz
    compensation charges: {type: gauss,
                           rc: 0.36,
                           lmax: 2}
    cutoffs: {filter: 2.14,
              core: 1.98}
    valence states:
      #              energy  rcut
      - 4s(2.00)    -5.642   1.164
      - 3p(6.00)   -71.394   1.207
      - 4p(0.00)    -1.226   1.207
      - 3d(8.00)    -8.875   1.138
      -  s          21.570   1.164
      -  d          18.337   1.138

    # Using partial waves for Ni as LCAO basis

Reference energy: -3382523.201499  # eV

Spin-polarized calculation.
Magnetic moment: 128.800000

Convergence criteria:
 Maximum [total energy] change in last 3 cyles: 0.0001 eV / electron
 Maximum integral of absolute [dens]ity change: 0.0001 electrons / valence electron
 Maximum integral of absolute [eigenst]ate change: 4e-08 eV^2 / valence electron
 Maximum number of scf [iter]ations: 666
 (Square brackets indicate name in SCF output, whereas a 'c' in
 the SCF output indicates the quantity has converged.)

Symmetries present (total): 1

  ( 1  0  0)
  ( 0  1  0)
  ( 0  0  1)

8 k-points: 2 x 2 x 2 Monkhorst-Pack grid
4 k-points in the irreducible part of the Brillouin zone
       k-points in crystal coordinates                weights
   0:     0.25000000   -0.25000000   -0.25000000          2/8
   1:     0.25000000   -0.25000000    0.25000000          2/8
   2:     0.25000000    0.25000000   -0.25000000          2/8
   3:     0.25000000    0.25000000    0.25000000          2/8

Wave functions: Plane wave expansion
  Cutoff energy: 350.000 eV
  Number of coefficients (min, max): 18865, 18865
  Pulay-stress correction: 0.000000 eV/Ang^3 (de/decut=0.000000)
  Using FFTW library
  ScaLapack parameters: grid=1x1, blocksize=None
  Wavefunction extrapolation:
    Improved wavefunction reuse through dual PAW basis

Occupation numbers: Fermi-Dirac:
  width: 0.1000  # eV

Eigensolver
   Davidson(niter=2)

Densities:
  Coarse grid: 48*48*48 grid
  Fine grid: 96*96*96 grid
  Total Charge: 0.000000

Density mixing:
  Method: difference
  Backend: pulay
  Linear mixing parameter: 0.05
  old densities: 5
  Damping of long wavelength oscillations: 50

Hamiltonian:
  XC and Coulomb potentials evaluated on a 96*96*96 grid
  Using the PBE Exchange-Correlation functional
  External potential:
    NoExternalPotential

XC parameters: PBE with 2 nearest neighbor stencil

Total number of cores used: 30
Parallelization over k-points: 2
Domain decomposition: 5 x 3 x 1

Number of atoms: 108
Number of atomic orbitals: 961
Number of bands in calculation: 649
Number of valence electrons: 945
Bands to converge: occupied

... initialized

Initializing position-dependent things.

Density initialized from atomic densities
Creating initial wave functions:
  649 bands from LCAO basis set

       /|                     Co   |
      / |            Co Fe     CrFe|
     /  |       Cr       Ni       Cr
    /   |Fe       Fel     FFer     |
   /i   | Coe        Fe      Co    |
  /  CrAl   NCr       Ni           |
 *      Ni     FeCo   AlFeCrCo   Cr|
 |      |CoNi   CrNiAl   NiAlNi   Co
 | CrCo | AlNi   AlAlFe     Ni     |
 |     Co  FeCr Cr  Fe CoNi  CrNi  |
 |      FeNi   AlCr   FeCoCoNi  Co |
 |Al    |FeCr   AlCrCo   CrFe     Fe
 |      .-CrCo-----NiCr-CoCoCrNi---.
 |     /   Ni Co    Cr FeNi    Al /
 |    Fe       AFei       Al     /
 |   /  Fe         Al       Cr  /
 |  /      Co       Al       Co/
 | / Fe     Co       Ni Ni    /
 |/             Cr       Ni  /
 *--------Co----------------*

Positions:
   0 Co    10.764147   10.861293   10.805330    ( 0.0000,  0.0000,  2.0000)
   1 Co    10.786221    1.792513    1.813624    ( 0.0000,  0.0000,  0.0000)
   2 Fe     1.744156    0.036560    1.851269    ( 0.0000,  0.0000,  1.5000)
   3 Al     1.736571    1.831142   10.798805    ( 0.0000,  0.0000,  0.0000)
   4 Co     3.575126    0.057318    0.061759    ( 0.0000,  0.0000,  0.0000)
   5 Co     3.594289    1.817617    1.845577    ( 0.0000,  0.0000,  2.0000)
   6 Fe     5.429813   10.817005    1.865054    ( 0.0000,  0.0000,  1.5000)
   7 Cr     5.429608    1.929425    0.057134    ( 0.0000,  0.0000,  0.0000)
   8 Co     7.316909   10.723332    0.087382    ( 0.0000,  0.0000,  0.0000)
   9 Al     7.263142    1.825786    1.869404    ( 0.0000,  0.0000,  2.1000)
  10 Ni     9.063554    0.025226    1.863474    ( 0.0000,  0.0000,  1.5000)
  11 Ni     9.049217    1.829703    0.033106    ( 0.0000,  0.0000,  2.1000)
  12 Ni     0.004792    3.558981   10.794801    ( 0.0000,  0.0000,  1.5000)
  13 Al    10.759710    5.390697    1.778165    ( 0.0000,  0.0000,  0.0000)
  14 Fe     1.733585    3.561849    1.761112    ( 0.0000,  0.0000,  2.0000)
  15 Fe     1.776899    5.391834   10.795505    ( 0.0000,  0.0000,  0.0000)
  16 Co     3.565452    3.619360   10.832619    ( 0.0000,  0.0000,  2.1000)
  17 Co     3.633221    5.394614    1.719551    ( 0.0000,  0.0000,  0.0000)
  18 Ni     5.471624    3.659114    1.836033    ( 0.0000,  0.0000,  2.1000)
  19 Fe     5.440212    5.373060   -0.002773    ( 0.0000,  0.0000,  2.0000)
  20 Ni     7.258997    3.609080    0.031294    ( 0.0000,  0.0000,  0.0000)
  21 Fe     7.268941    5.378362    1.785274    ( 0.0000,  0.0000,  2.0000)
  22 Al     9.030724    3.577636    1.833728    ( 0.0000,  0.0000,  2.1000)
  23 Fe     9.040420    5.372281   10.801110    ( 0.0000,  0.0000,  0.0000)
  24 Fe    10.791663    7.196206   10.792486    ( 0.0000,  0.0000,  1.5000)
  25 Fe    10.758434    9.040387    1.848239    ( 0.0000,  0.0000,  0.0000)
  26 Cr     1.690487    7.202493    1.786032    ( 0.0000,  0.0000,  0.0000)
  27 Ni     1.652691    8.981047    0.027217    ( 0.0000,  0.0000,  0.0000)
  28 Al     3.631241    7.164437    0.034633    ( 0.0000,  0.0000,  0.0000)
  29 Al     3.625452    9.063759    1.801678    ( 0.0000,  0.0000,  0.0000)
  30 Ni     5.490852    7.187095    1.746342    ( 0.0000,  0.0000,  2.0000)
  31 Cr     5.426935    8.989152    0.009861    ( 0.0000,  0.0000,  2.0000)
  32 Fe     7.229122    7.237075   -0.008698    ( 0.0000,  0.0000,  1.5000)
  33 Cr     7.249194    8.995850    1.810713    ( 0.0000,  0.0000,  0.0000)
  34 Cr     9.052073    7.204300    1.764218    ( 0.0000,  0.0000,  2.1000)
  35 Co     9.092553    8.989639   10.808760    ( 0.0000,  0.0000,  1.5000)
  36 Cr    -0.000975   10.826235    3.639789    ( 0.0000,  0.0000,  1.5000)
  37 Al    10.822772    1.771770    5.422044    ( 0.0000,  0.0000,  2.1000)
  38 Ni     1.754263   10.802084    5.428872    ( 0.0000,  0.0000,  2.1000)
  39 Fe     1.741873    1.774270    3.610801    ( 0.0000,  0.0000,  0.0000)
  40 Al     3.591183   10.794152    3.612143    ( 0.0000,  0.0000,  2.0000)
  41 Cr     3.593088    1.736744    5.455177    ( 0.0000,  0.0000,  0.0000)
  42 Al     5.437150   10.794563    5.400804    ( 0.0000,  0.0000,  2.0000)
  43 Fe     5.451931    1.783251    3.601387    ( 0.0000,  0.0000,  1.5000)
  44 Al     7.226222    0.007781    3.626209    ( 0.0000,  0.0000,  0.0000)
  45 Co     7.236069    1.766512    5.381392    ( 0.0000,  0.0000,  2.1000)
  46 Co     9.034587   10.848850    5.403844    ( 0.0000,  0.0000,  2.1000)
  47 Ni     9.031558    1.804946    3.616730    ( 0.0000,  0.0000,  1.5000)
  48 Ni    10.773885    3.543973    3.617867    ( 0.0000,  0.0000,  1.5000)
  49 Ni    10.772186    5.358409    5.454917    ( 0.0000,  0.0000,  0.0000)
  50 Fe     1.757531    3.575678    5.428937    ( 0.0000,  0.0000,  2.1000)
  51 Fe     1.621766    5.386986    3.572550    ( 0.0000,  0.0000,  0.0000)
[...]
  54 Cr     5.402221    3.610887    5.370193    ( 0.0000,  0.0000,  2.0000)
  55 Cr     5.460241    5.433590    3.575613    ( 0.0000,  0.0000,  2.0000)
  56 Cr     7.250157    3.615183    3.623169    ( 0.0000,  0.0000,  1.5000)
  57 Co     7.248707    5.410715    5.362099    ( 0.0000,  0.0000,  1.5000)
  58 Co     9.058230    3.565236    5.380082    ( 0.0000,  0.0000,  2.1000)
  59 Fe     9.074071    5.365323    3.589008    ( 0.0000,  0.0000,  2.1000)
[...]
  93 Ni     7.211073    5.388295    9.040181    ( 0.0000,  0.0000,  0.0000)
  94 Cr     9.095052    3.598119    8.980636    ( 0.0000,  0.0000,  2.0000)
  95 Al     9.078205    5.402416    7.227759    ( 0.0000,  0.0000,  0.0000)
  96 Cr    10.763411    7.244682    7.260285    ( 0.0000,  0.0000,  1.5000)
  97 Cr    10.795093    9.034566    8.977574    ( 0.0000,  0.0000,  2.0000)
  98 Co     1.740045    7.178947    8.984662    ( 0.0000,  0.0000,  2.1000)
  99 Fe     1.734429    9.080207    7.236696    ( 0.0000,  0.0000,  1.5000)
 100 Fe     3.580482    7.154277    7.248285    ( 0.0000,  0.0000,  0.0000)
 101 Cr     3.612835    8.970898    8.958086    ( 0.0000,  0.0000,  0.0000)
 102 Al     5.410943    7.155878    9.067049    ( 0.0000,  0.0000,  0.0000)
 103 Fe     5.466441    9.064062    7.220963    ( 0.0000,  0.0000,  2.1000)
 104 Fe     7.307203    7.271549    7.289738    ( 0.0000,  0.0000,  0.0000)
 105 Ni     7.271073    9.044683    9.027879    ( 0.0000,  0.0000,  1.5000)
 106 Cr     9.081743    7.219805    9.041166    ( 0.0000,  0.0000,  2.1000)
 107 Co     9.063684    9.083009    7.213865    ( 0.0000,  0.0000,  2.0000)

Unit cell:
           periodic     x           y           z      points  spacing
  1. axis:    yes   10.820500    0.000000    0.000000    48     0.2254
  2. axis:    yes    0.000000   10.820500    0.000000    48     0.2254
  3. axis:    yes    0.000000    0.000000   10.820500    48     0.2254

  Lengths:  10.820500  10.820500  10.820500
  Angles:   90.000000  90.000000  90.000000

Effective grid spacing dv^(1/3) = 0.2254

     iter     time        total  log10-change:  magmom
                         energy  eigst   dens
iter:   1 18:06:21  -895.506167                  +128.4417
iter:   2 18:07:40  -860.092655  -0.41  -1.31    +96.7889
iter:   3 18:08:59  -843.468323  -0.95  -1.30    +69.0772
iter:   4 18:10:17  -833.053597  -1.25  -1.37    +59.2309
iter:   5 18:11:36  -825.772271  -1.86  -1.40    +54.0923
iter:   6 18:12:55  -827.702738  -1.94  -1.47    +51.9004
iter:   7 18:14:15  -826.421552  -1.64  -1.49    +50.5365
iter:   8 18:15:36  -823.596530  -1.77  -1.55    +50.2942
iter:   9 18:16:56  -827.463314  -1.84  -1.68    +51.0124
iter:  10 18:18:16  -823.504899  -2.04  -1.68    +50.7068
iter:  11 18:19:37  -824.163369  -2.25  -1.80    +51.3990
iter:  12 18:20:57  -822.728233  -2.42  -1.82    +52.1363
iter:  13 18:22:18  -823.175752  -2.59  -1.89    +53.1512
iter:  14 18:23:38  -823.859259  -2.53  -1.94    +54.1380
iter:  15 18:24:58  -824.359511  -2.55  -1.94    +54.8978
iter:  16 18:26:19  -824.934224  -2.42  -1.97    +56.1457
iter:  17 18:27:39  -824.045090  -2.67  -1.96    +56.5042
iter:  18 18:29:00  -824.376862  -2.69  -2.10    +57.1606
iter:  19 18:30:20  -823.926505  -2.93  -2.12    +57.6778
iter:  20 18:31:41  -824.107933  -3.11  -2.21    +58.3983
iter:  21 18:33:02  -824.230070  -3.20  -2.24    +58.9531
iter:  22 18:34:22  -824.568680  -3.07  -2.26    +59.1791
iter:  23 18:35:42  -824.390897  -3.24  -2.22    +59.6238
iter:  24 18:37:03  -824.491635  -3.33  -2.32    +60.0344
iter:  25 18:38:24  -824.518755  -3.44  -2.33    +60.1734
iter:  26 18:39:45  -824.674190  -3.40  -2.38    +60.2317
iter:  27 18:41:05  -824.679999  -3.49  -2.38    +60.4076
iter:  28 18:42:26  -824.861130  -3.42  -2.42    +60.6498
iter:  29 18:43:46  -824.895642  -3.39  -2.42    +60.6063
iter:  30 18:45:06  -824.911457c -3.48  -2.41    +60.5281
iter:  31 18:46:27  -824.924077c -3.65  -2.47    +60.6649
iter:  32 18:47:47  -824.979044c -3.71  -2.52    +60.8138
iter:  33 18:49:08  -825.040420  -3.74  -2.56    +60.7128
iter:  34 18:50:28  -825.055208c -4.04  -2.56    +60.6303
iter:  35 18:51:48  -825.232076  -3.68  -2.62    +60.6081
iter:  36 18:53:08  -825.186908  -3.96  -2.54    +60.5932
iter:  37 18:54:29  -825.271819c -3.77  -2.63    +60.3577
iter:  38 18:55:49  -825.339833  -3.84  -2.63    +60.1538
iter:  39 18:57:09  -825.383062  -3.80  -2.65    +60.0998
iter:  40 18:58:30  -825.402991c -4.01  -2.64    +60.0165
iter:  41 18:59:51  -825.458042c -3.88  -2.72    +59.7725
iter:  42 19:01:11  -825.455360c -4.42  -2.68    +59.6092
iter:  43 19:02:31  -825.542365c -4.03  -2.76    +59.2713
iter:  44 19:03:52  -825.575987  -4.14  -2.75    +59.0243
iter:  45 19:05:12  -825.595388c -4.20  -2.76    +58.6588
iter:  46 19:06:33  -825.648653c -4.09  -2.84    +58.3282
iter:  47 19:07:53  -825.641206c -4.14  -2.82    +58.2583
iter:  48 19:09:14  -825.649687c -4.38  -3.01    +58.0212
iter:  49 19:10:34  -825.664028c -4.48  -3.06    +57.8849
iter:  50 19:11:55  -825.667646c -4.68  -3.09    +57.8014
iter:  51 19:13:15  -825.678527c -4.96  -3.18    +57.6290
iter:  52 19:14:36  -825.695283c -4.69  -3.20    +57.4159
iter:  53 19:15:56  -825.724558c -4.25  -3.18    +56.9870
iter:  54 19:17:17  -825.750665c -4.01  -3.07    +56.5655
iter:  55 19:18:37  -825.741808c -4.84  -3.01    +56.7132
iter:  56 19:19:57  -825.744610c -5.21  -3.10    +56.7588
iter:  57 19:21:18  -825.744325c -5.48  -3.09    +56.7892
iter:  58 19:22:38  -825.750513c -4.61  -3.09    +56.8272
iter:  59 19:23:59  -825.742110c -4.57  -3.04    +56.8247
iter:  60 19:25:19  -825.743042c -4.75  -3.09    +56.7912
iter:  61 19:26:39  -825.741822c -4.83  -3.13    +56.7677
iter:  62 19:28:00  -825.736454c -5.22  -3.14    +56.8107
iter:  63 19:29:20  -825.742535c -5.03  -3.24    +56.8019
iter:  64 19:30:40  -825.743060c -4.86  -3.19    +56.7917
iter:  65 19:32:01  -825.742498c -4.75  -3.25    +56.7684
iter:  66 19:33:21  -825.741181c -4.97  -3.22    +56.8005
iter:  67 19:34:42  -825.738359c -5.10  -3.33    +56.8183
iter:  68 19:36:02  -825.741288c -5.09  -3.49    +56.8179
iter:  69 19:37:22  -825.737811c -5.55  -3.40    +56.8443
iter:  70 19:38:43  -825.737696c -5.78  -3.62    +56.8803
iter:  71 19:40:03  -825.738089c -5.83  -3.65    +56.8954
iter:  72 19:41:23  -825.738201c -6.16  -3.66    +56.8936
iter:  73 19:42:44  -825.738335c -6.07  -3.73    +56.9023
iter:  74 19:44:04  -825.738654c -5.95  -3.73    +56.9065
iter:  75 19:45:25  -825.738732c -6.01  -3.73    +56.9068
iter:  76 19:46:45  -825.739485c -5.94  -3.81    +56.9076
iter:  77 19:48:05  -825.739200c -5.94  -3.78    +56.9126
iter:  78 19:49:26  -825.739423c -5.97  -3.83    +56.9279
iter:  79 19:50:46  -825.739716c -6.15  -3.87    +56.9283
iter:  80 19:52:06  -825.739812c -6.32  -3.90    +56.9237
iter:  81 19:53:27  -825.739982c -6.41  -4.01c   +56.9275
iter:  82 19:54:47  -825.740041c -6.87  -4.00c   +56.9292
iter:  83 19:56:08  -825.740564c -6.21  -4.03c   +56.9313
iter:  84 19:57:28  -825.741535c -5.67  -4.03c   +56.9400
iter:  85 19:58:49  -825.741940c -6.08  -3.97    +56.9450
iter:  86 20:00:09  -825.741369c -6.28  -3.88    +56.9216
iter:  87 20:01:30  -825.742383c -6.07  -3.90    +56.9525
iter:  88 20:02:50  -825.740634c -5.59  -3.82    +56.9009
iter:  89 20:04:11  -825.739655c -5.46  -3.94    +56.8612
iter:  90 20:05:31  -825.741099c -5.59  -3.98    +56.9164
iter:  91 20:06:52  -825.741018c -6.34  -3.93    +56.9164
iter:  92 20:08:13  -825.741521c -6.27  -3.87    +56.9299
iter:  93 20:09:33  -825.741877c -6.12  -3.95    +56.9505
iter:  94 20:10:53  -825.742543c -6.25  -3.88    +56.9556
iter:  95 20:12:14  -825.742453c -5.69  -3.80    +56.9331
iter:  96 20:13:34  -825.742500c -5.76  -3.78    +56.9580
iter:  97 20:14:55  -825.742118c -6.36  -3.88    +56.9530
iter:  98 20:16:16  -825.743097c -6.07  -4.06c   +56.9581
iter:  99 20:17:36  -825.742548c -6.32  -3.92    +56.9604
iter: 100 20:18:57  -825.742878c -6.43  -4.18c   +56.9543
iter: 101 20:20:17  -825.743327c -6.39  -4.12c   +56.9526
iter: 102 20:21:38  -825.743106c -6.62  -4.12c   +56.9527
iter: 103 20:22:59  -825.743305c -6.77  -4.23c   +56.9556
iter: 104 20:24:19  -825.743541c -6.53  -4.26c   +56.9546
iter: 105 20:25:40  -825.744174c -5.71  -4.20c   +56.9560
iter: 106 20:27:01  -825.744635c -5.91  -4.11c   +56.9616
iter: 107 20:28:21  -825.745156c -5.90  -4.11c   +56.9691
iter: 108 20:29:42  -825.746387c -5.28  -4.04c   +56.9965
iter: 109 20:31:03  -825.748581c -4.98  -3.89    +57.0415
iter: 110 20:32:24  -825.747686c -5.80  -3.67    +57.0192
iter: 111 20:33:45  -825.749805c -5.14  -3.74    +57.0709
iter: 112 20:35:06  -825.750000c -6.09  -3.60    +57.0834
iter: 113 20:36:26  -825.748455c -5.84  -3.59    +57.0576
iter: 114 20:37:47  -825.748131c -6.09  -3.65    +57.0728
iter: 115 20:39:08  -825.748136c -6.21  -3.66    +57.0731
iter: 116 20:40:29  -825.749987c -5.21  -3.71    +57.0793
iter: 117 20:41:50  -825.746504c -5.78  -3.54    +57.0731
iter: 118 20:43:10  -825.746410c -6.08  -3.95    +57.0566
iter: 119 20:44:31  -825.746535c -6.46  -3.88    +57.0523
iter: 120 20:45:52  -825.746259c -6.50  -4.01c   +57.0403
iter: 121 20:47:13  -825.746470c -6.53  -4.01c   +57.0303
iter: 122 20:48:34  -825.746325c -6.73  -4.09c   +57.0214
iter: 123 20:49:54  -825.746440c -6.52  -4.21c   +57.0174
iter: 124 20:51:15  -825.746308c -6.85  -4.11c   +57.0164
iter: 125 20:52:36  -825.746182c -7.19  -4.35c   +57.0140
iter: 126 20:53:56  -825.746318c -7.45c -4.41c   +57.0130

Converged after 126 iterations.

Dipole moment: (29.086426, -3.427337, -11.100025) |e|*Ang

Total magnetic moment: (0.000000, 0.000000, 57.013018)
Local magnetic moments:
   0 Co ( 0.000000,  0.000000,  1.192065)
   1 Co ( 0.000000,  0.000000,  1.341161)
   2 Fe ( 0.000000,  0.000000,  2.340008)
   3 Al ( 0.000000,  0.000000, -0.038489)
   4 Co ( 0.000000,  0.000000,  1.369808)
   5 Co ( 0.000000,  0.000000,  1.418940)
   6 Fe ( 0.000000,  0.000000,  2.000406)
   7 Cr ( 0.000000,  0.000000, -2.366331)
   8 Co ( 0.000000,  0.000000,  1.034826)
   9 Al ( 0.000000,  0.000000, -0.009679)
  10 Ni ( 0.000000,  0.000000,  0.194902)
  11 Ni ( 0.000000,  0.000000,  0.117503)
  12 Ni ( 0.000000,  0.000000,  0.217524)
  13 Al ( 0.000000,  0.000000, -0.036847)
  14 Fe ( 0.000000,  0.000000,  2.304589)
  15 Fe ( 0.000000,  0.000000,  2.062302)
  16 Co ( 0.000000,  0.000000,  1.314050)
  17 Co ( 0.000000,  0.000000,  1.075520)
  18 Ni ( 0.000000,  0.000000,  0.272763)
  19 Fe ( 0.000000,  0.000000,  2.243501)
  20 Ni ( 0.000000,  0.000000,  0.098544)
  21 Fe ( 0.000000,  0.000000,  2.142690)
  22 Al ( 0.000000,  0.000000, -0.026192)
  23 Fe ( 0.000000,  0.000000,  1.985064)
  24 Fe ( 0.000000,  0.000000,  1.628940)
  25 Fe ( 0.000000,  0.000000,  2.041685)
  26 Cr ( 0.000000,  0.000000, -1.916689)
  27 Ni ( 0.000000,  0.000000,  0.121643)
  28 Al ( 0.000000,  0.000000, -0.009388)
  29 Al ( 0.000000,  0.000000, -0.028484)
  30 Ni ( 0.000000,  0.000000,  0.313514)
  31 Cr ( 0.000000,  0.000000,  1.680577)
  32 Fe ( 0.000000,  0.000000,  1.934969)
  33 Cr ( 0.000000,  0.000000, -1.424146)
  34 Cr ( 0.000000,  0.000000, -1.680264)
  35 Co ( 0.000000,  0.000000,  0.947273)
  36 Cr ( 0.000000,  0.000000, -1.542435)
  37 Al ( 0.000000,  0.000000, -0.027363)
  38 Ni ( 0.000000,  0.000000,  0.107251)
  39 Fe ( 0.000000,  0.000000,  2.189861)
  40 Al ( 0.000000,  0.000000, -0.032304)
  41 Cr ( 0.000000,  0.000000, -2.041271)
  42 Al ( 0.000000,  0.000000, -0.023197)
  43 Fe ( 0.000000,  0.000000,  1.934686)
  44 Al ( 0.000000,  0.000000, -0.026573)
  45 Co ( 0.000000,  0.000000,  0.803190)
  46 Co ( 0.000000,  0.000000,  0.794458)
  47 Ni ( 0.000000,  0.000000,  0.149688)
  48 Ni ( 0.000000,  0.000000,  0.374022)
  49 Ni ( 0.000000,  0.000000,  0.263375)
  50 Fe ( 0.000000,  0.000000,  2.295676)
  51 Fe ( 0.000000,  0.000000,  2.315916)
  52 Co ( 0.000000,  0.000000,  1.218837)
  53 Cr ( 0.000000,  0.000000, -2.082374)
  54 Cr ( 0.000000,  0.000000,  1.116368)
  55 Cr ( 0.000000,  0.000000,  1.348451)
  56 Cr ( 0.000000,  0.000000, -1.615660)
  57 Co ( 0.000000,  0.000000,  1.183953)
  58 Co ( 0.000000,  0.000000,  1.176502)
  59 Fe ( 0.000000,  0.000000,  2.172655)
[...]
  93 Ni ( 0.000000,  0.000000,  0.335571)
  94 Cr ( 0.000000,  0.000000,  1.242150)
  95 Al ( 0.000000,  0.000000, -0.012097)
  96 Cr ( 0.000000,  0.000000,  1.158078)
  97 Cr ( 0.000000,  0.000000, -0.557785)
  98 Co ( 0.000000,  0.000000,  0.132612)
  99 Fe ( 0.000000,  0.000000,  2.034625)
 100 Fe ( 0.000000,  0.000000,  1.898366)
 101 Cr ( 0.000000,  0.000000, -2.300416)
 102 Al ( 0.000000,  0.000000, -0.031849)
 103 Fe ( 0.000000,  0.000000,  2.134735)
 104 Fe ( 0.000000,  0.000000,  2.490105)
 105 Ni ( 0.000000,  0.000000,  0.309287)
 106 Cr ( 0.000000,  0.000000, -1.484176)
 107 Co ( 0.000000,  0.000000,  1.007296)

Energy contributions relative to reference atoms: (reference = -3382523.201499)

Kinetic:       +230.916147
Potential:     -237.434023
External:        +0.000000
XC:            -850.504922
Entropy (-ST):   -4.147316
Local:          +33.350137
Free energy:   -827.819976
Extrapolated:  -825.746318

Spin contamination: 31.916173 electrons
Showing only first 2 kpts
                      Up                     Down
 Kpt  Band  Eigenvalues  Occupancy  Eigenvalues  Occupancy
  0   470      9.15022    0.99557     10.02055    0.03595
  0   471      9.15379    0.99541     10.04593    0.02812
  0   472      9.18270    0.99388     10.05504    0.02574
  0   473      9.19753    0.99291     10.06972    0.02230

  1   470      9.13745    0.99610     10.03861    0.03019
  1   471      9.15664    0.99528     10.05082    0.02681
  1   472      9.18298    0.99386     10.05923    0.02471
  1   473      9.19223    0.99327     10.07320    0.02155

Fermi level: 9.69166

No gap

Forces in eV/Ang:
  0 Co    0.15749   -0.47336    0.20152
  1 Co    0.39980   -0.29550    0.01550
  2 Fe   -0.03627   -0.01188   -0.72372
  3 Al    0.38532   -0.37230   -0.26364
  4 Co    0.32639   -0.21987   -0.51184
  5 Co    0.16824    0.28460   -0.27516
  6 Fe    0.18312    0.38071   -0.79573
  7 Cr   -1.23746   -0.99215   -0.78105
  8 Co   -0.60356    0.33682   -0.51316
  9 Al   -0.23049   -0.65023   -1.43456
 10 Ni   -0.21871   -0.26088   -0.39303
 11 Ni   -0.14578   -0.32094   -0.44129
 12 Ni   -0.33122    0.51319    0.06895
 13 Al    0.77194   -0.22469   -0.19417
 14 Fe    0.70316    0.19258    0.88986
 15 Fe   -0.08390   -0.18392   -0.01707
 16 Co    0.50022    0.01798    0.38598
 17 Co   -0.33952   -0.46693    0.63022
 18 Ni   -0.60257   -0.25830   -0.05410
 19 Fe    0.12194   -0.55813    0.30639
 20 Ni   -0.15812   -0.11396   -0.46444
 21 Fe    0.02952    0.46768    0.04867
 22 Al    0.60713   -0.37001   -0.69530
 23 Fe   -0.48103    0.65155   -0.48633
 24 Fe    0.31756    0.11395   -0.27013
 25 Fe    0.19357   -0.10498   -0.62561
 26 Cr   -0.51253    0.01020    0.16333
 27 Ni    0.71987    0.52201   -0.34654
 28 Al   -1.00128    0.11640    0.31287
 29 Al   -0.55053    0.39849   -1.13090
 30 Ni   -0.23048    0.15316    0.61452
 31 Cr    0.65436    1.43174   -0.57776
 32 Fe    0.76947   -0.27501    0.16624
 33 Cr    0.06380    0.07643   -0.52660
 34 Cr   -0.47392    0.46687   -0.06995
 35 Co   -0.19717    0.20351    0.17256
 36 Cr   -0.02745   -0.62936   -0.75702
 37 Al   -0.33467   -0.03266    0.09752
 38 Ni    0.38298    0.07032    0.10892
 39 Fe    0.51499    0.53083   -0.24391
 40 Al   -0.48329    1.02768   -0.34670
 41 Cr   -0.52235    1.42593    0.20799
 42 Al    0.34016    0.18006    0.79550
 43 Fe   -0.63432    0.56650   -0.02142
 44 Al    1.03651   -0.11307    0.26014
 45 Co    0.16198    0.52467    0.46640
 46 Co   -0.06379   -0.37022    0.00458
 47 Ni   -0.16009   -0.13853    0.08978
 48 Ni    0.47042    0.39076   -0.09117
 49 Ni    0.27058    0.21646   -0.39335
 50 Fe    0.77389    0.38389   -0.15886
 51 Fe    1.23527   -0.10248    0.20437
 52 Co   -0.26916   -0.05806    0.05035
 53 Cr   -0.08477   -0.85301   -0.11847
 54 Cr   -0.06717    0.23745    0.23708
 55 Cr   -0.06628   -0.36555   -0.11306
 56 Cr   -0.83340    0.58707    1.35844
 57 Co    0.20985    0.16681    0.17161
 58 Co   -0.61951    0.10360    0.31788
 59 Fe   -0.54743    0.74079    0.96513
[...]
 93 Ni    0.31071   -0.23763   -0.21970
 94 Cr    0.35747    0.20152    0.41614
 95 Al   -1.30822   -0.07778   -1.00685
 96 Cr   -0.07372    0.25247    0.87171
 97 Cr    0.55345    0.22933    0.51737
 98 Co    0.18328    0.23487   -0.14166
 99 Fe    0.41583    0.07724    0.33843
100 Fe   -0.50311    0.50606    0.10848
101 Cr   -0.48114    1.09364    0.21543
102 Al    1.22888    0.07850   -1.28550
103 Fe   -0.34460   -0.30865    0.51490
104 Fe   -0.02856   -0.09962   -0.57056
105 Ni   -0.00402    0.24977    0.12441
106 Cr   -0.84829    0.51117    0.36004
107 Co   -0.33517   -0.09777   -0.11772

Date: Fri Apr 14 20:54:14 2023