User:   c.zeng@d0022
Date:   Fri Apr 14 04:44:21 2023
Arch:   x86_64
Pid:    169682
CWD:    /home/c.zeng/projects/hea-corrosion/hea-mlp/data-curation/bulk-mcmc/dft-jobs/103
Python: 3.8.1
gpaw:   /home/c.zeng/usr/installs/gpaw/source/gpaw-22.8.0/gpaw
_gpaw:  /home/c.zeng/usr/installs/gpaw/source/gpaw-22.8.0/
        _gpaw.cpython-38-x86_64-linux-gnu.so
ase:    /home/c.zeng/.local/lib/python3.8/site-packages/ase-3.22.1-py3.8.egg/ase (version 3.22.1)
numpy:  /shared/centos7/python/3.8.1/lib/python3.8/site-packages/numpy (version 1.17.4)
scipy:  /shared/centos7/python/3.8.1/lib/python3.8/site-packages/scipy (version 1.4.1)
units:  Angstrom and eV
cores: 30
OpenMP: False
OMP_NUM_THREADS: 1

Input parameters:
  convergence: {energy: 0.0001}
  kpts: [2 2 2]
  maxiter: 666
  mode: {ecut: 350.0,
         name: pw}
  occupations: {fixmagmom: False,
                name: fermi-dirac,
                width: 0.1}
  spinpol: True
  xc: PBE

System changes: positions, numbers, cell, pbc, initial_charges, initial_magmoms

Initialize ...

species:
  Co:
    name: Cobalt
    id: 339d20d5b0b93d2de9531a1bee871d91
    Z: 27.0
    valence: 9
    core: 18
    charge: 0.0
    file: /home/c.zeng/usr/data/gpaw-setups-0.9.20000/Co.PBE.gz
    compensation charges: {type: gauss,
                           rc: 0.32,
                           lmax: 2}
    cutoffs: {filter: 1.87,
              core: 2.55}
    valence states:
      #              energy  rcut
      - 4s(2.00)    -5.469   1.005
      - 4p(0.00)    -1.277   1.058
      - 3d(7.00)    -8.205   1.005
      -  s          21.742   1.005
      -  p          25.934   1.058
      -  d          19.007   1.005

    # Using partial waves for Co as LCAO basis

  Fe:
    name: Iron
    id: 37abbd8d6c3c35915a9b583b742da910
    Z: 26.0
    valence: 8
    core: 18
    charge: 0.0
    file: /home/c.zeng/usr/data/gpaw-setups-0.9.20000/Fe.PBE.gz
    compensation charges: {type: gauss,
                           rc: 0.33,
                           lmax: 2}
    cutoffs: {filter: 2.06,
              core: 2.67}
    valence states:
      #              energy  rcut
      - 4s(2.00)    -5.291   1.164
      - 4p(0.00)    -1.326   1.058
      - 3d(6.00)    -7.505   1.058
      -  s          21.920   1.164
      -  p          25.885   1.058
      -  d          19.706   1.058

[...]

  Ni:
    name: Nickel
    id: 0d9f38a9d6e76a2886f07bb4381f212b
    Z: 28.0
    valence: 16
    core: 12
    charge: 0.0
    file: /home/c.zeng/usr/data/gpaw-setups-0.9.20000/Ni.PBE.gz
    compensation charges: {type: gauss,
                           rc: 0.36,
                           lmax: 2}
    cutoffs: {filter: 2.14,
              core: 1.98}
    valence states:
      #              energy  rcut
      - 4s(2.00)    -5.642   1.164
      - 3p(6.00)   -71.394   1.207
      - 4p(0.00)    -1.226   1.207
      - 3d(8.00)    -8.875   1.138
      -  s          21.570   1.164
      -  d          18.337   1.138

[...]

  Al:
    name: Aluminium
    id: 0292cae29f5d6237e50f6abdd43a7bdd
    Z: 13.0
    valence: 3
    core: 10
    charge: 0.0
    file: /home/c.zeng/usr/data/gpaw-setups-0.9.20000/Al.PBE.gz
    compensation charges: {type: gauss,
                           rc: 0.34,
                           lmax: 2}
    cutoffs: {filter: 1.91,
              core: 2.36}
    valence states:
      #              energy  rcut
      - 3s(2.00)    -7.753   1.085
      - 3p(1.00)    -2.712   1.085
      -  s          19.459   1.085
      -  p          24.499   1.085
      -  d           0.000   1.085

[...]

  Cr:
    name: Chromium
    id: 33f258bda2ca9f93018e70263a35547b
    Z: 24.0
    valence: 6
    core: 18
    charge: 0.0
    file: /home/c.zeng/usr/data/gpaw-setups-0.9.20000/Cr.PBE.gz
    compensation charges: {type: gauss,
                           rc: 0.35,
                           lmax: 2}
    cutoffs: {filter: 2.14,
              core: 3.04}
    valence states:
      #              energy  rcut
      - 4s(1.00)    -4.007   1.164
      - 4p(0.00)    -0.989   1.217
      - 3d(5.00)    -2.913   1.111
      -  s          23.205   1.164
      -  p          26.223   1.217
      -  d          24.299   1.111

    # Using partial waves for Cr as LCAO basis

Reference energy: -3548577.034362  # eV

Spin-polarized calculation.
Magnetic moment: 136.400000

Convergence criteria:
 Maximum [total energy] change in last 3 cyles: 0.0001 eV / electron
 Maximum integral of absolute [dens]ity change: 0.0001 electrons / valence electron
 Maximum integral of absolute [eigenst]ate change: 4e-08 eV^2 / valence electron
 Maximum number of scf [iter]ations: 666
 (Square brackets indicate name in SCF output, whereas a 'c' in
 the SCF output indicates the quantity has converged.)

Symmetries present (total): 1

  ( 1  0  0)
  ( 0  1  0)
  ( 0  0  1)

8 k-points: 2 x 2 x 2 Monkhorst-Pack grid
4 k-points in the irreducible part of the Brillouin zone
       k-points in crystal coordinates                weights
   0:     0.25000000   -0.25000000   -0.25000000          2/8
   1:     0.25000000   -0.25000000    0.25000000          2/8
   2:     0.25000000    0.25000000   -0.25000000          2/8
   3:     0.25000000    0.25000000    0.25000000          2/8

Wave functions: Plane wave expansion
  Cutoff energy: 350.000 eV
  Number of coefficients (min, max): 18331, 18331
  Pulay-stress correction: 0.000000 eV/Ang^3 (de/decut=0.000000)
  Using FFTW library
  ScaLapack parameters: grid=1x1, blocksize=None
  Wavefunction extrapolation:
    Improved wavefunction reuse through dual PAW basis

Occupation numbers: Fermi-Dirac:
  width: 0.1000  # eV

Eigensolver
   Davidson(niter=2)

Densities:
  Coarse grid: 48*48*48 grid
  Fine grid: 96*96*96 grid
  Total Charge: 0.000000

Density mixing:
  Method: difference
  Backend: pulay
  Linear mixing parameter: 0.05
  old densities: 5
  Damping of long wavelength oscillations: 50

Hamiltonian:
  XC and Coulomb potentials evaluated on a 96*96*96 grid
  Using the PBE Exchange-Correlation functional
  External potential:
    NoExternalPotential

XC parameters: PBE with 2 nearest neighbor stencil

Total number of cores used: 30
Parallelization over k-points: 2
Domain decomposition: 5 x 3 x 1

Number of atoms: 108
Number of atomic orbitals: 994
Number of bands in calculation: 674
Number of valence electrons: 980
Bands to converge: occupied

... initialized

Initializing position-dependent things.

Density initialized from atomic densities
Creating initial wave functions:
  674 bands from LCAO basis set

        Co-------Co---------------.
       /|  Co       Fe            |
      / |   NiCr     CrCo     CrCo|
     / Al       CAl     Al        |
    /   CCo      Ni      FAl      |
   /    | CoCo     Co      CoCo   |
  /   Co|  NiFeAl   NiNi    CrCr  |
 *      Cr  CrCoNi   CoNiNi   FeNi|
 |Fe   NiNiCr   CrACr   FeCr      |
 | Fe   | NiNi   NiNiCr    Cr     |
 |     Co  CoFeNi   FeNiAl  NiNi  |
 |      Fe    FeNi   FeAlFe   AlCr|
 |Cr    |CoNi   NFeFe   FeFe     Fe
 |      .-FeCr-----FeCr--FeCoNi---.
 |     Cr    CoCr     FeCo  Cr Fe/
 |    / Al      Co       Cr     /
 Cr  /            Cr           /
 |  /      Ni      Cr       Fe/
 | / Co              Fe      /
 |/                     Co  /

Positions:
   0 Co    10.732479   -0.010418   10.721263    ( 0.0000,  0.0000,  2.1000)
   1 Fe    10.706231    1.787006    1.816653    ( 0.0000,  0.0000,  1.5000)
   2 Co     1.827923    0.046024    1.820803    ( 0.0000,  0.0000,  0.0000)
   3 Co     1.781666    1.794790   10.668295    ( 0.0000,  0.0000,  0.0000)
   4 Co     3.605675   -0.024615   10.696977    ( 0.0000,  0.0000,  0.0000)
   5 Ni     3.626284    1.755611    1.827590    ( 0.0000,  0.0000,  2.0000)
   6 Fe     5.347186   -0.032870    1.798425    ( 0.0000,  0.0000,  2.0000)
   7 Al     5.383406    1.755353   -0.004078    ( 0.0000,  0.0000,  2.0000)
   8 Fe     7.108694   -0.021619    0.052076    ( 0.0000,  0.0000,  0.0000)
   9 Cr     7.129131    1.783639    1.838109    ( 0.0000,  0.0000,  2.0000)
  10 Al     8.928414   -0.004386    1.840918    ( 0.0000,  0.0000,  2.0000)
  11 Co     8.945645    1.852509    0.063651    ( 0.0000,  0.0000,  0.0000)
  12 Co    10.721403    3.615743   10.707625    ( 0.0000,  0.0000,  2.1000)
  13 Fe    10.714905    5.407607    1.816064    ( 0.0000,  0.0000,  2.0000)
  14 Al     1.786931    3.537020    1.885127    ( 0.0000,  0.0000,  0.0000)
  15 Co     1.774396    5.426328   10.657058    ( 0.0000,  0.0000,  0.0000)
  16 Co     3.564340    3.564490   10.690115    ( 0.0000,  0.0000,  0.0000)
  17 Co     3.570334    5.434059    1.813919    ( 0.0000,  0.0000,  0.0000)
  18 Co     5.350145    3.574934    1.808708    ( 0.0000,  0.0000,  0.0000)
  19 Al     5.345084    5.410577   10.703464    ( 0.0000,  0.0000,  2.1000)
  20 Fe     7.157695    3.624514    0.002553    ( 0.0000,  0.0000,  2.1000)
  21 Fe     7.157792    5.380200    1.803904    ( 0.0000,  0.0000,  0.0000)
  22 Cr     8.944980    3.620622    1.842988    ( 0.0000,  0.0000,  0.0000)
  23 Al     8.940316    5.370571   -0.005231    ( 0.0000,  0.0000,  0.0000)
  24 Co    10.674578    7.138041   10.683446    ( 0.0000,  0.0000,  2.0000)
  25 Fe    10.668413    8.869012    1.800001    ( 0.0000,  0.0000,  0.0000)
  26 Fe     1.807904    7.157309    1.806960    ( 0.0000,  0.0000,  1.5000)
  27 Co     1.808086    8.895217   10.689064    ( 0.0000,  0.0000,  0.0000)
  28 Cr     3.612462    7.185391   10.698339    ( 0.0000,  0.0000,  2.0000)
  29 Ni     3.598277    8.905404    1.808097    ( 0.0000,  0.0000,  1.5000)
  30 Fe     5.362229    7.149643    1.778835    ( 0.0000,  0.0000,  2.1000)
  31 Fe     5.368084    8.904170   10.708750    ( 0.0000,  0.0000,  2.0000)
  32 Co     7.127640    7.124156   10.700741    ( 0.0000,  0.0000,  2.0000)
  33 Fe     7.139982    8.914904    1.783157    ( 0.0000,  0.0000,  0.0000)
  34 Co     8.884516    7.107975    1.798232    ( 0.0000,  0.0000,  2.0000)
  35 Cr     8.895410    8.880302    0.005476    ( 0.0000,  0.0000,  0.0000)
  36 Cr    10.737840    0.006469    3.587908    ( 0.0000,  0.0000,  1.5000)
  37 Cr     0.009110    1.816214    5.359506    ( 0.0000,  0.0000,  1.5000)
  38 Cr     1.833434   -0.010553    5.335488    ( 0.0000,  0.0000,  2.1000)
  39 Cr     1.814369    1.777409    3.664755    ( 0.0000,  0.0000,  1.5000)
  40 Ni     3.608002   -0.027958    3.615958    ( 0.0000,  0.0000,  2.1000)
  41 Ni     3.597397    1.774364    5.368180    ( 0.0000,  0.0000,  1.5000)
  42 Co     5.355185   -0.018813    5.365682    ( 0.0000,  0.0000,  2.1000)
  43 Cr     5.354005    1.762698    3.609396    ( 0.0000,  0.0000,  1.5000)
  44 Cr     7.096449    0.004839    3.553950    ( 0.0000,  0.0000,  0.0000)
  45 Fe     7.124574    1.817747    5.354692    ( 0.0000,  0.0000,  2.1000)
  46 Fe     8.888698   10.712332    5.289714    ( 0.0000,  0.0000,  0.0000)
  47 Co     8.931727    1.815495    3.558979    ( 0.0000,  0.0000,  1.5000)
  48 Ni    10.700248    3.599864    3.631730    ( 0.0000,  0.0000,  0.0000)
  49 Ni    -0.007893    5.382698    5.388017    ( 0.0000,  0.0000,  2.0000)
  50 Fe     1.794265    3.594073    5.365264    ( 0.0000,  0.0000,  2.0000)
  51 Co     1.782020    5.398675    3.628600    ( 0.0000,  0.0000,  1.5000)
[...]
iter: 209 11:12:04  -851.487884c -6.35  -3.72    +60.0720
iter: 210 11:13:29  -851.488575c -6.02  -3.76    +60.0780
iter: 211 11:14:54  -851.488479c -6.20  -3.72    +60.0928
iter: 212 11:16:20  -851.488851c -6.22  -3.79    +60.1072
iter: 213 11:17:45  -851.489757c -5.53  -3.78    +60.1107
iter: 214 11:19:11  -851.489005c -5.88  -3.60    +60.1193
iter: 215 11:20:36  -851.489691c -5.98  -3.86    +60.1312
iter: 216 11:22:01  -851.489629c -6.66  -3.84    +60.1373
iter: 217 11:23:26  -851.490191c -6.21  -3.90    +60.1517
iter: 218 11:24:51  -851.490560c -6.14  -3.95    +60.1706
iter: 219 11:26:16  -851.491181c -6.21  -3.86    +60.1810
iter: 220 11:27:41  -851.491415c -6.02  -3.89    +60.1923
iter: 221 11:29:06  -851.492198c -5.96  -3.96    +60.1986
iter: 222 11:30:31  -851.492129c -5.97  -3.83    +60.2062
iter: 223 11:31:56  -851.492235c -6.27  -3.92    +60.2252
iter: 224 11:33:22  -851.493012c -6.31  -4.06c   +60.2486
iter: 225 11:34:47  -851.493286c -6.59  -4.08c   +60.2551
iter: 226 11:36:13  -851.493113c -6.67  -4.11c   +60.2498
iter: 227 11:37:38  -851.494193c -6.00  -4.00    +60.2754
iter: 228 11:39:03  -851.494040c -6.51  -3.96    +60.2808
iter: 229 11:40:28  -851.494798c -6.07  -3.97    +60.3119
iter: 230 11:41:53  -851.495074c -6.47  -3.87    +60.3249
iter: 231 11:43:18  -851.496191c -6.05  -3.99    +60.3437
iter: 232 11:44:43  -851.495976c -6.39  -3.89    +60.3428
iter: 233 11:46:08  -851.496487c -6.24  -3.93    +60.3535
iter: 234 11:47:33  -851.497774c -5.99  -4.03c   +60.3698
iter: 235 11:48:59  -851.496425c -6.27  -3.80    +60.3131
iter: 236 11:50:24  -851.498234c -5.73  -3.80    +60.3990
iter: 237 11:51:49  -851.498958c -5.96  -3.82    +60.4440
iter: 238 11:53:14  -851.499280c -6.03  -3.95    +60.4588
iter: 239 11:54:39  -851.499674c -6.13  -3.99    +60.4706
iter: 240 11:56:04  -851.500470c -6.08  -4.30c   +60.4904
iter: 241 11:57:29  -851.500250c -6.99  -4.37c   +60.4817
iter: 242 11:58:54  -851.500040c -6.92  -4.46c   +60.4644
iter: 243 12:00:19  -851.501131c -6.19  -4.43c   +60.5171
iter: 244 12:01:45  -851.500673c -6.57  -4.39c   +60.4704
iter: 245 12:03:10  -851.502076c -6.04  -4.45c   +60.5354
iter: 246 12:04:35  -851.495974c -4.71  -4.44c   +60.2291
iter: 247 12:06:00  -851.495607c -5.73  -3.90    +60.2077
iter: 248 12:07:25  -851.495431c -6.02  -3.87    +60.1897
iter: 249 12:08:51  -851.495837c -6.11  -3.83    +60.2141
iter: 250 12:10:16  -851.495157c -5.65  -3.84    +60.1725
iter: 251 12:11:41  -851.496509c -5.77  -3.83    +60.2330
iter: 252 12:13:07  -851.495698c -5.35  -3.78    +60.1708
iter: 253 12:14:32  -851.496594c -5.18  -3.64    +60.2596
iter: 254 12:15:57  -851.497180c -5.52  -3.66    +60.2579
iter: 255 12:17:22  -851.497916c -5.52  -3.68    +60.3252
iter: 256 12:18:47  -851.498227c -5.82  -3.97    +60.3558
iter: 257 12:20:12  -851.498995c -6.21  -4.17c   +60.3828
iter: 258 12:21:38  -851.500140c -5.93  -4.25c   +60.4393
iter: 259 12:23:03  -851.500329c -6.74  -4.39c   +60.4446
iter: 260 12:24:28  -851.501731c -5.91  -4.40c   +60.4973
iter: 261 12:25:53  -851.496991c -4.94  -4.32c   +60.3037
iter: 262 12:27:18  -851.493140c -4.63  -4.24c   +60.0744
iter: 263 12:28:43  -851.491628c -4.77  -3.86    +59.9100
iter: 264 12:30:08  -851.491498c -5.12  -3.70    +59.8260
iter: 265 12:31:34  -851.491984c -4.88  -3.63    +59.7017
iter: 266 12:32:59  -851.493133c -4.96  -3.53    +59.6115
iter: 267 12:34:25  -851.492845c -6.06  -3.45    +59.6353
iter: 268 12:35:52  -851.493960c -5.83  -3.46    +59.6683
iter: 269 12:37:19  -851.493373c -5.80  -3.43    +59.6485
iter: 270 12:38:46  -851.505254c -4.87  -3.38    +59.6691
iter: 271 12:40:14  -851.508320c -4.36  -3.13    +59.6492
iter: 272 12:41:41  -851.503452c -4.34  -3.09    +59.7004
iter: 273 12:43:08  -851.484810c -5.07  -3.09    +59.7475
iter: 274 12:44:35  -851.485480c -5.61  -3.62    +59.7728
iter: 275 12:46:03  -851.486799c -5.49  -3.66    +59.7989
iter: 276 12:47:31  -851.486647c -5.51  -3.52    +59.8335
iter: 277 12:48:58  -851.485807c -5.63  -3.64    +59.8554
iter: 278 12:50:25  -851.486533c -5.78  -3.66    +59.8756
iter: 279 12:51:52  -851.486902c -5.68  -3.87    +59.8990
iter: 280 12:53:19  -851.486703c -5.82  -3.81    +59.9028
iter: 281 12:54:46  -851.486847c -6.04  -3.80    +59.9364
iter: 282 12:56:14  -851.487220c -6.12  -4.11c   +59.9582
iter: 283 12:57:41  -851.487687c -6.45  -3.99    +59.9748
iter: 284 12:59:09  -851.488054c -6.24  -4.23c   +60.0111
iter: 285 13:00:36  -851.488407c -6.71  -4.31c   +60.0270
iter: 286 13:02:03  -851.489305c -6.09  -4.38c   +60.0745
iter: 287 13:03:30  -851.488197c -6.18  -4.34c   +60.0190
iter: 288 13:04:57  -851.483446c -4.56  -4.42c   +59.7127
iter: 289 13:06:25  -851.481263c -4.64  -3.89    +59.5032
iter: 290 13:07:52  -851.479797c -4.70  -3.66    +59.3180
iter: 291 13:09:19  -851.479395c -5.41  -3.53    +59.2906
iter: 292 13:10:46  -851.479093c -5.80  -3.51    +59.2879
iter: 293 13:12:14  -851.479217c -6.01  -3.50    +59.3192
iter: 294 13:13:41  -851.480812c -6.05  -3.48    +59.3200
iter: 295 13:15:08  -851.485660c -4.88  -3.45    +59.3417
iter: 296 13:16:35  -851.487695c -4.52  -3.20    +59.3455
iter: 297 13:18:03  -851.483327c -4.61  -3.17    +59.4451
iter: 298 13:19:31  -851.474790c -5.25  -3.25    +59.4600
iter: 299 13:20:57  -851.476927c -5.54  -3.61    +59.5165
iter: 300 13:22:25  -851.476984c -5.59  -3.63    +59.5644
iter: 301 13:23:52  -851.477595c -5.75  -3.65    +59.5934
iter: 302 13:25:20  -851.477955c -5.76  -3.74    +59.6382
iter: 303 13:26:47  -851.479568c -5.61  -3.79    +59.6784
iter: 304 13:28:14  -851.479548c -5.81  -3.72    +59.6948
iter: 305 13:29:41  -851.479688c -5.91  -3.87    +59.7333
iter: 306 13:31:08  -851.480521c -6.06  -3.87    +59.7504
iter: 307 13:32:36  -851.480785c -6.04  -3.99    +59.7874
iter: 308 13:34:03  -851.481428c -6.37  -4.13c   +59.8018
iter: 309 13:35:30  -851.481863c -6.26  -4.12c   +59.8303
iter: 310 13:36:57  -851.482749c -6.06  -4.41c   +59.8709
iter: 311 13:38:25  -851.482208c -6.79  -4.28c   +59.8427
iter: 312 13:39:52  -851.481614c -6.65  -4.42c   +59.8109
iter: 313 13:41:19  -851.483205c -5.98  -4.47c   +59.8844
iter: 314 13:42:46  -851.481082c -5.77  -4.33c   +59.7804
iter: 315 13:44:14  -851.481888c -6.75  -4.40c   +59.8217
iter: 316 13:45:41  -851.481840c -7.39  -4.52c   +59.8236
iter: 317 13:47:09  -851.482508c -6.57  -4.63c   +59.8508
iter: 318 13:48:36  -851.483053c -6.63  -4.45c   +59.8745
iter: 319 13:50:03  -851.483465c -6.65  -4.41c   +59.8970
iter: 320 13:51:31  -851.484328c -6.22  -4.38c   +59.9359
iter: 321 13:52:58  -851.477745c -4.56  -4.24c   +59.6127
iter: 322 13:54:25  -851.468961c -3.85  -4.02c   +58.9699
iter: 323 13:55:52  -851.478971c -4.00  -3.41    +59.6876
iter: 324 13:57:19  -851.477878c -5.83  -4.16c   +59.6264
iter: 325 13:58:46  -851.477044c -6.34  -4.02c   +59.5912
iter: 326 14:00:14  -851.477741c -6.20  -3.95    +59.6412
iter: 327 14:01:41  -851.476139c -5.60  -4.05c   +59.5412
iter: 328 14:03:08  -851.474488c -5.33  -3.87    +59.4400
iter: 329 14:04:35  -851.476270c -5.57  -3.74    +59.5608
iter: 330 14:06:02  -851.475663c -6.24  -3.87    +59.5145
iter: 331 14:07:29  -851.475599c -6.66  -3.78    +59.5225
iter: 332 14:08:56  -851.476287c -5.99  -3.77    +59.5540
iter: 333 14:10:22  -851.475797c -5.99  -3.64    +59.5456
iter: 334 14:11:50  -851.479266c -5.54  -3.73    +59.5906
iter: 335 14:13:18  -851.480202c -4.99  -3.53    +59.5867
iter: 336 14:14:46  -851.475727c -5.46  -3.38    +59.6353
iter: 337 14:16:13  -851.476871c -5.83  -4.00c   +59.6901
iter: 338 14:17:40  -851.476847c -6.49  -4.03c   +59.6903
iter: 339 14:19:08  -851.477680c -6.16  -4.16c   +59.7159
iter: 340 14:20:35  -851.477746c -6.51  -4.18c   +59.7390
iter: 341 14:22:02  -851.479189c -6.08  -4.22c   +59.7865
iter: 342 14:23:29  -851.479448c -6.25  -4.19c   +59.8086
iter: 343 14:24:56  -851.479528c -6.94  -4.21c   +59.8130
iter: 344 14:26:23  -851.480490c -6.14  -4.51c   +59.8466
iter: 345 14:27:50  -851.475485c -4.75  -4.39c   +59.6532
iter: 346 14:29:17  -851.473501c -4.97  -4.01c   +59.5648
iter: 347 14:30:44  -851.474264c -6.28  -3.80    +59.6059
iter: 348 14:32:11  -851.474107c -6.86  -3.85    +59.6003
iter: 349 14:33:38  -851.475342c -5.80  -3.84    +59.6572
iter: 350 14:35:05  -851.471630c -4.69  -3.94    +59.4642
iter: 351 14:36:33  -851.474293c -5.35  -3.61    +59.5784
iter: 352 14:38:00  -851.472233c -5.73  -3.70    +59.5157
iter: 353 14:39:27  -851.472872c -6.57  -3.68    +59.5556
iter: 354 14:40:54  -851.474307c -5.47  -3.71    +59.6542
iter: 355 14:42:22  -851.475304c -5.32  -3.78    +59.5644
iter: 356 14:43:49  -851.475044c -5.25  -3.50    +59.6532
iter: 357 14:45:16  -851.474947c -5.74  -3.57    +59.6715
iter: 358 14:46:43  -851.475605c -5.57  -3.77    +59.7020
iter: 359 14:48:10  -851.476310c -5.38  -3.64    +59.6921
iter: 360 14:49:38  -851.474888c -5.75  -3.59    +59.7211
iter: 361 14:51:05  -851.477063c -5.53  -4.01c   +59.7693
iter: 362 14:52:32  -851.475505c -6.20  -3.73    +59.7520
iter: 363 14:53:59  -851.476314c -6.34  -4.30c   +59.7756
iter: 364 14:55:26  -851.476697c -6.38  -4.22c   +59.7880
iter: 365 14:56:53  -851.477324c -6.28  -4.24c   +59.8197
iter: 366 14:58:21  -851.478314c -6.15  -4.43c   +59.8490
iter: 367 14:59:48  -851.477797c -7.10  -4.38c   +59.8343
iter: 368 15:01:15  -851.475640c -5.51  -4.48c   +59.7644
iter: 369 15:02:42  -851.477389c -5.95  -4.29c   +59.8189
iter: 370 15:04:09  -851.477179c -7.50c -4.52c   +59.8157

Converged after 370 iterations.

Dipole moment: (-1.663929, 13.357747, 14.554243) |e|*Ang

Total magnetic moment: (0.000000, 0.000000, 59.815670)
Local magnetic moments:
   0 Co ( 0.000000,  0.000000,  1.153890)
   1 Fe ( 0.000000,  0.000000,  2.200270)
   2 Co ( 0.000000,  0.000000,  1.454500)
   3 Co ( 0.000000,  0.000000,  1.260382)
   4 Co ( 0.000000,  0.000000,  1.218131)
   5 Ni ( 0.000000,  0.000000,  0.220378)
   6 Fe ( 0.000000,  0.000000,  2.012156)
   7 Al ( 0.000000,  0.000000, -0.014976)
   8 Fe ( 0.000000,  0.000000, -1.222047)
   9 Cr ( 0.000000,  0.000000,  0.780650)
  10 Al ( 0.000000,  0.000000, -0.008865)
  11 Co ( 0.000000,  0.000000,  1.015735)
  12 Co ( 0.000000,  0.000000,  1.050878)
  13 Fe ( 0.000000,  0.000000,  2.287332)
  14 Al ( 0.000000,  0.000000, -0.031942)
  15 Co ( 0.000000,  0.000000,  1.243047)
  16 Co ( 0.000000,  0.000000,  1.251373)
  17 Co ( 0.000000,  0.000000,  1.127574)
  18 Co ( 0.000000,  0.000000,  1.057535)
  19 Al ( 0.000000,  0.000000, -0.036691)
  20 Fe ( 0.000000,  0.000000,  2.202293)
  21 Fe ( 0.000000,  0.000000,  2.040580)
  22 Cr ( 0.000000,  0.000000, -1.324606)
  23 Al ( 0.000000,  0.000000, -0.031500)
  24 Co ( 0.000000,  0.000000,  0.976866)
  25 Fe ( 0.000000,  0.000000,  2.185705)
  26 Fe ( 0.000000,  0.000000,  2.274953)
  27 Co ( 0.000000,  0.000000,  1.447162)
  28 Cr ( 0.000000,  0.000000, -2.033020)
  29 Ni ( 0.000000,  0.000000,  0.529568)
  30 Fe ( 0.000000,  0.000000,  1.912783)
  31 Fe ( 0.000000,  0.000000,  2.078415)
  32 Co ( 0.000000,  0.000000,  0.929875)
  33 Fe ( 0.000000,  0.000000, -1.349246)
  34 Co ( 0.000000,  0.000000,  0.988184)
  35 Cr ( 0.000000,  0.000000, -0.580732)
  36 Cr ( 0.000000,  0.000000, -1.573114)
  37 Cr ( 0.000000,  0.000000, -0.220250)
  38 Cr ( 0.000000,  0.000000,  0.726421)
  39 Cr ( 0.000000,  0.000000,  0.401377)
  40 Ni ( 0.000000,  0.000000,  0.281918)
  41 Ni ( 0.000000,  0.000000,  0.185497)
  42 Co ( 0.000000,  0.000000,  1.065780)
  43 Cr ( 0.000000,  0.000000,  0.510412)
  44 Cr ( 0.000000,  0.000000, -1.033493)
  45 Fe ( 0.000000,  0.000000,  1.433898)
  46 Fe ( 0.000000,  0.000000,  1.964165)
  47 Co ( 0.000000,  0.000000,  0.419338)
  48 Ni ( 0.000000,  0.000000,  0.281449)
  49 Ni ( 0.000000,  0.000000,  0.171434)
  50 Fe ( 0.000000,  0.000000,  2.128671)
  51 Co ( 0.000000,  0.000000,  1.214040)
  52 Cr ( 0.000000,  0.000000, -1.710118)
  53 Fe ( 0.000000,  0.000000,  2.281225)
  54 Ni ( 0.000000,  0.000000,  0.148665)
  55 Fe ( 0.000000,  0.000000,  2.181018)
  56 Cr ( 0.000000,  0.000000, -1.374179)
  57 Ni ( 0.000000,  0.000000,  0.196149)
  58 Fe ( 0.000000,  0.000000,  1.758083)
  59 Fe ( 0.000000,  0.000000,  1.736968)
[...]
  93 Ni ( 0.000000,  0.000000,  0.213187)
  94 Ni ( 0.000000,  0.000000,  0.147653)
  95 Cr ( 0.000000,  0.000000, -0.662011)
  96 Ni ( 0.000000,  0.000000,  0.079578)
  97 Al ( 0.000000,  0.000000, -0.016240)
  98 Co ( 0.000000,  0.000000,  1.219911)
  99 Ni ( 0.000000,  0.000000,  0.209051)
 100 Co ( 0.000000,  0.000000,  1.323535)
 101 Co ( 0.000000,  0.000000,  1.334266)
 102 Co ( 0.000000,  0.000000,  1.134784)
 103 Ni ( 0.000000,  0.000000,  0.275323)
 104 Ni ( 0.000000,  0.000000,  0.123618)
 105 Al ( 0.000000,  0.000000, -0.019511)
 106 Co ( 0.000000,  0.000000,  0.099942)
 107 Cr ( 0.000000,  0.000000,  0.134231)

Energy contributions relative to reference atoms: (reference = -3548577.034362)

Kinetic:       +168.945512
Potential:     -203.916225
External:        +0.000000
XC:            -850.185865
Entropy (-ST):   -4.584229
Local:          +35.971514
Free energy:   -853.769294
Extrapolated:  -851.477179

Spin contamination: 25.972492 electrons
Showing only first 2 kpts
                      Up                     Down
 Kpt  Band  Eigenvalues  Occupancy  Eigenvalues  Occupancy
  0   488      9.51245    0.99185     10.33524    0.03150
  0   489      9.52169    0.99107     10.35454    0.02612
  0   490      9.53743    0.98957     10.36638    0.02327
  0   491      9.54731    0.98850     10.38055    0.02026

  1   488      9.51185    0.99190     10.35616    0.02571
  1   489      9.51829    0.99137     10.37243    0.02193
  1   490      9.53650    0.98966     10.38635    0.01914
  1   491      9.54974    0.98822     10.39117    0.01825

Fermi level: 9.99267

No gap

Forces in eV/Ang:
  0 Co   -0.00379    0.23805    0.03626
  1 Fe    0.13165    0.01937   -0.30224
  2 Co   -0.12846   -0.45644   -0.15350
  3 Co    0.12466   -0.17684    0.30897
  4 Co   -0.43909   -0.18217    0.35123
  5 Ni   -0.48256    0.12718   -0.23161
  6 Fe   -0.11767   -0.40792    0.14667
  7 Al   -0.79433    0.77380    0.42691
  8 Fe    0.49679    0.02311   -0.14135
  9 Cr    0.00116    0.56200   -0.04336
 10 Al    0.19564   -0.15796   -0.79999
 11 Co   -0.02441   -0.05406   -0.64721
 12 Co    0.09829   -0.40975    0.03842
 13 Fe    0.13709    0.01748   -0.29522
 14 Al    0.00343    0.71374   -1.32587
 15 Co    0.17985   -0.28942    0.22924
 16 Co   -0.26149    0.19713    0.29202
 17 Co   -0.19017   -0.39088   -0.01422
 18 Co   -0.00742    0.21711    0.14376
 19 Al    0.36591   -1.13068    0.02708
 20 Fe    0.07933   -0.61430   -0.11898
 21 Fe   -0.17617   -0.42204    0.09695
 22 Cr    0.30283   -0.82021    0.06008
 23 Al   -0.27086    0.48772   -0.49095
 24 Co    0.40017    0.01895    0.35001
 25 Fe    0.52569    0.15263   -0.42866
 26 Fe   -0.04757    0.02194   -0.43708
 27 Co    0.27722    0.25236    0.51169
 28 Cr   -1.09346    0.57741   -0.00101
 29 Ni   -0.40385    0.40003   -0.17263
 30 Fe   -0.27741    0.26656    0.08185
 31 Fe   -0.11143    0.06064    0.38883
 32 Co    0.21989    0.55905    0.31768
 33 Fe   -0.02701    0.31887   -0.81932
 34 Co    0.39088    0.16143   -0.06376
 35 Cr   -0.11180   -0.29685    0.62619
 36 Cr    0.54961   -0.37653    0.74903
 37 Cr    0.19108   -0.15001   -0.11450
 38 Cr   -0.60412    0.32753    0.14179
 39 Cr    0.02572   -0.87884   -0.14810
 40 Ni   -0.13260    0.25555   -0.38485
 41 Ni   -0.12048   -0.07338    0.01694
 42 Co    0.18249    0.02529    0.08477
 43 Cr   -0.04694    0.08832   -0.07030
 44 Cr   -0.38254    0.12169    0.73599
 45 Fe    0.15338   -0.28441   -0.35724
 46 Fe    0.35935   -0.36816    0.12776
 47 Co    0.09968    0.16685    0.43406
 48 Ni    0.05957   -0.03987   -0.13890
 49 Ni   -0.13958   -0.31555   -0.14427
 50 Fe   -0.05858   -0.15250    0.20627
 51 Co    0.21369    0.10240   -0.11845
 52 Cr    0.66916    0.09464   -0.03728
 53 Fe   -0.51826    0.05633   -0.31842
 54 Ni    0.10842   -0.07188   -0.17093
 55 Fe   -0.38823   -0.93994   -0.54363
 56 Cr   -0.40015   -0.03454    0.11048
 57 Ni    0.09885   -0.03748   -0.20691
 58 Fe    0.15713    0.20937   -0.54903
 59 Fe    0.12411   -0.25043    0.18282
[...]
 93 Ni    0.04765   -0.15173   -0.11400
 94 Ni    0.11601   -0.24410    0.56000
 95 Cr    0.10340   -0.13467    0.13999
 96 Ni   -0.10083   -0.15581   -0.08898
 97 Al    0.61680   -0.31407    0.07448
 98 Co    0.44667   -0.56089    0.38475
 99 Ni   -0.26635    0.18206    0.14660
100 Co   -0.20363    0.09524    0.22800
101 Co   -0.12975   -0.07612    0.27032
102 Co   -0.41577    0.21996   -0.03178
103 Ni   -0.11220    0.06330   -0.03283
104 Ni    0.22245    0.09090   -0.00576
105 Al   -0.19758   -0.54204   -0.06698
106 Co    0.15241    0.14447   -0.14597
107 Cr    0.19583    0.52247   -0.42045

Date: Fri Apr 14 15:04:27 2023