User:   c.zeng@d0022
Date:   Fri Apr 14 15:04:45 2023
Arch:   x86_64
Pid:    185195
CWD:    /home/c.zeng/projects/hea-corrosion/hea-mlp/data-curation/bulk-mcmc/dft-jobs/14
Python: 3.8.1
gpaw:   /home/c.zeng/usr/installs/gpaw/source/gpaw-22.8.0/gpaw
_gpaw:  /home/c.zeng/usr/installs/gpaw/source/gpaw-22.8.0/
        _gpaw.cpython-38-x86_64-linux-gnu.so
ase:    /home/c.zeng/.local/lib/python3.8/site-packages/ase-3.22.1-py3.8.egg/ase (version 3.22.1)
numpy:  /shared/centos7/python/3.8.1/lib/python3.8/site-packages/numpy (version 1.17.4)
scipy:  /shared/centos7/python/3.8.1/lib/python3.8/site-packages/scipy (version 1.4.1)
units:  Angstrom and eV
cores: 30
OpenMP: False
OMP_NUM_THREADS: 1

Input parameters:
  convergence: {energy: 0.0001}
  kpts: [2 2 2]
  maxiter: 666
  mode: {ecut: 350.0,
         name: pw}
  occupations: {fixmagmom: False,
                name: fermi-dirac,
                width: 0.1}
  spinpol: True
  xc: PBE

System changes: positions, numbers, cell, pbc, initial_charges, initial_magmoms

Initialize ...

species:
  Co:
    name: Cobalt
    id: 339d20d5b0b93d2de9531a1bee871d91
    Z: 27.0
    valence: 9
    core: 18
    charge: 0.0
    file: /home/c.zeng/usr/data/gpaw-setups-0.9.20000/Co.PBE.gz
    compensation charges: {type: gauss,
                           rc: 0.32,
                           lmax: 2}
    cutoffs: {filter: 1.87,
              core: 2.55}
    valence states:
      #              energy  rcut
      - 4s(2.00)    -5.469   1.005
      - 4p(0.00)    -1.277   1.058
      - 3d(7.00)    -8.205   1.005
      -  s          21.742   1.005
      -  p          25.934   1.058
      -  d          19.007   1.005

    # Using partial waves for Co as LCAO basis

  Fe:
    name: Iron
    id: 37abbd8d6c3c35915a9b583b742da910
    Z: 26.0
    valence: 8
    core: 18
    charge: 0.0
    file: /home/c.zeng/usr/data/gpaw-setups-0.9.20000/Fe.PBE.gz
    compensation charges: {type: gauss,
                           rc: 0.33,
                           lmax: 2}
    cutoffs: {filter: 2.06,
              core: 2.67}
    valence states:
      #              energy  rcut
      - 4s(2.00)    -5.291   1.164
      - 4p(0.00)    -1.326   1.058
      - 3d(6.00)    -7.505   1.058
      -  s          21.920   1.164
      -  p          25.885   1.058
      -  d          19.706   1.058

[...]

  Ni:
    name: Nickel
    id: 0d9f38a9d6e76a2886f07bb4381f212b
    Z: 28.0
    valence: 16
    core: 12
    charge: 0.0
    file: /home/c.zeng/usr/data/gpaw-setups-0.9.20000/Ni.PBE.gz
    compensation charges: {type: gauss,
                           rc: 0.36,
                           lmax: 2}
    cutoffs: {filter: 2.14,
              core: 1.98}
    valence states:
      #              energy  rcut
      - 4s(2.00)    -5.642   1.164
      - 3p(6.00)   -71.394   1.207
      - 4p(0.00)    -1.226   1.207
      - 3d(8.00)    -8.875   1.138
      -  s          21.570   1.164
      -  d          18.337   1.138

[...]

  Cr:
    name: Chromium
    id: 33f258bda2ca9f93018e70263a35547b
    Z: 24.0
    valence: 6
    core: 18
    charge: 0.0
    file: /home/c.zeng/usr/data/gpaw-setups-0.9.20000/Cr.PBE.gz
    compensation charges: {type: gauss,
                           rc: 0.35,
                           lmax: 2}
    cutoffs: {filter: 2.14,
              core: 3.04}
    valence states:
      #              energy  rcut
      - 4s(1.00)    -4.007   1.164
      - 4p(0.00)    -0.989   1.217
      - 3d(5.00)    -2.913   1.111
      -  s          23.205   1.164
      -  p          26.223   1.217
      -  d          24.299   1.111

    # Using partial waves for Cr as LCAO basis

Reference energy: -3846758.590871  # eV

Spin-polarized calculation.
Magnetic moment: 151.200000

Convergence criteria:
 Maximum [total energy] change in last 3 cyles: 0.0001 eV / electron
 Maximum integral of absolute [dens]ity change: 0.0001 electrons / valence electron
 Maximum integral of absolute [eigenst]ate change: 4e-08 eV^2 / valence electron
 Maximum number of scf [iter]ations: 666
 (Square brackets indicate name in SCF output, whereas a 'c' in
 the SCF output indicates the quantity has converged.)

Symmetries present (total): 1

  ( 1  0  0)
  ( 0  1  0)
  ( 0  0  1)

8 k-points: 2 x 2 x 2 Monkhorst-Pack grid
4 k-points in the irreducible part of the Brillouin zone
       k-points in crystal coordinates                weights
   0:     0.25000000   -0.25000000   -0.25000000          2/8
   1:     0.25000000   -0.25000000    0.25000000          2/8
   2:     0.25000000    0.25000000   -0.25000000          2/8
   3:     0.25000000    0.25000000    0.25000000          2/8

Wave functions: Plane wave expansion
  Cutoff energy: 350.000 eV
  Number of coefficients (min, max): 17755, 17755
  Pulay-stress correction: 0.000000 eV/Ang^3 (de/decut=0.000000)
  Using FFTW library
  ScaLapack parameters: grid=1x1, blocksize=None
  Wavefunction extrapolation:
    Improved wavefunction reuse through dual PAW basis

Occupation numbers: Fermi-Dirac:
  width: 0.1000  # eV

Eigensolver
   Davidson(niter=2)

Densities:
  Coarse grid: 48*48*48 grid
  Fine grid: 96*96*96 grid
  Total Charge: 0.000000

Density mixing:
  Method: difference
  Backend: pulay
  Linear mixing parameter: 0.05
  old densities: 5
  Damping of long wavelength oscillations: 50

Hamiltonian:
  XC and Coulomb potentials evaluated on a 96*96*96 grid
  Using the PBE Exchange-Correlation functional
  External potential:
    NoExternalPotential

XC parameters: PBE with 2 nearest neighbor stencil

Total number of cores used: 30
Parallelization over k-points: 2
Domain decomposition: 5 x 3 x 1

Number of atoms: 108
Number of atomic orbitals: 1053
Number of bands in calculation: 727
Number of valence electrons: 1053
Bands to converge: occupied

... initialized

Initializing position-dependent things.

Density initialized from atomic densities
Creating initial wave functions:
  727 bands from LCAO basis set

       /|  Cr       Cr      Ni    |
      / |   NiFe     Cr           |
     /  |       Co      Fe       Fe
    /   |Ni      CFe       Co     Cr
   /    | Co       Ni       NFe   |
  /  CCo|  FeCr     CoNi          |
 *    CrNi    FeCr   FeNiCo       |
 |      |CoNi   FeFeNi  CoCrFe   Ni
 |      | CrCo     CoCrFeCrCrNi   |
 |    Co|  CoFeCr   CoNiFe   NiCo |
 |      Cr    CrNiCr NiNiNi     Cr|
 |      |FeFe  CoFeNi   FeCrFe   Ni
 |      .-FeCo-----CrCrFe--NiCr---Co
 |   Cro     Fe       Cr         /
 |    NiCo     Coi     CCre     /
 |   /    Co               Cr  /
 |  /      Fe       Fe    CrFe/
 | / Fe     Ni       NiNi    /
 |/            Co       Cr  /
 *--------Co------Co-------*

Positions:
   0 Co    -0.012479   -0.003723   10.616104    ( 0.0000,  0.0000,  2.1000)
   1 Fe    -0.011321    1.761305    1.763386    ( 0.0000,  0.0000,  2.1000)
   2 Fe     1.758365    0.001326    1.769011    ( 0.0000,  0.0000,  2.0000)
   3 Co     1.752686    1.779222   10.610436    ( 0.0000,  0.0000,  2.0000)
   4 Co     3.541196    0.004726   10.616104    ( 0.0000,  0.0000,  0.0000)
   5 Fe     3.534711    1.782438    1.778999    ( 0.0000,  0.0000,  0.0000)
   6 Ni     5.305717   10.600629    1.767950    ( 0.0000,  0.0000,  2.1000)
   7 Co     5.324780    1.765604   10.614618    ( 0.0000,  0.0000,  0.0000)
   8 Co     7.089121    0.014598   10.619926    ( 0.0000,  0.0000,  2.0000)
   9 Fe     7.085279    1.771219    1.773543    ( 0.0000,  0.0000,  1.5000)
  10 Ni     8.850554    0.011470    1.768756    ( 0.0000,  0.0000,  1.5000)
  11 Cr     8.842381    1.777333   10.615680    ( 0.0000,  0.0000,  2.1000)
  12 Fe    10.590535    3.538203   -0.001956    ( 0.0000,  0.0000,  0.0000)
  13 Ni    10.624277    5.310674    1.769786    ( 0.0000,  0.0000,  2.0000)
  14 Co     1.761379    3.535623    1.784572    ( 0.0000,  0.0000,  0.0000)
  15 Ni     1.770200    5.301408   10.611753    ( 0.0000,  0.0000,  2.0000)
  16 Ni     3.556003    3.551407   10.618333    ( 0.0000,  0.0000,  1.5000)
  17 Fe     3.539370    5.311290    1.775199    ( 0.0000,  0.0000,  2.1000)
  18 Ni     5.320142    3.545059    1.779678    ( 0.0000,  0.0000,  1.5000)
  19 Fe     5.306980    5.314654   10.602720    ( 0.0000,  0.0000,  0.0000)
  20 Ni     7.081585    3.529127   10.614725    ( 0.0000,  0.0000,  2.1000)
  21 Cr     7.069241    5.303361    1.781271    ( 0.0000,  0.0000,  1.5000)
  22 Fe     8.841447    3.542671    1.781600    ( 0.0000,  0.0000,  2.1000)
  23 Cr     8.850893    5.290379    0.000220    ( 0.0000,  0.0000,  0.0000)
  24 Ni     0.005868    7.083411   10.614937    ( 0.0000,  0.0000,  2.0000)
  25 Ni    10.601043    8.849694    1.772960    ( 0.0000,  0.0000,  2.1000)
  26 Fe     1.773713    7.072329    1.777184    ( 0.0000,  0.0000,  0.0000)
  27 Cr     1.755520    8.842943   10.608324    ( 0.0000,  0.0000,  0.0000)
  28 Fe     3.544009    7.063116   10.610489    ( 0.0000,  0.0000,  2.0000)
  29 Co     3.542225    8.826820    1.785580    ( 0.0000,  0.0000,  0.0000)
  30 Cr     5.309835    7.081776    1.776600    ( 0.0000,  0.0000,  2.1000)
  31 Cr     5.331945    8.840321   10.604673    ( 0.0000,  0.0000,  2.1000)
  32 Co     7.068434    7.069028   10.623110    ( 0.0000,  0.0000,  0.0000)
  33 Fe     7.083750    8.846796    1.774509    ( 0.0000,  0.0000,  1.5000)
  34 Ni     8.841404    7.058180    1.777173    ( 0.0000,  0.0000,  1.5000)
  35 Ni     8.835524    8.853600   10.611753    ( 0.0000,  0.0000,  0.0000)
  36 Cr    -0.009351   10.618864    3.531070    ( 0.0000,  0.0000,  2.0000)
  37 Fe    10.602508    1.764818    5.300452    ( 0.0000,  0.0000,  1.5000)
  38 Cr     1.756720    0.001379    5.295867    ( 0.0000,  0.0000,  0.0000)
  39 Co     1.766506    1.767154    3.539222    ( 0.0000,  0.0000,  2.0000)
  40 Co     3.539742    0.013881    3.542873    ( 0.0000,  0.0000,  2.0000)
  41 Fe     3.548944    1.788658    5.306237    ( 0.0000,  0.0000,  2.1000)
  42 Fe     5.320174   -0.004685    5.301386    ( 0.0000,  0.0000,  0.0000)
  43 Co     5.316862    1.765551    3.538935    ( 0.0000,  0.0000,  2.0000)
  44 Cr     7.081086   -0.000289    3.531325    ( 0.0000,  0.0000,  2.0000)
  45 Ni     7.072902    1.777407    5.300537    ( 0.0000,  0.0000,  2.0000)
  46 Fe     8.840544    0.012372    5.307851    ( 0.0000,  0.0000,  1.5000)
  47 Cr     8.833592    1.767928    3.534318    ( 0.0000,  0.0000,  2.1000)
  48 Cr    -0.004066    3.525285    3.545951    ( 0.0000,  0.0000,  0.0000)
  49 Co    -0.001689    5.317934    5.307787    ( 0.0000,  0.0000,  1.5000)
  50 Cr     1.769043    3.555101    5.297279    ( 0.0000,  0.0000,  2.0000)
  51 Fe     1.773692    5.305929    3.538266    ( 0.0000,  0.0000,  2.1000)
  52 Co     3.542746    3.537364    3.547575    ( 0.0000,  0.0000,  2.1000)
  53 Fe     3.548477    5.306927    5.301153    ( 0.0000,  0.0000,  2.0000)
  54 Ni     5.316246    3.553031    5.303637    ( 0.0000,  0.0000,  2.0000)
  55 Fe     5.303286    5.303531    3.542385    ( 0.0000,  0.0000,  1.5000)
  56 Cr     7.074962    3.533023    3.537215    ( 0.0000,  0.0000,  1.5000)
  57 Ni     7.066046    5.306046    5.300081    ( 0.0000,  0.0000,  2.0000)
  58 Ni     8.834526    3.538160    5.294530    ( 0.0000,  0.0000,  2.1000)
  59 Cr     8.846255    5.300452    3.537672    ( 0.0000,  0.0000,  1.5000)
[...]
  93 Ni     7.071130    5.304220    8.839313    ( 0.0000,  0.0000,  1.5000)
  94 Co     8.837997    3.524669    8.843389    ( 0.0000,  0.0000,  1.5000)
  95 Cr     8.833772    5.299051    7.076862    ( 0.0000,  0.0000,  0.0000)
  96 Cr     0.012168    7.080333    7.083835    ( 0.0000,  0.0000,  1.5000)
  97 Fe    -0.017034    8.848707    8.843941    ( 0.0000,  0.0000,  2.1000)
  98 Co     1.777938    7.075503    8.840194    ( 0.0000,  0.0000,  2.0000)
  99 Fe     1.758800    8.840035    7.069803    ( 0.0000,  0.0000,  0.0000)
 100 Fe     3.549921    7.066194    7.070090    ( 0.0000,  0.0000,  2.1000)
 101 Co     3.553137    8.839111    8.836776    ( 0.0000,  0.0000,  0.0000)
 102 Ni     5.304189    7.079929    8.840215    ( 0.0000,  0.0000,  2.0000)
 103 Co     5.321946    8.832180    7.082997    ( 0.0000,  0.0000,  2.1000)
 104 Ni     7.057077    7.072149    7.064167    ( 0.0000,  0.0000,  1.5000)
 105 Fe     7.082402    8.855500    8.837487    ( 0.0000,  0.0000,  2.1000)
 106 Co     8.846786    7.077881    8.846732    ( 0.0000,  0.0000,  0.0000)
 107 Ni     8.839313    8.848272    7.075153    ( 0.0000,  0.0000,  0.0000)

Unit cell:
           periodic     x           y           z      points  spacing
  1. axis:    yes   10.614300    0.000000    0.000000    48     0.2211
  2. axis:    yes    0.000000   10.614300    0.000000    48     0.2211
  3. axis:    yes    0.000000    0.000000   10.614300    48     0.2211

  Lengths:  10.614300  10.614300  10.614300
  Angles:   90.000000  90.000000  90.000000

Effective grid spacing dv^(1/3) = 0.2211

     iter     time        total  log10-change:  magmom
                         energy  eigst   dens
iter:   1 15:09:04  -958.360149                  +151.1292
iter:   2 15:10:44  -933.986270  -0.57  -1.35    +115.4445
iter:   3 15:12:25  -918.796066  -0.97  -1.37    +85.2045
iter:   4 15:14:05  -897.549249  -1.37  -1.38    +70.8179
iter:   5 15:15:45  -891.249940  -1.93  -1.48    +63.8067
iter:   6 15:17:26  -893.930515  -1.94  -1.53    +59.3120
iter:   7 15:19:06  -900.478736  -1.61  -1.55    +57.4771
iter:   8 15:20:45  -888.534333  -1.67  -1.56    +55.7555
iter:   9 15:22:26  -892.228451  -1.94  -1.79    +55.0968
iter:  10 15:24:06  -888.160082  -2.14  -1.77    +54.5139
iter:  11 15:25:47  -887.397113  -2.52  -1.88    +54.3614
iter:  12 15:27:27  -887.016805  -2.73  -1.93    +54.8542
iter:  13 15:29:07  -888.314549  -2.75  -1.99    +55.3415
iter:  14 15:30:47  -889.209173  -2.56  -2.00    +55.7939
iter:  15 15:32:28  -889.479249  -2.58  -1.99    +56.3396
iter:  16 15:34:08  -890.968653  -2.46  -2.05    +56.7594
iter:  17 15:35:48  -889.258374  -2.64  -1.99    +56.9219
iter:  18 15:37:29  -889.061549  -2.73  -2.18    +57.4901
iter:  19 15:39:09  -889.497897  -2.95  -2.24    +58.2536
iter:  20 15:40:49  -889.364244  -2.97  -2.22    +58.8755
iter:  21 15:42:26  -889.361946  -3.21  -2.30    +59.3710
iter:  22 15:44:04  -889.413873c -3.24  -2.35    +60.0511
iter:  23 15:45:41  -889.391454c -3.59  -2.37    +60.8417
iter:  24 15:47:18  -889.632236  -3.45  -2.46    +61.7628
iter:  25 15:48:55  -889.760300  -3.67  -2.45    +62.3276
iter:  26 15:50:33  -889.953381  -3.48  -2.49    +63.0419
iter:  27 15:52:10  -890.142133  -3.36  -2.49    +63.4756
iter:  28 15:53:47  -890.231875  -3.25  -2.49    +63.5356
iter:  29 15:55:25  -890.182043c -3.46  -2.53    +63.5130
iter:  30 15:57:03  -890.131962c -3.55  -2.57    +63.7991
iter:  31 15:58:40  -890.170854c -3.83  -2.67    +64.0769
iter:  32 16:00:18  -890.148443c -4.10  -2.70    +64.1834
iter:  33 16:01:56  -890.176099c -4.27  -2.78    +64.2901
iter:  34 16:03:33  -890.198309c -4.54  -2.78    +64.4585
iter:  35 16:05:11  -890.302926  -3.93  -2.83    +64.7294
iter:  36 16:06:49  -890.260105c -4.18  -2.75    +64.5894
iter:  37 16:08:25  -890.297627c -4.16  -3.01    +64.5275
iter:  38 16:10:03  -890.289344c -4.33  -2.92    +64.5990
iter:  39 16:11:40  -890.287983c -4.57  -3.07    +64.6401
iter:  40 16:13:18  -890.299568c -4.81  -3.20    +64.6530
iter:  41 16:14:56  -890.309584c -4.87  -3.19    +64.6516
iter:  42 16:16:33  -890.317764c -5.08  -3.25    +64.7184
iter:  43 16:18:10  -890.332838c -4.91  -3.28    +64.7444
iter:  44 16:19:48  -890.349417c -4.93  -3.27    +64.7409
iter:  45 16:21:26  -890.391405c -4.15  -3.21    +64.6948
iter:  46 16:23:04  -890.430321c -4.00  -3.12    +64.6672
iter:  47 16:24:41  -890.429193c -5.03  -3.01    +64.7166
iter:  48 16:26:19  -890.433813c -5.11  -3.02    +64.7420
iter:  49 16:27:56  -890.445062c -5.01  -3.01    +64.7607
iter:  50 16:29:34  -890.447931c -4.62  -2.98    +64.7849
iter:  51 16:31:11  -890.490451c -4.15  -2.97    +64.7890
iter:  52 16:32:48  -890.436906c -4.54  -2.83    +64.7524
iter:  53 16:34:26  -890.480754c -4.22  -3.04    +64.6768
iter:  54 16:36:04  -890.444800c -4.36  -2.89    +64.7150
iter:  55 16:37:41  -890.429267c -4.54  -3.03    +64.7435
iter:  56 16:39:18  -890.425836c -5.28  -3.15    +64.6754
iter:  57 16:40:56  -890.436194c -4.80  -3.23    +64.6736
iter:  58 16:42:33  -890.428224c -4.87  -3.16    +64.6655
iter:  59 16:44:10  -890.433680c -4.85  -3.23    +64.6853
iter:  60 16:45:47  -890.431126c -4.98  -3.21    +64.6332
iter:  61 16:47:25  -890.435521c -4.84  -3.27    +64.6156
iter:  62 16:49:02  -890.427128c -5.02  -3.27    +64.6538
iter:  63 16:50:40  -890.425669c -5.48  -3.35    +64.6434
iter:  64 16:52:17  -890.426730c -5.51  -3.46    +64.6409
iter:  65 16:53:55  -890.426294c -5.68  -3.47    +64.6246
iter:  66 16:55:32  -890.425881c -5.83  -3.49    +64.6336
iter:  67 16:57:10  -890.426129c -5.85  -3.54    +64.6289
iter:  68 16:58:47  -890.431570c -5.28  -3.57    +64.6161
iter:  69 17:00:24  -890.428313c -5.52  -3.43    +64.6216
iter:  70 17:02:02  -890.427992c -5.45  -3.57    +64.6250
iter:  71 17:03:39  -890.428320c -5.53  -3.56    +64.6335
iter:  72 17:05:16  -890.427524c -5.64  -3.60    +64.6149
iter:  73 17:06:54  -890.426858c -6.26  -3.67    +64.6124
iter:  74 17:08:31  -890.426698c -6.35  -3.83    +64.6242
iter:  75 17:10:09  -890.426817c -6.92  -3.82    +64.6231
iter:  76 17:11:47  -890.427278c -6.64  -3.88    +64.6260
iter:  77 17:13:24  -890.427270c -6.48  -3.87    +64.6235
iter:  78 17:15:02  -890.428500c -5.82  -3.90    +64.6287
iter:  79 17:16:39  -890.427627c -5.99  -3.74    +64.6247
iter:  80 17:18:16  -890.428055c -6.15  -3.92    +64.6112
iter:  81 17:19:54  -890.427687c -6.32  -4.00    +64.6179
iter:  82 17:21:31  -890.427445c -6.53  -4.04c   +64.6160
iter:  83 17:23:08  -890.427570c -7.10  -4.15c   +64.6170
iter:  84 17:24:46  -890.427684c -7.37  -4.36c   +64.6136
iter:  85 17:26:23  -890.427911c -7.02  -4.39c   +64.6126
iter:  86 17:28:00  -890.429159c -5.78  -4.38c   +64.6096
iter:  87 17:29:37  -890.428768c -7.02  -4.12c   +64.6161
iter:  88 17:31:15  -890.428963c -7.10  -4.18c   +64.6203
iter:  89 17:32:52  -890.429238c -6.76  -4.18c   +64.6255
iter:  90 17:34:29  -890.429125c -6.92  -4.16c   +64.6232
iter:  91 17:36:07  -890.429091c -7.30  -4.41c   +64.6242
iter:  92 17:37:44  -890.429122c -7.09  -4.50c   +64.6230
iter:  93 17:39:22  -890.429126c -7.66c -4.44c   +64.6210

Converged after 93 iterations.

Dipole moment: (6.526030, -2.075319, 0.901858) |e|*Ang

Total magnetic moment: (0.000000, 0.000000, 64.621034)
Local magnetic moments:
   0 Co ( 0.000000,  0.000000,  1.323603)
   1 Fe ( 0.000000,  0.000000,  1.911390)
   2 Fe ( 0.000000,  0.000000,  2.304727)
   3 Co ( 0.000000,  0.000000,  1.520529)
   4 Co ( 0.000000,  0.000000,  1.294574)
   5 Fe ( 0.000000,  0.000000,  2.468670)
   6 Ni ( 0.000000,  0.000000,  0.398861)
   7 Co ( 0.000000,  0.000000,  1.296663)
   8 Co ( 0.000000,  0.000000,  1.076002)
   9 Fe ( 0.000000,  0.000000,  2.001608)
  10 Ni ( 0.000000,  0.000000,  0.212233)
  11 Cr ( 0.000000,  0.000000, -1.751497)
  12 Fe ( 0.000000,  0.000000,  2.257804)
  13 Ni ( 0.000000,  0.000000,  0.195012)
  14 Co ( 0.000000,  0.000000,  1.306423)
  15 Ni ( 0.000000,  0.000000,  0.436878)
  16 Ni ( 0.000000,  0.000000,  0.352826)
  17 Fe ( 0.000000,  0.000000,  1.951039)
  18 Ni ( 0.000000,  0.000000,  0.319334)
  19 Fe ( 0.000000,  0.000000,  1.985462)
  20 Ni ( 0.000000,  0.000000,  0.225469)
  21 Cr ( 0.000000,  0.000000,  0.407173)
  22 Fe ( 0.000000,  0.000000,  1.319690)
  23 Cr ( 0.000000,  0.000000, -1.490757)
  24 Ni ( 0.000000,  0.000000,  0.391779)
  25 Ni ( 0.000000,  0.000000,  0.215240)
  26 Fe ( 0.000000,  0.000000,  2.136323)
  27 Cr ( 0.000000,  0.000000, -1.974224)
  28 Fe ( 0.000000,  0.000000,  2.019884)
  29 Co ( 0.000000,  0.000000,  1.045886)
  30 Cr ( 0.000000,  0.000000, -1.173165)
  31 Cr ( 0.000000,  0.000000, -1.003298)
  32 Co ( 0.000000,  0.000000,  0.826726)
  33 Fe ( 0.000000,  0.000000,  2.245254)
  34 Ni ( 0.000000,  0.000000,  0.096356)
  35 Ni ( 0.000000,  0.000000,  0.407490)
  36 Cr ( 0.000000,  0.000000, -1.325711)
  37 Fe ( 0.000000,  0.000000,  1.521038)
  38 Cr ( 0.000000,  0.000000, -1.263161)
  39 Co ( 0.000000,  0.000000,  0.937071)
  40 Co ( 0.000000,  0.000000,  1.374239)
  41 Fe ( 0.000000,  0.000000,  2.163543)
  42 Fe ( 0.000000,  0.000000,  2.168823)
  43 Co ( 0.000000,  0.000000,  1.313089)
  44 Cr ( 0.000000,  0.000000, -1.814223)
  45 Ni ( 0.000000,  0.000000,  0.116178)
  46 Fe ( 0.000000,  0.000000,  1.855657)
  47 Cr ( 0.000000,  0.000000,  0.803049)
  48 Cr ( 0.000000,  0.000000, -1.166995)
  49 Co ( 0.000000,  0.000000,  0.395122)
  50 Cr ( 0.000000,  0.000000, -1.509439)
  51 Fe ( 0.000000,  0.000000,  1.725928)
  52 Co ( 0.000000,  0.000000,  1.296200)
  53 Fe ( 0.000000,  0.000000,  1.846583)
  54 Ni ( 0.000000,  0.000000,  0.311165)
  55 Fe ( 0.000000,  0.000000,  1.859375)
  56 Cr ( 0.000000,  0.000000, -1.202094)
  57 Ni ( 0.000000,  0.000000,  0.241824)
  58 Ni ( 0.000000,  0.000000,  0.098453)
  59 Cr ( 0.000000,  0.000000,  0.538537)
[...]
  93 Ni ( 0.000000,  0.000000,  0.174062)
  94 Co ( 0.000000,  0.000000,  1.071336)
  95 Cr ( 0.000000,  0.000000,  0.751211)
  96 Cr ( 0.000000,  0.000000, -1.296525)
  97 Fe ( 0.000000,  0.000000,  2.152677)
  98 Co ( 0.000000,  0.000000,  1.195228)
  99 Fe ( 0.000000,  0.000000,  1.845277)
 100 Fe ( 0.000000,  0.000000,  2.017908)
 101 Co ( 0.000000,  0.000000,  1.077244)
 102 Ni ( 0.000000,  0.000000,  0.322606)
 103 Co ( 0.000000,  0.000000,  1.189901)
 104 Ni ( 0.000000,  0.000000,  0.372799)
 105 Fe ( 0.000000,  0.000000,  2.094777)
 106 Co ( 0.000000,  0.000000,  1.024908)
 107 Ni ( 0.000000,  0.000000,  0.287517)

Energy contributions relative to reference atoms: (reference = -3846758.590871)

Kinetic:       +136.277373
Potential:     -200.288964
External:        +0.000000
XC:            -864.128269
Entropy (-ST):   -4.599310
Local:          +40.010389
Free energy:   -892.728781
Extrapolated:  -890.429126

Spin contamination: 33.043989 electrons
Showing only first 2 kpts
                      Up                     Down
 Kpt  Band  Eigenvalues  Occupancy  Eigenvalues  Occupancy
  0   524      9.81651    0.99538     10.71332    0.02671
  0   525      9.83013    0.99471     10.72198    0.02455
  0   526      9.84414    0.99392     10.74210    0.02016
  0   527      9.85257    0.99339     10.74965    0.01873

  1   524      9.81356    0.99551     10.71608    0.02600
  1   525      9.82820    0.99481     10.72627    0.02354
  1   526      9.83711    0.99433     10.73863    0.02086
  1   527      9.85304    0.99335     10.75306    0.01811

Fermi level: 10.35376

No gap

Forces in eV/Ang:
  0 Co    0.16513    0.15157   -0.07329
  1 Fe    0.23506    0.14517   -0.14663
  2 Fe    0.06182   -0.29655    0.03269
  3 Co    0.02009   -0.07471    0.09793
  4 Co   -0.00908   -0.06351   -0.10332
  5 Fe    0.17358    0.03803    0.00828
  6 Ni   -0.08043    0.04614   -0.03604
  7 Co   -0.18974   -0.09497   -0.08892
  8 Co   -0.23585   -0.25157   -0.03947
  9 Fe   -0.37067   -0.06752   -0.24463
 10 Ni    0.00801   -0.02070   -0.19580
 11 Cr    0.12140    0.05363    0.27642
 12 Fe    0.31379    0.23490    0.05780
 13 Ni   -0.10587   -0.14537    0.12179
 14 Co   -0.06932    0.01135   -0.02402
 15 Ni    0.03874    0.01659    0.05008
 16 Ni   -0.18819   -0.14017   -0.12286
 17 Fe   -0.03092   -0.36434   -0.02267
 18 Ni   -0.08786   -0.06592   -0.16935
 19 Fe    0.15680   -0.00662    0.08766
 20 Ni   -0.03101    0.28806   -0.04135
 21 Cr    0.11897    0.02339   -0.24696
 22 Fe    0.29408    0.02187   -0.11017
 23 Cr    0.02418    0.03215   -0.15074
 24 Ni   -0.14199   -0.26208   -0.27154
 25 Ni    0.18343    0.01568    0.04661
 26 Fe   -0.12117    0.28158    0.01240
 27 Cr    0.47954   -0.00268    0.00849
 28 Fe    0.10254    0.40546   -0.15407
 29 Co    0.06993    0.21992    0.14411
 30 Cr   -0.05997    0.21429   -0.12583
 31 Cr   -0.37256    0.08035    0.00074
 32 Co    0.00073   -0.03314   -0.15419
 33 Fe   -0.00038   -0.12310   -0.19841
 34 Ni   -0.06628    0.05615   -0.10489
 35 Ni    0.01906   -0.11004   -0.06642
 36 Cr   -0.19648    0.00848   -0.17677
 37 Fe    0.42865    0.04687    0.12236
 38 Cr    0.71724    0.16615   -0.17535
 39 Co   -0.11096    0.22309    0.17600
 40 Co   -0.02760   -0.36691   -0.07201
 41 Fe   -0.43213   -0.05669   -0.31376
 42 Fe    0.13916   -0.18093   -0.00962
 43 Co   -0.12903    0.12337    0.05679
 44 Cr   -0.13260    0.02204    0.07348
 45 Ni    0.04219    0.09061    0.12203
 46 Fe   -0.12080   -0.48633    0.16175
 47 Cr    0.14695    0.24680   -0.07983
 48 Cr   -0.06604    0.00141   -0.65179
 49 Co    0.21107   -0.24377   -0.02334
 50 Cr    0.10863   -0.05428    0.42218
 51 Fe   -0.22828   -0.23436    0.04092
 52 Co   -0.00550    0.05828   -0.16619
 53 Fe   -0.02828   -0.33636    0.05158
 54 Ni   -0.05586   -0.20715    0.03049
 55 Fe    0.04783    0.06082    0.01404
 56 Cr    0.07166   -0.06374    0.17868
 57 Ni    0.09639   -0.01622   -0.06668
 58 Ni    0.00899    0.10104    0.10122
 59 Cr   -0.02760   -0.02210   -0.06058
[...]
 93 Ni    0.16141    0.11896    0.24658
 94 Co    0.00774    0.19606    0.11589
 95 Cr    0.37575    0.23211    0.19821
 96 Cr    0.01382   -0.26087    0.14494
 97 Fe    0.03361   -0.25093    0.07210
 98 Co   -0.13992   -0.03687    0.02017
 99 Fe    0.04353    0.15396    0.04207
100 Fe   -0.26640    0.06196    0.36231
101 Co   -0.12549    0.03068    0.02360
102 Ni    0.11835    0.09497    0.28940
103 Co   -0.15181    0.28770   -0.21969
104 Ni    0.33219   -0.07505    0.20482
105 Fe    0.16706   -0.17164    0.15894
106 Co    0.04154   -0.09069   -0.01108
107 Ni   -0.01301   -0.12096   -0.20720

Date: Fri Apr 14 17:39:40 2023