User:   c.zeng@d0139
Date:   Sat Apr  8 02:06:39 2023
Arch:   x86_64
Pid:    81103
CWD:    /home/c.zeng/projects/hea-corrosion/hea-mlp/data-curation/volume/dft-jobs/118
Python: 3.8.1
gpaw:   /home/c.zeng/usr/installs/gpaw/source/gpaw-22.8.0/gpaw
_gpaw:  /home/c.zeng/usr/installs/gpaw/source/gpaw-22.8.0/
        _gpaw.cpython-38-x86_64-linux-gnu.so
ase:    /home/c.zeng/.local/lib/python3.8/site-packages/ase-3.22.1-py3.8.egg/ase (version 3.22.1)
numpy:  /shared/centos7/python/3.8.1/lib/python3.8/site-packages/numpy (version 1.17.4)
scipy:  /shared/centos7/python/3.8.1/lib/python3.8/site-packages/scipy (version 1.4.1)
units:  Angstrom and eV
cores: 64
OpenMP: False
OMP_NUM_THREADS: 1

Input parameters:
  convergence: {energy: 0.0001}
  kpts: [2 2 2]
  maxiter: 666
  mode: {ecut: 350.0,
         name: pw}
  occupations: {fixmagmom: False,
                name: fermi-dirac,
                width: 0.1}
  spinpol: True
  xc: PBE

System changes: positions, numbers, cell, pbc, initial_charges, initial_magmoms

Initialize ...

species:
  Al:
    name: Aluminium
    id: 0292cae29f5d6237e50f6abdd43a7bdd
    Z: 13.0
    valence: 3
    core: 10
    charge: 0.0
    file: /home/c.zeng/usr/data/gpaw-setups-0.9.20000/Al.PBE.gz
    compensation charges: {type: gauss,
                           rc: 0.34,
                           lmax: 2}
    cutoffs: {filter: 1.91,
              core: 2.36}
    valence states:
      #              energy  rcut
      - 3s(2.00)    -7.753   1.085
      - 3p(1.00)    -2.712   1.085
      -  s          19.459   1.085
      -  p          24.499   1.085
      -  d           0.000   1.085

    # Using partial waves for Al as LCAO basis

  Fe:
    name: Iron
    id: 37abbd8d6c3c35915a9b583b742da910
    Z: 26.0
    valence: 8
    core: 18
    charge: 0.0
    file: /home/c.zeng/usr/data/gpaw-setups-0.9.20000/Fe.PBE.gz
    compensation charges: {type: gauss,
                           rc: 0.33,
                           lmax: 2}
    cutoffs: {filter: 2.06,
              core: 2.67}
    valence states:
      #              energy  rcut
      - 4s(2.00)    -5.291   1.164
      - 4p(0.00)    -1.326   1.058
      - 3d(6.00)    -7.505   1.058
      -  s          21.920   1.164
      -  p          25.885   1.058
      -  d          19.706   1.058

[...]

  Cr:
    name: Chromium
    id: 33f258bda2ca9f93018e70263a35547b
    Z: 24.0
    valence: 6
    core: 18
    charge: 0.0
    file: /home/c.zeng/usr/data/gpaw-setups-0.9.20000/Cr.PBE.gz
    compensation charges: {type: gauss,
                           rc: 0.35,
                           lmax: 2}
    cutoffs: {filter: 2.14,
              core: 3.04}
    valence states:
      #              energy  rcut
      - 4s(1.00)    -4.007   1.164
      - 4p(0.00)    -0.989   1.217
      - 3d(5.00)    -2.913   1.111
      -  s          23.205   1.164
      -  p          26.223   1.217
      -  d          24.299   1.111

[...]

  Ni:
    name: Nickel
    id: 0d9f38a9d6e76a2886f07bb4381f212b
    Z: 28.0
    valence: 16
    core: 12
    charge: 0.0
    file: /home/c.zeng/usr/data/gpaw-setups-0.9.20000/Ni.PBE.gz
    compensation charges: {type: gauss,
                           rc: 0.36,
                           lmax: 2}
    cutoffs: {filter: 2.14,
              core: 1.98}
    valence states:
      #              energy  rcut
      - 4s(2.00)    -5.642   1.164
      - 3p(6.00)   -71.394   1.207
      - 4p(0.00)    -1.226   1.207
      - 3d(8.00)    -8.875   1.138
      -  s          21.570   1.164
      -  d          18.337   1.138

[...]

  Co:
    name: Cobalt
    id: 339d20d5b0b93d2de9531a1bee871d91
    Z: 27.0
    valence: 9
    core: 18
    charge: 0.0
    file: /home/c.zeng/usr/data/gpaw-setups-0.9.20000/Co.PBE.gz
    compensation charges: {type: gauss,
                           rc: 0.32,
                           lmax: 2}
    cutoffs: {filter: 1.87,
              core: 2.55}
    valence states:
      #              energy  rcut
      - 4s(2.00)    -5.469   1.005
      - 4p(0.00)    -1.277   1.058
      - 3d(7.00)    -8.205   1.005
      -  s          21.742   1.005
      -  p          25.934   1.058
      -  d          19.007   1.005

    # Using partial waves for Co as LCAO basis

Reference energy: -3235165.067515  # eV

Spin-polarized calculation.
Magnetic moment: 121.100000

Convergence criteria:
 Maximum [total energy] change in last 3 cyles: 0.0001 eV / electron
 Maximum integral of absolute [dens]ity change: 0.0001 electrons / valence electron
 Maximum integral of absolute [eigenst]ate change: 4e-08 eV^2 / valence electron
 Maximum number of scf [iter]ations: 666
 (Square brackets indicate name in SCF output, whereas a 'c' in
 the SCF output indicates the quantity has converged.)

Symmetries present (total): 1

  ( 1  0  0)
  ( 0  1  0)
  ( 0  0  1)

8 k-points: 2 x 2 x 2 Monkhorst-Pack grid
4 k-points in the irreducible part of the Brillouin zone
       k-points in crystal coordinates                weights
   0:     0.25000000   -0.25000000   -0.25000000          2/8
   1:     0.25000000   -0.25000000    0.25000000          2/8
   2:     0.25000000    0.25000000   -0.25000000          2/8
   3:     0.25000000    0.25000000    0.25000000          2/8

Wave functions: Plane wave expansion
  Cutoff energy: 350.000 eV
  Number of coefficients (min, max): 23559, 23559
  Pulay-stress correction: 0.000000 eV/Ang^3 (de/decut=0.000000)
  Using FFTW library
  ScaLapack parameters: grid=1x1, blocksize=None
  Wavefunction extrapolation:
    Improved wavefunction reuse through dual PAW basis

Occupation numbers: Fermi-Dirac:
  width: 0.1000  # eV

Eigensolver
   Davidson(niter=2)

Densities:
  Coarse grid: 54*54*54 grid
  Fine grid: 108*108*108 grid
  Total Charge: 0.000000

Density mixing:
  Method: difference
  Backend: pulay
  Linear mixing parameter: 0.05
  old densities: 5
  Damping of long wavelength oscillations: 50

Hamiltonian:
  XC and Coulomb potentials evaluated on a 108*108*108 grid
  Using the PBE Exchange-Correlation functional
  External potential:
    NoExternalPotential

XC parameters: PBE with 2 nearest neighbor stencil

Total number of cores used: 64
Parallelization over k-points: 4
Domain decomposition: 4 x 2 x 2

Number of atoms: 108
Number of atomic orbitals: 933
Number of bands in calculation: 624
Number of valence electrons: 912
Bands to converge: occupied

... initialized

Initializing position-dependent things.

Density initialized from atomic densities
Creating initial wave functions:
  624 bands from LCAO basis set

        .---------Ni-----------------.
       /|   Cr       Ni              |
      / |    Cr        Co            |
     / Al                 Ni         |
    /   |Co     Co                   |
   /    |  Fe     CoAl Cr     Al     |
  /     |   CoAl Ni  Fe CoFe   CrCr  |
 *    AlCr   CrFe CoFe CrCoNi        |
 |     CrAl Al  Ni Ni Fe  Ni FeAl    |
 |      |  FeCr   AlCo CrNiAl FeCr   |
 |      |   FeNi     Cr CrFe   Cr    |
 |     Co        Cr              Fe  |
 |    CoAl   CrAl NiNi AlNi NiCo     |
 |     AlCo Al  Ni Co Co  Cr CrCo    |
 |      .-Ni-Co-----Ni-AlCr---FeFe---.
 |     Ni     Al Al     CoNi   NiCo /
 Fe   NiCr     Fe Fe     Co Al     /
 |   /             Fe        FeFe /
 |  /       Al        Co         /
 | /         Fe          Ni     /e
 |/    Cr                      /
 *----------------------------Al

Positions:
   0 Al    -0.000031    0.000053    0.000041    ( 0.0000,  0.0000,  0.0000)
   1 Fe    -0.000005    1.944004    1.944004    ( 0.0000,  0.0000,  2.0000)
   2 Cr     1.943981   -0.000004    1.944016    ( 0.0000,  0.0000,  0.0000)
   3 Cr     1.943992    1.944027    0.000016    ( 0.0000,  0.0000,  0.0000)
   4 Ni     3.888008   -0.000016   -0.000011    ( 0.0000,  0.0000,  1.5000)
   5 Al     3.887973    1.944051    1.943957    ( 0.0000,  0.0000,  0.0000)
   6 Al     5.832023   -0.000027    1.943922    ( 0.0000,  0.0000,  0.0000)
   7 Ni     5.832023    1.944016   -0.000009    ( 0.0000,  0.0000,  1.5000)
   8 Fe     7.776016    0.000008   -0.000007    ( 0.0000,  0.0000,  2.0000)
   9 Co     7.776016    1.944004    1.943969    ( 0.0000,  0.0000,  2.1000)
  10 Ni     9.720008    0.000021    1.943992    ( 0.0000,  0.0000,  1.5000)
  11 Fe     9.719996    1.944004   -0.000006    ( 0.0000,  0.0000,  2.0000)
  12 Fe    -0.000008    3.887996    0.000013    ( 0.0000,  0.0000,  2.0000)
  13 Co    -0.000002    5.832000    1.943992    ( 0.0000,  0.0000,  2.1000)
  14 Cr     1.943969    3.887996    1.943992    ( 0.0000,  0.0000,  0.0000)
  15 Co     1.943992    5.832000   -0.000002    ( 0.0000,  0.0000,  2.1000)
  16 Fe     3.888008    3.888008    0.000004    ( 0.0000,  0.0000,  2.0000)
  17 Al     3.888031    5.831977    1.943957    ( 0.0000,  0.0000,  0.0000)
  18 Fe     5.832000    3.888008    1.943992    ( 0.0000,  0.0000,  2.0000)
  19 Fe     5.832000    5.832000    0.000008    ( 0.0000,  0.0000,  2.0000)
  20 Cr     7.775992    3.887996   -0.000009    ( 0.0000,  0.0000,  0.0000)
  21 Co     7.775992    5.832012    1.943981    ( 0.0000,  0.0000,  2.1000)
  22 Al     9.720043    3.887984    1.943957    ( 0.0000,  0.0000,  0.0000)
  23 Fe     9.719996    5.832000    0.000003    ( 0.0000,  0.0000,  2.0000)
  24 Ni     0.000001    7.775981    0.000014    ( 0.0000,  0.0000,  1.5000)
  25 Al     0.000000    9.719984    1.944051    ( 0.0000,  0.0000,  0.0000)
  26 Ni     1.943992    7.776004    1.943992    ( 0.0000,  0.0000,  1.5000)
  27 Cr     1.944039    9.719973   -0.000005    ( 0.0000,  0.0000,  0.0000)
  28 Fe     3.887996    7.776004    0.000001    ( 0.0000,  0.0000,  2.0000)
  29 Ni     3.887984    9.719984    1.943981    ( 0.0000,  0.0000,  1.5000)
  30 Ni     5.832012    7.775992    1.943981    ( 0.0000,  0.0000,  1.5000)
  31 Ni     5.832000    9.719996   -0.000007    ( 0.0000,  0.0000,  1.5000)
  32 Co     7.776004    7.775992    0.000014    ( 0.0000,  0.0000,  2.1000)
  33 Cr     7.776016    9.719984    1.943981    ( 0.0000,  0.0000,  0.0000)
  34 Fe     9.719996    7.775992    1.943992    ( 0.0000,  0.0000,  2.0000)
  35 Ni     9.719973    9.719996    0.000010    ( 0.0000,  0.0000,  1.5000)
  36 Fe     0.000004    0.000012    3.887996    ( 0.0000,  0.0000,  2.0000)
  37 Co    -0.000009    1.943992    5.832000    ( 0.0000,  0.0000,  2.1000)
  38 Cr     1.943981   -0.000016    5.832000    ( 0.0000,  0.0000,  0.0000)
  39 Ni     1.943957    1.944004    3.887996    ( 0.0000,  0.0000,  1.5000)
  40 Al     3.887926   -0.000064    3.888019    ( 0.0000,  0.0000,  0.0000)
  41 Al     3.887996    1.944004    5.832035    ( 0.0000,  0.0000,  0.0000)
  42 Cr     5.832012   -0.000021    5.832035    ( 0.0000,  0.0000,  0.0000)
  43 Al     5.832023    1.944074    3.888008    ( 0.0000,  0.0000,  0.0000)
  44 Al     7.776062   -0.000011    3.888008    ( 0.0000,  0.0000,  0.0000)
  45 Co     7.776016    1.944004    5.832023    ( 0.0000,  0.0000,  2.1000)
  46 Cr     9.720008    0.000014    5.832012    ( 0.0000,  0.0000,  0.0000)
  47 Ni     9.720031    1.943992    3.888008    ( 0.0000,  0.0000,  1.5000)
  48 Fe    -0.000003    3.887996    3.887996    ( 0.0000,  0.0000,  2.0000)
  49 Fe    -0.000010    5.832000    5.831988    ( 0.0000,  0.0000,  2.0000)
  50 Al     1.943969    3.888019    5.831965    ( 0.0000,  0.0000,  0.0000)
  51 Co     1.943981    5.832012    3.888019    ( 0.0000,  0.0000,  2.1000)
  52 Co     3.888008    3.888019    3.887996    ( 0.0000,  0.0000,  2.1000)
  53 Ni     3.888008    5.832012    5.832000    ( 0.0000,  0.0000,  1.5000)
  54 Ni     5.832000    3.888019    5.832000    ( 0.0000,  0.0000,  1.5000)
  55 Co     5.832000    5.832000    3.887996    ( 0.0000,  0.0000,  2.1000)
  56 Al     7.775969    3.888008    3.888008    ( 0.0000,  0.0000,  0.0000)
  57 Cr     7.776016    5.832023    5.832012    ( 0.0000,  0.0000,  0.0000)
  58 Ni     9.720019    3.887996    5.832012    ( 0.0000,  0.0000,  1.5000)
  59 Cr     9.720031    5.832023    3.888008    ( 0.0000,  0.0000,  0.0000)
[...]
  93 Co     7.776004    5.831988    9.720008    ( 0.0000,  0.0000,  2.1000)
  94 Ni     9.719984    3.887996    9.720008    ( 0.0000,  0.0000,  1.5000)
  95 Fe     9.719996    5.832000    7.775992    ( 0.0000,  0.0000,  2.0000)
  96 Al     0.000014    7.775981    7.775934    ( 0.0000,  0.0000,  0.0000)
  97 Al     0.000037    9.720008    9.719996    ( 0.0000,  0.0000,  0.0000)
  98 Fe     1.944016    7.776004    9.720008    ( 0.0000,  0.0000,  2.0000)
  99 Co     1.944027    9.719984    7.775992    ( 0.0000,  0.0000,  2.1000)
 100 Fe     3.887996    7.776016    7.775992    ( 0.0000,  0.0000,  2.0000)
 101 Co     3.887996    9.719996    9.719996    ( 0.0000,  0.0000,  2.1000)
 102 Al     5.831988    7.776016    9.719996    ( 0.0000,  0.0000,  0.0000)
 103 Fe     5.832000    9.719996    7.775992    ( 0.0000,  0.0000,  2.0000)
 104 Co     7.776004    7.776004    7.775981    ( 0.0000,  0.0000,  2.1000)
 105 Ni     7.775992    9.720019    9.720008    ( 0.0000,  0.0000,  1.5000)
 106 Al     9.719961    7.775957    9.720031    ( 0.0000,  0.0000,  0.0000)
 107 Cr     9.719973    9.720008    7.775981    ( 0.0000,  0.0000,  0.0000)

Unit cell:
           periodic     x           y           z      points  spacing
  1. axis:    yes   11.664000    0.000000    0.000000    54     0.2160
  2. axis:    yes    0.000000   11.664000    0.000000    54     0.2160
  3. axis:    yes    0.000000    0.000000   11.664000    54     0.2160

  Lengths:  11.664000  11.664000  11.664000
  Angles:   90.000000  90.000000  90.000000

Effective grid spacing dv^(1/3) = 0.2160

     iter     time        total  log10-change:  magmom
                         energy  eigst   dens
iter:   1 02:09:53  -985.074621                  +121.3863
iter:   2 02:11:29  -837.049266  -0.05  -1.14    +64.3816
iter:   3 02:12:59  -835.604773  -0.61  -1.12    +65.6817
iter:   4 02:14:35  -794.858413  -1.08  -1.19    +62.0628
iter:   5 02:16:07  -783.165409  -1.64  -1.29    +63.8483
iter:   6 02:17:41  -784.658572  -1.51  -1.34    +70.0956
iter:   7 02:19:12  -783.011791  -1.36  -1.37    +73.3454
iter:   8 02:20:46  -785.645711  -1.52  -1.43    +78.2282
iter:   9 02:22:15  -778.199153  -1.47  -1.45    +78.9248
iter:  10 02:23:50  -777.878695  -1.87  -1.64    +77.7990
iter:  11 02:25:21  -778.477088  -2.06  -1.67    +78.2880
iter:  12 02:26:56  -776.357235  -2.28  -1.67    +78.3016
iter:  13 02:28:25  -776.707635  -2.64  -1.79    +77.8382
iter:  14 02:29:57  -777.421776  -2.51  -1.82    +77.2149
iter:  15 02:31:29  -778.329469  -2.54  -1.88    +75.9460
iter:  16 02:33:01  -779.203698  -2.48  -1.91    +74.7558
iter:  17 02:34:35  -778.961081  -2.59  -1.90    +73.7510
iter:  18 02:36:06  -779.506294  -2.83  -2.03    +72.3984
iter:  19 02:37:41  -779.913606  -2.97  -2.07    +70.9254
iter:  20 02:39:13  -780.627171  -3.01  -2.12    +69.4816
iter:  21 02:40:50  -780.995992  -3.12  -2.13    +68.0678
iter:  22 02:42:20  -781.790300  -2.88  -2.17    +65.2482
iter:  23 02:43:55  -782.504334  -2.86  -2.18    +62.6573
iter:  24 02:45:26  -783.013616  -3.04  -2.18    +61.3693
iter:  25 02:47:00  -783.637177  -2.96  -2.14    +60.7456
iter:  26 02:48:30  -783.782745  -3.43  -2.10    +60.9682
iter:  27 02:50:06  -784.052902  -3.22  -2.08    +60.8581
iter:  28 02:51:37  -784.093230  -3.40  -2.07    +60.7162
iter:  29 02:53:11  -783.810578  -2.84  -2.08    +60.4799
iter:  30 02:54:43  -784.035272  -2.78  -2.08    +60.3886
iter:  31 02:56:19  -783.587880  -3.12  -2.04    +59.8742
iter:  32 02:57:51  -783.690953  -3.10  -2.13    +59.0968
iter:  33 02:59:26  -783.598663  -3.35  -2.14    +58.6209
iter:  34 03:00:56  -783.760958  -2.85  -2.18    +58.3007
iter:  35 03:02:33  -783.361269  -3.20  -2.20    +58.2123
iter:  36 03:04:03  -783.382323  -3.25  -2.30    +58.3488
iter:  37 03:05:39  -783.363015c -3.19  -2.32    +58.3308
iter:  38 03:07:11  -783.317956c -3.58  -2.35    +58.3980
iter:  39 03:08:46  -783.308498c -3.78  -2.38    +58.4364
iter:  40 03:10:18  -783.383575c -3.73  -2.45    +58.4276
iter:  41 03:11:52  -783.338892c -3.84  -2.44    +58.4233
iter:  42 03:13:21  -783.347828c -3.96  -2.50    +58.3592
iter:  43 03:14:56  -783.372604c -3.95  -2.56    +58.3052
iter:  44 03:16:27  -783.381573c -3.91  -2.59    +58.2376
iter:  45 03:18:01  -783.380220c -4.09  -2.60    +58.1117
iter:  46 03:19:32  -783.386236c -4.10  -2.67    +58.0129
iter:  47 03:21:05  -783.381539c -4.29  -2.70    +57.9052
iter:  48 03:22:37  -783.388505c -4.45  -2.76    +57.8084
iter:  49 03:24:14  -783.408340c -4.31  -2.78    +57.7327
iter:  50 03:25:11  -783.404311c -4.16  -2.81    +57.6953
iter:  51 03:26:36  -783.399127c -4.33  -2.80    +57.6147
iter:  52 03:28:05  -783.399172c -4.51  -2.88    +57.5751
iter:  53 03:29:41  -783.395793c -4.81  -2.94    +57.5354
iter:  54 03:31:14  -783.399288c -4.95  -2.99    +57.5023
iter:  55 03:32:45  -783.402223c -4.87  -3.02    +57.4809
iter:  56 03:34:19  -783.398386c -4.96  -3.06    +57.4702
iter:  57 03:35:50  -783.399275c -5.10  -3.09    +57.4512
iter:  58 03:37:22  -783.399048c -5.28  -3.15    +57.4419
iter:  59 03:38:54  -783.396994c -5.53  -3.20    +57.4311
iter:  60 03:40:23  -783.398428c -5.42  -3.24    +57.4221
iter:  61 03:41:55  -783.399041c -5.24  -3.27    +57.4211
iter:  62 03:43:26  -783.396624c -5.37  -3.30    +57.4221
iter:  63 03:45:01  -783.397228c -5.44  -3.34    +57.4175
iter:  64 03:46:34  -783.397513c -5.49  -3.36    +57.4177
iter:  65 03:48:06  -783.396076c -5.59  -3.39    +57.4170
iter:  66 03:49:36  -783.396998c -5.65  -3.43    +57.4149
iter:  67 03:51:06  -783.396784c -5.57  -3.45    +57.4166
iter:  68 03:52:40  -783.396157c -5.62  -3.46    +57.4175
iter:  69 03:54:14  -783.396486c -5.70  -3.48    +57.4149
iter:  70 03:55:48  -783.396758c -5.85  -3.50    +57.4165
iter:  71 03:57:20  -783.395883c -6.13  -3.55    +57.4157
iter:  72 03:58:50  -783.396651c -6.30  -3.59    +57.4139
iter:  73 04:00:23  -783.395909c -6.10  -3.62    +57.4141
iter:  74 04:01:54  -783.396355c -5.85  -3.64    +57.4127
iter:  75 04:03:24  -783.396245c -6.01  -3.62    +57.4085
iter:  76 04:04:56  -783.396492c -6.26  -3.69    +57.4107
iter:  77 04:06:30  -783.395947c -6.61  -3.75    +57.4081
iter:  78 04:08:03  -783.396418c -6.63  -3.80    +57.4056
iter:  79 04:09:33  -783.395686c -6.40  -3.83    +57.4054
iter:  80 04:11:02  -783.396068c -6.17  -3.85    +57.4041
iter:  81 04:12:34  -783.396037c -6.27  -3.82    +57.4012
iter:  82 04:14:06  -783.396263c -6.56  -3.91    +57.4039
iter:  83 04:15:38  -783.395976c -6.87  -3.98    +57.4023
iter:  84 04:17:12  -783.396149c -6.93  -4.04c   +57.4021
iter:  85 04:18:44  -783.396062c -6.90  -4.08c   +57.4018
iter:  86 04:20:15  -783.395603c -6.65  -4.11c   +57.4020
iter:  87 04:21:47  -783.396068c -6.76  -4.09c   +57.4024
iter:  88 04:23:17  -783.396222c -6.96  -4.15c   +57.4029
iter:  89 04:24:49  -783.396017c -7.31  -4.20c   +57.4030
iter:  90 04:26:18  -783.396176c -7.30  -4.27c   +57.4027
iter:  91 04:27:47  -783.396099c -7.37  -4.26c   +57.4030
iter:  92 04:29:17  -783.395979c -7.38  -4.28c   +57.4029
iter:  93 04:30:49  -783.396038c -7.52c -4.31c   +57.4027

Converged after 93 iterations.

Dipole moment: (0.215525, -0.381975, 0.165932) |e|*Ang

Total magnetic moment: (0.000000, 0.000000, 57.402723)
Local magnetic moments:
   0 Al ( 0.000000,  0.000000,  0.006435)
   1 Fe ( 0.000000,  0.000000,  2.701629)
   2 Cr ( 0.000000,  0.000000, -2.805189)
   3 Cr ( 0.000000,  0.000000,  2.540174)
   4 Ni ( 0.000000,  0.000000,  0.133096)
   5 Al ( 0.000000,  0.000000, -0.010331)
   6 Al ( 0.000000,  0.000000, -0.015707)
   7 Ni ( 0.000000,  0.000000,  0.464652)
   8 Fe ( 0.000000,  0.000000,  2.928966)
   9 Co ( 0.000000,  0.000000,  1.301617)
  10 Ni ( 0.000000,  0.000000,  0.207054)
  11 Fe ( 0.000000,  0.000000,  2.679977)
  12 Fe ( 0.000000,  0.000000,  2.641616)
  13 Co ( 0.000000,  0.000000,  1.709078)
  14 Cr ( 0.000000,  0.000000, -2.963631)
  15 Co ( 0.000000,  0.000000,  1.420001)
  16 Fe ( 0.000000,  0.000000,  2.579327)
  17 Al ( 0.000000,  0.000000, -0.039355)
  18 Fe ( 0.000000,  0.000000,  2.690530)
  19 Fe ( 0.000000,  0.000000,  2.708963)
  20 Cr ( 0.000000,  0.000000, -3.055263)
  21 Co ( 0.000000,  0.000000,  1.549486)
  22 Al ( 0.000000,  0.000000, -0.031429)
  23 Fe ( 0.000000,  0.000000,  2.783212)
  24 Ni ( 0.000000,  0.000000,  0.155549)
  25 Al ( 0.000000,  0.000000, -0.004410)
  26 Ni ( 0.000000,  0.000000,  0.354155)
  27 Cr ( 0.000000,  0.000000, -2.683838)
  28 Fe ( 0.000000,  0.000000,  2.823109)
  29 Ni ( 0.000000,  0.000000,  0.286203)
  30 Ni ( 0.000000,  0.000000,  0.431325)
  31 Ni ( 0.000000,  0.000000,  0.352275)
  32 Co ( 0.000000,  0.000000,  1.720062)
  33 Cr ( 0.000000,  0.000000, -2.972338)
  34 Fe ( 0.000000,  0.000000,  2.800922)
  35 Ni ( 0.000000,  0.000000,  0.206254)
  36 Fe ( 0.000000,  0.000000,  2.644016)
  37 Co ( 0.000000,  0.000000,  1.584522)
  38 Cr ( 0.000000,  0.000000, -2.994774)
  39 Ni ( 0.000000,  0.000000,  0.068001)
  40 Al ( 0.000000,  0.000000,  0.007765)
  41 Al ( 0.000000,  0.000000, -0.008221)
  42 Cr ( 0.000000,  0.000000, -2.818898)
  43 Al ( 0.000000,  0.000000, -0.001165)
  44 Al ( 0.000000,  0.000000,  0.010768)
  45 Co ( 0.000000,  0.000000,  1.194387)
  46 Cr ( 0.000000,  0.000000, -2.920157)
  47 Ni ( 0.000000,  0.000000,  0.369040)
  48 Fe ( 0.000000,  0.000000,  2.787172)
  49 Fe ( 0.000000,  0.000000,  2.642261)
  50 Al ( 0.000000,  0.000000, -0.033632)
  51 Co ( 0.000000,  0.000000,  1.588935)
  52 Co ( 0.000000,  0.000000,  1.395798)
  53 Ni ( 0.000000,  0.000000,  0.509433)
  54 Ni ( 0.000000,  0.000000,  0.223566)
  55 Co ( 0.000000,  0.000000,  1.615180)
  56 Al ( 0.000000,  0.000000, -0.009520)
  57 Cr ( 0.000000,  0.000000, -2.999680)
  58 Ni ( 0.000000,  0.000000,  0.194458)
  59 Cr ( 0.000000,  0.000000, -2.920994)
[...]
  93 Co ( 0.000000,  0.000000,  1.662219)
  94 Ni ( 0.000000,  0.000000,  0.331801)
  95 Fe ( 0.000000,  0.000000,  2.673369)
  96 Al ( 0.000000,  0.000000, -0.029809)
  97 Al ( 0.000000,  0.000000, -0.009982)
  98 Fe ( 0.000000,  0.000000,  2.610037)
  99 Co ( 0.000000,  0.000000,  1.503840)
 100 Fe ( 0.000000,  0.000000,  2.789900)
 101 Co ( 0.000000,  0.000000,  1.713848)
 102 Al ( 0.000000,  0.000000, -0.051410)
 103 Fe ( 0.000000,  0.000000,  2.934308)
 104 Co ( 0.000000,  0.000000,  1.605614)
 105 Ni ( 0.000000,  0.000000,  0.501880)
 106 Al ( 0.000000,  0.000000, -0.028777)
 107 Cr ( 0.000000,  0.000000,  2.677453)

Energy contributions relative to reference atoms: (reference = -3235165.067515)

Kinetic:       -212.744942
Potential:     +125.862494
External:        +0.000000
XC:            -722.848300
Entropy (-ST):   -4.208517
Local:          +28.438968
Free energy:   -785.500297
Extrapolated:  -783.396038

Spin contamination: 58.438752 electrons
Showing only first 2 kpts
                      Up                     Down
 Kpt  Band  Eigenvalues  Occupancy  Eigenvalues  Occupancy
  0   454      6.48361    0.99911      7.49212    0.04485
  0   455      6.49757    0.99898      7.49884    0.04206
  0   456      6.51225    0.99882      7.50864    0.03828
  0   457      6.52875    0.99861      7.51257    0.03686

  1   454      6.48189    0.99913      7.46991    0.05539
  1   455      6.49688    0.99899      7.49106    0.04531
  1   456      6.50800    0.99887      7.49763    0.04255
  1   457      6.52990    0.99859      7.50742    0.03874

Fermi level: 7.18627

No gap

Forces in eV/Ang:
  0 Al   -0.72532    0.07980    0.33189
  1 Fe   -0.15764    0.08863    0.38557
  2 Cr   -0.03840    0.19671    0.08986
  3 Cr    0.03931   -0.16152   -0.16295
  4 Ni   -0.10623   -0.18368   -0.15372
  5 Al   -0.30109    0.62332   -0.55790
  6 Al   -0.07604   -0.43205   -1.39975
  7 Ni    0.07477    0.04439   -0.06063
  8 Fe    0.23067   -0.02137   -0.23710
  9 Co   -0.02491   -0.09305   -0.10595
 10 Ni   -0.13468    0.00425    0.03448
 11 Fe   -0.23749    0.05352    0.08687
 12 Fe   -0.10066    0.34524    0.04030
 13 Co    0.37812    0.17514   -0.08319
 14 Cr   -0.53829   -0.06046    0.00247
 15 Co   -0.09402    0.03037    0.01063
 16 Fe    0.35445    0.43455   -0.03145
 17 Al    0.10696    0.01245   -0.12068
 18 Fe    0.09217    0.16755    0.01919
 19 Fe    0.33912   -0.04596    0.02018
 20 Cr   -0.34193   -0.04499   -0.28438
 21 Co   -0.25917    0.38471    0.03470
 22 Al    0.34502   -0.26525   -0.22631
 23 Fe   -0.21143    0.02850   -0.01218
 24 Ni    0.10116   -0.20412   -0.00857
 25 Al   -0.19684   -0.62907   -0.00969
 26 Ni   -0.01213   -0.19808    0.05085
 27 Cr    0.66397   -0.69001   -0.03736
 28 Fe   -0.16087    0.30571    0.07954
 29 Ni   -0.03198    0.00399    0.01297
 30 Ni    0.04178   -0.26939   -0.19300
 31 Ni    0.01171    0.01092   -0.01883
 32 Co   -0.05414   -0.18131    0.25992
 33 Cr   -0.16190   -0.38264   -0.69060
 34 Fe   -0.24459   -0.24099   -0.02507
 35 Ni    0.01166    0.04067   -0.03092
 36 Fe   -0.15975    0.28177    0.39364
 37 Co   -0.08365   -0.21102    0.00310
 38 Cr   -0.29212    0.01897    0.43535
 39 Ni   -0.01327   -0.04584   -0.02787
 40 Al   -0.56897   -0.86028    0.24634
 41 Al   -0.19156    0.30159    0.34138
 42 Cr    0.29634   -0.33384    0.57697
 43 Al    0.46468    0.98889    0.40371
 44 Al    0.84967    0.25312    0.14935
 45 Co    0.21144   -0.11581    0.09457
 46 Cr   -0.06746    0.79292    0.70457
 47 Ni    0.20913    0.03725   -0.06341
 48 Fe    0.00289    0.04415    0.13076
 49 Fe   -0.12922   -0.01720   -0.35954
 50 Al   -0.07147   -0.15229   -0.79954
 51 Co   -0.29077    0.03762    0.16269
 52 Co    0.19975    0.35689   -0.08714
 53 Ni    0.05338   -0.00863   -0.03117
 54 Ni   -0.02453    0.02383   -0.06213
 55 Co   -0.01474   -0.01200   -0.04626
 56 Al   -0.06511   -0.08747    0.32838
 57 Cr   -0.54163    0.76850    0.22183
 58 Ni   -0.02738   -0.02502    0.09631
 59 Cr    0.63406    0.61621   -0.11515
[...]
 93 Co    0.07584   -0.14268   -0.01690
 94 Ni    0.05442    0.04537   -0.06608
 95 Fe   -0.23041   -0.22197   -0.00516
 96 Al    0.14923   -0.08593   -0.58712
 97 Al    0.03392    0.40777    0.07670
 98 Fe    0.21931    0.13929    0.15470
 99 Co    0.23860   -0.06455   -0.07573
100 Fe    0.02262    0.33848   -0.31245
101 Co   -0.06309    0.27076   -0.15132
102 Al    0.73727    0.43691    0.04229
103 Fe    0.17036    0.28879   -0.20939
104 Co   -0.13114   -0.08814   -0.32790
105 Ni   -0.14513    0.08981    0.07293
106 Al   -0.99584   -0.01403    0.66353
107 Cr   -0.32322    0.62854   -0.28915

Date: Sat Apr  8 04:31:19 2023