User:   c.zeng@d0098
Date:   Fri Apr 14 23:45:41 2023
Arch:   x86_64
Pid:    119677
CWD:    /home/c.zeng/projects/hea-corrosion/hea-mlp/data-curation/bulk-mcmc/dft-jobs/185
Python: 3.8.1
gpaw:   /home/c.zeng/usr/installs/gpaw/source/gpaw-22.8.0/gpaw
_gpaw:  /home/c.zeng/usr/installs/gpaw/source/gpaw-22.8.0/
        _gpaw.cpython-38-x86_64-linux-gnu.so
ase:    /home/c.zeng/.local/lib/python3.8/site-packages/ase-3.22.1-py3.8.egg/ase (version 3.22.1)
numpy:  /shared/centos7/python/3.8.1/lib/python3.8/site-packages/numpy (version 1.17.4)
scipy:  /shared/centos7/python/3.8.1/lib/python3.8/site-packages/scipy (version 1.4.1)
units:  Angstrom and eV
cores: 30
OpenMP: False
OMP_NUM_THREADS: 1

Input parameters:
  convergence: {energy: 0.0001}
  kpts: [2 2 2]
  maxiter: 666
  mode: {ecut: 350.0,
         name: pw}
  occupations: {fixmagmom: False,
                name: fermi-dirac,
                width: 0.1}
  spinpol: True
  xc: PBE

System changes: positions, numbers, cell, pbc, initial_charges, initial_magmoms

Initialize ...

species:
  Fe:
    name: Iron
    id: 37abbd8d6c3c35915a9b583b742da910
    Z: 26.0
    valence: 8
    core: 18
    charge: 0.0
    file: /home/c.zeng/usr/data/gpaw-setups-0.9.20000/Fe.PBE.gz
    compensation charges: {type: gauss,
                           rc: 0.33,
                           lmax: 2}
    cutoffs: {filter: 2.06,
              core: 2.67}
    valence states:
      #              energy  rcut
      - 4s(2.00)    -5.291   1.164
      - 4p(0.00)    -1.326   1.058
      - 3d(6.00)    -7.505   1.058
      -  s          21.920   1.164
      -  p          25.885   1.058
      -  d          19.706   1.058

    # Using partial waves for Fe as LCAO basis

  Co:
    name: Cobalt
    id: 339d20d5b0b93d2de9531a1bee871d91
    Z: 27.0
    valence: 9
    core: 18
    charge: 0.0
    file: /home/c.zeng/usr/data/gpaw-setups-0.9.20000/Co.PBE.gz
    compensation charges: {type: gauss,
                           rc: 0.32,
                           lmax: 2}
    cutoffs: {filter: 1.87,
              core: 2.55}
    valence states:
      #              energy  rcut
      - 4s(2.00)    -5.469   1.005
      - 4p(0.00)    -1.277   1.058
      - 3d(7.00)    -8.205   1.005
      -  s          21.742   1.005
      -  p          25.934   1.058
      -  d          19.007   1.005

[...]

  Al:
    name: Aluminium
    id: 0292cae29f5d6237e50f6abdd43a7bdd
    Z: 13.0
    valence: 3
    core: 10
    charge: 0.0
    file: /home/c.zeng/usr/data/gpaw-setups-0.9.20000/Al.PBE.gz
    compensation charges: {type: gauss,
                           rc: 0.34,
                           lmax: 2}
    cutoffs: {filter: 1.91,
              core: 2.36}
    valence states:
      #              energy  rcut
      - 3s(2.00)    -7.753   1.085
      - 3p(1.00)    -2.712   1.085
      -  s          19.459   1.085
      -  p          24.499   1.085
      -  d           0.000   1.085

[...]

  Cr:
    name: Chromium
    id: 33f258bda2ca9f93018e70263a35547b
    Z: 24.0
    valence: 6
    core: 18
    charge: 0.0
    file: /home/c.zeng/usr/data/gpaw-setups-0.9.20000/Cr.PBE.gz
    compensation charges: {type: gauss,
                           rc: 0.35,
                           lmax: 2}
    cutoffs: {filter: 2.14,
              core: 3.04}
    valence states:
      #              energy  rcut
      - 4s(1.00)    -4.007   1.164
      - 4p(0.00)    -0.989   1.217
      - 3d(5.00)    -2.913   1.111
      -  s          23.205   1.164
      -  p          26.223   1.217
      -  d          24.299   1.111

[...]

  Ni:
    name: Nickel
    id: 0d9f38a9d6e76a2886f07bb4381f212b
    Z: 28.0
    valence: 16
    core: 12
    charge: 0.0
    file: /home/c.zeng/usr/data/gpaw-setups-0.9.20000/Ni.PBE.gz
    compensation charges: {type: gauss,
                           rc: 0.36,
                           lmax: 2}
    cutoffs: {filter: 2.14,
              core: 1.98}
    valence states:
      #              energy  rcut
      - 4s(2.00)    -5.642   1.164
      - 3p(6.00)   -71.394   1.207
      - 4p(0.00)    -1.226   1.207
      - 3d(8.00)    -8.875   1.138
      -  s          21.570   1.164
      -  d          18.337   1.138

    # Using partial waves for Ni as LCAO basis

Reference energy: -3382523.201499  # eV

Spin-polarized calculation.
Magnetic moment: 128.800000

Convergence criteria:
 Maximum [total energy] change in last 3 cyles: 0.0001 eV / electron
 Maximum integral of absolute [dens]ity change: 0.0001 electrons / valence electron
 Maximum integral of absolute [eigenst]ate change: 4e-08 eV^2 / valence electron
 Maximum number of scf [iter]ations: 666
 (Square brackets indicate name in SCF output, whereas a 'c' in
 the SCF output indicates the quantity has converged.)

Symmetries present (total): 1

  ( 1  0  0)
  ( 0  1  0)
  ( 0  0  1)

8 k-points: 2 x 2 x 2 Monkhorst-Pack grid
4 k-points in the irreducible part of the Brillouin zone
       k-points in crystal coordinates                weights
   0:     0.25000000   -0.25000000   -0.25000000          2/8
   1:     0.25000000   -0.25000000    0.25000000          2/8
   2:     0.25000000    0.25000000   -0.25000000          2/8
   3:     0.25000000    0.25000000    0.25000000          2/8

Wave functions: Plane wave expansion
  Cutoff energy: 350.000 eV
  Number of coefficients (min, max): 18865, 18865
  Pulay-stress correction: 0.000000 eV/Ang^3 (de/decut=0.000000)
  Using FFTW library
  ScaLapack parameters: grid=1x1, blocksize=None
  Wavefunction extrapolation:
    Improved wavefunction reuse through dual PAW basis

Occupation numbers: Fermi-Dirac:
  width: 0.1000  # eV

Eigensolver
   Davidson(niter=2)

Densities:
  Coarse grid: 48*48*48 grid
  Fine grid: 96*96*96 grid
  Total Charge: 0.000000

Density mixing:
  Method: difference
  Backend: pulay
  Linear mixing parameter: 0.05
  old densities: 5
  Damping of long wavelength oscillations: 50

Hamiltonian:
  XC and Coulomb potentials evaluated on a 96*96*96 grid
  Using the PBE Exchange-Correlation functional
  External potential:
    NoExternalPotential

XC parameters: PBE with 2 nearest neighbor stencil

Total number of cores used: 30
Parallelization over k-points: 2
Domain decomposition: 5 x 3 x 1

Number of atoms: 108
Number of atomic orbitals: 961
Number of bands in calculation: 649
Number of valence electrons: 945
Bands to converge: occupied

... initialized

Initializing position-dependent things.

Density initialized from atomic densities
Creating initial wave functions:
  649 bands from LCAO basis set

       /|                     Fe   |
      / |            Co Fe     CrFe|
     /  |       Cr       Ni       Cr
    /   |Fe       Col     FFer     |
   /i   | Coe        Fe      Co    |
  /  CrAl   NCr       Ni           |
 *      Ni     CoFe   AlFeCrFe   Cr|
 |      |CoNi   CrNiAl   NiAlNi   Co
 | CrCo | AlNi   AlAlFe     Ni     |
 |     Fe  FeCr Cr  Fe CoNi  CrNi  |
 |      CoNi   AlCr   FeFeFeNi  Fe |
 |Al    |CoCr   AlCrCo   CrCo     Co
 |      .-CrCo-----NiCr-CoFeCrNi---.
 |     /   Ni Co    Cr CoNi    Al /
 |    Co       ACoi       Al     /
 |   /  Co         Al       Cr  /
 |  /      Fe       Al       Co/
 | / Fe     Co       Ni Ni    /
 |/             Cr       Ni  /
 *--------Fe----------------*

Positions:
   0 Fe    10.764147   10.861293   10.805330    ( 0.0000,  0.0000,  2.0000)
   1 Co    10.786221    1.792513    1.813624    ( 0.0000,  0.0000,  0.0000)
   2 Fe     1.744156    0.036560    1.851269    ( 0.0000,  0.0000,  1.5000)
   3 Al     1.736571    1.831142   10.798805    ( 0.0000,  0.0000,  0.0000)
   4 Fe     3.575126    0.057318    0.061759    ( 0.0000,  0.0000,  0.0000)
   5 Fe     3.594289    1.817617    1.845577    ( 0.0000,  0.0000,  2.0000)
   6 Fe     5.429813   10.817005    1.865054    ( 0.0000,  0.0000,  1.5000)
   7 Cr     5.429608    1.929425    0.057134    ( 0.0000,  0.0000,  0.0000)
   8 Fe     7.316909   10.723332    0.087382    ( 0.0000,  0.0000,  0.0000)
   9 Al     7.263142    1.825786    1.869404    ( 0.0000,  0.0000,  2.1000)
  10 Ni     9.063554    0.025226    1.863474    ( 0.0000,  0.0000,  1.5000)
  11 Ni     9.049217    1.829703    0.033106    ( 0.0000,  0.0000,  2.1000)
  12 Ni     0.004792    3.558981   10.794801    ( 0.0000,  0.0000,  1.5000)
  13 Al    10.759710    5.390697    1.778165    ( 0.0000,  0.0000,  0.0000)
  14 Co     1.733585    3.561849    1.761112    ( 0.0000,  0.0000,  2.0000)
  15 Fe     1.776899    5.391834   10.795505    ( 0.0000,  0.0000,  0.0000)
  16 Co     3.565452    3.619360   10.832619    ( 0.0000,  0.0000,  2.1000)
  17 Co     3.633221    5.394614    1.719551    ( 0.0000,  0.0000,  0.0000)
  18 Ni     5.471624    3.659114    1.836033    ( 0.0000,  0.0000,  2.1000)
  19 Co     5.440212    5.373060   -0.002773    ( 0.0000,  0.0000,  2.0000)
  20 Ni     7.258997    3.609080    0.031294    ( 0.0000,  0.0000,  0.0000)
  21 Co     7.268941    5.378362    1.785274    ( 0.0000,  0.0000,  2.0000)
  22 Al     9.030724    3.577636    1.833728    ( 0.0000,  0.0000,  2.1000)
  23 Fe     9.040420    5.372281   10.801110    ( 0.0000,  0.0000,  0.0000)
  24 Fe    10.791663    7.196206   10.792486    ( 0.0000,  0.0000,  1.5000)
  25 Co    10.758434    9.040387    1.848239    ( 0.0000,  0.0000,  0.0000)
  26 Cr     1.690487    7.202493    1.786032    ( 0.0000,  0.0000,  0.0000)
  27 Ni     1.652691    8.981047    0.027217    ( 0.0000,  0.0000,  0.0000)
  28 Al     3.631241    7.164437    0.034633    ( 0.0000,  0.0000,  0.0000)
  29 Al     3.625452    9.063759    1.801678    ( 0.0000,  0.0000,  0.0000)
  30 Ni     5.490852    7.187095    1.746342    ( 0.0000,  0.0000,  2.0000)
  31 Cr     5.426935    8.989152    0.009861    ( 0.0000,  0.0000,  2.0000)
  32 Fe     7.229122    7.237075   -0.008698    ( 0.0000,  0.0000,  1.5000)
  33 Cr     7.249194    8.995850    1.810713    ( 0.0000,  0.0000,  0.0000)
  34 Cr     9.052073    7.204300    1.764218    ( 0.0000,  0.0000,  2.1000)
  35 Fe     9.092553    8.989639   10.808760    ( 0.0000,  0.0000,  1.5000)
  36 Cr    -0.000975   10.826235    3.639789    ( 0.0000,  0.0000,  1.5000)
  37 Al    10.822772    1.771770    5.422044    ( 0.0000,  0.0000,  2.1000)
  38 Ni     1.754263   10.802084    5.428872    ( 0.0000,  0.0000,  2.1000)
  39 Co     1.741873    1.774270    3.610801    ( 0.0000,  0.0000,  0.0000)
  40 Al     3.591183   10.794152    3.612143    ( 0.0000,  0.0000,  2.0000)
  41 Cr     3.593088    1.736744    5.455177    ( 0.0000,  0.0000,  0.0000)
  42 Al     5.437150   10.794563    5.400804    ( 0.0000,  0.0000,  2.0000)
  43 Co     5.451931    1.783251    3.601387    ( 0.0000,  0.0000,  1.5000)
  44 Al     7.226222    0.007781    3.626209    ( 0.0000,  0.0000,  0.0000)
  45 Co     7.236069    1.766512    5.381392    ( 0.0000,  0.0000,  2.1000)
  46 Co     9.034587   10.848850    5.403844    ( 0.0000,  0.0000,  2.1000)
  47 Ni     9.031558    1.804946    3.616730    ( 0.0000,  0.0000,  1.5000)
  48 Ni    10.773885    3.543973    3.617867    ( 0.0000,  0.0000,  1.5000)
  49 Ni    10.772186    5.358409    5.454917    ( 0.0000,  0.0000,  0.0000)
  50 Co     1.757531    3.575678    5.428937    ( 0.0000,  0.0000,  2.1000)
  51 Co     1.621766    5.386986    3.572550    ( 0.0000,  0.0000,  0.0000)
  52 Co     3.634303    3.633188    3.540792    ( 0.0000,  0.0000,  0.0000)
  53 Cr     3.550606    5.397969    5.404753    ( 0.0000,  0.0000,  2.0000)
  54 Cr     5.402221    3.610887    5.370193    ( 0.0000,  0.0000,  2.0000)
  55 Cr     5.460241    5.433590    3.575613    ( 0.0000,  0.0000,  2.0000)
  56 Cr     7.250157    3.615183    3.623169    ( 0.0000,  0.0000,  1.5000)
  57 Co     7.248707    5.410715    5.362099    ( 0.0000,  0.0000,  1.5000)
  58 Fe     9.058230    3.565236    5.380082    ( 0.0000,  0.0000,  2.1000)
  59 Co     9.074071    5.365323    3.589008    ( 0.0000,  0.0000,  2.1000)
[...]
  93 Ni     7.211073    5.388295    9.040181    ( 0.0000,  0.0000,  0.0000)
  94 Cr     9.095052    3.598119    8.980636    ( 0.0000,  0.0000,  2.0000)
  95 Al     9.078205    5.402416    7.227759    ( 0.0000,  0.0000,  0.0000)
  96 Cr    10.763411    7.244682    7.260285    ( 0.0000,  0.0000,  1.5000)
  97 Cr    10.795093    9.034566    8.977574    ( 0.0000,  0.0000,  2.0000)
  98 Co     1.740045    7.178947    8.984662    ( 0.0000,  0.0000,  2.1000)
  99 Fe     1.734429    9.080207    7.236696    ( 0.0000,  0.0000,  1.5000)
 100 Co     3.580482    7.154277    7.248285    ( 0.0000,  0.0000,  0.0000)
 101 Cr     3.612835    8.970898    8.958086    ( 0.0000,  0.0000,  0.0000)
 102 Al     5.410943    7.155878    9.067049    ( 0.0000,  0.0000,  0.0000)
 103 Fe     5.466441    9.064062    7.220963    ( 0.0000,  0.0000,  2.1000)
 104 Fe     7.307203    7.271549    7.289738    ( 0.0000,  0.0000,  0.0000)
 105 Ni     7.271073    9.044683    9.027879    ( 0.0000,  0.0000,  1.5000)
 106 Cr     9.081743    7.219805    9.041166    ( 0.0000,  0.0000,  2.1000)
 107 Co     9.063684    9.083009    7.213865    ( 0.0000,  0.0000,  2.0000)

Unit cell:
           periodic     x           y           z      points  spacing
  1. axis:    yes   10.820500    0.000000    0.000000    48     0.2254
  2. axis:    yes    0.000000   10.820500    0.000000    48     0.2254
  3. axis:    yes    0.000000    0.000000   10.820500    48     0.2254

  Lengths:  10.820500  10.820500  10.820500
  Angles:   90.000000  90.000000  90.000000

Effective grid spacing dv^(1/3) = 0.2254

     iter     time        total  log10-change:  magmom
                         energy  eigst   dens
iter:   1 23:50:32  -894.805366                  +128.4417
iter:   2 23:52:42  -861.573859  -0.40  -1.31    +96.6117
iter:   3 23:54:52  -844.294500  -0.95  -1.30    +69.0249
iter:   4 23:57:02  -832.798074  -1.27  -1.37    +58.6026
iter:   5 23:59:13  -825.848561  -1.88  -1.40    +53.7754
iter:   6 00:01:24  -827.131226  -1.99  -1.47    +51.5309
iter:   7 00:03:34  -827.315102  -1.64  -1.50    +50.0674
iter:   8 00:05:45  -825.432465  -1.72  -1.54    +49.8064
iter:   9 00:07:55  -827.393397  -1.87  -1.66    +50.1893
iter:  10 00:10:05  -823.211675  -2.03  -1.68    +49.7059
iter:  11 00:12:15  -824.321758  -2.30  -1.81    +50.3368
iter:  12 00:14:26  -822.945740  -2.42  -1.82    +50.8997
iter:  13 00:16:36  -823.620245  -2.62  -1.90    +51.8526
iter:  14 00:18:47  -824.124084  -2.50  -1.93    +52.6020
iter:  15 00:20:57  -824.828765  -2.52  -1.97    +53.4623
iter:  16 00:23:16  -825.347770  -2.40  -1.97    +54.5273
iter:  17 00:26:09  -824.186263  -2.73  -1.98    +54.7381
iter:  18 00:28:20  -824.857234  -2.76  -2.15    +55.5211
iter:  19 00:30:31  -824.460327  -2.91  -2.15    +55.7457
iter:  20 00:32:41  -824.510437  -3.21  -2.22    +56.3658
iter:  21 00:34:51  -824.834078  -3.08  -2.30    +56.7804
iter:  22 00:37:01  -824.849232  -3.13  -2.30    +57.0019
iter:  23 00:39:12  -824.968668  -3.14  -2.36    +57.3552
iter:  24 00:41:23  -824.970068  -3.32  -2.38    +57.3999
iter:  25 00:43:34  -824.992170c -3.38  -2.46    +57.6902
iter:  26 00:45:44  -825.128248  -3.49  -2.57    +57.6319
iter:  27 00:47:55  -825.066551  -3.85  -2.52    +57.7140
iter:  28 00:50:06  -825.180549  -3.87  -2.64    +57.6902
iter:  29 00:52:17  -825.199931  -4.11  -2.63    +57.7252
iter:  30 00:54:28  -825.278539  -3.99  -2.65    +57.7528
iter:  31 00:56:39  -825.351983  -4.01  -2.67    +57.6477
iter:  32 00:58:50  -825.428510  -3.94  -2.68    +57.6030
iter:  33 01:01:01  -825.466185  -4.15  -2.67    +57.4074
iter:  34 01:03:12  -825.590397  -3.61  -2.71    +56.8769
iter:  35 01:05:23  -825.614704  -4.15  -2.68    +56.8008
iter:  36 01:07:34  -825.640282c -4.33  -2.67    +56.6743
iter:  37 01:09:44  -825.657665c -4.59  -2.68    +56.5411
iter:  38 01:11:55  -825.700683c -4.47  -2.68    +56.4080
iter:  39 01:14:07  -825.745638c -4.02  -2.64    +56.3543
iter:  40 01:16:22  -825.791526c -3.95  -2.62    +56.2390
iter:  41 01:18:55  -825.762319c -3.89  -2.60    +56.1012
iter:  42 01:20:45  -825.770559c -3.85  -2.65    +55.9755
iter:  43 01:22:52  -825.813791c -3.65  -2.69    +55.7147
iter:  44 01:24:58  -825.764086c -3.93  -2.69    +55.6390
iter:  45 01:27:06  -825.767703c -4.16  -2.78    +55.4417
iter:  46 01:28:46  -825.815123c -3.98  -2.84    +55.3467
iter:  47 01:30:43  -825.782346c -4.26  -2.76    +55.2435
iter:  48 01:32:49  -825.790924c -4.51  -2.88    +55.0943
iter:  49 01:34:42  -825.798349c -4.85  -2.94    +55.0266
iter:  50 01:36:49  -825.822079c -4.46  -2.97    +54.8416
iter:  51 01:38:44  -825.818290c -4.88  -2.93    +54.8525
iter:  52 01:40:35  -825.835631c -4.42  -3.01    +54.7549
iter:  53 01:42:43  -825.867930c -4.19  -3.07    +54.7373
iter:  54 01:44:33  -825.835207c -4.46  -2.92    +54.6874
iter:  55 01:46:20  -825.846023c -4.84  -3.33    +54.6570
iter:  56 01:48:09  -825.847009c -5.29  -3.31    +54.6249
iter:  57 01:50:16  -825.855876c -5.18  -3.42    +54.5771
iter:  58 01:51:56  -825.863254c -5.22  -3.43    +54.5332
iter:  59 01:53:39  -825.858556c -6.03  -3.41    +54.5548
iter:  60 01:55:33  -825.851995c -5.25  -3.43    +54.5539
iter:  61 01:57:39  -825.865724c -5.04  -3.41    +54.5163
iter:  62 01:59:45  -825.859244c -5.65  -3.43    +54.5461
iter:  63 02:01:39  -825.863621c -5.57  -3.51    +54.5304
iter:  64 02:03:46  -825.869272c -5.25  -3.47    +54.5068
iter:  65 02:05:34  -825.877176c -5.15  -3.42    +54.4434
iter:  66 02:07:41  -825.879462c -5.77  -3.53    +54.4322
iter:  67 02:09:26  -825.889617c -5.12  -3.53    +54.3785
iter:  68 02:11:22  -825.895940c -5.35  -3.48    +54.3659
iter:  69 02:13:03  -825.902006c -5.26  -3.41    +54.3408
iter:  70 02:14:56  -825.907756c -5.40  -3.43    +54.3221
iter:  71 02:17:18  -825.932689c -4.51  -3.42    +54.2444
iter:  72 02:19:53  -825.989833c -3.52  -3.30    +54.1064
iter:  73 02:21:39  -825.978680c -4.79  -3.09    +54.2249
iter:  74 02:23:45  -825.981769c -5.00  -3.14    +54.2494
iter:  75 02:25:52  -825.988560c -4.86  -3.14    +54.3054
iter:  76 02:27:59  -826.021018c -4.35  -3.09    +54.4057
iter:  77 02:29:42  -825.980748c -4.65  -2.93    +54.3414
iter:  78 02:31:22  -825.987376c -5.29  -3.08    +54.3067
iter:  79 02:33:15  -825.990023c -5.28  -3.02    +54.3000
iter:  80 02:35:21  -825.970201c -4.35  -3.07    +54.2875
iter:  81 02:37:01  -825.962000c -5.04  -3.06    +54.2439
iter:  82 02:38:57  -825.967275c -4.92  -3.15    +54.1574
iter:  83 02:41:04  -825.969204c -4.75  -3.10    +54.1228
iter:  84 02:42:59  -825.960539c -4.67  -3.09    +54.0779
iter:  85 02:45:06  -825.959328c -4.84  -3.25    +54.0771
iter:  86 02:47:12  -825.957441c -5.32  -3.31    +54.0542
iter:  87 02:48:52  -825.958759c -5.49  -3.41    +54.0495
iter:  88 02:50:41  -825.958248c -5.64  -3.39    +54.0252
iter:  89 02:52:48  -825.958897c -5.58  -3.46    +54.0047
iter:  90 02:54:30  -825.958889c -5.51  -3.46    +54.0113
iter:  91 02:56:09  -825.958364c -5.72  -3.57    +54.0102
iter:  92 02:58:02  -825.958340c -5.86  -3.64    +54.0035
iter:  93 03:00:09  -825.958604c -5.96  -3.70    +54.0027
iter:  94 03:01:48  -825.958488c -6.16  -3.74    +54.0029
iter:  95 03:03:28  -825.958638c -6.31  -3.79    +53.9937
iter:  96 03:05:21  -825.958998c -6.04  -3.82    +53.9960
iter:  97 03:07:28  -825.958898c -6.13  -3.81    +53.9897
iter:  98 03:09:34  -825.958974c -6.09  -3.91    +53.9857
iter:  99 03:11:13  -825.959129c -6.32  -3.97    +53.9879
iter: 100 03:13:07  -825.959183c -6.46  -4.02c   +53.9925
iter: 101 03:15:39  -825.959318c -6.63  -4.06c   +53.9928
iter: 102 03:18:06  -825.959542c -6.63  -4.12c   +53.9975
iter: 103 03:20:13  -825.959690c -6.54  -4.09c   +53.9982
iter: 104 03:22:19  -825.959941c -6.59  -4.16c   +54.0027
iter: 105 03:24:13  -825.960012c -6.86  -4.21c   +54.0046
iter: 106 03:26:20  -825.960205c -6.67  -4.19c   +54.0089
iter: 107 03:28:20  -825.960381c -6.86  -4.25c   +54.0115
iter: 108 03:30:27  -825.960548c -6.68  -4.30c   +54.0182
iter: 109 03:32:27  -825.960635c -6.84  -4.25c   +54.0194
iter: 110 03:34:33  -825.960839c -6.76  -4.36c   +54.0233
iter: 111 03:36:22  -825.961249c -6.35  -4.39c   +54.0332
iter: 112 03:38:15  -825.960903c -6.82  -4.37c   +54.0244
iter: 113 03:40:11  -825.960888c -7.52c -4.40c   +54.0234

Converged after 113 iterations.

Dipole moment: (28.681051, -3.421964, -10.160518) |e|*Ang

Total magnetic moment: (0.000000, 0.000000, 54.023405)
Local magnetic moments:
   0 Fe ( 0.000000,  0.000000,  2.210680)
   1 Co ( 0.000000,  0.000000,  1.371568)
   2 Fe ( 0.000000,  0.000000,  2.271539)
   3 Al ( 0.000000,  0.000000, -0.045043)
   4 Fe ( 0.000000,  0.000000,  2.398802)
   5 Fe ( 0.000000,  0.000000,  2.459058)
   6 Fe ( 0.000000,  0.000000,  1.963886)
   7 Cr ( 0.000000,  0.000000, -2.467793)
   8 Fe ( 0.000000,  0.000000,  2.188124)
   9 Al ( 0.000000,  0.000000, -0.016096)
  10 Ni ( 0.000000,  0.000000,  0.172337)
  11 Ni ( 0.000000,  0.000000,  0.100398)
  12 Ni ( 0.000000,  0.000000,  0.207930)
  13 Al ( 0.000000,  0.000000, -0.032770)
  14 Co ( 0.000000,  0.000000,  1.341824)
  15 Fe ( 0.000000,  0.000000,  2.093649)
  16 Co ( 0.000000,  0.000000,  1.312228)
  17 Co ( 0.000000,  0.000000,  1.228219)
  18 Ni ( 0.000000,  0.000000,  0.234170)
  19 Co ( 0.000000,  0.000000,  1.043905)
  20 Ni ( 0.000000,  0.000000,  0.076728)
  21 Co ( 0.000000,  0.000000,  1.177325)
  22 Al ( 0.000000,  0.000000, -0.027730)
  23 Fe ( 0.000000,  0.000000,  2.006641)
  24 Fe ( 0.000000,  0.000000,  1.669222)
  25 Co ( 0.000000,  0.000000,  0.812399)
  26 Cr ( 0.000000,  0.000000, -1.970636)
  27 Ni ( 0.000000,  0.000000,  0.086353)
  28 Al ( 0.000000,  0.000000, -0.007873)
  29 Al ( 0.000000,  0.000000, -0.032766)
  30 Ni ( 0.000000,  0.000000,  0.227702)
  31 Cr ( 0.000000,  0.000000,  1.489943)
  32 Fe ( 0.000000,  0.000000,  2.002250)
  33 Cr ( 0.000000,  0.000000, -1.335199)
  34 Cr ( 0.000000,  0.000000, -1.727372)
  35 Fe ( 0.000000,  0.000000,  1.707762)
  36 Cr ( 0.000000,  0.000000, -0.929553)
  37 Al ( 0.000000,  0.000000, -0.025797)
  38 Ni ( 0.000000,  0.000000,  0.086787)
  39 Co ( 0.000000,  0.000000,  1.120655)
  40 Al ( 0.000000,  0.000000, -0.027187)
  41 Cr ( 0.000000,  0.000000, -2.093488)
  42 Al ( 0.000000,  0.000000, -0.022135)
  43 Co ( 0.000000,  0.000000,  0.679364)
  44 Al ( 0.000000,  0.000000, -0.016369)
  45 Co ( 0.000000,  0.000000,  0.808736)
  46 Co ( 0.000000,  0.000000,  0.939493)
  47 Ni ( 0.000000,  0.000000,  0.229934)
  48 Ni ( 0.000000,  0.000000,  0.388487)
  49 Ni ( 0.000000,  0.000000,  0.282409)
  50 Co ( 0.000000,  0.000000,  1.157773)
  51 Co ( 0.000000,  0.000000,  1.196083)
  52 Co ( 0.000000,  0.000000,  1.335177)
  53 Cr ( 0.000000,  0.000000,  1.682308)
  54 Cr ( 0.000000,  0.000000, -1.549048)
  55 Cr ( 0.000000,  0.000000, -1.856162)
  56 Cr ( 0.000000,  0.000000,  1.367522)
  57 Co ( 0.000000,  0.000000,  1.106427)
  58 Fe ( 0.000000,  0.000000,  2.202993)
  59 Co ( 0.000000,  0.000000,  0.974518)
[...]
  93 Ni ( 0.000000,  0.000000,  0.255419)
  94 Cr ( 0.000000,  0.000000,  1.076770)
  95 Al ( 0.000000,  0.000000, -0.015702)
  96 Cr ( 0.000000,  0.000000,  1.205717)
  97 Cr ( 0.000000,  0.000000, -0.971973)
  98 Co ( 0.000000,  0.000000,  0.162484)
  99 Fe ( 0.000000,  0.000000,  2.076827)
 100 Co ( 0.000000,  0.000000, -0.008515)
 101 Cr ( 0.000000,  0.000000, -2.240782)
 102 Al ( 0.000000,  0.000000, -0.020989)
 103 Fe ( 0.000000,  0.000000,  2.173923)
 104 Fe ( 0.000000,  0.000000,  2.476470)
 105 Ni ( 0.000000,  0.000000,  0.286652)
 106 Cr ( 0.000000,  0.000000, -1.555658)
 107 Co ( 0.000000,  0.000000,  0.955798)

Energy contributions relative to reference atoms: (reference = -3382523.201499)

Kinetic:       +227.026802
Potential:     -233.981820
External:        +0.000000
XC:            -850.143114
Entropy (-ST):   -4.177941
Local:          +33.226213
Free energy:   -828.049859
Extrapolated:  -825.960888

Spin contamination: 32.298291 electrons
Showing only first 2 kpts
                      Up                     Down
 Kpt  Band  Eigenvalues  Occupancy  Eigenvalues  Occupancy
  0   470      9.15816    0.99496     10.00784    0.03874
  0   471      9.17770    0.99388     10.02912    0.03155
  0   472      9.19473    0.99275     10.04366    0.02740
  0   473      9.20409    0.99205     10.05989    0.02339

  1   470      9.17091    0.99428     10.01915    0.03474
  1   471      9.17955    0.99377     10.03566    0.02961
  1   472      9.18951    0.99312     10.04542    0.02693
  1   473      9.19591    0.99267     10.05625    0.02423

Fermi level: 9.68671

No gap

Forces in eV/Ang:
  0 Fe    0.00495   -0.61734    0.17387
  1 Co    0.59454   -0.25816    0.20113
  2 Fe   -0.22991   -0.25566   -0.36637
  3 Al    0.26836    0.03325   -0.24598
  4 Fe    0.25720   -0.12895   -0.90562
  5 Fe    0.06645    0.79989   -0.04211
  6 Fe    0.18173    0.09675   -0.71653
  7 Cr   -1.02561   -0.97399   -0.79291
  8 Fe   -0.55686    0.47808   -0.51983
  9 Al   -0.36012   -0.47259   -1.06520
 10 Ni   -0.15876   -0.25607   -0.28368
 11 Ni   -0.27702   -0.26146   -0.42405
 12 Ni   -0.36145    0.52279    0.07554
 13 Al    0.95988   -0.51960    0.10541
 14 Co    0.61021    0.23595    0.84722
 15 Fe   -0.10636   -0.23300    0.00503
 16 Co    0.37402    0.22106    0.35637
 17 Co   -0.42524   -0.66934    0.67358
 18 Ni   -0.48252   -0.18993   -0.09621
 19 Co    0.07151   -0.30537    0.25339
 20 Ni   -0.12502    0.09053   -0.34677
 21 Co   -0.06916    0.50359   -0.06330
 22 Al    0.39720   -0.01598   -0.43887
 23 Fe   -0.42228    0.68824   -0.58988
 24 Fe    0.35782    0.20145   -0.10822
 25 Co    0.17505    0.03608   -0.10390
 26 Cr   -0.67234    0.18044    0.11391
 27 Ni    0.76098    0.43614   -0.28208
 28 Al   -0.78296   -0.01484    0.27963
 29 Al   -0.51790    0.26853   -0.92258
 30 Ni   -0.24397   -0.00484    0.39434
 31 Cr    0.59321    1.11767   -0.60930
 32 Fe    0.57558   -0.38717    0.38252
 33 Cr   -0.07423    0.18076   -0.41046
 34 Cr   -0.41053    0.20650   -0.03804
 35 Fe   -0.07280    0.05397    0.21126
 36 Cr    0.07342   -0.92001   -0.92886
 37 Al    0.05339   -0.01564   -0.26551
 38 Ni    0.28326    0.03948    0.06178
 39 Co    0.28236    0.58820   -0.25162
 40 Al   -0.56696    1.12036   -0.24827
 41 Cr   -0.61601    1.42516    0.10048
 42 Al    0.36375    0.34830    0.62333
 43 Co   -0.45025    0.35468    0.14782
 44 Al    0.87840   -0.02566    0.24479
 45 Co    0.08766    0.48130    0.62459
 46 Co   -0.04380   -0.43524   -0.04085
 47 Ni   -0.03285   -0.19952    0.04235
 48 Ni    0.61492    0.32305   -0.06009
 49 Ni    0.43133    0.17190   -0.43658
 50 Co    0.49923    0.28217   -0.31064
 51 Co    1.06376   -0.04185    0.23731
 52 Co   -0.29431   -0.04481    0.20817
 53 Cr    0.00390   -0.89182   -0.38345
 54 Cr    0.31727    0.04039    0.24563
 55 Cr    0.01735   -0.41937   -0.20342
 56 Cr   -1.07871    0.71350    1.19397
 57 Co    0.09504    0.20274    0.23998
 58 Fe   -0.54076    0.28162    0.23020
 59 Co   -0.37852    0.49296    0.50036
[...]
 93 Ni    0.39962   -0.19688   -0.20228
 94 Cr    0.34596    0.23486    0.50658
 95 Al   -1.28437    0.03623   -0.85129
 96 Cr   -0.10811    0.25384    0.87961
 97 Cr    0.75308    0.15012    0.32065
 98 Co    0.23403    0.21327   -0.23035
 99 Fe    0.48382    0.11689    0.44491
100 Co   -0.29961    0.43579    0.00039
101 Cr   -0.43550    0.97876    0.24870
102 Al    1.00985   -0.11340   -1.34001
103 Fe   -0.34795   -0.29419    0.59912
104 Fe   -0.05389   -0.12561   -0.61942
105 Ni   -0.06068    0.14869   -0.02665
106 Cr   -0.98669    0.36168    0.21668
107 Co   -0.37433   -0.18615   -0.06325

Date: Sat Apr 15 03:40:35 2023