User:   c.zeng@d0140
Date:   Fri Apr 14 19:53:08 2023
Arch:   x86_64
Pid:    92845
CWD:    /home/c.zeng/projects/hea-corrosion/hea-mlp/data-curation/bulk-mcmc/dft-jobs/162
Python: 3.8.1
gpaw:   /home/c.zeng/usr/installs/gpaw/source/gpaw-22.8.0/gpaw
_gpaw:  /home/c.zeng/usr/installs/gpaw/source/gpaw-22.8.0/
        _gpaw.cpython-38-x86_64-linux-gnu.so
ase:    /home/c.zeng/.local/lib/python3.8/site-packages/ase-3.22.1-py3.8.egg/ase (version 3.22.1)
numpy:  /shared/centos7/python/3.8.1/lib/python3.8/site-packages/numpy (version 1.17.4)
scipy:  /shared/centos7/python/3.8.1/lib/python3.8/site-packages/scipy (version 1.4.1)
units:  Angstrom and eV
cores: 30
OpenMP: False
OMP_NUM_THREADS: 1

Input parameters:
  convergence: {energy: 0.0001}
  kpts: [2 2 2]
  maxiter: 666
  mode: {ecut: 350.0,
         name: pw}
  occupations: {fixmagmom: False,
                name: fermi-dirac,
                width: 0.1}
  spinpol: True
  xc: PBE

System changes: positions, numbers, cell, pbc, initial_charges, initial_magmoms

Initialize ...

species:
  Co:
    name: Cobalt
    id: 339d20d5b0b93d2de9531a1bee871d91
    Z: 27.0
    valence: 9
    core: 18
    charge: 0.0
    file: /home/c.zeng/usr/data/gpaw-setups-0.9.20000/Co.PBE.gz
    compensation charges: {type: gauss,
                           rc: 0.32,
                           lmax: 2}
    cutoffs: {filter: 1.87,
              core: 2.55}
    valence states:
      #              energy  rcut
      - 4s(2.00)    -5.469   1.005
      - 4p(0.00)    -1.277   1.058
      - 3d(7.00)    -8.205   1.005
      -  s          21.742   1.005
      -  p          25.934   1.058
      -  d          19.007   1.005

    # Using partial waves for Co as LCAO basis

  Fe:
    name: Iron
    id: 37abbd8d6c3c35915a9b583b742da910
    Z: 26.0
    valence: 8
    core: 18
    charge: 0.0
    file: /home/c.zeng/usr/data/gpaw-setups-0.9.20000/Fe.PBE.gz
    compensation charges: {type: gauss,
                           rc: 0.33,
                           lmax: 2}
    cutoffs: {filter: 2.06,
              core: 2.67}
    valence states:
      #              energy  rcut
      - 4s(2.00)    -5.291   1.164
      - 4p(0.00)    -1.326   1.058
      - 3d(6.00)    -7.505   1.058
      -  s          21.920   1.164
      -  p          25.885   1.058
      -  d          19.706   1.058

[...]

  Al:
    name: Aluminium
    id: 0292cae29f5d6237e50f6abdd43a7bdd
    Z: 13.0
    valence: 3
    core: 10
    charge: 0.0
    file: /home/c.zeng/usr/data/gpaw-setups-0.9.20000/Al.PBE.gz
    compensation charges: {type: gauss,
                           rc: 0.34,
                           lmax: 2}
    cutoffs: {filter: 1.91,
              core: 2.36}
    valence states:
      #              energy  rcut
      - 3s(2.00)    -7.753   1.085
      - 3p(1.00)    -2.712   1.085
      -  s          19.459   1.085
      -  p          24.499   1.085
      -  d           0.000   1.085

[...]

  Cr:
    name: Chromium
    id: 33f258bda2ca9f93018e70263a35547b
    Z: 24.0
    valence: 6
    core: 18
    charge: 0.0
    file: /home/c.zeng/usr/data/gpaw-setups-0.9.20000/Cr.PBE.gz
    compensation charges: {type: gauss,
                           rc: 0.35,
                           lmax: 2}
    cutoffs: {filter: 2.14,
              core: 3.04}
    valence states:
      #              energy  rcut
      - 4s(1.00)    -4.007   1.164
      - 4p(0.00)    -0.989   1.217
      - 3d(5.00)    -2.913   1.111
      -  s          23.205   1.164
      -  p          26.223   1.217
      -  d          24.299   1.111

[...]

  Ni:
    name: Nickel
    id: 0d9f38a9d6e76a2886f07bb4381f212b
    Z: 28.0
    valence: 16
    core: 12
    charge: 0.0
    file: /home/c.zeng/usr/data/gpaw-setups-0.9.20000/Ni.PBE.gz
    compensation charges: {type: gauss,
                           rc: 0.36,
                           lmax: 2}
    cutoffs: {filter: 2.14,
              core: 1.98}
    valence states:
      #              energy  rcut
      - 4s(2.00)    -5.642   1.164
      - 3p(6.00)   -71.394   1.207
      - 4p(0.00)    -1.226   1.207
      - 3d(8.00)    -8.875   1.138
      -  s          21.570   1.164
      -  d          18.337   1.138

    # Using partial waves for Ni as LCAO basis

Reference energy: -3382523.201499  # eV

Spin-polarized calculation.
Magnetic moment: 128.800000

Convergence criteria:
 Maximum [total energy] change in last 3 cyles: 0.0001 eV / electron
 Maximum integral of absolute [dens]ity change: 0.0001 electrons / valence electron
 Maximum integral of absolute [eigenst]ate change: 4e-08 eV^2 / valence electron
 Maximum number of scf [iter]ations: 666
 (Square brackets indicate name in SCF output, whereas a 'c' in
 the SCF output indicates the quantity has converged.)

Symmetries present (total): 1

  ( 1  0  0)
  ( 0  1  0)
  ( 0  0  1)

8 k-points: 2 x 2 x 2 Monkhorst-Pack grid
4 k-points in the irreducible part of the Brillouin zone
       k-points in crystal coordinates                weights
   0:     0.25000000   -0.25000000   -0.25000000          2/8
   1:     0.25000000   -0.25000000    0.25000000          2/8
   2:     0.25000000    0.25000000   -0.25000000          2/8
   3:     0.25000000    0.25000000    0.25000000          2/8

Wave functions: Plane wave expansion
  Cutoff energy: 350.000 eV
  Number of coefficients (min, max): 18865, 18865
  Pulay-stress correction: 0.000000 eV/Ang^3 (de/decut=0.000000)
  Using FFTW library
  ScaLapack parameters: grid=1x1, blocksize=None
  Wavefunction extrapolation:
    Improved wavefunction reuse through dual PAW basis

Occupation numbers: Fermi-Dirac:
  width: 0.1000  # eV

Eigensolver
   Davidson(niter=2)

Densities:
  Coarse grid: 48*48*48 grid
  Fine grid: 96*96*96 grid
  Total Charge: 0.000000

Density mixing:
  Method: difference
  Backend: pulay
  Linear mixing parameter: 0.05
  old densities: 5
  Damping of long wavelength oscillations: 50

Hamiltonian:
  XC and Coulomb potentials evaluated on a 96*96*96 grid
  Using the PBE Exchange-Correlation functional
  External potential:
    NoExternalPotential

XC parameters: PBE with 2 nearest neighbor stencil

Total number of cores used: 30
Parallelization over k-points: 2
Domain decomposition: 5 x 3 x 1

Number of atoms: 108
Number of atomic orbitals: 961
Number of bands in calculation: 649
Number of valence electrons: 945
Bands to converge: occupied

... initialized

Initializing position-dependent things.

Density initialized from atomic densities
Creating initial wave functions:
  649 bands from LCAO basis set

       /|                     Fe   |
      / |            Co Co     CrCo|
     /  |       Cr       Ni       Cr
    /   |Fe       Fel     CFer     |
   /i   | Feo        Fe      Co    |
  /  CrAl   NCr       Ni           |
 *      Ni     FeCo   AlCoCrCo   Cr|
 |      |FeNi   CrNiAl   NiAlNi   Co
 | CrCo | AlNi   AlAlFe     Ni     |
 |     Fe  FeCr Cr  Fe CoNi  CrNi  |
 |      CoNi   AlCr   FeCoFeNi  Co |
 |Al    |FeCr   AlCrCo   CrCo     Co
 |      .-CrCo-----NiCr-FeCoCrNi---.
 |     /   Ni Fe    Cr FeNi    Al /
 |    Co       AFei       Al     /
 |   /  Fe         Al       Cr  /
 |  /      Fe       Al       Fe/
 | / Co     Co       Ni Ni    /
 |/             Cr       Ni  /
 *--------Fe----------------*

Positions:
   0 Co    10.764147   10.861293   10.805330    ( 0.0000,  0.0000,  2.0000)
   1 Fe    10.786221    1.792513    1.813624    ( 0.0000,  0.0000,  0.0000)
   2 Co     1.744156    0.036560    1.851269    ( 0.0000,  0.0000,  1.5000)
   3 Al     1.736571    1.831142   10.798805    ( 0.0000,  0.0000,  0.0000)
   4 Fe     3.575126    0.057318    0.061759    ( 0.0000,  0.0000,  0.0000)
   5 Fe     3.594289    1.817617    1.845577    ( 0.0000,  0.0000,  2.0000)
   6 Fe     5.429813   10.817005    1.865054    ( 0.0000,  0.0000,  1.5000)
   7 Cr     5.429608    1.929425    0.057134    ( 0.0000,  0.0000,  0.0000)
   8 Co     7.316909   10.723332    0.087382    ( 0.0000,  0.0000,  0.0000)
   9 Al     7.263142    1.825786    1.869404    ( 0.0000,  0.0000,  2.1000)
  10 Ni     9.063554    0.025226    1.863474    ( 0.0000,  0.0000,  1.5000)
  11 Ni     9.049217    1.829703    0.033106    ( 0.0000,  0.0000,  2.1000)
  12 Ni     0.004792    3.558981   10.794801    ( 0.0000,  0.0000,  1.5000)
  13 Al    10.759710    5.390697    1.778165    ( 0.0000,  0.0000,  0.0000)
  14 Fe     1.733585    3.561849    1.761112    ( 0.0000,  0.0000,  2.0000)
  15 Fe     1.776899    5.391834   10.795505    ( 0.0000,  0.0000,  0.0000)
  16 Co     3.565452    3.619360   10.832619    ( 0.0000,  0.0000,  2.1000)
  17 Fe     3.633221    5.394614    1.719551    ( 0.0000,  0.0000,  0.0000)
  18 Ni     5.471624    3.659114    1.836033    ( 0.0000,  0.0000,  2.1000)
  19 Fe     5.440212    5.373060   -0.002773    ( 0.0000,  0.0000,  2.0000)
  20 Ni     7.258997    3.609080    0.031294    ( 0.0000,  0.0000,  0.0000)
  21 Fe     7.268941    5.378362    1.785274    ( 0.0000,  0.0000,  2.0000)
  22 Al     9.030724    3.577636    1.833728    ( 0.0000,  0.0000,  2.1000)
  23 Fe     9.040420    5.372281   10.801110    ( 0.0000,  0.0000,  0.0000)
  24 Co    10.791663    7.196206   10.792486    ( 0.0000,  0.0000,  1.5000)
  25 Co    10.758434    9.040387    1.848239    ( 0.0000,  0.0000,  0.0000)
  26 Cr     1.690487    7.202493    1.786032    ( 0.0000,  0.0000,  0.0000)
  27 Ni     1.652691    8.981047    0.027217    ( 0.0000,  0.0000,  0.0000)
  28 Al     3.631241    7.164437    0.034633    ( 0.0000,  0.0000,  0.0000)
  29 Al     3.625452    9.063759    1.801678    ( 0.0000,  0.0000,  0.0000)
  30 Ni     5.490852    7.187095    1.746342    ( 0.0000,  0.0000,  2.0000)
  31 Cr     5.426935    8.989152    0.009861    ( 0.0000,  0.0000,  2.0000)
  32 Co     7.229122    7.237075   -0.008698    ( 0.0000,  0.0000,  1.5000)
  33 Cr     7.249194    8.995850    1.810713    ( 0.0000,  0.0000,  0.0000)
  34 Cr     9.052073    7.204300    1.764218    ( 0.0000,  0.0000,  2.1000)
  35 Fe     9.092553    8.989639   10.808760    ( 0.0000,  0.0000,  1.5000)
  36 Cr    -0.000975   10.826235    3.639789    ( 0.0000,  0.0000,  1.5000)
  37 Al    10.822772    1.771770    5.422044    ( 0.0000,  0.0000,  2.1000)
  38 Ni     1.754263   10.802084    5.428872    ( 0.0000,  0.0000,  2.1000)
  39 Co     1.741873    1.774270    3.610801    ( 0.0000,  0.0000,  0.0000)
  40 Al     3.591183   10.794152    3.612143    ( 0.0000,  0.0000,  2.0000)
  41 Cr     3.593088    1.736744    5.455177    ( 0.0000,  0.0000,  0.0000)
  42 Al     5.437150   10.794563    5.400804    ( 0.0000,  0.0000,  2.0000)
  43 Fe     5.451931    1.783251    3.601387    ( 0.0000,  0.0000,  1.5000)
  44 Al     7.226222    0.007781    3.626209    ( 0.0000,  0.0000,  0.0000)
  45 Co     7.236069    1.766512    5.381392    ( 0.0000,  0.0000,  2.1000)
  46 Fe     9.034587   10.848850    5.403844    ( 0.0000,  0.0000,  2.1000)
  47 Ni     9.031558    1.804946    3.616730    ( 0.0000,  0.0000,  1.5000)
  48 Ni    10.773885    3.543973    3.617867    ( 0.0000,  0.0000,  1.5000)
  49 Ni    10.772186    5.358409    5.454917    ( 0.0000,  0.0000,  0.0000)
  50 Co     1.757531    3.575678    5.428937    ( 0.0000,  0.0000,  2.1000)
  51 Fe     1.621766    5.386986    3.572550    ( 0.0000,  0.0000,  0.0000)
[...]
  2. axis:    yes    0.000000   10.820500    0.000000    48     0.2254
  3. axis:    yes    0.000000    0.000000   10.820500    48     0.2254

  Lengths:  10.820500  10.820500  10.820500
  Angles:   90.000000  90.000000  90.000000

Effective grid spacing dv^(1/3) = 0.2254

     iter     time        total  log10-change:  magmom
                         energy  eigst   dens
iter:   1 19:56:36  -895.834099                  +128.4417
iter:   2 19:58:00  -864.496985  -0.40  -1.31    +96.0572
iter:   3 19:59:25  -846.247787  -0.94  -1.29    +67.6127
iter:   4 20:00:49  -832.396036  -1.26  -1.36    +57.3284
iter:   5 20:02:13  -826.407018  -1.84  -1.40    +52.7783
iter:   6 20:03:38  -826.792683  -1.99  -1.47    +50.1266
iter:   7 20:05:02  -826.938709  -1.64  -1.50    +48.9197
iter:   8 20:06:26  -824.124439  -1.71  -1.54    +48.6169
iter:   9 20:07:50  -830.057009  -1.80  -1.68    +48.9989
iter:  10 20:09:15  -822.667211  -2.02  -1.64    +48.6975
iter:  11 20:10:39  -824.087161  -2.30  -1.82    +49.1764
iter:  12 20:12:05  -822.674382  -2.43  -1.81    +49.9325
iter:  13 20:13:30  -823.142347  -2.57  -1.88    +50.8277
iter:  14 20:14:56  -823.530962  -2.54  -1.93    +51.8095
iter:  15 20:16:22  -824.869902  -2.44  -1.96    +52.4678
iter:  16 20:17:47  -824.420946  -2.42  -1.94    +53.5744
iter:  17 20:19:13  -824.462843  -2.67  -1.98    +54.1784
iter:  18 20:20:38  -824.224945  -2.66  -2.04    +54.8218
iter:  19 20:22:03  -824.033089  -2.86  -2.11    +55.3780
iter:  20 20:23:29  -823.879920  -3.16  -2.15    +56.0653
iter:  21 20:24:54  -824.200775  -3.22  -2.21    +56.9675
iter:  22 20:26:18  -824.330248  -3.18  -2.22    +57.3031
iter:  23 20:27:43  -824.268524  -3.39  -2.21    +57.8277
iter:  24 20:29:08  -824.399865  -3.35  -2.27    +58.2927
iter:  25 20:30:32  -824.710638  -3.15  -2.31    +58.5900
iter:  26 20:31:57  -824.706079  -3.11  -2.29    +58.5980
iter:  27 20:33:21  -824.892889  -3.12  -2.37    +58.6569
iter:  28 20:34:46  -824.868184  -3.10  -2.32    +58.8230
iter:  29 20:36:11  -824.903409c -3.19  -2.40    +58.8560
iter:  30 20:37:36  -824.667571  -3.60  -2.39    +58.9547
iter:  31 20:39:02  -824.726732  -3.78  -2.56    +58.9964
iter:  32 20:40:28  -824.717834c -4.17  -2.56    +59.0750
iter:  33 20:41:53  -824.784454c -4.01  -2.62    +59.1754
iter:  34 20:43:19  -824.806793c -4.37  -2.62    +59.2077
iter:  35 20:44:45  -824.979145  -3.75  -2.66    +59.2355
iter:  36 20:46:11  -824.937658  -3.80  -2.60    +59.2292
iter:  37 20:47:36  -825.000673c -3.67  -2.67    +59.2441
iter:  38 20:49:02  -824.991499c -3.81  -2.74    +59.1648
iter:  39 20:50:29  -825.069828c -3.84  -2.81    +59.1083
iter:  40 20:51:57  -825.021465c -4.02  -2.74    +59.1245
iter:  41 20:53:24  -825.038884c -4.37  -2.92    +59.0536
iter:  42 20:54:50  -825.083217c -4.31  -2.99    +58.9599
iter:  43 20:56:16  -825.146632  -4.18  -2.98    +58.8682
iter:  44 20:57:42  -825.149900c -4.38  -2.83    +58.8293
iter:  45 20:59:07  -825.223629c -4.12  -2.89    +58.7091
iter:  46 21:00:33  -825.208144c -4.27  -2.78    +58.6880
iter:  47 21:02:03  -825.197970c -4.31  -2.82    +58.4743
iter:  48 21:03:36  -825.240730c -4.05  -2.89    +58.2768
iter:  49 21:05:10  -825.227201c -4.33  -2.81    +58.1625
iter:  50 21:06:45  -825.238834c -4.51  -2.89    +57.9457
iter:  51 21:08:19  -825.250108c -4.72  -2.93    +57.7746
iter:  52 21:09:53  -825.270913c -4.38  -2.98    +57.4437
iter:  53 21:11:27  -825.288705c -4.44  -3.02    +57.3925
iter:  54 21:13:01  -825.290693c -4.34  -2.97    +57.2199
iter:  55 21:14:34  -825.297818c -4.59  -3.12    +57.0534
iter:  56 21:16:09  -825.303219c -4.72  -3.18    +56.9004
iter:  57 21:17:44  -825.312014c -4.93  -3.23    +56.7605
iter:  58 21:19:17  -825.322578c -5.02  -3.28    +56.6235
iter:  59 21:20:51  -825.338092c -5.04  -3.29    +56.4571
iter:  60 21:22:24  -825.295443c -4.38  -3.28    +56.9234
iter:  61 21:23:57  -825.284556c -4.69  -3.33    +57.0795
iter:  62 21:25:30  -825.292075c -5.23  -3.37    +56.9240
iter:  63 21:27:02  -825.301715c -5.27  -3.47    +56.8118
iter:  64 21:28:37  -825.303753c -5.67  -3.45    +56.7778
iter:  65 21:30:10  -825.314063c -5.09  -3.47    +56.6140
iter:  66 21:31:38  -825.331337c -4.90  -3.46    +56.3825
iter:  67 21:33:08  -825.300374c -4.49  -3.42    +56.8279
iter:  68 21:34:42  -825.302206c -5.52  -3.46    +56.8166
iter:  69 21:36:16  -825.313904c -5.36  -3.48    +56.6546
iter:  70 21:37:50  -825.303616c -5.33  -3.45    +56.8138
iter:  71 21:39:22  -825.313286c -5.24  -3.45    +56.6915
iter:  72 21:40:55  -825.322410c -5.15  -3.39    +56.5187
iter:  73 21:42:28  -825.325302c -5.46  -3.42    +56.5238
iter:  74 21:44:02  -825.334965c -4.91  -3.31    +56.3443
iter:  75 21:45:36  -825.346972c -5.05  -3.33    +56.2039
iter:  76 21:47:10  -825.336826c -5.34  -3.33    +56.3057
iter:  77 21:48:44  -825.340817c -5.61  -3.34    +56.3032
iter:  78 21:50:15  -825.353546c -5.07  -3.37    +56.1531
iter:  79 21:51:49  -825.356203c -5.33  -3.29    +56.1359
iter:  80 21:53:19  -825.369896c -4.88  -3.31    +55.9554
iter:  81 21:54:50  -825.375372c -5.30  -3.28    +55.8740
iter:  82 21:56:20  -825.383891c -5.33  -3.34    +55.7764
iter:  83 21:57:53  -825.384991c -5.39  -3.27    +55.8067
iter:  84 21:59:26  -825.407550c -4.77  -3.24    +55.6232
iter:  85 22:00:56  -825.405433c -5.35  -3.20    +55.6450
iter:  86 22:02:29  -825.426413c -4.87  -3.27    +55.4712
iter:  87 22:04:02  -825.419371c -4.80  -3.26    +55.5934
iter:  88 22:05:36  -825.446581c -4.63  -3.15    +55.2841
iter:  89 22:07:08  -825.471257c -4.75  -3.20    +55.2104
iter:  90 22:08:40  -825.474816c -4.94  -3.16    +55.1894
iter:  91 22:10:13  -825.503392c -4.77  -3.16    +54.9589
iter:  92 22:11:46  -825.553950c -4.11  -3.11    +54.5737
iter:  93 22:13:20  -825.579546c -4.38  -2.96    +54.4897
iter:  94 22:14:53  -825.606831c -4.60  -2.94    +54.3784
iter:  95 22:16:25  -825.635988c -4.60  -2.90    +54.2808
iter:  96 22:17:58  -825.610130c -4.19  -2.86    +54.2112
iter:  97 22:19:31  -825.599553c -4.10  -2.82    +54.2274
iter:  98 22:21:04  -825.604565c -3.93  -2.79    +54.1945
iter:  99 22:22:37  -825.642825c -3.69  -2.74    +54.1987
iter: 100 22:24:10  -825.545589  -4.16  -2.70    +54.2996
iter: 101 22:25:44  -825.559822  -4.38  -2.97    +54.2972
iter: 102 22:27:14  -825.549619c -4.55  -2.93    +54.3360
iter: 103 22:28:46  -825.562577c -4.47  -2.99    +54.3829
iter: 104 22:30:20  -825.561994c -4.40  -2.95    +54.4043
iter: 105 22:31:54  -825.555342c -4.39  -2.95    +54.3990
iter: 106 22:33:27  -825.564533c -4.32  -3.00    +54.4120
iter: 107 22:35:01  -825.557978c -4.45  -2.97    +54.4804
iter: 108 22:36:34  -825.559965c -4.40  -3.05    +54.5025
iter: 109 22:38:07  -825.555586c -4.48  -3.03    +54.5370
iter: 110 22:39:40  -825.550112c -4.70  -3.07    +54.5922
iter: 111 22:41:13  -825.547325c -4.91  -3.17    +54.6780
iter: 112 22:42:47  -825.544695c -4.92  -3.24    +54.7076
iter: 113 22:44:16  -825.543576c -5.46  -3.24    +54.7190
iter: 114 22:45:49  -825.550828c -4.92  -3.36    +54.7688
iter: 115 22:47:22  -825.547199c -5.10  -3.24    +54.7782
iter: 116 22:48:55  -825.546366c -5.14  -3.35    +54.8066
iter: 117 22:50:28  -825.547261c -5.10  -3.38    +54.8164
iter: 118 22:52:02  -825.550209c -5.11  -3.36    +54.8465
iter: 119 22:53:36  -825.545792c -5.36  -3.38    +54.9056
iter: 120 22:55:09  -825.546376c -5.62  -3.55    +54.9360
iter: 121 22:56:43  -825.546185c -6.05  -3.55    +54.9692
iter: 122 22:58:15  -825.546706c -6.40  -3.63    +54.9976
iter: 123 22:59:49  -825.548718c -5.60  -3.64    +55.1007
iter: 124 23:01:12  -825.557147c -4.70  -3.63    +55.3845
iter: 125 23:02:38  -825.553443c -5.54  -3.45    +55.2281
iter: 126 23:04:11  -825.561894c -4.90  -3.48    +55.4743
iter: 127 23:05:45  -825.559109c -5.90  -3.41    +55.3837
iter: 128 23:07:19  -825.564003c -5.39  -3.45    +55.5467
iter: 129 23:08:53  -825.564323c -5.56  -3.37    +55.6284
iter: 130 23:10:26  -825.567328c -5.34  -3.37    +55.6633
iter: 131 23:11:59  -825.562565c -5.48  -3.23    +55.6941
iter: 132 23:13:31  -825.563459c -6.02  -3.38    +55.7333
iter: 133 23:15:04  -825.571934c -4.53  -3.36    +55.7727
iter: 134 23:16:37  -825.559620c -4.97  -3.14    +55.7551
iter: 135 23:18:10  -825.559306c -5.04  -3.36    +55.7498
iter: 136 23:19:42  -825.555792c -5.64  -3.33    +55.7195
iter: 137 23:21:15  -825.556282c -5.19  -3.47    +55.6823
iter: 138 23:22:47  -825.555926c -5.47  -3.50    +55.6684
iter: 139 23:24:21  -825.555318c -5.84  -3.49    +55.6582
iter: 140 23:25:55  -825.554877c -5.61  -3.65    +55.6466
iter: 141 23:27:28  -825.554816c -5.79  -3.55    +55.6313
iter: 142 23:29:02  -825.554868c -6.02  -3.68    +55.6124
iter: 143 23:30:35  -825.554671c -6.01  -3.76    +55.6071
iter: 144 23:32:09  -825.554843c -5.97  -3.74    +55.5947
iter: 145 23:33:43  -825.554067c -6.28  -3.81    +55.5885
iter: 146 23:35:17  -825.554062c -6.14  -3.90    +55.5837
iter: 147 23:36:48  -825.553931c -6.41  -4.04c   +55.5766
iter: 148 23:38:22  -825.553750c -6.54  -4.10c   +55.5753
iter: 149 23:39:56  -825.553717c -6.50  -4.15c   +55.5702
iter: 150 23:41:27  -825.553673c -7.00  -4.14c   +55.5638
iter: 151 23:42:58  -825.553711c -6.83  -4.28c   +55.5610
iter: 152 23:44:29  -825.553538c -7.11  -4.31c   +55.5598
iter: 153 23:46:00  -825.553712c -7.20  -4.43c   +55.5558
iter: 154 23:47:33  -825.553590c -7.27  -4.41c   +55.5538
iter: 155 23:49:08  -825.553624c -7.20  -4.48c   +55.5542
iter: 156 23:50:41  -825.553562c -7.44c -4.43c   +55.5523

Converged after 156 iterations.

Dipole moment: (29.667544, -3.078109, -10.512136) |e|*Ang

Total magnetic moment: (0.000000, 0.000000, 55.552329)
Local magnetic moments:
   0 Co ( 0.000000,  0.000000,  1.163979)
   1 Fe ( 0.000000,  0.000000,  2.384369)
   2 Co ( 0.000000,  0.000000,  1.293976)
   3 Al ( 0.000000,  0.000000, -0.046972)
   4 Fe ( 0.000000,  0.000000,  2.451953)
   5 Fe ( 0.000000,  0.000000,  2.426188)
   6 Fe ( 0.000000,  0.000000,  1.929138)
   7 Cr ( 0.000000,  0.000000, -2.379517)
   8 Co ( 0.000000,  0.000000,  0.828846)
   9 Al ( 0.000000,  0.000000, -0.009891)
  10 Ni ( 0.000000,  0.000000,  0.159325)
  11 Ni ( 0.000000,  0.000000,  0.167816)
  12 Ni ( 0.000000,  0.000000,  0.267538)
  13 Al ( 0.000000,  0.000000, -0.028583)
  14 Fe ( 0.000000,  0.000000,  2.244344)
  15 Fe ( 0.000000,  0.000000,  1.987327)
  16 Co ( 0.000000,  0.000000,  1.269203)
  17 Fe ( 0.000000,  0.000000,  2.170769)
  18 Ni ( 0.000000,  0.000000,  0.274933)
  19 Fe ( 0.000000,  0.000000,  2.229028)
  20 Ni ( 0.000000,  0.000000,  0.131729)
  21 Fe ( 0.000000,  0.000000,  2.203033)
  22 Al ( 0.000000,  0.000000, -0.023700)
  23 Fe ( 0.000000,  0.000000,  2.051259)
  24 Co ( 0.000000,  0.000000,  0.316137)
  25 Co ( 0.000000,  0.000000,  1.003174)
  26 Cr ( 0.000000,  0.000000, -1.802881)
  27 Ni ( 0.000000,  0.000000,  0.089195)
  28 Al ( 0.000000,  0.000000, -0.019991)
  29 Al ( 0.000000,  0.000000, -0.023208)
  30 Ni ( 0.000000,  0.000000,  0.340654)
  31 Cr ( 0.000000,  0.000000,  1.730046)
  32 Co ( 0.000000,  0.000000,  0.862176)
  33 Cr ( 0.000000,  0.000000, -1.484954)
  34 Cr ( 0.000000,  0.000000, -1.604186)
  35 Fe ( 0.000000,  0.000000,  1.975354)
  36 Cr ( 0.000000,  0.000000, -1.599426)
  37 Al ( 0.000000,  0.000000, -0.028791)
  38 Ni ( 0.000000,  0.000000,  0.122528)
  39 Co ( 0.000000,  0.000000,  1.152192)
  40 Al ( 0.000000,  0.000000, -0.036603)
  41 Cr ( 0.000000,  0.000000, -1.994686)
  42 Al ( 0.000000,  0.000000, -0.021633)
  43 Fe ( 0.000000,  0.000000,  1.865574)
  44 Al ( 0.000000,  0.000000, -0.032157)
  45 Co ( 0.000000,  0.000000,  0.438398)
  46 Fe ( 0.000000,  0.000000,  2.080290)
  47 Ni ( 0.000000,  0.000000,  0.118222)
  48 Ni ( 0.000000,  0.000000,  0.393203)
  49 Ni ( 0.000000,  0.000000,  0.316015)
  50 Co ( 0.000000,  0.000000,  1.254605)
  51 Fe ( 0.000000,  0.000000,  2.333974)
  52 Co ( 0.000000,  0.000000,  1.187002)
  53 Cr ( 0.000000,  0.000000, -1.858817)
  54 Cr ( 0.000000,  0.000000,  1.437658)
  55 Cr ( 0.000000,  0.000000,  1.371171)
  56 Cr ( 0.000000,  0.000000, -1.770235)
  57 Co ( 0.000000,  0.000000,  0.875485)
  58 Fe ( 0.000000,  0.000000,  2.212132)
  59 Co ( 0.000000,  0.000000,  1.137796)
[...]
  93 Ni ( 0.000000,  0.000000,  0.273130)
  94 Cr ( 0.000000,  0.000000,  1.550726)
  95 Al ( 0.000000,  0.000000,  0.002627)
  96 Cr ( 0.000000,  0.000000,  0.773486)
  97 Cr ( 0.000000,  0.000000, -0.988334)
  98 Fe ( 0.000000,  0.000000,  1.712181)
  99 Co ( 0.000000,  0.000000,  0.933380)
 100 Fe ( 0.000000,  0.000000, -1.056957)
 101 Cr ( 0.000000,  0.000000, -2.132729)
 102 Al ( 0.000000,  0.000000, -0.009753)
 103 Fe ( 0.000000,  0.000000,  2.268464)
 104 Co ( 0.000000,  0.000000,  1.376981)
 105 Ni ( 0.000000,  0.000000,  0.214608)
 106 Cr ( 0.000000,  0.000000, -1.286783)
 107 Co ( 0.000000,  0.000000,  0.922461)

Energy contributions relative to reference atoms: (reference = -3382523.201499)

Kinetic:       +221.269941
Potential:     -229.507090
External:        +0.000000
XC:            -848.508140
Entropy (-ST):   -4.178110
Local:          +33.280782
Free energy:   -827.642617
Extrapolated:  -825.553562

Spin contamination: 31.421964 electrons
Showing only first 2 kpts
                      Up                     Down
 Kpt  Band  Eigenvalues  Occupancy  Eigenvalues  Occupancy
  0   470      9.16336    0.99437     10.02978    0.02959
  0   471      9.19087    0.99260     10.04275    0.02609
  0   472      9.20559    0.99144     10.05677    0.02275
  0   473      9.22386    0.98974     10.07265    0.01948

  1   470      9.16819    0.99409     10.02833    0.03001
  1   471      9.18275    0.99317     10.04371    0.02584
  1   472      9.19474    0.99231     10.04803    0.02478
  1   473      9.21276    0.99081     10.06215    0.02158

Fermi level: 9.68076

No gap

Forces in eV/Ang:
  0 Co    0.26470   -0.61201    0.17828
  1 Fe    0.48176   -0.51839    0.22901
  2 Co    0.01707   -0.16762   -0.49952
  3 Al    0.23557   -0.35032   -0.40693
  4 Fe    0.15304   -0.12471   -0.82338
  5 Fe   -0.04308    0.53666   -0.16925
  6 Fe    0.40487    0.40968   -0.72462
  7 Cr   -1.08629   -0.90629   -0.83293
  8 Co   -0.56108    0.48426   -0.59087
  9 Al   -0.22835   -0.70076   -1.43501
 10 Ni   -0.23735   -0.26307   -0.40150
 11 Ni   -0.24359   -0.34055   -0.45865
 12 Ni   -0.29630    0.50640    0.15099
 13 Al    0.62263   -0.15599   -0.13578
 14 Fe    0.69917    0.29262    0.85689
 15 Fe   -0.14805   -0.00098   -0.07945
 16 Co    0.47718   -0.00093    0.21378
 17 Fe   -0.49295   -0.77604    0.66575
 18 Ni   -0.48816   -0.26897   -0.06065
 19 Fe    0.24376   -0.51415    0.19399
 20 Ni   -0.16617   -0.09822   -0.43749
 21 Fe    0.09282    0.62481    0.17821
 22 Al    0.44220    0.01898   -0.51752
 23 Fe   -0.36153    0.93206   -0.54955
 24 Co    0.33065   -0.12581   -0.09099
 25 Co    0.40745   -0.07232   -0.23458
 26 Cr   -0.62481    0.18479    0.10778
 27 Ni    0.69620    0.47452   -0.17956
 28 Al   -0.90768    0.34773    0.14256
 29 Al   -0.61928    0.38779   -0.96108
 30 Ni   -0.14690    0.08405    0.50602
 31 Cr    0.96175    1.21700   -0.59120
 32 Co    0.43381   -0.27682    0.13999
 33 Cr   -0.09588    0.00244   -0.53465
 34 Cr   -0.46887    0.38289   -0.06019
 35 Fe   -0.27012    0.08157    0.32993
 36 Cr    0.12551   -0.70785   -0.83242
 37 Al    0.23879    0.13994   -0.27490
 38 Ni    0.26557   -0.07156    0.08846
 39 Co    0.46148    0.58759   -0.19387
 40 Al   -0.74609    0.86531   -0.30032
 41 Cr   -0.40476    1.61077   -0.01901
 42 Al    0.42242    0.04442    0.92317
 43 Fe   -0.44822    0.40119    0.01816
 44 Al    0.87448   -0.10989    0.04171
 45 Co    0.07026    0.50463    0.36897
 46 Fe   -0.14259   -0.31687    0.38313
 47 Ni   -0.16737   -0.15066    0.07910
 48 Ni    0.61642    0.33662   -0.01285
 49 Ni    0.29184    0.32392   -0.41228
 50 Co    0.73509    0.23581   -0.33293
 51 Fe    1.21217   -0.16105    0.38775
 52 Co   -0.41031   -0.05949    0.26985
 53 Cr   -0.14178   -0.78577   -0.14998
 54 Cr    0.17328    0.35349    0.19786
 55 Cr   -0.00360   -0.21920    0.02084
 56 Cr   -0.91492    0.58632    1.38061
 57 Co    0.17549    0.16252    0.02736
 58 Fe   -0.80992    0.28340    0.01686
 59 Co   -0.47677    0.66623    0.49311
[...]
 93 Ni    0.31872   -0.16355   -0.28137
 94 Cr    0.03203    0.16622    0.30667
 95 Al   -1.43999    0.26018   -0.87625
 96 Cr   -0.10938    0.46747    0.67212
 97 Cr    0.47822    0.30856    0.40373
 98 Fe    0.11057    0.27740   -0.24603
 99 Co    0.24090   -0.17634    0.38755
100 Fe   -0.45309    0.81853   -0.09065
101 Cr   -0.44882    0.99833    0.14292
102 Al    1.33172    0.06829   -1.50583
103 Fe    0.10862   -0.25948    0.69554
104 Co   -0.10919   -0.08801   -0.44799
105 Ni    0.01492    0.22933    0.03868
106 Cr   -1.02098    0.38740    0.20485
107 Co   -0.49367   -0.26785    0.05235

Date: Fri Apr 14 23:51:00 2023