User:   c.zeng@d0131
Date:   Sat Apr  8 16:44:03 2023
Arch:   x86_64
Pid:    85359
CWD:    /home/c.zeng/projects/hea-corrosion/hea-mlp/data-curation/volume/dft-jobs/93
Python: 3.8.1
gpaw:   /home/c.zeng/usr/installs/gpaw/source/gpaw-22.8.0/gpaw
_gpaw:  /home/c.zeng/usr/installs/gpaw/source/gpaw-22.8.0/
        _gpaw.cpython-38-x86_64-linux-gnu.so
ase:    /home/c.zeng/.local/lib/python3.8/site-packages/ase-3.22.1-py3.8.egg/ase (version 3.22.1)
numpy:  /shared/centos7/python/3.8.1/lib/python3.8/site-packages/numpy (version 1.17.4)
scipy:  /shared/centos7/python/3.8.1/lib/python3.8/site-packages/scipy (version 1.4.1)
units:  Angstrom and eV
cores: 64
OpenMP: False
OMP_NUM_THREADS: 1

Input parameters:
  convergence: {energy: 0.0001}
  kpts: [2 2 2]
  maxiter: 666
  mode: {ecut: 350.0,
         name: pw}
  occupations: {fixmagmom: False,
                name: fermi-dirac,
                width: 0.1}
  spinpol: True
  xc: PBE

System changes: positions, numbers, cell, pbc, initial_charges, initial_magmoms

Initialize ...

species:
  Fe:
    name: Iron
    id: 37abbd8d6c3c35915a9b583b742da910
    Z: 26.0
    valence: 8
    core: 18
    charge: 0.0
    file: /home/c.zeng/usr/data/gpaw-setups-0.9.20000/Fe.PBE.gz
    compensation charges: {type: gauss,
                           rc: 0.33,
                           lmax: 2}
    cutoffs: {filter: 2.06,
              core: 2.67}
    valence states:
      #              energy  rcut
      - 4s(2.00)    -5.291   1.164
      - 4p(0.00)    -1.326   1.058
      - 3d(6.00)    -7.505   1.058
      -  s          21.920   1.164
      -  p          25.885   1.058
      -  d          19.706   1.058

    # Using partial waves for Fe as LCAO basis

  Cr:
    name: Chromium
    id: 33f258bda2ca9f93018e70263a35547b
    Z: 24.0
    valence: 6
    core: 18
    charge: 0.0
    file: /home/c.zeng/usr/data/gpaw-setups-0.9.20000/Cr.PBE.gz
    compensation charges: {type: gauss,
                           rc: 0.35,
                           lmax: 2}
    cutoffs: {filter: 2.14,
              core: 3.04}
    valence states:
      #              energy  rcut
      - 4s(1.00)    -4.007   1.164
      - 4p(0.00)    -0.989   1.217
      - 3d(5.00)    -2.913   1.111
      -  s          23.205   1.164
      -  p          26.223   1.217
      -  d          24.299   1.111

[...]

  Ni:
    name: Nickel
    id: 0d9f38a9d6e76a2886f07bb4381f212b
    Z: 28.0
    valence: 16
    core: 12
    charge: 0.0
    file: /home/c.zeng/usr/data/gpaw-setups-0.9.20000/Ni.PBE.gz
    compensation charges: {type: gauss,
                           rc: 0.36,
                           lmax: 2}
    cutoffs: {filter: 2.14,
              core: 1.98}
    valence states:
      #              energy  rcut
      - 4s(2.00)    -5.642   1.164
      - 3p(6.00)   -71.394   1.207
      - 4p(0.00)    -1.226   1.207
      - 3d(8.00)    -8.875   1.138
      -  s          21.570   1.164
      -  d          18.337   1.138

[...]

  Al:
    name: Aluminium
    id: 0292cae29f5d6237e50f6abdd43a7bdd
    Z: 13.0
    valence: 3
    core: 10
    charge: 0.0
    file: /home/c.zeng/usr/data/gpaw-setups-0.9.20000/Al.PBE.gz
    compensation charges: {type: gauss,
                           rc: 0.34,
                           lmax: 2}
    cutoffs: {filter: 1.91,
              core: 2.36}
    valence states:
      #              energy  rcut
      - 3s(2.00)    -7.753   1.085
      - 3p(1.00)    -2.712   1.085
      -  s          19.459   1.085
      -  p          24.499   1.085
      -  d           0.000   1.085

[...]

  Co:
    name: Cobalt
    id: 339d20d5b0b93d2de9531a1bee871d91
    Z: 27.0
    valence: 9
    core: 18
    charge: 0.0
    file: /home/c.zeng/usr/data/gpaw-setups-0.9.20000/Co.PBE.gz
    compensation charges: {type: gauss,
                           rc: 0.32,
                           lmax: 2}
    cutoffs: {filter: 1.87,
              core: 2.55}
    valence states:
      #              energy  rcut
      - 4s(2.00)    -5.469   1.005
      - 4p(0.00)    -1.277   1.058
      - 3d(7.00)    -8.205   1.005
      -  s          21.742   1.005
      -  p          25.934   1.058
      -  d          19.007   1.005

    # Using partial waves for Co as LCAO basis

Reference energy: -3382523.201499  # eV

Spin-polarized calculation.
Magnetic moment: 128.800000

Convergence criteria:
 Maximum [total energy] change in last 3 cyles: 0.0001 eV / electron
 Maximum integral of absolute [dens]ity change: 0.0001 electrons / valence electron
 Maximum integral of absolute [eigenst]ate change: 4e-08 eV^2 / valence electron
 Maximum number of scf [iter]ations: 666
 (Square brackets indicate name in SCF output, whereas a 'c' in
 the SCF output indicates the quantity has converged.)

Symmetries present (total): 1

  ( 1  0  0)
  ( 0  1  0)
  ( 0  0  1)

8 k-points: 2 x 2 x 2 Monkhorst-Pack grid
4 k-points in the irreducible part of the Brillouin zone
       k-points in crystal coordinates                weights
   0:     0.25000000   -0.25000000   -0.25000000          2/8
   1:     0.25000000   -0.25000000    0.25000000          2/8
   2:     0.25000000    0.25000000   -0.25000000          2/8
   3:     0.25000000    0.25000000    0.25000000          2/8

Wave functions: Plane wave expansion
  Cutoff energy: 350.000 eV
  Number of coefficients (min, max): 22145, 22145
  Pulay-stress correction: 0.000000 eV/Ang^3 (de/decut=0.000000)
  Using FFTW library
  ScaLapack parameters: grid=1x1, blocksize=None
  Wavefunction extrapolation:
    Improved wavefunction reuse through dual PAW basis

Occupation numbers: Fermi-Dirac:
  width: 0.1000  # eV

Eigensolver
   Davidson(niter=2)

Densities:
  Coarse grid: 50*50*50 grid
  Fine grid: 100*100*100 grid
  Total Charge: 0.000000

Density mixing:
  Method: difference
  Backend: pulay
  Linear mixing parameter: 0.05
  old densities: 5
  Damping of long wavelength oscillations: 50

Hamiltonian:
  XC and Coulomb potentials evaluated on a 100*100*100 grid
  Using the PBE Exchange-Correlation functional
  External potential:
    NoExternalPotential

XC parameters: PBE with 2 nearest neighbor stencil

Total number of cores used: 64
Parallelization over k-points: 4
Domain decomposition: 4 x 2 x 2

Number of atoms: 108
Number of atomic orbitals: 961
Number of bands in calculation: 649
Number of valence electrons: 945
Bands to converge: occupied

... initialized

Initializing position-dependent things.

Density initialized from atomic densities
Creating initial wave functions:
  649 bands from LCAO basis set

        .---------------------------Fe
       /|                     Ni    |
      / |             Cr       Ni Ni|
    /   |Cr     Al        NiAl     Fe
   /i   FeCo        Cr     CoCo     |
  /  Fe |  Ni Fe     CoCr     Fe    |
 *      Co   CoCrNi     Al Fe     Ni|
 |      |CrFe   CrCo Al   FeCrCo   Co
 |    CoNiAl Ni     AlAl     CrNi   |
 |     Co  Ni        Ni       Cr    |
 |      |     FeFe     Ni Ni    Cr  |
 |      CoFe   AlFe   NiAl Co     Fe|
 |      |Al Al  Cr FeCo  Cr CoCo   Cr
 |      .-Cr-AlFe---FeNiCo-AlCoNi---.
 |     Cr  Al CrNi   FeFeNi     Cr /
 |    / FeFe   CrCo Cr  Ni Co     /
 |   /     Fe      FeCo          /
 |Cr/                           /
 | /  Ni     Co       CrNi     /
 |/    Cr       Al        Co  /
 *--------Al-----------------*

Positions:
   0 Fe    11.420989   11.420989   11.420989    ( 0.0000,  0.0000,  2.0000)
   1 Cr    11.421000    1.903504    1.903492    ( 0.0000,  0.0000,  0.0000)
   2 Ni     1.903504    0.000019    1.903527    ( 0.0000,  0.0000,  1.5000)
   3 Cr     1.903492    1.903515   11.421000    ( 0.0000,  0.0000,  0.0000)
   4 Al     3.806996    0.000052    0.000046    ( 0.0000,  0.0000,  0.0000)
   5 Fe     3.806996    1.903504    1.903515    ( 0.0000,  0.0000,  2.0000)
   6 Ni     5.710477   11.420989    1.903538    ( 0.0000,  0.0000,  1.5000)
   7 Al     5.710431    1.903584    0.000045    ( 0.0000,  0.0000,  0.0000)
   8 Al     7.614049   11.420909    0.000041    ( 0.0000,  0.0000,  0.0000)
   9 Co     7.614015    1.903515    1.903515    ( 0.0000,  0.0000,  2.1000)
  10 Ni     9.517519    0.000014    1.903492    ( 0.0000,  0.0000,  1.5000)
  11 Co     9.517530    1.903504    0.000004    ( 0.0000,  0.0000,  2.1000)
  12 Ni     0.000002    3.806985   11.420977    ( 0.0000,  0.0000,  1.5000)
  13 Cr    11.420989    5.710500    1.903515    ( 0.0000,  0.0000,  0.0000)
  14 Fe     1.903504    3.806985    1.903492    ( 0.0000,  0.0000,  2.0000)
  15 Cr     1.903504    5.710477   11.420977    ( 0.0000,  0.0000,  0.0000)
  16 Co     3.806996    3.807008   11.421000    ( 0.0000,  0.0000,  2.1000)
  17 Cr     3.807053    5.710477    1.903470    ( 0.0000,  0.0000,  0.0000)
  18 Co     5.710511    3.807019    1.903504    ( 0.0000,  0.0000,  2.1000)
  19 Fe     5.710511    5.710511    0.000014    ( 0.0000,  0.0000,  2.0000)
  20 Cr     7.614004    3.807019    0.000034    ( 0.0000,  0.0000,  0.0000)
  21 Fe     7.613981    5.710500    1.903504    ( 0.0000,  0.0000,  2.0000)
  22 Co     9.517496    3.806996    1.903515    ( 0.0000,  0.0000,  2.1000)
  23 Al     9.517485    5.710500   11.420989    ( 0.0000,  0.0000,  0.0000)
  24 Ni    11.420989    7.614015   11.420977    ( 0.0000,  0.0000,  1.5000)
  25 Cr    11.420977    9.517508    1.903504    ( 0.0000,  0.0000,  0.0000)
  26 Cr     1.903470    7.614004    1.903504    ( 0.0000,  0.0000,  0.0000)
  27 Al     1.903401    9.517485    0.000008    ( 0.0000,  0.0000,  0.0000)
  28 Cr     3.807042    7.613970    0.000004    ( 0.0000,  0.0000,  0.0000)
  29 Cr     3.807042    9.517519    1.903527    ( 0.0000,  0.0000,  0.0000)
  30 Fe     5.710523    7.613981    1.903492    ( 0.0000,  0.0000,  2.0000)
  31 Fe     5.710511    9.517485    0.000014    ( 0.0000,  0.0000,  2.0000)
  32 Ni     7.613970    7.614004    0.000026    ( 0.0000,  0.0000,  1.5000)
  33 Cr     7.613981    9.517485    1.903492    ( 0.0000,  0.0000,  0.0000)
  34 Co     9.517508    7.613992    1.903504    ( 0.0000,  0.0000,  2.1000)
  35 Ni     9.517519    9.517496   11.420977    ( 0.0000,  0.0000,  1.5000)
  36 Ni     0.000006   11.420989    3.807019    ( 0.0000,  0.0000,  1.5000)
  37 Co    11.420989    1.903492    5.710511    ( 0.0000,  0.0000,  2.1000)
  38 Co     1.903492   11.420989    5.710511    ( 0.0000,  0.0000,  2.1000)
  39 Cr     1.903492    1.903481    3.806973    ( 0.0000,  0.0000,  0.0000)
  40 Fe     3.807008    0.000001    3.806985    ( 0.0000,  0.0000,  2.0000)
  41 Al     3.807042    1.903447    5.710557    ( 0.0000,  0.0000,  0.0000)
  42 Fe     5.710500   11.421000    5.710500    ( 0.0000,  0.0000,  2.0000)
  43 Ni     5.710500    1.903492    3.806996    ( 0.0000,  0.0000,  1.5000)
  44 Cr     7.613981    0.000001    3.807030    ( 0.0000,  0.0000,  0.0000)
  45 Co     7.613981    1.903492    5.710500    ( 0.0000,  0.0000,  2.1000)
  46 Co     9.517508   11.421000    5.710511    ( 0.0000,  0.0000,  2.1000)
  47 Ni     9.517496    1.903504    3.807008    ( 0.0000,  0.0000,  1.5000)
  48 Ni    11.420989    3.806996    3.806996    ( 0.0000,  0.0000,  1.5000)
  49 Cr    11.420977    5.710489    5.710500    ( 0.0000,  0.0000,  0.0000)
  50 Co     1.903481    3.806996    5.710523    ( 0.0000,  0.0000,  2.1000)
[...]
  59 Co     9.517508    5.710489    3.806973    ( 0.0000,  0.0000,  2.1000)
[...]
  93 Cr     7.613981    5.710500    9.517519    ( 0.0000,  0.0000,  0.0000)
  94 Fe     9.517542    3.807008    9.517496    ( 0.0000,  0.0000,  2.0000)
  95 Cr     9.517530    5.710489    7.614015    ( 0.0000,  0.0000,  0.0000)
  96 Ni    11.420977    7.614027    7.614038    ( 0.0000,  0.0000,  1.5000)
  97 Fe    11.420989    9.517508    9.517485    ( 0.0000,  0.0000,  2.0000)
  98 Co     1.903470    7.613981    9.517485    ( 0.0000,  0.0000,  2.1000)
  99 Ni     1.903470    9.517530    7.614015    ( 0.0000,  0.0000,  1.5000)
 100 Cr     3.807008    7.613970    7.614027    ( 0.0000,  0.0000,  0.0000)
 101 Al     3.807030    9.517485    9.517428    ( 0.0000,  0.0000,  0.0000)
 102 Cr     5.710489    7.613981    9.517542    ( 0.0000,  0.0000,  0.0000)
 103 Co     5.710511    9.517542    7.613992    ( 0.0000,  0.0000,  2.1000)
 104 Al     7.614038    7.614061    7.614038    ( 0.0000,  0.0000,  0.0000)
 105 Ni     7.614015    9.517496    9.517485    ( 0.0000,  0.0000,  1.5000)
 106 Co     9.517530    7.614015    9.517496    ( 0.0000,  0.0000,  2.1000)
 107 Fe     9.517508    9.517519    7.614004    ( 0.0000,  0.0000,  2.0000)

Unit cell:
           periodic     x           y           z      points  spacing
  1. axis:    yes   11.421000    0.000000    0.000000    50     0.2284
  2. axis:    yes    0.000000   11.421000    0.000000    50     0.2284
  3. axis:    yes    0.000000    0.000000   11.421000    50     0.2284

  Lengths:  11.421000  11.421000  11.421000
  Angles:   90.000000  90.000000  90.000000

Effective grid spacing dv^(1/3) = 0.2284

     iter     time        total  log10-change:  magmom
                         energy  eigst   dens
iter:   1 16:46:09 -1010.600407                  +129.0867
iter:   2 16:47:02  -882.098961  -0.08  -1.16    +70.2690
iter:   3 16:47:56  -879.128137  -0.61  -1.12    +70.0955
iter:   4 16:48:49  -825.564067  -1.14  -1.20    +65.0280
iter:   5 16:49:43  -817.561078  -1.65  -1.31    +66.2729
iter:   6 16:50:36  -822.499800  -1.48  -1.34    +72.1110
iter:   7 16:51:31  -814.366163  -1.30  -1.34    +74.6618
iter:   8 16:52:24  -814.975133  -1.46  -1.46    +78.5201
iter:   9 16:53:18  -808.764332  -1.47  -1.49    +79.4008
iter:  10 16:54:11  -807.000105  -2.01  -1.66    +79.9967
iter:  11 16:55:04  -805.160884  -2.17  -1.70    +82.6213
iter:  12 16:55:58  -805.583415  -2.44  -1.79    +83.6466
iter:  13 16:56:52  -807.621215  -2.36  -1.84    +84.3179
iter:  14 16:57:45  -806.579395  -2.48  -1.81    +84.0023
iter:  15 16:58:39  -807.762296  -2.42  -1.94    +83.6349
iter:  16 16:59:32  -807.160217  -2.68  -1.91    +84.3391
iter:  17 17:00:26  -807.659876  -2.89  -2.03    +83.3834
iter:  18 17:01:19  -808.066806  -3.12  -2.08    +83.5913
iter:  19 17:02:12  -808.465060  -3.04  -2.09    +83.4905
iter:  20 17:03:06  -809.005251  -2.98  -2.14    +83.6849
iter:  21 17:03:59  -809.088170  -2.98  -2.14    +83.1298
iter:  22 17:04:52  -809.666889  -2.93  -2.24    +83.0961
iter:  23 17:05:46  -809.483670  -3.08  -2.21    +83.0419
iter:  24 17:06:40  -809.705192  -3.13  -2.34    +82.7359
iter:  25 17:07:34  -809.972815  -3.15  -2.40    +82.7779
iter:  26 17:08:28  -810.096399  -3.45  -2.42    +82.9709
iter:  27 17:09:22  -810.269905  -3.41  -2.43    +82.7622
iter:  28 17:10:17  -810.551302  -3.25  -2.42    +82.5562
iter:  29 17:11:12  -810.576985  -4.12  -2.35    +82.6943
iter:  30 17:12:06  -810.603821c -3.96  -2.34    +82.4995
iter:  31 17:13:01  -810.622121c -3.83  -2.34    +82.3135
iter:  32 17:13:54  -810.547152c -3.62  -2.35    +82.3181
iter:  33 17:14:48  -810.624111c -3.04  -2.42    +82.1099
iter:  34 17:15:42  -810.444324  -3.54  -2.51    +81.8567
iter:  35 17:16:35  -810.525552  -3.56  -2.71    +81.3661
iter:  36 17:17:28  -810.461408c -3.98  -2.67    +81.5237
iter:  37 17:18:22  -810.481404c -4.33  -2.85    +81.3142
iter:  38 17:19:15  -810.496362c -4.47  -2.89    +81.2246
iter:  39 17:20:08  -810.511093c -4.56  -2.92    +81.1192
iter:  40 17:21:02  -810.522182c -4.56  -2.97    +81.0629
iter:  41 17:21:55  -810.547086c -4.32  -3.03    +80.9834
iter:  42 17:22:50  -810.539046c -4.64  -2.97    +81.0031
iter:  43 17:23:43  -810.553795c -4.53  -3.15    +80.9167
iter:  44 17:24:38  -810.557082c -4.90  -3.17    +80.9072
iter:  45 17:25:33  -810.571886c -4.93  -3.23    +80.8707
iter:  46 17:26:27  -810.573951c -5.44  -3.27    +80.8537
iter:  47 17:27:20  -810.592452c -4.87  -3.31    +80.7930
iter:  48 17:28:12  -810.583772c -5.41  -3.28    +80.8282
iter:  49 17:29:06  -810.601177c -4.89  -3.37    +80.8566
iter:  50 17:29:59  -810.603468c -5.12  -3.38    +80.8136
iter:  51 17:30:56  -810.619703c -5.01  -3.45    +80.7345
iter:  52 17:31:52  -810.622775c -5.61  -3.49    +80.7175
iter:  53 17:32:48  -810.636301c -5.09  -3.50    +80.7112
iter:  54 17:33:41  -810.645508c -5.28  -3.39    +80.6353
iter:  55 17:34:36  -810.633448c -4.79  -3.38    +80.7621
iter:  56 17:35:30  -810.634802c -4.64  -3.29    +80.8661
iter:  57 17:36:25  -810.651949c -4.69  -3.23    +80.8194
iter:  58 17:37:18  -810.643059c -4.80  -3.16    +80.7999
iter:  59 17:38:14  -810.677160c -4.39  -3.23    +80.6849
iter:  60 17:39:08  -810.706104c -4.55  -3.08    +80.4850
iter:  61 17:40:01  -810.664028c -4.53  -3.00    +80.8038
iter:  62 17:40:54  -810.716810c -4.19  -3.06    +80.3540
iter:  63 17:41:47  -810.696137c -4.93  -2.98    +80.4510
iter:  64 17:42:41  -810.732116c -4.16  -3.05    +80.2633
iter:  65 17:43:35  -810.715162c -4.51  -2.93    +80.2707
iter:  66 17:44:29  -810.732183c -4.39  -3.09    +80.2845
iter:  67 17:45:18  -810.738490c -4.66  -3.13    +80.2330
iter:  68 17:46:03  -810.760277c -4.44  -3.14    +80.0773
iter:  69 17:46:47  -810.766549c -5.07  -3.13    +80.0306
iter:  70 17:47:31  -810.813614c -4.55  -3.23    +79.8330
iter:  71 17:48:15  -810.736183c -4.06  -3.03    +80.2471
iter:  72 17:49:00  -810.756998c -4.74  -3.14    +80.1218
iter:  73 17:49:44  -810.779862c -4.84  -3.24    +79.9952
iter:  74 17:50:28  -810.783074c -5.06  -3.16    +79.9512
iter:  75 17:51:12  -810.822579c -4.57  -3.14    +79.8182
iter:  76 17:51:57  -810.823422c -4.75  -3.07    +79.7508
iter:  77 17:52:41  -810.870330c -4.53  -3.10    +79.5969
iter:  78 17:53:24  -810.796030c -4.12  -3.00    +79.8395
iter:  79 17:54:08  -810.828512c -4.51  -3.06    +79.8077
iter:  80 17:54:53  -810.830441c -4.49  -3.04    +79.7799
iter:  81 17:55:37  -810.861041c -4.38  -3.01    +79.6425
iter:  82 17:56:21  -810.878558c -4.73  -3.07    +79.5199
iter:  83 17:57:05  -810.913225c -4.42  -3.06    +79.3508
iter:  84 17:57:49  -810.999920  -4.21  -2.97    +79.0555
iter:  85 17:58:34  -810.967433c -4.85  -2.84    +79.1974
iter:  86 17:59:19  -811.008374c -4.20  -2.91    +78.8973
iter:  87 18:00:03  -811.015313c -4.05  -2.76    +78.7010
iter:  88 18:00:48  -810.997927c -3.95  -2.71    +78.4923
iter:  89 18:01:33  -810.958367c -3.96  -2.70    +78.3894
iter:  90 18:02:17  -810.988100c -3.74  -2.79    +78.4253
iter:  91 18:03:01  -811.082591  -3.50  -2.74    +78.4333
iter:  92 18:03:45  -810.938770  -3.87  -2.65    +78.4745
iter:  93 18:04:30  -810.947030  -4.32  -3.06    +78.4389
iter:  94 18:05:15  -810.941305c -4.56  -3.06    +78.5062
iter:  95 18:06:00  -810.943720c -4.88  -3.14    +78.5949
iter:  96 18:06:45  -810.943946c -4.76  -3.26    +78.6173
iter:  97 18:07:28  -810.944459c -4.65  -3.19    +78.6220
iter:  98 18:08:12  -810.946500c -4.71  -3.17    +78.6025
iter:  99 18:08:55  -810.951495c -4.54  -3.18    +78.6475
iter: 100 18:09:39  -810.950367c -4.57  -3.10    +78.6379
iter: 101 18:10:24  -810.938756c -4.77  -3.16    +78.5923
iter: 102 18:11:08  -810.956992c -4.52  -3.38    +78.6165
iter: 103 18:11:52  -810.939151c -5.08  -3.11    +78.6289
iter: 104 18:12:36  -810.938478c -5.38  -3.54    +78.6629
iter: 105 18:13:21  -810.939922c -5.46  -3.51    +78.6608
iter: 106 18:14:05  -810.939114c -5.59  -3.52    +78.6797
iter: 107 18:14:50  -810.939553c -5.81  -3.58    +78.6953
iter: 108 18:15:35  -810.938142c -5.41  -3.61    +78.7013
iter: 109 18:16:19  -810.938422c -5.71  -3.57    +78.6971
iter: 110 18:17:03  -810.939357c -5.74  -3.65    +78.6927
iter: 111 18:17:47  -810.938836c -5.63  -3.65    +78.7100
iter: 112 18:18:32  -810.938519c -5.64  -3.63    +78.6972
iter: 113 18:19:16  -810.937567c -5.80  -3.66    +78.6907
iter: 114 18:19:59  -810.938652c -6.08  -3.78    +78.6956
iter: 115 18:20:44  -810.937979c -6.16  -3.79    +78.7002
iter: 116 18:21:28  -810.937444c -6.44  -3.87    +78.7029
iter: 117 18:22:13  -810.937721c -6.36  -3.93    +78.6918
iter: 118 18:22:57  -810.937925c -6.17  -3.90    +78.6961
iter: 119 18:23:40  -810.938298c -6.09  -3.88    +78.6938
iter: 120 18:24:23  -810.937398c -6.10  -3.85    +78.6866
iter: 121 18:25:08  -810.937889c -6.06  -3.94    +78.6807
iter: 122 18:25:52  -810.938210c -6.31  -3.92    +78.6788
iter: 123 18:26:35  -810.937871c -6.64  -4.00c   +78.6938
iter: 124 18:27:19  -810.937700c -6.68  -4.19c   +78.6886
iter: 125 18:28:02  -810.937605c -6.78  -4.14c   +78.6909
iter: 126 18:28:46  -810.937714c -7.25  -4.17c   +78.6917
iter: 127 18:29:30  -810.937640c -6.54  -4.35c   +78.6940
iter: 128 18:30:14  -810.937474c -6.85  -4.08c   +78.6927
iter: 129 18:30:58  -810.937567c -6.99  -4.39c   +78.6843
iter: 130 18:31:42  -810.937863c -7.02  -4.44c   +78.6868
iter: 131 18:32:26  -810.937678c -7.24  -4.38c   +78.6865
iter: 132 18:33:10  -810.937533c -7.47c -4.55c   +78.6873

Converged after 132 iterations.

Dipole moment: (-0.418418, -0.085421, 0.221999) |e|*Ang

Total magnetic moment: (0.000000, 0.000000, 78.687253)
Local magnetic moments:
   0 Fe ( 0.000000,  0.000000,  2.716328)
   1 Cr ( 0.000000,  0.000000,  2.673228)
   2 Ni ( 0.000000,  0.000000,  0.071651)
   3 Cr ( 0.000000,  0.000000, -2.787202)
   4 Al ( 0.000000,  0.000000, -0.008298)
   5 Fe ( 0.000000,  0.000000,  2.605177)
   6 Ni ( 0.000000,  0.000000,  0.278725)
   7 Al ( 0.000000,  0.000000, -0.012969)
   8 Al ( 0.000000,  0.000000, -0.021230)
   9 Co ( 0.000000,  0.000000,  1.656277)
  10 Ni ( 0.000000,  0.000000,  0.242924)
  11 Co ( 0.000000,  0.000000,  1.507203)
  12 Ni ( 0.000000,  0.000000,  0.391405)
  13 Cr ( 0.000000,  0.000000,  2.289332)
  14 Fe ( 0.000000,  0.000000,  2.356875)
  15 Cr ( 0.000000,  0.000000, -2.645687)
  16 Co ( 0.000000,  0.000000,  1.427665)
  17 Cr ( 0.000000,  0.000000, -2.330662)
  18 Co ( 0.000000,  0.000000,  1.458097)
  19 Fe ( 0.000000,  0.000000,  2.596409)
  20 Cr ( 0.000000,  0.000000, -2.783619)
  21 Fe ( 0.000000,  0.000000,  2.761082)
  22 Co ( 0.000000,  0.000000,  1.537257)
  23 Al ( 0.000000,  0.000000, -0.038646)
  24 Ni ( 0.000000,  0.000000,  0.311598)
  25 Cr ( 0.000000,  0.000000, -2.756666)
  26 Cr ( 0.000000,  0.000000,  2.131835)
  27 Al ( 0.000000,  0.000000, -0.011381)
  28 Cr ( 0.000000,  0.000000, -2.359113)
  29 Cr ( 0.000000,  0.000000, -2.726399)
  30 Fe ( 0.000000,  0.000000,  2.397540)
  31 Fe ( 0.000000,  0.000000,  2.301538)
  32 Ni ( 0.000000,  0.000000,  0.490253)
  33 Cr ( 0.000000,  0.000000,  2.596095)
  34 Co ( 0.000000,  0.000000,  1.330275)
  35 Ni ( 0.000000,  0.000000,  0.516323)
  36 Ni ( 0.000000,  0.000000,  0.250534)
  37 Co ( 0.000000,  0.000000,  1.854087)
  38 Co ( 0.000000,  0.000000,  1.575148)
  39 Cr ( 0.000000,  0.000000, -2.750177)
  40 Fe ( 0.000000,  0.000000,  2.709393)
  41 Al ( 0.000000,  0.000000, -0.037423)
  42 Fe ( 0.000000,  0.000000,  2.714242)
  43 Ni ( 0.000000,  0.000000,  0.457461)
  44 Cr ( 0.000000,  0.000000, -2.760339)
  45 Co ( 0.000000,  0.000000,  1.781870)
  46 Co ( 0.000000,  0.000000,  1.688065)
  47 Ni ( 0.000000,  0.000000,  0.584527)
  48 Ni ( 0.000000,  0.000000,  0.438121)
  49 Cr ( 0.000000,  0.000000,  2.573150)
  50 Co ( 0.000000,  0.000000,  1.317284)
  51 Al ( 0.000000,  0.000000, -0.040809)
  52 Al ( 0.000000,  0.000000, -0.029749)
  53 Fe ( 0.000000,  0.000000,  2.381020)
  54 Fe ( 0.000000,  0.000000,  2.726605)
  55 Fe ( 0.000000,  0.000000,  2.505086)
  56 Ni ( 0.000000,  0.000000,  0.688374)
  57 Ni ( 0.000000,  0.000000,  0.172660)
  58 Co ( 0.000000,  0.000000,  1.666932)
  59 Co ( 0.000000,  0.000000,  1.597429)
[...]
  93 Cr ( 0.000000,  0.000000,  2.444625)
  94 Fe ( 0.000000,  0.000000,  2.546700)
  95 Cr ( 0.000000,  0.000000, -2.554066)
  96 Ni ( 0.000000,  0.000000,  0.402019)
  97 Fe ( 0.000000,  0.000000,  2.861112)
  98 Co ( 0.000000,  0.000000,  1.162228)
  99 Ni ( 0.000000,  0.000000,  0.478951)
 100 Cr ( 0.000000,  0.000000,  2.305754)
 101 Al ( 0.000000,  0.000000, -0.025530)
 102 Cr ( 0.000000,  0.000000,  2.062302)
 103 Co ( 0.000000,  0.000000,  1.233282)
 104 Al ( 0.000000,  0.000000, -0.031067)
 105 Ni ( 0.000000,  0.000000,  0.430617)
 106 Co ( 0.000000,  0.000000,  1.525251)
 107 Fe ( 0.000000,  0.000000,  2.784100)

Energy contributions relative to reference atoms: (reference = -3382523.201499)

Kinetic:       -152.827931
Potential:      +68.058931
External:        +0.000000
XC:            -755.206038
Entropy (-ST):   -4.312187
Local:          +31.193597
Free energy:   -813.093627
Extrapolated:  -810.937533

Spin contamination: 48.204281 electrons
Showing only first 2 kpts
                      Up                     Down
 Kpt  Band  Eigenvalues  Occupancy  Eigenvalues  Occupancy
  0   470      7.02131    0.99957      8.18897    0.01932
  0   471      7.03104    0.99953      8.20401    0.01666
  0   472      7.04133    0.99947      8.20747    0.01611
  0   473      7.05782    0.99938      8.21494    0.01496

  1   470      7.02747    0.99954      8.18890    0.01933
  1   471      7.03362    0.99951      8.19992    0.01735
  1   472      7.04530    0.99945      8.21033    0.01566
  1   473      7.06451    0.99934      8.22292    0.01383

Fermi level: 7.79624

No gap

Forces in eV/Ang:
  0 Fe   -0.36478    0.11122   -0.48123
  1 Cr   -0.27466   -0.04990    0.20789
  2 Ni    0.05698   -0.09176   -0.03538
  3 Cr   -0.40601    0.52443    0.04298
  4 Al   -0.15085    0.22454    0.50504
  5 Fe   -0.09890    0.37818    0.02330
  6 Ni   -0.06092    0.21682   -0.06566
  7 Al   -0.47947    0.86370    0.65498
  8 Al    0.96550   -0.59358    0.41918
  9 Co    0.31089    0.42678    0.21207
 10 Ni    0.09391    0.14042    0.01874
 11 Co    0.09933    0.16467    0.12984
 12 Ni    0.05745   -0.15977   -0.14275
 13 Cr   -0.27340   -0.18791   -0.00175
 14 Fe    0.35876   -0.04353   -0.25315
 15 Cr   -0.68640   -0.47826   -0.46823
 16 Co   -0.10929    0.21846   -0.02568
 17 Cr    0.37641   -0.17852   -0.29735
 18 Co    0.17137   -0.04811    0.13032
 19 Fe   -0.39640   -0.25100    0.54048
 20 Cr    0.17111    0.40586    0.33100
 21 Fe    0.12614   -0.15160    0.13781
 22 Co   -0.30487   -0.17049    0.17479
 23 Al    0.31715    0.47984    0.05129
 24 Ni   -0.15006    0.13311   -0.06087
 25 Cr   -0.06142   -0.06608   -0.07668
 26 Cr    0.34547    0.12887   -0.42002
 27 Al   -0.89565   -0.14551   -0.13499
 28 Cr    0.59241   -0.31915   -0.52334
 29 Cr    0.40293    0.39920    0.75361
 30 Fe   -0.19958   -0.19480   -0.30470
 31 Fe   -0.04266   -0.22855    0.12573
 32 Ni    0.00461    0.11721   -0.17039
 33 Cr    0.49470    0.10912    0.22424
 34 Co    0.19231    0.01236    0.02007
 35 Ni    0.05771   -0.17793   -0.05471
 36 Ni   -0.10111   -0.05634    0.19345
 37 Co   -0.03304    0.12137    0.07184
 38 Co   -0.18505   -0.11335    0.13212
 39 Cr   -0.81145   -0.21143   -0.37988
 40 Fe    0.02706   -0.27600   -0.19963
 41 Al   -0.03880   -0.15071    0.63504
 42 Fe    0.25509   -0.06505    0.06362
 43 Ni    0.04845    0.07472   -0.06395
 44 Cr   -0.39758    0.44246    0.09945
 45 Co   -0.00779    0.01747    0.01313
 46 Co    0.06520   -0.02543   -0.01004
 47 Ni   -0.07725    0.03978    0.06977
 48 Ni   -0.04588   -0.06926    0.08485
 49 Cr   -0.35398   -0.55250    0.34074
 50 Co   -0.01127   -0.26167    0.08868
 51 Al   -0.92359   -0.72133    0.00889
 52 Al    0.63486   -0.04713   -0.08141
 53 Fe    0.11054   -0.38512   -0.02202
 54 Fe    0.35733    0.11932   -0.01285
 55 Fe    0.13828   -0.42976   -0.29066
 56 Ni    0.09291   -0.12692   -0.05659
 57 Ni    0.10219    0.07006   -0.15274
 58 Co    0.05578   -0.23965   -0.28312
 59 Co   -0.19453   -0.32013   -0.03463
[...]
 93 Cr   -0.05347   -0.03750    0.06248
 94 Fe    0.82356   -0.57925   -0.00468
 95 Cr    0.71298   -0.35323    0.42133
 96 Ni   -0.09675    0.17688    0.27187
 97 Fe   -0.10124   -0.20752   -0.20490
 98 Co   -0.15520   -0.13729    0.07659
 99 Ni   -0.13585    0.08873    0.03287
100 Cr   -0.10546    0.19662    0.02496
101 Al   -0.23149   -0.22794   -0.96842
102 Cr    0.08661    0.05453    0.10388
103 Co    0.28087    0.29171    0.12816
104 Al   -0.05128    0.23983    0.46356
105 Ni    0.01340   -0.10697    0.04762
106 Co    0.17845    0.36998    0.04892
107 Fe    0.07342    0.16736   -0.00503

Date: Sat Apr  8 18:33:23 2023