User:   c.zeng@d0103
Date:   Fri Apr 14 01:19:45 2023
Arch:   x86_64
Pid:    16230
CWD:    /home/c.zeng/projects/hea-corrosion/hea-mlp/data-curation/bulk-md/dft-jobs/79
Python: 3.8.1
gpaw:   /home/c.zeng/usr/installs/gpaw/source/gpaw-22.8.0/gpaw
_gpaw:  /home/c.zeng/usr/installs/gpaw/source/gpaw-22.8.0/
        _gpaw.cpython-38-x86_64-linux-gnu.so
ase:    /home/c.zeng/.local/lib/python3.8/site-packages/ase-3.22.1-py3.8.egg/ase (version 3.22.1)
numpy:  /shared/centos7/python/3.8.1/lib/python3.8/site-packages/numpy (version 1.17.4)
scipy:  /shared/centos7/python/3.8.1/lib/python3.8/site-packages/scipy (version 1.4.1)
units:  Angstrom and eV
cores: 30
OpenMP: False
OMP_NUM_THREADS: 1

Input parameters:
  convergence: {energy: 0.0001}
  kpts: [2 2 2]
  maxiter: 666
  mode: {ecut: 350.0,
         name: pw}
  occupations: {fixmagmom: False,
                name: fermi-dirac,
                width: 0.1}
  spinpol: True
  xc: PBE

System changes: positions, numbers, cell, pbc, initial_charges, initial_magmoms

Initialize ...

species:
  Fe:
    name: Iron
    id: 37abbd8d6c3c35915a9b583b742da910
    Z: 26.0
    valence: 8
    core: 18
    charge: 0.0
    file: /home/c.zeng/usr/data/gpaw-setups-0.9.20000/Fe.PBE.gz
    compensation charges: {type: gauss,
                           rc: 0.33,
                           lmax: 2}
    cutoffs: {filter: 2.06,
              core: 2.67}
    valence states:
      #              energy  rcut
      - 4s(2.00)    -5.291   1.164
      - 4p(0.00)    -1.326   1.058
      - 3d(6.00)    -7.505   1.058
      -  s          21.920   1.164
      -  p          25.885   1.058
      -  d          19.706   1.058

    # Using partial waves for Fe as LCAO basis

  Cr:
    name: Chromium
    id: 33f258bda2ca9f93018e70263a35547b
    Z: 24.0
    valence: 6
    core: 18
    charge: 0.0
    file: /home/c.zeng/usr/data/gpaw-setups-0.9.20000/Cr.PBE.gz
    compensation charges: {type: gauss,
                           rc: 0.35,
                           lmax: 2}
    cutoffs: {filter: 2.14,
              core: 3.04}
    valence states:
      #              energy  rcut
      - 4s(1.00)    -4.007   1.164
      - 4p(0.00)    -0.989   1.217
      - 3d(5.00)    -2.913   1.111
      -  s          23.205   1.164
      -  p          26.223   1.217
      -  d          24.299   1.111

[...]

  Ni:
    name: Nickel
    id: 0d9f38a9d6e76a2886f07bb4381f212b
    Z: 28.0
    valence: 16
    core: 12
    charge: 0.0
    file: /home/c.zeng/usr/data/gpaw-setups-0.9.20000/Ni.PBE.gz
    compensation charges: {type: gauss,
                           rc: 0.36,
                           lmax: 2}
    cutoffs: {filter: 2.14,
              core: 1.98}
    valence states:
      #              energy  rcut
      - 4s(2.00)    -5.642   1.164
      - 3p(6.00)   -71.394   1.207
      - 4p(0.00)    -1.226   1.207
      - 3d(8.00)    -8.875   1.138
      -  s          21.570   1.164
      -  d          18.337   1.138

[...]

  Al:
    name: Aluminium
    id: 0292cae29f5d6237e50f6abdd43a7bdd
    Z: 13.0
    valence: 3
    core: 10
    charge: 0.0
    file: /home/c.zeng/usr/data/gpaw-setups-0.9.20000/Al.PBE.gz
    compensation charges: {type: gauss,
                           rc: 0.34,
                           lmax: 2}
    cutoffs: {filter: 1.91,
              core: 2.36}
    valence states:
      #              energy  rcut
      - 3s(2.00)    -7.753   1.085
      - 3p(1.00)    -2.712   1.085
      -  s          19.459   1.085
      -  p          24.499   1.085
      -  d           0.000   1.085

[...]

  Co:
    name: Cobalt
    id: 339d20d5b0b93d2de9531a1bee871d91
    Z: 27.0
    valence: 9
    core: 18
    charge: 0.0
    file: /home/c.zeng/usr/data/gpaw-setups-0.9.20000/Co.PBE.gz
    compensation charges: {type: gauss,
                           rc: 0.32,
                           lmax: 2}
    cutoffs: {filter: 1.87,
              core: 2.55}
    valence states:
      #              energy  rcut
      - 4s(2.00)    -5.469   1.005
      - 4p(0.00)    -1.277   1.058
      - 3d(7.00)    -8.205   1.005
      -  s          21.742   1.005
      -  p          25.934   1.058
      -  d          19.007   1.005

    # Using partial waves for Co as LCAO basis

Reference energy: -3382523.201499  # eV

Spin-polarized calculation.
Magnetic moment: 128.800000

Convergence criteria:
 Maximum [total energy] change in last 3 cyles: 0.0001 eV / electron
 Maximum integral of absolute [dens]ity change: 0.0001 electrons / valence electron
 Maximum integral of absolute [eigenst]ate change: 4e-08 eV^2 / valence electron
 Maximum number of scf [iter]ations: 666
 (Square brackets indicate name in SCF output, whereas a 'c' in
 the SCF output indicates the quantity has converged.)

Symmetries present (total): 1

  ( 1  0  0)
  ( 0  1  0)
  ( 0  0  1)

8 k-points: 2 x 2 x 2 Monkhorst-Pack grid
4 k-points in the irreducible part of the Brillouin zone
       k-points in crystal coordinates                weights
   0:     0.25000000   -0.25000000   -0.25000000          2/8
   1:     0.25000000   -0.25000000    0.25000000          2/8
   2:     0.25000000    0.25000000   -0.25000000          2/8
   3:     0.25000000    0.25000000    0.25000000          2/8

Wave functions: Plane wave expansion
  Cutoff energy: 350.000 eV
  Number of coefficients (min, max): 18865, 18865
  Pulay-stress correction: 0.000000 eV/Ang^3 (de/decut=0.000000)
  Using FFTW library
  ScaLapack parameters: grid=1x1, blocksize=None
  Wavefunction extrapolation:
    Improved wavefunction reuse through dual PAW basis

Occupation numbers: Fermi-Dirac:
  width: 0.1000  # eV

Eigensolver
   Davidson(niter=2)

Densities:
  Coarse grid: 48*48*48 grid
  Fine grid: 96*96*96 grid
  Total Charge: 0.000000

Density mixing:
  Method: difference
  Backend: pulay
  Linear mixing parameter: 0.05
  old densities: 5
  Damping of long wavelength oscillations: 50

Hamiltonian:
  XC and Coulomb potentials evaluated on a 96*96*96 grid
  Using the PBE Exchange-Correlation functional
  External potential:
    NoExternalPotential

XC parameters: PBE with 2 nearest neighbor stencil

Total number of cores used: 30
Parallelization over k-points: 2
Domain decomposition: 5 x 3 x 1

Number of atoms: 108
Number of atomic orbitals: 961
Number of bands in calculation: 649
Number of valence electrons: 945
Bands to converge: occupied

... initialized

Initializing position-dependent things.

Density initialized from atomic densities
Creating initial wave functions:
  649 bands from LCAO basis set

       /|  Al       Fe             |
      Ni|            Cr            |
     / Fe      Crl       Ni        |
    /   | Cr      Fe       AlCo    |
   /    | CoCo     Cr     Co  Fe   |
  /  Fe |    CFer    CCr Co        |
 *     Co       Nir      FeCr   NiCo
 |      |CrFe     CoAl       Co    |
 |   Co |   Ni   FeAlAl NiCr CNir  |
 |    Co|  NiFeFe   Ni NNi    Cr   |
 Fe    Co Fe   Al    Ni  ACo     Fe|
 |      Al Al  CrFeFCo   Cr  Co   Cr
 | Ni   .--Cr------Fe-NCoAl-Coo----.
 |     /    AlFei        Ni   Ni  /
 |   CrCr              Fei  Ni   /
 |   /  Fe       Co Co    Co    /
 | Cr      Fe                  /
 | /iNi              CrNi     /
 |/    Cr       Al          Fe
 *--------Al----------------*

Positions:
   0 Fe    10.818513   11.062984   11.153678    ( 0.0000,  0.0000,  2.0000)
   1 Cr    11.168743    1.832837    1.793268    ( 0.0000,  0.0000,  0.0000)
   2 Ni     1.770151    0.004873    1.845235    ( 0.0000,  0.0000,  1.5000)
   3 Cr     1.889358    1.731480   10.912744    ( 0.0000,  0.0000,  0.0000)
   4 Al     3.660178    0.106169    0.205958    ( 0.0000,  0.0000,  0.0000)
   5 Fe     3.506677    1.688416    1.808498    ( 0.0000,  0.0000,  2.0000)
   6 Ni     5.395941   10.762426    1.925727    ( 0.0000,  0.0000,  1.5000)
   7 Al     5.459926    1.922501    0.112896    ( 0.0000,  0.0000,  0.0000)
   8 Al     7.055032   10.549985    0.018534    ( 0.0000,  0.0000,  0.0000)
   9 Co     7.206715    1.608862    2.208981    ( 0.0000,  0.0000,  2.1000)
  10 Ni     8.891214    0.030194    1.862888    ( 0.0000,  0.0000,  1.5000)
  11 Co     9.045509    1.621821   -0.033797    ( 0.0000,  0.0000,  2.1000)
  12 Ni     0.009416    3.324499   10.829222    ( 0.0000,  0.0000,  1.5000)
  13 Cr    11.261689    5.092286    1.533127    ( 0.0000,  0.0000,  0.0000)
  14 Fe     1.968565    3.437413    1.460378    ( 0.0000,  0.0000,  2.0000)
  15 Cr     2.044327    5.421222   10.779919    ( 0.0000,  0.0000,  0.0000)
  16 Co     3.535969    3.714058   10.652088    ( 0.0000,  0.0000,  2.1000)
  17 Cr     3.721561    5.587917    1.675809    ( 0.0000,  0.0000,  0.0000)
  18 Co     5.505663    3.737462    1.618842    ( 0.0000,  0.0000,  2.1000)
  19 Fe     5.417085    5.376630   -0.047707    ( 0.0000,  0.0000,  2.0000)
  20 Cr     7.171831    3.265999    0.140280    ( 0.0000,  0.0000,  0.0000)
  21 Fe     7.343243    5.548166    1.431914    ( 0.0000,  0.0000,  2.0000)
  22 Co     9.095835    3.462960    1.801089    ( 0.0000,  0.0000,  2.1000)
  23 Al     9.104417    5.255013   10.639242    ( 0.0000,  0.0000,  0.0000)
  24 Ni    10.964489    7.272174   10.736497    ( 0.0000,  0.0000,  1.5000)
  25 Cr    10.649023    9.166622    1.903429    ( 0.0000,  0.0000,  0.0000)
  26 Cr     1.962451    7.230933    1.648649    ( 0.0000,  0.0000,  0.0000)
  27 Al     1.688058    9.145208   -0.139581    ( 0.0000,  0.0000,  0.0000)
  28 Cr     3.592188    7.209053   -0.195150    ( 0.0000,  0.0000,  0.0000)
  29 Cr     3.478454    8.922174    1.701977    ( 0.0000,  0.0000,  0.0000)
  30 Fe     5.457947    7.258972    1.539231    ( 0.0000,  0.0000,  2.0000)
  31 Fe     5.202704    8.987506   -0.040810    ( 0.0000,  0.0000,  2.0000)
  32 Ni     7.347673    7.254950    0.062394    ( 0.0000,  0.0000,  1.5000)
  33 Cr     7.188946    9.066925    1.878092    ( 0.0000,  0.0000,  0.0000)
  34 Co     9.313831    7.082340    1.749068    ( 0.0000,  0.0000,  2.1000)
  35 Ni     9.154525    9.126154   10.992821    ( 0.0000,  0.0000,  1.5000)
  36 Ni    -0.215147   11.103771    3.608385    ( 0.0000,  0.0000,  1.5000)
  37 Co    10.814012    1.631761    5.492044    ( 0.0000,  0.0000,  2.1000)
  38 Co     1.860260   10.748613    5.532628    ( 0.0000,  0.0000,  2.1000)
  39 Cr     1.945704    1.496468    3.526384    ( 0.0000,  0.0000,  0.0000)
  40 Fe     3.552745   10.488433    3.443843    ( 0.0000,  0.0000,  2.0000)
  41 Al     3.321341    1.876715    5.568971    ( 0.0000,  0.0000,  0.0000)
  42 Fe     5.102098   10.829970    5.355648    ( 0.0000,  0.0000,  2.0000)
  43 Ni     5.349751    1.620728    3.823915    ( 0.0000,  0.0000,  1.5000)
  44 Cr     7.236897   -0.257331    3.738988    ( 0.0000,  0.0000,  0.0000)
  45 Co     6.981596    1.694276    5.460935    ( 0.0000,  0.0000,  2.1000)
  46 Co     8.976438   10.864506    5.434018    ( 0.0000,  0.0000,  2.1000)
  47 Ni     9.077276    1.846113    3.713595    ( 0.0000,  0.0000,  1.5000)
  48 Ni    10.853319    3.439391    3.585264    ( 0.0000,  0.0000,  1.5000)
  49 Cr    10.399594    5.702757    5.677927    ( 0.0000,  0.0000,  0.0000)
  50 Co     1.426140    3.732672    5.632249    ( 0.0000,  0.0000,  2.1000)
  51 Al     1.435567    5.561469    3.717898    ( 0.0000,  0.0000,  0.0000)
  52 Al     3.618064    3.761546    3.378077    ( 0.0000,  0.0000,  0.0000)
  53 Fe     3.620549    5.354223    5.376985    ( 0.0000,  0.0000,  2.0000)
  54 Fe     5.407807    3.720441    5.047721    ( 0.0000,  0.0000,  2.0000)
  55 Fe     5.726642    5.676617    3.467296    ( 0.0000,  0.0000,  2.0000)
  56 Ni     7.464655    3.787717    3.434455    ( 0.0000,  0.0000,  1.5000)
  57 Ni     7.465516    5.237333    5.152801    ( 0.0000,  0.0000,  1.5000)
  58 Co     9.199581    3.429537    5.533222    ( 0.0000,  0.0000,  2.1000)
  59 Co     9.386602    5.297282    3.335871    ( 0.0000,  0.0000,  2.1000)
[...]
  93 Cr     7.024892    5.263381    9.196254    ( 0.0000,  0.0000,  0.0000)
  94 Fe     8.869210    3.529777    9.026614    ( 0.0000,  0.0000,  2.0000)
  95 Cr     8.869296    5.412044    7.649709    ( 0.0000,  0.0000,  0.0000)
  96 Ni    10.513002    7.160875    7.252389    ( 0.0000,  0.0000,  1.5000)
  97 Fe    10.844098    9.198781    9.077171    ( 0.0000,  0.0000,  2.0000)
  98 Co     1.562651    7.268329    8.981673    ( 0.0000,  0.0000,  2.1000)
  99 Ni     1.543402    9.032038    7.336777    ( 0.0000,  0.0000,  1.5000)
 100 Cr     3.723438    7.302786    7.469256    ( 0.0000,  0.0000,  0.0000)
 101 Al     3.548082    8.984904    8.958168    ( 0.0000,  0.0000,  0.0000)
 102 Cr     5.441808    7.172087    9.007021    ( 0.0000,  0.0000,  0.0000)
 103 Co     5.744953    8.734405    7.235274    ( 0.0000,  0.0000,  2.1000)
 104 Al     7.575831    7.171360    7.034605    ( 0.0000,  0.0000,  0.0000)
 105 Ni     7.279131    8.903533    9.000461    ( 0.0000,  0.0000,  1.5000)
 106 Co     9.215474    7.353516    9.088489    ( 0.0000,  0.0000,  2.1000)
 107 Fe     9.095879    9.196013    7.365245    ( 0.0000,  0.0000,  2.0000)

Unit cell:
           periodic     x           y           z      points  spacing
  1. axis:    yes   10.820500    0.000000    0.000000    48     0.2254
  2. axis:    yes    0.000000   10.820500    0.000000    48     0.2254
  3. axis:    yes    0.000000    0.000000   10.820500    48     0.2254

  Lengths:  10.820500  10.820500  10.820500
  Angles:   90.000000  90.000000  90.000000

Effective grid spacing dv^(1/3) = 0.2254

     iter     time        total  log10-change:  magmom
                         energy  eigst   dens
iter:   1 01:24:29  -962.254004                  +129.0868
iter:   2 01:26:34  -864.167229  -0.22  -1.19    +72.3856
iter:   3 01:28:39  -854.123075  -0.86  -1.20    +62.3123
iter:   4 01:30:50  -837.301187  -1.23  -1.27    +58.2261
iter:   5 01:33:02  -827.938707  -1.61  -1.28    +54.8582
iter:   6 01:35:12  -826.281224  -1.40  -1.33    +55.3726
iter:   7 01:37:43  -817.382293  -1.23  -1.38    +54.0428
iter:   8 01:40:45  -812.649650  -1.53  -1.53    +53.9919
iter:   9 01:42:56  -809.488711  -1.83  -1.64    +54.7358
iter:  10 01:45:08  -807.163561  -2.33  -1.72    +55.3865
iter:  11 01:47:20  -808.007678  -2.38  -1.81    +57.9075
iter:  12 01:49:31  -808.349525  -2.43  -1.84    +58.5664
iter:  13 01:51:43  -808.689943  -2.39  -1.88    +59.9073
iter:  14 01:53:54  -808.660374  -2.44  -1.92    +61.2971
iter:  15 01:56:06  -808.142048  -2.72  -1.96    +61.6082
iter:  16 01:59:06  -807.878274  -2.98  -2.03    +61.9190
iter:  17 02:01:40  -808.049793  -3.05  -2.09    +62.8141
iter:  18 02:03:52  -807.910619  -2.99  -2.13    +63.3091
iter:  19 02:06:04  -807.947278  -3.05  -2.23    +63.8200
iter:  20 02:08:15  -807.915981c -3.19  -2.29    +64.2596
iter:  21 02:10:28  -807.987469c -3.32  -2.35    +64.9165
iter:  22 02:12:40  -807.883044  -3.28  -2.35    +64.9247
iter:  23 02:14:51  -807.883653  -3.32  -2.46    +65.1064
iter:  24 02:17:17  -807.858052c -3.57  -2.50    +65.3953
iter:  25 02:20:22  -807.899826c -3.76  -2.57    +65.6048
iter:  26 02:22:34  -807.913096c -3.75  -2.59    +65.7442
iter:  27 02:24:47  -807.938162c -3.83  -2.62    +65.8768
iter:  28 02:26:58  -807.915648c -3.95  -2.64    +65.8264
iter:  29 02:29:10  -807.949657c -4.10  -2.73    +65.8999
iter:  30 02:31:21  -807.949920c -4.21  -2.74    +65.8532
iter:  31 02:33:31  -807.963041c -4.25  -2.79    +65.8677
iter:  32 02:35:43  -807.977225c -4.41  -2.82    +65.8796
iter:  33 02:38:37  -807.983767c -4.41  -2.86    +65.8749
iter:  34 02:41:18  -807.992800c -4.51  -2.89    +65.8095
iter:  35 02:43:30  -808.009873c -4.48  -2.94    +65.8155
iter:  36 02:45:41  -808.013116c -4.62  -2.95    +65.7126
iter:  37 02:47:53  -808.024640c -4.65  -3.01    +65.6711
iter:  38 02:50:05  -808.035024c -4.60  -3.02    +65.6289
iter:  39 02:52:17  -808.037928c -4.72  -3.06    +65.5942
iter:  40 02:54:29  -808.045077c -4.74  -3.09    +65.4950
iter:  41 02:57:15  -808.054418c -4.76  -3.15    +65.4734
iter:  42 03:00:04  -808.058826c -4.83  -3.16    +65.3760
iter:  43 03:02:16  -808.063739c -4.89  -3.19    +65.3436
iter:  44 03:04:27  -808.068393c -5.04  -3.23    +65.3032
iter:  45 03:06:40  -808.071969c -5.05  -3.27    +65.2643
iter:  46 03:08:52  -808.075813c -5.15  -3.29    +65.1883
iter:  47 03:11:02  -808.080420c -5.16  -3.34    +65.1642
iter:  48 03:13:15  -808.083167c -5.18  -3.36    +65.0763
iter:  49 03:15:27  -808.086511c -5.29  -3.39    +65.0531
iter:  50 03:17:37  -808.089476c -5.33  -3.42    +65.0038
iter:  51 03:20:10  -808.090949c -5.39  -3.45    +64.9736
iter:  52 03:22:57  -808.092984c -5.41  -3.46    +64.9187
iter:  53 03:24:28  -808.095520c -5.34  -3.50    +64.9041
iter:  54 03:26:48  -808.094795c -5.50  -3.50    +64.8597
iter:  55 03:29:09  -808.095773c -5.64  -3.54    +64.8515
iter:  56 03:31:28  -808.096355c -5.79  -3.58    +64.8379
iter:  57 03:33:48  -808.096708c -5.82  -3.61    +64.8285
iter:  58 03:36:08  -808.097417c -5.88  -3.63    +64.8067
iter:  59 03:38:28  -808.098182c -5.89  -3.68    +64.7961
iter:  60 03:40:47  -808.098145c -6.07  -3.71    +64.7744
iter:  61 03:43:08  -808.098900c -6.17  -3.74    +64.7663
iter:  62 03:45:28  -808.099072c -6.18  -3.77    +64.7539
iter:  63 03:47:47  -808.099093c -6.19  -3.81    +64.7456
iter:  64 03:50:07  -808.099548c -6.37  -3.84    +64.7336
iter:  65 03:52:26  -808.099828c -6.47  -3.92    +64.7209
iter:  66 03:54:46  -808.100278c -6.29  -3.95    +64.6954
iter:  67 03:57:05  -808.100586c -6.43  -3.95    +64.6950
iter:  68 03:59:25  -808.100442c -6.40  -3.98    +64.6790
iter:  69 04:01:44  -808.100857c -6.55  -4.04c   +64.6714
iter:  70 04:04:03  -808.100925c -6.71  -4.10c   +64.6630
iter:  71 04:06:22  -808.101178c -6.76  -4.13c   +64.6479
iter:  72 04:08:42  -808.101211c -6.75  -4.16c   +64.6398
iter:  73 04:11:02  -808.101589c -6.76  -4.15c   +64.6234
iter:  74 04:13:21  -808.101556c -6.85  -4.19c   +64.6130
iter:  75 04:15:41  -808.101686c -6.87  -4.26c   +64.6005
iter:  76 04:18:00  -808.101996c -6.89  -4.28c   +64.5901
iter:  77 04:20:20  -808.102033c -6.97  -4.29c   +64.5783
iter:  78 04:22:40  -808.102168c -7.02  -4.33c   +64.5714
iter:  79 04:25:00  -808.102326c -7.07  -4.34c   +64.5589
iter:  80 04:27:19  -808.102502c -6.79  -4.37c   +64.5415
iter:  81 04:29:38  -808.102873c -6.40  -4.38c   +64.5118
iter:  82 04:31:58  -808.103687c -5.72  -4.37c   +64.4426
iter:  83 04:34:17  -808.104115c -5.96  -4.22c   +64.4070
iter:  84 04:36:36  -808.104441c -6.17  -4.18c   +64.3859
iter:  85 04:38:56  -808.104509c -6.56  -4.18c   +64.3721
iter:  86 04:41:15  -808.104729c -6.65  -4.16c   +64.3577
iter:  87 04:43:34  -808.105078c -6.82  -4.14c   +64.3614
iter:  88 04:45:53  -808.105187c -6.90  -4.01c   +64.3511
iter:  89 04:48:13  -808.105087c -6.35  -4.03c   +64.3509
iter:  90 04:50:32  -808.105289c -6.15  -3.99    +64.3431
iter:  91 04:52:51  -808.104292c -6.43  -3.97    +64.3359
iter:  92 04:55:11  -808.104453c -7.05  -4.17c   +64.3254
iter:  93 04:57:30  -808.104431c -7.16  -4.29c   +64.3181
iter:  94 04:59:50  -808.104525c -7.51c -4.28c   +64.3167

Converged after 94 iterations.

Dipole moment: (31.185201, -0.990571, -3.826539) |e|*Ang

Total magnetic moment: (0.000000, 0.000000, 64.316719)
Local magnetic moments:
   0 Fe ( 0.000000,  0.000000,  1.612285)
   1 Cr ( 0.000000,  0.000000,  0.096478)
   2 Ni ( 0.000000,  0.000000, -0.027923)
   3 Cr ( 0.000000,  0.000000, -0.673026)
   4 Al ( 0.000000,  0.000000, -0.018175)
   5 Fe ( 0.000000,  0.000000,  1.424370)
   6 Ni ( 0.000000,  0.000000,  0.257309)
   7 Al ( 0.000000,  0.000000, -0.016946)
   8 Al ( 0.000000,  0.000000, -0.007773)
   9 Co ( 0.000000,  0.000000,  1.491632)
  10 Ni ( 0.000000,  0.000000,  0.265529)
  11 Co ( 0.000000,  0.000000,  1.409035)
  12 Ni ( 0.000000,  0.000000,  0.325838)
  13 Cr ( 0.000000,  0.000000,  0.965400)
  14 Fe ( 0.000000,  0.000000, -0.084180)
  15 Cr ( 0.000000,  0.000000, -0.568678)
  16 Co ( 0.000000,  0.000000,  0.269964)
  17 Cr ( 0.000000,  0.000000, -0.329994)
  18 Co ( 0.000000,  0.000000,  0.710392)
  19 Fe ( 0.000000,  0.000000,  1.184324)
  20 Cr ( 0.000000,  0.000000, -1.893968)
  21 Fe ( 0.000000,  0.000000,  2.300564)
  22 Co ( 0.000000,  0.000000,  1.236437)
  23 Al ( 0.000000,  0.000000, -0.031135)
  24 Ni ( 0.000000,  0.000000,  0.247139)
  25 Cr ( 0.000000,  0.000000, -0.655898)
  26 Cr ( 0.000000,  0.000000,  0.494344)
  27 Al ( 0.000000,  0.000000, -0.020211)
  28 Cr ( 0.000000,  0.000000, -0.258097)
  29 Cr ( 0.000000,  0.000000, -1.333939)
  30 Fe ( 0.000000,  0.000000,  1.929715)
  31 Fe ( 0.000000,  0.000000,  1.110136)
  32 Ni ( 0.000000,  0.000000,  0.516800)
  33 Cr ( 0.000000,  0.000000,  1.658869)
  34 Co ( 0.000000,  0.000000,  1.130511)
  35 Ni ( 0.000000,  0.000000,  0.252203)
  36 Ni ( 0.000000,  0.000000,  0.253490)
  37 Co ( 0.000000,  0.000000,  1.457049)
  38 Co ( 0.000000,  0.000000,  1.308671)
  39 Cr ( 0.000000,  0.000000, -1.374169)
  40 Fe ( 0.000000,  0.000000,  2.223145)
  41 Al ( 0.000000,  0.000000, -0.036359)
  42 Fe ( 0.000000,  0.000000,  2.170561)
  43 Ni ( 0.000000,  0.000000,  0.527737)
  44 Cr ( 0.000000,  0.000000, -1.340171)
  45 Co ( 0.000000,  0.000000,  1.491853)
  46 Co ( 0.000000,  0.000000,  1.146803)
  47 Ni ( 0.000000,  0.000000,  0.513964)
  48 Ni ( 0.000000,  0.000000,  0.385406)
  49 Cr ( 0.000000,  0.000000,  1.293428)
  50 Co ( 0.000000,  0.000000,  1.209200)
  51 Al ( 0.000000,  0.000000, -0.029041)
  52 Al ( 0.000000,  0.000000, -0.026135)
  53 Fe ( 0.000000,  0.000000,  2.043334)
  54 Fe ( 0.000000,  0.000000,  2.514296)
  55 Fe ( 0.000000,  0.000000,  2.226323)
  56 Ni ( 0.000000,  0.000000,  0.603492)
  57 Ni ( 0.000000,  0.000000,  0.322942)
  58 Co ( 0.000000,  0.000000,  1.461194)
  59 Co ( 0.000000,  0.000000,  1.151851)
[...]
  93 Cr ( 0.000000,  0.000000,  1.111239)
  94 Fe ( 0.000000,  0.000000,  1.831173)
  95 Cr ( 0.000000,  0.000000, -1.001089)
  96 Ni ( 0.000000,  0.000000,  0.237596)
  97 Fe ( 0.000000,  0.000000,  2.270369)
  98 Co ( 0.000000,  0.000000,  0.602285)
  99 Ni ( 0.000000,  0.000000,  0.367978)
 100 Cr ( 0.000000,  0.000000,  1.116371)
 101 Al ( 0.000000,  0.000000, -0.002067)
 102 Cr ( 0.000000,  0.000000, -0.532014)
 103 Co ( 0.000000,  0.000000,  0.182437)
 104 Al ( 0.000000,  0.000000, -0.015418)
 105 Ni ( 0.000000,  0.000000,  0.216896)
 106 Co ( 0.000000,  0.000000,  1.128098)
 107 Fe ( 0.000000,  0.000000,  2.228061)

Energy contributions relative to reference atoms: (reference = -3382523.201499)

Kinetic:       +449.330971
Potential:     -414.329175
External:        +0.000000
XC:            -874.271983
Entropy (-ST):   -4.270520
Local:          +33.300921
Free energy:   -810.239785
Extrapolated:  -808.104525

Spin contamination: 21.075083 electrons
Showing only first 2 kpts
                      Up                     Down
 Kpt  Band  Eigenvalues  Occupancy  Eigenvalues  Occupancy
  0   470      9.14695    0.99649     10.09628    0.02092
  0   471      9.16319    0.99587     10.11856    0.01681
  0   472      9.18306    0.99497     10.12929    0.01513
  0   473      9.20167    0.99394     10.13600    0.01416

  1   470      9.15374    0.99624     10.09019    0.02221
  1   471      9.16979    0.99559     10.11506    0.01740
  1   472      9.18339    0.99495     10.12171    0.01630
  1   473      9.18952    0.99463     10.14462    0.01301

Fermi level: 9.71170

No gap

Forces in eV/Ang:
  0 Fe   -0.75538   -1.36240   -2.42185
  1 Cr   -2.08769    0.91044    1.12384
  2 Ni    0.38317   -1.98520   -0.45841
  3 Cr   -0.12356    0.72089   -1.43645
  4 Al    0.09008   -1.27397   -1.28297
  5 Fe    1.37746    1.38965    1.25270
  6 Ni    0.18531   -0.04360   -0.06159
  7 Al   -2.85447   -2.03856   -0.18374
  8 Al    1.50223    1.38543   -0.47001
  9 Co   -0.46380    1.45182   -1.09368
 10 Ni    0.21793    0.71551   -0.41716
 11 Co   -0.94403    1.17883    0.63164
 12 Ni   -0.47485    0.99118   -0.57149
 13 Cr   -1.50495    1.19822    0.19298
 14 Fe   -0.56892    1.28873    2.31841
 15 Cr   -1.52560   -0.04485   -1.10581
 16 Co    0.97825   -0.72178    0.72485
 17 Cr   -0.78809   -0.15251   -0.65014
 18 Co   -0.47192   -0.27159    1.91852
 19 Fe   -0.36194   -0.22587    0.31359
 20 Cr    3.47902    2.76693   -0.48567
 21 Fe   -0.24666   -1.83233    1.95489
 22 Co    0.11669   -0.34380   -0.65625
 23 Al    0.77423    0.80662    1.04276
 24 Ni   -0.87044   -0.52343    1.42133
 25 Cr    1.23510   -0.53957    0.01118
 26 Cr   -0.84381    0.35991    1.17586
 27 Al   -0.28876    0.07932    1.41106
 28 Cr   -0.00045   -0.06107    0.07365
 29 Cr    0.62071   -1.07828    1.23585
 30 Fe   -0.25760   -0.41919    1.01402
 31 Fe    0.51037   -0.06725   -0.06240
 32 Ni    0.17735    1.17160   -1.42011
 33 Cr    0.73220   -1.27774    0.43177
 34 Co    0.47634    0.67317   -1.16610
 35 Ni   -0.53080   -0.59648   -1.06968
 36 Ni    1.71777   -1.79641   -0.45083
 37 Co    0.43072    0.91221   -0.46946
 38 Co    0.18321   -0.30977   -0.69638
 39 Cr   -0.49619    1.66599    0.70481
 40 Fe    0.40050    0.46034    1.02209
 41 Al    0.92402    0.85762   -0.77023
 42 Fe    0.93599   -1.46339    0.58938
 43 Ni   -0.98733    1.05453   -1.93690
 44 Cr   -0.67423    0.68461   -0.17190
 45 Co    1.58803    0.78190   -0.53777
 46 Co    0.00731    0.23084   -0.47216
 47 Ni   -1.64511    0.77200   -0.17373
 48 Ni    0.87907    0.28025    0.40823
 49 Cr    0.04238   -2.84525   -1.72201
 50 Co    1.02996   -0.26468   -1.24893
 51 Al    0.45724   -1.03173    0.64362
 52 Al   -0.29424   -0.78940    0.34458
 53 Fe   -0.33420    0.16092    0.38160
 54 Fe    0.56721    0.28060    1.29019
 55 Fe   -0.85835   -1.14318   -0.60923
 56 Ni   -0.88668   -1.09984   -0.50997
 57 Ni    0.38713    1.27336    2.00377
 58 Co   -0.54949    0.97064   -1.05745
 59 Co    0.44460   -0.38115    0.61438
[...]
 93 Cr    0.53849    0.86760   -0.30428
 94 Fe    0.17760   -1.40803    0.04619
 95 Cr    1.07422   -1.55800   -0.29509
 96 Ni    2.19037    1.80207    1.05683
 97 Fe   -0.98421   -0.46925   -0.04858
 98 Co    1.54007   -0.52018   -0.67763
 99 Ni    1.52986    0.41402   -0.24415
100 Cr   -1.08433   -2.53239   -2.17713
101 Al   -1.19334    1.50805   -0.33949
102 Cr    1.09041    1.12068    0.28816
103 Co   -0.46464    1.75428    0.36610
104 Al   -2.30608    0.54033    2.56541
105 Ni    0.41397    0.63801    0.61299
106 Co   -1.34385    0.13535    0.96990
107 Fe   -0.09572   -0.26539   -0.47712

Date: Fri Apr 14 05:00:10 2023