User:   c.zeng@d0098
Date:   Sat Apr 15 04:08:53 2023
Arch:   x86_64
Pid:    133994
CWD:    /home/c.zeng/projects/hea-corrosion/hea-mlp/data-curation/bulk-mcmc/dft-jobs/212
Python: 3.8.1
gpaw:   /home/c.zeng/usr/installs/gpaw/source/gpaw-22.8.0/gpaw
_gpaw:  /home/c.zeng/usr/installs/gpaw/source/gpaw-22.8.0/
        _gpaw.cpython-38-x86_64-linux-gnu.so
ase:    /home/c.zeng/.local/lib/python3.8/site-packages/ase-3.22.1-py3.8.egg/ase (version 3.22.1)
numpy:  /shared/centos7/python/3.8.1/lib/python3.8/site-packages/numpy (version 1.17.4)
scipy:  /shared/centos7/python/3.8.1/lib/python3.8/site-packages/scipy (version 1.4.1)
units:  Angstrom and eV
cores: 30
OpenMP: False
OMP_NUM_THREADS: 1

Input parameters:
  convergence: {energy: 0.0001}
  kpts: [2 2 2]
  maxiter: 666
  mode: {ecut: 350.0,
         name: pw}
  occupations: {fixmagmom: False,
                name: fermi-dirac,
                width: 0.1}
  spinpol: True
  xc: PBE

System changes: positions, numbers, cell, pbc, initial_charges, initial_magmoms

Initialize ...

species:
  Cr:
    name: Chromium
    id: 33f258bda2ca9f93018e70263a35547b
    Z: 24.0
    valence: 6
    core: 18
    charge: 0.0
    file: /home/c.zeng/usr/data/gpaw-setups-0.9.20000/Cr.PBE.gz
    compensation charges: {type: gauss,
                           rc: 0.35,
                           lmax: 2}
    cutoffs: {filter: 2.14,
              core: 3.04}
    valence states:
      #              energy  rcut
      - 4s(1.00)    -4.007   1.164
      - 4p(0.00)    -0.989   1.217
      - 3d(5.00)    -2.913   1.111
      -  s          23.205   1.164
      -  p          26.223   1.217
      -  d          24.299   1.111

    # Using partial waves for Cr as LCAO basis

  Al:
    name: Aluminium
    id: 0292cae29f5d6237e50f6abdd43a7bdd
    Z: 13.0
    valence: 3
    core: 10
    charge: 0.0
    file: /home/c.zeng/usr/data/gpaw-setups-0.9.20000/Al.PBE.gz
    compensation charges: {type: gauss,
                           rc: 0.34,
                           lmax: 2}
    cutoffs: {filter: 1.91,
              core: 2.36}
    valence states:
      #              energy  rcut
      - 3s(2.00)    -7.753   1.085
      - 3p(1.00)    -2.712   1.085
      -  s          19.459   1.085
      -  p          24.499   1.085
      -  d           0.000   1.085

[...]

  Ni:
    name: Nickel
    id: 0d9f38a9d6e76a2886f07bb4381f212b
    Z: 28.0
    valence: 16
    core: 12
    charge: 0.0
    file: /home/c.zeng/usr/data/gpaw-setups-0.9.20000/Ni.PBE.gz
    compensation charges: {type: gauss,
                           rc: 0.36,
                           lmax: 2}
    cutoffs: {filter: 2.14,
              core: 1.98}
    valence states:
      #              energy  rcut
      - 4s(2.00)    -5.642   1.164
      - 3p(6.00)   -71.394   1.207
      - 4p(0.00)    -1.226   1.207
      - 3d(8.00)    -8.875   1.138
      -  s          21.570   1.164
      -  d          18.337   1.138

[...]

  Co:
    name: Cobalt
    id: 339d20d5b0b93d2de9531a1bee871d91
    Z: 27.0
    valence: 9
    core: 18
    charge: 0.0
    file: /home/c.zeng/usr/data/gpaw-setups-0.9.20000/Co.PBE.gz
    compensation charges: {type: gauss,
                           rc: 0.32,
                           lmax: 2}
    cutoffs: {filter: 1.87,
              core: 2.55}
    valence states:
      #              energy  rcut
      - 4s(2.00)    -5.469   1.005
      - 4p(0.00)    -1.277   1.058
      - 3d(7.00)    -8.205   1.005
      -  s          21.742   1.005
      -  p          25.934   1.058
      -  d          19.007   1.005

[...]

  Fe:
    name: Iron
    id: 37abbd8d6c3c35915a9b583b742da910
    Z: 26.0
    valence: 8
    core: 18
    charge: 0.0
    file: /home/c.zeng/usr/data/gpaw-setups-0.9.20000/Fe.PBE.gz
    compensation charges: {type: gauss,
                           rc: 0.33,
                           lmax: 2}
    cutoffs: {filter: 2.06,
              core: 2.67}
    valence states:
      #              energy  rcut
      - 4s(2.00)    -5.291   1.164
      - 4p(0.00)    -1.326   1.058
      - 3d(6.00)    -7.505   1.058
      -  s          21.920   1.164
      -  p          25.885   1.058
      -  d          19.706   1.058

    # Using partial waves for Fe as LCAO basis

Reference energy: -3235165.067515  # eV

Spin-polarized calculation.
Magnetic moment: 121.100000

Convergence criteria:
 Maximum [total energy] change in last 3 cyles: 0.0001 eV / electron
 Maximum integral of absolute [dens]ity change: 0.0001 electrons / valence electron
 Maximum integral of absolute [eigenst]ate change: 4e-08 eV^2 / valence electron
 Maximum number of scf [iter]ations: 666
 (Square brackets indicate name in SCF output, whereas a 'c' in
 the SCF output indicates the quantity has converged.)

Symmetries present (total): 1

  ( 1  0  0)
  ( 0  1  0)
  ( 0  0  1)

8 k-points: 2 x 2 x 2 Monkhorst-Pack grid
4 k-points in the irreducible part of the Brillouin zone
       k-points in crystal coordinates                weights
   0:     0.25000000   -0.25000000   -0.25000000          2/8
   1:     0.25000000   -0.25000000    0.25000000          2/8
   2:     0.25000000    0.25000000   -0.25000000          2/8
   3:     0.25000000    0.25000000    0.25000000          2/8

Wave functions: Plane wave expansion
  Cutoff energy: 350.000 eV
  Number of coefficients (min, max): 19084, 19084
  Pulay-stress correction: 0.000000 eV/Ang^3 (de/decut=0.000000)
  Using FFTW library
  ScaLapack parameters: grid=1x1, blocksize=None
  Wavefunction extrapolation:
    Improved wavefunction reuse through dual PAW basis

Occupation numbers: Fermi-Dirac:
  width: 0.1000  # eV

Eigensolver
   Davidson(niter=2)

Densities:
  Coarse grid: 48*48*48 grid
  Fine grid: 96*96*96 grid
  Total Charge: 0.000000

Density mixing:
  Method: difference
  Backend: pulay
  Linear mixing parameter: 0.05
  old densities: 5
  Damping of long wavelength oscillations: 50

Hamiltonian:
  XC and Coulomb potentials evaluated on a 96*96*96 grid
  Using the PBE Exchange-Correlation functional
  External potential:
    NoExternalPotential

XC parameters: PBE with 2 nearest neighbor stencil

Total number of cores used: 30
Parallelization over k-points: 2
Domain decomposition: 5 x 3 x 1

Number of atoms: 108
Number of atomic orbitals: 933
Number of bands in calculation: 624
Number of valence electrons: 912
Bands to converge: occupied

... initialized

Initializing position-dependent things.

Density initialized from atomic densities
Creating initial wave functions:
  624 bands from LCAO basis set

        .--------Al----------------.
       /|           Fe             |
      / |    FeFe     Ni           |
     / Ni       Ni       Al        |
    /   |Fe      NiCo       Fe     |
   /    | NiNi      ACo            |
  /    Co  FeiAlAl    Co Fe  CoAl  |
 *      Fe     AlCoAl   CrFe     Cr|
 |      |FeCr   NiFeFe   AlNiCr   Co
 |      | CoNi   AlCoCoAl CrNiFe   |
 |     Fe  Al CoCo  NiCr Cr  CrCr  |
 |      Cr  Ni CrCrCo CoNiCoAl   Fe|
 |      |CrCo   CoAlAl   CoNiFe   Fe
 |      .-FeCr-----CrCr-Al--NiFe---.
 |     Al  Ni CoCr    Al Co  Cr Cr/
 |    / Co              Ni       Cr
 |   /           Alr      NiFe  /
 |  /      Ni       Fe     NiAl/
 | /                   Fe     /i
 *--------------------------Cr

Positions:
   0 Cr    10.797848    0.093654    0.085777    ( 0.0000,  0.0000,  0.0000)
   1 Al    10.831824    1.844742    1.870716    ( 0.0000,  0.0000,  2.0000)
   2 Ni     1.786803   10.847372    1.827335    ( 0.0000,  0.0000,  0.0000)
   3 Co     1.769614    1.870531   -0.031264    ( 0.0000,  0.0000,  0.0000)
   4 Al     3.620857   10.822050   10.833629    ( 0.0000,  0.0000,  1.5000)
   5 Ni     3.571246    1.883176    1.708402    ( 0.0000,  0.0000,  0.0000)
   6 Co     5.521103   10.788063    1.666217    ( 0.0000,  0.0000,  0.0000)
   7 Al     5.520831    1.813973   10.830911    ( 0.0000,  0.0000,  1.5000)
   8 Al     7.330846    0.011025   10.815657    ( 0.0000,  0.0000,  2.0000)
   9 Fe     7.282018    1.809483    1.793250    ( 0.0000,  0.0000,  2.1000)
  10 Fe     9.029996    0.022005    1.811918    ( 0.0000,  0.0000,  1.5000)
  11 Fe     9.007196    1.868639   10.825714    ( 0.0000,  0.0000,  2.0000)
  12 Ni    10.861310    3.649723    0.014171    ( 0.0000,  0.0000,  2.0000)
  13 Cr    10.867442    5.463468    1.819235    ( 0.0000,  0.0000,  2.1000)
  14 Co     1.756088    3.650267    1.845949    ( 0.0000,  0.0000,  0.0000)
  15 Fe     1.790358    5.439092   10.869084    ( 0.0000,  0.0000,  2.1000)
  16 Ni     3.687842    3.622792   -0.049287    ( 0.0000,  0.0000,  2.0000)
  17 Co     3.667347    5.391145    1.745368    ( 0.0000,  0.0000,  0.0000)
  18 Al     5.497977    3.634415    1.792370    ( 0.0000,  0.0000,  2.0000)
  19 Cr     5.524908    5.448029    0.002551    ( 0.0000,  0.0000,  2.0000)
  20 Co     7.223340    3.611877   10.834270    ( 0.0000,  0.0000,  0.0000)
  21 Al     7.217762    5.474830    1.807776    ( 0.0000,  0.0000,  2.1000)
  22 Ni     9.073442    3.654344    1.775148    ( 0.0000,  0.0000,  0.0000)
  23 Ni     9.008740    5.418608    0.007692    ( 0.0000,  0.0000,  2.0000)
  24 Cr    10.859190    7.178720    0.014480    ( 0.0000,  0.0000,  1.5000)
  25 Fe    -0.018106    8.970948    1.875391    ( 0.0000,  0.0000,  0.0000)
  26 Fe     1.817615    7.224025    1.802546    ( 0.0000,  0.0000,  1.5000)
  27 Ni     1.880729    8.993464   10.874031    ( 0.0000,  0.0000,  0.0000)
  28 Fe     3.684428    7.260447   -0.001356    ( 0.0000,  0.0000,  2.0000)
  29 Co     3.612616    9.025636    1.761807    ( 0.0000,  0.0000,  1.5000)
  30 Cr     5.481440    7.275114    1.811211    ( 0.0000,  0.0000,  1.5000)
  31 Fe     5.461261    9.048153   10.833988    ( 0.0000,  0.0000,  1.5000)
  32 Ni     7.245704    7.257881    0.056891    ( 0.0000,  0.0000,  2.1000)
  33 Co     7.301969    9.004609    1.790315    ( 0.0000,  0.0000,  0.0000)
  34 Ni     9.029343    7.181775    1.815549    ( 0.0000,  0.0000,  2.0000)
  35 Cr     9.030561    9.042010    0.020232    ( 0.0000,  0.0000,  1.5000)
  36 Fe    -0.031046    0.001947    3.645701    ( 0.0000,  0.0000,  2.0000)
  37 Fe    10.825910    1.804351    5.434602    ( 0.0000,  0.0000,  2.1000)
  38 Ni     1.743552   10.849296    5.484376    ( 0.0000,  0.0000,  0.0000)
  39 Al     1.769755    1.791891    3.636068    ( 0.0000,  0.0000,  1.5000)
  40 Al     3.516667   10.719828    3.663227    ( 0.0000,  0.0000,  0.0000)
  41 Co     3.644244    1.785205    5.586728    ( 0.0000,  0.0000,  0.0000)
  42 Al     5.484778   10.815439    5.504022    ( 0.0000,  0.0000,  0.0000)
  43 Cr     5.457934    1.842230    3.658769    ( 0.0000,  0.0000,  0.0000)
  44 Cr     7.360615   10.815439    3.672229    ( 0.0000,  0.0000,  0.0000)
  45 Al     7.266884    1.811614    5.485528    ( 0.0000,  0.0000,  2.1000)
  46 Al     9.077986    0.023590    5.491921    ( 0.0000,  0.0000,  0.0000)
  47 Co     9.066788    1.824226    3.671175    ( 0.0000,  0.0000,  1.5000)
  48 Fe    -0.047135    3.649615    3.617291    ( 0.0000,  0.0000,  2.0000)
  49 Cr    10.809264    5.435993    5.379805    ( 0.0000,  0.0000,  2.0000)
  50 Cr     1.752316    3.624989    5.344676    ( 0.0000,  0.0000,  0.0000)
  51 Cr     1.805786    5.472046    3.619389    ( 0.0000,  0.0000,  2.1000)
  52 Cr     3.649408    3.633491    3.631251    ( 0.0000,  0.0000,  2.1000)
  53 Co     3.657628    5.433797    5.434015    ( 0.0000,  0.0000,  1.5000)
  54 Cr     5.413368    3.672642    5.480309    ( 0.0000,  0.0000,  1.5000)
  55 Al     5.413835    5.465588    3.639666    ( 0.0000,  0.0000,  2.1000)
  56 Cr     7.223449    3.731734    3.720829    ( 0.0000,  0.0000,  0.0000)
  57 Cr     7.220557    5.483180    5.485572    ( 0.0000,  0.0000,  0.0000)
  58 Co     9.069039    3.623673    5.469720    ( 0.0000,  0.0000,  1.5000)
  59 Ni     9.064766    5.503837    3.636731    ( 0.0000,  0.0000,  0.0000)
[...]
  93 Co     7.214631    5.385893    9.048577    ( 0.0000,  0.0000,  2.1000)
  94 Fe     8.994291    3.655975    9.039237    ( 0.0000,  0.0000,  1.5000)
  95 Ni     9.006577    5.423262    7.223296    ( 0.0000,  0.0000,  2.0000)
  96 Cr    -0.070637    7.291956    7.110419    ( 0.0000,  0.0000,  0.0000)
  97 Ni     0.073012    9.104570    9.068375    ( 0.0000,  0.0000,  0.0000)
  98 Ni     1.863247    7.257381    9.054785    ( 0.0000,  0.0000,  2.0000)
  99 Fe     1.858343    9.053708    7.225808    ( 0.0000,  0.0000,  2.1000)
 100 Al     3.683906    7.292456    7.235550    ( 0.0000,  0.0000,  2.0000)
 101 Ni     3.628218    9.069550    9.051262    ( 0.0000,  0.0000,  2.1000)
 102 Co     5.530605    7.331890    9.040129    ( 0.0000,  0.0000,  0.0000)
 103 Al     5.476232    9.097209    7.250467    ( 0.0000,  0.0000,  2.0000)
 104 Cr     7.256827    7.264242    7.208456    ( 0.0000,  0.0000,  2.1000)
 105 Al     7.272548    9.136437    9.056861    ( 0.0000,  0.0000,  1.5000)
 106 Fe     8.936493    7.190875    9.109767    ( 0.0000,  0.0000,  0.0000)
 107 Co     8.994682    9.112169    7.218480    ( 0.0000,  0.0000,  0.0000)

Unit cell:
           periodic     x           y           z      points  spacing
  1. axis:    yes   10.872400    0.000000    0.000000    48     0.2265
  2. axis:    yes    0.000000   10.872400    0.000000    48     0.2265
  3. axis:    yes    0.000000    0.000000   10.872400    48     0.2265

  Lengths:  10.872400  10.872400  10.872400
  Angles:   90.000000  90.000000  90.000000

Effective grid spacing dv^(1/3) = 0.2265

     iter     time        total  log10-change:  magmom
                         energy  eigst   dens
iter:   1 04:13:29  -912.473050                  +120.1200
iter:   2 04:15:35  -840.829153  -0.32  -1.26    +81.6130
iter:   3 04:17:42  -838.120852  -0.77  -1.28    +48.8671
iter:   4 04:19:49  -817.590818  -1.14  -1.29    +44.5010
iter:   5 04:21:56  -809.009703  -1.75  -1.36    +41.3068
iter:   6 04:24:02  -813.431248  -1.64  -1.43    +40.3528
iter:   7 04:26:10  -807.435659  -1.46  -1.44    +39.8102
iter:   8 04:28:16  -805.019631  -1.68  -1.54    +40.2054
iter:   9 04:30:24  -806.467670  -1.87  -1.63    +40.9559
iter:  10 04:32:31  -802.814988  -1.99  -1.66    +41.0362
iter:  11 04:34:38  -802.689564  -2.40  -1.78    +42.3572
iter:  12 04:36:45  -802.966200  -2.44  -1.82    +44.0316
iter:  13 04:38:52  -803.848099  -2.46  -1.87    +45.4401
iter:  14 04:40:58  -803.909955  -2.44  -1.87    +46.4357
iter:  15 04:43:05  -803.719051  -2.52  -1.92    +47.9761
iter:  16 04:45:11  -804.178758  -2.48  -1.99    +49.0747
iter:  17 04:47:18  -803.503929  -2.71  -2.01    +49.9886
iter:  18 04:49:26  -803.728190  -2.93  -2.13    +51.1299
iter:  19 04:51:32  -803.848654  -2.95  -2.17    +52.1583
iter:  20 04:53:40  -803.930898  -3.08  -2.21    +52.9483
iter:  21 04:55:47  -804.070570  -3.05  -2.26    +53.8486
iter:  22 04:57:55  -803.990960  -3.06  -2.29    +54.6875
iter:  23 05:00:01  -804.220634  -3.17  -2.46    +55.4597
iter:  24 05:02:08  -804.194802  -3.56  -2.45    +55.8388
iter:  25 05:04:16  -804.347105  -3.50  -2.55    +56.7422
iter:  26 05:06:23  -804.492782  -3.56  -2.55    +57.3632
iter:  27 05:08:30  -804.559420  -3.85  -2.55    +57.7937
iter:  28 05:10:37  -804.822556  -3.42  -2.57    +58.8712
iter:  29 05:12:44  -804.960421  -3.56  -2.48    +59.6267
iter:  30 05:14:51  -804.951374  -3.56  -2.48    +60.3505
iter:  31 05:16:58  -805.021438c -3.60  -2.54    +60.6173
iter:  32 05:19:05  -804.922860  -3.88  -2.54    +60.7795
iter:  33 05:21:12  -805.043057  -3.44  -2.66    +60.9006
iter:  34 05:23:19  -804.884431  -3.46  -2.56    +60.8461
iter:  35 05:25:27  -804.885587  -4.14  -2.77    +60.5116
iter:  36 05:27:34  -804.892877c -4.41  -2.84    +60.4763
iter:  37 05:29:41  -804.913211c -4.41  -2.89    +60.3468
iter:  38 05:31:49  -804.923018c -4.48  -2.91    +60.3472
iter:  39 05:33:56  -804.933659c -4.57  -2.92    +60.2566
iter:  40 05:36:02  -804.935233c -4.49  -2.94    +60.2390
iter:  41 05:38:10  -804.942555c -4.48  -3.05    +60.1910
iter:  42 05:40:15  -804.948655c -4.63  -3.15    +60.1565
iter:  43 05:42:20  -804.959398c -4.77  -3.21    +60.1692
iter:  44 05:44:28  -804.960680c -5.14  -3.24    +60.1787
iter:  45 05:46:35  -804.971359c -4.86  -3.28    +60.1645
iter:  46 05:48:43  -804.984160c -4.59  -3.31    +60.2410
iter:  47 05:50:49  -804.999057c -4.38  -3.32    +60.2841
iter:  48 05:52:57  -805.021221c -4.22  -3.28    +60.3861
iter:  49 05:55:04  -805.006101c -4.93  -3.15    +60.3265
iter:  50 05:57:11  -805.024266c -4.75  -3.23    +60.4391
iter:  51 05:59:18  -805.019091c -5.82  -3.14    +60.4465
iter:  52 06:01:25  -805.026891c -4.94  -3.17    +60.5670
iter:  53 06:03:33  -805.037880c -4.76  -3.13    +60.6323
iter:  54 06:05:39  -805.035400c -5.07  -3.02    +60.6208
iter:  55 06:07:47  -805.033907c -5.04  -3.06    +60.6490
iter:  56 06:09:54  -805.040014c -4.36  -3.10    +60.6657
iter:  57 06:12:01  -805.028571c -4.48  -3.02    +60.6269
iter:  58 06:14:08  -805.024620c -5.01  -3.33    +60.6296
iter:  59 06:16:16  -805.028064c -5.03  -3.43    +60.6267
iter:  60 06:18:22  -805.025840c -5.44  -3.36    +60.6382
iter:  61 06:20:29  -805.027570c -5.64  -3.53    +60.6357
iter:  62 06:22:35  -805.027935c -5.81  -3.53    +60.6483
iter:  63 06:24:42  -805.029445c -5.52  -3.63    +60.6592
iter:  64 06:26:48  -805.030782c -5.53  -3.59    +60.6604
iter:  65 06:28:54  -805.030073c -5.54  -3.68    +60.6679
iter:  66 06:31:01  -805.030451c -5.94  -3.75    +60.6741
iter:  67 06:33:08  -805.031275c -6.07  -3.84    +60.6737
iter:  68 06:35:12  -805.032191c -6.08  -3.90    +60.6846
iter:  69 06:37:17  -805.034473c -5.49  -3.90    +60.7016
iter:  70 06:39:24  -805.037775c -5.16  -3.85    +60.7404
iter:  71 06:41:29  -805.036026c -6.04  -3.68    +60.7224
iter:  72 06:43:36  -805.039703c -5.18  -3.75    +60.7852
iter:  73 06:45:43  -805.042815c -5.10  -3.61    +60.8524
iter:  74 06:47:50  -805.044630c -5.46  -3.52    +60.9021
iter:  75 06:49:57  -805.043213c -5.91  -3.46    +60.8445
iter:  76 06:52:04  -805.046770c -5.43  -3.49    +60.9414
iter:  77 06:54:10  -805.045031c -5.73  -3.37    +60.8794
iter:  78 06:56:17  -805.049059c -4.92  -3.45    +60.9473
iter:  79 06:58:24  -805.046753c -5.17  -3.33    +60.9380
iter:  80 07:00:31  -805.043386c -5.51  -3.37    +60.9265
iter:  81 07:02:38  -805.043976c -5.08  -3.58    +60.9400
iter:  82 07:04:45  -805.045961c -5.26  -3.44    +60.9241
iter:  83 07:06:51  -805.042959c -5.60  -3.53    +60.9090
iter:  84 07:08:58  -805.042625c -6.29  -3.71    +60.8982
iter:  85 07:11:05  -805.043133c -6.08  -3.84    +60.8927
iter:  86 07:13:11  -805.043083c -6.12  -3.80    +60.8931
iter:  87 07:15:18  -805.043352c -6.17  -3.84    +60.8859
iter:  88 07:17:25  -805.042569c -6.21  -3.88    +60.8898
iter:  89 07:19:31  -805.043094c -6.41  -3.92    +60.8855
iter:  90 07:21:37  -805.042984c -6.68  -4.11c   +60.8854
iter:  91 07:23:44  -805.043021c -6.93  -4.13c   +60.8855
iter:  92 07:25:50  -805.043125c -6.83  -4.21c   +60.8865
iter:  93 07:27:58  -805.043036c -6.83  -4.21c   +60.8879
iter:  94 07:30:04  -805.043134c -6.89  -4.21c   +60.8888
iter:  95 07:32:11  -805.042986c -6.99  -4.31c   +60.8907
iter:  96 07:34:18  -805.043202c -7.06  -4.37c   +60.8905
iter:  97 07:36:25  -805.043238c -7.24  -4.39c   +60.8917
iter:  98 07:38:28  -805.043225c -7.31  -4.41c   +60.8950
iter:  99 07:40:35  -805.043369c -7.22  -4.48c   +60.8976
iter: 100 07:42:43  -805.043313c -7.53c -4.49c   +60.8978

Converged after 100 iterations.

Dipole moment: (30.540716, 16.164537, 7.665943) |e|*Ang

Total magnetic moment: (0.000000, 0.000000, 60.897763)
Local magnetic moments:
   0 Cr ( 0.000000,  0.000000, -2.018466)
   1 Al ( 0.000000,  0.000000, -0.033106)
   2 Ni ( 0.000000,  0.000000,  0.181050)
   3 Co ( 0.000000,  0.000000,  0.965702)
   4 Al ( 0.000000,  0.000000, -0.027246)
   5 Ni ( 0.000000,  0.000000,  0.131297)
   6 Co ( 0.000000,  0.000000,  1.103803)
   7 Al ( 0.000000,  0.000000, -0.022577)
   8 Al ( 0.000000,  0.000000, -0.047200)
   9 Fe ( 0.000000,  0.000000,  2.085578)
  10 Fe ( 0.000000,  0.000000,  1.865149)
  11 Fe ( 0.000000,  0.000000,  2.092566)
  12 Ni ( 0.000000,  0.000000,  0.266841)
  13 Cr ( 0.000000,  0.000000, -1.632415)
  14 Co ( 0.000000,  0.000000,  0.533776)
  15 Fe ( 0.000000,  0.000000,  2.139656)
  16 Ni ( 0.000000,  0.000000,  0.182146)
  17 Co ( 0.000000,  0.000000,  0.643521)
  18 Al ( 0.000000,  0.000000, -0.033500)
  19 Cr ( 0.000000,  0.000000,  1.399402)
  20 Co ( 0.000000,  0.000000,  1.008337)
  21 Al ( 0.000000,  0.000000, -0.009979)
  22 Ni ( 0.000000,  0.000000,  0.289861)
  23 Ni ( 0.000000,  0.000000,  0.282627)
  24 Cr ( 0.000000,  0.000000,  0.823404)
  25 Fe ( 0.000000,  0.000000,  1.997747)
  26 Fe ( 0.000000,  0.000000,  1.868426)
  27 Ni ( 0.000000,  0.000000,  0.317140)
  28 Fe ( 0.000000,  0.000000,  2.348605)
  29 Co ( 0.000000,  0.000000,  1.071622)
  30 Cr ( 0.000000,  0.000000, -1.841495)
  31 Fe ( 0.000000,  0.000000,  2.387311)
  32 Ni ( 0.000000,  0.000000,  0.244364)
  33 Co ( 0.000000,  0.000000,  1.002024)
  34 Ni ( 0.000000,  0.000000,  0.116425)
  35 Cr ( 0.000000,  0.000000,  0.760968)
  36 Fe ( 0.000000,  0.000000,  2.294804)
  37 Fe ( 0.000000,  0.000000,  1.899302)
  38 Ni ( 0.000000,  0.000000,  0.332558)
  39 Al ( 0.000000,  0.000000, -0.025706)
  40 Al ( 0.000000,  0.000000, -0.014949)
  41 Co ( 0.000000,  0.000000,  1.127069)
  42 Al ( 0.000000,  0.000000, -0.025851)
  43 Cr ( 0.000000,  0.000000,  0.908315)
  44 Cr ( 0.000000,  0.000000,  1.138796)
  45 Al ( 0.000000,  0.000000, -0.017783)
  46 Al ( 0.000000,  0.000000, -0.019005)
  47 Co ( 0.000000,  0.000000,  1.113929)
  48 Fe ( 0.000000,  0.000000,  2.018754)
  49 Cr ( 0.000000,  0.000000, -1.382664)
  50 Cr ( 0.000000,  0.000000, -1.759897)
  51 Cr ( 0.000000,  0.000000,  0.493551)
  52 Cr ( 0.000000,  0.000000,  1.445290)
  53 Co ( 0.000000,  0.000000,  0.618253)
  54 Cr ( 0.000000,  0.000000, -1.247644)
  55 Al ( 0.000000,  0.000000, -0.004492)
  56 Cr ( 0.000000,  0.000000,  1.237482)
  57 Cr ( 0.000000,  0.000000, -1.211365)
  58 Co ( 0.000000,  0.000000,  0.662484)
  59 Ni ( 0.000000,  0.000000,  0.151369)
[...]
  93 Co ( 0.000000,  0.000000,  1.202303)
  94 Fe ( 0.000000,  0.000000,  2.272712)
  95 Ni ( 0.000000,  0.000000,  0.228565)
  96 Cr ( 0.000000,  0.000000, -2.165498)
  97 Ni ( 0.000000,  0.000000,  0.209662)
  98 Ni ( 0.000000,  0.000000,  0.289731)
  99 Fe ( 0.000000,  0.000000,  2.480392)
 100 Al ( 0.000000,  0.000000, -0.033561)
 101 Ni ( 0.000000,  0.000000,  0.325874)
 102 Co ( 0.000000,  0.000000,  0.841224)
 103 Al ( 0.000000,  0.000000, -0.006009)
 104 Cr ( 0.000000,  0.000000,  1.185085)
 105 Al ( 0.000000,  0.000000, -0.028594)
 106 Fe ( 0.000000,  0.000000,  2.231880)
 107 Co ( 0.000000,  0.000000,  0.938847)

Energy contributions relative to reference atoms: (reference = -3235165.067515)

Kinetic:       +229.009057
Potential:     -223.386039
External:        +0.000000
XC:            -839.874993
Entropy (-ST):   -4.166037
Local:          +31.291680
Free energy:   -807.126332
Extrapolated:  -805.043313

Spin contamination: 23.538452 electrons
Showing only first 2 kpts
                      Up                     Down
 Kpt  Band  Eigenvalues  Occupancy  Eigenvalues  Occupancy
  0   454      8.96633    0.99605      9.91867    0.01809
  0   455      8.98606    0.99519      9.92846    0.01643
  0   456      8.99480    0.99475      9.93412    0.01554
  0   457      9.00555    0.99416      9.94568    0.01387

  1   454      8.97046    0.99588      9.90881    0.01993
  1   455      8.99047    0.99497      9.92598    0.01684
  1   456      8.99789    0.99459      9.93852    0.01488
  1   457      9.01137    0.99381      9.94516    0.01394

Fermi level: 9.51925

No gap

Forces in eV/Ang:
  0 Cr    0.47212   -1.37220   -0.39689
  1 Al   -0.45257    0.69486   -0.67810
  2 Ni   -0.08069    0.03853   -0.04038
  3 Co   -0.00651   -0.10310   -0.21834
  4 Al   -0.54930   -0.19796    0.79558
  5 Ni    0.40774   -0.49324    0.57488
  6 Co   -0.11362    0.28481    1.10172
  7 Al   -0.59895    0.24145    0.05709
  8 Al   -0.77723    0.01738    1.78171
  9 Fe    0.22799   -0.22826    0.55472
 10 Fe    0.17859   -0.14454    0.24218
 11 Fe    0.53800    0.24227    0.10442
 12 Ni   -0.04710   -0.32260   -0.15800
 13 Cr   -0.17082   -0.16597   -0.04524
 14 Co    0.53637    0.09410   -0.37842
 15 Fe    0.57995   -0.24572    0.70489
 16 Ni   -0.39521   -0.03152    0.17032
 17 Co   -0.40067    0.21574    0.26130
 18 Al   -0.95720   -0.68389   -0.23471
 19 Cr   -0.31363    0.32083   -0.59321
 20 Co    0.18753    0.17019    0.09284
 21 Al    2.37956    0.06717   -0.19778
 22 Ni   -0.43887   -0.03544    0.38040
 23 Ni    0.15867   -0.12907   -0.20923
 24 Cr    0.12197    1.23435    0.30226
 25 Fe   -0.20828    0.47686   -0.82748
 26 Fe    0.23693    0.03815   -0.12562
 27 Ni   -0.74636    0.20861   -0.00353
 28 Fe   -0.41806    0.38147    0.20496
 29 Co    0.11645   -0.25687    0.43354
 30 Cr   -1.11210    1.17135   -0.45511
 31 Fe    0.02800   -0.67574    0.47028
 32 Ni    0.05647    0.07585   -0.63709
 33 Co   -0.03873    0.31769    0.34802
 34 Ni    0.38846    0.63654    0.09349
 35 Cr    0.90399   -0.63259    0.64905
 36 Fe   -0.37124   -0.26905   -0.22080
 37 Fe    0.08215    0.59339   -0.14250
 38 Ni    0.71868    0.12049   -0.22664
 39 Al    0.94590   -0.00498    0.06668
 40 Al    1.68690    0.85961   -0.57170
 41 Co    0.09970   -0.03633   -0.64881
 42 Al   -1.37795    1.29175   -0.73668
 43 Cr   -0.20445   -0.37670   -0.33825
 44 Cr   -0.50456    0.16344   -1.69318
 45 Al   -0.12356    0.81558   -0.33460
 46 Al    0.09139   -0.68691   -0.75073
 47 Co   -0.49915    0.22160   -0.26097
 48 Fe   -0.43563    0.45539    0.37575
 49 Cr   -0.24944   -0.21621    0.02550
 50 Cr    0.95053    0.44093    1.17289
 51 Cr    0.65412   -0.01515    0.24748
 52 Cr   -0.69050   -0.34515    0.05822
 53 Co   -0.44592   -0.09900    0.02151
 54 Cr   -0.64906   -0.76127    0.41013
 55 Al   -0.75420    0.92761    0.61268
 56 Cr    0.76700   -0.83590    0.28946
 57 Cr    0.77619   -0.03541    0.30690
 58 Co   -0.03732    0.32252   -0.25172
 59 Ni   -0.18752   -0.65082   -0.00337
[...]
 93 Co   -0.04973    0.34984   -0.04892
 94 Fe   -0.23794   -0.16643    0.22055
 95 Ni    0.20591    0.02632   -0.04532
 96 Cr    0.15158    0.62812    0.75799
 97 Ni   -0.48288   -0.38460    0.08359
 98 Ni   -0.34688    0.02544   -0.06646
 99 Fe   -0.64774   -0.11189   -0.01711
100 Al   -0.49667   -0.61936   -0.28761
101 Ni    0.08195   -0.44096    0.13217
102 Co   -0.07762   -0.63686    0.25645
103 Al   -1.09906   -0.20879    1.26404
104 Cr    0.34345   -1.29157    0.75436
105 Al   -0.14872   -1.67189   -0.35908
106 Fe    0.72390    0.38808   -0.48166
107 Co    0.72473   -1.02076    0.45692

Date: Sat Apr 15 07:43:02 2023