User:   c.zeng@d0019
Date:   Sat Apr 15 20:55:45 2023
Arch:   x86_64
Pid:    178712
CWD:    /home/c.zeng/projects/hea-corrosion/hea-mlp/data-curation/bulk-mcmc/dft-jobs/8
Python: 3.8.1
gpaw:   /home/c.zeng/usr/installs/gpaw/source/gpaw-22.8.0/gpaw
_gpaw:  /home/c.zeng/usr/installs/gpaw/source/gpaw-22.8.0/
        _gpaw.cpython-38-x86_64-linux-gnu.so
ase:    /home/c.zeng/.local/lib/python3.8/site-packages/ase-3.22.1-py3.8.egg/ase (version 3.22.1)
numpy:  /shared/centos7/python/3.8.1/lib/python3.8/site-packages/numpy (version 1.17.4)
scipy:  /shared/centos7/python/3.8.1/lib/python3.8/site-packages/scipy (version 1.4.1)
units:  Angstrom and eV
cores: 30
OpenMP: False
OMP_NUM_THREADS: 1

Input parameters:
  convergence: {energy: 0.0001}
  kpts: [2 2 2]
  maxiter: 666
  mode: {ecut: 350.0,
         name: pw}
  occupations: {fixmagmom: False,
                name: fermi-dirac,
                width: 0.1}
  spinpol: True
  xc: PBE

System changes: positions, numbers, cell, pbc, initial_charges, initial_magmoms

Initialize ...

species:
  Co:
    name: Cobalt
    id: 339d20d5b0b93d2de9531a1bee871d91
    Z: 27.0
    valence: 9
    core: 18
    charge: 0.0
    file: /home/c.zeng/usr/data/gpaw-setups-0.9.20000/Co.PBE.gz
    compensation charges: {type: gauss,
                           rc: 0.32,
                           lmax: 2}
    cutoffs: {filter: 1.87,
              core: 2.55}
    valence states:
      #              energy  rcut
      - 4s(2.00)    -5.469   1.005
      - 4p(0.00)    -1.277   1.058
      - 3d(7.00)    -8.205   1.005
      -  s          21.742   1.005
      -  p          25.934   1.058
      -  d          19.007   1.005

    # Using partial waves for Co as LCAO basis

  Fe:
    name: Iron
    id: 37abbd8d6c3c35915a9b583b742da910
    Z: 26.0
    valence: 8
    core: 18
    charge: 0.0
    file: /home/c.zeng/usr/data/gpaw-setups-0.9.20000/Fe.PBE.gz
    compensation charges: {type: gauss,
                           rc: 0.33,
                           lmax: 2}
    cutoffs: {filter: 2.06,
              core: 2.67}
    valence states:
      #              energy  rcut
      - 4s(2.00)    -5.291   1.164
      - 4p(0.00)    -1.326   1.058
      - 3d(6.00)    -7.505   1.058
      -  s          21.920   1.164
      -  p          25.885   1.058
      -  d          19.706   1.058

[...]

  Ni:
    name: Nickel
    id: 0d9f38a9d6e76a2886f07bb4381f212b
    Z: 28.0
    valence: 16
    core: 12
    charge: 0.0
    file: /home/c.zeng/usr/data/gpaw-setups-0.9.20000/Ni.PBE.gz
    compensation charges: {type: gauss,
                           rc: 0.36,
                           lmax: 2}
    cutoffs: {filter: 2.14,
              core: 1.98}
    valence states:
      #              energy  rcut
      - 4s(2.00)    -5.642   1.164
      - 3p(6.00)   -71.394   1.207
      - 4p(0.00)    -1.226   1.207
      - 3d(8.00)    -8.875   1.138
      -  s          21.570   1.164
      -  d          18.337   1.138

[...]

  Cr:
    name: Chromium
    id: 33f258bda2ca9f93018e70263a35547b
    Z: 24.0
    valence: 6
    core: 18
    charge: 0.0
    file: /home/c.zeng/usr/data/gpaw-setups-0.9.20000/Cr.PBE.gz
    compensation charges: {type: gauss,
                           rc: 0.35,
                           lmax: 2}
    cutoffs: {filter: 2.14,
              core: 3.04}
    valence states:
      #              energy  rcut
      - 4s(1.00)    -4.007   1.164
      - 4p(0.00)    -0.989   1.217
      - 3d(5.00)    -2.913   1.111
      -  s          23.205   1.164
      -  p          26.223   1.217
      -  d          24.299   1.111

    # Using partial waves for Cr as LCAO basis

Reference energy: -3846758.590871  # eV

Spin-polarized calculation.
Magnetic moment: 151.200000

Convergence criteria:
 Maximum [total energy] change in last 3 cyles: 0.0001 eV / electron
 Maximum integral of absolute [dens]ity change: 0.0001 electrons / valence electron
 Maximum integral of absolute [eigenst]ate change: 4e-08 eV^2 / valence electron
 Maximum number of scf [iter]ations: 666
 (Square brackets indicate name in SCF output, whereas a 'c' in
 the SCF output indicates the quantity has converged.)

Symmetries present (total): 1

  ( 1  0  0)
  ( 0  1  0)
  ( 0  0  1)

8 k-points: 2 x 2 x 2 Monkhorst-Pack grid
4 k-points in the irreducible part of the Brillouin zone
       k-points in crystal coordinates                weights
   0:     0.25000000   -0.25000000   -0.25000000          2/8
   1:     0.25000000   -0.25000000    0.25000000          2/8
   2:     0.25000000    0.25000000   -0.25000000          2/8
   3:     0.25000000    0.25000000    0.25000000          2/8

Wave functions: Plane wave expansion
  Cutoff energy: 350.000 eV
  Number of coefficients (min, max): 17755, 17755
  Pulay-stress correction: 0.000000 eV/Ang^3 (de/decut=0.000000)
  Using FFTW library
  ScaLapack parameters: grid=1x1, blocksize=None
  Wavefunction extrapolation:
    Improved wavefunction reuse through dual PAW basis

Occupation numbers: Fermi-Dirac:
  width: 0.1000  # eV

Eigensolver
   Davidson(niter=2)

Densities:
  Coarse grid: 48*48*48 grid
  Fine grid: 96*96*96 grid
  Total Charge: 0.000000

Density mixing:
  Method: difference
  Backend: pulay
  Linear mixing parameter: 0.05
  old densities: 5
  Damping of long wavelength oscillations: 50

Hamiltonian:
  XC and Coulomb potentials evaluated on a 96*96*96 grid
  Using the PBE Exchange-Correlation functional
  External potential:
    NoExternalPotential

XC parameters: PBE with 2 nearest neighbor stencil

Total number of cores used: 30
Parallelization over k-points: 2
Domain decomposition: 5 x 3 x 1

Number of atoms: 108
Number of atomic orbitals: 1053
Number of bands in calculation: 727
Number of valence electrons: 1053
Bands to converge: occupied

... initialized

Initializing position-dependent things.

Density initialized from atomic densities
Creating initial wave functions:
  727 bands from LCAO basis set

       /|  Cr       Ni      Cr    |
      / |   CrFe     Cr           |
     /  |       Co      Fe       Fe
    /   |Cr      CFe       Co     Cr
   /    | Co       Cr       NFe   |
  /  CCo|  FeNi     CoNi          |
 *    CrNi    FeNi   FeCrCo       |
 |      |CoNi   FeFeNi  CoNiFe   Ni
 |      | CrCo     CoNiFeNiCrCr   |
 |    Co|  CoFeNi   CoNiFe   NiCo |
 |      Cr    NiCrNi NiNiNi     Cr|
 |      |FeFe  CoFeCr   FeCrFe   Ni
 |      .-FeCo-----CrCrFe--NiNi---Co
 |   Cro     Fe       Ni         /
 |    NiCo     Coi     CCre     /
 |   /    Co               Cr  /
 |  /      Fe       Fe    CrFe/
 | / Fe     Cr       CrCr    /
 |/            Co       Cr  /
 *--------Co------Co-------*

Positions:
   0 Co    -0.012479   -0.003723   10.616104    ( 0.0000,  0.0000,  2.1000)
   1 Fe    -0.011321    1.761305    1.763386    ( 0.0000,  0.0000,  2.1000)
   2 Fe     1.758365    0.001326    1.769011    ( 0.0000,  0.0000,  2.0000)
   3 Co     1.752686    1.779222   10.610436    ( 0.0000,  0.0000,  2.0000)
   4 Co     3.541196    0.004726   10.616104    ( 0.0000,  0.0000,  0.0000)
   5 Fe     3.534711    1.782438    1.778999    ( 0.0000,  0.0000,  0.0000)
   6 Ni     5.305717   10.600629    1.767950    ( 0.0000,  0.0000,  2.1000)
   7 Co     5.324780    1.765604   10.614618    ( 0.0000,  0.0000,  0.0000)
   8 Co     7.089121    0.014598   10.619926    ( 0.0000,  0.0000,  2.0000)
   9 Fe     7.085279    1.771219    1.773543    ( 0.0000,  0.0000,  1.5000)
  10 Cr     8.850554    0.011470    1.768756    ( 0.0000,  0.0000,  1.5000)
  11 Cr     8.842381    1.777333   10.615680    ( 0.0000,  0.0000,  2.1000)
  12 Fe    10.590535    3.538203   -0.001956    ( 0.0000,  0.0000,  0.0000)
  13 Ni    10.624277    5.310674    1.769786    ( 0.0000,  0.0000,  2.0000)
  14 Co     1.761379    3.535623    1.784572    ( 0.0000,  0.0000,  0.0000)
  15 Cr     1.770200    5.301408   10.611753    ( 0.0000,  0.0000,  2.0000)
  16 Cr     3.556003    3.551407   10.618333    ( 0.0000,  0.0000,  1.5000)
  17 Fe     3.539370    5.311290    1.775199    ( 0.0000,  0.0000,  2.1000)
  18 Ni     5.320142    3.545059    1.779678    ( 0.0000,  0.0000,  1.5000)
  19 Fe     5.306980    5.314654   10.602720    ( 0.0000,  0.0000,  0.0000)
  20 Cr     7.081585    3.529127   10.614725    ( 0.0000,  0.0000,  2.1000)
  21 Ni     7.069241    5.303361    1.781271    ( 0.0000,  0.0000,  1.5000)
  22 Fe     8.841447    3.542671    1.781600    ( 0.0000,  0.0000,  2.1000)
  23 Cr     8.850893    5.290379    0.000220    ( 0.0000,  0.0000,  0.0000)
  24 Ni     0.005868    7.083411   10.614937    ( 0.0000,  0.0000,  2.0000)
  25 Ni    10.601043    8.849694    1.772960    ( 0.0000,  0.0000,  2.1000)
  26 Fe     1.773713    7.072329    1.777184    ( 0.0000,  0.0000,  0.0000)
  27 Cr     1.755520    8.842943   10.608324    ( 0.0000,  0.0000,  0.0000)
  28 Fe     3.544009    7.063116   10.610489    ( 0.0000,  0.0000,  2.0000)
  29 Co     3.542225    8.826820    1.785580    ( 0.0000,  0.0000,  0.0000)
  30 Cr     5.309835    7.081776    1.776600    ( 0.0000,  0.0000,  2.1000)
  31 Ni     5.331945    8.840321   10.604673    ( 0.0000,  0.0000,  2.1000)
  32 Co     7.068434    7.069028   10.623110    ( 0.0000,  0.0000,  0.0000)
  33 Fe     7.083750    8.846796    1.774509    ( 0.0000,  0.0000,  1.5000)
  34 Ni     8.841404    7.058180    1.777173    ( 0.0000,  0.0000,  1.5000)
  35 Cr     8.835524    8.853600   10.611753    ( 0.0000,  0.0000,  0.0000)
  36 Cr    -0.009351   10.618864    3.531070    ( 0.0000,  0.0000,  2.0000)
  37 Fe    10.602508    1.764818    5.300452    ( 0.0000,  0.0000,  1.5000)
  38 Cr     1.756720    0.001379    5.295867    ( 0.0000,  0.0000,  0.0000)
  39 Co     1.766506    1.767154    3.539222    ( 0.0000,  0.0000,  2.0000)
  40 Co     3.539742    0.013881    3.542873    ( 0.0000,  0.0000,  2.0000)
  41 Fe     3.548944    1.788658    5.306237    ( 0.0000,  0.0000,  2.1000)
  42 Fe     5.320174   -0.004685    5.301386    ( 0.0000,  0.0000,  0.0000)
  43 Co     5.316862    1.765551    3.538935    ( 0.0000,  0.0000,  2.0000)
  44 Ni     7.081086   -0.000289    3.531325    ( 0.0000,  0.0000,  2.0000)
  45 Cr     7.072902    1.777407    5.300537    ( 0.0000,  0.0000,  2.0000)
  46 Fe     8.840544    0.012372    5.307851    ( 0.0000,  0.0000,  1.5000)
  47 Cr     8.833592    1.767928    3.534318    ( 0.0000,  0.0000,  2.1000)
  48 Ni    -0.004066    3.525285    3.545951    ( 0.0000,  0.0000,  0.0000)
  49 Co    -0.001689    5.317934    5.307787    ( 0.0000,  0.0000,  1.5000)
  50 Cr     1.769043    3.555101    5.297279    ( 0.0000,  0.0000,  2.0000)
  51 Fe     1.773692    5.305929    3.538266    ( 0.0000,  0.0000,  2.1000)
  52 Co     3.542746    3.537364    3.547575    ( 0.0000,  0.0000,  2.1000)
  53 Fe     3.548477    5.306927    5.301153    ( 0.0000,  0.0000,  2.0000)
  54 Cr     5.316246    3.553031    5.303637    ( 0.0000,  0.0000,  2.0000)
  55 Fe     5.303286    5.303531    3.542385    ( 0.0000,  0.0000,  1.5000)
  56 Cr     7.074962    3.533023    3.537215    ( 0.0000,  0.0000,  1.5000)
  57 Ni     7.066046    5.306046    5.300081    ( 0.0000,  0.0000,  2.0000)
  58 Ni     8.834526    3.538160    5.294530    ( 0.0000,  0.0000,  2.1000)
  59 Cr     8.846255    5.300452    3.537672    ( 0.0000,  0.0000,  1.5000)
[...]
  93 Ni     7.071130    5.304220    8.839313    ( 0.0000,  0.0000,  1.5000)
  94 Co     8.837997    3.524669    8.843389    ( 0.0000,  0.0000,  1.5000)
  95 Ni     8.833772    5.299051    7.076862    ( 0.0000,  0.0000,  0.0000)
  96 Cr     0.012168    7.080333    7.083835    ( 0.0000,  0.0000,  1.5000)
  97 Fe    -0.017034    8.848707    8.843941    ( 0.0000,  0.0000,  2.1000)
  98 Co     1.777938    7.075503    8.840194    ( 0.0000,  0.0000,  2.0000)
  99 Fe     1.758800    8.840035    7.069803    ( 0.0000,  0.0000,  0.0000)
 100 Fe     3.549921    7.066194    7.070090    ( 0.0000,  0.0000,  2.1000)
 101 Co     3.553137    8.839111    8.836776    ( 0.0000,  0.0000,  0.0000)
 102 Cr     5.304189    7.079929    8.840215    ( 0.0000,  0.0000,  2.0000)
 103 Co     5.321946    8.832180    7.082997    ( 0.0000,  0.0000,  2.1000)
 104 Cr     7.057077    7.072149    7.064167    ( 0.0000,  0.0000,  1.5000)
 105 Fe     7.082402    8.855500    8.837487    ( 0.0000,  0.0000,  2.1000)
 106 Co     8.846786    7.077881    8.846732    ( 0.0000,  0.0000,  0.0000)
 107 Ni     8.839313    8.848272    7.075153    ( 0.0000,  0.0000,  0.0000)

Unit cell:
           periodic     x           y           z      points  spacing
  1. axis:    yes   10.614300    0.000000    0.000000    48     0.2211
  2. axis:    yes    0.000000   10.614300    0.000000    48     0.2211
  3. axis:    yes    0.000000    0.000000   10.614300    48     0.2211

  Lengths:  10.614300  10.614300  10.614300
  Angles:   90.000000  90.000000  90.000000

Effective grid spacing dv^(1/3) = 0.2211

     iter     time        total  log10-change:  magmom
                         energy  eigst   dens
iter:   1 21:00:06  -948.229233                  +151.1145
iter:   2 21:01:47  -928.520713  -0.61  -1.38    +114.1613
iter:   3 21:03:28  -918.179396  -0.99  -1.38    +82.4621
iter:   4 21:05:10  -895.920835  -1.40  -1.39    +69.6072
iter:   5 21:06:51  -891.459447  -1.92  -1.49    +62.1956
iter:   6 21:08:34  -894.560387  -1.99  -1.53    +57.4540
iter:   7 21:10:16  -900.112124  -1.65  -1.55    +54.7820
iter:   8 21:11:58  -889.429247  -1.66  -1.56    +52.8596
iter:   9 21:13:39  -896.270985  -1.84  -1.77    +51.6259
iter:  10 21:15:21  -888.323013  -2.05  -1.71    +50.6980
iter:  11 21:17:02  -887.839362  -2.51  -1.90    +49.9729
iter:  12 21:18:44  -887.680402  -2.73  -1.94    +50.2159
iter:  13 21:20:26  -888.836857  -2.73  -1.98    +50.3934
iter:  14 21:22:07  -888.775698  -2.69  -1.98    +50.6691
iter:  15 21:23:49  -889.939694  -2.64  -2.03    +50.9004
iter:  16 21:25:30  -891.577141  -2.43  -2.05    +51.4362
iter:  17 21:27:11  -889.850383  -2.57  -1.97    +51.5794
iter:  18 21:28:52  -889.799304  -2.73  -2.15    +51.7570
iter:  19 21:30:33  -890.364335  -2.78  -2.22    +52.2370
iter:  20 21:32:15  -889.567714  -2.95  -2.16    +52.6882
iter:  21 21:33:56  -889.619135  -3.40  -2.28    +53.2228
iter:  22 21:35:38  -889.906313  -3.16  -2.35    +53.8268
iter:  23 21:37:19  -889.728785  -3.70  -2.32    +53.9486
iter:  24 21:39:01  -890.055058  -3.35  -2.41    +54.6996
iter:  25 21:40:43  -890.445625  -3.22  -2.42    +55.0487
iter:  26 21:42:24  -890.480910  -3.08  -2.41    +55.3408
iter:  27 21:44:06  -890.332222  -3.40  -2.44    +55.6340
iter:  28 21:45:48  -890.760009  -3.19  -2.55    +56.0659
iter:  29 21:47:29  -890.416653  -3.53  -2.43    +56.0523
iter:  30 21:49:10  -890.398848  -3.89  -2.61    +56.1868
iter:  31 21:50:52  -890.443178c -4.27  -2.69    +56.4315
iter:  32 21:52:33  -890.591500  -3.73  -2.72    +56.9120
iter:  33 21:54:15  -890.826313  -3.14  -2.70    +57.6685
iter:  34 21:55:57  -890.986473  -3.46  -2.62    +57.7206
iter:  35 21:57:38  -891.014018  -4.08  -2.56    +57.5236
iter:  36 21:59:20  -891.080229c -3.74  -2.55    +57.5271
iter:  37 22:01:01  -891.188464  -3.81  -2.57    +57.3918
iter:  38 22:02:43  -891.250562  -3.34  -2.52    +57.3862
iter:  39 22:04:24  -891.333541  -3.05  -2.46    +57.2161
iter:  40 22:06:05  -890.912412  -3.50  -2.45    +56.6789
iter:  41 22:07:47  -890.947536  -3.97  -2.67    +56.6296
iter:  42 22:09:28  -890.879793c -4.20  -2.68    +56.4857
iter:  43 22:11:10  -890.883966c -4.05  -2.79    +56.3508
iter:  44 22:12:52  -890.928507c -4.00  -2.88    +56.2963
iter:  45 22:14:33  -890.860089c -4.27  -2.80    +56.2828
iter:  46 22:16:16  -890.894524c -4.14  -3.05    +56.2139
iter:  47 22:17:57  -890.850495c -4.53  -2.89    +56.1274
iter:  48 22:19:38  -890.852069c -4.91  -3.12    +56.0595
iter:  49 22:21:20  -890.850454c -5.12  -3.13    +56.0165
iter:  50 22:23:02  -890.850472c -5.19  -3.19    +55.9688
iter:  51 22:24:43  -890.856425c -4.89  -3.21    +55.9188
iter:  52 22:26:25  -890.852187c -4.97  -3.16    +55.9031
iter:  53 22:28:07  -890.865273c -4.68  -3.29    +55.9053
iter:  54 22:29:49  -890.854282c -4.81  -3.12    +55.8714
iter:  55 22:31:30  -890.851630c -5.04  -3.26    +55.8060
iter:  56 22:33:12  -890.850471c -5.16  -3.36    +55.7913
iter:  57 22:34:53  -890.849635c -5.47  -3.39    +55.7804
iter:  58 22:36:34  -890.847344c -5.91  -3.45    +55.7561
iter:  59 22:38:16  -890.848272c -6.00  -3.54    +55.7276
iter:  60 22:39:57  -890.848358c -6.07  -3.53    +55.7224
iter:  61 22:41:39  -890.849290c -5.85  -3.55    +55.7094
iter:  62 22:43:20  -890.852530c -5.31  -3.54    +55.6917
iter:  63 22:45:01  -890.850694c -5.35  -3.45    +55.6743
iter:  64 22:46:43  -890.851251c -5.40  -3.54    +55.6639
iter:  65 22:48:24  -890.850612c -5.63  -3.56    +55.6656
iter:  66 22:50:05  -890.849700c -5.77  -3.60    +55.6344
iter:  67 22:51:46  -890.849133c -6.25  -3.70    +55.6177
iter:  68 22:53:28  -890.849301c -6.74  -3.80    +55.6087
iter:  69 22:55:11  -890.849764c -6.50  -3.84    +55.6001
iter:  70 22:56:52  -890.850607c -5.77  -3.84    +55.5908
iter:  71 22:58:34  -890.849909c -6.09  -3.68    +55.5791
iter:  72 23:00:15  -890.850403c -6.10  -4.09c   +55.5731
iter:  73 23:01:57  -890.850085c -6.32  -3.89    +55.5685
iter:  74 23:03:38  -890.850042c -6.70  -4.09c   +55.5516
iter:  75 23:05:19  -890.850130c -7.08  -4.27c   +55.5426
iter:  76 23:07:00  -890.850273c -7.37  -4.29c   +55.5361
iter:  77 23:08:41  -890.850503c -7.05  -4.32c   +55.5211
iter:  78 23:10:22  -890.852024c -5.54  -4.31c   +55.4153
iter:  79 23:12:03  -890.852320c -6.26  -4.08c   +55.3915
iter:  80 23:13:44  -890.852127c -6.92  -4.08c   +55.3961
iter:  81 23:15:26  -890.852213c -7.06  -4.12c   +55.3836
iter:  82 23:17:07  -890.852257c -7.25  -4.15c   +55.3768
iter:  83 23:18:48  -890.852288c -6.10  -4.16c   +55.3688
iter:  84 23:20:30  -890.852354c -6.47  -3.96    +55.3657
iter:  85 23:22:11  -890.852265c -6.63  -4.18c   +55.3567
iter:  86 23:23:52  -890.852154c -6.83  -4.09c   +55.3577
iter:  87 23:25:33  -890.852225c -7.04  -4.24c   +55.3531
iter:  88 23:27:14  -890.852257c -7.35  -4.29c   +55.3509
iter:  89 23:28:56  -890.852215c -7.34  -4.33c   +55.3472
iter:  90 23:30:38  -890.852206c -7.03  -4.42c   +55.3417
iter:  91 23:32:19  -890.852268c -7.04  -4.35c   +55.3416
iter:  92 23:34:01  -890.852297c -7.19  -4.35c   +55.3396
iter:  93 23:35:42  -890.852215c -7.14  -4.51c   +55.3387
iter:  94 23:37:22  -890.852214c -7.42c -4.40c   +55.3362

Converged after 94 iterations.

Dipole moment: (6.591941, -2.167932, 0.747814) |e|*Ang

Total magnetic moment: (0.000000, 0.000000, 55.336241)
Local magnetic moments:
   0 Co ( 0.000000,  0.000000,  0.344087)
   1 Fe ( 0.000000,  0.000000,  1.595928)
   2 Fe ( 0.000000,  0.000000,  2.245966)
   3 Co ( 0.000000,  0.000000,  1.260574)
   4 Co ( 0.000000,  0.000000,  1.152822)
   5 Fe ( 0.000000,  0.000000,  2.347583)
   6 Ni ( 0.000000,  0.000000,  0.568267)
   7 Co ( 0.000000,  0.000000,  1.057650)
   8 Co ( 0.000000,  0.000000,  0.956815)
   9 Fe ( 0.000000,  0.000000,  1.809642)
  10 Cr ( 0.000000,  0.000000,  0.189315)
  11 Cr ( 0.000000,  0.000000, -1.082703)
  12 Fe ( 0.000000,  0.000000,  2.030195)
  13 Ni ( 0.000000,  0.000000,  0.117981)
  14 Co ( 0.000000,  0.000000,  1.187568)
  15 Cr ( 0.000000,  0.000000, -1.593920)
  16 Cr ( 0.000000,  0.000000, -1.668107)
  17 Fe ( 0.000000,  0.000000,  1.853984)
  18 Ni ( 0.000000,  0.000000,  0.290366)
  19 Fe ( 0.000000,  0.000000,  2.127490)
  20 Cr ( 0.000000,  0.000000, -1.054196)
  21 Ni ( 0.000000,  0.000000,  0.166461)
  22 Fe ( 0.000000,  0.000000,  1.070615)
  23 Cr ( 0.000000,  0.000000, -1.149678)
  24 Ni ( 0.000000,  0.000000,  0.134554)
  25 Ni ( 0.000000,  0.000000,  0.187230)
  26 Fe ( 0.000000,  0.000000,  2.145359)
  27 Cr ( 0.000000,  0.000000, -1.593711)
  28 Fe ( 0.000000,  0.000000,  2.051884)
  29 Co ( 0.000000,  0.000000,  1.291809)
  30 Cr ( 0.000000,  0.000000, -1.831705)
  31 Ni ( 0.000000,  0.000000,  0.266668)
  32 Co ( 0.000000,  0.000000,  1.023115)
  33 Fe ( 0.000000,  0.000000,  2.226694)
  34 Ni ( 0.000000,  0.000000,  0.092492)
  35 Cr ( 0.000000,  0.000000, -1.546192)
  36 Cr ( 0.000000,  0.000000, -0.856481)
  37 Fe ( 0.000000,  0.000000,  1.733832)
  38 Cr ( 0.000000,  0.000000, -1.272858)
  39 Co ( 0.000000,  0.000000,  1.083732)
  40 Co ( 0.000000,  0.000000,  1.303911)
  41 Fe ( 0.000000,  0.000000,  2.096368)
  42 Fe ( 0.000000,  0.000000,  2.464397)
  43 Co ( 0.000000,  0.000000,  1.123454)
  44 Ni ( 0.000000,  0.000000,  0.309309)
  45 Cr ( 0.000000,  0.000000, -0.257025)
  46 Fe ( 0.000000,  0.000000,  2.056003)
  47 Cr ( 0.000000,  0.000000, -0.344442)
  48 Ni ( 0.000000,  0.000000,  0.243893)
  49 Co ( 0.000000,  0.000000,  0.428725)
  50 Cr ( 0.000000,  0.000000, -1.594173)
  51 Fe ( 0.000000,  0.000000,  2.053526)
  52 Co ( 0.000000,  0.000000,  1.096933)
  53 Fe ( 0.000000,  0.000000,  1.876581)
  54 Cr ( 0.000000,  0.000000, -1.570447)
  55 Fe ( 0.000000,  0.000000,  2.074742)
  56 Cr ( 0.000000,  0.000000, -0.816762)
  57 Ni ( 0.000000,  0.000000,  0.189981)
  58 Ni ( 0.000000,  0.000000,  0.132324)
  59 Cr ( 0.000000,  0.000000,  0.155887)
[...]
  93 Ni ( 0.000000,  0.000000,  0.145718)
  94 Co ( 0.000000,  0.000000,  0.878956)
  95 Ni ( 0.000000,  0.000000,  0.100161)
  96 Cr ( 0.000000,  0.000000, -1.016691)
  97 Fe ( 0.000000,  0.000000,  1.790544)
  98 Co ( 0.000000,  0.000000,  1.192563)
  99 Fe ( 0.000000,  0.000000,  1.516169)
 100 Fe ( 0.000000,  0.000000,  2.010887)
 101 Co ( 0.000000,  0.000000,  0.844745)
 102 Cr ( 0.000000,  0.000000, -1.534696)
 103 Co ( 0.000000,  0.000000,  1.036941)
 104 Cr ( 0.000000,  0.000000, -1.526011)
 105 Fe ( 0.000000,  0.000000,  2.067220)
 106 Co ( 0.000000,  0.000000,  1.012032)
 107 Ni ( 0.000000,  0.000000,  0.255098)

Energy contributions relative to reference atoms: (reference = -3846758.590871)

Kinetic:       +107.313206
Potential:     -176.970144
External:        +0.000000
XC:            -859.043933
Entropy (-ST):   -4.617119
Local:          +40.157217
Free energy:   -893.160774
Extrapolated:  -890.852214

Spin contamination: 34.850801 electrons
Showing only first 2 kpts
                      Up                     Down
 Kpt  Band  Eigenvalues  Occupancy  Eigenvalues  Occupancy
  0   524      9.85560    0.99331     10.65788    0.04645
  0   525      9.87171    0.99215     10.66863    0.04191
  0   526      9.88142    0.99136     10.67872    0.03805
  0   527      9.90161    0.98945     10.69459    0.03264

  1   524      9.86744    0.99248     10.66432    0.04368
  1   525      9.87726    0.99171     10.67948    0.03777
  1   526      9.89568    0.99005     10.68741    0.03499
  1   527      9.90843    0.98871     10.69707    0.03187

Fermi level: 10.35570

No gap

Forces in eV/Ang:
  0 Co    0.00187    0.01938   -0.02695
  1 Fe    0.16935    0.39115    0.04151
  2 Fe   -0.13576   -0.15509   -0.03307
  3 Co    0.14527   -0.08686   -0.04617
  4 Co   -0.08180   -0.19956   -0.06697
  5 Fe    0.19162    0.16596   -0.04447
  6 Ni    0.00073    0.19663    0.03713
  7 Co   -0.07940    0.12382    0.07575
  8 Co    0.02020    0.02732    0.08735
  9 Fe   -0.41046   -0.06164   -0.03588
 10 Cr    0.12784    0.17613    0.23310
 11 Cr    0.09769   -0.25041   -0.17099
 12 Fe    0.16289    0.15480    0.00041
 13 Ni   -0.19198   -0.22700    0.02931
 14 Co   -0.14286   -0.05270   -0.14688
 15 Cr   -0.20017    0.33565   -0.03702
 16 Cr    0.15868   -0.36146    0.02722
 17 Fe   -0.00367   -0.43448    0.01833
 18 Ni   -0.12610   -0.08091    0.07127
 19 Fe    0.09586   -0.18508    0.00956
 20 Cr   -0.27353   -0.02872    0.11944
 21 Ni    0.13007    0.06380   -0.17609
 22 Fe    0.06040    0.02783   -0.09664
 23 Cr   -0.04329    0.15716   -0.12189
 24 Ni   -0.00587   -0.20084    0.01002
 25 Ni    0.12569   -0.02256   -0.03461
 26 Fe   -0.01277    0.26276   -0.12085
 27 Cr    0.16290   -0.09956    0.01187
 28 Fe    0.01743    0.31018   -0.16843
 29 Co   -0.06078    0.21549    0.08252
 30 Cr   -0.20555   -0.07356   -0.20901
 31 Ni   -0.22832    0.11490    0.08915
 32 Co    0.11484    0.00128   -0.19060
 33 Fe   -0.00097   -0.05627   -0.21262
 34 Ni    0.01606   -0.01726    0.02364
 35 Cr    0.07361    0.04112   -0.38363
 36 Cr    0.02901   -0.41725   -0.18480
 37 Fe    0.30701    0.17831    0.03904
 38 Cr    0.47036    0.13916   -0.09113
 39 Co    0.00318    0.14792    0.07998
 40 Co   -0.07875   -0.29194   -0.07551
 41 Fe   -0.25688    0.05462    0.09459
 42 Fe    0.05539   -0.04623    0.10897
 43 Co    0.03157    0.08499    0.02998
 44 Ni   -0.17747    0.00118   -0.02517
 45 Cr    0.02358    0.05377    0.09316
 46 Fe   -0.00893   -0.31339   -0.02363
 47 Cr    0.09648    0.47897   -0.13187
 48 Ni   -0.10333    0.12113   -0.10121
 49 Co    0.21590   -0.08226    0.18704
 50 Cr    0.47163   -0.09068   -0.17757
 51 Fe   -0.05618   -0.15808    0.17491
 52 Co    0.03447   -0.04133   -0.09627
 53 Fe   -0.17207   -0.16624    0.08809
 54 Cr   -0.46605   -0.22195    0.12078
 55 Fe    0.12184   -0.01741    0.07812
 56 Cr    0.25435   -0.21520   -0.61859
 57 Ni    0.01816   -0.07383   -0.06515
 58 Ni    0.14622    0.07958    0.02094
 59 Cr    0.18591   -0.34137    0.02768
[...]
 93 Ni    0.14846    0.10398    0.18353
 94 Co    0.26779    0.13188    0.34961
 95 Ni    0.17354    0.18652    0.01073
 96 Cr   -0.29866   -0.46185    0.32130
 97 Fe    0.12649   -0.15929    0.12534
 98 Co   -0.18953    0.02369    0.02156
 99 Fe    0.21935    0.22754    0.09163
100 Fe   -0.17016    0.21657    0.34081
101 Co   -0.23064    0.16133   -0.13729
102 Cr   -0.11719    0.18937    0.41834
103 Co   -0.14364   -0.01251   -0.12303
104 Cr    0.36818    0.23790   -0.10696
105 Fe    0.00373   -0.19411    0.16635
106 Co    0.05150   -0.19731   -0.14668
107 Ni   -0.05389   -0.05328   -0.09461

Date: Sat Apr 15 23:37:41 2023