User:   c.zeng@d0053
Date:   Fri Apr 14 04:08:00 2023
Arch:   x86_64
Pid:    206213
CWD:    /home/c.zeng/projects/hea-corrosion/hea-mlp/data-curation/bulk-md/dft-jobs/92
Python: 3.8.1
gpaw:   /home/c.zeng/usr/installs/gpaw/source/gpaw-22.8.0/gpaw
_gpaw:  /home/c.zeng/usr/installs/gpaw/source/gpaw-22.8.0/
        _gpaw.cpython-38-x86_64-linux-gnu.so
ase:    /home/c.zeng/.local/lib/python3.8/site-packages/ase-3.22.1-py3.8.egg/ase (version 3.22.1)
numpy:  /shared/centos7/python/3.8.1/lib/python3.8/site-packages/numpy (version 1.17.4)
scipy:  /shared/centos7/python/3.8.1/lib/python3.8/site-packages/scipy (version 1.4.1)
units:  Angstrom and eV
cores: 30
OpenMP: False
OMP_NUM_THREADS: 1

Input parameters:
  convergence: {energy: 0.0001}
  kpts: [2 2 2]
  maxiter: 666
  mode: {ecut: 350.0,
         name: pw}
  occupations: {fixmagmom: False,
                name: fermi-dirac,
                width: 0.1}
  spinpol: True
  xc: PBE

System changes: positions, numbers, cell, pbc, initial_charges, initial_magmoms

Initialize ...

species:
  Al:
    name: Aluminium
    id: 0292cae29f5d6237e50f6abdd43a7bdd
    Z: 13.0
    valence: 3
    core: 10
    charge: 0.0
    file: /home/c.zeng/usr/data/gpaw-setups-0.9.20000/Al.PBE.gz
    compensation charges: {type: gauss,
                           rc: 0.34,
                           lmax: 2}
    cutoffs: {filter: 1.91,
              core: 2.36}
    valence states:
      #              energy  rcut
      - 3s(2.00)    -7.753   1.085
      - 3p(1.00)    -2.712   1.085
      -  s          19.459   1.085
      -  p          24.499   1.085
      -  d           0.000   1.085

    # Using partial waves for Al as LCAO basis

  Fe:
    name: Iron
    id: 37abbd8d6c3c35915a9b583b742da910
    Z: 26.0
    valence: 8
    core: 18
    charge: 0.0
    file: /home/c.zeng/usr/data/gpaw-setups-0.9.20000/Fe.PBE.gz
    compensation charges: {type: gauss,
                           rc: 0.33,
                           lmax: 2}
    cutoffs: {filter: 2.06,
              core: 2.67}
    valence states:
      #              energy  rcut
      - 4s(2.00)    -5.291   1.164
      - 4p(0.00)    -1.326   1.058
      - 3d(6.00)    -7.505   1.058
      -  s          21.920   1.164
      -  p          25.885   1.058
      -  d          19.706   1.058

[...]

  Cr:
    name: Chromium
    id: 33f258bda2ca9f93018e70263a35547b
    Z: 24.0
    valence: 6
    core: 18
    charge: 0.0
    file: /home/c.zeng/usr/data/gpaw-setups-0.9.20000/Cr.PBE.gz
    compensation charges: {type: gauss,
                           rc: 0.35,
                           lmax: 2}
    cutoffs: {filter: 2.14,
              core: 3.04}
    valence states:
      #              energy  rcut
      - 4s(1.00)    -4.007   1.164
      - 4p(0.00)    -0.989   1.217
      - 3d(5.00)    -2.913   1.111
      -  s          23.205   1.164
      -  p          26.223   1.217
      -  d          24.299   1.111

[...]

  Ni:
    name: Nickel
    id: 0d9f38a9d6e76a2886f07bb4381f212b
    Z: 28.0
    valence: 16
    core: 12
    charge: 0.0
    file: /home/c.zeng/usr/data/gpaw-setups-0.9.20000/Ni.PBE.gz
    compensation charges: {type: gauss,
                           rc: 0.36,
                           lmax: 2}
    cutoffs: {filter: 2.14,
              core: 1.98}
    valence states:
      #              energy  rcut
      - 4s(2.00)    -5.642   1.164
      - 3p(6.00)   -71.394   1.207
      - 4p(0.00)    -1.226   1.207
      - 3d(8.00)    -8.875   1.138
      -  s          21.570   1.164
      -  d          18.337   1.138

[...]

  Co:
    name: Cobalt
    id: 339d20d5b0b93d2de9531a1bee871d91
    Z: 27.0
    valence: 9
    core: 18
    charge: 0.0
    file: /home/c.zeng/usr/data/gpaw-setups-0.9.20000/Co.PBE.gz
    compensation charges: {type: gauss,
                           rc: 0.32,
                           lmax: 2}
    cutoffs: {filter: 1.87,
              core: 2.55}
    valence states:
      #              energy  rcut
      - 4s(2.00)    -5.469   1.005
      - 4p(0.00)    -1.277   1.058
      - 3d(7.00)    -8.205   1.005
      -  s          21.742   1.005
      -  p          25.934   1.058
      -  d          19.007   1.005

    # Using partial waves for Co as LCAO basis

Reference energy: -3235165.067515  # eV

Spin-polarized calculation.
Magnetic moment: 121.100000

Convergence criteria:
 Maximum [total energy] change in last 3 cyles: 0.0001 eV / electron
 Maximum integral of absolute [dens]ity change: 0.0001 electrons / valence electron
 Maximum integral of absolute [eigenst]ate change: 4e-08 eV^2 / valence electron
 Maximum number of scf [iter]ations: 666
 (Square brackets indicate name in SCF output, whereas a 'c' in
 the SCF output indicates the quantity has converged.)

Symmetries present (total): 1

  ( 1  0  0)
  ( 0  1  0)
  ( 0  0  1)

8 k-points: 2 x 2 x 2 Monkhorst-Pack grid
4 k-points in the irreducible part of the Brillouin zone
       k-points in crystal coordinates                weights
   0:     0.25000000   -0.25000000   -0.25000000          2/8
   1:     0.25000000   -0.25000000    0.25000000          2/8
   2:     0.25000000    0.25000000   -0.25000000          2/8
   3:     0.25000000    0.25000000    0.25000000          2/8

Wave functions: Plane wave expansion
  Cutoff energy: 350.000 eV
  Number of coefficients (min, max): 19084, 19084
  Pulay-stress correction: 0.000000 eV/Ang^3 (de/decut=0.000000)
  Using FFTW library
  ScaLapack parameters: grid=1x1, blocksize=None
  Wavefunction extrapolation:
    Improved wavefunction reuse through dual PAW basis

Occupation numbers: Fermi-Dirac:
  width: 0.1000  # eV

Eigensolver
   Davidson(niter=2)

Densities:
  Coarse grid: 48*48*48 grid
  Fine grid: 96*96*96 grid
  Total Charge: 0.000000

Density mixing:
  Method: difference
  Backend: pulay
  Linear mixing parameter: 0.05
  old densities: 5
  Damping of long wavelength oscillations: 50

Hamiltonian:
  XC and Coulomb potentials evaluated on a 96*96*96 grid
  Using the PBE Exchange-Correlation functional
  External potential:
    NoExternalPotential

XC parameters: PBE with 2 nearest neighbor stencil

Total number of cores used: 30
Parallelization over k-points: 2
Domain decomposition: 5 x 3 x 1

Number of atoms: 108
Number of atomic orbitals: 933
Number of bands in calculation: 624
Number of valence electrons: 912
Bands to converge: occupied

... initialized

Initializing position-dependent things.

Density initialized from atomic densities
Creating initial wave functions:
  624 bands from LCAO basis set

      / |   Cr        CCo      Ni  |
     / Al     Feo        Ni        |
    /   |         Fe       Fel     |
   /    | FeoFe    AlCr    Ni      |
  /    Crr   AlNi     Co Fe  CrCr  |
 *      |      NiCo    CCoNiAl  Al |
 |      |AlFAl    NiFe   NiFeAl  Cr|
 | Cr   |    Cr  Al CCr   AlFe     |
 |   FeCo  Fe Ni     CCr Fe   Cr   |
 |    CoAl  Cr ACri    Ni NiCoNi   |
 |Co   AlCo Al  NCo Co    CrCr     |
 |      .-Ni-----NiNiAl---FFe------.
 |  FeCr    Col Al  Ni  Cr   Ni   /
 |    Ni              Co  Al    Ni
 |   /  Cro     Fe          Fe  /
 |  /     Al        Co       Fee
 | /           Al             /

Positions:
   0 Al    10.638282    0.131827   -0.025571    ( 0.0000,  0.0000,  0.0000)
   1 Fe    10.788705    2.019385    1.712566    ( 0.0000,  0.0000,  2.0000)
   2 Cr     1.636459   10.813647    1.923536    ( 0.0000,  0.0000,  0.0000)
   3 Cr     1.754491    1.790149   -0.267259    ( 0.0000,  0.0000,  0.0000)
   4 Ni     3.704327   10.795248   10.901755    ( 0.0000,  0.0000,  1.5000)
   5 Al     3.307832    1.575453    1.745575    ( 0.0000,  0.0000,  0.0000)
   6 Al     5.441596   10.928526    1.812631    ( 0.0000,  0.0000,  0.0000)
   7 Ni     5.328393    1.835874   10.826233    ( 0.0000,  0.0000,  1.5000)
   8 Fe     7.135141   -0.020258   10.925666    ( 0.0000,  0.0000,  2.0000)
   9 Co     7.027006    1.977728    1.789706    ( 0.0000,  0.0000,  2.1000)
  10 Ni     8.979062   -0.175220    1.695819    ( 0.0000,  0.0000,  1.5000)
  11 Fe     8.953747    2.048616   10.649162    ( 0.0000,  0.0000,  2.0000)
  12 Fe    10.710193    3.869567    0.020764    ( 0.0000,  0.0000,  2.0000)
  13 Co    10.941527    5.560151    1.920281    ( 0.0000,  0.0000,  2.1000)
  14 Cr     1.948971    3.584549    1.472828    ( 0.0000,  0.0000,  0.0000)
  15 Co     1.591416    5.577096   11.052735    ( 0.0000,  0.0000,  2.1000)
  16 Fe     3.691414    3.702364   -0.230343    ( 0.0000,  0.0000,  2.0000)
  17 Al     3.547458    5.300595    1.814756    ( 0.0000,  0.0000,  0.0000)
  18 Fe     5.327696    3.516010    1.528898    ( 0.0000,  0.0000,  2.0000)
  19 Fe     5.332682    5.460544   -0.075884    ( 0.0000,  0.0000,  2.0000)
  20 Cr     7.156419    3.784556   10.729068    ( 0.0000,  0.0000,  0.0000)
  21 Co     6.903854    5.378831    1.640413    ( 0.0000,  0.0000,  2.1000)
  22 Al     8.977965    3.924058    1.807322    ( 0.0000,  0.0000,  0.0000)
  23 Fe     8.894582    5.661316   -0.134050    ( 0.0000,  0.0000,  2.0000)
  24 Ni    10.807903    7.021977    0.060412    ( 0.0000,  0.0000,  1.5000)
  25 Al     0.098688    8.861746    1.924451    ( 0.0000,  0.0000,  0.0000)
  26 Ni     1.724663    7.317546    1.742703    ( 0.0000,  0.0000,  1.5000)
  27 Cr     1.965905    9.134181   10.943693    ( 0.0000,  0.0000,  0.0000)
  28 Fe     3.477806    7.122136   -0.174600    ( 0.0000,  0.0000,  2.0000)
  29 Ni     3.582536    9.144154    1.782652    ( 0.0000,  0.0000,  1.5000)
  30 Ni     5.456802    7.308907    1.770701    ( 0.0000,  0.0000,  1.5000)
  31 Ni     5.386745    8.869254   10.877629    ( 0.0000,  0.0000,  1.5000)
  32 Co     7.170760    7.220400   -0.018599    ( 0.0000,  0.0000,  2.1000)
  33 Cr     7.630367    8.861800    1.891728    ( 0.0000,  0.0000,  0.0000)
  34 Fe     8.889906    6.834760    1.914406    ( 0.0000,  0.0000,  2.0000)
  35 Ni     9.110864    9.091791    0.122862    ( 0.0000,  0.0000,  1.5000)
  36 Fe    -0.093967    0.085478    3.383534    ( 0.0000,  0.0000,  2.0000)
  37 Co    10.889134    1.671076    5.450252    ( 0.0000,  0.0000,  2.1000)
  38 Cr     1.820673   11.060603    5.311561    ( 0.0000,  0.0000,  0.0000)
  39 Ni     1.598981    1.715988    3.409985    ( 0.0000,  0.0000,  1.5000)
  40 Al     3.671530   10.252178    3.764403    ( 0.0000,  0.0000,  0.0000)
  41 Al     3.803511    1.886497    5.512909    ( 0.0000,  0.0000,  0.0000)
  42 Cr     5.912700   10.683260    5.361662    ( 0.0000,  0.0000,  0.0000)
  43 Al     5.448504    2.231542    3.572884    ( 0.0000,  0.0000,  0.0000)
  44 Al     7.359828   10.752887    3.461232    ( 0.0000,  0.0000,  0.0000)
  45 Co     7.347059    1.692448    5.421809    ( 0.0000,  0.0000,  2.1000)
  46 Cr     9.187078    0.124825    5.219030    ( 0.0000,  0.0000,  0.0000)
  47 Ni     8.776513    2.097965    3.644745    ( 0.0000,  0.0000,  1.5000)
  48 Fe     0.221614    3.433705    3.509738    ( 0.0000,  0.0000,  2.0000)
  49 Fe    10.921787    5.341210    5.487890    ( 0.0000,  0.0000,  2.0000)
  50 Al     1.967738    3.634471    5.367326    ( 0.0000,  0.0000,  0.0000)
  51 Co     1.831515    5.500515    3.813709    ( 0.0000,  0.0000,  2.1000)
  52 Co     3.550720    3.422225    3.266819    ( 0.0000,  0.0000,  2.1000)
  53 Ni     3.726062    5.695914    5.652008    ( 0.0000,  0.0000,  1.5000)
  54 Ni     5.377563    3.791947    5.535696    ( 0.0000,  0.0000,  1.5000)
  55 Co     5.202010    5.261285    3.623806    ( 0.0000,  0.0000,  2.1000)
  56 Al     7.164484    3.828277    3.904031    ( 0.0000,  0.0000,  0.0000)
  57 Cr     7.005619    5.488419    5.635449    ( 0.0000,  0.0000,  0.0000)
  58 Ni     9.073432    3.847896    5.487897    ( 0.0000,  0.0000,  1.5000)
  59 Cr     9.434368    5.387521    3.736002    ( 0.0000,  0.0000,  0.0000)
[...]
  93 Co     7.248920    5.346533    9.036616    ( 0.0000,  0.0000,  2.1000)
  94 Ni     9.158599    3.761710    9.166771    ( 0.0000,  0.0000,  1.5000)
  95 Fe     9.019837    5.352817    7.566999    ( 0.0000,  0.0000,  2.0000)
  96 Al    -0.239928    7.134001    7.080542    ( 0.0000,  0.0000,  0.0000)
  97 Al     0.178763    9.053690    9.259395    ( 0.0000,  0.0000,  0.0000)
  98 Fe     1.646731    6.952483    8.980883    ( 0.0000,  0.0000,  2.0000)
  99 Co     1.797731    9.142273    7.337211    ( 0.0000,  0.0000,  2.1000)
 100 Fe     3.748538    7.662605    7.571728    ( 0.0000,  0.0000,  2.0000)
 101 Co     3.375172    9.354972    9.073902    ( 0.0000,  0.0000,  2.1000)
 102 Al     5.461182    7.197441    9.031618    ( 0.0000,  0.0000,  0.0000)
 103 Fe     5.654564    9.114346    7.340978    ( 0.0000,  0.0000,  2.0000)
 104 Co     7.427919    7.345384    7.292108    ( 0.0000,  0.0000,  2.1000)
 105 Ni     7.369840    9.092702    9.286391    ( 0.0000,  0.0000,  1.5000)
 106 Al     9.078723    7.195323    9.181998    ( 0.0000,  0.0000,  0.0000)
 107 Cr     9.119273    8.819399    7.241209    ( 0.0000,  0.0000,  0.0000)

Unit cell:
           periodic     x           y           z      points  spacing
  1. axis:    yes   10.872400    0.000000    0.000000    48     0.2265
  2. axis:    yes    0.000000   10.872400    0.000000    48     0.2265
  3. axis:    yes    0.000000    0.000000   10.872400    48     0.2265

  Lengths:  10.872400  10.872400  10.872400
  Angles:   90.000000  90.000000  90.000000

Effective grid spacing dv^(1/3) = 0.2265

     iter     time        total  log10-change:  magmom
                         energy  eigst   dens
iter:   1 04:10:56  -947.173090                  +121.3864
iter:   2 04:12:05  -842.667781  -0.19  -1.17    +65.6301
iter:   3 04:13:15  -828.654237  -0.86  -1.19    +55.8142
iter:   4 04:14:24  -812.028687  -1.27  -1.25    +52.2172
iter:   5 04:15:33  -802.821951  -1.59  -1.29    +49.8308
iter:   6 04:16:42  -802.445957  -1.32  -1.34    +50.4254
iter:   7 04:17:51  -799.687843  -1.27  -1.41    +49.9163
iter:   8 04:19:01  -790.578111  -1.63  -1.49    +49.5958
iter:   9 04:20:11  -790.010117  -1.96  -1.67    +50.7248
iter:  10 04:21:19  -789.810627  -2.31  -1.73    +51.8282
iter:  11 04:22:28  -790.113551  -2.42  -1.75    +52.9380
iter:  12 04:23:37  -790.282251  -2.38  -1.79    +54.2852
iter:  13 04:24:47  -790.251259  -2.43  -1.83    +54.8855
iter:  14 04:25:56  -789.853144  -2.43  -1.89    +55.2673
iter:  15 04:27:05  -789.640910  -2.75  -1.97    +56.1112
iter:  16 04:28:14  -789.736595  -2.86  -2.02    +56.6175
iter:  17 04:29:24  -789.819938  -2.99  -2.07    +56.9944
iter:  18 04:30:33  -789.992342  -2.91  -2.09    +57.2505
iter:  19 04:31:42  -789.804953  -3.00  -2.13    +57.5579
iter:  20 04:32:51  -789.820753  -3.07  -2.21    +57.5670
iter:  21 04:34:00  -789.736628c -3.18  -2.26    +57.4961
iter:  22 04:35:10  -789.748503c -3.40  -2.33    +57.6144
iter:  23 04:36:19  -789.764316c -3.34  -2.38    +57.5571
iter:  24 04:37:28  -789.789559c -3.56  -2.43    +57.4729
iter:  25 04:38:37  -789.854640c -3.55  -2.48    +57.3854
iter:  26 04:39:46  -789.860791c -3.71  -2.48    +57.3934
iter:  27 04:40:55  -789.893866c -3.72  -2.52    +57.2663
iter:  28 04:42:05  -789.850322c -3.77  -2.55    +57.1456
iter:  29 04:43:14  -789.879927c -3.95  -2.65    +57.0429
iter:  30 04:44:24  -789.900897c -4.10  -2.70    +56.9515
iter:  31 04:45:57  -789.925779c -4.06  -2.71    +56.8824
iter:  32 04:47:39  -789.934576c -4.25  -2.76    +56.7907
iter:  33 04:49:21  -789.951186c -4.22  -2.80    +56.7098
iter:  34 04:51:03  -789.946095c -4.47  -2.83    +56.6753
iter:  35 04:52:45  -789.962860c -4.53  -2.90    +56.5888
iter:  36 04:54:27  -789.973554c -4.56  -2.94    +56.5019
iter:  37 04:56:09  -789.981860c -4.64  -2.95    +56.4328
iter:  38 04:57:51  -789.993440c -4.59  -3.02    +56.3703
iter:  39 04:59:33  -790.003276c -4.62  -3.05    +56.2975
iter:  40 05:01:16  -790.003884c -4.86  -3.07    +56.2520
iter:  41 05:02:59  -790.013304c -4.82  -3.13    +56.1825
iter:  42 05:04:41  -790.017725c -4.98  -3.16    +56.1535
iter:  43 05:06:24  -790.022245c -4.92  -3.17    +56.0775
iter:  44 05:08:07  -790.028048c -4.98  -3.25    +56.0429
iter:  45 05:09:49  -790.034363c -4.98  -3.29    +55.9812
iter:  46 05:11:32  -790.035475c -5.21  -3.30    +55.9505
iter:  47 05:13:14  -790.040723c -5.16  -3.35    +55.9102
iter:  48 05:14:57  -790.043391c -5.28  -3.38    +55.8920
iter:  49 05:16:40  -790.046489c -5.22  -3.39    +55.8381
iter:  50 05:18:22  -790.049119c -5.36  -3.43    +55.8186
iter:  51 05:20:04  -790.053027c -5.33  -3.50    +55.7735
iter:  52 05:21:47  -790.059647c -4.98  -3.53    +55.6914
iter:  53 05:23:29  -790.064036c -5.15  -3.52    +55.6531
iter:  54 05:25:12  -790.076343c -4.49  -3.53    +55.5353
iter:  55 05:26:55  -790.093533c -4.02  -3.43    +55.3883
iter:  56 05:28:37  -790.099149c -4.27  -3.30    +55.3544
iter:  57 05:30:20  -790.100958c -4.81  -3.24    +55.3830
iter:  58 05:32:02  -790.101451c -5.43  -3.24    +55.4052
iter:  59 05:33:45  -790.109021c -5.14  -3.23    +55.4392
iter:  60 05:35:28  -790.105624c -5.42  -3.12    +55.4261
iter:  61 05:37:11  -790.104450c -4.39  -3.17    +55.4695
iter:  62 05:38:54  -790.096688c -4.61  -3.15    +55.4226
iter:  63 05:40:36  -790.095841c -4.81  -3.19    +55.3811
iter:  64 05:42:18  -790.093480c -4.99  -3.22    +55.3545
iter:  65 05:44:01  -790.094069c -5.15  -3.34    +55.3127
iter:  66 05:45:44  -790.090796c -5.41  -3.34    +55.3142
iter:  67 05:47:26  -790.093158c -4.93  -3.48    +55.3094
iter:  68 05:49:09  -790.091390c -5.17  -3.35    +55.3018
iter:  69 05:50:51  -790.090039c -5.44  -3.51    +55.2867
iter:  70 05:52:34  -790.090147c -5.49  -3.57    +55.2879
iter:  71 05:54:16  -790.088887c -5.62  -3.57    +55.2934
iter:  72 05:55:58  -790.088489c -5.92  -3.68    +55.2866
iter:  73 05:57:40  -790.088477c -6.16  -3.78    +55.2831
iter:  74 05:59:22  -790.088096c -6.12  -3.81    +55.2849
iter:  75 06:01:05  -790.088386c -6.06  -3.79    +55.2869
iter:  76 06:02:45  -790.088042c -6.11  -3.82    +55.2839
iter:  77 06:04:28  -790.087918c -6.18  -3.87    +55.2805
iter:  78 06:06:11  -790.087673c -6.13  -3.93    +55.2853
iter:  79 06:07:53  -790.087534c -6.36  -3.90    +55.2864
iter:  80 06:09:36  -790.087625c -6.43  -4.03c   +55.2843
iter:  81 06:11:19  -790.087274c -6.58  -4.05c   +55.2822
iter:  82 06:13:02  -790.087251c -6.85  -4.08c   +55.2840
iter:  83 06:14:44  -790.087118c -7.05  -4.12c   +55.2863
iter:  84 06:16:27  -790.087143c -7.11  -4.18c   +55.2856
iter:  85 06:18:09  -790.087035c -7.23  -4.18c   +55.2861
iter:  86 06:19:52  -790.086925c -7.27  -4.22c   +55.2870
iter:  87 06:21:34  -790.087061c -6.91  -4.23c   +55.2885
iter:  88 06:23:15  -790.086925c -6.81  -4.21c   +55.2878
iter:  89 06:24:58  -790.086897c -6.79  -4.21c   +55.2870
iter:  90 06:26:40  -790.086764c -6.83  -4.29c   +55.2894
iter:  91 06:28:23  -790.086794c -6.91  -4.31c   +55.2892
iter:  92 06:30:05  -790.086810c -7.13  -4.36c   +55.2875
iter:  93 06:31:48  -790.086675c -7.47c -4.45c   +55.2863

Converged after 93 iterations.

Dipole moment: (24.232038, 23.330998, 36.205443) |e|*Ang

Total magnetic moment: (0.000000, 0.000000, 55.286325)
Local magnetic moments:
   0 Al ( 0.000000,  0.000000, -0.012594)
   1 Fe ( 0.000000,  0.000000,  2.141873)
   2 Cr ( 0.000000,  0.000000,  0.878952)
   3 Cr ( 0.000000,  0.000000,  1.498871)
   4 Ni ( 0.000000,  0.000000,  0.172047)
   5 Al ( 0.000000,  0.000000, -0.007415)
   6 Al ( 0.000000,  0.000000, -0.007011)
   7 Ni ( 0.000000,  0.000000,  0.347147)
   8 Fe ( 0.000000,  0.000000,  2.540883)
   9 Co ( 0.000000,  0.000000,  0.898623)
  10 Ni ( 0.000000,  0.000000,  0.146645)
  11 Fe ( 0.000000,  0.000000,  2.212735)
  12 Fe ( 0.000000,  0.000000,  1.967585)
  13 Co ( 0.000000,  0.000000,  1.235139)
  14 Cr ( 0.000000,  0.000000, -1.650796)
  15 Co ( 0.000000,  0.000000,  0.876510)
  16 Fe ( 0.000000,  0.000000,  1.872658)
  17 Al ( 0.000000,  0.000000, -0.034132)
  18 Fe ( 0.000000,  0.000000,  2.216062)
  19 Fe ( 0.000000,  0.000000,  2.036299)
  20 Cr ( 0.000000,  0.000000, -1.655083)
  21 Co ( 0.000000,  0.000000,  1.115858)
  22 Al ( 0.000000,  0.000000, -0.034976)
  23 Fe ( 0.000000,  0.000000,  1.720498)
  24 Ni ( 0.000000,  0.000000,  0.186616)
  25 Al ( 0.000000,  0.000000, -0.008355)
  26 Ni ( 0.000000,  0.000000,  0.287922)
  27 Cr ( 0.000000,  0.000000, -1.579471)
  28 Fe ( 0.000000,  0.000000,  2.483547)
  29 Ni ( 0.000000,  0.000000,  0.199250)
  30 Ni ( 0.000000,  0.000000,  0.301837)
  31 Ni ( 0.000000,  0.000000,  0.374978)
  32 Co ( 0.000000,  0.000000,  1.293716)
  33 Cr ( 0.000000,  0.000000, -1.832056)
  34 Fe ( 0.000000,  0.000000,  2.020899)
  35 Ni ( 0.000000,  0.000000,  0.071598)
  36 Fe ( 0.000000,  0.000000,  1.645781)
  37 Co ( 0.000000,  0.000000,  0.805349)
  38 Cr ( 0.000000,  0.000000, -2.329788)
  39 Ni ( 0.000000,  0.000000,  0.248748)
  40 Al ( 0.000000,  0.000000, -0.008850)
  41 Al ( 0.000000,  0.000000,  0.004068)
  42 Cr ( 0.000000,  0.000000, -1.630084)
  43 Al ( 0.000000,  0.000000, -0.016768)
  44 Al ( 0.000000,  0.000000, -0.004859)
  45 Co ( 0.000000,  0.000000,  0.310171)
  46 Cr ( 0.000000,  0.000000, -1.428591)
  47 Ni ( 0.000000,  0.000000,  0.173693)
  48 Fe ( 0.000000,  0.000000,  2.393629)
  49 Fe ( 0.000000,  0.000000,  1.558360)
  50 Al ( 0.000000,  0.000000, -0.027187)
  51 Co ( 0.000000,  0.000000,  1.313868)
  52 Co ( 0.000000,  0.000000,  0.526937)
  53 Ni ( 0.000000,  0.000000,  0.385556)
  54 Ni ( 0.000000,  0.000000,  0.014498)
  55 Co ( 0.000000,  0.000000,  1.073928)
  56 Al ( 0.000000,  0.000000, -0.004214)
  57 Cr ( 0.000000,  0.000000, -1.594753)
  58 Ni ( 0.000000,  0.000000,  0.042201)
  59 Cr ( 0.000000,  0.000000, -1.346889)
[...]
  93 Co ( 0.000000,  0.000000,  0.966146)
  94 Ni ( 0.000000,  0.000000,  0.317108)
  95 Fe ( 0.000000,  0.000000,  1.803280)
  96 Al ( 0.000000,  0.000000, -0.030940)
  97 Al ( 0.000000,  0.000000, -0.010113)
  98 Fe ( 0.000000,  0.000000,  1.821311)
  99 Co ( 0.000000,  0.000000,  1.238550)
 100 Fe ( 0.000000,  0.000000,  2.170637)
 101 Co ( 0.000000,  0.000000,  1.065193)
 102 Al ( 0.000000,  0.000000, -0.046717)
 103 Fe ( 0.000000,  0.000000,  2.417092)
 104 Co ( 0.000000,  0.000000,  0.808076)
 105 Ni ( 0.000000,  0.000000,  0.462096)
 106 Al ( 0.000000,  0.000000, -0.026467)
 107 Cr ( 0.000000,  0.000000,  1.242651)

Energy contributions relative to reference atoms: (reference = -3235165.067515)

Kinetic:       +475.931041
Potential:     -422.771206
External:        +0.000000
XC:            -872.286411
Entropy (-ST):   -3.969916
Local:          +31.024859
Free energy:   -792.071633
Extrapolated:  -790.086675

Spin contamination: 26.515101 electrons
Showing only first 2 kpts
                      Up                     Down
 Kpt  Band  Eigenvalues  Occupancy  Eigenvalues  Occupancy
  0   454      9.01688    0.99605      9.93323    0.02575
  0   455      9.04078    0.99499      9.94173    0.02370
  0   456      9.05495    0.99423      9.96188    0.01946
  0   457      9.07266    0.99312      9.97187    0.01764

  1   454      9.03384    0.99532      9.92731    0.02728
  1   455      9.05171    0.99441      9.93566    0.02515
  1   456      9.07097    0.99324      9.94628    0.02267
  1   457      9.08486    0.99224      9.96982    0.01800

Fermi level: 9.56991

No gap

Forces in eV/Ang:
  0 Al    0.90491   -0.23353    1.78962
  1 Fe   -0.60512   -0.84052   -0.86900
  2 Cr   -0.02472   -1.32598   -0.84984
  3 Cr   -0.03262    0.15132    0.42895
  4 Ni   -0.37369    0.95696   -0.30006
  5 Al    1.81659    1.00132   -0.38948
  6 Al   -0.21781   -0.81119   -0.88411
  7 Ni    0.54209   -0.54282   -0.70060
  8 Fe    0.91229    0.31835   -0.47598
  9 Co    1.43791   -0.42017   -0.17747
 10 Ni    0.55940    2.53467    1.11554
 11 Fe   -1.02543   -1.10555    2.23609
 12 Fe    0.76215   -0.74717    0.63969
 13 Co    0.28401   -1.10665    0.01681
 14 Cr   -2.22685   -0.49062    0.08490
 15 Co    2.23165   -1.44878   -1.12785
 16 Fe   -0.45343    0.21692    0.50213
 17 Al    0.66863    2.18098   -0.33368
 18 Fe   -0.24066    0.92341    0.76621
 19 Fe    0.18731    0.18090   -0.28359
 20 Cr    0.11090   -0.99258    0.11729
 21 Co    0.77117    0.00578    1.12641
 22 Al   -0.22597   -0.97218   -0.55526
 23 Fe   -0.24710   -2.60693    1.99551
 24 Ni   -0.38020    2.24696   -0.31566
 25 Al   -0.64048   -0.09139   -2.04822
 26 Ni    1.75355   -0.54024    1.01495
 27 Cr   -0.54596   -0.21095    0.15892
 28 Fe   -0.15083    0.74699    0.38305
 29 Ni    0.53360   -1.26039    0.34336
 30 Ni   -0.82508   -0.92021   -0.12328
 31 Ni   -0.04921    1.07716   -0.25574
 32 Co    0.17066    0.03647    0.43286
 33 Cr   -1.80970   -0.79622   -0.76367
 34 Fe    0.75211    0.67394   -0.35640
 35 Ni    0.51997   -1.65509   -1.44359
 36 Fe   -0.23412    0.13263    0.64734
 37 Co   -0.11961    1.19319   -0.80043
 38 Cr   -1.31293   -0.80545    1.21256
 39 Ni    1.92699    0.33651    1.25034
 40 Al    0.10483    2.49221   -1.61977
 41 Al   -1.73893   -1.84460   -1.84668
 42 Cr   -2.60185   -0.38612    0.74615
 43 Al    0.08821   -2.32299    0.60824
 44 Al    1.62791    1.68431   -0.00022
 45 Co   -0.13671    0.58711   -0.33369
 46 Cr   -0.05762   -0.24149    0.70001
 47 Ni    1.66493   -0.45808   -1.18294
 48 Fe   -1.41948    2.09789    0.69890
 49 Fe    0.19705   -0.24163   -0.18984
 50 Al   -0.36432   -0.60585   -1.00391
 51 Co    1.07169   -0.40498   -0.67577
 52 Co   -1.07852    0.48210    1.53188
 53 Ni    0.23438   -0.61841    0.06054
 54 Ni    0.64889   -0.84249   -1.00441
 55 Co    0.61057    0.74165   -0.34935
 56 Al    1.61561    0.77497   -1.27216
 57 Cr    1.47944    2.08623   -0.49072
 58 Ni   -0.31318   -0.97858    0.49883
 59 Cr   -1.62711    0.07934    0.35213
[...]
 93 Co   -0.53592    0.46712   -0.29608
 94 Ni   -1.59223   -1.37832   -1.22415
 95 Fe   -0.47651    0.25589   -3.09464
 96 Al    2.36045   -1.10436    0.66594
 97 Al   -2.08318   -1.99311   -0.99739
 98 Fe    0.35021    1.44517    0.16557
 99 Co   -0.99376    0.01729   -0.70025
100 Fe   -0.99423   -0.88348   -1.43040
101 Co    1.11262   -0.96359    0.29037
102 Al    1.75593    1.25974    1.08713
103 Fe    0.22029    0.47601   -0.44498
104 Co   -0.57831   -1.19165    0.05859
105 Ni   -0.69183   -0.30233   -0.91114
106 Al   -0.68805    2.00712   -0.41094
107 Cr   -0.35910    3.02658    0.34512

Date: Fri Apr 14 06:32:08 2023