User:   c.zeng@d0112
Date:   Sat Apr 15 21:50:22 2023
Arch:   x86_64
Pid:    241233
CWD:    /home/c.zeng/projects/hea-corrosion/hea-mlp/data-curation/bulk-mcmc/dft-jobs/87
Python: 3.8.1
gpaw:   /home/c.zeng/usr/installs/gpaw/source/gpaw-22.8.0/gpaw
_gpaw:  /home/c.zeng/usr/installs/gpaw/source/gpaw-22.8.0/
        _gpaw.cpython-38-x86_64-linux-gnu.so
ase:    /home/c.zeng/.local/lib/python3.8/site-packages/ase-3.22.1-py3.8.egg/ase (version 3.22.1)
numpy:  /home/c.zeng/.local/lib/python3.8/site-packages/numpy (version 1.24.2)
scipy:  /home/c.zeng/.local/lib/python3.8/site-packages/scipy (version 1.10.1)
units:  Angstrom and eV
cores: 30
OpenMP: False
OMP_NUM_THREADS: 1

Input parameters:
  convergence: {energy: 0.0001}
  kpts: [2 2 2]
  maxiter: 666
  mode: {ecut: 350.0,
         name: pw}
  occupations: {fixmagmom: False,
                name: fermi-dirac,
                width: 0.1}
  spinpol: True
  xc: PBE

System changes: positions, numbers, cell, pbc, initial_charges, initial_magmoms

Initialize ...

species:
  Ni:
    name: Nickel
    id: 0d9f38a9d6e76a2886f07bb4381f212b
    Z: 28.0
    valence: 16
    core: 12
    charge: 0.0
    file: /home/c.zeng/usr/data/gpaw-setups-0.9.20000/Ni.PBE.gz
    compensation charges: {type: gauss,
                           rc: 0.36,
                           lmax: 2}
    cutoffs: {filter: 2.14,
              core: 1.98}
    valence states:
      #              energy  rcut
      - 4s(2.00)    -5.642   1.164
      - 3p(6.00)   -71.394   1.207
      - 4p(0.00)    -1.226   1.207
      - 3d(8.00)    -8.875   1.138
      -  s          21.570   1.164
      -  d          18.337   1.138

    # Using partial waves for Ni as LCAO basis

  Cr:
    name: Chromium
    id: 33f258bda2ca9f93018e70263a35547b
    Z: 24.0
    valence: 6
    core: 18
    charge: 0.0
    file: /home/c.zeng/usr/data/gpaw-setups-0.9.20000/Cr.PBE.gz
    compensation charges: {type: gauss,
                           rc: 0.35,
                           lmax: 2}
    cutoffs: {filter: 2.14,
              core: 3.04}
    valence states:
      #              energy  rcut
      - 4s(1.00)    -4.007   1.164
      - 4p(0.00)    -0.989   1.217
      - 3d(5.00)    -2.913   1.111
      -  s          23.205   1.164
      -  p          26.223   1.217
      -  d          24.299   1.111

[...]

  Fe:
    name: Iron
    id: 37abbd8d6c3c35915a9b583b742da910
    Z: 26.0
    valence: 8
    core: 18
    charge: 0.0
    file: /home/c.zeng/usr/data/gpaw-setups-0.9.20000/Fe.PBE.gz
    compensation charges: {type: gauss,
                           rc: 0.33,
                           lmax: 2}
    cutoffs: {filter: 2.06,
              core: 2.67}
    valence states:
      #              energy  rcut
      - 4s(2.00)    -5.291   1.164
      - 4p(0.00)    -1.326   1.058
      - 3d(6.00)    -7.505   1.058
      -  s          21.920   1.164
      -  p          25.885   1.058
      -  d          19.706   1.058

[...]

  Co:
    name: Cobalt
    id: 339d20d5b0b93d2de9531a1bee871d91
    Z: 27.0
    valence: 9
    core: 18
    charge: 0.0
    file: /home/c.zeng/usr/data/gpaw-setups-0.9.20000/Co.PBE.gz
    compensation charges: {type: gauss,
                           rc: 0.32,
                           lmax: 2}
    cutoffs: {filter: 1.87,
              core: 2.55}
    valence states:
      #              energy  rcut
      - 4s(2.00)    -5.469   1.005
      - 4p(0.00)    -1.277   1.058
      - 3d(7.00)    -8.205   1.005
      -  s          21.742   1.005
      -  p          25.934   1.058
      -  d          19.007   1.005

[...]

  Al:
    name: Aluminium
    id: 0292cae29f5d6237e50f6abdd43a7bdd
    Z: 13.0
    valence: 3
    core: 10
    charge: 0.0
    file: /home/c.zeng/usr/data/gpaw-setups-0.9.20000/Al.PBE.gz
    compensation charges: {type: gauss,
                           rc: 0.34,
                           lmax: 2}
    cutoffs: {filter: 1.91,
              core: 2.36}
    valence states:
      #              energy  rcut
      - 3s(2.00)    -7.753   1.085
      - 3p(1.00)    -2.712   1.085
      -  s          19.459   1.085
      -  p          24.499   1.085
      -  d           0.000   1.085

    # Using partial waves for Al as LCAO basis

Reference energy: -3699400.456887  # eV

Spin-polarized calculation.
Magnetic moment: 143.500000

Convergence criteria:
 Maximum [total energy] change in last 3 cyles: 0.0001 eV / electron
 Maximum integral of absolute [dens]ity change: 0.0001 electrons / valence electron
 Maximum integral of absolute [eigenst]ate change: 4e-08 eV^2 / valence electron
 Maximum number of scf [iter]ations: 666
 (Square brackets indicate name in SCF output, whereas a 'c' in
 the SCF output indicates the quantity has converged.)

Symmetries present (total): 1

  ( 1  0  0)
  ( 0  1  0)
  ( 0  0  1)

8 k-points: 2 x 2 x 2 Monkhorst-Pack grid
4 k-points in the irreducible part of the Brillouin zone
       k-points in crystal coordinates                weights
   0:     0.25000000   -0.25000000   -0.25000000          2/8
   1:     0.25000000   -0.25000000    0.25000000          2/8
   2:     0.25000000    0.25000000   -0.25000000          2/8
   3:     0.25000000    0.25000000    0.25000000          2/8

Wave functions: Plane wave expansion
  Cutoff energy: 350.000 eV
  Number of coefficients (min, max): 18052, 18052
  Pulay-stress correction: 0.000000 eV/Ang^3 (de/decut=0.000000)
  Using FFTW library
  ScaLapack parameters: grid=1x1, blocksize=None
  Wavefunction extrapolation:
    Improved wavefunction reuse through dual PAW basis

Occupation numbers: Fermi-Dirac:
  width: 0.1000  # eV

Eigensolver
   Davidson(niter=2)

Densities:
  Coarse grid: 48*48*48 grid
  Fine grid: 96*96*96 grid
  Total Charge: 0.000000

Density mixing:
  Method: difference
  Backend: pulay
  Linear mixing parameter: 0.05
  old densities: 5
  Damping of long wavelength oscillations: 50

Hamiltonian:
  XC and Coulomb potentials evaluated on a 96*96*96 grid
  Using the PBE Exchange-Correlation functional
  External potential:
    NoExternalPotential

XC parameters: PBE with 2 nearest neighbor stencil

Total number of cores used: 30
Parallelization over k-points: 2
Domain decomposition: 5 x 3 x 1

Number of atoms: 108
Number of atomic orbitals: 1025
Number of bands in calculation: 703
Number of valence electrons: 1020
Bands to converge: occupied

... initialized

Initializing position-dependent things.

Density initialized from atomic densities
Creating initial wave functions:
  703 bands from LCAO basis set

        Ni------------------------.
       /|  Co                Co   |
      Ni|   Cr         Cr         |
     / Fe      Fe       Al        |
    /   CCo      Ni       Fe      |
   /e   | CoNi     CoAl    CrNi   |
  /  FeCr  NiCo     CrNiCo        |
 *    FeFe  FeCoNi     CoAl       |
 |     CoFeCr  CoFe Ni  CrFeNi    |
 | Fe   NiNiCrCo CrCrNiFe  Ni     |
 |   CoCr  CrAlCr   CrCrCr   Fe   |
 |    FeNi  FeFeCoCr CoFeCr   Ni  |
 |     CrFeFe  Cr NiNi  CoFeFe    |
 |      .-CoNiCo-FeCrNiCo--CoNi---.
 |   NiCo    CoAl   CrCrFe       /
 |    / Cr    NiFe       Ni     /
 |   /            Ni           /
 |Cr/      Co       Co        /
 |/            Ni           /
 *----------------Cr-------*

Positions:
   0 Ni     0.005316   -0.016350   10.639749    ( 0.0000,  0.0000,  0.0000)
   1 Cr    10.672340    1.801276    1.786848    ( 0.0000,  0.0000,  0.0000)
   2 Fe     1.795727   10.625972    1.782259    ( 0.0000,  0.0000,  0.0000)
   3 Cr     1.780787    1.796175   10.644605    ( 0.0000,  0.0000,  2.1000)
   4 Fe     3.523539   -0.014558    0.017268    ( 0.0000,  0.0000,  2.0000)
   5 Co     3.522568    1.781672    1.746648    ( 0.0000,  0.0000,  0.0000)
   6 Co     5.320952   10.642342    1.763136    ( 0.0000,  0.0000,  1.5000)
   7 Ni     5.342082    1.828767    0.007462    ( 0.0000,  0.0000,  2.0000)
   8 Cr     7.144895    0.019195    0.012033    ( 0.0000,  0.0000,  0.0000)
   9 Co     7.143497    1.798064    1.764939    ( 0.0000,  0.0000,  2.1000)
  10 Ni     8.891362   10.651627    1.788353    ( 0.0000,  0.0000,  1.5000)
  11 Co     8.888779    1.804777   10.642609    ( 0.0000,  0.0000,  2.0000)
  12 Fe     0.008694    3.581540   10.650250    ( 0.0000,  0.0000,  2.1000)
  13 Ni     0.018979    5.332745    1.789751    ( 0.0000,  0.0000,  2.1000)
  14 Cr     1.778129    3.600941    1.760019    ( 0.0000,  0.0000,  2.0000)
  15 Co     1.790423    5.343267   -0.017766    ( 0.0000,  0.0000,  2.0000)
  16 Ni     3.542802    3.589864   -0.015614    ( 0.0000,  0.0000,  2.0000)
  17 Co     3.526837    5.358538    1.765793    ( 0.0000,  0.0000,  2.0000)
  18 Fe     5.336650    3.606501    1.755815    ( 0.0000,  0.0000,  0.0000)
  19 Ni     5.300399    5.323642   -0.012797    ( 0.0000,  0.0000,  2.1000)
  20 Al     7.122858    3.584816   10.659524    ( 0.0000,  0.0000,  2.0000)
  21 Cr     7.120500    5.315168    1.805502    ( 0.0000,  0.0000,  1.5000)
  22 Ni     8.892034    3.590952    1.773146    ( 0.0000,  0.0000,  2.1000)
  23 Fe     8.925340    5.301487   -0.003100    ( 0.0000,  0.0000,  0.0000)
  24 Ni     0.023055    7.096680   -0.007939    ( 0.0000,  0.0000,  0.0000)
  25 Cr     0.019141    8.871245    1.787510    ( 0.0000,  0.0000,  1.5000)
  26 Co     1.784372    7.104567    1.776443    ( 0.0000,  0.0000,  2.0000)
  27 Co     1.779944    8.867628   10.659406    ( 0.0000,  0.0000,  1.5000)
  28 Ni     3.547785    7.097897    0.009215    ( 0.0000,  0.0000,  2.1000)
  29 Cr     3.541137    8.858109    1.788225    ( 0.0000,  0.0000,  2.1000)
  30 Cr     5.295105    7.099391    1.787894    ( 0.0000,  0.0000,  2.1000)
  31 Cr     5.303685    8.873828    0.029898    ( 0.0000,  0.0000,  0.0000)
  32 Cr     7.106883    7.088719   10.645159    ( 0.0000,  0.0000,  0.0000)
  33 Co     7.111055    8.901137    1.809472    ( 0.0000,  0.0000,  0.0000)
  34 Co     8.939384    7.093404    1.799238    ( 0.0000,  0.0000,  0.0000)
  35 Co     8.919972    8.915853   10.664881    ( 0.0000,  0.0000,  0.0000)
  36 Ni    10.679704   10.658873    3.584517    ( 0.0000,  0.0000,  2.0000)
  37 Fe    10.670921    1.796367    5.340289    ( 0.0000,  0.0000,  2.1000)
  38 Fe     1.770350   10.649001    5.343491    ( 0.0000,  0.0000,  0.0000)
  39 Co     1.791800    1.784671    3.584891    ( 0.0000,  0.0000,  2.0000)
  40 Cr     3.529718   10.626388    3.565234    ( 0.0000,  0.0000,  2.1000)
  41 Fe     3.535716    1.793465    5.367289    ( 0.0000,  0.0000,  1.5000)
  42 Co     5.311497    0.001574    5.366254    ( 0.0000,  0.0000,  1.5000)
  43 Al     5.332627    1.768055    3.580793    ( 0.0000,  0.0000,  0.0000)
  44 Ni     7.136966   10.673941    3.563804    ( 0.0000,  0.0000,  2.0000)
  45 Ni     7.136774    1.794126    5.358944    ( 0.0000,  0.0000,  2.1000)
  46 Co     8.925938   10.673621    5.347589    ( 0.0000,  0.0000,  2.0000)
  47 Fe     8.883827    1.779111    3.582404    ( 0.0000,  0.0000,  1.5000)
  48 Ni    -0.010038    3.572341    3.580996    ( 0.0000,  0.0000,  2.0000)
  49 Co    10.685573    5.328935    5.338550    ( 0.0000,  0.0000,  2.0000)
  50 Ni     1.784180    3.582949    5.348357    ( 0.0000,  0.0000,  1.5000)
  51 Fe     1.766326    5.339510    3.565255    ( 0.0000,  0.0000,  1.5000)
[...]
 106 Cr     8.926504    7.115858    8.862313    ( 0.0000,  0.0000,  0.0000)
 107 Ni     8.932896    8.877648    7.127479    ( 0.0000,  0.0000,  1.5000)

Unit cell:
           periodic     x           y           z      points  spacing
  1. axis:    yes   10.671700    0.000000    0.000000    48     0.2223
  2. axis:    yes    0.000000   10.671700    0.000000    48     0.2223
  3. axis:    yes    0.000000    0.000000   10.671700    48     0.2223

  Lengths:  10.671700  10.671700  10.671700
  Angles:   90.000000  90.000000  90.000000

Effective grid spacing dv^(1/3) = 0.2223

     iter     time        total  log10-change:  magmom
                         energy  eigst   dens
iter:   1 21:56:13  -976.785188                  +143.2017
iter:   2 21:58:49  -935.678562  -0.38  -1.30    +105.4367
iter:   3 22:02:29  -916.700634  -0.84  -1.27    +73.0386
iter:   4 22:05:07  -882.194700  -1.36  -1.33    +62.0463
iter:   5 22:07:42  -876.763018  -1.81  -1.43    +56.1704
iter:   6 22:10:18  -880.032558  -1.76  -1.47    +53.4177
iter:   7 22:12:53  -880.648281  -1.50  -1.50    +51.5388
iter:   8 22:15:29  -870.455441  -1.73  -1.52    +50.3161
iter:   9 22:18:06  -876.399078  -1.77  -1.70    +49.9139
iter:  10 22:20:41  -868.371056  -1.96  -1.68    +49.1198
iter:  11 22:23:17  -868.194814  -2.49  -1.85    +49.5148
iter:  12 22:25:52  -868.438786  -2.59  -1.91    +50.3272
iter:  13 22:28:28  -868.736158  -2.73  -1.93    +51.1551
iter:  14 22:31:04  -869.828210  -2.58  -1.98    +51.8839
iter:  15 22:33:40  -870.152168  -2.65  -2.01    +52.7574
iter:  16 22:36:16  -871.263013  -2.47  -2.06    +53.4818
iter:  17 22:38:52  -869.554029  -2.78  -2.02    +53.8963
iter:  18 22:41:28  -869.886921  -2.96  -2.21    +54.9006
iter:  19 22:44:03  -869.862031  -3.14  -2.23    +55.5529
iter:  20 22:46:39  -869.955138c -3.19  -2.27    +56.3364
iter:  21 22:49:14  -870.052188  -3.20  -2.32    +57.0082
iter:  22 22:51:50  -870.254293  -3.16  -2.36    +57.5599
iter:  23 22:54:26  -870.273322  -3.23  -2.38    +57.9280
iter:  24 22:57:01  -870.199179c -3.34  -2.40    +58.3609
iter:  25 22:59:36  -870.329481  -3.38  -2.49    +58.7648
iter:  26 23:02:12  -870.308465  -3.56  -2.49    +59.0179
iter:  27 23:04:48  -870.277400c -3.76  -2.53    +59.2560
iter:  28 23:07:34  -870.362257c -3.85  -2.64    +59.6649
iter:  29 23:11:04  -870.406343  -3.92  -2.63    +59.7729
iter:  30 23:13:39  -870.423262c -4.12  -2.65    +59.9135
iter:  31 23:16:16  -870.477752c -4.01  -2.69    +60.0720
iter:  32 23:18:52  -870.568520  -3.83  -2.70    +60.1601
iter:  33 23:21:27  -870.508234c -4.04  -2.65    +60.2293
iter:  34 23:24:03  -870.606609c -3.81  -2.78    +60.2021
iter:  35 23:26:39  -870.565778c -3.88  -2.71    +60.2654
iter:  36 23:29:15  -870.596829c -3.92  -2.83    +60.3130
iter:  37 23:31:50  -870.559660c -4.26  -2.78    +60.3108
iter:  38 23:34:25  -870.569770c -4.34  -2.90    +60.3935
iter:  39 23:36:59  -870.564628c -4.69  -2.92    +60.3719
iter:  40 23:40:39  -870.575122c -5.04  -2.98    +60.4335
iter:  41 23:43:16  -870.646423c -3.96  -2.98    +60.5820
iter:  42 23:45:52  -870.624969c -4.47  -2.85    +60.4907
iter:  43 23:48:29  -870.645067c -4.44  -2.86    +60.5116
iter:  44 23:51:04  -870.649834c -4.39  -2.85    +60.5450
iter:  45 23:53:40  -870.625511c -4.62  -2.84    +60.4861
iter:  46 23:56:17  -870.674611c -4.16  -2.91    +60.4920
iter:  47 23:58:52  -870.625353c -4.58  -2.81    +60.5283
iter:  48 00:01:28  -870.632973c -4.85  -2.97    +60.5543
iter:  49 00:04:04  -870.625674c -4.69  -2.98    +60.5548
iter:  50 00:06:41  -870.642024c -4.37  -3.09    +60.5988
iter:  51 00:09:17  -870.626375c -4.72  -3.10    +60.5894
iter:  52 00:11:53  -870.627979c -5.13  -3.36    +60.5820
iter:  53 00:14:30  -870.629794c -5.37  -3.41    +60.5846
iter:  54 00:17:06  -870.631290c -5.60  -3.46    +60.5872
iter:  55 00:19:50  -870.636914c -5.33  -3.53    +60.6076
iter:  56 00:23:23  -870.634043c -5.97  -3.51    +60.6086
iter:  57 00:25:58  -870.637797c -5.66  -3.56    +60.6387
iter:  58 00:28:35  -870.638274c -5.70  -3.59    +60.6294
iter:  59 00:31:11  -870.642635c -5.46  -3.65    +60.6496
iter:  60 00:33:46  -870.644565c -5.74  -3.67    +60.6539
iter:  61 00:36:22  -870.646646c -5.72  -3.69    +60.6547
iter:  62 00:38:59  -870.651285c -5.57  -3.72    +60.6963
iter:  63 00:41:36  -870.648817c -6.55  -3.72    +60.6847
iter:  64 00:44:12  -870.643165c -5.50  -3.74    +60.6381
iter:  65 00:46:48  -870.641807c -5.57  -3.76    +60.5807
iter:  66 00:49:24  -870.647051c -5.50  -3.70    +60.6111
iter:  67 00:52:00  -870.644106c -5.97  -3.71    +60.5745
iter:  68 00:54:36  -870.646985c -6.01  -3.87    +60.5613
iter:  69 00:57:12  -870.648481c -6.02  -3.83    +60.6047
iter:  70 00:59:47  -870.654241c -5.54  -3.88    +60.6569
iter:  71 01:02:23  -870.636927c -4.65  -3.86    +60.4701
iter:  72 01:04:58  -870.623758c -4.45  -3.96    +60.2534
iter:  73 01:07:33  -870.624019c -5.41  -3.87    +60.2091
iter:  74 01:10:08  -870.627125c -5.05  -3.88    +60.0804
iter:  75 01:13:24  -870.634226c -4.62  -3.86    +59.9020
iter:  76 01:16:26  -870.639145c -4.94  -3.66    +59.8523
iter:  77 01:19:01  -870.638137c -5.48  -3.53    +59.9160
iter:  78 01:21:36  -870.642797c -5.08  -3.49    +59.8433
iter:  79 01:24:13  -870.647026c -4.93  -3.48    +59.8126
iter:  80 01:26:48  -870.644079c -5.40  -3.42    +59.8642
iter:  81 01:29:25  -870.650554c -5.21  -3.46    +59.8628
iter:  82 01:32:01  -870.647048c -5.46  -3.38    +59.8652
iter:  83 01:34:37  -870.653820c -5.07  -3.48    +59.8502
iter:  84 01:37:13  -870.649027c -5.33  -3.32    +59.8546
iter:  85 01:39:48  -870.649359c -5.45  -3.54    +59.8638
iter:  86 01:42:23  -870.649442c -5.80  -3.54    +59.8569
iter:  87 01:44:58  -870.650182c -5.71  -3.59    +59.8683
iter:  88 01:47:34  -870.651617c -5.78  -3.58    +59.8746
iter:  89 01:50:09  -870.652261c -6.01  -3.64    +59.8801
iter:  90 01:52:44  -870.653146c -5.70  -3.65    +59.8637
iter:  91 01:55:21  -870.654427c -5.74  -3.62    +59.8803
iter:  92 01:57:56  -870.655197c -5.68  -3.64    +59.8983
[...]
iter:  97 02:12:02  -870.657867c -6.37  -3.77    +59.9539
iter:  98 02:14:37  -870.659541c -5.91  -3.80    +59.9693
iter:  99 02:17:14  -870.669671c -4.57  -3.78    +60.0564
iter: 100 02:19:51  -870.657051c -4.53  -3.56    +59.9238
iter: 101 02:22:27  -870.664212c -5.19  -3.78    +60.0111
iter: 102 02:25:03  -870.655775c -4.86  -3.62    +59.8927
iter: 103 02:27:38  -870.666015c -4.86  -3.75    +60.0448
iter: 104 02:30:14  -870.650719c -4.46  -3.61    +59.8075
iter: 105 02:32:49  -870.644181c -4.63  -3.86    +59.6685
iter: 106 02:35:24  -870.649616c -5.26  -3.85    +59.7924
iter: 107 02:37:59  -870.647999c -5.86  -3.90    +59.7555
iter: 108 02:40:35  -870.649879c -5.82  -3.90    +59.7978
iter: 109 02:43:11  -870.649423c -6.11  -3.89    +59.7870
iter: 110 02:46:41  -870.649231c -6.22  -3.82    +59.7432
iter: 111 02:49:27  -870.650188c -6.15  -3.94    +59.7837
iter: 112 02:52:03  -870.651637c -6.04  -4.06c   +59.8143
iter: 113 02:54:38  -870.652843c -6.17  -4.01c   +59.8256
iter: 114 02:57:14  -870.653810c -6.15  -4.00c   +59.8397
iter: 115 02:59:51  -870.655209c -6.11  -4.04c   +59.8545
iter: 116 03:02:27  -870.648954c -5.08  -3.90    +59.7422
iter: 117 03:05:03  -870.643610c -4.96  -4.03c   +59.6248
iter: 118 03:07:39  -870.644001c -6.00  -4.03c   +59.6350
iter: 119 03:10:16  -870.644779c -6.46  -4.08c   +59.6518
iter: 120 03:12:52  -870.644831c -6.85  -4.17c   +59.6470
iter: 121 03:15:28  -870.645652c -6.39  -4.18c   +59.6732
iter: 122 03:18:03  -870.643292c -5.59  -4.20c   +59.5729
iter: 123 03:20:39  -870.640663c -5.19  -4.13c   +59.4232
iter: 124 03:23:14  -870.639321c -4.96  -3.95    +59.2237
iter: 125 03:25:50  -870.639311c -4.99  -3.75    +59.0399
iter: 126 03:28:25  -870.641137c -4.71  -3.64    +58.7472
iter: 127 03:31:00  -870.643187c -5.10  -3.51    +58.6136
iter: 128 03:33:35  -870.644557c -5.09  -3.46    +58.4494
iter: 129 03:36:10  -870.646475c -5.61  -3.42    +58.4298
iter: 130 03:38:45  -870.644745c -5.49  -3.38    +58.4323
iter: 131 03:41:22  -870.646180c -5.00  -3.37    +58.4159
iter: 132 03:44:47  -870.657559c -4.56  -3.24    +58.4093
iter: 133 03:47:30  -870.640450c -4.52  -3.07    +58.4582
iter: 134 03:50:05  -870.637229c -4.98  -3.28    +58.4838
iter: 135 03:52:41  -870.635524c -5.43  -3.48    +58.5320
iter: 136 03:55:17  -870.635202c -5.61  -3.60    +58.5582
iter: 137 03:57:53  -870.636119c -5.68  -3.64    +58.5842
iter: 138 04:00:28  -870.636672c -5.75  -3.67    +58.6015
iter: 139 04:03:03  -870.637008c -5.68  -3.63    +58.6108
iter: 140 04:05:39  -870.638039c -5.40  -3.63    +58.6406
iter: 141 04:08:15  -870.636418c -5.62  -3.54    +58.6435
iter: 142 04:10:49  -870.637425c -5.73  -3.75    +58.6671
iter: 143 04:13:25  -870.636694c -5.97  -3.72    +58.6855
iter: 144 04:15:45  -870.636856c -6.07  -3.84    +58.7152
iter: 145 04:17:32  -870.636705c -6.41  -3.87    +58.7260
iter: 146 04:19:19  -870.637172c -6.48  -3.99    +58.7379
iter: 147 04:21:06  -870.637475c -6.23  -4.02c   +58.7606
iter: 148 04:22:52  -870.637337c -6.35  -3.95    +58.7650
iter: 149 04:24:41  -870.637493c -6.47  -3.98    +58.7756
iter: 150 04:26:31  -870.637891c -6.28  -4.11c   +58.7813
iter: 151 04:28:21  -870.637879c -6.42  -3.95    +58.7941
iter: 152 04:30:12  -870.637940c -6.60  -4.11c   +58.8172
iter: 153 04:32:02  -870.638141c -6.81  -4.24c   +58.8260
iter: 154 04:33:52  -870.638391c -6.78  -4.25c   +58.8459
iter: 155 04:35:43  -870.638253c -7.63c -4.29c   +58.8352

Converged after 155 iterations.

Dipole moment: (-10.345123, 7.974105, 8.286443) |e|*Ang

Total magnetic moment: (0.000000, 0.000000, 58.835197)
Local magnetic moments:
   0 Ni ( 0.000000,  0.000000,  0.285103)
   1 Cr ( 0.000000,  0.000000, -1.488575)
   2 Fe ( 0.000000,  0.000000, -0.855005)
   3 Cr ( 0.000000,  0.000000,  0.646321)
   4 Fe ( 0.000000,  0.000000,  1.847920)
   5 Co ( 0.000000,  0.000000,  0.859869)
   6 Co ( 0.000000,  0.000000,  0.410272)
   7 Ni ( 0.000000,  0.000000,  0.214965)
   8 Cr ( 0.000000,  0.000000, -1.510675)
   9 Co ( 0.000000,  0.000000,  1.311632)
  10 Ni ( 0.000000,  0.000000,  0.280806)
  11 Co ( 0.000000,  0.000000,  1.064137)
  12 Fe ( 0.000000,  0.000000,  1.988202)
  13 Ni ( 0.000000,  0.000000,  0.363656)
  14 Cr ( 0.000000,  0.000000, -1.556368)
  15 Co ( 0.000000,  0.000000,  1.471352)
  16 Ni ( 0.000000,  0.000000,  0.312467)
  17 Co ( 0.000000,  0.000000,  1.202519)
  18 Fe ( 0.000000,  0.000000,  2.400972)
  19 Ni ( 0.000000,  0.000000,  0.177809)
  20 Al ( 0.000000,  0.000000, -0.029221)
  21 Cr ( 0.000000,  0.000000, -1.780350)
  22 Ni ( 0.000000,  0.000000,  0.234171)
  23 Fe ( 0.000000,  0.000000,  2.023787)
  24 Ni ( 0.000000,  0.000000,  0.436786)
  25 Cr ( 0.000000,  0.000000, -1.149680)
  26 Co ( 0.000000,  0.000000,  1.235024)
  27 Co ( 0.000000,  0.000000,  1.157490)
  28 Ni ( 0.000000,  0.000000,  0.307480)
  29 Cr ( 0.000000,  0.000000,  0.013388)
  30 Cr ( 0.000000,  0.000000, -0.509614)
  31 Cr ( 0.000000,  0.000000, -0.806774)
  32 Cr ( 0.000000,  0.000000,  0.989842)
  33 Co ( 0.000000,  0.000000,  0.815884)
  34 Co ( 0.000000,  0.000000,  1.127013)
  35 Co ( 0.000000,  0.000000,  0.851633)
  36 Ni ( 0.000000,  0.000000,  0.287114)
  37 Fe ( 0.000000,  0.000000,  2.147725)
  38 Fe ( 0.000000,  0.000000,  2.056078)
  39 Co ( 0.000000,  0.000000,  1.214207)
  40 Cr ( 0.000000,  0.000000, -0.831279)
  41 Fe ( 0.000000,  0.000000,  1.828862)
  42 Co ( 0.000000,  0.000000,  0.103539)
  43 Al ( 0.000000,  0.000000, -0.021397)
  44 Ni ( 0.000000,  0.000000,  0.280701)
  45 Ni ( 0.000000,  0.000000,  0.175814)
  46 Co ( 0.000000,  0.000000,  1.079116)
  47 Fe ( 0.000000,  0.000000,  2.460958)
  48 Ni ( 0.000000,  0.000000,  0.323766)
  49 Co ( 0.000000,  0.000000,  1.283515)
  50 Ni ( 0.000000,  0.000000,  0.299667)
  51 Fe ( 0.000000,  0.000000,  2.361671)
  52 Ni ( 0.000000,  0.000000,  0.372716)
  53 Al ( 0.000000,  0.000000, -0.036929)
  54 Co ( 0.000000,  0.000000,  1.016170)
  55 Ni ( 0.000000,  0.000000,  0.155972)
  56 Ni ( 0.000000,  0.000000,  0.216105)
  57 Cr ( 0.000000,  0.000000, -1.231782)
  58 Cr ( 0.000000,  0.000000, -1.461735)
  59 Fe ( 0.000000,  0.000000,  2.180800)
[...]
  93 Ni ( 0.000000,  0.000000,  0.180823)
  94 Al ( 0.000000,  0.000000, -0.039838)
  95 Fe ( 0.000000,  0.000000,  2.087699)
  96 Fe ( 0.000000,  0.000000,  2.349848)
  97 Fe ( 0.000000,  0.000000,  2.270503)
  98 Co ( 0.000000,  0.000000,  1.490968)
  99 Ni ( 0.000000,  0.000000,  0.479737)
 100 Co ( 0.000000,  0.000000,  1.256045)
 101 Fe ( 0.000000,  0.000000,  2.100039)
 102 Co ( 0.000000,  0.000000,  0.925413)
 103 Cr ( 0.000000,  0.000000,  0.319934)
 104 Co ( 0.000000,  0.000000,  0.938747)
 105 Al ( 0.000000,  0.000000, -0.005717)
 106 Cr ( 0.000000,  0.000000, -1.846593)
 107 Ni ( 0.000000,  0.000000,  0.274437)

Energy contributions relative to reference atoms: (reference = -3699400.456887)

Kinetic:       +119.739681
Potential:     -175.047009
External:        +0.000000
XC:            -850.892078
Entropy (-ST):   -4.582380
Local:          +37.852342
Free energy:   -872.929443
Extrapolated:  -870.638253

Spin contamination: 27.816785 electrons
Showing only first 2 kpts
                      Up                     Down
 Kpt  Band  Eigenvalues  Occupancy  Eigenvalues  Occupancy
  0   508      9.66890    0.99106     10.48558    0.03051
  0   509      9.68098    0.98992     10.49391    0.02814
  0   510      9.69647    0.98825     10.51714    0.02243
  0   511      9.70880    0.98673     10.52751    0.02027

  1   508      9.65870    0.99192     10.48603    0.03037
  1   509      9.66813    0.99113     10.49601    0.02757
  1   510      9.68071    0.98995     10.50780    0.02458
  1   511      9.69189    0.98877     10.51699    0.02247

Fermi level: 10.13969

No gap

Forces in eV/Ang:
  0 Ni    0.03512    0.22282    0.50432
  1 Cr   -0.03282   -0.67929   -0.15829
  2 Fe   -0.10042    0.08929    0.03195
  3 Cr    0.09205   -0.11851    0.36081
  4 Fe    0.40244    0.17510    0.12928
  5 Co   -0.08339   -0.15461    0.01534
  6 Co    0.14298   -0.01603   -0.08899
  7 Ni   -0.29931   -0.59310    0.12659
  8 Cr   -0.12024    0.51307    0.40507
  9 Co    0.03108   -0.17666   -0.07497
 10 Ni    0.14626    0.19588   -0.06240
 11 Co    0.42224   -0.44509    0.72308
 12 Fe    0.16301   -0.03951    0.67097
 13 Ni   -0.08836    0.04964   -0.16761
 14 Cr    0.41367   -0.30021   -0.02025
 15 Co    0.01333   -0.07273    0.00635
 16 Ni   -0.03161   -0.03517    0.10192
 17 Co    0.09140    0.00139    0.07293
 18 Fe   -0.48903   -0.24482    0.28407
 19 Ni    0.12449    0.37656    0.07107
 20 Al   -0.74293   -0.59705    0.00858
 21 Cr   -0.02710    0.90035    0.49997
 22 Ni    0.28491   -0.32254    0.24385
 23 Fe    0.26208    0.80779    0.44010
 24 Ni   -0.15587    0.05586    0.14459
 25 Cr    0.03343    0.30412   -0.51902
 26 Co   -0.09477    0.11238   -0.15106
 27 Co   -0.04355    0.08030    0.21713
 28 Ni   -0.08004    0.05705   -0.13473
 29 Cr   -0.19679    0.01426   -0.30810
 30 Cr    0.14580   -0.02715    0.01415
 31 Cr   -0.25691    0.17642    0.15993
 32 Cr   -0.13377    0.08491    0.61699
 33 Co   -0.14966   -0.12332   -0.45162
 34 Co   -0.38004    0.29124   -0.29944
 35 Co   -0.25497   -0.38181    0.27217
 36 Ni    0.04401    0.10778   -0.29115
 37 Fe    0.16537   -0.01530    0.03817
 38 Fe    0.02136   -0.08323    0.11509
 39 Co    0.08538   -0.03846   -0.41116
 40 Cr   -0.68545    0.14106   -0.08009
 41 Fe   -0.32663    0.05027   -0.05930
 42 Co   -0.19762   -0.53977    0.28593
 43 Al    0.38704    0.29719   -0.14292
 44 Ni   -0.11705   -0.19352    0.02134
 45 Ni   -0.11234   -0.11175    0.23742
 46 Co   -0.16616    0.09039    0.14099
 47 Fe   -0.00737   -0.01470   -0.32455
 48 Ni    0.16931   -0.13766   -0.30593
 49 Co    0.04530    0.01425    0.21603
 50 Ni   -0.16273   -0.24304   -0.09173
 51 Fe   -0.31322    0.10545   -0.39417
 52 Ni    0.33901   -0.47322   -0.28568
 53 Al   -0.23599   -0.33166   -0.69498
 54 Co    0.24587   -0.11301    0.10457
 55 Ni   -0.01407   -0.21460   -0.18416
 56 Ni   -0.22811   -0.01148   -0.11058
 57 Cr   -0.26730    0.28754    0.02472
 58 Cr    0.18683   -0.06920    0.13119
 59 Fe    0.05080   -0.01405   -0.07193
[...]
 93 Ni    0.10628    0.42744    0.29196
 94 Al    0.11520    0.10813   -0.42153
 95 Fe   -0.15392    0.11609   -0.32003
 96 Fe    0.00381    0.20826   -0.37487
 97 Fe    0.21743   -0.18702    0.27600
 98 Co    0.03796   -0.06182    0.20479
 99 Ni   -0.07370    0.13131   -0.01961
100 Co    0.02414    0.41062    0.24393
101 Fe    0.27310    0.26407   -0.01569
102 Co    0.11120    0.02679    0.14201
103 Cr   -0.54926    0.51943   -0.49150
104 Co   -0.00910    0.09353   -0.40866
105 Al   -0.37252   -0.18369    0.16195
106 Cr    0.45544   -0.97395    0.42794
107 Ni   -0.30387    0.17972   -0.43621

Date: Sun Apr 16 04:36:07 2023