User:   c.zeng@d0050
Date:   Thu Apr 13 23:28:59 2023
Arch:   x86_64
Pid:    58318
CWD:    /home/c.zeng/projects/hea-corrosion/hea-mlp/data-curation/bulk-md/dft-jobs/55
Python: 3.8.1
gpaw:   /home/c.zeng/usr/installs/gpaw/source/gpaw-22.8.0/gpaw
_gpaw:  /home/c.zeng/usr/installs/gpaw/source/gpaw-22.8.0/
        _gpaw.cpython-38-x86_64-linux-gnu.so
ase:    /home/c.zeng/.local/lib/python3.8/site-packages/ase-3.22.1-py3.8.egg/ase (version 3.22.1)
numpy:  /shared/centos7/python/3.8.1/lib/python3.8/site-packages/numpy (version 1.17.4)
scipy:  /shared/centos7/python/3.8.1/lib/python3.8/site-packages/scipy (version 1.4.1)
units:  Angstrom and eV
cores: 30
OpenMP: False
OMP_NUM_THREADS: 1

Input parameters:
  convergence: {energy: 0.0001}
  kpts: [2 2 2]
  maxiter: 666
  mode: {ecut: 350.0,
         name: pw}
  occupations: {fixmagmom: False,
                name: fermi-dirac,
                width: 0.1}
  spinpol: True
  xc: PBE

System changes: positions, numbers, cell, pbc, initial_charges, initial_magmoms

Initialize ...

species:
  Co:
    name: Cobalt
    id: 339d20d5b0b93d2de9531a1bee871d91
    Z: 27.0
    valence: 9
    core: 18
    charge: 0.0
    file: /home/c.zeng/usr/data/gpaw-setups-0.9.20000/Co.PBE.gz
    compensation charges: {type: gauss,
                           rc: 0.32,
                           lmax: 2}
    cutoffs: {filter: 1.87,
              core: 2.55}
    valence states:
      #              energy  rcut
      - 4s(2.00)    -5.469   1.005
      - 4p(0.00)    -1.277   1.058
      - 3d(7.00)    -8.205   1.005
      -  s          21.742   1.005
      -  p          25.934   1.058
      -  d          19.007   1.005

    # Using partial waves for Co as LCAO basis

  Ni:
    name: Nickel
    id: 0d9f38a9d6e76a2886f07bb4381f212b
    Z: 28.0
    valence: 16
    core: 12
    charge: 0.0
    file: /home/c.zeng/usr/data/gpaw-setups-0.9.20000/Ni.PBE.gz
    compensation charges: {type: gauss,
                           rc: 0.36,
                           lmax: 2}
    cutoffs: {filter: 2.14,
              core: 1.98}
    valence states:
      #              energy  rcut
      - 4s(2.00)    -5.642   1.164
      - 3p(6.00)   -71.394   1.207
      - 4p(0.00)    -1.226   1.207
      - 3d(8.00)    -8.875   1.138
      -  s          21.570   1.164
      -  d          18.337   1.138

[...]

  Al:
    name: Aluminium
    id: 0292cae29f5d6237e50f6abdd43a7bdd
    Z: 13.0
    valence: 3
    core: 10
    charge: 0.0
    file: /home/c.zeng/usr/data/gpaw-setups-0.9.20000/Al.PBE.gz
    compensation charges: {type: gauss,
                           rc: 0.34,
                           lmax: 2}
    cutoffs: {filter: 1.91,
              core: 2.36}
    valence states:
      #              energy  rcut
      - 3s(2.00)    -7.753   1.085
      - 3p(1.00)    -2.712   1.085
      -  s          19.459   1.085
      -  p          24.499   1.085
      -  d           0.000   1.085

[...]

  Cr:
    name: Chromium
    id: 33f258bda2ca9f93018e70263a35547b
    Z: 24.0
    valence: 6
    core: 18
    charge: 0.0
    file: /home/c.zeng/usr/data/gpaw-setups-0.9.20000/Cr.PBE.gz
    compensation charges: {type: gauss,
                           rc: 0.35,
                           lmax: 2}
    cutoffs: {filter: 2.14,
              core: 3.04}
    valence states:
      #              energy  rcut
      - 4s(1.00)    -4.007   1.164
      - 4p(0.00)    -0.989   1.217
      - 3d(5.00)    -2.913   1.111
      -  s          23.205   1.164
      -  p          26.223   1.217
      -  d          24.299   1.111

[...]

  Fe:
    name: Iron
    id: 37abbd8d6c3c35915a9b583b742da910
    Z: 26.0
    valence: 8
    core: 18
    charge: 0.0
    file: /home/c.zeng/usr/data/gpaw-setups-0.9.20000/Fe.PBE.gz
    compensation charges: {type: gauss,
                           rc: 0.33,
                           lmax: 2}
    cutoffs: {filter: 2.06,
              core: 2.67}
    valence states:
      #              energy  rcut
      - 4s(2.00)    -5.291   1.164
      - 4p(0.00)    -1.326   1.058
      - 3d(6.00)    -7.505   1.058
      -  s          21.920   1.164
      -  p          25.885   1.058
      -  d          19.706   1.058

    # Using partial waves for Fe as LCAO basis

Reference energy: -3548577.034362  # eV

Spin-polarized calculation.
Magnetic moment: 136.400000

Convergence criteria:
 Maximum [total energy] change in last 3 cyles: 0.0001 eV / electron
 Maximum integral of absolute [dens]ity change: 0.0001 electrons / valence electron
 Maximum integral of absolute [eigenst]ate change: 4e-08 eV^2 / valence electron
 Maximum number of scf [iter]ations: 666
 (Square brackets indicate name in SCF output, whereas a 'c' in
 the SCF output indicates the quantity has converged.)

Symmetries present (total): 1

  ( 1  0  0)
  ( 0  1  0)
  ( 0  0  1)

8 k-points: 2 x 2 x 2 Monkhorst-Pack grid
4 k-points in the irreducible part of the Brillouin zone
       k-points in crystal coordinates                weights
   0:     0.25000000   -0.25000000   -0.25000000          2/8
   1:     0.25000000   -0.25000000    0.25000000          2/8
   2:     0.25000000    0.25000000   -0.25000000          2/8
   3:     0.25000000    0.25000000    0.25000000          2/8

Wave functions: Plane wave expansion
  Cutoff energy: 350.000 eV
  Number of coefficients (min, max): 18331, 18331
  Pulay-stress correction: 0.000000 eV/Ang^3 (de/decut=0.000000)
  Using FFTW library
  ScaLapack parameters: grid=1x1, blocksize=None
  Wavefunction extrapolation:
    Improved wavefunction reuse through dual PAW basis

Occupation numbers: Fermi-Dirac:
  width: 0.1000  # eV

Eigensolver
   Davidson(niter=2)

Densities:
  Coarse grid: 48*48*48 grid
  Fine grid: 96*96*96 grid
  Total Charge: 0.000000

Density mixing:
  Method: difference
  Backend: pulay
  Linear mixing parameter: 0.05
  old densities: 5
  Damping of long wavelength oscillations: 50

Hamiltonian:
  XC and Coulomb potentials evaluated on a 96*96*96 grid
  Using the PBE Exchange-Correlation functional
  External potential:
    NoExternalPotential

XC parameters: PBE with 2 nearest neighbor stencil

Total number of cores used: 30
Parallelization over k-points: 2
Domain decomposition: 5 x 3 x 1

Number of atoms: 108
Number of atomic orbitals: 994
Number of bands in calculation: 674
Number of valence electrons: 980
Bands to converge: occupied

... initialized

Initializing position-dependent things.

Density initialized from atomic densities
Creating initial wave functions:
  674 bands from LCAO basis set

       /|          Fe       Cr    |
      / |            Fe      Al   |
     /Fei     Fei       Ni        |
    /   |Ali     FCo              |
   /Co  |   Cr     FeCo    Fe     |
  /  CCr|  CoFeFe   CoNi    Fel   |
 *     NNiCr  CoAl  Co Co Cr    Co|
 |Co    Fe Fe  CoCoCr   Cr Cr     |
 | Cr Co| CCo      CoFe     Fe    |
 |     Fe  NiNiCr  Cr CoNi   NFe  |
 |Al   Fe   AlCoCo     CrCr  Fe Ni|
 | Ni   Ni      NiNiCo Cr Fe    Al|
 |   Co .-NNii----Co----Cr-Fe-----.
 |  Cre/   CrCr     CrCr         /
 |    /NiAl    NilCr   NiCr     /
 Nii /   Co               Cr   /
 |  /      Fe Fe   Fe         /
 |/                     Al  /
 *-------------------------Co

Positions:
   0 Co    10.614870    0.076920   10.846903    ( 0.0000,  0.0000,  2.1000)
   1 Ni    10.777923    1.997580    1.908367    ( 0.0000,  0.0000,  1.5000)
   2 Al     1.843047   -0.049683    1.701959    ( 0.0000,  0.0000,  0.0000)
   3 Cr     1.761532    1.712986   10.700658    ( 0.0000,  0.0000,  0.0000)
   4 Cr     3.452380    0.260439   10.671075    ( 0.0000,  0.0000,  0.0000)
   5 Fe     3.692111    1.938870    1.683788    ( 0.0000,  0.0000,  2.0000)
   6 Fe     5.361154    0.117776    2.080715    ( 0.0000,  0.0000,  2.0000)
   7 Fe     5.394607    1.993538   -0.092659    ( 0.0000,  0.0000,  2.0000)
   8 Cr     6.837344   -0.126207    0.112066    ( 0.0000,  0.0000,  0.0000)
   9 Fe     7.084813    1.633726    1.721121    ( 0.0000,  0.0000,  2.0000)
  10 Fe     8.694834   -0.215765    1.841037    ( 0.0000,  0.0000,  2.0000)
  11 Al     9.009000    1.748610    0.205026    ( 0.0000,  0.0000,  0.0000)
  12 Co    10.889303    3.500548   10.693804    ( 0.0000,  0.0000,  2.1000)
  13 Fe    10.748622    5.360142    1.732980    ( 0.0000,  0.0000,  2.0000)
  14 Al     2.139035    3.603912    1.908157    ( 0.0000,  0.0000,  0.0000)
  15 Al     1.698213    5.293971   10.640733    ( 0.0000,  0.0000,  0.0000)
  16 Cr     3.585610    3.564233   10.446944    ( 0.0000,  0.0000,  0.0000)
  17 Cr     3.408067    5.708232    1.769852    ( 0.0000,  0.0000,  0.0000)
  18 Al     5.271665    3.791903    1.760095    ( 0.0000,  0.0000,  0.0000)
  19 Co     5.504079    5.267293   10.542269    ( 0.0000,  0.0000,  2.1000)
  20 Co     7.287717    3.577192   -0.179680    ( 0.0000,  0.0000,  2.1000)
  21 Cr     7.256917    5.490347    1.720439    ( 0.0000,  0.0000,  0.0000)
  22 Cr     8.833279    3.524568    1.943101    ( 0.0000,  0.0000,  0.0000)
  23 Cr     8.958171    5.212163    0.094007    ( 0.0000,  0.0000,  0.0000)
  24 Fe    10.801104    6.932336   10.544533    ( 0.0000,  0.0000,  2.0000)
  25 Al    10.448879    8.868372    1.500272    ( 0.0000,  0.0000,  0.0000)
  26 Ni     1.746242    7.365112    1.994813    ( 0.0000,  0.0000,  1.5000)
  27 Cr     1.940155    8.810067   10.859033    ( 0.0000,  0.0000,  0.0000)
  28 Fe     3.548620    6.983663   10.403930    ( 0.0000,  0.0000,  2.0000)
  29 Ni     3.693534    9.092925    2.021731    ( 0.0000,  0.0000,  1.5000)
  30 Co     5.168593    6.987766    1.713774    ( 0.0000,  0.0000,  2.1000)
  31 Fe     5.037896    8.898245   10.696987    ( 0.0000,  0.0000,  2.0000)
  32 Fe     7.048281    7.412566   10.787117    ( 0.0000,  0.0000,  2.0000)
  33 Cr     6.795408    8.948221    1.688961    ( 0.0000,  0.0000,  0.0000)
  34 Fe     8.971177    7.208884    1.780361    ( 0.0000,  0.0000,  2.0000)
  35 Cr     8.895072    9.084063   -0.095484    ( 0.0000,  0.0000,  0.0000)
  36 Ni    10.842272    0.088954    3.547465    ( 0.0000,  0.0000,  1.5000)
  37 Ni     0.097605    1.938392    5.232117    ( 0.0000,  0.0000,  1.5000)
  38 Co     1.705663    0.115979    5.299802    ( 0.0000,  0.0000,  2.1000)
  39 Ni     1.789284    1.918814    3.430089    ( 0.0000,  0.0000,  1.5000)
  40 Co     3.394309    0.013657    3.551098    ( 0.0000,  0.0000,  2.1000)
  41 Ni     3.615713    1.646355    5.191396    ( 0.0000,  0.0000,  1.5000)
  42 Co     5.165469   -0.266224    5.185222    ( 0.0000,  0.0000,  2.1000)
  43 Ni     5.108635    1.830790    3.534731    ( 0.0000,  0.0000,  1.5000)
  44 Cr     7.152293    0.099429    3.678029    ( 0.0000,  0.0000,  0.0000)
  45 Co     7.119393    1.990792    5.352289    ( 0.0000,  0.0000,  2.1000)
  46 Al     8.835871   10.696916    5.468980    ( 0.0000,  0.0000,  0.0000)
  47 Ni     8.730815    1.666979    3.589050    ( 0.0000,  0.0000,  1.5000)
  48 Cr    10.825871    3.549361    3.338854    ( 0.0000,  0.0000,  0.0000)
  49 Fe    -0.089603    5.291340    5.544286    ( 0.0000,  0.0000,  2.0000)
  50 Fe     1.638561    3.697804    5.076825    ( 0.0000,  0.0000,  2.0000)
  51 Ni     1.589128    5.551853    3.715665    ( 0.0000,  0.0000,  1.5000)
  52 Ni     3.685269    3.802968    3.714809    ( 0.0000,  0.0000,  1.5000)
  53 Ni     3.347963    5.557803    5.371481    ( 0.0000,  0.0000,  1.5000)
  54 Co     5.307774    3.675768    5.420299    ( 0.0000,  0.0000,  2.1000)
  55 Cr     5.488058    5.538583    3.543091    ( 0.0000,  0.0000,  0.0000)
  56 Cr     6.944948    3.370532    3.517305    ( 0.0000,  0.0000,  0.0000)
  57 Co     7.276750    5.225776    5.383214    ( 0.0000,  0.0000,  2.1000)
  58 Cr     9.136328    3.268778    5.613513    ( 0.0000,  0.0000,  0.0000)
  59 Fe     9.004065    5.476587    3.634933    ( 0.0000,  0.0000,  2.0000)
[...]
  93 Ni     7.260227    5.266410    9.002252    ( 0.0000,  0.0000,  1.5000)
  94 Cr     9.277513    3.584564    9.010890    ( 0.0000,  0.0000,  0.0000)
  95 Cr     9.128054    5.403469    7.177828    ( 0.0000,  0.0000,  0.0000)
  96 Co    10.703961    7.159533    7.040365    ( 0.0000,  0.0000,  2.1000)
  97 Ni    10.859584    9.124981    9.191354    ( 0.0000,  0.0000,  1.5000)
  98 Ni     1.723987    7.070687    9.019509    ( 0.0000,  0.0000,  1.5000)
  99 Co     1.847815    9.164123    6.960036    ( 0.0000,  0.0000,  2.1000)
 100 Co     3.417708    7.192058    7.210627    ( 0.0000,  0.0000,  2.1000)
 101 Ni     3.403146    9.086434    8.992646    ( 0.0000,  0.0000,  1.5000)
 102 Fe     5.480870    7.012869    8.950697    ( 0.0000,  0.0000,  2.0000)
 103 Co     5.317180    8.841882    7.147253    ( 0.0000,  0.0000,  2.1000)
 104 Co     7.261187    6.963888    7.030671    ( 0.0000,  0.0000,  2.1000)
 105 Ni     7.070901    8.777565    8.945402    ( 0.0000,  0.0000,  1.5000)
 106 Fe     8.938978    6.936928    8.922507    ( 0.0000,  0.0000,  2.0000)
 107 Fe     8.803922    8.737770    7.217662    ( 0.0000,  0.0000,  2.0000)

Unit cell:
           periodic     x           y           z      points  spacing
  1. axis:    yes   10.722400    0.000000    0.000000    48     0.2234
  2. axis:    yes    0.000000   10.722400    0.000000    48     0.2234
  3. axis:    yes    0.000000    0.000000   10.722400    48     0.2234

  Lengths:  10.722400  10.722400  10.722400
  Angles:   90.000000  90.000000  90.000000

Effective grid spacing dv^(1/3) = 0.2234

     iter     time        total  log10-change:  magmom
                         energy  eigst   dens
iter:   1 23:34:25 -1009.952352                  +136.6833
iter:   2 23:36:51  -896.987423  -0.23  -1.19    +76.1086
iter:   3 23:39:19  -889.856605  -0.82  -1.20    +63.9897
iter:   4 23:41:47  -867.784158  -1.22  -1.27    +59.7700
iter:   5 23:44:13  -854.795943  -1.59  -1.28    +56.3154
iter:   6 23:46:38  -863.734158  -1.23  -1.35    +56.1550
iter:   7 23:49:03  -844.871338  -1.23  -1.39    +54.4898
iter:   8 23:51:29  -836.314160  -1.59  -1.55    +53.4721
iter:   9 23:53:55  -835.963174  -2.06  -1.75    +54.1757
iter:  10 23:56:22  -835.489422  -2.32  -1.77    +55.5309
iter:  11 23:58:49  -835.660386  -2.53  -1.82    +56.8260
iter:  12 00:01:17  -836.850688  -2.41  -1.86    +58.4846
iter:  13 00:03:43  -836.544345  -2.45  -1.86    +58.8039
iter:  14 00:06:09  -836.868339  -2.34  -1.94    +59.6607
iter:  15 00:08:36  -836.113170  -2.65  -1.98    +60.4849
iter:  16 00:11:02  -836.299801  -2.78  -2.08    +60.5448
iter:  17 00:13:27  -835.978130  -2.95  -2.10    +60.8820
iter:  18 00:15:53  -836.117349  -2.92  -2.16    +61.3262
iter:  19 00:18:17  -836.109405  -3.07  -2.22    +61.6855
iter:  20 00:20:43  -836.213307  -2.99  -2.24    +61.6924
iter:  21 00:23:10  -836.165386  -2.99  -2.29    +61.7702
iter:  22 00:25:36  -835.819187  -3.31  -2.33    +62.1100
iter:  23 00:28:02  -835.913092  -3.35  -2.51    +62.0566
iter:  24 00:30:28  -835.819838c -3.76  -2.50    +62.0545
iter:  25 00:32:55  -835.846140c -3.84  -2.62    +62.0674
iter:  26 00:35:20  -835.883454c -3.80  -2.65    +61.9265
iter:  27 00:37:48  -835.933151c -3.83  -2.69    +61.9469
iter:  28 00:40:15  -835.896254c -4.05  -2.67    +61.8608
iter:  29 00:42:38  -835.931318c -4.10  -2.75    +61.7125
iter:  30 00:45:00  -835.929433c -4.11  -2.75    +61.7175
iter:  31 00:47:27  -835.937610c -4.29  -2.81    +61.6238
iter:  32 00:49:54  -835.934378c -4.35  -2.81    +61.4512
iter:  33 00:52:21  -835.952314c -4.46  -2.93    +61.2731
iter:  34 00:54:46  -835.957308c -4.65  -2.95    +61.2517
iter:  35 00:57:12  -835.970001c -4.58  -2.99    +61.0758
iter:  36 00:59:38  -835.980862c -4.74  -3.02    +61.0635
iter:  37 01:02:04  -835.987845c -4.71  -3.04    +60.9554
iter:  38 01:04:26  -836.001707c -4.63  -3.07    +60.8839
iter:  39 01:06:49  -836.005690c -4.76  -3.10    +60.8209
iter:  40 01:09:16  -836.017036c -4.81  -3.19    +60.7397
iter:  41 01:11:43  -836.033125c -4.64  -3.22    +60.5658
iter:  42 01:14:10  -836.043045c -4.72  -3.22    +60.5125
iter:  43 01:16:36  -836.046736c -4.92  -3.26    +60.4241
iter:  44 01:19:01  -836.052125c -5.11  -3.29    +60.3697
iter:  45 01:21:28  -836.056455c -4.96  -3.35    +60.3208
iter:  46 01:23:53  -836.059969c -5.16  -3.36    +60.2858
iter:  47 01:26:17  -836.062677c -5.27  -3.42    +60.2301
iter:  48 01:28:44  -836.065604c -5.43  -3.48    +60.2082
iter:  49 01:31:11  -836.070604c -5.23  -3.50    +60.1652
iter:  50 01:33:38  -836.073434c -5.42  -3.52    +60.1351
iter:  51 01:36:04  -836.076663c -5.39  -3.56    +60.1188
iter:  52 01:38:30  -836.082405c -5.16  -3.59    +60.0685
iter:  53 01:40:56  -836.086518c -5.22  -3.61    +60.0342
iter:  54 01:43:22  -836.097363c -4.63  -3.63    +59.9641
iter:  55 01:45:48  -836.118422c -3.84  -3.57    +59.8137
iter:  56 01:48:14  -836.115973c -5.13  -3.37    +59.8852
iter:  57 01:50:32  -836.117926c -5.42  -3.39    +59.8865
iter:  58 01:53:00  -836.118715c -5.64  -3.37    +59.9214
iter:  59 01:55:25  -836.117876c -5.43  -3.36    +59.9901
iter:  60 01:57:51  -836.122853c -4.86  -3.38    +59.9849
iter:  61 02:00:15  -836.113097c -5.20  -3.24    +60.0106
iter:  62 02:02:38  -836.120510c -4.92  -3.44    +60.0051
iter:  63 02:05:01  -836.112119c -5.30  -3.28    +59.9867
iter:  64 02:07:26  -836.112530c -5.34  -3.55    +59.9891
iter:  65 02:09:50  -836.110568c -5.61  -3.52    +59.9745
iter:  66 02:12:06  -836.110436c -6.07  -3.61    +59.9614
iter:  67 02:14:27  -836.110725c -6.16  -3.67    +59.9472
iter:  68 02:16:50  -836.110039c -6.13  -3.68    +59.9507
iter:  69 02:19:14  -836.110013c -6.04  -3.68    +59.9433
iter:  70 02:21:36  -836.110008c -6.17  -3.78    +59.9493
iter:  71 02:24:01  -836.109680c -6.28  -3.91    +59.9449
iter:  72 02:26:24  -836.109515c -6.43  -3.92    +59.9374
iter:  73 02:28:48  -836.109753c -6.44  -3.95    +59.9378
iter:  74 02:31:14  -836.109458c -6.75  -4.04c   +59.9365
iter:  75 02:33:44  -836.109437c -6.69  -4.08c   +59.9292
iter:  76 02:36:05  -836.109461c -6.70  -4.11c   +59.9344
iter:  77 02:38:30  -836.109232c -6.70  -4.15c   +59.9308
iter:  78 02:40:54  -836.109149c -6.74  -4.18c   +59.9310
iter:  79 02:43:16  -836.109320c -6.98  -4.21c   +59.9345
iter:  80 02:45:39  -836.109009c -7.11  -4.30c   +59.9355
iter:  81 02:48:01  -836.109083c -7.43c -4.34c   +59.9330

Converged after 81 iterations.

Dipole moment: (-33.831348, -10.992601, 36.203390) |e|*Ang

Total magnetic moment: (0.000000, 0.000000, 59.933035)
Local magnetic moments:
   0 Co ( 0.000000,  0.000000, -0.100581)
   1 Ni ( 0.000000,  0.000000, -0.032961)
   2 Al ( 0.000000,  0.000000, -0.002015)
   3 Cr ( 0.000000,  0.000000,  0.412455)
   4 Cr ( 0.000000,  0.000000, -0.765007)
   5 Fe ( 0.000000,  0.000000,  1.692960)
   6 Fe ( 0.000000,  0.000000,  1.454099)
   7 Fe ( 0.000000,  0.000000,  1.840301)
   8 Cr ( 0.000000,  0.000000, -0.438257)
   9 Fe ( 0.000000,  0.000000,  1.624139)
  10 Fe ( 0.000000,  0.000000,  1.800931)
  11 Al ( 0.000000,  0.000000, -0.018489)
  12 Co ( 0.000000,  0.000000, -0.182462)
  13 Fe ( 0.000000,  0.000000,  1.920612)
  14 Al ( 0.000000,  0.000000, -0.006344)
  15 Al ( 0.000000,  0.000000, -0.023413)
  16 Cr ( 0.000000,  0.000000, -1.332399)
  17 Cr ( 0.000000,  0.000000, -1.295202)
  18 Al ( 0.000000,  0.000000, -0.009785)
  19 Co ( 0.000000,  0.000000,  0.914949)
  20 Co ( 0.000000,  0.000000,  0.634458)
  21 Cr ( 0.000000,  0.000000, -0.703987)
  22 Cr ( 0.000000,  0.000000,  1.294213)
  23 Cr ( 0.000000,  0.000000, -1.206982)
  24 Fe ( 0.000000,  0.000000,  1.944902)
  25 Al ( 0.000000,  0.000000, -0.021526)
  26 Ni ( 0.000000,  0.000000,  0.075752)
  27 Cr ( 0.000000,  0.000000, -2.045422)
  28 Fe ( 0.000000,  0.000000,  1.871702)
  29 Ni ( 0.000000,  0.000000,  0.152165)
  30 Co ( 0.000000,  0.000000,  0.693730)
  31 Fe ( 0.000000,  0.000000,  2.186531)
  32 Fe ( 0.000000,  0.000000,  1.644964)
  33 Cr ( 0.000000,  0.000000, -0.784925)
  34 Fe ( 0.000000,  0.000000,  1.824191)
  35 Cr ( 0.000000,  0.000000, -1.192409)
  36 Ni ( 0.000000,  0.000000,  0.413140)
  37 Ni ( 0.000000,  0.000000,  0.098893)
  38 Co ( 0.000000,  0.000000,  1.455747)
  39 Ni ( 0.000000,  0.000000,  0.225830)
  40 Co ( 0.000000,  0.000000,  1.332906)
  41 Ni ( 0.000000,  0.000000,  0.483130)
  42 Co ( 0.000000,  0.000000,  1.403716)
  43 Ni ( 0.000000,  0.000000,  0.232772)
  44 Cr ( 0.000000,  0.000000, -0.983774)
  45 Co ( 0.000000,  0.000000,  0.930304)
  46 Al ( 0.000000,  0.000000, -0.004821)
  47 Ni ( 0.000000,  0.000000, -0.007350)
  48 Cr ( 0.000000,  0.000000, -1.323655)
  49 Fe ( 0.000000,  0.000000,  1.323265)
  50 Fe ( 0.000000,  0.000000,  2.291407)
  51 Ni ( 0.000000,  0.000000,  0.315720)
  52 Ni ( 0.000000,  0.000000,  0.241687)
  53 Ni ( 0.000000,  0.000000,  0.388223)
  54 Co ( 0.000000,  0.000000,  1.392277)
  55 Cr ( 0.000000,  0.000000,  0.645023)
  56 Cr ( 0.000000,  0.000000, -1.691200)
  57 Co ( 0.000000,  0.000000,  1.245183)
  58 Cr ( 0.000000,  0.000000, -0.190725)
  59 Fe ( 0.000000,  0.000000,  2.167245)
[...]
  93 Ni ( 0.000000,  0.000000,  0.347529)
  94 Cr ( 0.000000,  0.000000,  0.234581)
  95 Cr ( 0.000000,  0.000000, -1.127070)
  96 Co ( 0.000000,  0.000000,  0.945925)
  97 Ni ( 0.000000,  0.000000,  0.096153)
  98 Ni ( 0.000000,  0.000000,  0.429625)
  99 Co ( 0.000000,  0.000000,  1.404987)
 100 Co ( 0.000000,  0.000000,  1.683986)
 101 Ni ( 0.000000,  0.000000,  0.386245)
 102 Fe ( 0.000000,  0.000000,  2.539007)
 103 Co ( 0.000000,  0.000000,  1.577272)
 104 Co ( 0.000000,  0.000000,  1.343937)
 105 Ni ( 0.000000,  0.000000,  0.405009)
 106 Fe ( 0.000000,  0.000000,  2.112634)
 107 Fe ( 0.000000,  0.000000,  2.341440)

Energy contributions relative to reference atoms: (reference = -3548577.034362)

Kinetic:       +403.775206
Potential:     -392.337336
External:        +0.000000
XC:            -881.114549
Entropy (-ST):   -4.385828
Local:          +35.760509
Free energy:   -838.301997
Extrapolated:  -836.109083

Spin contamination: 24.586995 electrons
Showing only first 2 kpts
                      Up                     Down
 Kpt  Band  Eigenvalues  Occupancy  Eigenvalues  Occupancy
  0   488      9.52255    0.99415     10.40367    0.02471
  0   489      9.53453    0.99341     10.41833    0.02141
  0   490      9.55694    0.99177     10.42706    0.01966
  0   491      9.56578    0.99102     10.43846    0.01757

  1   488      9.51829    0.99439     10.40049    0.02549
  1   489      9.53470    0.99340     10.41429    0.02227
  1   490      9.55346    0.99205     10.43420    0.01833
  1   491      9.56326    0.99124     10.43957    0.01738

Fermi level: 10.03611

No gap

Forces in eV/Ang:
  0 Co    1.05356   -0.39183   -0.26833
  1 Ni   -0.40591   -2.42923   -1.91407
  2 Al   -1.26676    0.90061    1.77206
  3 Cr   -0.05009    1.18805   -0.26182
  4 Cr    2.04089   -0.37844    0.05653
  5 Fe    0.31068   -1.88459    0.17647
  6 Fe   -0.61830   -0.62280   -1.19457
  7 Fe   -0.19628   -0.88043    0.25541
  8 Cr    0.71020    0.42903   -0.33260
  9 Fe   -0.44117    1.04528    0.23562
 10 Fe    0.09325    0.92792   -0.03809
 11 Al   -0.27164    0.27917   -0.57775
 12 Co   -0.60118    0.43220    0.64346
 13 Fe    0.16777    0.24794    0.69583
 14 Al   -1.31077    0.83012   -0.98429
 15 Al    0.82655   -0.38079    0.30632
 16 Cr   -0.50249   -0.40809    1.56960
 17 Cr    0.39359   -0.17088    0.09469
 18 Al    0.13584   -0.35735   -0.77453
 19 Co   -0.82867    0.74993    1.36504
 20 Co   -0.28898   -1.16051    1.06449
 21 Cr   -0.42963   -0.04197   -0.05763
 22 Cr   -0.42179    1.11616   -0.02315
 23 Cr    0.54159    0.75278   -0.09825
 24 Fe   -1.97213    2.34847    1.52283
 25 Al    3.74784    0.36303    1.90079
 26 Ni    0.04408   -1.89240   -2.23849
 27 Cr   -0.06676   -0.25520   -1.56183
 28 Fe    0.84072    0.18533    1.40323
 29 Ni   -1.42239   -1.47377   -2.58836
 30 Co    0.97888    0.58220   -0.58595
 31 Fe   -0.09662   -0.31864    0.85732
 32 Fe    0.61827   -1.62701    0.52186
 33 Cr    1.42908   -0.51551    0.89510
 34 Fe   -1.73188   -1.33096   -0.67136
 35 Cr   -1.66884   -2.12393    0.15715
 36 Ni   -0.78942   -0.09391   -0.30167
 37 Ni    0.12392   -2.13388   -0.19706
 38 Co    1.16757   -0.23207   -0.48450
 39 Ni    1.54779   -1.20392    1.05507
 40 Co    0.40280    0.40545    0.65015
 41 Ni   -0.76802    1.17529    1.88348
 42 Co    0.83954    1.14414    0.37978
 43 Ni    1.70227    0.47032    0.40942
 44 Cr   -1.73833   -1.05377   -0.39139
 45 Co   -0.56803   -0.52370    0.78431
 46 Al    1.38221    0.39014   -0.20092
 47 Ni    2.15663    0.91767   -0.08286
 48 Cr   -2.33030    2.19849    2.05969
 49 Fe   -0.94363    0.03933   -2.08113
 50 Fe    1.14001   -0.69403    1.36707
 51 Ni    0.96432   -0.87847   -1.47999
 52 Ni   -0.39840   -0.28235   -0.43797
 53 Ni    1.28367   -1.34729    1.40931
 54 Co    0.43826   -0.53021    0.09864
 55 Cr   -0.12757    0.04591    1.29931
 56 Cr    1.40266    0.97270    0.69566
 57 Co    0.06616    0.48925   -0.66964
 58 Cr   -1.89106    1.96765   -1.56182
 59 Fe   -0.68167   -0.88476    0.13891
[...]
 93 Ni    0.17733    0.81177   -1.18422
 94 Cr   -1.03320   -0.18176   -0.52823
 95 Cr   -0.96884   -0.28656   -0.26914
 96 Co    0.35492    0.81152    1.82145
 97 Ni   -0.22826   -0.87867   -1.33690
 98 Ni    0.23236    1.13873   -1.88642
 99 Co    0.30826   -1.33334    2.11019
100 Co    0.60505    0.16566   -0.22685
101 Ni    0.17816   -0.84399   -0.87102
102 Fe   -0.70164    0.17690   -0.89883
103 Co    0.20517    0.12761    0.03191
104 Co   -0.60120    0.25262    0.74889
105 Ni    0.30658    0.42435   -0.88933
106 Fe    0.10057    1.30994    0.77628
107 Fe    0.56436    0.88783    0.11444

Date: Fri Apr 14 02:48:23 2023