User:   c.zeng@d0067
Date:   Sat Apr 15 21:18:59 2023
Arch:   x86_64
Pid:    135754
CWD:    /home/c.zeng/projects/hea-corrosion/hea-mlp/data-curation/bulk-mcmc/dft-jobs/84
Python: 3.8.1
gpaw:   /home/c.zeng/usr/installs/gpaw/source/gpaw-22.8.0/gpaw
_gpaw:  /home/c.zeng/usr/installs/gpaw/source/gpaw-22.8.0/
        _gpaw.cpython-38-x86_64-linux-gnu.so
ase:    /home/c.zeng/.local/lib/python3.8/site-packages/ase-3.22.1-py3.8.egg/ase (version 3.22.1)
numpy:  /shared/centos7/python/3.8.1/lib/python3.8/site-packages/numpy (version 1.17.4)
scipy:  /shared/centos7/python/3.8.1/lib/python3.8/site-packages/scipy (version 1.4.1)
units:  Angstrom and eV
cores: 30
OpenMP: False
OMP_NUM_THREADS: 1

Input parameters:
  convergence: {energy: 0.0001}
  kpts: [2 2 2]
  maxiter: 666
  mode: {ecut: 350.0,
         name: pw}
  occupations: {fixmagmom: False,
                name: fermi-dirac,
                width: 0.1}
  spinpol: True
  xc: PBE

System changes: positions, numbers, cell, pbc, initial_charges, initial_magmoms

Initialize ...

species:
  Cr:
    name: Chromium
    id: 33f258bda2ca9f93018e70263a35547b
    Z: 24.0
    valence: 6
    core: 18
    charge: 0.0
    file: /home/c.zeng/usr/data/gpaw-setups-0.9.20000/Cr.PBE.gz
    compensation charges: {type: gauss,
                           rc: 0.35,
                           lmax: 2}
    cutoffs: {filter: 2.14,
              core: 3.04}
    valence states:
      #              energy  rcut
      - 4s(1.00)    -4.007   1.164
      - 4p(0.00)    -0.989   1.217
      - 3d(5.00)    -2.913   1.111
      -  s          23.205   1.164
      -  p          26.223   1.217
      -  d          24.299   1.111

    # Using partial waves for Cr as LCAO basis

  Fe:
    name: Iron
    id: 37abbd8d6c3c35915a9b583b742da910
    Z: 26.0
    valence: 8
    core: 18
    charge: 0.0
    file: /home/c.zeng/usr/data/gpaw-setups-0.9.20000/Fe.PBE.gz
    compensation charges: {type: gauss,
                           rc: 0.33,
                           lmax: 2}
    cutoffs: {filter: 2.06,
              core: 2.67}
    valence states:
      #              energy  rcut
      - 4s(2.00)    -5.291   1.164
      - 4p(0.00)    -1.326   1.058
      - 3d(6.00)    -7.505   1.058
      -  s          21.920   1.164
      -  p          25.885   1.058
      -  d          19.706   1.058

[...]

  Co:
    name: Cobalt
    id: 339d20d5b0b93d2de9531a1bee871d91
    Z: 27.0
    valence: 9
    core: 18
    charge: 0.0
    file: /home/c.zeng/usr/data/gpaw-setups-0.9.20000/Co.PBE.gz
    compensation charges: {type: gauss,
                           rc: 0.32,
                           lmax: 2}
    cutoffs: {filter: 1.87,
              core: 2.55}
    valence states:
      #              energy  rcut
      - 4s(2.00)    -5.469   1.005
      - 4p(0.00)    -1.277   1.058
      - 3d(7.00)    -8.205   1.005
      -  s          21.742   1.005
      -  p          25.934   1.058
      -  d          19.007   1.005

[...]

  Ni:
    name: Nickel
    id: 0d9f38a9d6e76a2886f07bb4381f212b
    Z: 28.0
    valence: 16
    core: 12
    charge: 0.0
    file: /home/c.zeng/usr/data/gpaw-setups-0.9.20000/Ni.PBE.gz
    compensation charges: {type: gauss,
                           rc: 0.36,
                           lmax: 2}
    cutoffs: {filter: 2.14,
              core: 1.98}
    valence states:
      #              energy  rcut
      - 4s(2.00)    -5.642   1.164
      - 3p(6.00)   -71.394   1.207
      - 4p(0.00)    -1.226   1.207
      - 3d(8.00)    -8.875   1.138
      -  s          21.570   1.164
      -  d          18.337   1.138

[...]

  Al:
    name: Aluminium
    id: 0292cae29f5d6237e50f6abdd43a7bdd
    Z: 13.0
    valence: 3
    core: 10
    charge: 0.0
    file: /home/c.zeng/usr/data/gpaw-setups-0.9.20000/Al.PBE.gz
    compensation charges: {type: gauss,
                           rc: 0.34,
                           lmax: 2}
    cutoffs: {filter: 1.91,
              core: 2.36}
    valence states:
      #              energy  rcut
      - 3s(2.00)    -7.753   1.085
      - 3p(1.00)    -2.712   1.085
      -  s          19.459   1.085
      -  p          24.499   1.085
      -  d           0.000   1.085

    # Using partial waves for Al as LCAO basis

Reference energy: -3699400.456887  # eV

Spin-polarized calculation.
Magnetic moment: 143.500000

Convergence criteria:
 Maximum [total energy] change in last 3 cyles: 0.0001 eV / electron
 Maximum integral of absolute [dens]ity change: 0.0001 electrons / valence electron
 Maximum integral of absolute [eigenst]ate change: 4e-08 eV^2 / valence electron
 Maximum number of scf [iter]ations: 666
 (Square brackets indicate name in SCF output, whereas a 'c' in
 the SCF output indicates the quantity has converged.)

Symmetries present (total): 1

  ( 1  0  0)
  ( 0  1  0)
  ( 0  0  1)

8 k-points: 2 x 2 x 2 Monkhorst-Pack grid
4 k-points in the irreducible part of the Brillouin zone
       k-points in crystal coordinates                weights
   0:     0.25000000   -0.25000000   -0.25000000          2/8
   1:     0.25000000   -0.25000000    0.25000000          2/8
   2:     0.25000000    0.25000000   -0.25000000          2/8
   3:     0.25000000    0.25000000    0.25000000          2/8

Wave functions: Plane wave expansion
  Cutoff energy: 350.000 eV
  Number of coefficients (min, max): 18052, 18052
  Pulay-stress correction: 0.000000 eV/Ang^3 (de/decut=0.000000)
  Using FFTW library
  ScaLapack parameters: grid=1x1, blocksize=None
  Wavefunction extrapolation:
    Improved wavefunction reuse through dual PAW basis

Occupation numbers: Fermi-Dirac:
  width: 0.1000  # eV

Eigensolver
   Davidson(niter=2)

Densities:
  Coarse grid: 48*48*48 grid
  Fine grid: 96*96*96 grid
  Total Charge: 0.000000

Density mixing:
  Method: difference
  Backend: pulay
  Linear mixing parameter: 0.05
  old densities: 5
  Damping of long wavelength oscillations: 50

Hamiltonian:
  XC and Coulomb potentials evaluated on a 96*96*96 grid
  Using the PBE Exchange-Correlation functional
  External potential:
    NoExternalPotential

XC parameters: PBE with 2 nearest neighbor stencil

Total number of cores used: 30
Parallelization over k-points: 2
Domain decomposition: 5 x 3 x 1

Number of atoms: 108
Number of atomic orbitals: 1025
Number of bands in calculation: 703
Number of valence electrons: 1020
Bands to converge: occupied

... initialized

Initializing position-dependent things.

Density initialized from atomic densities
Creating initial wave functions:
  703 bands from LCAO basis set

        Cr------------------------.
       /|  Co                Co   |
      Cr|   Cr         Cr         |
     / Fe      Fe       Al        |
    /   CCo      Ni       Fe      |
   /e   | CoNi     CoAl    NiNi   |
  /  FeCr  CrCo     NiNiCo        |
 *    FeFe  FeCoCr     CoAl       |
 |     CoFeCr  CoFe Cr  CrFeNi    |
 | Fe   NiNiNiCo NiCrCrFe  Ni     |
 |   CoNi  CrAlCr   NiNiCr   Fe   |
 |    FeNi  FeFeCoNi CoFeCr   Cr  |
 |     CrFeFe  Ni CrNi  CoFeFe    |
 |      .-CoNiCo-FeCrNiCo--CoCr---.
 |   CrCo    CoAl   CrNiFe       /
 |    / Ni    CrFe       Ni     /
 |   /            Ni           /
 |Cr/      Co       Co        /
 |/            Cr           /
 *----------------Ni-------*

Positions:
   0 Cr     0.005316   -0.016350   10.639749    ( 0.0000,  0.0000,  0.0000)
   1 Cr    10.672340    1.801276    1.786848    ( 0.0000,  0.0000,  0.0000)
   2 Fe     1.795727   10.625972    1.782259    ( 0.0000,  0.0000,  0.0000)
   3 Cr     1.780787    1.796175   10.644605    ( 0.0000,  0.0000,  2.1000)
   4 Fe     3.523539   -0.014558    0.017268    ( 0.0000,  0.0000,  2.0000)
   5 Co     3.522568    1.781672    1.746648    ( 0.0000,  0.0000,  0.0000)
   6 Co     5.320952   10.642342    1.763136    ( 0.0000,  0.0000,  1.5000)
   7 Cr     5.342082    1.828767    0.007462    ( 0.0000,  0.0000,  2.0000)
   8 Ni     7.144895    0.019195    0.012033    ( 0.0000,  0.0000,  0.0000)
   9 Co     7.143497    1.798064    1.764939    ( 0.0000,  0.0000,  2.1000)
  10 Cr     8.891362   10.651627    1.788353    ( 0.0000,  0.0000,  1.5000)
  11 Co     8.888779    1.804777   10.642609    ( 0.0000,  0.0000,  2.0000)
  12 Fe     0.008694    3.581540   10.650250    ( 0.0000,  0.0000,  2.1000)
  13 Cr     0.018979    5.332745    1.789751    ( 0.0000,  0.0000,  2.1000)
  14 Ni     1.778129    3.600941    1.760019    ( 0.0000,  0.0000,  2.0000)
  15 Co     1.790423    5.343267   -0.017766    ( 0.0000,  0.0000,  2.0000)
  16 Ni     3.542802    3.589864   -0.015614    ( 0.0000,  0.0000,  2.0000)
  17 Co     3.526837    5.358538    1.765793    ( 0.0000,  0.0000,  2.0000)
  18 Fe     5.336650    3.606501    1.755815    ( 0.0000,  0.0000,  0.0000)
  19 Ni     5.300399    5.323642   -0.012797    ( 0.0000,  0.0000,  2.1000)
  20 Al     7.122858    3.584816   10.659524    ( 0.0000,  0.0000,  2.0000)
  21 Ni     7.120500    5.315168    1.805502    ( 0.0000,  0.0000,  1.5000)
  22 Ni     8.892034    3.590952    1.773146    ( 0.0000,  0.0000,  2.1000)
  23 Fe     8.925340    5.301487   -0.003100    ( 0.0000,  0.0000,  0.0000)
  24 Cr     0.023055    7.096680   -0.007939    ( 0.0000,  0.0000,  0.0000)
  25 Cr     0.019141    8.871245    1.787510    ( 0.0000,  0.0000,  1.5000)
  26 Co     1.784372    7.104567    1.776443    ( 0.0000,  0.0000,  2.0000)
  27 Co     1.779944    8.867628   10.659406    ( 0.0000,  0.0000,  1.5000)
  28 Cr     3.547785    7.097897    0.009215    ( 0.0000,  0.0000,  2.1000)
  29 Ni     3.541137    8.858109    1.788225    ( 0.0000,  0.0000,  2.1000)
  30 Cr     5.295105    7.099391    1.787894    ( 0.0000,  0.0000,  2.1000)
  31 Cr     5.303685    8.873828    0.029898    ( 0.0000,  0.0000,  0.0000)
  32 Cr     7.106883    7.088719   10.645159    ( 0.0000,  0.0000,  0.0000)
  33 Co     7.111055    8.901137    1.809472    ( 0.0000,  0.0000,  0.0000)
  34 Co     8.939384    7.093404    1.799238    ( 0.0000,  0.0000,  0.0000)
  35 Co     8.919972    8.915853   10.664881    ( 0.0000,  0.0000,  0.0000)
  36 Ni    10.679704   10.658873    3.584517    ( 0.0000,  0.0000,  2.0000)
  37 Fe    10.670921    1.796367    5.340289    ( 0.0000,  0.0000,  2.1000)
  38 Fe     1.770350   10.649001    5.343491    ( 0.0000,  0.0000,  0.0000)
  39 Co     1.791800    1.784671    3.584891    ( 0.0000,  0.0000,  2.0000)
  40 Ni     3.529718   10.626388    3.565234    ( 0.0000,  0.0000,  2.1000)
  41 Fe     3.535716    1.793465    5.367289    ( 0.0000,  0.0000,  1.5000)
  42 Co     5.311497    0.001574    5.366254    ( 0.0000,  0.0000,  1.5000)
  43 Al     5.332627    1.768055    3.580793    ( 0.0000,  0.0000,  0.0000)
  44 Ni     7.136966   10.673941    3.563804    ( 0.0000,  0.0000,  2.0000)
  45 Ni     7.136774    1.794126    5.358944    ( 0.0000,  0.0000,  2.1000)
  46 Co     8.925938   10.673621    5.347589    ( 0.0000,  0.0000,  2.0000)
  47 Fe     8.883827    1.779111    3.582404    ( 0.0000,  0.0000,  1.5000)
  48 Cr    -0.010038    3.572341    3.580996    ( 0.0000,  0.0000,  2.0000)
  49 Co    10.685573    5.328935    5.338550    ( 0.0000,  0.0000,  2.0000)
  50 Ni     1.784180    3.582949    5.348357    ( 0.0000,  0.0000,  1.5000)
  51 Fe     1.766326    5.339510    3.565255    ( 0.0000,  0.0000,  1.5000)
[...]
  Angles:   90.000000  90.000000  90.000000

Effective grid spacing dv^(1/3) = 0.2223

     iter     time        total  log10-change:  magmom
                         energy  eigst   dens
iter:   1 21:23:13  -960.525463                  +143.1753
iter:   2 21:24:49  -914.292197  -0.52  -1.32    +108.0911
iter:   3 21:26:25  -909.706621  -0.86  -1.35    +77.6867
iter:   4 21:28:01  -878.570667  -1.29  -1.34    +67.1580
iter:   5 21:29:38  -873.447902  -1.95  -1.45    +62.0003
iter:   6 21:31:14  -878.606555  -1.82  -1.51    +58.3968
iter:   7 21:32:51  -878.756795  -1.55  -1.52    +57.2000
iter:   8 21:34:27  -868.398840  -1.73  -1.56    +56.0710
iter:   9 21:36:03  -871.307693  -1.98  -1.79    +55.9907
iter:  10 21:37:39  -869.649853  -2.19  -1.81    +56.1283
iter:  11 21:39:15  -868.369176  -2.66  -1.87    +56.3287
iter:  12 21:40:51  -868.838615  -2.76  -1.94    +57.0822
iter:  13 21:42:27  -870.013026  -2.67  -1.99    +57.8686
iter:  14 21:44:03  -870.035884  -2.68  -1.99    +58.2313
iter:  15 21:45:40  -870.613225  -2.70  -2.07    +58.9043
iter:  16 21:47:16  -871.030073  -2.69  -2.09    +59.3789
iter:  17 21:48:53  -870.139332  -2.95  -2.07    +59.5468
iter:  18 21:50:28  -870.118466  -3.10  -2.21    +59.9771
iter:  19 21:52:05  -870.297709  -3.13  -2.27    +60.4367
iter:  20 21:53:41  -870.283028  -3.21  -2.28    +60.8114
iter:  21 21:55:17  -870.383951c -3.17  -2.32    +60.9856
iter:  22 21:56:54  -870.759567  -3.07  -2.35    +61.2394
iter:  23 21:58:30  -870.442555  -3.18  -2.31    +61.5349
iter:  24 22:00:07  -870.337611  -3.40  -2.41    +61.7299
iter:  25 22:01:43  -870.379764  -3.57  -2.47    +61.8481
iter:  26 22:03:19  -870.359125c -3.66  -2.51    +62.0013
iter:  27 22:04:55  -870.357216c -4.00  -2.55    +62.2809
iter:  28 22:06:31  -870.408268c -3.92  -2.61    +62.4382
iter:  29 22:08:07  -870.509647  -3.79  -2.63    +62.5736
iter:  30 22:09:44  -870.483197c -3.80  -2.60    +62.6162
iter:  31 22:11:20  -870.517652c -3.77  -2.66    +62.7436
iter:  32 22:12:57  -870.571871c -3.66  -2.68    +62.7622
iter:  33 22:14:33  -870.564353c -3.74  -2.67    +62.7113
iter:  34 22:16:10  -870.497227c -4.00  -2.67    +62.7996
iter:  35 22:17:46  -870.496808c -4.25  -2.83    +62.8817
iter:  36 22:19:22  -870.488165c -4.63  -2.85    +62.9354
iter:  37 22:20:59  -870.498010c -5.00  -2.93    +62.9699
iter:  38 22:22:36  -870.526058c -4.50  -2.95    +63.0504
iter:  39 22:24:12  -870.534311c -4.73  -2.96    +63.0602
iter:  40 22:25:48  -870.544495c -4.40  -2.98    +63.0944
iter:  41 22:27:24  -870.550640c -4.57  -3.10    +63.1191
iter:  42 22:29:00  -870.554582c -4.78  -3.20    +63.1453
iter:  43 22:30:36  -870.566775c -4.94  -3.27    +63.2230
iter:  44 22:32:12  -870.562184c -5.67  -3.43    +63.2134
iter:  45 22:33:48  -870.575961c -5.23  -3.44    +63.2730
iter:  46 22:35:24  -870.571837c -5.67  -3.45    +63.2454
iter:  47 22:37:01  -870.592317c -4.94  -3.51    +63.3229
iter:  48 22:38:37  -870.589031c -5.75  -3.54    +63.3165
iter:  49 22:40:13  -870.610332c -5.01  -3.71    +63.3986
iter:  50 22:41:49  -870.557976c -4.35  -3.65    +63.1053
iter:  51 22:43:26  -870.483042  -3.51  -3.65    +62.3820
iter:  52 22:45:02  -870.482827c -4.42  -3.42    +62.2417
iter:  53 22:46:38  -870.489074c -4.57  -3.40    +62.0350
iter:  54 22:48:14  -870.497515c -5.01  -3.40    +61.9635
iter:  55 22:49:50  -870.498177c -5.55  -3.35    +61.9770
iter:  56 22:51:27  -870.503435c -4.91  -3.36    +61.9304
iter:  57 22:53:03  -870.510622c -4.80  -3.24    +61.9359
iter:  58 22:54:39  -870.505746c -4.79  -3.15    +61.9343
iter:  59 22:56:15  -870.509178c -5.03  -3.37    +61.8922
iter:  60 22:57:52  -870.510463c -5.37  -3.41    +61.8780
iter:  61 22:59:28  -870.513752c -5.41  -3.54    +61.8475
iter:  62 23:01:04  -870.519122c -5.29  -3.56    +61.7989
iter:  63 23:02:40  -870.522139c -5.30  -3.50    +61.7730
iter:  64 23:04:16  -870.526398c -5.29  -3.50    +61.7447
iter:  65 23:05:52  -870.526540c -5.50  -3.54    +61.7341
iter:  66 23:07:29  -870.532247c -5.23  -3.65    +61.6444
iter:  67 23:09:05  -870.532743c -5.77  -3.60    +61.6404
iter:  68 23:10:41  -870.538079c -5.55  -3.71    +61.5907
iter:  69 23:12:17  -870.542193c -5.71  -3.74    +61.5651
iter:  70 23:13:53  -870.534523c -5.45  -3.72    +61.6029
iter:  71 23:15:30  -870.549138c -5.04  -3.71    +61.5084
iter:  72 23:17:07  -870.518423c -4.36  -3.64    +61.7174
iter:  73 23:18:43  -870.506994c -4.64  -3.87    +61.8612
iter:  74 23:20:19  -870.499737c -4.68  -3.90    +62.0758
iter:  75 23:21:55  -870.501396c -5.07  -3.85    +62.2484
iter:  76 23:23:32  -870.506318c -5.15  -3.83    +62.3965
iter:  77 23:25:08  -870.506571c -6.06  -3.82    +62.3355
iter:  78 23:26:45  -870.510391c -5.50  -3.81    +62.4556
iter:  79 23:28:21  -870.508509c -4.96  -3.72    +62.2036
iter:  80 23:29:57  -870.516383c -4.75  -3.58    +62.5279
iter:  81 23:31:34  -870.516041c -5.34  -3.51    +62.4615
iter:  82 23:33:10  -870.517995c -5.50  -3.59    +62.4920
iter:  83 23:34:46  -870.521916c -5.43  -3.75    +62.5144
iter:  84 23:36:22  -870.524122c -5.51  -3.63    +62.5369
iter:  85 23:37:58  -870.527155c -5.51  -3.64    +62.5454
iter:  86 23:39:34  -870.528546c -5.55  -3.61    +62.5774
iter:  87 23:41:10  -870.533156c -5.50  -3.72    +62.5994
iter:  88 23:42:46  -870.530803c -6.41  -3.68    +62.5974
iter:  89 23:44:21  -870.532006c -6.18  -3.79    +62.6278
iter:  90 23:45:57  -870.535425c -5.82  -3.82    +62.6135
iter:  91 23:47:32  -870.535971c -5.81  -3.79    +62.6615
iter:  92 23:49:08  -870.540669c -5.43  -3.77    +62.6248
iter:  93 23:50:44  -870.542863c -5.76  -3.76    +62.6726
iter:  94 23:52:20  -870.547789c -5.52  -3.80    +62.6743
iter:  95 23:53:56  -870.543908c -5.85  -3.76    +62.6934
iter:  96 23:55:31  -870.544580c -5.71  -3.93    +62.7227
iter:  97 23:57:07  -870.549700c -5.57  -3.84    +62.7041
iter:  98 23:58:42  -870.543210c -5.10  -3.94    +62.7961
iter:  99 00:00:18  -870.541694c -5.01  -3.82    +62.9009
iter: 100 00:01:54  -870.546320c -5.08  -3.65    +62.9927
iter: 101 00:03:29  -870.548259c -5.59  -3.53    +62.9717
iter: 102 00:05:04  -870.538079c -4.83  -3.65    +63.0587
iter: 103 00:06:40  -870.541103c -5.84  -3.46    +63.0297
iter: 104 00:08:15  -870.540695c -6.08  -3.48    +63.0223
iter: 105 00:09:51  -870.541291c -5.35  -3.56    +63.0360
iter: 106 00:11:26  -870.547469c -5.15  -3.37    +62.9951
iter: 107 00:13:02  -870.544395c -5.25  -3.44    +62.9657
iter: 108 00:14:37  -870.550130c -5.28  -3.70    +62.9331
iter: 109 00:16:13  -870.549011c -5.35  -3.58    +62.9292
iter: 110 00:17:48  -870.557672c -5.12  -3.67    +62.8406
iter: 111 00:19:23  -870.569240c -4.88  -3.72    +62.7615
[...]
iter: 119 00:32:04  -870.604720c -5.01  -3.36    +62.7849
iter: 120 00:33:39  -870.605987c -5.57  -3.56    +62.7851
iter: 121 00:35:14  -870.619824c -5.16  -3.74    +62.8401
iter: 122 00:36:50  -870.572598c -4.06  -3.74    +62.5709
iter: 123 00:38:25  -870.553327c -4.19  -3.55    +62.4080
iter: 124 00:40:00  -870.555240c -5.50  -3.67    +62.3950
iter: 125 00:41:35  -870.558178c -5.79  -3.86    +62.3848
iter: 126 00:43:11  -870.558006c -6.40  -3.82    +62.3806
iter: 127 00:44:46  -870.561290c -5.77  -3.91    +62.3590
iter: 128 00:46:21  -870.556715c -5.57  -3.88    +62.4001
iter: 129 00:47:56  -870.555419c -5.84  -3.85    +62.4290
iter: 130 00:49:31  -870.559698c -5.60  -3.88    +62.3921
iter: 131 00:51:07  -870.560084c -6.13  -3.93    +62.3977
iter: 132 00:52:42  -870.563716c -5.63  -3.95    +62.3828
iter: 133 00:54:16  -870.561023c -6.15  -3.93    +62.3838
iter: 134 00:55:52  -870.558618c -5.66  -4.05c   +62.3759
iter: 135 00:57:26  -870.564013c -5.43  -3.99    +62.3771
iter: 136 00:59:01  -870.560997c -5.83  -4.17c   +62.3582
iter: 137 01:00:35  -870.562483c -6.31  -4.01c   +62.3456
iter: 138 01:02:10  -870.563070c -6.51  -4.21c   +62.3582
iter: 139 01:03:45  -870.565622c -6.00  -4.44c   +62.3452
iter: 140 01:05:20  -870.557427c -4.91  -4.28c   +62.4043
iter: 141 01:06:55  -870.559485c -5.85  -4.09c   +62.3965
iter: 142 01:08:30  -870.563487c -5.72  -4.08c   +62.3808
iter: 143 01:10:06  -870.549028c -4.63  -4.03c   +62.4259
iter: 144 01:11:41  -870.547292c -5.35  -3.97    +62.4235
iter: 145 01:13:16  -870.546919c -4.97  -3.93    +62.4224
iter: 146 01:14:52  -870.548675c -5.67  -3.80    +62.4090
iter: 147 01:16:27  -870.550860c -5.83  -3.86    +62.4085
iter: 148 01:18:02  -870.553080c -5.73  -3.91    +62.4001
iter: 149 01:19:38  -870.552910c -5.76  -3.85    +62.4004
iter: 150 01:21:13  -870.554231c -5.70  -3.74    +62.3985
iter: 151 01:22:49  -870.557325c -5.59  -4.11c   +62.3990
iter: 152 01:24:25  -870.556070c -6.44  -3.95    +62.3948
iter: 153 01:26:00  -870.558055c -6.07  -4.12c   +62.3910
iter: 154 01:27:35  -870.560537c -5.75  -4.20c   +62.3896
iter: 155 01:29:11  -870.559695c -6.95  -4.14c   +62.3897
iter: 156 01:30:46  -870.559270c -7.11  -4.20c   +62.3799
iter: 157 01:32:21  -870.561767c -6.01  -4.21c   +62.3886
iter: 158 01:33:56  -870.559575c -6.16  -4.18c   +62.3762
iter: 159 01:35:32  -870.560800c -6.42  -4.14c   +62.3692
iter: 160 01:37:07  -870.562302c -6.21  -4.17c   +62.3756
iter: 161 01:38:42  -870.563922c -6.04  -4.39c   +62.3790
iter: 162 01:40:17  -870.562803c -6.81  -4.24c   +62.3702
iter: 163 01:41:53  -870.558586c -5.47  -4.57c   +62.3088
iter: 164 01:43:27  -870.560572c -6.50  -4.32c   +62.3268
iter: 165 01:45:03  -870.562016c -6.33  -4.55c   +62.3363
iter: 166 01:46:38  -870.561435c -7.58c -4.61c   +62.3329

Converged after 166 iterations.

Dipole moment: (-10.704605, 8.192288, 8.755441) |e|*Ang

Total magnetic moment: (0.000000, 0.000000, 62.332910)
Local magnetic moments:
   0 Cr ( 0.000000,  0.000000, -0.549225)
   1 Cr ( 0.000000,  0.000000,  0.275355)
   2 Fe ( 0.000000,  0.000000, -0.611662)
   3 Cr ( 0.000000,  0.000000, -0.754362)
   4 Fe ( 0.000000,  0.000000,  1.797521)
   5 Co ( 0.000000,  0.000000,  1.147689)
   6 Co ( 0.000000,  0.000000,  1.296635)
   7 Cr ( 0.000000,  0.000000, -1.199620)
   8 Ni ( 0.000000,  0.000000,  0.222169)
   9 Co ( 0.000000,  0.000000,  1.214465)
  10 Cr ( 0.000000,  0.000000, -0.841930)
  11 Co ( 0.000000,  0.000000,  0.701719)
  12 Fe ( 0.000000,  0.000000,  2.042645)
  13 Cr ( 0.000000,  0.000000, -1.132861)
  14 Ni ( 0.000000,  0.000000,  0.221254)
  15 Co ( 0.000000,  0.000000,  1.131969)
  16 Ni ( 0.000000,  0.000000,  0.300472)
  17 Co ( 0.000000,  0.000000,  0.892626)
  18 Fe ( 0.000000,  0.000000,  2.315352)
  19 Ni ( 0.000000,  0.000000,  0.173877)
  20 Al ( 0.000000,  0.000000, -0.024435)
  21 Ni ( 0.000000,  0.000000,  0.259148)
  22 Ni ( 0.000000,  0.000000,  0.138396)
  23 Fe ( 0.000000,  0.000000,  1.946685)
  24 Cr ( 0.000000,  0.000000, -1.216967)
  25 Cr ( 0.000000,  0.000000, -0.163622)
  26 Co ( 0.000000,  0.000000,  0.650567)
  27 Co ( 0.000000,  0.000000, -0.080271)
  28 Cr ( 0.000000,  0.000000, -0.009561)
  29 Ni ( 0.000000,  0.000000,  0.137839)
  30 Cr ( 0.000000,  0.000000, -0.337940)
  31 Cr ( 0.000000,  0.000000, -1.112965)
  32 Cr ( 0.000000,  0.000000,  1.110976)
  33 Co ( 0.000000,  0.000000,  1.122195)
  34 Co ( 0.000000,  0.000000,  0.692901)
  35 Co ( 0.000000,  0.000000,  0.743406)
  36 Ni ( 0.000000,  0.000000,  0.212039)
  37 Fe ( 0.000000,  0.000000,  2.129498)
  38 Fe ( 0.000000,  0.000000,  2.213006)
  39 Co ( 0.000000,  0.000000,  1.413079)
  40 Ni ( 0.000000,  0.000000,  0.331623)
  41 Fe ( 0.000000,  0.000000,  2.362365)
  42 Co ( 0.000000,  0.000000,  1.227847)
  43 Al ( 0.000000,  0.000000, -0.034416)
  44 Ni ( 0.000000,  0.000000,  0.310676)
  45 Ni ( 0.000000,  0.000000,  0.157024)
  46 Co ( 0.000000,  0.000000,  1.303785)
  47 Fe ( 0.000000,  0.000000,  2.183976)
  48 Cr ( 0.000000,  0.000000, -0.866959)
  49 Co ( 0.000000,  0.000000,  1.068207)
  50 Ni ( 0.000000,  0.000000,  0.395875)
  51 Fe ( 0.000000,  0.000000,  2.184843)
  52 Ni ( 0.000000,  0.000000,  0.315020)
  53 Al ( 0.000000,  0.000000, -0.036785)
  54 Co ( 0.000000,  0.000000,  0.877747)
  55 Cr ( 0.000000,  0.000000, -0.632190)
  56 Ni ( 0.000000,  0.000000,  0.335318)
  57 Ni ( 0.000000,  0.000000,  0.294194)
  58 Cr ( 0.000000,  0.000000, -1.241352)
  59 Fe ( 0.000000,  0.000000,  2.166675)
[...]
  93 Ni ( 0.000000,  0.000000,  0.215037)
  94 Al ( 0.000000,  0.000000, -0.035977)
  95 Fe ( 0.000000,  0.000000,  2.095300)
  96 Fe ( 0.000000,  0.000000,  2.353078)
  97 Fe ( 0.000000,  0.000000,  2.050340)
  98 Co ( 0.000000,  0.000000,  1.067063)
  99 Cr ( 0.000000,  0.000000, -1.543371)
 100 Co ( 0.000000,  0.000000,  1.149748)
 101 Fe ( 0.000000,  0.000000, -0.238249)
 102 Co ( 0.000000,  0.000000,  1.082787)
 103 Ni ( 0.000000,  0.000000,  0.233407)
 104 Co ( 0.000000,  0.000000,  1.329269)
 105 Al ( 0.000000,  0.000000, -0.022583)
 106 Ni ( 0.000000,  0.000000,  0.372002)
 107 Ni ( 0.000000,  0.000000,  0.387135)

Energy contributions relative to reference atoms: (reference = -3699400.456887)

Kinetic:        +93.610493
Potential:     -154.350873
External:        +0.000000
XC:            -845.460474
Entropy (-ST):   -4.567274
Local:          +37.923056
Free energy:   -872.845073
Extrapolated:  -870.561435

Spin contamination: 22.713654 electrons
Showing only first 2 kpts
                      Up                     Down
 Kpt  Band  Eigenvalues  Occupancy  Eigenvalues  Occupancy
  0   508      9.64250    0.99273     10.50418    0.02414
  0   509      9.66566    0.99086     10.51297    0.02215
  0   510      9.68117    0.98934     10.52192    0.02030
  0   511      9.69534    0.98774     10.53436    0.01796

  1   508      9.65135    0.99207     10.50785    0.02329
  1   509      9.66708    0.99073     10.51830    0.02103
  1   510      9.68167    0.98929     10.52738    0.01924
  1   511      9.69323    0.98799     10.53840    0.01726

Fermi level: 10.13423

No gap

Forces in eV/Ang:
  0 Cr   -0.03452    0.14166    0.30478
  1 Cr    0.30284   -0.57512   -0.06926
  2 Fe   -0.42494    0.27885   -0.13828
  3 Cr    0.44099    0.12793    0.49605
  4 Fe    0.23577   -0.11587    0.03618
  5 Co   -0.06012    0.04402    0.02887
  6 Co    0.13593    0.12190   -0.30316
  7 Cr   -0.51143   -1.02725   -0.09773
  8 Ni   -0.35183    0.02539    0.06644
  9 Co   -0.13847   -0.27467    0.03322
 10 Cr   -0.04967    0.10955   -0.45256
 11 Co    0.20530   -0.34548    0.33806
 12 Fe    0.22464   -0.19255    0.76198
 13 Cr    0.06520    0.13086   -0.13809
 14 Ni    0.05523   -0.41005    0.21298
 15 Co   -0.10403    0.05775    0.10792
 16 Ni   -0.04899   -0.19220    0.25623
 17 Co    0.21582    0.04383    0.14204
 18 Fe   -0.72502   -0.13169    0.32965
 19 Ni    0.24866    0.39570   -0.04277
 20 Al    0.11392    0.65665    1.20156
 21 Ni    0.00018    0.37484   -0.25485
 22 Ni    0.26206   -0.38483    0.26631
 23 Fe    0.27801    1.12937    0.22243
 24 Cr   -0.18221    0.17070   -0.04316
 25 Cr   -0.12125    0.07596   -0.32735
 26 Co   -0.11545   -0.06386   -0.18157
 27 Co   -0.01508    0.10669    0.11375
 28 Cr   -0.37220   -0.00780   -0.27699
 29 Ni   -0.09648    0.20237   -0.33028
 30 Cr    0.25117    0.01443    0.16719
 31 Cr    0.07370    0.24510    0.19509
 32 Cr   -0.13722   -0.13358    0.90083
 33 Co    0.22474   -0.01643   -0.25554
 34 Co   -0.27284    0.28400   -0.37073
 35 Co   -0.05843   -0.47047    0.63919
 36 Ni   -0.06200    0.16574   -0.29161
 37 Fe    0.13123   -0.06511   -0.03929
 38 Fe    0.04551   -0.00612    0.16393
 39 Co   -0.05970   -0.10342   -0.32510
 40 Ni    0.18065    0.37450   -0.04542
 41 Fe   -0.13667    0.04843    0.18218
 42 Co   -0.14014   -0.43724    0.29187
 43 Al    0.18319    0.11486   -0.17435
 44 Ni   -0.06163   -0.19108    0.00784
 45 Ni   -0.03531   -0.28938    0.02439
 46 Co   -0.08033    0.09344    0.13108
 47 Fe   -0.05952   -0.14537   -0.05982
 48 Cr    0.57246   -0.07634   -0.22378
 49 Co    0.10357   -0.01422   -0.05142
 50 Ni   -0.28562   -0.22886   -0.10506
 51 Fe   -0.26821   -0.05136   -0.46025
 52 Ni    0.21286   -0.44213   -0.47797
 53 Al   -0.56094   -0.68859    0.11209
 54 Co    0.37159    0.06998   -0.01249
 55 Cr    0.49588    0.12345   -0.34934
 56 Ni   -0.27611   -0.03537   -0.03753
 57 Ni   -0.08653    0.04808   -0.02088
 58 Cr   -0.12942    0.08203    0.18553
 59 Fe   -0.03878   -0.06747   -0.08501
[...]
 93 Ni    0.07920    0.54359    0.40606
 94 Al    0.84727    0.42389   -0.10590
 95 Fe   -0.29796    0.18444   -0.20208
 96 Fe   -0.06263    0.27224   -0.29965
 97 Fe    0.09079   -0.19833    0.45023
 98 Co    0.24208    0.21579    0.17470
 99 Cr    0.34247    0.03398    0.06460
100 Co    0.14535    0.38294    0.45206
101 Fe    0.21352    0.31765    0.02209
102 Co   -0.01124   -0.03301    0.03944
103 Ni   -0.14141    0.39370    0.04643
104 Co   -0.18572   -0.18581   -0.57942
105 Al   -0.23661    0.26906   -0.35557
106 Ni   -0.13507   -0.29735    0.41069
107 Ni   -0.14788    0.11218   -0.40123

Date: Sun Apr 16 01:46:57 2023