User:   c.zeng@d0054
Date:   Sat Apr 15 04:14:55 2023
Arch:   x86_64
Pid:    192754
CWD:    /home/c.zeng/projects/hea-corrosion/hea-mlp/data-curation/bulk-mcmc/dft-jobs/217
Python: 3.8.1
gpaw:   /home/c.zeng/usr/installs/gpaw/source/gpaw-22.8.0/gpaw
_gpaw:  /home/c.zeng/usr/installs/gpaw/source/gpaw-22.8.0/
        _gpaw.cpython-38-x86_64-linux-gnu.so
ase:    /home/c.zeng/.local/lib/python3.8/site-packages/ase-3.22.1-py3.8.egg/ase (version 3.22.1)
numpy:  /shared/centos7/python/3.8.1/lib/python3.8/site-packages/numpy (version 1.17.4)
scipy:  /shared/centos7/python/3.8.1/lib/python3.8/site-packages/scipy (version 1.4.1)
units:  Angstrom and eV
cores: 30
OpenMP: False
OMP_NUM_THREADS: 1

Input parameters:
  convergence: {energy: 0.0001}
  kpts: [2 2 2]
  maxiter: 666
  mode: {ecut: 350.0,
         name: pw}
  occupations: {fixmagmom: False,
                name: fermi-dirac,
                width: 0.1}
  spinpol: True
  xc: PBE

System changes: positions, numbers, cell, pbc, initial_charges, initial_magmoms

Initialize ...

species:
  Cr:
    name: Chromium
    id: 33f258bda2ca9f93018e70263a35547b
    Z: 24.0
    valence: 6
    core: 18
    charge: 0.0
    file: /home/c.zeng/usr/data/gpaw-setups-0.9.20000/Cr.PBE.gz
    compensation charges: {type: gauss,
                           rc: 0.35,
                           lmax: 2}
    cutoffs: {filter: 2.14,
              core: 3.04}
    valence states:
      #              energy  rcut
      - 4s(1.00)    -4.007   1.164
      - 4p(0.00)    -0.989   1.217
      - 3d(5.00)    -2.913   1.111
      -  s          23.205   1.164
      -  p          26.223   1.217
      -  d          24.299   1.111

    # Using partial waves for Cr as LCAO basis

  Al:
    name: Aluminium
    id: 0292cae29f5d6237e50f6abdd43a7bdd
    Z: 13.0
    valence: 3
    core: 10
    charge: 0.0
    file: /home/c.zeng/usr/data/gpaw-setups-0.9.20000/Al.PBE.gz
    compensation charges: {type: gauss,
                           rc: 0.34,
                           lmax: 2}
    cutoffs: {filter: 1.91,
              core: 2.36}
    valence states:
      #              energy  rcut
      - 3s(2.00)    -7.753   1.085
      - 3p(1.00)    -2.712   1.085
      -  s          19.459   1.085
      -  p          24.499   1.085
      -  d           0.000   1.085

[...]

  Ni:
    name: Nickel
    id: 0d9f38a9d6e76a2886f07bb4381f212b
    Z: 28.0
    valence: 16
    core: 12
    charge: 0.0
    file: /home/c.zeng/usr/data/gpaw-setups-0.9.20000/Ni.PBE.gz
    compensation charges: {type: gauss,
                           rc: 0.36,
                           lmax: 2}
    cutoffs: {filter: 2.14,
              core: 1.98}
    valence states:
      #              energy  rcut
      - 4s(2.00)    -5.642   1.164
      - 3p(6.00)   -71.394   1.207
      - 4p(0.00)    -1.226   1.207
      - 3d(8.00)    -8.875   1.138
      -  s          21.570   1.164
      -  d          18.337   1.138

[...]

  Co:
    name: Cobalt
    id: 339d20d5b0b93d2de9531a1bee871d91
    Z: 27.0
    valence: 9
    core: 18
    charge: 0.0
    file: /home/c.zeng/usr/data/gpaw-setups-0.9.20000/Co.PBE.gz
    compensation charges: {type: gauss,
                           rc: 0.32,
                           lmax: 2}
    cutoffs: {filter: 1.87,
              core: 2.55}
    valence states:
      #              energy  rcut
      - 4s(2.00)    -5.469   1.005
      - 4p(0.00)    -1.277   1.058
      - 3d(7.00)    -8.205   1.005
      -  s          21.742   1.005
      -  p          25.934   1.058
      -  d          19.007   1.005

[...]

  Fe:
    name: Iron
    id: 37abbd8d6c3c35915a9b583b742da910
    Z: 26.0
    valence: 8
    core: 18
    charge: 0.0
    file: /home/c.zeng/usr/data/gpaw-setups-0.9.20000/Fe.PBE.gz
    compensation charges: {type: gauss,
                           rc: 0.33,
                           lmax: 2}
    cutoffs: {filter: 2.06,
              core: 2.67}
    valence states:
      #              energy  rcut
      - 4s(2.00)    -5.291   1.164
      - 4p(0.00)    -1.326   1.058
      - 3d(6.00)    -7.505   1.058
      -  s          21.920   1.164
      -  p          25.885   1.058
      -  d          19.706   1.058

    # Using partial waves for Fe as LCAO basis

Reference energy: -3235165.067515  # eV

Spin-polarized calculation.
Magnetic moment: 121.100000

Convergence criteria:
 Maximum [total energy] change in last 3 cyles: 0.0001 eV / electron
 Maximum integral of absolute [dens]ity change: 0.0001 electrons / valence electron
 Maximum integral of absolute [eigenst]ate change: 4e-08 eV^2 / valence electron
 Maximum number of scf [iter]ations: 666
 (Square brackets indicate name in SCF output, whereas a 'c' in
 the SCF output indicates the quantity has converged.)

Symmetries present (total): 1

  ( 1  0  0)
  ( 0  1  0)
  ( 0  0  1)

8 k-points: 2 x 2 x 2 Monkhorst-Pack grid
4 k-points in the irreducible part of the Brillouin zone
       k-points in crystal coordinates                weights
   0:     0.25000000   -0.25000000   -0.25000000          2/8
   1:     0.25000000   -0.25000000    0.25000000          2/8
   2:     0.25000000    0.25000000   -0.25000000          2/8
   3:     0.25000000    0.25000000    0.25000000          2/8

Wave functions: Plane wave expansion
  Cutoff energy: 350.000 eV
  Number of coefficients (min, max): 19084, 19084
  Pulay-stress correction: 0.000000 eV/Ang^3 (de/decut=0.000000)
  Using FFTW library
  ScaLapack parameters: grid=1x1, blocksize=None
  Wavefunction extrapolation:
    Improved wavefunction reuse through dual PAW basis

Occupation numbers: Fermi-Dirac:
  width: 0.1000  # eV

Eigensolver
   Davidson(niter=2)

Densities:
  Coarse grid: 48*48*48 grid
  Fine grid: 96*96*96 grid
  Total Charge: 0.000000

Density mixing:
  Method: difference
  Backend: pulay
  Linear mixing parameter: 0.05
  old densities: 5
  Damping of long wavelength oscillations: 50

Hamiltonian:
  XC and Coulomb potentials evaluated on a 96*96*96 grid
  Using the PBE Exchange-Correlation functional
  External potential:
    NoExternalPotential

XC parameters: PBE with 2 nearest neighbor stencil

Total number of cores used: 30
Parallelization over k-points: 2
Domain decomposition: 5 x 3 x 1

Number of atoms: 108
Number of atomic orbitals: 933
Number of bands in calculation: 624
Number of valence electrons: 912
Bands to converge: occupied

... initialized

Initializing position-dependent things.

Density initialized from atomic densities
Creating initial wave functions:
  624 bands from LCAO basis set

        .--------Al----------------.
       /|           Fe             |
      / |    FeFe     Ni           |
     / Cr       Ni       Al        |
    /   |Fe      CrCo       Fe     |
   /    | CrCr      ACo            |
  /    Co  FerAlAl    Co Fe  CoAl  |
 *      Fe     AlCoAl   CrFe     Ni|
 |      |FeCr   NiFeFe   AlCrNi   Co
 |      | CoCr   AlCoCoAl NiCrFe   |
 |     Fe  Al CoCo  CrNi Ni  NiNi  |
 |      Ni  Ni NiCrCo CoCrCoAl   Fe|
 |      |NiCo   CoAlAl   CoCrFe   Fe
 |      .-FeNi-----NiCr-Al--NiFe---.
 |     Al  Cr CoNi    Al Co  Cr Ni/
 |    / Co              Cr       Ni
 |   /           Ali      NiFe  /
 |  /      Cr       Fe     CrAl/
 | /                   Fe     /r
 *--------------------------Cr

Positions:
   0 Cr    10.797848    0.093654    0.085777    ( 0.0000,  0.0000,  0.0000)
   1 Al    10.831824    1.844742    1.870716    ( 0.0000,  0.0000,  2.0000)
   2 Ni     1.786803   10.847372    1.827335    ( 0.0000,  0.0000,  0.0000)
   3 Co     1.769614    1.870531   -0.031264    ( 0.0000,  0.0000,  0.0000)
   4 Al     3.620857   10.822050   10.833629    ( 0.0000,  0.0000,  1.5000)
   5 Cr     3.571246    1.883176    1.708402    ( 0.0000,  0.0000,  0.0000)
   6 Co     5.521103   10.788063    1.666217    ( 0.0000,  0.0000,  0.0000)
   7 Al     5.520831    1.813973   10.830911    ( 0.0000,  0.0000,  1.5000)
   8 Al     7.330846    0.011025   10.815657    ( 0.0000,  0.0000,  2.0000)
   9 Fe     7.282018    1.809483    1.793250    ( 0.0000,  0.0000,  2.1000)
  10 Fe     9.029996    0.022005    1.811918    ( 0.0000,  0.0000,  1.5000)
  11 Fe     9.007196    1.868639   10.825714    ( 0.0000,  0.0000,  2.0000)
  12 Cr    10.861310    3.649723    0.014171    ( 0.0000,  0.0000,  2.0000)
  13 Ni    10.867442    5.463468    1.819235    ( 0.0000,  0.0000,  2.1000)
  14 Co     1.756088    3.650267    1.845949    ( 0.0000,  0.0000,  0.0000)
  15 Fe     1.790358    5.439092   10.869084    ( 0.0000,  0.0000,  2.1000)
  16 Cr     3.687842    3.622792   -0.049287    ( 0.0000,  0.0000,  2.0000)
  17 Co     3.667347    5.391145    1.745368    ( 0.0000,  0.0000,  0.0000)
  18 Al     5.497977    3.634415    1.792370    ( 0.0000,  0.0000,  2.0000)
  19 Ni     5.524908    5.448029    0.002551    ( 0.0000,  0.0000,  2.0000)
  20 Co     7.223340    3.611877   10.834270    ( 0.0000,  0.0000,  0.0000)
  21 Al     7.217762    5.474830    1.807776    ( 0.0000,  0.0000,  2.1000)
  22 Ni     9.073442    3.654344    1.775148    ( 0.0000,  0.0000,  0.0000)
  23 Cr     9.008740    5.418608    0.007692    ( 0.0000,  0.0000,  2.0000)
  24 Ni    10.859190    7.178720    0.014480    ( 0.0000,  0.0000,  1.5000)
  25 Fe    -0.018106    8.970948    1.875391    ( 0.0000,  0.0000,  0.0000)
  26 Fe     1.817615    7.224025    1.802546    ( 0.0000,  0.0000,  1.5000)
  27 Cr     1.880729    8.993464   10.874031    ( 0.0000,  0.0000,  0.0000)
  28 Fe     3.684428    7.260447   -0.001356    ( 0.0000,  0.0000,  2.0000)
  29 Co     3.612616    9.025636    1.761807    ( 0.0000,  0.0000,  1.5000)
  30 Ni     5.481440    7.275114    1.811211    ( 0.0000,  0.0000,  1.5000)
  31 Fe     5.461261    9.048153   10.833988    ( 0.0000,  0.0000,  1.5000)
  32 Cr     7.245704    7.257881    0.056891    ( 0.0000,  0.0000,  2.1000)
  33 Co     7.301969    9.004609    1.790315    ( 0.0000,  0.0000,  0.0000)
  34 Ni     9.029343    7.181775    1.815549    ( 0.0000,  0.0000,  2.0000)
  35 Cr     9.030561    9.042010    0.020232    ( 0.0000,  0.0000,  1.5000)
  36 Fe    -0.031046    0.001947    3.645701    ( 0.0000,  0.0000,  2.0000)
  37 Fe    10.825910    1.804351    5.434602    ( 0.0000,  0.0000,  2.1000)
  38 Cr     1.743552   10.849296    5.484376    ( 0.0000,  0.0000,  0.0000)
  39 Al     1.769755    1.791891    3.636068    ( 0.0000,  0.0000,  1.5000)
  40 Al     3.516667   10.719828    3.663227    ( 0.0000,  0.0000,  0.0000)
  41 Co     3.644244    1.785205    5.586728    ( 0.0000,  0.0000,  0.0000)
  42 Al     5.484778   10.815439    5.504022    ( 0.0000,  0.0000,  0.0000)
  43 Ni     5.457934    1.842230    3.658769    ( 0.0000,  0.0000,  0.0000)
  44 Ni     7.360615   10.815439    3.672229    ( 0.0000,  0.0000,  0.0000)
  45 Al     7.266884    1.811614    5.485528    ( 0.0000,  0.0000,  2.1000)
  46 Al     9.077986    0.023590    5.491921    ( 0.0000,  0.0000,  0.0000)
  47 Co     9.066788    1.824226    3.671175    ( 0.0000,  0.0000,  1.5000)
  48 Fe    -0.047135    3.649615    3.617291    ( 0.0000,  0.0000,  2.0000)
  49 Ni    10.809264    5.435993    5.379805    ( 0.0000,  0.0000,  2.0000)
  50 Ni     1.752316    3.624989    5.344676    ( 0.0000,  0.0000,  0.0000)
  51 Ni     1.805786    5.472046    3.619389    ( 0.0000,  0.0000,  2.1000)
  52 Ni     3.649408    3.633491    3.631251    ( 0.0000,  0.0000,  2.1000)
  53 Co     3.657628    5.433797    5.434015    ( 0.0000,  0.0000,  1.5000)
  54 Cr     5.413368    3.672642    5.480309    ( 0.0000,  0.0000,  1.5000)
  55 Al     5.413835    5.465588    3.639666    ( 0.0000,  0.0000,  2.1000)
  56 Cr     7.223449    3.731734    3.720829    ( 0.0000,  0.0000,  0.0000)
  57 Ni     7.220557    5.483180    5.485572    ( 0.0000,  0.0000,  0.0000)
  58 Co     9.069039    3.623673    5.469720    ( 0.0000,  0.0000,  1.5000)
  59 Cr     9.064766    5.503837    3.636731    ( 0.0000,  0.0000,  0.0000)
[...]
  93 Co     7.214631    5.385893    9.048577    ( 0.0000,  0.0000,  2.1000)
  94 Fe     8.994291    3.655975    9.039237    ( 0.0000,  0.0000,  1.5000)
  95 Cr     9.006577    5.423262    7.223296    ( 0.0000,  0.0000,  2.0000)
  96 Ni    -0.070637    7.291956    7.110419    ( 0.0000,  0.0000,  0.0000)
  97 Cr     0.073012    9.104570    9.068375    ( 0.0000,  0.0000,  0.0000)
  98 Cr     1.863247    7.257381    9.054785    ( 0.0000,  0.0000,  2.0000)
  99 Fe     1.858343    9.053708    7.225808    ( 0.0000,  0.0000,  2.1000)
 100 Al     3.683906    7.292456    7.235550    ( 0.0000,  0.0000,  2.0000)
 101 Ni     3.628218    9.069550    9.051262    ( 0.0000,  0.0000,  2.1000)
 102 Co     5.530605    7.331890    9.040129    ( 0.0000,  0.0000,  0.0000)
 103 Al     5.476232    9.097209    7.250467    ( 0.0000,  0.0000,  2.0000)
 104 Cr     7.256827    7.264242    7.208456    ( 0.0000,  0.0000,  2.1000)
 105 Al     7.272548    9.136437    9.056861    ( 0.0000,  0.0000,  1.5000)
 106 Fe     8.936493    7.190875    9.109767    ( 0.0000,  0.0000,  0.0000)
 107 Co     8.994682    9.112169    7.218480    ( 0.0000,  0.0000,  0.0000)

Unit cell:
           periodic     x           y           z      points  spacing
  1. axis:    yes   10.872400    0.000000    0.000000    48     0.2265
  2. axis:    yes    0.000000   10.872400    0.000000    48     0.2265
  3. axis:    yes    0.000000    0.000000   10.872400    48     0.2265

  Lengths:  10.872400  10.872400  10.872400
  Angles:   90.000000  90.000000  90.000000

Effective grid spacing dv^(1/3) = 0.2265

     iter     time        total  log10-change:  magmom
                         energy  eigst   dens
iter:   1 04:19:32  -903.852767                  +120.1014
iter:   2 04:21:38  -858.134962  -0.30  -1.26    +84.1731
iter:   3 04:23:44  -841.873981  -0.73  -1.24    +52.7994
iter:   4 04:25:50  -811.981311  -1.23  -1.27    +46.4527
iter:   5 04:27:56  -806.980567  -1.79  -1.39    +42.4511
iter:   6 04:30:01  -810.605666  -1.73  -1.43    +41.1931
iter:   7 04:32:07  -807.616085  -1.57  -1.44    +40.9895
iter:   8 04:34:12  -804.876484  -1.80  -1.51    +41.4224
iter:   9 04:36:18  -813.646702  -1.60  -1.57    +41.6414
iter:  10 04:38:24  -802.374054  -1.82  -1.54    +41.5140
iter:  11 04:40:29  -803.568106  -2.13  -1.76    +42.2513
iter:  12 04:42:35  -801.577788  -2.31  -1.75    +43.0207
iter:  13 04:44:41  -802.000911  -2.62  -1.88    +44.3166
iter:  14 04:46:46  -802.953465  -2.50  -1.92    +44.8718
iter:  15 04:48:51  -802.877862  -2.59  -1.93    +45.7551
iter:  16 04:50:56  -803.280519  -2.55  -1.97    +46.5815
iter:  17 04:53:02  -802.394992  -2.81  -1.98    +47.0786
iter:  18 04:55:07  -802.630964  -2.98  -2.13    +47.6824
iter:  19 04:57:11  -802.684632  -3.08  -2.16    +48.3127
iter:  20 04:59:16  -802.884594  -3.08  -2.21    +48.8009
iter:  21 05:01:22  -802.962366  -3.02  -2.24    +48.9760
iter:  22 05:03:27  -802.882227c -3.22  -2.29    +49.3359
iter:  23 05:05:32  -803.067055  -3.20  -2.38    +49.6640
iter:  24 05:07:37  -803.077502  -3.48  -2.41    +49.7864
iter:  25 05:09:43  -803.223668  -3.48  -2.49    +50.0512
iter:  26 05:11:48  -803.328071  -3.58  -2.51    +50.1487
iter:  27 05:13:54  -803.485506  -3.51  -2.54    +50.2894
iter:  28 05:15:59  -803.615815  -3.53  -2.56    +50.3229
iter:  29 05:18:04  -803.843101  -3.21  -2.57    +50.2380
iter:  30 05:20:10  -804.071502  -3.27  -2.50    +49.9799
iter:  31 05:22:16  -803.968859  -3.75  -2.45    +50.0724
iter:  32 05:24:21  -804.181402  -3.57  -2.50    +49.8302
iter:  33 05:26:26  -804.144545  -4.21  -2.50    +49.8948
iter:  34 05:28:32  -804.063944  -3.30  -2.53    +49.7530
iter:  35 05:30:37  -804.142469c -3.30  -2.45    +49.5402
iter:  36 05:32:43  -804.067273c -3.50  -2.51    +49.3059
iter:  37 05:34:48  -804.066525c -3.68  -2.53    +49.0882
iter:  38 05:36:53  -804.031098c -3.80  -2.61    +48.9705
iter:  39 05:38:58  -804.014043c -4.00  -2.76    +48.7946
iter:  40 05:41:03  -804.047970c -4.16  -2.92    +48.7040
iter:  41 05:43:08  -804.060206c -4.42  -2.91    +48.6680
iter:  42 05:45:14  -804.083283c -4.47  -2.96    +48.5173
iter:  43 05:47:18  -804.119034c -4.25  -2.99    +48.3916
iter:  44 05:49:23  -804.181614  -3.84  -3.00    +48.1471
iter:  45 05:51:27  -804.251357  -3.42  -2.94    +47.7937
iter:  46 05:53:32  -804.252592c -4.64  -2.81    +47.9445
iter:  47 05:55:37  -804.256965c -4.81  -2.81    +47.9498
iter:  48 05:57:42  -804.271853c -4.62  -2.81    +47.9619
iter:  49 05:59:47  -804.257895c -4.79  -2.78    +47.9620
iter:  50 06:01:48  -804.302152c -3.86  -2.80    +47.9762
iter:  51 06:03:53  -804.244926c -4.30  -2.67    +47.9661
iter:  52 06:05:58  -804.253114c -4.17  -2.81    +47.9582
iter:  53 06:08:03  -804.277694c -3.92  -2.77    +47.9366
iter:  54 06:10:08  -804.225020c -4.36  -2.75    +47.9002
iter:  55 06:12:14  -804.243980c -4.17  -2.93    +47.8490
iter:  56 06:14:19  -804.245979c -4.13  -2.92    +47.8565
iter:  57 06:16:24  -804.231020c -4.29  -2.88    +47.9388
iter:  58 06:18:29  -804.228818c -4.50  -2.98    +47.9066
iter:  59 06:20:34  -804.222389c -4.62  -3.04    +47.8838
iter:  60 06:22:40  -804.221388c -4.68  -3.11    +47.9009
iter:  61 06:24:45  -804.216528c -5.13  -3.11    +47.9112
iter:  62 06:26:50  -804.222230c -5.08  -3.21    +47.9108
iter:  63 06:28:55  -804.220018c -5.04  -3.20    +47.9060
iter:  64 06:31:00  -804.219415c -5.08  -3.22    +47.9256
iter:  65 06:33:06  -804.219465c -5.19  -3.25    +47.9342
iter:  66 06:35:11  -804.223110c -5.03  -3.31    +47.9272
iter:  67 06:37:16  -804.221134c -5.26  -3.26    +47.9211
iter:  68 06:39:21  -804.218939c -5.43  -3.35    +47.9219
iter:  69 06:41:26  -804.220122c -5.47  -3.38    +47.9349
iter:  70 06:43:31  -804.220678c -5.75  -3.41    +47.9198
iter:  71 06:45:37  -804.220618c -5.69  -3.46    +47.9123
iter:  72 06:47:41  -804.221029c -5.80  -3.45    +47.9090
iter:  73 06:49:43  -804.221201c -5.58  -3.47    +47.9053
iter:  74 06:51:48  -804.224188c -5.54  -3.48    +47.8930
iter:  75 06:53:53  -804.223790c -5.35  -3.49    +47.8768
iter:  76 06:55:58  -804.222161c -5.57  -3.49    +47.8836
iter:  77 06:58:03  -804.224096c -5.40  -3.63    +47.8756
iter:  78 07:00:09  -804.223249c -5.75  -3.54    +47.8675
iter:  79 07:02:15  -804.223806c -5.85  -3.69    +47.8561
iter:  80 07:04:20  -804.222911c -6.26  -3.70    +47.8564
iter:  81 07:06:25  -804.223517c -6.40  -3.78    +47.8569
iter:  82 07:08:30  -804.224025c -6.49  -3.81    +47.8449
iter:  83 07:10:35  -804.225291c -5.96  -3.81    +47.8293
iter:  84 07:12:41  -804.225138c -6.50  -3.71    +47.8361
iter:  85 07:14:46  -804.225653c -6.03  -3.76    +47.8247
iter:  86 07:16:51  -804.224835c -5.85  -3.74    +47.8253
iter:  87 07:18:57  -804.225332c -6.11  -3.80    +47.8232
iter:  88 07:21:02  -804.225589c -6.58  -4.23c   +47.8116
iter:  89 07:23:07  -804.225854c -6.71  -4.37c   +47.8072
iter:  90 07:25:12  -804.226201c -6.47  -4.40c   +47.7924
iter:  91 07:27:18  -804.226719c -6.15  -4.41c   +47.7726
iter:  92 07:29:23  -804.227836c -5.54  -4.35c   +47.7250
iter:  93 07:31:29  -804.228431c -5.73  -4.13c   +47.6982
iter:  94 07:33:35  -804.228531c -6.52  -4.04c   +47.6988
iter:  95 07:35:40  -804.228336c -6.80  -4.03c   +47.6975
iter:  96 07:37:46  -804.228379c -7.10  -4.07c   +47.6978
iter:  97 07:39:51  -804.229087c -6.37  -4.06c   +47.6974
iter:  98 07:41:56  -804.228443c -6.07  -3.88    +47.6966
iter:  99 07:44:03  -804.228677c -6.57  -3.97    +47.6991
iter: 100 07:46:08  -804.228248c -6.73  -4.05c   +47.6989
iter: 101 07:48:11  -804.228803c -6.55  -4.10c   +47.6980
iter: 102 07:50:12  -804.228433c -6.57  -4.03c   +47.6939
iter: 103 07:52:17  -804.228289c -6.61  -4.15c   +47.6912
iter: 104 07:54:23  -804.228478c -6.87  -4.28c   +47.6888
iter: 105 07:56:28  -804.228231c -7.07  -4.29c   +47.6896
iter: 106 07:58:34  -804.228420c -7.35  -4.35c   +47.6889
iter: 107 08:00:39  -804.228214c -7.30  -4.43c   +47.6869
iter: 108 08:02:45  -804.228322c -7.55c -4.44c   +47.6873

Converged after 108 iterations.

Dipole moment: (27.869374, 16.622953, 7.368165) |e|*Ang

Total magnetic moment: (0.000000, 0.000000, 47.687275)
Local magnetic moments:
   0 Cr ( 0.000000,  0.000000, -1.727329)
   1 Al ( 0.000000,  0.000000, -0.031105)
   2 Ni ( 0.000000,  0.000000,  0.035514)
   3 Co ( 0.000000,  0.000000,  0.512067)
   4 Al ( 0.000000,  0.000000, -0.019806)
   5 Cr ( 0.000000,  0.000000, -2.270684)
   6 Co ( 0.000000,  0.000000,  0.984803)
   7 Al ( 0.000000,  0.000000, -0.021196)
   8 Al ( 0.000000,  0.000000, -0.047024)
   9 Fe ( 0.000000,  0.000000,  2.208631)
  10 Fe ( 0.000000,  0.000000,  2.163844)
  11 Fe ( 0.000000,  0.000000,  2.070256)
  12 Cr ( 0.000000,  0.000000, -2.044623)
  13 Ni ( 0.000000,  0.000000,  0.261370)
  14 Co ( 0.000000,  0.000000,  1.008314)
  15 Fe ( 0.000000,  0.000000,  2.188203)
  16 Cr ( 0.000000,  0.000000,  1.458540)
  17 Co ( 0.000000,  0.000000,  1.264242)
  18 Al ( 0.000000,  0.000000, -0.007737)
  19 Ni ( 0.000000,  0.000000,  0.320936)
  20 Co ( 0.000000,  0.000000,  1.110641)
  21 Al ( 0.000000,  0.000000,  0.004639)
  22 Ni ( 0.000000,  0.000000,  0.103644)
  23 Cr ( 0.000000,  0.000000,  1.307468)
  24 Ni ( 0.000000,  0.000000,  0.093183)
  25 Fe ( 0.000000,  0.000000,  2.215013)
  26 Fe ( 0.000000,  0.000000,  2.450120)
  27 Cr ( 0.000000,  0.000000, -1.581097)
  28 Fe ( 0.000000,  0.000000,  2.321038)
  29 Co ( 0.000000,  0.000000,  0.959738)
  30 Ni ( 0.000000,  0.000000,  0.185715)
  31 Fe ( 0.000000,  0.000000,  2.316277)
  32 Cr ( 0.000000,  0.000000, -1.549696)
  33 Co ( 0.000000,  0.000000,  0.902802)
  34 Ni ( 0.000000,  0.000000,  0.031799)
  35 Cr ( 0.000000,  0.000000,  0.734692)
  36 Fe ( 0.000000,  0.000000,  2.185181)
  37 Fe ( 0.000000,  0.000000,  2.003960)
  38 Cr ( 0.000000,  0.000000, -1.825353)
  39 Al ( 0.000000,  0.000000, -0.020350)
  40 Al ( 0.000000,  0.000000,  0.009124)
  41 Co ( 0.000000,  0.000000, -0.447749)
  42 Al ( 0.000000,  0.000000, -0.003611)
  43 Ni ( 0.000000,  0.000000, -0.041348)
  44 Ni ( 0.000000,  0.000000,  0.102311)
  45 Al ( 0.000000,  0.000000, -0.019463)
  46 Al ( 0.000000,  0.000000, -0.030984)
  47 Co ( 0.000000,  0.000000,  1.208734)
  48 Fe ( 0.000000,  0.000000,  2.486269)
  49 Ni ( 0.000000,  0.000000,  0.271545)
  50 Ni ( 0.000000,  0.000000,  0.413468)
  51 Ni ( 0.000000,  0.000000,  0.521530)
  52 Ni ( 0.000000,  0.000000,  0.129408)
  53 Co ( 0.000000,  0.000000,  1.139695)
  54 Cr ( 0.000000,  0.000000,  1.083099)
  55 Al ( 0.000000,  0.000000, -0.013569)
  56 Cr ( 0.000000,  0.000000, -1.684255)
  57 Ni ( 0.000000,  0.000000,  0.018943)
  58 Co ( 0.000000,  0.000000,  1.223968)
  59 Cr ( 0.000000,  0.000000, -1.452024)
[...]
  93 Co ( 0.000000,  0.000000,  0.889725)
  94 Fe ( 0.000000,  0.000000,  2.008817)
  95 Cr ( 0.000000,  0.000000, -1.449597)
  96 Ni ( 0.000000,  0.000000,  0.103741)
  97 Cr ( 0.000000,  0.000000, -0.903359)
  98 Cr ( 0.000000,  0.000000,  0.968727)
  99 Fe ( 0.000000,  0.000000,  1.940916)
 100 Al ( 0.000000,  0.000000, -0.033499)
 101 Ni ( 0.000000,  0.000000,  0.054119)
 102 Co ( 0.000000,  0.000000,  0.858546)
 103 Al ( 0.000000,  0.000000, -0.012125)
 104 Cr ( 0.000000,  0.000000,  1.058473)
 105 Al ( 0.000000,  0.000000, -0.008135)
 106 Fe ( 0.000000,  0.000000, -1.981516)
 107 Co ( 0.000000,  0.000000,  0.271911)

Energy contributions relative to reference atoms: (reference = -3235165.067515)

Kinetic:       +248.910875
Potential:     -239.481376
External:        +0.000000
XC:            -842.893670
Entropy (-ST):   -4.078455
Local:          +31.275077
Free energy:   -806.267549
Extrapolated:  -804.228322

Spin contamination: 30.587754 electrons
Showing only first 2 kpts
                      Up                     Down
 Kpt  Band  Eigenvalues  Occupancy  Eigenvalues  Occupancy
  0   454      9.06745    0.99044      9.84769    0.04064
  0   455      9.07864    0.98932      9.85386    0.03830
  0   456      9.09821    0.98704      9.86924    0.03302
  0   457      9.11338    0.98496      9.88929    0.02718

  1   454      9.07061    0.99014      9.83860    0.04433
  1   455      9.09390    0.98758      9.85392    0.03828
  1   456      9.09894    0.98695      9.87447    0.03139
  1   457      9.12234    0.98357      9.88926    0.02719

Fermi level: 9.53153

No gap

Forces in eV/Ang:
  0 Cr    0.40537   -0.68086   -0.57603
  1 Al   -0.31080    0.21060   -0.39712
  2 Ni   -0.08768    0.05538   -0.14475
  3 Co    0.00467   -0.26695   -0.18242
  4 Al   -0.14858    0.00546    0.29930
  5 Cr    0.15983    0.24880    0.20716
  6 Co   -0.14572    0.23131    0.94800
  7 Al   -0.05147   -0.05290   -0.25957
  8 Al   -0.88076    0.04285    1.73328
  9 Fe    0.35305   -0.02778    0.77110
 10 Fe    0.04739   -0.52784    0.41083
 11 Fe    0.50065    0.38691    0.16057
 12 Cr    0.20544   -0.48687   -0.05504
 13 Ni   -0.13082   -0.20957   -0.00703
 14 Co    0.21516    0.17419   -0.25364
 15 Fe    0.28121   -0.18467    0.30344
 16 Cr   -0.79815   -0.75214    0.73439
 17 Co   -0.78402    0.30780    0.02458
 18 Al   -0.63774   -0.43047    0.39466
 19 Ni   -0.31144   -0.04573   -0.32052
 20 Co    0.47028    0.15176   -0.08032
 21 Al    0.61799   -0.41875   -0.38541
 22 Ni   -0.46158   -0.14900    0.43090
 23 Cr   -0.16581    0.34970   -0.20483
 24 Ni   -0.18430    0.66265   -0.17781
 25 Fe   -0.31337    0.52954   -0.73503
 26 Fe    0.29704   -0.27463   -0.07639
 27 Cr   -1.11539   -0.67207    0.00052
 28 Fe    0.09873   -0.02724    0.43470
 29 Co    0.34213   -0.25779    0.25613
 30 Ni   -0.68931    0.02192    0.11088
 31 Fe    0.07443   -0.39975    0.65415
 32 Cr    0.03927    0.61551   -0.80482
 33 Co    0.02683    0.32476    0.29964
 34 Ni    0.34073    0.32769   -0.06586
 35 Cr    1.03448   -0.88588    0.21684
 36 Fe   -0.16014   -0.45436   -0.06296
 37 Fe    0.09112    0.56149   -0.18992
 38 Cr    0.47141    0.24093    0.37032
 39 Al    0.93270    0.95317    0.70759
 40 Al    1.53025    1.22184   -0.64098
 41 Co   -0.01115    0.05672   -0.42510
 42 Al   -0.87689    1.91958   -0.92422
 43 Ni   -0.18207   -0.53342   -0.14587
 44 Ni   -0.87227    0.18281   -0.05426
 45 Al    0.02202    0.62833   -0.23524
 46 Al   -0.21570   -0.53382   -0.96811
 47 Co   -0.31901    0.26830   -0.26117
 48 Fe   -0.11971    0.58764    0.33837
 49 Ni    0.19570   -0.08569    0.51203
 50 Ni    0.43416    0.10587    0.71641
 51 Ni    0.38491   -0.15241   -0.03558
 52 Ni   -0.02615   -0.10389   -0.02946
 53 Co   -0.38963    0.13232    0.10925
 54 Cr   -0.16012   -0.85608    0.26993
 55 Al   -1.41394    0.86619    0.62654
 56 Cr    0.45940   -1.07469   -0.14156
 57 Ni    0.18009   -0.39294    0.00641
 58 Co   -0.07159    0.54409   -0.43648
 59 Cr    0.32102   -0.46261    0.36966
[...]
 93 Co   -0.04967    0.25716   -0.16614
 94 Fe   -0.16402   -0.33623   -0.09205
 95 Cr   -0.32558   -0.27054   -0.24317
 96 Ni    0.05607   -0.00939    0.81402
 97 Cr   -0.09134   -1.38414   -0.06729
 98 Cr   -1.08627    0.70396    0.44014
 99 Fe   -1.06243    0.06523    0.10481
100 Al   -0.37556   -0.57545   -0.44877
101 Ni    0.21687   -0.31181   -0.02493
102 Co   -0.09283   -0.65014    0.20176
103 Al   -0.52620   -0.51341    1.14474
104 Cr    0.58718   -1.41794    0.68144
105 Al   -0.07633   -1.40941   -0.57502
106 Fe    0.89418    0.57024   -0.43053
107 Co    1.03180   -0.86465    0.22629

Date: Sat Apr 15 08:03:04 2023