User:   c.zeng@d0080
Date:   Fri Apr 14 04:31:13 2023
Arch:   x86_64
Pid:    69351
CWD:    /home/c.zeng/projects/hea-corrosion/hea-mlp/data-curation/bulk-mcmc/dft-jobs/100
Python: 3.8.1
gpaw:   /home/c.zeng/usr/installs/gpaw/source/gpaw-22.8.0/gpaw
_gpaw:  /home/c.zeng/usr/installs/gpaw/source/gpaw-22.8.0/
        _gpaw.cpython-38-x86_64-linux-gnu.so
ase:    /home/c.zeng/.local/lib/python3.8/site-packages/ase-3.22.1-py3.8.egg/ase (version 3.22.1)
numpy:  /shared/centos7/python/3.8.1/lib/python3.8/site-packages/numpy (version 1.17.4)
scipy:  /shared/centos7/python/3.8.1/lib/python3.8/site-packages/scipy (version 1.4.1)
units:  Angstrom and eV
cores: 30
OpenMP: False
OMP_NUM_THREADS: 1

Input parameters:
  convergence: {energy: 0.0001}
  kpts: [2 2 2]
  maxiter: 666
  mode: {ecut: 350.0,
         name: pw}
  occupations: {fixmagmom: False,
                name: fermi-dirac,
                width: 0.1}
  spinpol: True
  xc: PBE

System changes: positions, numbers, cell, pbc, initial_charges, initial_magmoms

Initialize ...

species:
  Co:
    name: Cobalt
    id: 339d20d5b0b93d2de9531a1bee871d91
    Z: 27.0
    valence: 9
    core: 18
    charge: 0.0
    file: /home/c.zeng/usr/data/gpaw-setups-0.9.20000/Co.PBE.gz
    compensation charges: {type: gauss,
                           rc: 0.32,
                           lmax: 2}
    cutoffs: {filter: 1.87,
              core: 2.55}
    valence states:
      #              energy  rcut
      - 4s(2.00)    -5.469   1.005
      - 4p(0.00)    -1.277   1.058
      - 3d(7.00)    -8.205   1.005
      -  s          21.742   1.005
      -  p          25.934   1.058
      -  d          19.007   1.005

    # Using partial waves for Co as LCAO basis

  Fe:
    name: Iron
    id: 37abbd8d6c3c35915a9b583b742da910
    Z: 26.0
    valence: 8
    core: 18
    charge: 0.0
    file: /home/c.zeng/usr/data/gpaw-setups-0.9.20000/Fe.PBE.gz
    compensation charges: {type: gauss,
                           rc: 0.33,
                           lmax: 2}
    cutoffs: {filter: 2.06,
              core: 2.67}
    valence states:
      #              energy  rcut
      - 4s(2.00)    -5.291   1.164
      - 4p(0.00)    -1.326   1.058
      - 3d(6.00)    -7.505   1.058
      -  s          21.920   1.164
      -  p          25.885   1.058
      -  d          19.706   1.058

[...]

  Ni:
    name: Nickel
    id: 0d9f38a9d6e76a2886f07bb4381f212b
    Z: 28.0
    valence: 16
    core: 12
    charge: 0.0
    file: /home/c.zeng/usr/data/gpaw-setups-0.9.20000/Ni.PBE.gz
    compensation charges: {type: gauss,
                           rc: 0.36,
                           lmax: 2}
    cutoffs: {filter: 2.14,
              core: 1.98}
    valence states:
      #              energy  rcut
      - 4s(2.00)    -5.642   1.164
      - 3p(6.00)   -71.394   1.207
      - 4p(0.00)    -1.226   1.207
      - 3d(8.00)    -8.875   1.138
      -  s          21.570   1.164
      -  d          18.337   1.138

[...]

  Al:
    name: Aluminium
    id: 0292cae29f5d6237e50f6abdd43a7bdd
    Z: 13.0
    valence: 3
    core: 10
    charge: 0.0
    file: /home/c.zeng/usr/data/gpaw-setups-0.9.20000/Al.PBE.gz
    compensation charges: {type: gauss,
                           rc: 0.34,
                           lmax: 2}
    cutoffs: {filter: 1.91,
              core: 2.36}
    valence states:
      #              energy  rcut
      - 3s(2.00)    -7.753   1.085
      - 3p(1.00)    -2.712   1.085
      -  s          19.459   1.085
      -  p          24.499   1.085
      -  d           0.000   1.085

[...]

  Cr:
    name: Chromium
    id: 33f258bda2ca9f93018e70263a35547b
    Z: 24.0
    valence: 6
    core: 18
    charge: 0.0
    file: /home/c.zeng/usr/data/gpaw-setups-0.9.20000/Cr.PBE.gz
    compensation charges: {type: gauss,
                           rc: 0.35,
                           lmax: 2}
    cutoffs: {filter: 2.14,
              core: 3.04}
    valence states:
      #              energy  rcut
      - 4s(1.00)    -4.007   1.164
      - 4p(0.00)    -0.989   1.217
      - 3d(5.00)    -2.913   1.111
      -  s          23.205   1.164
      -  p          26.223   1.217
      -  d          24.299   1.111

    # Using partial waves for Cr as LCAO basis

Reference energy: -3548577.034362  # eV

Spin-polarized calculation.
Magnetic moment: 136.400000

Convergence criteria:
 Maximum [total energy] change in last 3 cyles: 0.0001 eV / electron
 Maximum integral of absolute [dens]ity change: 0.0001 electrons / valence electron
 Maximum integral of absolute [eigenst]ate change: 4e-08 eV^2 / valence electron
 Maximum number of scf [iter]ations: 666
 (Square brackets indicate name in SCF output, whereas a 'c' in
 the SCF output indicates the quantity has converged.)

Symmetries present (total): 1

  ( 1  0  0)
  ( 0  1  0)
  ( 0  0  1)

8 k-points: 2 x 2 x 2 Monkhorst-Pack grid
4 k-points in the irreducible part of the Brillouin zone
       k-points in crystal coordinates                weights
   0:     0.25000000   -0.25000000   -0.25000000          2/8
   1:     0.25000000   -0.25000000    0.25000000          2/8
   2:     0.25000000    0.25000000   -0.25000000          2/8
   3:     0.25000000    0.25000000    0.25000000          2/8

Wave functions: Plane wave expansion
  Cutoff energy: 350.000 eV
  Number of coefficients (min, max): 18331, 18331
  Pulay-stress correction: 0.000000 eV/Ang^3 (de/decut=0.000000)
  Using FFTW library
  ScaLapack parameters: grid=1x1, blocksize=None
  Wavefunction extrapolation:
    Improved wavefunction reuse through dual PAW basis

Occupation numbers: Fermi-Dirac:
  width: 0.1000  # eV

Eigensolver
   Davidson(niter=2)

Densities:
  Coarse grid: 48*48*48 grid
  Fine grid: 96*96*96 grid
  Total Charge: 0.000000

Density mixing:
  Method: difference
  Backend: pulay
  Linear mixing parameter: 0.05
  old densities: 5
  Damping of long wavelength oscillations: 50

Hamiltonian:
  XC and Coulomb potentials evaluated on a 96*96*96 grid
  Using the PBE Exchange-Correlation functional
  External potential:
    NoExternalPotential

XC parameters: PBE with 2 nearest neighbor stencil

Total number of cores used: 30
Parallelization over k-points: 2
Domain decomposition: 5 x 3 x 1

Number of atoms: 108
Number of atomic orbitals: 994
Number of bands in calculation: 674
Number of valence electrons: 980
Bands to converge: occupied

... initialized

Initializing position-dependent things.

Density initialized from atomic densities
Creating initial wave functions:
  674 bands from LCAO basis set

        Co-------Co---------------.
       /|  Co       Fe            |
      / |   AlCr     CrCo     CrCo|
     / Ni       CAl     Ni        |
    /   CCo      Ni      FAl      |
   /    | CoCo     Co      CoCo   |
  /   Co|  NiFeAl   NiNi    CrCr  |
 *      Cr  CrCoNi   CoNiNi   FeNi|
 |Fe   AlAlCr   CrNCr   FeCr      |
 | Fe   | NiNi   NiNiCr    Cr     |
 |     Co  CoFeNi   FeNiAl  NiNi  |
 |      Fe    FeNi   FeAlFe   AlCr|
 |Cr    |CoNi   NFeFe   FeFe     Fe
 |      .-FeCr-----FeCr--FeCoNi---.
 |     Cr    CoCr     FeCo  Cr Fe/
 |    / Al      Co       Cr     /
 Cr  /            Cr           /
 |  /      Ni      Cr       Fe/
 | / Co              Fe      /
 |/                     Co  /

Positions:
   0 Co    10.732479   -0.010418   10.721263    ( 0.0000,  0.0000,  2.1000)
   1 Fe    10.706231    1.787006    1.816653    ( 0.0000,  0.0000,  1.5000)
   2 Co     1.827923    0.046024    1.820803    ( 0.0000,  0.0000,  0.0000)
   3 Co     1.781666    1.794790   10.668295    ( 0.0000,  0.0000,  0.0000)
   4 Co     3.605675   -0.024615   10.696977    ( 0.0000,  0.0000,  0.0000)
   5 Ni     3.626284    1.755611    1.827590    ( 0.0000,  0.0000,  2.0000)
   6 Fe     5.347186   -0.032870    1.798425    ( 0.0000,  0.0000,  2.0000)
   7 Al     5.383406    1.755353   -0.004078    ( 0.0000,  0.0000,  2.0000)
   8 Fe     7.108694   -0.021619    0.052076    ( 0.0000,  0.0000,  0.0000)
   9 Cr     7.129131    1.783639    1.838109    ( 0.0000,  0.0000,  2.0000)
  10 Al     8.928414   -0.004386    1.840918    ( 0.0000,  0.0000,  2.0000)
  11 Co     8.945645    1.852509    0.063651    ( 0.0000,  0.0000,  0.0000)
  12 Co    10.721403    3.615743   10.707625    ( 0.0000,  0.0000,  2.1000)
  13 Fe    10.714905    5.407607    1.816064    ( 0.0000,  0.0000,  2.0000)
  14 Al     1.786931    3.537020    1.885127    ( 0.0000,  0.0000,  0.0000)
  15 Co     1.774396    5.426328   10.657058    ( 0.0000,  0.0000,  0.0000)
  16 Co     3.564340    3.564490   10.690115    ( 0.0000,  0.0000,  0.0000)
  17 Co     3.570334    5.434059    1.813919    ( 0.0000,  0.0000,  0.0000)
  18 Co     5.350145    3.574934    1.808708    ( 0.0000,  0.0000,  0.0000)
  19 Al     5.345084    5.410577   10.703464    ( 0.0000,  0.0000,  2.1000)
  20 Fe     7.157695    3.624514    0.002553    ( 0.0000,  0.0000,  2.1000)
  21 Fe     7.157792    5.380200    1.803904    ( 0.0000,  0.0000,  0.0000)
  22 Cr     8.944980    3.620622    1.842988    ( 0.0000,  0.0000,  0.0000)
  23 Al     8.940316    5.370571   -0.005231    ( 0.0000,  0.0000,  0.0000)
  24 Co    10.674578    7.138041   10.683446    ( 0.0000,  0.0000,  2.0000)
  25 Fe    10.668413    8.869012    1.800001    ( 0.0000,  0.0000,  0.0000)
  26 Fe     1.807904    7.157309    1.806960    ( 0.0000,  0.0000,  1.5000)
  27 Co     1.808086    8.895217   10.689064    ( 0.0000,  0.0000,  0.0000)
  28 Cr     3.612462    7.185391   10.698339    ( 0.0000,  0.0000,  2.0000)
  29 Ni     3.598277    8.905404    1.808097    ( 0.0000,  0.0000,  1.5000)
  30 Fe     5.362229    7.149643    1.778835    ( 0.0000,  0.0000,  2.1000)
  31 Fe     5.368084    8.904170   10.708750    ( 0.0000,  0.0000,  2.0000)
  32 Co     7.127640    7.124156   10.700741    ( 0.0000,  0.0000,  2.0000)
  33 Fe     7.139982    8.914904    1.783157    ( 0.0000,  0.0000,  0.0000)
  34 Co     8.884516    7.107975    1.798232    ( 0.0000,  0.0000,  2.0000)
  35 Cr     8.895410    8.880302    0.005476    ( 0.0000,  0.0000,  0.0000)
  36 Cr    10.737840    0.006469    3.587908    ( 0.0000,  0.0000,  1.5000)
  37 Cr     0.009110    1.816214    5.359506    ( 0.0000,  0.0000,  1.5000)
  38 Cr     1.833434   -0.010553    5.335488    ( 0.0000,  0.0000,  2.1000)
  39 Cr     1.814369    1.777409    3.664755    ( 0.0000,  0.0000,  1.5000)
  40 Ni     3.608002   -0.027958    3.615958    ( 0.0000,  0.0000,  2.1000)
  41 Ni     3.597397    1.774364    5.368180    ( 0.0000,  0.0000,  1.5000)
  42 Co     5.355185   -0.018813    5.365682    ( 0.0000,  0.0000,  2.1000)
  43 Cr     5.354005    1.762698    3.609396    ( 0.0000,  0.0000,  1.5000)
  44 Cr     7.096449    0.004839    3.553950    ( 0.0000,  0.0000,  0.0000)
  45 Fe     7.124574    1.817747    5.354692    ( 0.0000,  0.0000,  2.1000)
  46 Fe     8.888698   10.712332    5.289714    ( 0.0000,  0.0000,  0.0000)
  47 Co     8.931727    1.815495    3.558979    ( 0.0000,  0.0000,  1.5000)
  48 Ni    10.700248    3.599864    3.631730    ( 0.0000,  0.0000,  0.0000)
  49 Ni    -0.007893    5.382698    5.388017    ( 0.0000,  0.0000,  2.0000)
  50 Fe     1.794265    3.594073    5.365264    ( 0.0000,  0.0000,  2.0000)
  51 Co     1.782020    5.398675    3.628600    ( 0.0000,  0.0000,  1.5000)
[...]
iter: 347 14:29:45  -851.213024c -6.05  -3.96    +64.1588
iter: 348 14:31:23  -851.211459c -5.63  -4.20c   +64.1701
iter: 349 14:33:02  -851.216020c -5.04  -3.87    +64.1650
iter: 350 14:34:40  -851.213319c -5.69  -4.07c   +64.1659
iter: 351 14:36:18  -851.214325c -6.35  -4.05c   +64.1784
iter: 352 14:37:57  -851.214971c -6.33  -4.30c   +64.1783
iter: 353 14:39:35  -851.216752c -5.68  -4.39c   +64.1990
iter: 354 14:41:13  -851.213785c -5.42  -4.60c   +64.1603
iter: 355 14:42:52  -851.208237c -4.58  -4.25c   +64.0714
iter: 356 14:44:30  -851.184489c -3.37  -3.75    +63.7067
iter: 357 14:46:08  -851.221388c -3.18  -3.15    +64.2607
iter: 358 14:47:46  -851.269386c -3.23  -3.98    +64.6046
iter: 359 14:49:25  -851.205477c -3.19  -3.24    +64.0094
iter: 360 14:51:03  -851.186640c -3.30  -3.64    +63.6552
iter: 361 14:52:41  -851.215509c -3.38  -3.17    +64.1751
iter: 362 14:54:19  -851.249023c -3.38  -4.64c   +64.5096
iter: 363 14:55:58  -851.199893c -3.18  -3.39    +63.8607
iter: 364 14:57:36  -851.089302  -2.79  -3.41    +63.0940
iter: 365 14:59:14  -851.205567  -2.96  -2.89    +64.0045
iter: 366 15:00:53  -851.213425  -3.71  -3.67    +64.1439
iter: 367 15:02:31  -851.214736c -4.59  -4.24c   +64.1619
iter: 368 15:04:09  -851.214226c -5.42  -4.31c   +64.1513
iter: 369 15:05:47  -851.215095c -5.58  -4.36c   +64.1677
iter: 370 15:07:26  -851.213485c -5.71  -4.51c   +64.1445
iter: 371 15:09:04  -851.211023c -5.17  -4.26c   +64.1161
iter: 372 15:10:42  -851.215460c -4.91  -3.87    +64.1695
iter: 373 15:12:20  -851.208030c -4.47  -4.56c   +64.0878
iter: 374 15:13:58  -851.207441c -5.37  -3.77    +64.0771
iter: 375 15:15:36  -851.208531c -6.14  -3.73    +64.0913
iter: 376 15:17:14  -851.210122c -5.51  -3.79    +64.1100
iter: 377 15:18:53  -851.210461c -6.11  -3.91    +64.1178
iter: 378 15:20:31  -851.210374c -6.88  -3.97    +64.1156
iter: 379 15:22:10  -851.211110c -6.31  -3.90    +64.1402
iter: 380 15:23:48  -851.211942c -6.09  -3.97    +64.1381
iter: 381 15:25:26  -851.212937c -5.60  -3.77    +64.1546
iter: 382 15:27:04  -851.211426c -5.70  -3.68    +64.1320
iter: 383 15:28:42  -851.212580c -5.91  -3.85    +64.1432
iter: 384 15:30:21  -851.213662c -5.90  -4.22c   +64.1535
iter: 385 15:31:59  -851.213988c -6.18  -4.17c   +64.1495
iter: 386 15:33:37  -851.215603c -5.78  -4.39c   +64.1774
iter: 387 15:35:15  -851.216016c -6.19  -4.44c   +64.1772
iter: 388 15:36:54  -851.217089c -6.00  -4.54c   +64.1861
iter: 389 15:38:32  -851.215707c -6.16  -4.46c   +64.1695
iter: 390 15:40:10  -851.207064c -4.31  -4.55c   +64.0360
iter: 391 15:41:48  -851.204999c -4.83  -3.82    +64.0125
iter: 392 15:43:26  -851.203833c -5.28  -3.71    +64.0036
iter: 393 15:45:03  -851.200179c -4.63  -3.65    +63.9557
iter: 394 15:46:41  -851.200078c -5.48  -3.48    +63.9384
iter: 395 15:48:18  -851.199972c -5.77  -3.48    +63.9710
iter: 396 15:49:56  -851.199763c -5.59  -3.51    +63.9224
iter: 397 15:51:34  -851.199883c -5.91  -3.48    +63.9242
iter: 398 15:53:11  -851.198026c -4.87  -3.47    +63.9350
iter: 399 15:54:49  -851.195933c -5.34  -3.39    +63.9130
iter: 400 15:56:26  -851.198069c -5.45  -3.58    +63.8867
iter: 401 15:58:04  -851.198147c -5.75  -3.67    +63.8816
iter: 402 15:59:41  -851.200043c -5.38  -3.68    +63.8336
iter: 403 16:01:19  -851.201770c -5.46  -3.64    +63.8436
iter: 404 16:02:56  -851.202454c -5.57  -3.68    +63.8534
iter: 405 16:04:34  -851.203224c -5.67  -3.85    +63.8381
iter: 406 16:06:12  -851.203918c -5.73  -3.84    +63.8363
iter: 407 16:07:49  -851.205441c -5.87  -3.93    +63.8464
iter: 408 16:09:27  -851.206066c -5.95  -3.94    +63.8620
iter: 409 16:11:05  -851.206906c -5.95  -4.11c   +63.8668
iter: 410 16:12:42  -851.208084c -5.95  -4.13c   +63.8755
iter: 411 16:14:20  -851.210818c -5.37  -4.15c   +63.9023
iter: 412 16:15:58  -851.202761c -4.65  -3.92    +63.8123
iter: 413 16:17:35  -851.197873c -4.71  -4.00c   +63.7823
iter: 414 16:19:13  -851.207163c -4.56  -3.87    +63.8762
iter: 415 16:20:50  -851.226250c -3.91  -4.22c   +64.0301
iter: 416 16:22:28  -851.163009c -3.01  -3.52    +63.5157
iter: 417 16:24:05  -851.287139  -2.66  -3.22    +64.3275
iter: 418 16:25:43  -851.285752  -3.91  -3.11    +64.3398
iter: 419 16:27:21  -851.291744c -4.50  -3.12    +64.3865
iter: 420 16:28:58  -851.283441c -4.96  -3.11    +64.3134
iter: 421 16:30:36  -851.290121c -5.26  -3.13    +64.2972
iter: 422 16:32:13  -851.291973c -4.76  -3.09    +64.3712
iter: 423 16:33:51  -851.285342c -4.46  -3.07    +64.3533
iter: 424 16:35:29  -851.319232c -4.25  -3.07    +64.4655
iter: 425 16:37:06  -851.285192c -3.94  -2.86    +64.5541
iter: 426 16:38:44  -851.265051c -4.64  -3.05    +64.6261
iter: 427 16:40:21  -851.271729c -4.80  -3.28    +64.5938
iter: 428 16:41:59  -851.276149c -4.92  -3.30    +64.5690
iter: 429 16:43:37  -851.280043c -4.99  -3.32    +64.5798
iter: 430 16:45:14  -851.284486c -4.98  -3.32    +64.5488
iter: 431 16:46:52  -851.280140c -5.24  -3.33    +64.5467
iter: 432 16:48:30  -851.287126c -5.06  -3.44    +64.5529
iter: 433 16:50:07  -851.288424c -5.24  -3.42    +64.5622
iter: 434 16:51:45  -851.292093c -5.10  -3.42    +64.5347
iter: 435 16:53:22  -851.295849c -5.15  -3.45    +64.4890
iter: 436 16:55:00  -851.295059c -5.48  -3.46    +64.4705
iter: 437 16:56:38  -851.301323c -5.32  -3.59    +64.5020
iter: 438 16:58:15  -851.301074c -6.26  -3.63    +64.4998
iter: 439 16:59:53  -851.306872c -5.41  -3.64    +64.4778
iter: 440 17:01:30  -851.305526c -5.99  -3.58    +64.4968
iter: 441 17:03:08  -851.311325c -5.50  -3.58    +64.4562
iter: 442 17:04:46  -851.308511c -5.86  -3.57    +64.4638
iter: 443 17:06:23  -851.320896c -4.98  -3.53    +64.4202
iter: 444 17:08:00  -851.322217c -5.37  -3.48    +64.4554
iter: 445 17:09:38  -851.327573c -5.11  -3.40    +64.4411
iter: 446 17:11:16  -851.329807c -5.58  -3.43    +64.4687
iter: 447 17:12:54  -851.338817c -5.13  -3.46    +64.4346
iter: 448 17:14:31  -851.353108c -4.60  -3.40    +64.3131
iter: 449 17:16:09  -851.347187c -5.77  -3.29    +64.3607
iter: 450 17:17:46  -851.352571c -5.18  -3.40    +64.3428
iter: 451 17:19:24  -851.353065c -5.52  -3.33    +64.3495
iter: 452 17:21:01  -851.364417c -5.06  -3.40    +64.3555
iter: 453 17:22:39  -851.357399c -5.47  -3.27    +64.3355
iter: 454 17:24:16  -851.362624c -5.31  -3.40    +64.2996
iter: 455 17:25:54  -851.366641c -5.09  -3.39    +64.3387
iter: 456 17:27:32  -851.369068c -5.12  -3.30    +64.3305
iter: 457 17:29:09  -851.368220c -5.55  -3.32    +64.3501
iter: 458 17:30:47  -851.376302c -5.28  -3.43    +64.3634
iter: 459 17:32:24  -851.374730c -5.38  -3.32    +64.3613
iter: 460 17:34:02  -851.377401c -5.02  -3.27    +64.3640
iter: 461 17:35:40  -851.375812c -5.05  -3.36    +64.3840
iter: 462 17:37:17  -851.382348c -4.85  -3.50    +64.4355
iter: 463 17:38:55  -851.378130c -5.46  -3.34    +64.4529
iter: 464 17:40:33  -851.380990c -5.60  -3.62    +64.4941
iter: 465 17:42:11  -851.387154c -5.07  -3.61    +64.5700
iter: 466 17:43:49  -851.386545c -5.85  -3.56    +64.5702
iter: 467 17:45:27  -851.388796c -5.52  -3.67    +64.6123
iter: 468 17:47:05  -851.392121c -5.45  -3.71    +64.6171
iter: 469 17:48:43  -851.390710c -5.95  -3.64    +64.6282
iter: 470 17:50:20  -851.392490c -5.89  -3.88    +64.6628
iter: 471 17:51:58  -851.395756c -5.47  -3.91    +64.7065
iter: 472 17:53:36  -851.396304c -5.93  -3.81    +64.7294
iter: 473 17:55:13  -851.397666c -5.89  -3.95    +64.7551
iter: 474 17:56:51  -851.400887c -5.34  -4.00c   +64.8155
iter: 475 17:58:29  -851.404939c -5.00  -3.93    +64.8918
iter: 476 18:00:07  -851.410544c -4.67  -3.86    +65.0266
iter: 477 18:01:44  -851.409938c -5.76  -3.65    +65.0322
iter: 478 18:03:22  -851.410842c -5.78  -3.67    +65.0648
iter: 479 18:05:00  -851.411609c -6.13  -3.64    +65.0864
iter: 480 18:06:37  -851.411668c -6.06  -3.60    +65.1007
iter: 481 18:08:15  -851.411302c -5.29  -3.58    +65.1263
iter: 482 18:09:53  -851.409726c -6.10  -3.48    +65.1196
iter: 483 18:11:31  -851.412369c -5.24  -3.61    +65.1082
iter: 484 18:13:08  -851.409447c -5.75  -3.45    +65.0994
iter: 485 18:14:47  -851.409696c -5.48  -3.69    +65.0984
iter: 486 18:16:25  -851.409867c -5.58  -3.62    +65.0955
iter: 487 18:18:03  -851.411089c -5.31  -3.66    +65.0730
iter: 488 18:19:42  -851.409251c -5.61  -3.58    +65.0696
iter: 489 18:21:20  -851.408655c -6.05  -3.76    +65.0786
iter: 490 18:22:58  -851.408387c -6.13  -3.93    +65.0817
iter: 491 18:24:36  -851.408452c -6.71  -3.95    +65.0792
iter: 492 18:26:14  -851.408494c -6.37  -4.10c   +65.0816
iter: 493 18:27:53  -851.408426c -6.68  -3.99    +65.0841
iter: 494 18:29:31  -851.408632c -6.37  -4.15c   +65.0875
iter: 495 18:31:09  -851.408594c -6.57  -4.00    +65.0883
iter: 496 18:32:47  -851.408934c -6.46  -4.13c   +65.0957
iter: 497 18:34:25  -851.408624c -6.66  -4.09c   +65.1064
iter: 498 18:36:03  -851.408855c -6.81  -4.24c   +65.1159
iter: 499 18:37:42  -851.408849c -7.09  -4.25c   +65.1166
iter: 500 18:39:20  -851.409020c -6.99  -4.33c   +65.1251
iter: 501 18:40:58  -851.409053c -7.16  -4.34c   +65.1295
iter: 502 18:42:36  -851.409174c -7.08  -4.34c   +65.1380
iter: 503 18:44:15  -851.409507c -6.84  -4.45c   +65.1446
iter: 504 18:45:53  -851.409422c -6.92  -4.29c   +65.1520
iter: 505 18:47:31  -851.409672c -6.90  -4.48c   +65.1666
iter: 506 18:49:09  -851.409714c -7.16  -4.44c   +65.1697
iter: 507 18:50:47  -851.409937c -6.98  -4.53c   +65.1798
iter: 508 18:52:25  -851.409950c -7.53c -4.54c   +65.1816

Converged after 508 iterations.

Dipole moment: (-1.899461, 13.270385, 14.398306) |e|*Ang

Total magnetic moment: (0.000000, 0.000000, 65.181564)
Local magnetic moments:
   0 Co ( 0.000000,  0.000000,  1.132687)
   1 Fe ( 0.000000,  0.000000,  2.184802)
   2 Co ( 0.000000,  0.000000,  1.423400)
   3 Co ( 0.000000,  0.000000,  1.134819)
   4 Co ( 0.000000,  0.000000,  1.095342)
   5 Ni ( 0.000000,  0.000000,  0.202128)
   6 Fe ( 0.000000,  0.000000,  1.937840)
   7 Al ( 0.000000,  0.000000, -0.019847)
   8 Fe ( 0.000000,  0.000000, -1.448282)
   9 Cr ( 0.000000,  0.000000,  0.951659)
  10 Al ( 0.000000,  0.000000, -0.016467)
  11 Co ( 0.000000,  0.000000,  1.024433)
  12 Co ( 0.000000,  0.000000,  1.051676)
  13 Fe ( 0.000000,  0.000000,  2.254053)
  14 Al ( 0.000000,  0.000000, -0.031532)
  15 Co ( 0.000000,  0.000000,  1.211841)
  16 Co ( 0.000000,  0.000000,  1.285306)
  17 Co ( 0.000000,  0.000000,  1.117725)
  18 Co ( 0.000000,  0.000000,  1.067238)
  19 Al ( 0.000000,  0.000000, -0.041631)
  20 Fe ( 0.000000,  0.000000,  2.119638)
  21 Fe ( 0.000000,  0.000000,  2.065438)
  22 Cr ( 0.000000,  0.000000, -1.256612)
  23 Al ( 0.000000,  0.000000, -0.038368)
  24 Co ( 0.000000,  0.000000,  1.223680)
  25 Fe ( 0.000000,  0.000000,  2.227694)
  26 Fe ( 0.000000,  0.000000,  2.311422)
  27 Co ( 0.000000,  0.000000,  1.485972)
  28 Cr ( 0.000000,  0.000000, -2.074693)
  29 Ni ( 0.000000,  0.000000,  0.471171)
  30 Fe ( 0.000000,  0.000000,  1.985483)
  31 Fe ( 0.000000,  0.000000,  2.111464)
  32 Co ( 0.000000,  0.000000,  1.201978)
  33 Fe ( 0.000000,  0.000000,  1.863235)
  34 Co ( 0.000000,  0.000000,  1.210371)
  35 Cr ( 0.000000,  0.000000, -1.534379)
  36 Cr ( 0.000000,  0.000000, -1.642357)
  37 Cr ( 0.000000,  0.000000,  0.236938)
  38 Cr ( 0.000000,  0.000000,  0.668428)
  39 Cr ( 0.000000,  0.000000,  0.264335)
  40 Ni ( 0.000000,  0.000000,  0.270761)
  41 Ni ( 0.000000,  0.000000,  0.124083)
  42 Co ( 0.000000,  0.000000,  1.049366)
  43 Cr ( 0.000000,  0.000000,  0.578603)
  44 Cr ( 0.000000,  0.000000, -1.455652)
  45 Fe ( 0.000000,  0.000000,  1.756358)
  46 Fe ( 0.000000,  0.000000,  2.011167)
  47 Co ( 0.000000,  0.000000,  0.480697)
  48 Ni ( 0.000000,  0.000000,  0.280478)
  49 Ni ( 0.000000,  0.000000,  0.263606)
  50 Fe ( 0.000000,  0.000000,  2.056865)
  51 Co ( 0.000000,  0.000000,  1.170137)
  52 Cr ( 0.000000,  0.000000, -1.737161)
  53 Fe ( 0.000000,  0.000000,  2.299927)
  54 Ni ( 0.000000,  0.000000,  0.130640)
  55 Fe ( 0.000000,  0.000000,  2.210519)
  56 Cr ( 0.000000,  0.000000, -1.419093)
  57 Ni ( 0.000000,  0.000000,  0.155456)
  58 Fe ( 0.000000,  0.000000,  1.789488)
  59 Fe ( 0.000000,  0.000000,  1.755684)
[...]
  93 Ni ( 0.000000,  0.000000,  0.209357)
  94 Ni ( 0.000000,  0.000000,  0.195296)
  95 Cr ( 0.000000,  0.000000, -1.287594)
  96 Ni ( 0.000000,  0.000000,  0.042892)
  97 Ni ( 0.000000,  0.000000,  0.273012)
  98 Co ( 0.000000,  0.000000,  1.300031)
  99 Ni ( 0.000000,  0.000000,  0.211729)
 100 Co ( 0.000000,  0.000000,  1.408029)
 101 Co ( 0.000000,  0.000000,  1.290893)
 102 Co ( 0.000000,  0.000000,  1.279633)
 103 Ni ( 0.000000,  0.000000,  0.370487)
 104 Ni ( 0.000000,  0.000000,  0.280329)
 105 Ni ( 0.000000,  0.000000,  0.241679)
 106 Co ( 0.000000,  0.000000,  0.981515)
 107 Cr ( 0.000000,  0.000000, -1.225978)

Energy contributions relative to reference atoms: (reference = -3548577.034362)

Kinetic:       +207.977886
Potential:     -235.118444
External:        +0.000000
XC:            -857.899324
Entropy (-ST):   -4.550273
Local:          +35.905068
Free energy:   -853.685086
Extrapolated:  -851.409950

Spin contamination: 27.866243 electrons
Showing only first 2 kpts
                      Up                     Down
 Kpt  Band  Eigenvalues  Occupancy  Eigenvalues  Occupancy
  0   488      9.47304    0.99489     10.36774    0.02473
  0   489      9.48327    0.99435     10.38245    0.02142
  0   490      9.50691    0.99285     10.39282    0.01935
  0   491      9.51720    0.99208     10.40050    0.01795

  1   488      9.47718    0.99468     10.38275    0.02136
  1   489      9.48859    0.99404     10.38555    0.02078
  1   490      9.49933    0.99337     10.40270    0.01756
  1   491      9.50971    0.99265     10.41763    0.01516

Fermi level: 10.00028

No gap

Forces in eV/Ang:
  0 Co   -0.14257    0.11549    0.10627
  1 Fe    0.09772   -0.01552   -0.23761
  2 Co   -0.18033   -0.47723   -0.14919
  3 Co    0.10249    0.13390    0.47395
  4 Co   -0.37821   -0.13065    0.44894
  5 Ni   -0.44078    0.08538   -0.24629
  6 Fe   -0.22602   -0.52811    0.07407
  7 Al   -0.71626    0.81455    0.44162
  8 Fe    0.45966    0.26242   -0.50314
  9 Cr    0.06151    0.53329   -0.11969
 10 Al    0.29842   -0.02150   -0.84554
 11 Co   -0.03037   -0.04617   -0.69884
 12 Co    0.10899   -0.41222    0.10948
 13 Fe    0.20194   -0.03014   -0.23322
 14 Al   -0.01762    0.67994   -1.35292
 15 Co    0.20420   -0.31211    0.25855
 16 Co   -0.24619    0.30749    0.33049
 17 Co   -0.20099   -0.38219   -0.01600
 18 Co   -0.01619    0.25856    0.18504
 19 Al    0.35957   -1.17845    0.00228
 20 Fe    0.01540   -0.42595   -0.00650
 21 Fe   -0.17414   -0.55261    0.01759
 22 Cr    0.29717   -0.74255    0.08853
 23 Al   -0.26807    0.42028   -0.52466
 24 Co    0.49495    0.28318    0.19083
 25 Fe    0.56955    0.20081   -0.27839
 26 Fe   -0.03365    0.07507   -0.40513
 27 Co   -0.09573   -0.12777    0.53772
 28 Cr   -1.10369    0.55913   -0.03249
 29 Ni   -0.43790    0.41883   -0.11204
 30 Fe   -0.28245    0.25589    0.01487
 31 Fe    0.04267    0.11667    0.09827
 32 Co    0.13305    0.59750    0.06705
 33 Fe   -0.06478    0.05497   -0.21415
 34 Co    0.33161    0.35996   -0.01996
 35 Cr    0.00454   -0.44226   -0.61654
 36 Cr    0.51788    0.29834    0.16856
 37 Cr    0.04068   -0.14378   -0.18289
 38 Cr   -0.04336    0.75839    0.19480
 39 Cr    0.04500   -0.82524   -0.12210
 40 Ni   -0.12487    0.26338   -0.38299
 41 Ni   -0.14620   -0.10801    0.02090
 42 Co    0.23900   -0.03486    0.03129
 43 Cr   -0.21165    0.13251   -0.10653
 44 Cr   -0.32567    0.02269    0.70488
 45 Fe    0.11623   -0.14984   -0.18210
 46 Fe    0.19511   -0.14644    0.18117
 47 Co    0.12401    0.19868    0.40786
 48 Ni    0.10353   -0.02271   -0.13984
 49 Ni   -0.13064   -0.39730   -0.22182
 50 Fe   -0.05486   -0.51509   -0.03955
 51 Co    0.19126    0.07642   -0.12036
 52 Cr    0.74364    0.10642   -0.04307
 53 Fe    0.37950   -0.04726   -0.15330
 54 Ni    0.02966    0.03256   -0.08991
 55 Fe   -0.36448   -0.98836   -0.53421
 56 Cr   -0.37542    0.07159    0.04289
 57 Ni   -0.03846    0.01349   -0.06448
 58 Fe    0.04021    0.28893   -0.28277
 59 Fe    0.04540   -0.61769   -0.08285
[...]
 93 Ni   -0.00803   -0.17414   -0.12730
 94 Ni    0.12614   -0.20597    0.42690
 95 Cr    0.39981    0.05915    0.23000
 96 Ni   -0.13075    0.13584    0.17606
 97 Ni   -0.21282    0.10164   -0.13719
 98 Co    0.22347   -0.11544    0.56271
 99 Ni   -0.29139    0.11833    0.32108
100 Co    0.16988    0.20372    0.26147
101 Co    0.27357   -0.36417    0.24228
102 Co   -0.26220    0.11666   -0.29010
103 Ni   -0.06801    0.04657    0.04428
104 Ni   -0.02055    0.09481    0.12672
105 Ni    0.38410    0.26710    0.01518
106 Co    0.07523    0.35508   -0.01746
107 Cr   -0.42189    0.44977    0.75856

Date: Fri Apr 14 18:52:46 2023