User:   c.zeng@d0110
Date:   Fri Apr 14 04:21:07 2023
Arch:   x86_64
Pid:    241870
CWD:    /home/c.zeng/projects/hea-corrosion/hea-mlp/data-curation/bulk-md/dft-jobs/98
Python: 3.8.1
gpaw:   /home/c.zeng/usr/installs/gpaw/source/gpaw-22.8.0/gpaw
_gpaw:  /home/c.zeng/usr/installs/gpaw/source/gpaw-22.8.0/
        _gpaw.cpython-38-x86_64-linux-gnu.so
ase:    /home/c.zeng/.local/lib/python3.8/site-packages/ase-3.22.1-py3.8.egg/ase (version 3.22.1)
numpy:  /shared/centos7/python/3.8.1/lib/python3.8/site-packages/numpy (version 1.17.4)
scipy:  /shared/centos7/python/3.8.1/lib/python3.8/site-packages/scipy (version 1.4.1)
units:  Angstrom and eV
cores: 30
OpenMP: False
OMP_NUM_THREADS: 1

Input parameters:
  convergence: {energy: 0.0001}
  kpts: [2 2 2]
  maxiter: 666
  mode: {ecut: 350.0,
         name: pw}
  occupations: {fixmagmom: False,
                name: fermi-dirac,
                width: 0.1}
  spinpol: True
  xc: PBE

System changes: positions, numbers, cell, pbc, initial_charges, initial_magmoms

Initialize ...

species:
  Al:
    name: Aluminium
    id: 0292cae29f5d6237e50f6abdd43a7bdd
    Z: 13.0
    valence: 3
    core: 10
    charge: 0.0
    file: /home/c.zeng/usr/data/gpaw-setups-0.9.20000/Al.PBE.gz
    compensation charges: {type: gauss,
                           rc: 0.34,
                           lmax: 2}
    cutoffs: {filter: 1.91,
              core: 2.36}
    valence states:
      #              energy  rcut
      - 3s(2.00)    -7.753   1.085
      - 3p(1.00)    -2.712   1.085
      -  s          19.459   1.085
      -  p          24.499   1.085
      -  d           0.000   1.085

    # Using partial waves for Al as LCAO basis

  Fe:
    name: Iron
    id: 37abbd8d6c3c35915a9b583b742da910
    Z: 26.0
    valence: 8
    core: 18
    charge: 0.0
    file: /home/c.zeng/usr/data/gpaw-setups-0.9.20000/Fe.PBE.gz
    compensation charges: {type: gauss,
                           rc: 0.33,
                           lmax: 2}
    cutoffs: {filter: 2.06,
              core: 2.67}
    valence states:
      #              energy  rcut
      - 4s(2.00)    -5.291   1.164
      - 4p(0.00)    -1.326   1.058
      - 3d(6.00)    -7.505   1.058
      -  s          21.920   1.164
      -  p          25.885   1.058
      -  d          19.706   1.058

[...]

  Cr:
    name: Chromium
    id: 33f258bda2ca9f93018e70263a35547b
    Z: 24.0
    valence: 6
    core: 18
    charge: 0.0
    file: /home/c.zeng/usr/data/gpaw-setups-0.9.20000/Cr.PBE.gz
    compensation charges: {type: gauss,
                           rc: 0.35,
                           lmax: 2}
    cutoffs: {filter: 2.14,
              core: 3.04}
    valence states:
      #              energy  rcut
      - 4s(1.00)    -4.007   1.164
      - 4p(0.00)    -0.989   1.217
      - 3d(5.00)    -2.913   1.111
      -  s          23.205   1.164
      -  p          26.223   1.217
      -  d          24.299   1.111

[...]

  Ni:
    name: Nickel
    id: 0d9f38a9d6e76a2886f07bb4381f212b
    Z: 28.0
    valence: 16
    core: 12
    charge: 0.0
    file: /home/c.zeng/usr/data/gpaw-setups-0.9.20000/Ni.PBE.gz
    compensation charges: {type: gauss,
                           rc: 0.36,
                           lmax: 2}
    cutoffs: {filter: 2.14,
              core: 1.98}
    valence states:
      #              energy  rcut
      - 4s(2.00)    -5.642   1.164
      - 3p(6.00)   -71.394   1.207
      - 4p(0.00)    -1.226   1.207
      - 3d(8.00)    -8.875   1.138
      -  s          21.570   1.164
      -  d          18.337   1.138

[...]

  Co:
    name: Cobalt
    id: 339d20d5b0b93d2de9531a1bee871d91
    Z: 27.0
    valence: 9
    core: 18
    charge: 0.0
    file: /home/c.zeng/usr/data/gpaw-setups-0.9.20000/Co.PBE.gz
    compensation charges: {type: gauss,
                           rc: 0.32,
                           lmax: 2}
    cutoffs: {filter: 1.87,
              core: 2.55}
    valence states:
      #              energy  rcut
      - 4s(2.00)    -5.469   1.005
      - 4p(0.00)    -1.277   1.058
      - 3d(7.00)    -8.205   1.005
      -  s          21.742   1.005
      -  p          25.934   1.058
      -  d          19.007   1.005

    # Using partial waves for Co as LCAO basis

Reference energy: -3235165.067515  # eV

Spin-polarized calculation.
Magnetic moment: 121.100000

Convergence criteria:
 Maximum [total energy] change in last 3 cyles: 0.0001 eV / electron
 Maximum integral of absolute [dens]ity change: 0.0001 electrons / valence electron
 Maximum integral of absolute [eigenst]ate change: 4e-08 eV^2 / valence electron
 Maximum number of scf [iter]ations: 666
 (Square brackets indicate name in SCF output, whereas a 'c' in
 the SCF output indicates the quantity has converged.)

Symmetries present (total): 1

  ( 1  0  0)
  ( 0  1  0)
  ( 0  0  1)

8 k-points: 2 x 2 x 2 Monkhorst-Pack grid
4 k-points in the irreducible part of the Brillouin zone
       k-points in crystal coordinates                weights
   0:     0.25000000   -0.25000000   -0.25000000          2/8
   1:     0.25000000   -0.25000000    0.25000000          2/8
   2:     0.25000000    0.25000000   -0.25000000          2/8
   3:     0.25000000    0.25000000    0.25000000          2/8

Wave functions: Plane wave expansion
  Cutoff energy: 350.000 eV
  Number of coefficients (min, max): 19084, 19084
  Pulay-stress correction: 0.000000 eV/Ang^3 (de/decut=0.000000)
  Using FFTW library
  ScaLapack parameters: grid=1x1, blocksize=None
  Wavefunction extrapolation:
    Improved wavefunction reuse through dual PAW basis

Occupation numbers: Fermi-Dirac:
  width: 0.1000  # eV

Eigensolver
   Davidson(niter=2)

Densities:
  Coarse grid: 48*48*48 grid
  Fine grid: 96*96*96 grid
  Total Charge: 0.000000

Density mixing:
  Method: difference
  Backend: pulay
  Linear mixing parameter: 0.05
  old densities: 5
  Damping of long wavelength oscillations: 50

Hamiltonian:
  XC and Coulomb potentials evaluated on a 96*96*96 grid
  Using the PBE Exchange-Correlation functional
  External potential:
    NoExternalPotential

XC parameters: PBE with 2 nearest neighbor stencil

Total number of cores used: 30
Parallelization over k-points: 2
Domain decomposition: 5 x 3 x 1

Number of atoms: 108
Number of atomic orbitals: 933
Number of bands in calculation: 624
Number of valence electrons: 912
Bands to converge: occupied

... initialized

Initializing position-dependent things.

Density initialized from atomic densities
Creating initial wave functions:
  624 bands from LCAO basis set

       /|  Cr                      |
      / |                     Ni   |
     /  |    Cr Co       NiFe     Al
    /   |Coe       Fe              |
   /e   |    Fe  Co ACr   NiAl     |
  /   Cr|  Co AlNi    CCoFe  Cr Cr |
 *      Cr       Co       Ni     Al|
 |Al    |AlAl   NiNiFe  Ni Fe     Cr
 | Cr   | FeCrCo Al   Cr  AlFe     |
 |    Co|     NiCr   CrCr Fe CrFe  |
 |      Al   CrANi      NiNi   NCo |
 Co    AlCoAl   NiCo Co  CCr Co    |
 |      AlNi-Co-Ni-NiAl-----FeFe---.
 |    Cri       Al  NiCCr    NiCo /
 |    NiCr   Ale Fe    CNi       /
 Fe  /                    Al Fe /
 |  /      Al       Co         /
 | /          Al              /
 *------------------Fe------*

Positions:
   0 Al    10.898573   -0.147121    0.058082    ( 0.0000,  0.0000,  0.0000)
   1 Fe    10.718606    1.921945    2.046711    ( 0.0000,  0.0000,  2.0000)
   2 Cr     1.933889   10.861779    2.042116    ( 0.0000,  0.0000,  0.0000)
   3 Cr     1.750102    1.604441   -0.107292    ( 0.0000,  0.0000,  0.0000)
   4 Ni     3.207035   10.466595   10.977830    ( 0.0000,  0.0000,  1.5000)
   5 Al     3.585708    1.955177    1.683858    ( 0.0000,  0.0000,  0.0000)
   6 Al     5.318835   10.916000    1.529266    ( 0.0000,  0.0000,  0.0000)
   7 Ni     5.616064    2.180611   10.806451    ( 0.0000,  0.0000,  1.5000)
   8 Fe     7.601114    0.004708   10.935719    ( 0.0000,  0.0000,  2.0000)
   9 Co     7.234515    1.746155    1.757112    ( 0.0000,  0.0000,  2.1000)
  10 Ni     9.210915   -0.110046    1.916509    ( 0.0000,  0.0000,  1.5000)
  11 Fe     9.190842    1.824126   10.707048    ( 0.0000,  0.0000,  2.0000)
  12 Fe    10.927816    3.545607   -0.222519    ( 0.0000,  0.0000,  2.0000)
  13 Co    10.660524    5.368402    1.910755    ( 0.0000,  0.0000,  2.1000)
  14 Cr     1.746847    3.651256    1.828111    ( 0.0000,  0.0000,  0.0000)
  15 Co     1.668416    5.411738   10.720310    ( 0.0000,  0.0000,  2.1000)
  16 Fe     3.684902    4.024110   -0.163874    ( 0.0000,  0.0000,  2.0000)
  17 Al     3.534159    5.541473    1.609976    ( 0.0000,  0.0000,  0.0000)
  18 Fe     5.622908    3.813744    1.955121    ( 0.0000,  0.0000,  2.0000)
  19 Fe     5.766657    5.321131   -0.021103    ( 0.0000,  0.0000,  2.0000)
  20 Cr     7.268501    3.479553   10.616974    ( 0.0000,  0.0000,  0.0000)
  21 Co     7.178544    5.351757    1.862699    ( 0.0000,  0.0000,  2.1000)
  22 Al     9.087909    3.609510    1.545490    ( 0.0000,  0.0000,  0.0000)
  23 Fe     9.024684    5.570826   -0.028780    ( 0.0000,  0.0000,  2.0000)
  24 Ni    10.939102    7.087573    0.151887    ( 0.0000,  0.0000,  1.5000)
  25 Al     0.218442    8.905428    2.040201    ( 0.0000,  0.0000,  0.0000)
  26 Ni     1.851266    7.251610    1.855783    ( 0.0000,  0.0000,  1.5000)
  27 Cr     1.604973    8.867851   10.848053    ( 0.0000,  0.0000,  0.0000)
  28 Fe     3.498906    7.111222    0.015494    ( 0.0000,  0.0000,  2.0000)
  29 Ni     3.589548    8.851384    2.128486    ( 0.0000,  0.0000,  1.5000)
  30 Ni     5.432331    7.176202    1.702530    ( 0.0000,  0.0000,  1.5000)
  31 Ni     5.178140    8.796996   10.882469    ( 0.0000,  0.0000,  1.5000)
  32 Co     7.034453    7.311536    0.179423    ( 0.0000,  0.0000,  2.1000)
  33 Cr     7.319895    8.987023    1.854011    ( 0.0000,  0.0000,  0.0000)
  34 Fe     8.993223    7.185371    1.860228    ( 0.0000,  0.0000,  2.0000)
  35 Ni     9.163664    8.662066    0.085122    ( 0.0000,  0.0000,  1.5000)
  36 Fe     0.105208    0.062103    3.558832    ( 0.0000,  0.0000,  2.0000)
  37 Co    10.854659    1.833201    5.312832    ( 0.0000,  0.0000,  2.1000)
  38 Cr     1.866787   10.940431    5.224671    ( 0.0000,  0.0000,  0.0000)
  39 Ni     1.749008    2.002256    3.522327    ( 0.0000,  0.0000,  1.5000)
  40 Al     3.786623   10.697931    3.715197    ( 0.0000,  0.0000,  0.0000)
  41 Al     3.602242    1.791453    5.649976    ( 0.0000,  0.0000,  0.0000)
  42 Cr     5.774125   10.853009    5.465060    ( 0.0000,  0.0000,  0.0000)
  43 Al     5.501564    1.728394    3.796512    ( 0.0000,  0.0000,  0.0000)
  44 Al     7.320312   10.854415    3.421902    ( 0.0000,  0.0000,  0.0000)
  45 Co     7.337389    2.008031    5.674728    ( 0.0000,  0.0000,  2.1000)
  46 Cr     8.955038    0.254181    5.215425    ( 0.0000,  0.0000,  0.0000)
  47 Ni     8.918674    1.744219    3.557792    ( 0.0000,  0.0000,  1.5000)
  48 Fe    -0.047114    3.718386    3.659789    ( 0.0000,  0.0000,  2.0000)
  49 Fe    10.606965    5.342763    5.270553    ( 0.0000,  0.0000,  2.0000)
  50 Al     1.764760    3.884917    5.275156    ( 0.0000,  0.0000,  0.0000)
  51 Co     1.939026    5.508447    3.489945    ( 0.0000,  0.0000,  2.1000)
  52 Co     3.688340    3.694756    3.805123    ( 0.0000,  0.0000,  2.1000)
  53 Ni     3.689276    5.571698    5.544682    ( 0.0000,  0.0000,  1.5000)
  54 Ni     5.209852    3.506597    5.622885    ( 0.0000,  0.0000,  1.5000)
  55 Co     5.581914    5.481790    3.883777    ( 0.0000,  0.0000,  2.1000)
  56 Al     7.254632    3.679922    3.796820    ( 0.0000,  0.0000,  0.0000)
  57 Cr     7.268217    5.395202    5.548734    ( 0.0000,  0.0000,  0.0000)
  58 Ni     9.098781    3.501712    5.444387    ( 0.0000,  0.0000,  1.5000)
  59 Cr     8.811741    5.531563    3.658366    ( 0.0000,  0.0000,  0.0000)
[...]
  93 Co     7.398769    5.343370    8.796414    ( 0.0000,  0.0000,  2.1000)
  94 Ni     9.071274    3.653258    9.078686    ( 0.0000,  0.0000,  1.5000)
  95 Fe     9.211908    5.214925    7.280376    ( 0.0000,  0.0000,  2.0000)
  96 Al    -0.069700    7.417997    7.064608    ( 0.0000,  0.0000,  0.0000)
  97 Al    -0.141202    9.405126    8.857452    ( 0.0000,  0.0000,  0.0000)
  98 Fe     1.663208    7.247631    9.090274    ( 0.0000,  0.0000,  2.0000)
  99 Co     1.764536    9.187043    7.086503    ( 0.0000,  0.0000,  2.1000)
 100 Fe     3.624191    7.323304    7.373060    ( 0.0000,  0.0000,  2.0000)
 101 Co     3.613264    8.984627    9.166813    ( 0.0000,  0.0000,  2.1000)
 102 Al     5.601700    7.247744    8.969917    ( 0.0000,  0.0000,  0.0000)
 103 Fe     5.487505    9.220383    7.366354    ( 0.0000,  0.0000,  2.0000)
 104 Co     7.323691    7.389453    7.325488    ( 0.0000,  0.0000,  2.1000)
 105 Ni     7.306634    8.958825    9.482614    ( 0.0000,  0.0000,  1.5000)
 106 Al     8.992768    7.191599    9.057075    ( 0.0000,  0.0000,  0.0000)
 107 Cr     9.112303    8.999224    6.790949    ( 0.0000,  0.0000,  0.0000)

Unit cell:
           periodic     x           y           z      points  spacing
  1. axis:    yes   10.872400    0.000000    0.000000    48     0.2265
  2. axis:    yes    0.000000   10.872400    0.000000    48     0.2265
  3. axis:    yes    0.000000    0.000000   10.872400    48     0.2265

  Lengths:  10.872400  10.872400  10.872400
  Angles:   90.000000  90.000000  90.000000

Effective grid spacing dv^(1/3) = 0.2265

     iter     time        total  log10-change:  magmom
                         energy  eigst   dens
iter:   1 04:25:41  -953.404873                  +121.3865
iter:   2 04:27:47  -844.183725  -0.20  -1.17    +64.4685
iter:   3 04:29:53  -829.890713  -0.86  -1.20    +54.4301
iter:   4 04:31:58  -815.612271  -1.26  -1.26    +50.8158
iter:   5 04:34:04  -805.240888  -1.54  -1.29    +48.6734
iter:   6 04:36:10  -800.289617  -1.31  -1.35    +48.8344
iter:   7 04:38:16  -804.546170  -1.26  -1.45    +48.1187
iter:   8 04:40:22  -792.768628  -1.68  -1.50    +47.8722
iter:   9 04:42:27  -792.200614  -2.12  -1.69    +48.5738
iter:  10 04:44:33  -792.323901  -2.36  -1.76    +49.3694
iter:  11 04:46:39  -792.004137  -2.53  -1.76    +50.2575
iter:  12 04:48:44  -793.625275  -2.28  -1.84    +51.2097
iter:  13 04:50:50  -792.423171  -2.43  -1.83    +51.3748
iter:  14 04:52:55  -792.295198  -2.63  -1.93    +51.7935
iter:  15 04:55:00  -792.285857  -2.87  -1.99    +52.3600
iter:  16 04:57:06  -792.346724c -2.95  -2.03    +52.4845
iter:  17 04:59:11  -792.464721  -2.94  -2.09    +52.6310
iter:  18 05:01:17  -792.441327  -2.90  -2.11    +52.9045
iter:  19 05:03:22  -792.421671c -3.07  -2.19    +53.0104
iter:  20 05:05:27  -792.334329  -3.13  -2.23    +52.8371
iter:  21 05:07:32  -792.323588  -3.33  -2.30    +52.9536
iter:  22 05:09:37  -792.327862c -3.42  -2.36    +52.9999
iter:  23 05:11:43  -792.348193c -3.42  -2.40    +52.8262
iter:  24 05:13:48  -792.398270c -3.54  -2.44    +52.7697
iter:  25 05:15:53  -792.388526c -3.60  -2.45    +52.7297
iter:  26 05:17:59  -792.440150c -3.69  -2.50    +52.6305
iter:  27 05:20:04  -792.419354c -3.76  -2.52    +52.4414
iter:  28 05:22:09  -792.435502c -3.83  -2.56    +52.3930
iter:  29 05:24:15  -792.473689c -3.84  -2.61    +52.3112
iter:  30 05:26:19  -792.445380c -3.90  -2.62    +52.1408
iter:  31 05:28:24  -792.486727c -3.92  -2.72    +52.0480
iter:  32 05:30:28  -792.468293c -4.22  -2.72    +51.9867
iter:  33 05:32:33  -792.487890c -4.32  -2.80    +51.8502
iter:  34 05:34:38  -792.506679c -4.34  -2.84    +51.7081
iter:  35 05:36:43  -792.511193c -4.44  -2.86    +51.6798
iter:  36 05:38:49  -792.526043c -4.59  -2.92    +51.5265
iter:  37 05:40:50  -792.541890c -4.46  -2.97    +51.4387
iter:  38 05:42:53  -792.553210c -4.56  -2.98    +51.2892
iter:  39 05:44:59  -792.568305c -4.55  -3.05    +51.1527
iter:  40 05:47:04  -792.574791c -4.55  -3.06    +51.0976
iter:  41 05:49:09  -792.578096c -4.85  -3.09    +51.0757
iter:  42 05:51:15  -792.588272c -4.72  -3.16    +50.9941
iter:  43 05:53:20  -792.591464c -5.11  -3.22    +50.9955
iter:  44 05:55:25  -792.601498c -4.89  -3.24    +50.9401
iter:  45 05:57:30  -792.610403c -4.93  -3.28    +50.9287
iter:  46 05:59:36  -792.617440c -4.90  -3.30    +50.9108
iter:  47 06:01:41  -792.623442c -5.04  -3.35    +50.9164
iter:  48 06:03:47  -792.627630c -5.07  -3.35    +50.9010
iter:  49 06:05:53  -792.634342c -5.05  -3.44    +50.9118
iter:  50 06:07:58  -792.639408c -5.09  -3.45    +50.9126
iter:  51 06:10:03  -792.648246c -4.93  -3.50    +50.9411
iter:  52 06:12:05  -792.662031c -4.57  -3.51    +50.9985
iter:  53 06:14:06  -792.693540c -3.91  -3.46    +51.2013
iter:  54 06:16:11  -792.683333c -5.15  -3.27    +51.1866
iter:  55 06:18:17  -792.697253c -4.77  -3.33    +51.3100
iter:  56 06:20:23  -792.693893c -5.76  -3.24    +51.3152
iter:  57 06:22:28  -792.715713c -4.17  -3.25    +51.4393
iter:  58 06:24:33  -792.720529c -4.68  -3.15    +51.5986
iter:  59 06:26:38  -792.720902c -5.24  -3.13    +51.6728
iter:  60 06:28:43  -792.721652c -5.13  -3.14    +51.7669
iter:  61 06:30:49  -792.734688c -5.06  -3.13    +51.8103
iter:  62 06:32:54  -792.717818c -4.41  -3.04    +51.8377
iter:  63 06:34:59  -792.713097c -4.81  -3.05    +51.8283
iter:  64 06:37:04  -792.713421c -5.09  -3.15    +51.7748
iter:  65 06:39:10  -792.721642c -4.49  -3.14    +51.7700
iter:  66 06:41:15  -792.709750c -4.75  -3.07    +51.7566
iter:  67 06:43:20  -792.706496c -4.88  -3.23    +51.7168
iter:  68 06:45:26  -792.706508c -5.08  -3.37    +51.7422
iter:  69 06:47:31  -792.705975c -5.28  -3.39    +51.7662
iter:  70 06:49:37  -792.706030c -5.48  -3.41    +51.7757
iter:  71 06:51:42  -792.705692c -5.67  -3.48    +51.7862
iter:  72 06:53:47  -792.705823c -5.72  -3.52    +51.7971
iter:  73 06:55:52  -792.705663c -5.70  -3.52    +51.8133
iter:  74 06:57:57  -792.705817c -5.85  -3.56    +51.8176
iter:  75 07:00:02  -792.705600c -5.86  -3.62    +51.8290
iter:  76 07:02:07  -792.705241c -5.80  -3.66    +51.8351
iter:  77 07:04:10  -792.706367c -5.74  -3.66    +51.8411
iter:  78 07:06:09  -792.705893c -5.86  -3.68    +51.8469
iter:  79 07:08:15  -792.704963c -6.08  -3.75    +51.8452
iter:  80 07:10:20  -792.705187c -6.06  -3.90    +51.8475
iter:  81 07:12:25  -792.705139c -6.35  -3.88    +51.8484
iter:  82 07:14:30  -792.705338c -6.54  -3.94    +51.8535
iter:  83 07:16:36  -792.704800c -6.54  -3.97    +51.8543
iter:  84 07:18:41  -792.704988c -6.58  -3.99    +51.8533
iter:  85 07:20:46  -792.705464c -6.41  -4.10c   +51.8531
iter:  86 07:22:51  -792.705027c -6.71  -4.01c   +51.8526
iter:  87 07:24:56  -792.705029c -6.79  -4.21c   +51.8568
iter:  88 07:27:01  -792.704925c -6.96  -4.20c   +51.8561
iter:  89 07:29:06  -792.705193c -7.05  -4.25c   +51.8541
iter:  90 07:31:11  -792.704953c -7.19  -4.30c   +51.8554
iter:  91 07:33:16  -792.704895c -7.29  -4.32c   +51.8562
iter:  92 07:35:22  -792.705092c -7.14  -4.39c   +51.8572
iter:  93 07:37:26  -792.705086c -7.18  -4.36c   +51.8562
iter:  94 07:39:27  -792.705084c -7.31  -4.45c   +51.8592
iter:  95 07:41:03  -792.704873c -7.42c -4.52c   +51.8602

Converged after 95 iterations.

Dipole moment: (24.276519, 22.032633, 27.446267) |e|*Ang

Total magnetic moment: (0.000000, 0.000000, 51.860227)
Local magnetic moments:
   0 Al ( 0.000000,  0.000000,  0.004506)
   1 Fe ( 0.000000,  0.000000,  2.217253)
   2 Cr ( 0.000000,  0.000000, -1.973729)
   3 Cr ( 0.000000,  0.000000,  1.952031)
   4 Ni ( 0.000000,  0.000000,  0.011440)
   5 Al ( 0.000000,  0.000000, -0.008382)
   6 Al ( 0.000000,  0.000000, -0.007424)
   7 Ni ( 0.000000,  0.000000,  0.133569)
   8 Fe ( 0.000000,  0.000000,  2.574847)
   9 Co ( 0.000000,  0.000000,  0.902627)
  10 Ni ( 0.000000,  0.000000,  0.279496)
  11 Fe ( 0.000000,  0.000000,  1.966773)
  12 Fe ( 0.000000,  0.000000,  2.170274)
  13 Co ( 0.000000,  0.000000,  1.227062)
  14 Cr ( 0.000000,  0.000000, -2.345573)
  15 Co ( 0.000000,  0.000000,  0.998979)
  16 Fe ( 0.000000,  0.000000,  1.898670)
  17 Al ( 0.000000,  0.000000, -0.037167)
  18 Fe ( 0.000000,  0.000000,  2.314462)
  19 Fe ( 0.000000,  0.000000,  2.267517)
  20 Cr ( 0.000000,  0.000000, -1.690333)
  21 Co ( 0.000000,  0.000000,  1.153199)
  22 Al ( 0.000000,  0.000000, -0.042850)
  23 Fe ( 0.000000,  0.000000,  2.265429)
  24 Ni ( 0.000000,  0.000000,  0.076118)
  25 Al ( 0.000000,  0.000000, -0.004611)
  26 Ni ( 0.000000,  0.000000,  0.235436)
  27 Cr ( 0.000000,  0.000000, -1.374348)
  28 Fe ( 0.000000,  0.000000,  2.190987)
  29 Ni ( 0.000000,  0.000000,  0.241665)
  30 Ni ( 0.000000,  0.000000,  0.390769)
  31 Ni ( 0.000000,  0.000000,  0.381313)
  32 Co ( 0.000000,  0.000000,  1.221367)
  33 Cr ( 0.000000,  0.000000, -1.779556)
  34 Fe ( 0.000000,  0.000000,  1.809412)
  35 Ni ( 0.000000,  0.000000,  0.238443)
  36 Fe ( 0.000000,  0.000000,  1.626212)
  37 Co ( 0.000000,  0.000000,  0.852098)
  38 Cr ( 0.000000,  0.000000, -1.292565)
  39 Ni ( 0.000000,  0.000000, -0.014880)
  40 Al ( 0.000000,  0.000000, -0.000001)
  41 Al ( 0.000000,  0.000000, -0.014884)
  42 Cr ( 0.000000,  0.000000, -1.458916)
  43 Al ( 0.000000,  0.000000, -0.005303)
  44 Al ( 0.000000,  0.000000, -0.003245)
  45 Co ( 0.000000,  0.000000, -0.138221)
  46 Cr ( 0.000000,  0.000000, -1.675695)
  47 Ni ( 0.000000,  0.000000,  0.141202)
  48 Fe ( 0.000000,  0.000000,  2.210775)
  49 Fe ( 0.000000,  0.000000,  1.498617)
  50 Al ( 0.000000,  0.000000, -0.027864)
  51 Co ( 0.000000,  0.000000,  1.035012)
  52 Co ( 0.000000,  0.000000,  1.239412)
  53 Ni ( 0.000000,  0.000000,  0.381340)
  54 Ni ( 0.000000,  0.000000,  0.200356)
  55 Co ( 0.000000,  0.000000,  1.132457)
  56 Al ( 0.000000,  0.000000, -0.012609)
  57 Cr ( 0.000000,  0.000000, -1.636142)
  58 Ni ( 0.000000,  0.000000,  0.158387)
  59 Cr ( 0.000000,  0.000000, -0.558799)
[...]
  93 Co ( 0.000000,  0.000000,  1.106085)
  94 Ni ( 0.000000,  0.000000,  0.173196)
  95 Fe ( 0.000000,  0.000000,  1.523232)
  96 Al ( 0.000000,  0.000000, -0.025538)
  97 Al ( 0.000000,  0.000000, -0.006093)
  98 Fe ( 0.000000,  0.000000,  1.825961)
  99 Co ( 0.000000,  0.000000,  1.047363)
 100 Fe ( 0.000000,  0.000000,  2.282278)
 101 Co ( 0.000000,  0.000000,  1.411534)
 102 Al ( 0.000000,  0.000000, -0.043058)
 103 Fe ( 0.000000,  0.000000,  2.555825)
 104 Co ( 0.000000,  0.000000,  0.954432)
 105 Ni ( 0.000000,  0.000000,  0.384898)
 106 Al ( 0.000000,  0.000000, -0.028614)
 107 Cr ( 0.000000,  0.000000,  1.355928)

Energy contributions relative to reference atoms: (reference = -3235165.067515)

Kinetic:       +429.951503
Potential:     -386.441242
External:        +0.000000
XC:            -865.369999
Entropy (-ST):   -3.973133
Local:          +31.141431
Free energy:   -794.691440
Extrapolated:  -792.704873

Spin contamination: 27.822405 electrons
Showing only first 2 kpts
                      Up                     Down
 Kpt  Band  Eigenvalues  Occupancy  Eigenvalues  Occupancy
  0   454      9.02788    0.99549      9.88427    0.04040
  0   455      9.04496    0.99465      9.90484    0.03314
  0   456      9.05084    0.99433      9.91520    0.02997
  0   457      9.07195    0.99300      9.92828    0.02640

  1   454      9.01917    0.99586      9.89119    0.03780
  1   455      9.04641    0.99457      9.89576    0.03617
  1   456      9.05197    0.99426      9.92374    0.02759
  1   457      9.07871    0.99252      9.93783    0.02405

Fermi level: 9.56750

No gap

Forces in eV/Ang:
  0 Al   -1.27799    0.43209    1.56157
  1 Fe    1.19805   -0.69617   -1.73471
  2 Cr   -0.93341    0.05303   -0.51080
  3 Cr    0.15595    1.10722    1.12037
  4 Ni    1.29530    1.37243   -0.43398
  5 Al    0.63741    0.85809   -0.00415
  6 Al    0.59463   -0.99479   -1.03580
  7 Ni   -2.29195   -2.00332    0.26286
  8 Fe   -1.05647    0.00760    0.25208
  9 Co    0.00697    0.63269   -0.13378
 10 Ni   -0.29661    0.30401   -0.95177
 11 Fe   -0.20248   -0.72566    1.27890
 12 Fe    0.36374    0.57406    0.84725
 13 Co    1.43382   -0.05682   -0.60117
 14 Cr   -0.96706    0.58812   -0.90532
 15 Co    0.46399   -0.42536    0.79403
 16 Fe    0.13784   -2.76929    1.11289
 17 Al    0.91542   -1.18488    2.24019
 18 Fe   -1.40699   -1.39937   -0.22041
 19 Fe   -0.93625    0.18288   -0.93137
 20 Cr    0.94110    1.60346    0.14196
 21 Co    1.03098    1.04972    0.09765
 22 Al   -0.76416    0.26951    1.09155
 23 Fe   -0.63228   -0.83855    0.06768
 24 Ni   -0.43665    0.04629   -0.10502
 25 Al   -0.97193   -0.04685   -0.13586
 26 Ni   -0.59465   -0.73570    0.24755
 27 Cr    1.47529   -0.51121   -0.88083
 28 Fe    0.13833    1.97220   -1.11669
 29 Ni    0.69753    0.71919   -1.30676
 30 Ni   -0.79396   -0.55961    1.88685
 31 Ni    0.65596    1.55564    0.47210
 32 Co    2.06801   -1.11310   -0.67851
 33 Cr   -0.53058    0.01403   -1.65065
 34 Fe    0.03206   -0.77803   -0.23771
 35 Ni    0.48802    1.90388   -0.12244
 36 Fe   -0.41449    0.52929    0.64200
 37 Co    0.15796   -0.39511   -0.51946
 38 Cr   -1.30912   -0.09111    1.42348
 39 Ni    0.76504   -0.79169    1.01550
 40 Al    0.74408    0.68459   -0.10725
 41 Al   -0.36646    0.46659   -0.29871
 42 Cr   -1.81133   -0.59331    0.04510
 43 Al    0.07253    2.04343   -0.69224
 44 Al    0.15269    0.35386    0.04916
 45 Co   -0.89055   -1.17673   -0.79474
 46 Cr    1.04094   -1.07575    2.25648
 47 Ni    0.53643    1.49938   -0.34588
 48 Fe   -0.71927   -0.23074   -0.92094
 49 Fe    0.96459    1.05701    1.08025
 50 Al    0.74213   -0.61806   -0.26263
 51 Co   -1.21959   -0.51771    0.62441
 52 Co    0.24527    0.26793   -1.34077
 53 Ni   -0.28488   -0.67126   -0.06737
 54 Ni    1.45135    0.67210    0.38134
 55 Co   -0.61480   -0.00982   -0.34869
 56 Al   -0.14695   -1.47430   -0.41841
 57 Cr    0.03510    1.11939    0.91576
 58 Ni   -0.38793    0.78482   -0.22215
 59 Cr    1.42713   -0.39400   -0.31136
[...]
 93 Co   -1.01882    0.12769    0.72018
 94 Ni    1.41418   -0.06363    0.49894
 95 Fe   -0.21020    1.34143   -0.81737
 96 Al    0.71329   -1.58351    0.18531
 97 Al    0.82964   -2.19334   -0.54794
 98 Fe    0.07463    1.14468   -0.13146
 99 Co    0.57670   -1.26799   -0.42989
100 Fe   -0.17429    0.63112   -0.76147
101 Co   -0.71752   -0.15795   -1.47572
102 Al    0.37742    0.33992    0.60926
103 Fe    0.24835    0.18360   -0.05420
104 Co    0.16526   -0.44292   -1.14766
105 Ni   -0.83122    0.82135   -1.61502
106 Al   -0.53329    1.12017   -0.25743
107 Cr   -0.88359    1.94902    0.73392

Date: Fri Apr 14 07:41:22 2023