User:   c.zeng@d0145
Date:   Sat Apr 15 08:38:56 2023
Arch:   x86_64
Pid:    46843
CWD:    /home/c.zeng/projects/hea-corrosion/hea-mlp/data-curation/bulk-mcmc/dft-jobs/236
Python: 3.8.1
gpaw:   /home/c.zeng/usr/installs/gpaw/source/gpaw-22.8.0/gpaw
_gpaw:  /home/c.zeng/usr/installs/gpaw/source/gpaw-22.8.0/
        _gpaw.cpython-38-x86_64-linux-gnu.so
ase:    /home/c.zeng/.local/lib/python3.8/site-packages/ase-3.22.1-py3.8.egg/ase (version 3.22.1)
numpy:  /shared/centos7/python/3.8.1/lib/python3.8/site-packages/numpy (version 1.17.4)
scipy:  /shared/centos7/python/3.8.1/lib/python3.8/site-packages/scipy (version 1.4.1)
units:  Angstrom and eV
cores: 30
OpenMP: False
OMP_NUM_THREADS: 1

Input parameters:
  convergence: {energy: 0.0001}
  kpts: [2 2 2]
  maxiter: 666
  mode: {ecut: 350.0,
         name: pw}
  occupations: {fixmagmom: False,
                name: fermi-dirac,
                width: 0.1}
  spinpol: True
  xc: PBE

System changes: positions, numbers, cell, pbc, initial_charges, initial_magmoms

Initialize ...

species:
  Ni:
    name: Nickel
    id: 0d9f38a9d6e76a2886f07bb4381f212b
    Z: 28.0
    valence: 16
    core: 12
    charge: 0.0
    file: /home/c.zeng/usr/data/gpaw-setups-0.9.20000/Ni.PBE.gz
    compensation charges: {type: gauss,
                           rc: 0.36,
                           lmax: 2}
    cutoffs: {filter: 2.14,
              core: 1.98}
    valence states:
      #              energy  rcut
      - 4s(2.00)    -5.642   1.164
      - 3p(6.00)   -71.394   1.207
      - 4p(0.00)    -1.226   1.207
      - 3d(8.00)    -8.875   1.138
      -  s          21.570   1.164
      -  d          18.337   1.138

    # Using partial waves for Ni as LCAO basis

  Al:
    name: Aluminium
    id: 0292cae29f5d6237e50f6abdd43a7bdd
    Z: 13.0
    valence: 3
    core: 10
    charge: 0.0
    file: /home/c.zeng/usr/data/gpaw-setups-0.9.20000/Al.PBE.gz
    compensation charges: {type: gauss,
                           rc: 0.34,
                           lmax: 2}
    cutoffs: {filter: 1.91,
              core: 2.36}
    valence states:
      #              energy  rcut
      - 3s(2.00)    -7.753   1.085
      - 3p(1.00)    -2.712   1.085
      -  s          19.459   1.085
      -  p          24.499   1.085
      -  d           0.000   1.085

[...]

  Co:
    name: Cobalt
    id: 339d20d5b0b93d2de9531a1bee871d91
    Z: 27.0
    valence: 9
    core: 18
    charge: 0.0
    file: /home/c.zeng/usr/data/gpaw-setups-0.9.20000/Co.PBE.gz
    compensation charges: {type: gauss,
                           rc: 0.32,
                           lmax: 2}
    cutoffs: {filter: 1.87,
              core: 2.55}
    valence states:
      #              energy  rcut
      - 4s(2.00)    -5.469   1.005
      - 4p(0.00)    -1.277   1.058
      - 3d(7.00)    -8.205   1.005
      -  s          21.742   1.005
      -  p          25.934   1.058
      -  d          19.007   1.005

[...]

  Cr:
    name: Chromium
    id: 33f258bda2ca9f93018e70263a35547b
    Z: 24.0
    valence: 6
    core: 18
    charge: 0.0
    file: /home/c.zeng/usr/data/gpaw-setups-0.9.20000/Cr.PBE.gz
    compensation charges: {type: gauss,
                           rc: 0.35,
                           lmax: 2}
    cutoffs: {filter: 2.14,
              core: 3.04}
    valence states:
      #              energy  rcut
      - 4s(1.00)    -4.007   1.164
      - 4p(0.00)    -0.989   1.217
      - 3d(5.00)    -2.913   1.111
      -  s          23.205   1.164
      -  p          26.223   1.217
      -  d          24.299   1.111

[...]

  Fe:
    name: Iron
    id: 37abbd8d6c3c35915a9b583b742da910
    Z: 26.0
    valence: 8
    core: 18
    charge: 0.0
    file: /home/c.zeng/usr/data/gpaw-setups-0.9.20000/Fe.PBE.gz
    compensation charges: {type: gauss,
                           rc: 0.33,
                           lmax: 2}
    cutoffs: {filter: 2.06,
              core: 2.67}
    valence states:
      #              energy  rcut
      - 4s(2.00)    -5.291   1.164
      - 4p(0.00)    -1.326   1.058
      - 3d(6.00)    -7.505   1.058
      -  s          21.920   1.164
      -  p          25.885   1.058
      -  d          19.706   1.058

    # Using partial waves for Fe as LCAO basis

Reference energy: -3235165.067515  # eV

Spin-polarized calculation.
Magnetic moment: 121.100000

Convergence criteria:
 Maximum [total energy] change in last 3 cyles: 0.0001 eV / electron
 Maximum integral of absolute [dens]ity change: 0.0001 electrons / valence electron
 Maximum integral of absolute [eigenst]ate change: 4e-08 eV^2 / valence electron
 Maximum number of scf [iter]ations: 666
 (Square brackets indicate name in SCF output, whereas a 'c' in
 the SCF output indicates the quantity has converged.)

Symmetries present (total): 1

  ( 1  0  0)
  ( 0  1  0)
  ( 0  0  1)

8 k-points: 2 x 2 x 2 Monkhorst-Pack grid
4 k-points in the irreducible part of the Brillouin zone
       k-points in crystal coordinates                weights
   0:     0.25000000   -0.25000000   -0.25000000          2/8
   1:     0.25000000   -0.25000000    0.25000000          2/8
   2:     0.25000000    0.25000000   -0.25000000          2/8
   3:     0.25000000    0.25000000    0.25000000          2/8

Wave functions: Plane wave expansion
  Cutoff energy: 350.000 eV
  Number of coefficients (min, max): 19084, 19084
  Pulay-stress correction: 0.000000 eV/Ang^3 (de/decut=0.000000)
  Using FFTW library
  ScaLapack parameters: grid=1x1, blocksize=None
  Wavefunction extrapolation:
    Improved wavefunction reuse through dual PAW basis

Occupation numbers: Fermi-Dirac:
  width: 0.1000  # eV

Eigensolver
   Davidson(niter=2)

Densities:
  Coarse grid: 48*48*48 grid
  Fine grid: 96*96*96 grid
  Total Charge: 0.000000

Density mixing:
  Method: difference
  Backend: pulay
  Linear mixing parameter: 0.05
  old densities: 5
  Damping of long wavelength oscillations: 50

Hamiltonian:
  XC and Coulomb potentials evaluated on a 96*96*96 grid
  Using the PBE Exchange-Correlation functional
  External potential:
    NoExternalPotential

XC parameters: PBE with 2 nearest neighbor stencil

Total number of cores used: 30
Parallelization over k-points: 2
Domain decomposition: 5 x 3 x 1

Number of atoms: 108
Number of atomic orbitals: 933
Number of bands in calculation: 624
Number of valence electrons: 912
Bands to converge: occupied

... initialized

Initializing position-dependent things.

Density initialized from atomic densities
Creating initial wave functions:
  624 bands from LCAO basis set

        .--------Al----------------.
       /|           Fe             |
      / |    FeFe     Ni           |
     / Ni       Ni       Al        |
    /   |Fe      CrCo       Fe     |
   /    | NiCr      ACo            |
  /    Co  FerAlAl    Co Fe  CoAl  |
 *      Fe     AlCoAl   NiFe     Cr|
 |      |FeCr   NiFeFe   AlCrCr   Co
 |      | CoNi   AlCoCoAl NiCrFe   |
 |     Fe  Al CoCo  NiCr Cr  CrCr  |
 |      Cr  Ni CrCrCo CoNiCoAl   Fe|
 |      |NiCo   CoAlAl   CoCrFe   Fe
 |      .-FeNi-----NiNi-Al--NiFe---.
 |     Al  Ni CoNi    Al Co  Cr Cr/
 |    / Co              Ni       Cr
 |   /           Ali      CrFe  /
 |  /      Cr       Fe     NiAl/
 | /                   Fe     /r
 *--------------------------Ni

Positions:
   0 Ni    10.797848    0.093654    0.085777    ( 0.0000,  0.0000,  0.0000)
   1 Al    10.831824    1.844742    1.870716    ( 0.0000,  0.0000,  2.0000)
   2 Ni     1.786803   10.847372    1.827335    ( 0.0000,  0.0000,  0.0000)
   3 Co     1.769614    1.870531   -0.031264    ( 0.0000,  0.0000,  0.0000)
   4 Al     3.620857   10.822050   10.833629    ( 0.0000,  0.0000,  1.5000)
   5 Cr     3.571246    1.883176    1.708402    ( 0.0000,  0.0000,  0.0000)
   6 Co     5.521103   10.788063    1.666217    ( 0.0000,  0.0000,  0.0000)
   7 Al     5.520831    1.813973   10.830911    ( 0.0000,  0.0000,  1.5000)
   8 Al     7.330846    0.011025   10.815657    ( 0.0000,  0.0000,  2.0000)
   9 Fe     7.282018    1.809483    1.793250    ( 0.0000,  0.0000,  2.1000)
  10 Fe     9.029996    0.022005    1.811918    ( 0.0000,  0.0000,  1.5000)
  11 Fe     9.007196    1.868639   10.825714    ( 0.0000,  0.0000,  2.0000)
  12 Cr    10.861310    3.649723    0.014171    ( 0.0000,  0.0000,  2.0000)
  13 Cr    10.867442    5.463468    1.819235    ( 0.0000,  0.0000,  2.1000)
  14 Co     1.756088    3.650267    1.845949    ( 0.0000,  0.0000,  0.0000)
  15 Fe     1.790358    5.439092   10.869084    ( 0.0000,  0.0000,  2.1000)
  16 Cr     3.687842    3.622792   -0.049287    ( 0.0000,  0.0000,  2.0000)
  17 Co     3.667347    5.391145    1.745368    ( 0.0000,  0.0000,  0.0000)
  18 Al     5.497977    3.634415    1.792370    ( 0.0000,  0.0000,  2.0000)
  19 Ni     5.524908    5.448029    0.002551    ( 0.0000,  0.0000,  2.0000)
  20 Co     7.223340    3.611877   10.834270    ( 0.0000,  0.0000,  0.0000)
  21 Al     7.217762    5.474830    1.807776    ( 0.0000,  0.0000,  2.1000)
  22 Cr     9.073442    3.654344    1.775148    ( 0.0000,  0.0000,  0.0000)
  23 Ni     9.008740    5.418608    0.007692    ( 0.0000,  0.0000,  2.0000)
  24 Cr    10.859190    7.178720    0.014480    ( 0.0000,  0.0000,  1.5000)
  25 Fe    -0.018106    8.970948    1.875391    ( 0.0000,  0.0000,  0.0000)
  26 Fe     1.817615    7.224025    1.802546    ( 0.0000,  0.0000,  1.5000)
  27 Ni     1.880729    8.993464   10.874031    ( 0.0000,  0.0000,  0.0000)
  28 Fe     3.684428    7.260447   -0.001356    ( 0.0000,  0.0000,  2.0000)
  29 Co     3.612616    9.025636    1.761807    ( 0.0000,  0.0000,  1.5000)
  30 Ni     5.481440    7.275114    1.811211    ( 0.0000,  0.0000,  1.5000)
  31 Fe     5.461261    9.048153   10.833988    ( 0.0000,  0.0000,  1.5000)
  32 Ni     7.245704    7.257881    0.056891    ( 0.0000,  0.0000,  2.1000)
  33 Co     7.301969    9.004609    1.790315    ( 0.0000,  0.0000,  0.0000)
  34 Ni     9.029343    7.181775    1.815549    ( 0.0000,  0.0000,  2.0000)
  35 Cr     9.030561    9.042010    0.020232    ( 0.0000,  0.0000,  1.5000)
  36 Fe    -0.031046    0.001947    3.645701    ( 0.0000,  0.0000,  2.0000)
  37 Fe    10.825910    1.804351    5.434602    ( 0.0000,  0.0000,  2.1000)
  38 Cr     1.743552   10.849296    5.484376    ( 0.0000,  0.0000,  0.0000)
  39 Al     1.769755    1.791891    3.636068    ( 0.0000,  0.0000,  1.5000)
  40 Al     3.516667   10.719828    3.663227    ( 0.0000,  0.0000,  0.0000)
  41 Co     3.644244    1.785205    5.586728    ( 0.0000,  0.0000,  0.0000)
  42 Al     5.484778   10.815439    5.504022    ( 0.0000,  0.0000,  0.0000)
  43 Ni     5.457934    1.842230    3.658769    ( 0.0000,  0.0000,  0.0000)
  44 Ni     7.360615   10.815439    3.672229    ( 0.0000,  0.0000,  0.0000)
  45 Al     7.266884    1.811614    5.485528    ( 0.0000,  0.0000,  2.1000)
  46 Al     9.077986    0.023590    5.491921    ( 0.0000,  0.0000,  0.0000)
  47 Co     9.066788    1.824226    3.671175    ( 0.0000,  0.0000,  1.5000)
  48 Fe    -0.047135    3.649615    3.617291    ( 0.0000,  0.0000,  2.0000)
  49 Cr    10.809264    5.435993    5.379805    ( 0.0000,  0.0000,  2.0000)
  50 Cr     1.752316    3.624989    5.344676    ( 0.0000,  0.0000,  0.0000)
  51 Ni     1.805786    5.472046    3.619389    ( 0.0000,  0.0000,  2.1000)
  52 Ni     3.649408    3.633491    3.631251    ( 0.0000,  0.0000,  2.1000)
  53 Co     3.657628    5.433797    5.434015    ( 0.0000,  0.0000,  1.5000)
  54 Cr     5.413368    3.672642    5.480309    ( 0.0000,  0.0000,  1.5000)
  55 Al     5.413835    5.465588    3.639666    ( 0.0000,  0.0000,  2.1000)
  56 Ni     7.223449    3.731734    3.720829    ( 0.0000,  0.0000,  0.0000)
  57 Cr     7.220557    5.483180    5.485572    ( 0.0000,  0.0000,  0.0000)
  58 Co     9.069039    3.623673    5.469720    ( 0.0000,  0.0000,  1.5000)
  59 Cr     9.064766    5.503837    3.636731    ( 0.0000,  0.0000,  0.0000)
[...]
  93 Co     7.214631    5.385893    9.048577    ( 0.0000,  0.0000,  2.1000)
  94 Fe     8.994291    3.655975    9.039237    ( 0.0000,  0.0000,  1.5000)
  95 Cr     9.006577    5.423262    7.223296    ( 0.0000,  0.0000,  2.0000)
  96 Cr    -0.070637    7.291956    7.110419    ( 0.0000,  0.0000,  0.0000)
  97 Ni     0.073012    9.104570    9.068375    ( 0.0000,  0.0000,  0.0000)
  98 Ni     1.863247    7.257381    9.054785    ( 0.0000,  0.0000,  2.0000)
  99 Fe     1.858343    9.053708    7.225808    ( 0.0000,  0.0000,  2.1000)
 100 Al     3.683906    7.292456    7.235550    ( 0.0000,  0.0000,  2.0000)
 101 Ni     3.628218    9.069550    9.051262    ( 0.0000,  0.0000,  2.1000)
 102 Co     5.530605    7.331890    9.040129    ( 0.0000,  0.0000,  0.0000)
 103 Al     5.476232    9.097209    7.250467    ( 0.0000,  0.0000,  2.0000)
 104 Ni     7.256827    7.264242    7.208456    ( 0.0000,  0.0000,  2.1000)
 105 Al     7.272548    9.136437    9.056861    ( 0.0000,  0.0000,  1.5000)
 106 Fe     8.936493    7.190875    9.109767    ( 0.0000,  0.0000,  0.0000)
 107 Co     8.994682    9.112169    7.218480    ( 0.0000,  0.0000,  0.0000)

Unit cell:
           periodic     x           y           z      points  spacing
  1. axis:    yes   10.872400    0.000000    0.000000    48     0.2265
  2. axis:    yes    0.000000   10.872400    0.000000    48     0.2265
  3. axis:    yes    0.000000    0.000000   10.872400    48     0.2265

  Lengths:  10.872400  10.872400  10.872400
  Angles:   90.000000  90.000000  90.000000

Effective grid spacing dv^(1/3) = 0.2265

     iter     time        total  log10-change:  magmom
                         energy  eigst   dens
iter:   1 08:42:32  -911.206436                  +120.1074
iter:   2 08:44:00  -834.670739  -0.37  -1.26    +81.7749
iter:   3 08:45:29  -836.497822  -0.73  -1.30    +48.0907
iter:   4 08:46:58  -817.644077  -1.13  -1.29    +44.1370
iter:   5 08:48:27  -811.015937  -1.66  -1.36    +41.3206
iter:   6 08:49:56  -813.521821  -1.69  -1.42    +39.8845
iter:   7 08:51:25  -809.580440  -1.43  -1.45    +38.4639
iter:   8 08:52:54  -807.020395  -1.66  -1.51    +38.8279
iter:   9 08:54:23  -810.501327  -1.76  -1.62    +39.4341
iter:  10 08:55:52  -805.133530  -1.96  -1.60    +39.1372
iter:  11 08:57:21  -803.824475  -2.13  -1.71    +39.6541
iter:  12 08:58:50  -802.650881  -2.44  -1.76    +40.7537
iter:  13 09:00:20  -805.413476  -2.26  -1.86    +42.0569
iter:  14 09:01:49  -803.434528  -2.45  -1.79    +42.3891
iter:  15 09:03:18  -804.878706  -2.44  -1.90    +43.2317
iter:  16 09:04:47  -805.576814  -2.31  -1.89    +44.3444
iter:  17 09:06:16  -804.516368  -2.42  -1.88    +44.5623
iter:  18 09:07:45  -803.733081  -2.72  -1.95    +44.9283
iter:  19 09:09:14  -804.272647  -2.77  -2.03    +45.6805
iter:  20 09:10:43  -803.653724  -2.87  -2.03    +46.1876
iter:  21 09:12:12  -803.764415  -3.20  -2.08    +46.9490
iter:  22 09:13:40  -804.028305  -3.16  -2.12    +47.2975
iter:  23 09:15:09  -804.398890  -3.03  -2.12    +47.9589
iter:  24 09:16:38  -804.439725  -2.93  -2.12    +48.3619
iter:  25 09:18:07  -804.783051  -2.94  -2.16    +48.7522
iter:  26 09:19:37  -805.136464  -2.80  -2.16    +49.1307
iter:  27 09:21:06  -804.854700  -2.94  -2.15    +49.4190
iter:  28 09:22:35  -804.908763  -3.08  -2.20    +50.0434
iter:  29 09:24:03  -804.768669  -3.27  -2.25    +50.1610
iter:  30 09:25:33  -804.769219  -3.57  -2.29    +50.6518
iter:  31 09:27:02  -804.843051c -3.83  -2.33    +51.1401
iter:  32 09:28:31  -805.105496  -3.31  -2.36    +51.8839
iter:  33 09:30:00  -805.265889  -3.32  -2.36    +51.8102
iter:  34 09:31:29  -805.308082  -3.25  -2.37    +51.9187
iter:  35 09:32:58  -805.353737c -3.22  -2.44    +52.1142
iter:  36 09:34:27  -805.233704  -3.41  -2.47    +52.0812
iter:  37 09:35:56  -805.227527  -3.55  -2.62    +52.0747
iter:  38 09:37:25  -805.183414c -3.92  -2.63    +52.1652
iter:  39 09:38:54  -805.161247c -4.07  -2.74    +52.2765
iter:  40 09:40:23  -805.162380c -4.45  -2.81    +52.3172
iter:  41 09:41:51  -805.163996c -4.62  -2.88    +52.3040
iter:  42 09:43:20  -805.173827c -4.85  -2.92    +52.3463
iter:  43 09:44:55  -805.202989c -4.34  -2.96    +52.3410
iter:  44 09:46:33  -805.197368c -4.47  -2.90    +52.3232
iter:  45 09:48:11  -805.212128c -4.39  -3.01    +52.2846
iter:  46 09:49:48  -805.216759c -4.38  -3.01    +52.2813
iter:  47 09:51:27  -805.222989c -4.43  -3.00    +52.3028
iter:  48 09:53:05  -805.217079c -4.65  -3.08    +52.2484
iter:  49 09:54:43  -805.224318c -5.02  -3.15    +52.2135
iter:  50 09:56:21  -805.231501c -5.16  -3.20    +52.2012
iter:  51 09:57:59  -805.242294c -4.97  -3.23    +52.1667
iter:  52 09:59:37  -805.254086c -4.88  -3.22    +52.1242
iter:  53 10:01:15  -805.262146c -4.98  -3.18    +52.1005
iter:  54 10:02:54  -805.267521c -5.20  -3.17    +52.0444
iter:  55 10:04:32  -805.281695c -4.90  -3.18    +51.9961
iter:  56 10:06:10  -805.286025c -5.36  -3.12    +52.0018
iter:  57 10:07:48  -805.309404c -4.25  -3.11    +52.0897
iter:  58 10:09:26  -805.309731c -4.83  -3.09    +52.1220
iter:  59 10:11:04  -805.312273c -5.06  -3.11    +52.1892
iter:  60 10:12:42  -805.323595c -4.56  -3.12    +52.2258
iter:  61 10:14:20  -805.326378c -4.50  -3.08    +52.1929
iter:  62 10:15:59  -805.317571c -4.81  -3.02    +52.1719
iter:  63 10:17:37  -805.317523c -4.94  -3.10    +52.0679
iter:  64 10:19:15  -805.322576c -4.63  -3.12    +52.0439
iter:  65 10:20:53  -805.315127c -4.55  -3.10    +52.0601
iter:  66 10:22:31  -805.314935c -4.90  -3.20    +52.0969
iter:  67 10:24:09  -805.311207c -5.07  -3.24    +52.0563
iter:  68 10:25:47  -805.310724c -5.48  -3.41    +52.0388
iter:  69 10:27:26  -805.311407c -5.44  -3.41    +52.0525
iter:  70 10:29:04  -805.310481c -5.64  -3.42    +52.0557
iter:  71 10:30:42  -805.310642c -5.71  -3.48    +52.0368
iter:  72 10:32:20  -805.311027c -5.49  -3.54    +52.0363
iter:  73 10:33:58  -805.310595c -5.52  -3.50    +52.0473
iter:  74 10:35:36  -805.310996c -5.72  -3.60    +52.0498
iter:  75 10:37:15  -805.310237c -5.82  -3.63    +52.0320
iter:  76 10:38:53  -805.310512c -5.78  -3.68    +52.0293
iter:  77 10:40:31  -805.309893c -6.04  -3.67    +52.0350
iter:  78 10:42:09  -805.310330c -6.23  -3.79    +52.0344
iter:  79 10:43:48  -805.310261c -6.10  -3.81    +52.0288
iter:  80 10:45:26  -805.309842c -6.30  -3.80    +52.0319
iter:  81 10:47:04  -805.310181c -6.45  -3.86    +52.0369
iter:  82 10:48:43  -805.310256c -6.27  -3.90    +52.0358
iter:  83 10:50:21  -805.310365c -6.36  -3.89    +52.0335
iter:  84 10:51:59  -805.310100c -6.58  -3.91    +52.0364
iter:  85 10:53:37  -805.310322c -6.51  -3.98    +52.0398
iter:  86 10:55:15  -805.310522c -6.63  -3.99    +52.0377
iter:  87 10:56:53  -805.310314c -6.91  -3.99    +52.0343
iter:  88 10:58:32  -805.310412c -6.95  -4.07c   +52.0354
iter:  89 11:00:10  -805.310367c -6.97  -4.06c   +52.0365
iter:  90 11:01:48  -805.310520c -7.18  -4.09c   +52.0354
iter:  91 11:03:26  -805.310525c -6.97  -4.11c   +52.0332
iter:  92 11:05:05  -805.310430c -6.85  -4.10c   +52.0352
iter:  93 11:06:43  -805.310659c -6.89  -4.11c   +52.0369
iter:  94 11:08:21  -805.310673c -6.83  -4.12c   +52.0347
iter:  95 11:09:59  -805.310759c -6.85  -4.12c   +52.0326
iter:  96 11:11:38  -805.310559c -6.89  -4.14c   +52.0339
iter:  97 11:13:16  -805.310665c -7.15  -4.19c   +52.0357
iter:  98 11:14:54  -805.310768c -7.24  -4.23c   +52.0337
iter:  99 11:16:32  -805.310659c -7.14  -4.25c   +52.0319
iter: 100 11:18:11  -805.310705c -7.25  -4.26c   +52.0328
iter: 101 11:19:49  -805.310710c -7.27  -4.27c   +52.0348
iter: 102 11:21:28  -805.310942c -6.91  -4.32c   +52.0338
iter: 103 11:23:06  -805.310868c -7.00  -4.24c   +52.0325
iter: 104 11:24:44  -805.310784c -7.04  -4.31c   +52.0353
iter: 105 11:26:22  -805.310928c -7.11  -4.37c   +52.0365
iter: 106 11:28:01  -805.310902c -7.23  -4.37c   +52.0348
iter: 107 11:29:39  -805.310895c -7.68c -4.42c   +52.0324

Converged after 107 iterations.

Dipole moment: (29.874692, 17.658257, 8.721070) |e|*Ang

Total magnetic moment: (0.000000, 0.000000, 52.032381)
Local magnetic moments:
   0 Ni ( 0.000000,  0.000000,  0.350356)
   1 Al ( 0.000000,  0.000000, -0.030219)
   2 Ni ( 0.000000,  0.000000,  0.120500)
   3 Co ( 0.000000,  0.000000,  0.682983)
   4 Al ( 0.000000,  0.000000, -0.022409)
   5 Cr ( 0.000000,  0.000000, -2.296857)
   6 Co ( 0.000000,  0.000000,  1.174763)
   7 Al ( 0.000000,  0.000000, -0.017947)
   8 Al ( 0.000000,  0.000000, -0.035697)
   9 Fe ( 0.000000,  0.000000,  2.310845)
  10 Fe ( 0.000000,  0.000000,  2.332264)
  11 Fe ( 0.000000,  0.000000,  2.053472)
  12 Cr ( 0.000000,  0.000000,  1.142539)
  13 Cr ( 0.000000,  0.000000, -1.273231)
  14 Co ( 0.000000,  0.000000,  0.817278)
  15 Fe ( 0.000000,  0.000000,  1.877012)
  16 Cr ( 0.000000,  0.000000,  1.582808)
  17 Co ( 0.000000,  0.000000,  1.194636)
  18 Al ( 0.000000,  0.000000, -0.015799)
  19 Ni ( 0.000000,  0.000000,  0.338721)
  20 Co ( 0.000000,  0.000000,  1.022419)
  21 Al ( 0.000000,  0.000000, -0.005632)
  22 Cr ( 0.000000,  0.000000, -1.729778)
  23 Ni ( 0.000000,  0.000000,  0.195327)
  24 Cr ( 0.000000,  0.000000,  1.316061)
  25 Fe ( 0.000000,  0.000000,  2.236005)
  26 Fe ( 0.000000,  0.000000,  2.180673)
  27 Ni ( 0.000000,  0.000000,  0.323597)
  28 Fe ( 0.000000,  0.000000,  2.586230)
  29 Co ( 0.000000,  0.000000,  1.226011)
  30 Ni ( 0.000000,  0.000000,  0.196620)
  31 Fe ( 0.000000,  0.000000,  2.438401)
  32 Ni ( 0.000000,  0.000000,  0.345665)
  33 Co ( 0.000000,  0.000000,  1.351670)
  34 Ni ( 0.000000,  0.000000,  0.135968)
  35 Cr ( 0.000000,  0.000000, -1.958791)
  36 Fe ( 0.000000,  0.000000,  2.079094)
  37 Fe ( 0.000000,  0.000000,  1.581141)
  38 Cr ( 0.000000,  0.000000, -1.760083)
  39 Al ( 0.000000,  0.000000, -0.010345)
  40 Al ( 0.000000,  0.000000,  0.005000)
  41 Co ( 0.000000,  0.000000, -0.765840)
  42 Al ( 0.000000,  0.000000, -0.009959)
  43 Ni ( 0.000000,  0.000000,  0.033996)
  44 Ni ( 0.000000,  0.000000,  0.061606)
  45 Al ( 0.000000,  0.000000, -0.017263)
  46 Al ( 0.000000,  0.000000, -0.018731)
  47 Co ( 0.000000,  0.000000,  1.074474)
  48 Fe ( 0.000000,  0.000000,  1.732096)
  49 Cr ( 0.000000,  0.000000, -0.662664)
  50 Cr ( 0.000000,  0.000000, -1.993482)
  51 Ni ( 0.000000,  0.000000,  0.206320)
  52 Ni ( 0.000000,  0.000000,  0.097133)
  53 Co ( 0.000000,  0.000000,  0.999072)
  54 Cr ( 0.000000,  0.000000,  1.310460)
  55 Al ( 0.000000,  0.000000, -0.007987)
  56 Ni ( 0.000000,  0.000000,  0.068943)
  57 Cr ( 0.000000,  0.000000, -1.236322)
  58 Co ( 0.000000,  0.000000,  0.359695)
  59 Cr ( 0.000000,  0.000000,  1.072262)
[...]
  93 Co ( 0.000000,  0.000000,  1.408347)
  94 Fe ( 0.000000,  0.000000,  1.980951)
  95 Cr ( 0.000000,  0.000000, -0.381264)
  96 Cr ( 0.000000,  0.000000, -1.623344)
  97 Ni ( 0.000000,  0.000000,  0.242600)
  98 Ni ( 0.000000,  0.000000,  0.265581)
  99 Fe ( 0.000000,  0.000000,  2.082855)
 100 Al ( 0.000000,  0.000000, -0.036350)
 101 Ni ( 0.000000,  0.000000,  0.268344)
 102 Co ( 0.000000,  0.000000,  1.066746)
 103 Al ( 0.000000,  0.000000, -0.004912)
 104 Ni ( 0.000000,  0.000000,  0.170869)
 105 Al ( 0.000000,  0.000000, -0.015994)
 106 Fe ( 0.000000,  0.000000,  2.315701)
 107 Co ( 0.000000,  0.000000,  0.894612)

Energy contributions relative to reference atoms: (reference = -3235165.067515)

Kinetic:       +238.649003
Potential:     -231.853257
External:        +0.000000
XC:            -841.489264
Entropy (-ST):   -4.122310
Local:          +31.443778
Free energy:   -807.372049
Extrapolated:  -805.310895

Spin contamination: 28.079908 electrons
Showing only first 2 kpts
                      Up                     Down
 Kpt  Band  Eigenvalues  Occupancy  Eigenvalues  Occupancy
  0   454      9.03917    0.99163      9.84567    0.03592
  0   455      9.04908    0.99077      9.85453    0.03297
  0   456      9.06305    0.98940      9.86680    0.02927
  0   457      9.08397    0.98697      9.88725    0.02399

  1   454      9.02843    0.99248      9.84286    0.03690
  1   455      9.05297    0.99041      9.86079    0.03103
  1   456      9.05952    0.98976      9.86690    0.02925
  1   457      9.07761    0.98776      9.89069    0.02320

Fermi level: 9.51667

No gap

Forces in eV/Ang:
  0 Ni    0.35664   -0.43766   -0.61244
  1 Al    0.13646   -0.64816   -0.97791
  2 Ni    0.01753    0.00191   -0.02921
  3 Co    0.20600   -0.13464   -0.04399
  4 Al   -0.55844   -0.48751    0.30552
  5 Cr    0.19397    0.21254    0.22139
  6 Co   -0.09131    0.03818    0.90720
  7 Al   -0.01293   -0.06152   -0.22976
  8 Al   -0.91998    0.19059    1.63618
  9 Fe    0.35355   -0.22483    0.92147
 10 Fe   -0.14046   -0.45924    0.46154
 11 Fe    0.27040    0.22295   -0.04925
 12 Cr    0.14852   -0.19667    0.56034
 13 Cr    0.35967    0.08863    0.10508
 14 Co    0.25536    0.22383   -0.25707
 15 Fe    0.45020   -0.18260    0.23808
 16 Cr   -0.87081   -0.79713    0.82146
 17 Co   -0.62711    0.30471    0.20554
 18 Al   -0.34258   -0.58341    0.52507
 19 Ni   -0.42031    0.00160   -0.26476
 20 Co    0.47954    0.09909   -0.10312
 21 Al    1.05098    0.73649   -0.71294
 22 Cr   -0.75115   -0.45301    0.17398
 23 Ni   -0.01907    0.02388   -0.14100
 24 Cr    0.21585    0.77022    0.17464
 25 Fe   -0.29673    0.53024   -0.77409
 26 Fe    0.29810   -0.12071    0.13514
 27 Ni   -0.79947    0.25816   -0.07120
 28 Fe   -0.17377   -0.06791    0.30031
 29 Co    0.25759   -0.34294    0.36293
 30 Ni   -0.53779    0.05369    0.17449
 31 Fe    0.07980   -0.48811    0.49931
 32 Ni    0.02785    0.25965   -0.71689
 33 Co   -0.12354    0.39247    0.37444
 34 Ni    0.14409    0.50179    0.19906
 35 Cr    1.02304   -0.60526    0.71288
 36 Fe   -0.22337   -0.23680   -0.18303
 37 Fe    0.09734    0.66002   -0.19876
 38 Cr    0.47162    0.24710    0.48343
 39 Al    0.77065    0.45268    0.14443
 40 Al    1.97092    0.77820   -0.67620
 41 Co   -0.03627   -0.07794   -0.81752
 42 Al   -0.85244    1.41160   -1.37489
 43 Ni   -0.22282   -0.43139   -0.08021
 44 Ni   -0.66549    0.25946   -0.17596
 45 Al   -0.39934    1.01234   -1.10579
 46 Al   -0.19183   -0.70990   -1.13015
 47 Co   -0.19881    0.37656   -0.36194
 48 Fe    0.03535    0.12926    0.34559
 49 Cr    0.02276    0.04313   -0.01233
 50 Cr    0.71450    0.27622    1.33283
 51 Ni    0.26050   -0.20390   -0.01701
 52 Ni   -0.09429   -0.17377   -0.08197
 53 Co   -0.32223    0.00617    0.16418
 54 Cr   -0.44540   -0.75081    0.42300
 55 Al   -0.57161    0.54839    0.52064
 56 Ni    0.03312   -0.43893   -0.74947
 57 Cr    0.58461   -0.19159    0.43410
 58 Co    0.05205    0.47183   -0.14406
 59 Cr   -0.14619   -0.53642    0.55396
[...]
 93 Co    0.04082    0.29360   -0.07490
 94 Fe   -0.31507   -0.10544    0.07647
 95 Cr   -0.35699   -0.33352   -0.36176
 96 Cr    0.10823    0.58019    0.61774
 97 Ni   -0.37124   -0.36429   -0.03125
 98 Ni   -0.26077    0.00532    0.00429
 99 Fe   -0.76716   -0.03358   -0.08582
100 Al   -0.63168   -0.45653   -0.21754
101 Ni    0.16102   -0.38160    0.01644
102 Co   -0.22482   -0.73073    0.42347
103 Al   -0.31455   -0.94337    1.15755
104 Ni    0.08761   -0.10478    0.71466
105 Al   -0.23401   -1.76987   -0.64996
106 Fe    0.54197    0.34742   -0.76117
107 Co    0.87545   -0.76974    0.35443

Date: Sat Apr 15 11:30:02 2023