User:   c.zeng@d0057
Date:   Fri Apr 14 01:31:49 2023
Arch:   x86_64
Pid:    256609
CWD:    /home/c.zeng/projects/hea-corrosion/hea-mlp/data-curation/bulk-md/dft-jobs/82
Python: 3.8.1
gpaw:   /home/c.zeng/usr/installs/gpaw/source/gpaw-22.8.0/gpaw
_gpaw:  /home/c.zeng/usr/installs/gpaw/source/gpaw-22.8.0/
        _gpaw.cpython-38-x86_64-linux-gnu.so
ase:    /home/c.zeng/.local/lib/python3.8/site-packages/ase-3.22.1-py3.8.egg/ase (version 3.22.1)
numpy:  /shared/centos7/python/3.8.1/lib/python3.8/site-packages/numpy (version 1.17.4)
scipy:  /shared/centos7/python/3.8.1/lib/python3.8/site-packages/scipy (version 1.4.1)
units:  Angstrom and eV
cores: 30
OpenMP: False
OMP_NUM_THREADS: 1

Input parameters:
  convergence: {energy: 0.0001}
  kpts: [2 2 2]
  maxiter: 666
  mode: {ecut: 350.0,
         name: pw}
  occupations: {fixmagmom: False,
                name: fermi-dirac,
                width: 0.1}
  spinpol: True
  xc: PBE

System changes: positions, numbers, cell, pbc, initial_charges, initial_magmoms

Initialize ...

species:
  Al:
    name: Aluminium
    id: 0292cae29f5d6237e50f6abdd43a7bdd
    Z: 13.0
    valence: 3
    core: 10
    charge: 0.0
    file: /home/c.zeng/usr/data/gpaw-setups-0.9.20000/Al.PBE.gz
    compensation charges: {type: gauss,
                           rc: 0.34,
                           lmax: 2}
    cutoffs: {filter: 1.91,
              core: 2.36}
    valence states:
      #              energy  rcut
      - 3s(2.00)    -7.753   1.085
      - 3p(1.00)    -2.712   1.085
      -  s          19.459   1.085
      -  p          24.499   1.085
      -  d           0.000   1.085

    # Using partial waves for Al as LCAO basis

  Fe:
    name: Iron
    id: 37abbd8d6c3c35915a9b583b742da910
    Z: 26.0
    valence: 8
    core: 18
    charge: 0.0
    file: /home/c.zeng/usr/data/gpaw-setups-0.9.20000/Fe.PBE.gz
    compensation charges: {type: gauss,
                           rc: 0.33,
                           lmax: 2}
    cutoffs: {filter: 2.06,
              core: 2.67}
    valence states:
      #              energy  rcut
      - 4s(2.00)    -5.291   1.164
      - 4p(0.00)    -1.326   1.058
      - 3d(6.00)    -7.505   1.058
      -  s          21.920   1.164
      -  p          25.885   1.058
      -  d          19.706   1.058

[...]

  Cr:
    name: Chromium
    id: 33f258bda2ca9f93018e70263a35547b
    Z: 24.0
    valence: 6
    core: 18
    charge: 0.0
    file: /home/c.zeng/usr/data/gpaw-setups-0.9.20000/Cr.PBE.gz
    compensation charges: {type: gauss,
                           rc: 0.35,
                           lmax: 2}
    cutoffs: {filter: 2.14,
              core: 3.04}
    valence states:
      #              energy  rcut
      - 4s(1.00)    -4.007   1.164
      - 4p(0.00)    -0.989   1.217
      - 3d(5.00)    -2.913   1.111
      -  s          23.205   1.164
      -  p          26.223   1.217
      -  d          24.299   1.111

[...]

  Ni:
    name: Nickel
    id: 0d9f38a9d6e76a2886f07bb4381f212b
    Z: 28.0
    valence: 16
    core: 12
    charge: 0.0
    file: /home/c.zeng/usr/data/gpaw-setups-0.9.20000/Ni.PBE.gz
    compensation charges: {type: gauss,
                           rc: 0.36,
                           lmax: 2}
    cutoffs: {filter: 2.14,
              core: 1.98}
    valence states:
      #              energy  rcut
      - 4s(2.00)    -5.642   1.164
      - 3p(6.00)   -71.394   1.207
      - 4p(0.00)    -1.226   1.207
      - 3d(8.00)    -8.875   1.138
      -  s          21.570   1.164
      -  d          18.337   1.138

[...]

  Co:
    name: Cobalt
    id: 339d20d5b0b93d2de9531a1bee871d91
    Z: 27.0
    valence: 9
    core: 18
    charge: 0.0
    file: /home/c.zeng/usr/data/gpaw-setups-0.9.20000/Co.PBE.gz
    compensation charges: {type: gauss,
                           rc: 0.32,
                           lmax: 2}
    cutoffs: {filter: 1.87,
              core: 2.55}
    valence states:
      #              energy  rcut
      - 4s(2.00)    -5.469   1.005
      - 4p(0.00)    -1.277   1.058
      - 3d(7.00)    -8.205   1.005
      -  s          21.742   1.005
      -  p          25.934   1.058
      -  d          19.007   1.005

    # Using partial waves for Co as LCAO basis

Reference energy: -3235165.067515  # eV

Spin-polarized calculation.
Magnetic moment: 121.100000

Convergence criteria:
 Maximum [total energy] change in last 3 cyles: 0.0001 eV / electron
 Maximum integral of absolute [dens]ity change: 0.0001 electrons / valence electron
 Maximum integral of absolute [eigenst]ate change: 4e-08 eV^2 / valence electron
 Maximum number of scf [iter]ations: 666
 (Square brackets indicate name in SCF output, whereas a 'c' in
 the SCF output indicates the quantity has converged.)

Symmetries present (total): 1

  ( 1  0  0)
  ( 0  1  0)
  ( 0  0  1)

8 k-points: 2 x 2 x 2 Monkhorst-Pack grid
4 k-points in the irreducible part of the Brillouin zone
       k-points in crystal coordinates                weights
   0:     0.25000000   -0.25000000   -0.25000000          2/8
   1:     0.25000000   -0.25000000    0.25000000          2/8
   2:     0.25000000    0.25000000   -0.25000000          2/8
   3:     0.25000000    0.25000000    0.25000000          2/8

Wave functions: Plane wave expansion
  Cutoff energy: 350.000 eV
  Number of coefficients (min, max): 19084, 19084
  Pulay-stress correction: 0.000000 eV/Ang^3 (de/decut=0.000000)
  Using FFTW library
  ScaLapack parameters: grid=1x1, blocksize=None
  Wavefunction extrapolation:
    Improved wavefunction reuse through dual PAW basis

Occupation numbers: Fermi-Dirac:
  width: 0.1000  # eV

Eigensolver
   Davidson(niter=2)

Densities:
  Coarse grid: 48*48*48 grid
  Fine grid: 96*96*96 grid
  Total Charge: 0.000000

Density mixing:
  Method: difference
  Backend: pulay
  Linear mixing parameter: 0.05
  old densities: 5
  Damping of long wavelength oscillations: 50

Hamiltonian:
  XC and Coulomb potentials evaluated on a 96*96*96 grid
  Using the PBE Exchange-Correlation functional
  External potential:
    NoExternalPotential

XC parameters: PBE with 2 nearest neighbor stencil

Total number of cores used: 30
Parallelization over k-points: 2
Domain decomposition: 5 x 3 x 1

Number of atoms: 108
Number of atomic orbitals: 933
Number of bands in calculation: 624
Number of valence electrons: 912
Bands to converge: occupied

... initialized

Initializing position-dependent things.

Density initialized from atomic densities
Creating initial wave functions:
  624 bands from LCAO basis set

       /|  Cr                      |
      Ni|            Co            |
     / Al       Co       Ni        |
    /   | Fe     Co Al      Al     |
   /    |    Fe     Fe    Ni CFe   |
  /     |   CoAlNi    CoFe     Cr  |
 *      CrNi     CoFeCr CNi    CrAl|
 |      |AlAl   Ni NFe   NiFeAl   Cr
 |    Cr| FeCr   AlCoCrNi    FCr  Fe
 |   FCo|  Fe NiCr  Cr CFe   Cr    |
 Co   CAl      ANi    AlNiNi       |
 |      |CoAl   NCo Co   CrCrCo   Al
 |      .-Ni-------NiAl-----FeFe---.
 |   CNi    Co Al   NiCo Ni  Ni   /
 |    /      AlFe       CoAl     /
 |   / Cr        FeFAl     Fe   /
 |  /   Co Al       Co       Fe/
 | / Cr              CrNi     /
 |/    Cr                    /
 *--------------------------Al

Positions:
   0 Al    10.749415    0.091650    0.063541    ( 0.0000,  0.0000,  0.0000)
   1 Fe    10.744459    1.700614    1.761711    ( 0.0000,  0.0000,  2.0000)
   2 Cr     1.712028   11.019457    1.784947    ( 0.0000,  0.0000,  0.0000)
   3 Cr     1.747996    1.905209    0.062632    ( 0.0000,  0.0000,  0.0000)
   4 Ni     3.645103   11.029641   10.774102    ( 0.0000,  0.0000,  1.5000)
   5 Al     3.690542    1.963746    1.548465    ( 0.0000,  0.0000,  0.0000)
   6 Al     5.519271   10.767647    1.913264    ( 0.0000,  0.0000,  0.0000)
   7 Ni     5.456814    1.654762   10.808317    ( 0.0000,  0.0000,  1.5000)
   8 Fe     7.205264    0.001977   10.811146    ( 0.0000,  0.0000,  2.0000)
   9 Co     7.247381    1.786983    1.877975    ( 0.0000,  0.0000,  2.1000)
  10 Ni     8.981376    0.068179    1.719193    ( 0.0000,  0.0000,  1.5000)
  11 Fe     8.982010    1.690231   10.811669    ( 0.0000,  0.0000,  2.0000)
  12 Fe    10.679317    3.567766   -0.099196    ( 0.0000,  0.0000,  2.0000)
  13 Co    10.939202    5.364444    1.923859    ( 0.0000,  0.0000,  2.1000)
  14 Cr     1.642094    3.471325    1.726147    ( 0.0000,  0.0000,  0.0000)
  15 Co     1.498069    5.294551   10.899927    ( 0.0000,  0.0000,  2.1000)
  16 Fe     3.785936    3.658855   -0.231789    ( 0.0000,  0.0000,  2.0000)
  17 Al     3.568466    5.375441    1.515964    ( 0.0000,  0.0000,  0.0000)
  18 Fe     5.453147    3.547438    1.826519    ( 0.0000,  0.0000,  2.0000)
  19 Fe     5.682085    5.537083    0.118617    ( 0.0000,  0.0000,  2.0000)
  20 Cr     7.220435    3.497235   10.959425    ( 0.0000,  0.0000,  0.0000)
  21 Co     7.249382    5.258093    1.880507    ( 0.0000,  0.0000,  2.1000)
  22 Al     8.948835    3.710375    1.941601    ( 0.0000,  0.0000,  0.0000)
  23 Fe     9.233091    5.435870    0.070448    ( 0.0000,  0.0000,  2.0000)
  24 Ni    10.962373    7.225368   -0.039850    ( 0.0000,  0.0000,  1.5000)
  25 Al    -0.001743    9.029052    1.777549    ( 0.0000,  0.0000,  0.0000)
  26 Ni     1.781912    7.243389    1.880986    ( 0.0000,  0.0000,  1.5000)
  27 Cr     1.775218    9.102066   10.840947    ( 0.0000,  0.0000,  0.0000)
  28 Fe     3.683218    7.364359    0.178876    ( 0.0000,  0.0000,  2.0000)
  29 Ni     3.557860    9.249016    1.670339    ( 0.0000,  0.0000,  1.5000)
  30 Ni     5.606226    7.108506    1.904479    ( 0.0000,  0.0000,  1.5000)
  31 Ni     5.473487    9.043804   10.975729    ( 0.0000,  0.0000,  1.5000)
  32 Co     7.337582    7.126796    0.188233    ( 0.0000,  0.0000,  2.1000)
  33 Cr     7.350924    8.999439    2.003661    ( 0.0000,  0.0000,  0.0000)
  34 Fe     9.209185    7.090739    1.796908    ( 0.0000,  0.0000,  2.0000)
  35 Ni     8.998872    9.032190    0.040202    ( 0.0000,  0.0000,  1.5000)
  36 Fe    -0.195425   -0.075344    3.443369    ( 0.0000,  0.0000,  2.0000)
  37 Co    10.851458    1.739360    5.493533    ( 0.0000,  0.0000,  2.1000)
  38 Cr     1.825598   10.863465    5.463360    ( 0.0000,  0.0000,  0.0000)
  39 Ni     1.669306    1.752927    3.664903    ( 0.0000,  0.0000,  1.5000)
  40 Al     3.445453   10.829216    3.546703    ( 0.0000,  0.0000,  0.0000)
  41 Al     3.709756    1.769116    5.842073    ( 0.0000,  0.0000,  0.0000)
  42 Cr     5.476928   10.691658    5.348814    ( 0.0000,  0.0000,  0.0000)
  43 Al     5.285409    1.744253    3.824655    ( 0.0000,  0.0000,  0.0000)
  44 Al     7.499038   10.895718    3.714840    ( 0.0000,  0.0000,  0.0000)
  45 Co     7.208611    1.622269    5.437695    ( 0.0000,  0.0000,  2.1000)
  46 Cr     9.201055   -0.045084    5.300361    ( 0.0000,  0.0000,  0.0000)
  47 Ni     9.025378    1.954099    3.671119    ( 0.0000,  0.0000,  1.5000)
  48 Fe    -0.028442    3.516355    3.670025    ( 0.0000,  0.0000,  2.0000)
  49 Fe    10.908564    5.347896    5.327379    ( 0.0000,  0.0000,  2.0000)
  50 Al     1.697305    3.469647    5.477960    ( 0.0000,  0.0000,  0.0000)
  51 Co     1.761851    5.472364    3.626519    ( 0.0000,  0.0000,  2.1000)
  52 Co     3.410003    3.617649    3.363059    ( 0.0000,  0.0000,  2.1000)
  53 Ni     3.715142    5.556442    5.441040    ( 0.0000,  0.0000,  1.5000)
  54 Ni     5.279474    3.703935    5.371841    ( 0.0000,  0.0000,  1.5000)
  55 Co     5.212646    5.327390    3.563983    ( 0.0000,  0.0000,  2.1000)
  56 Al     7.118243    3.796136    3.771552    ( 0.0000,  0.0000,  0.0000)
  57 Cr     7.368540    5.483529    5.474995    ( 0.0000,  0.0000,  0.0000)
  58 Ni     9.189729    3.648116    5.479415    ( 0.0000,  0.0000,  1.5000)
  59 Cr     9.122807    5.472698    3.667110    ( 0.0000,  0.0000,  0.0000)
[...]
  93 Co     7.236703    5.375812    9.138421    ( 0.0000,  0.0000,  2.1000)
  94 Ni     8.776014    3.534419    8.979804    ( 0.0000,  0.0000,  1.5000)
  95 Fe     9.059227    5.552114    7.339094    ( 0.0000,  0.0000,  2.0000)
  96 Al    -0.049782    7.449329    7.142851    ( 0.0000,  0.0000,  0.0000)
  97 Al     0.250999    9.099038    8.986890    ( 0.0000,  0.0000,  0.0000)
  98 Fe     1.825666    7.168971    9.217293    ( 0.0000,  0.0000,  2.0000)
  99 Co     1.889014    9.046359    7.161369    ( 0.0000,  0.0000,  2.1000)
 100 Fe     3.832341    7.300793    7.365133    ( 0.0000,  0.0000,  2.0000)
 101 Co     3.577385    9.125220    9.194257    ( 0.0000,  0.0000,  2.1000)
 102 Al     5.650366    7.370267    9.141651    ( 0.0000,  0.0000,  0.0000)
 103 Fe     5.462631    9.036477    7.446762    ( 0.0000,  0.0000,  2.0000)
 104 Co     7.240948    7.301737    7.042238    ( 0.0000,  0.0000,  2.1000)
 105 Ni     7.312576    9.191878    9.155524    ( 0.0000,  0.0000,  1.5000)
 106 Al     8.973738    7.389999    9.286930    ( 0.0000,  0.0000,  0.0000)
 107 Cr     9.011075    9.136971    7.285992    ( 0.0000,  0.0000,  0.0000)

Unit cell:
           periodic     x           y           z      points  spacing
  1. axis:    yes   10.872400    0.000000    0.000000    48     0.2265
  2. axis:    yes    0.000000   10.872400    0.000000    48     0.2265
  3. axis:    yes    0.000000    0.000000   10.872400    48     0.2265

  Lengths:  10.872400  10.872400  10.872400
  Angles:   90.000000  90.000000  90.000000

Effective grid spacing dv^(1/3) = 0.2265

     iter     time        total  log10-change:  magmom
                         energy  eigst   dens
iter:   1 01:36:30  -957.922342                  +121.3864
iter:   2 01:38:38  -848.865465  -0.18  -1.17    +65.8138
iter:   3 01:40:47  -834.276854  -0.88  -1.20    +56.8580
iter:   4 01:42:53  -822.560837  -1.26  -1.27    +52.8900
iter:   5 01:45:00  -811.050183  -1.57  -1.29    +51.2019
iter:   6 01:47:07  -805.582990  -1.35  -1.35    +51.7612
iter:   7 01:49:15  -807.362842  -1.33  -1.47    +51.4492
iter:   8 01:51:15  -803.611745  -1.63  -1.53    +52.1737
iter:   9 01:53:14  -798.462085  -2.04  -1.62    +53.1797
iter:  10 01:55:14  -798.460354  -2.49  -1.77    +54.1430
iter:  11 01:57:14  -799.166222  -2.43  -1.79    +55.2809
iter:  12 01:59:13  -799.178360  -2.44  -1.83    +56.1773
iter:  13 02:01:12  -799.458667  -2.46  -1.89    +56.7570
iter:  14 02:03:12  -799.007436  -2.69  -1.93    +57.4233
iter:  15 02:05:12  -798.843876  -2.95  -1.99    +57.7045
iter:  16 02:07:11  -798.989303  -2.94  -2.06    +58.0505
iter:  17 02:09:10  -799.212261  -2.89  -2.11    +58.3031
iter:  18 02:11:09  -798.799175  -3.03  -2.14    +58.1444
iter:  19 02:13:07  -798.869709  -3.26  -2.28    +58.2685
iter:  20 02:15:11  -798.884335c -3.40  -2.31    +58.2846
iter:  21 02:17:50  -798.872486c -3.29  -2.35    +58.1199
iter:  22 02:20:00  -798.876850c -3.42  -2.41    +58.1600
iter:  23 02:21:59  -798.877580c -3.59  -2.45    +58.1002
iter:  24 02:23:58  -798.880782c -3.73  -2.50    +57.9430
iter:  25 02:25:58  -798.933161c -3.82  -2.55    +57.8909
iter:  26 02:27:57  -798.959732c -3.77  -2.57    +57.8066
iter:  27 02:29:56  -798.974866c -3.88  -2.58    +57.6546
iter:  28 02:31:56  -799.002117c -3.99  -2.64    +57.6321
iter:  29 02:33:55  -799.035279c -4.10  -2.68    +57.5163
iter:  30 02:35:55  -799.063556c -4.19  -2.70    +57.4261
iter:  31 02:37:55  -799.099351c -4.13  -2.74    +57.3631
iter:  32 02:39:55  -799.129251c -4.30  -2.77    +57.2784
iter:  33 02:41:55  -799.169522c -4.19  -2.80    +57.1452
iter:  34 02:43:54  -799.198652c -4.31  -2.83    +57.1321
iter:  35 02:45:54  -799.248600c -4.11  -2.86    +56.9458
iter:  36 02:47:54  -799.270941c -4.28  -2.87    +56.9317
iter:  37 02:49:53  -799.306567c -4.20  -2.91    +56.8981
iter:  38 02:51:52  -799.348397c -4.05  -2.92    +56.8036
iter:  39 02:53:51  -799.383018c -3.95  -2.93    +56.7215
iter:  40 02:55:51  -799.405467c -4.18  -2.93    +56.7716
iter:  41 02:57:50  -799.469042c -3.42  -2.90    +57.0406
iter:  42 02:59:49  -799.460456c -4.51  -2.80    +57.0839
iter:  43 03:01:47  -799.463471c -4.81  -2.83    +57.1825
iter:  44 03:03:47  -799.480706c -4.69  -2.82    +57.3135
iter:  45 03:06:20  -799.457085c -4.51  -2.78    +57.2518
iter:  46 03:08:44  -799.453631c -4.55  -2.78    +57.2568
iter:  47 03:10:43  -799.442817c -4.31  -2.82    +57.1417
iter:  48 03:12:43  -799.448380c -4.17  -2.90    +57.0473
iter:  49 03:14:42  -799.438371c -4.39  -2.94    +57.0038
iter:  50 03:16:40  -799.431378c -4.66  -3.04    +57.0083
iter:  51 03:18:40  -799.430295c -5.02  -3.11    +56.9758
iter:  52 03:20:39  -799.428724c -5.03  -3.15    +56.9209
iter:  53 03:22:37  -799.430451c -5.08  -3.18    +56.9238
iter:  54 03:24:36  -799.429837c -4.88  -3.23    +56.9290
iter:  55 03:26:36  -799.427180c -5.10  -3.19    +56.9103
iter:  56 03:28:36  -799.428540c -5.04  -3.30    +56.8803
iter:  57 03:30:35  -799.425827c -5.20  -3.30    +56.8888
iter:  58 03:32:39  -799.427582c -5.19  -3.39    +56.9072
iter:  59 03:35:19  -799.424269c -5.49  -3.37    +56.8835
iter:  60 03:37:32  -799.425961c -5.51  -3.47    +56.8622
iter:  61 03:39:31  -799.424601c -5.59  -3.49    +56.8712
iter:  62 03:41:31  -799.424106c -5.75  -3.50    +56.8731
iter:  63 03:43:30  -799.424119c -5.79  -3.56    +56.8571
iter:  64 03:45:29  -799.423951c -5.77  -3.59    +56.8482
iter:  65 03:47:29  -799.424700c -5.70  -3.59    +56.8597
iter:  66 03:49:28  -799.423324c -5.95  -3.62    +56.8623
iter:  67 03:51:27  -799.424143c -5.82  -3.68    +56.8474
iter:  68 03:53:27  -799.423920c -5.97  -3.67    +56.8403
iter:  69 03:55:27  -799.423524c -6.01  -3.73    +56.8424
iter:  70 03:57:26  -799.423622c -6.24  -3.77    +56.8480
iter:  71 03:59:25  -799.422934c -6.08  -3.81    +56.8388
iter:  72 04:01:24  -799.423446c -6.47  -3.80    +56.8363
iter:  73 04:03:23  -799.423132c -6.46  -3.89    +56.8440
iter:  74 04:05:22  -799.423096c -6.47  -3.89    +56.8458
iter:  75 04:07:22  -799.423208c -6.43  -3.93    +56.8424
iter:  76 04:09:21  -799.423048c -6.71  -3.93    +56.8384
iter:  77 04:11:20  -799.423697c -6.34  -4.01c   +56.8430
iter:  78 04:13:19  -799.422892c -6.57  -3.95    +56.8424
iter:  79 04:15:19  -799.423124c -6.79  -4.04c   +56.8355
iter:  80 04:17:18  -799.423098c -6.85  -4.08c   +56.8329
iter:  81 04:19:17  -799.423035c -6.90  -4.11c   +56.8334
iter:  82 04:21:56  -799.423048c -7.25  -4.14c   +56.8357
iter:  83 04:24:08  -799.422889c -7.19  -4.19c   +56.8329
iter:  84 04:26:06  -799.423233c -7.07  -4.18c   +56.8327
iter:  85 04:28:04  -799.423046c -7.26  -4.20c   +56.8347
iter:  86 04:30:02  -799.423086c -6.99  -4.23c   +56.8351
iter:  87 04:32:00  -799.423106c -6.99  -4.23c   +56.8331
iter:  88 04:33:58  -799.423044c -7.03  -4.26c   +56.8310
iter:  89 04:35:56  -799.423206c -7.29  -4.29c   +56.8340
iter:  90 04:37:53  -799.422913c -7.22  -4.34c   +56.8347
iter:  91 04:39:52  -799.423049c -7.55c -4.35c   +56.8336

Converged after 91 iterations.

Dipole moment: (30.647742, 15.852235, -15.090538) |e|*Ang

Total magnetic moment: (0.000000, 0.000000, 56.833562)
Local magnetic moments:
   0 Al ( 0.000000,  0.000000, -0.005802)
   1 Fe ( 0.000000,  0.000000,  1.656863)
   2 Cr ( 0.000000,  0.000000, -1.685972)
   3 Cr ( 0.000000,  0.000000,  1.369945)
   4 Ni ( 0.000000,  0.000000,  0.090538)
   5 Al ( 0.000000,  0.000000, -0.019132)
   6 Al ( 0.000000,  0.000000, -0.010303)
   7 Ni ( 0.000000,  0.000000,  0.245660)
   8 Fe ( 0.000000,  0.000000,  2.392788)
   9 Co ( 0.000000,  0.000000,  0.896294)
  10 Ni ( 0.000000,  0.000000,  0.197966)
  11 Fe ( 0.000000,  0.000000,  1.984206)
  12 Fe ( 0.000000,  0.000000,  2.098831)
  13 Co ( 0.000000,  0.000000,  1.372073)
  14 Cr ( 0.000000,  0.000000, -1.602224)
  15 Co ( 0.000000,  0.000000,  1.042362)
  16 Fe ( 0.000000,  0.000000,  2.084458)
  17 Al ( 0.000000,  0.000000, -0.043440)
  18 Fe ( 0.000000,  0.000000,  2.180839)
  19 Fe ( 0.000000,  0.000000,  2.178898)
  20 Cr ( 0.000000,  0.000000, -2.052664)
  21 Co ( 0.000000,  0.000000,  0.738731)
  22 Al ( 0.000000,  0.000000, -0.029184)
  23 Fe ( 0.000000,  0.000000,  2.241290)
  24 Ni ( 0.000000,  0.000000,  0.166517)
  25 Al ( 0.000000,  0.000000, -0.013064)
  26 Ni ( 0.000000,  0.000000,  0.271500)
  27 Cr ( 0.000000,  0.000000, -1.175955)
  28 Fe ( 0.000000,  0.000000,  2.397570)
  29 Ni ( 0.000000,  0.000000,  0.143524)
  30 Ni ( 0.000000,  0.000000,  0.399017)
  31 Ni ( 0.000000,  0.000000,  0.337657)
  32 Co ( 0.000000,  0.000000,  1.254308)
  33 Cr ( 0.000000,  0.000000, -1.747895)
  34 Fe ( 0.000000,  0.000000,  2.122867)
  35 Ni ( 0.000000,  0.000000,  0.150178)
  36 Fe ( 0.000000,  0.000000,  1.424554)
  37 Co ( 0.000000,  0.000000,  0.881360)
  38 Cr ( 0.000000,  0.000000, -1.954652)
  39 Ni ( 0.000000,  0.000000, -0.025624)
  40 Al ( 0.000000,  0.000000,  0.003179)
  41 Al ( 0.000000,  0.000000, -0.002222)
  42 Cr ( 0.000000,  0.000000, -1.550916)
  43 Al ( 0.000000,  0.000000, -0.002808)
  44 Al ( 0.000000,  0.000000, -0.007417)
  45 Co ( 0.000000,  0.000000,  0.323219)
  46 Cr ( 0.000000,  0.000000, -0.810155)
  47 Ni ( 0.000000,  0.000000,  0.227840)
  48 Fe ( 0.000000,  0.000000,  2.192545)
  49 Fe ( 0.000000,  0.000000,  2.164324)
  50 Al ( 0.000000,  0.000000, -0.037743)
  51 Co ( 0.000000,  0.000000,  1.424540)
  52 Co ( 0.000000,  0.000000,  1.089231)
  53 Ni ( 0.000000,  0.000000,  0.436077)
  54 Ni ( 0.000000,  0.000000,  0.065232)
  55 Co ( 0.000000,  0.000000,  1.296249)
  56 Al ( 0.000000,  0.000000, -0.010947)
  57 Cr ( 0.000000,  0.000000,  1.348309)
  58 Ni ( 0.000000,  0.000000,  0.282642)
  59 Cr ( 0.000000,  0.000000, -1.806142)
[...]
  93 Co ( 0.000000,  0.000000,  1.456006)
  94 Ni ( 0.000000,  0.000000,  0.279894)
  95 Fe ( 0.000000,  0.000000,  2.067611)
  96 Al ( 0.000000,  0.000000, -0.035640)
  97 Al ( 0.000000,  0.000000, -0.012350)
  98 Fe ( 0.000000,  0.000000,  2.014285)
  99 Co ( 0.000000,  0.000000,  1.094409)
 100 Fe ( 0.000000,  0.000000,  2.319315)
 101 Co ( 0.000000,  0.000000,  1.066443)
 102 Al ( 0.000000,  0.000000, -0.048030)
 103 Fe ( 0.000000,  0.000000,  2.280717)
 104 Co ( 0.000000,  0.000000,  1.121385)
 105 Ni ( 0.000000,  0.000000,  0.292707)
 106 Al ( 0.000000,  0.000000, -0.031418)
 107 Cr ( 0.000000,  0.000000,  1.307625)

Energy contributions relative to reference atoms: (reference = -3235165.067515)

Kinetic:       +350.158394
Potential:     -322.446136
External:        +0.000000
XC:            -856.566923
Entropy (-ST):   -3.976182
Local:          +31.419707
Free energy:   -801.411140
Extrapolated:  -799.423049

Spin contamination: 26.859811 electrons
Showing only first 2 kpts
                      Up                     Down
 Kpt  Band  Eigenvalues  Occupancy  Eigenvalues  Occupancy
  0   454      9.00658    0.99545      9.89881    0.02835
  0   455      9.01845    0.99488      9.92647    0.02165
  0   456      9.03021    0.99424      9.94057    0.01886
  0   457      9.05353    0.99274      9.95896    0.01574

  1   454      8.99073    0.99611      9.90228    0.02741
  1   455      9.00755    0.99541      9.92272    0.02246
  1   456      9.00988    0.99530      9.94091    0.01880
  1   457      9.03883    0.99373      9.95390    0.01654

Fermi level: 9.54539

No gap

Forces in eV/Ang:
  0 Al    0.09693   -1.36147   -1.36518
  1 Fe    0.18023    1.61472    1.25650
  2 Cr    0.14603    0.00855   -0.72047
  3 Cr   -0.05572   -0.05227   -1.39840
  4 Ni   -0.76371   -1.70186    1.05646
  5 Al   -0.15531   -0.65600    0.85766
  6 Al   -0.13182    0.64441   -1.66814
  7 Ni    1.06926    1.20656    0.51384
  8 Fe    0.77489   -0.08255    0.47093
  9 Co   -0.39312    0.15262   -0.10071
 10 Ni   -0.53144   -0.73190    0.49622
 11 Fe   -1.08853    1.51104    0.35080
 12 Fe   -0.04404    0.09036    0.63396
 13 Co    0.16710    0.28168   -0.20700
 14 Cr   -0.52914    0.06703    0.11308
 15 Co    1.12916    0.17512   -0.18822
 16 Fe   -0.35004    0.42958    0.11746
 17 Al   -0.23685   -0.35227    1.06738
 18 Fe    0.38214    0.44239    0.01601
 19 Fe   -0.86903   -1.02006   -0.79108
 20 Cr   -0.40602    0.15880   -0.73057
 21 Co   -0.21428    1.47357    0.11288
 22 Al    1.55515   -1.49580   -0.97649
 23 Fe   -1.25296   -0.43414   -0.51215
 24 Ni   -0.53522    0.28841    0.37749
 25 Al   -0.31604   -0.86065   -0.83445
 26 Ni    0.04822   -0.14875   -0.73586
 27 Cr    1.50198   -0.19735    0.63172
 28 Fe   -0.31625    0.02157   -1.06826
 29 Ni    0.06634   -0.48175    0.85474
 30 Ni   -0.59588    0.71091    0.18601
 31 Ni    0.18926    0.00482    0.07441
 32 Co    0.15357    0.74985    0.32543
 33 Cr   -0.06073   -0.78465   -1.41010
 34 Fe   -0.98660    0.04622    0.31313
 35 Ni    0.68334    0.82052    0.50137
 36 Fe    0.52070    1.70195    0.85463
 37 Co   -0.25248   -0.19683   -0.15597
 38 Cr   -1.13043   -0.26871    0.82000
 39 Ni    0.39385   -0.13220   -0.17851
 40 Al    0.47045   -0.48997    0.69030
 41 Al   -1.99073    0.05608   -0.93193
 42 Cr   -0.68175   -0.52992    0.66904
 43 Al    0.97408    1.76011   -0.74767
 44 Al   -1.16301    0.27818   -1.28223
 45 Co   -0.30174    1.32796   -0.03920
 46 Cr    0.94258    0.05504    2.21818
 47 Ni    0.18413   -0.62910   -0.06986
 48 Fe    0.31422    0.41189   -0.59180
 49 Fe   -0.38450    0.87533    0.62262
 50 Al    0.67356    0.59639   -0.00729
 51 Co    0.45918   -0.54379    0.26598
 52 Co    0.40611    0.17672    0.95542
 53 Ni   -0.83279   -0.35871    0.19507
 54 Ni    0.28812   -0.57403    0.88840
 55 Co    0.49350    0.59379   -0.32507
 56 Al    0.19608   -1.72409    0.22117
 57 Cr   -0.62417    0.65722    0.82396
 58 Ni   -0.47031   -0.24080    0.28997
 59 Cr    0.56491    0.85506    0.93255
[...]
 93 Co    0.89673    0.48932   -0.06771
 94 Ni    0.59145    0.20111    0.41230
 95 Fe   -0.38591   -0.03681   -0.42118
 96 Al    0.92484   -1.31045    0.17173
 97 Al   -1.61581    0.63854    0.10773
 98 Fe    0.39758    0.58983   -0.22343
 99 Co    0.04219   -0.35128   -0.00618
100 Fe   -0.97825    0.49951   -0.95486
101 Co   -0.18081   -0.72553    0.04129
102 Al    0.58679   -0.14661    0.63943
103 Fe    0.53764    0.35872   -2.00011
104 Co    0.65657    0.17824    0.78230
105 Ni   -0.50868   -0.64131   -0.67679
106 Al   -0.29016   -0.81787   -0.99392
107 Cr   -0.20658    0.26600   -0.64932

Date: Fri Apr 14 04:40:13 2023