User:   c.zeng@d0017
Date:   Fri Apr 14 22:59:03 2023
Arch:   x86_64
Pid:    277464
CWD:    /home/c.zeng/projects/hea-corrosion/hea-mlp/data-curation/bulk-mcmc/dft-jobs/179
Python: 3.8.1
gpaw:   /home/c.zeng/usr/installs/gpaw/source/gpaw-22.8.0/gpaw
_gpaw:  /home/c.zeng/usr/installs/gpaw/source/gpaw-22.8.0/
        _gpaw.cpython-38-x86_64-linux-gnu.so
ase:    /home/c.zeng/.local/lib/python3.8/site-packages/ase-3.22.1-py3.8.egg/ase (version 3.22.1)
numpy:  /shared/centos7/python/3.8.1/lib/python3.8/site-packages/numpy (version 1.17.4)
scipy:  /shared/centos7/python/3.8.1/lib/python3.8/site-packages/scipy (version 1.4.1)
units:  Angstrom and eV
cores: 30
OpenMP: False
OMP_NUM_THREADS: 1

Input parameters:
  convergence: {energy: 0.0001}
  kpts: [2 2 2]
  maxiter: 666
  mode: {ecut: 350.0,
         name: pw}
  occupations: {fixmagmom: False,
                name: fermi-dirac,
                width: 0.1}
  spinpol: True
  xc: PBE

System changes: positions, numbers, cell, pbc, initial_charges, initial_magmoms

Initialize ...

species:
  Co:
    name: Cobalt
    id: 339d20d5b0b93d2de9531a1bee871d91
    Z: 27.0
    valence: 9
    core: 18
    charge: 0.0
    file: /home/c.zeng/usr/data/gpaw-setups-0.9.20000/Co.PBE.gz
    compensation charges: {type: gauss,
                           rc: 0.32,
                           lmax: 2}
    cutoffs: {filter: 1.87,
              core: 2.55}
    valence states:
      #              energy  rcut
      - 4s(2.00)    -5.469   1.005
      - 4p(0.00)    -1.277   1.058
      - 3d(7.00)    -8.205   1.005
      -  s          21.742   1.005
      -  p          25.934   1.058
      -  d          19.007   1.005

    # Using partial waves for Co as LCAO basis

  Fe:
    name: Iron
    id: 37abbd8d6c3c35915a9b583b742da910
    Z: 26.0
    valence: 8
    core: 18
    charge: 0.0
    file: /home/c.zeng/usr/data/gpaw-setups-0.9.20000/Fe.PBE.gz
    compensation charges: {type: gauss,
                           rc: 0.33,
                           lmax: 2}
    cutoffs: {filter: 2.06,
              core: 2.67}
    valence states:
      #              energy  rcut
      - 4s(2.00)    -5.291   1.164
      - 4p(0.00)    -1.326   1.058
      - 3d(6.00)    -7.505   1.058
      -  s          21.920   1.164
      -  p          25.885   1.058
      -  d          19.706   1.058

[...]

  Al:
    name: Aluminium
    id: 0292cae29f5d6237e50f6abdd43a7bdd
    Z: 13.0
    valence: 3
    core: 10
    charge: 0.0
    file: /home/c.zeng/usr/data/gpaw-setups-0.9.20000/Al.PBE.gz
    compensation charges: {type: gauss,
                           rc: 0.34,
                           lmax: 2}
    cutoffs: {filter: 1.91,
              core: 2.36}
    valence states:
      #              energy  rcut
      - 3s(2.00)    -7.753   1.085
      - 3p(1.00)    -2.712   1.085
      -  s          19.459   1.085
      -  p          24.499   1.085
      -  d           0.000   1.085

[...]

  Cr:
    name: Chromium
    id: 33f258bda2ca9f93018e70263a35547b
    Z: 24.0
    valence: 6
    core: 18
    charge: 0.0
    file: /home/c.zeng/usr/data/gpaw-setups-0.9.20000/Cr.PBE.gz
    compensation charges: {type: gauss,
                           rc: 0.35,
                           lmax: 2}
    cutoffs: {filter: 2.14,
              core: 3.04}
    valence states:
      #              energy  rcut
      - 4s(1.00)    -4.007   1.164
      - 4p(0.00)    -0.989   1.217
      - 3d(5.00)    -2.913   1.111
      -  s          23.205   1.164
      -  p          26.223   1.217
      -  d          24.299   1.111

[...]

  Ni:
    name: Nickel
    id: 0d9f38a9d6e76a2886f07bb4381f212b
    Z: 28.0
    valence: 16
    core: 12
    charge: 0.0
    file: /home/c.zeng/usr/data/gpaw-setups-0.9.20000/Ni.PBE.gz
    compensation charges: {type: gauss,
                           rc: 0.36,
                           lmax: 2}
    cutoffs: {filter: 2.14,
              core: 1.98}
    valence states:
      #              energy  rcut
      - 4s(2.00)    -5.642   1.164
      - 3p(6.00)   -71.394   1.207
      - 4p(0.00)    -1.226   1.207
      - 3d(8.00)    -8.875   1.138
      -  s          21.570   1.164
      -  d          18.337   1.138

    # Using partial waves for Ni as LCAO basis

Reference energy: -3382523.201499  # eV

Spin-polarized calculation.
Magnetic moment: 128.800000

Convergence criteria:
 Maximum [total energy] change in last 3 cyles: 0.0001 eV / electron
 Maximum integral of absolute [dens]ity change: 0.0001 electrons / valence electron
 Maximum integral of absolute [eigenst]ate change: 4e-08 eV^2 / valence electron
 Maximum number of scf [iter]ations: 666
 (Square brackets indicate name in SCF output, whereas a 'c' in
 the SCF output indicates the quantity has converged.)

Symmetries present (total): 1

  ( 1  0  0)
  ( 0  1  0)
  ( 0  0  1)

8 k-points: 2 x 2 x 2 Monkhorst-Pack grid
4 k-points in the irreducible part of the Brillouin zone
       k-points in crystal coordinates                weights
   0:     0.25000000   -0.25000000   -0.25000000          2/8
   1:     0.25000000   -0.25000000    0.25000000          2/8
   2:     0.25000000    0.25000000   -0.25000000          2/8
   3:     0.25000000    0.25000000    0.25000000          2/8

Wave functions: Plane wave expansion
  Cutoff energy: 350.000 eV
  Number of coefficients (min, max): 18865, 18865
  Pulay-stress correction: 0.000000 eV/Ang^3 (de/decut=0.000000)
  Using FFTW library
  ScaLapack parameters: grid=1x1, blocksize=None
  Wavefunction extrapolation:
    Improved wavefunction reuse through dual PAW basis

Occupation numbers: Fermi-Dirac:
  width: 0.1000  # eV

Eigensolver
   Davidson(niter=2)

Densities:
  Coarse grid: 48*48*48 grid
  Fine grid: 96*96*96 grid
  Total Charge: 0.000000

Density mixing:
  Method: difference
  Backend: pulay
  Linear mixing parameter: 0.05
  old densities: 5
  Damping of long wavelength oscillations: 50

Hamiltonian:
  XC and Coulomb potentials evaluated on a 96*96*96 grid
  Using the PBE Exchange-Correlation functional
  External potential:
    NoExternalPotential

XC parameters: PBE with 2 nearest neighbor stencil

Total number of cores used: 30
Parallelization over k-points: 2
Domain decomposition: 5 x 3 x 1

Number of atoms: 108
Number of atomic orbitals: 961
Number of bands in calculation: 649
Number of valence electrons: 945
Bands to converge: occupied

... initialized

Initializing position-dependent things.

Density initialized from atomic densities
Creating initial wave functions:
  649 bands from LCAO basis set

       /|                     Co   |
      / |            Co Fe     CrFe|
     /  |       Cr       Ni       Cr
    /   |Fe       Col     FCor     |
   /i   | Feo        Fe      Co    |
  /  CrAl   NCr       Ni           |
 *      Ni     CoCo   AlFeCrCo   Cr|
 |      |FeNi   CrNiAl   NiAlNi   Co
 | CrFe | AlNi   AlAlFe     Ni     |
 |     Co  FeCr Cr  Fe CoNi  CrNi  |
 |      CoNi   AlCr   FeCoCoNi  Fe |
 |Al    |FeCr   AlCrFe   CrCo     Co
 |      .-CrCo-----NiCr-CoCoCrNi---.
 |     /   Ni Fe    Cr FeNi    Al /
 |    Fe       AFei       Al     /
 |   /  Co         Al       Cr  /
 |  /      Co       Al       Co/
 | / Fe     Fe       Ni Ni    /
 |/             Cr       Ni  /
 *--------Fe----------------*

Positions:
   0 Co    10.764147   10.861293   10.805330    ( 0.0000,  0.0000,  2.0000)
   1 Co    10.786221    1.792513    1.813624    ( 0.0000,  0.0000,  0.0000)
   2 Fe     1.744156    0.036560    1.851269    ( 0.0000,  0.0000,  1.5000)
   3 Al     1.736571    1.831142   10.798805    ( 0.0000,  0.0000,  0.0000)
   4 Fe     3.575126    0.057318    0.061759    ( 0.0000,  0.0000,  0.0000)
   5 Co     3.594289    1.817617    1.845577    ( 0.0000,  0.0000,  2.0000)
   6 Fe     5.429813   10.817005    1.865054    ( 0.0000,  0.0000,  1.5000)
   7 Cr     5.429608    1.929425    0.057134    ( 0.0000,  0.0000,  0.0000)
   8 Co     7.316909   10.723332    0.087382    ( 0.0000,  0.0000,  0.0000)
   9 Al     7.263142    1.825786    1.869404    ( 0.0000,  0.0000,  2.1000)
  10 Ni     9.063554    0.025226    1.863474    ( 0.0000,  0.0000,  1.5000)
  11 Ni     9.049217    1.829703    0.033106    ( 0.0000,  0.0000,  2.1000)
  12 Ni     0.004792    3.558981   10.794801    ( 0.0000,  0.0000,  1.5000)
  13 Al    10.759710    5.390697    1.778165    ( 0.0000,  0.0000,  0.0000)
  14 Co     1.733585    3.561849    1.761112    ( 0.0000,  0.0000,  2.0000)
  15 Fe     1.776899    5.391834   10.795505    ( 0.0000,  0.0000,  0.0000)
  16 Fe     3.565452    3.619360   10.832619    ( 0.0000,  0.0000,  2.1000)
  17 Fe     3.633221    5.394614    1.719551    ( 0.0000,  0.0000,  0.0000)
  18 Ni     5.471624    3.659114    1.836033    ( 0.0000,  0.0000,  2.1000)
  19 Co     5.440212    5.373060   -0.002773    ( 0.0000,  0.0000,  2.0000)
  20 Ni     7.258997    3.609080    0.031294    ( 0.0000,  0.0000,  0.0000)
  21 Fe     7.268941    5.378362    1.785274    ( 0.0000,  0.0000,  2.0000)
  22 Al     9.030724    3.577636    1.833728    ( 0.0000,  0.0000,  2.1000)
  23 Co     9.040420    5.372281   10.801110    ( 0.0000,  0.0000,  0.0000)
  24 Fe    10.791663    7.196206   10.792486    ( 0.0000,  0.0000,  1.5000)
  25 Co    10.758434    9.040387    1.848239    ( 0.0000,  0.0000,  0.0000)
  26 Cr     1.690487    7.202493    1.786032    ( 0.0000,  0.0000,  0.0000)
  27 Ni     1.652691    8.981047    0.027217    ( 0.0000,  0.0000,  0.0000)
  28 Al     3.631241    7.164437    0.034633    ( 0.0000,  0.0000,  0.0000)
  29 Al     3.625452    9.063759    1.801678    ( 0.0000,  0.0000,  0.0000)
  30 Ni     5.490852    7.187095    1.746342    ( 0.0000,  0.0000,  2.0000)
  31 Cr     5.426935    8.989152    0.009861    ( 0.0000,  0.0000,  2.0000)
  32 Fe     7.229122    7.237075   -0.008698    ( 0.0000,  0.0000,  1.5000)
  33 Cr     7.249194    8.995850    1.810713    ( 0.0000,  0.0000,  0.0000)
  34 Cr     9.052073    7.204300    1.764218    ( 0.0000,  0.0000,  2.1000)
  35 Co     9.092553    8.989639   10.808760    ( 0.0000,  0.0000,  1.5000)
  36 Cr    -0.000975   10.826235    3.639789    ( 0.0000,  0.0000,  1.5000)
  37 Al    10.822772    1.771770    5.422044    ( 0.0000,  0.0000,  2.1000)
  38 Ni     1.754263   10.802084    5.428872    ( 0.0000,  0.0000,  2.1000)
  39 Fe     1.741873    1.774270    3.610801    ( 0.0000,  0.0000,  0.0000)
  40 Al     3.591183   10.794152    3.612143    ( 0.0000,  0.0000,  2.0000)
  41 Cr     3.593088    1.736744    5.455177    ( 0.0000,  0.0000,  0.0000)
  42 Al     5.437150   10.794563    5.400804    ( 0.0000,  0.0000,  2.0000)
  43 Fe     5.451931    1.783251    3.601387    ( 0.0000,  0.0000,  1.5000)
  44 Al     7.226222    0.007781    3.626209    ( 0.0000,  0.0000,  0.0000)
  45 Fe     7.236069    1.766512    5.381392    ( 0.0000,  0.0000,  2.1000)
  46 Co     9.034587   10.848850    5.403844    ( 0.0000,  0.0000,  2.1000)
  47 Ni     9.031558    1.804946    3.616730    ( 0.0000,  0.0000,  1.5000)
  48 Ni    10.773885    3.543973    3.617867    ( 0.0000,  0.0000,  1.5000)
  49 Ni    10.772186    5.358409    5.454917    ( 0.0000,  0.0000,  0.0000)
  50 Co     1.757531    3.575678    5.428937    ( 0.0000,  0.0000,  2.1000)
  51 Fe     1.621766    5.386986    3.572550    ( 0.0000,  0.0000,  0.0000)
  52 Co     3.634303    3.633188    3.540792    ( 0.0000,  0.0000,  0.0000)
  53 Cr     3.550606    5.397969    5.404753    ( 0.0000,  0.0000,  2.0000)
  54 Cr     5.402221    3.610887    5.370193    ( 0.0000,  0.0000,  2.0000)
  55 Cr     5.460241    5.433590    3.575613    ( 0.0000,  0.0000,  2.0000)
  56 Cr     7.250157    3.615183    3.623169    ( 0.0000,  0.0000,  1.5000)
  57 Co     7.248707    5.410715    5.362099    ( 0.0000,  0.0000,  1.5000)
  58 Co     9.058230    3.565236    5.380082    ( 0.0000,  0.0000,  2.1000)
  59 Co     9.074071    5.365323    3.589008    ( 0.0000,  0.0000,  2.1000)
[...]
  93 Ni     7.211073    5.388295    9.040181    ( 0.0000,  0.0000,  0.0000)
  94 Cr     9.095052    3.598119    8.980636    ( 0.0000,  0.0000,  2.0000)
  95 Al     9.078205    5.402416    7.227759    ( 0.0000,  0.0000,  0.0000)
  96 Cr    10.763411    7.244682    7.260285    ( 0.0000,  0.0000,  1.5000)
  97 Cr    10.795093    9.034566    8.977574    ( 0.0000,  0.0000,  2.0000)
  98 Fe     1.740045    7.178947    8.984662    ( 0.0000,  0.0000,  2.1000)
  99 Co     1.734429    9.080207    7.236696    ( 0.0000,  0.0000,  1.5000)
 100 Co     3.580482    7.154277    7.248285    ( 0.0000,  0.0000,  0.0000)
 101 Cr     3.612835    8.970898    8.958086    ( 0.0000,  0.0000,  0.0000)
 102 Al     5.410943    7.155878    9.067049    ( 0.0000,  0.0000,  0.0000)
 103 Fe     5.466441    9.064062    7.220963    ( 0.0000,  0.0000,  2.1000)
 104 Fe     7.307203    7.271549    7.289738    ( 0.0000,  0.0000,  0.0000)
 105 Ni     7.271073    9.044683    9.027879    ( 0.0000,  0.0000,  1.5000)
 106 Cr     9.081743    7.219805    9.041166    ( 0.0000,  0.0000,  2.1000)
 107 Co     9.063684    9.083009    7.213865    ( 0.0000,  0.0000,  2.0000)

Unit cell:
           periodic     x           y           z      points  spacing
  1. axis:    yes   10.820500    0.000000    0.000000    48     0.2254
  2. axis:    yes    0.000000   10.820500    0.000000    48     0.2254
  3. axis:    yes    0.000000    0.000000   10.820500    48     0.2254

  Lengths:  10.820500  10.820500  10.820500
  Angles:   90.000000  90.000000  90.000000

Effective grid spacing dv^(1/3) = 0.2254

     iter     time        total  log10-change:  magmom
                         energy  eigst   dens
iter:   1 23:02:31  -895.468339                  +128.4417
iter:   2 23:03:52  -862.421336  -0.41  -1.31    +96.3880
iter:   3 23:05:15  -844.334665  -0.95  -1.29    +68.7645
iter:   4 23:06:38  -832.821111  -1.26  -1.37    +58.8311
iter:   5 23:08:00  -825.848164  -1.84  -1.40    +53.6952
iter:   6 23:09:23  -827.497379  -1.96  -1.47    +51.4500
iter:   7 23:10:46  -827.833641  -1.63  -1.49    +49.9553
iter:   8 23:12:09  -825.522400  -1.74  -1.53    +49.3696
iter:   9 23:13:32  -828.270956  -1.79  -1.63    +49.8355
iter:  10 23:14:54  -822.536873  -2.00  -1.65    +49.3002
iter:  11 23:16:17  -824.559208  -2.24  -1.82    +49.8630
iter:  12 23:17:40  -822.690603  -2.37  -1.80    +50.5917
iter:  13 23:19:02  -823.391470  -2.53  -1.88    +51.5872
iter:  14 23:20:25  -823.695736  -2.50  -1.91    +52.5356
iter:  15 23:21:48  -824.609112  -2.46  -1.95    +53.3413
iter:  16 23:23:11  -824.153299  -2.46  -1.94    +54.7152
iter:  17 23:24:35  -824.285324  -2.67  -2.00    +55.3468
iter:  18 23:25:58  -824.626317  -2.63  -2.06    +55.9960
iter:  19 23:27:22  -824.380317  -2.73  -2.09    +56.5835
iter:  20 23:28:45  -824.095626  -3.01  -2.12    +57.2960
iter:  21 23:30:09  -824.305713  -3.18  -2.21    +57.9854
iter:  22 23:31:32  -824.429446  -3.20  -2.23    +58.2788
iter:  23 23:32:56  -824.353973  -3.43  -2.22    +58.9168
iter:  24 23:34:20  -824.570878  -3.39  -2.29    +59.4408
iter:  25 23:35:43  -824.702461  -3.37  -2.30    +59.6722
iter:  26 23:37:07  -824.891167  -3.15  -2.31    +59.7530
iter:  27 23:38:31  -824.939928  -3.17  -2.34    +59.8293
iter:  28 23:39:54  -825.140367  -3.06  -2.35    +60.0038
iter:  29 23:41:18  -825.103932  -3.17  -2.38    +59.8104
iter:  30 23:42:41  -824.933795  -3.45  -2.39    +59.8345
iter:  31 23:44:05  -824.971468  -3.56  -2.53    +59.8499
iter:  32 23:45:28  -824.916181c -4.00  -2.52    +59.9292
iter:  33 23:46:52  -824.959605c -4.08  -2.62    +59.8404
iter:  34 23:48:16  -824.975011c -4.47  -2.64    +59.8163
iter:  35 23:49:39  -825.104067  -3.77  -2.67    +59.7511
iter:  36 23:51:03  -825.089707  -3.89  -2.61    +59.6615
iter:  37 23:52:27  -825.102165c -3.82  -2.71    +59.4424
iter:  38 23:53:51  -825.091745c -4.02  -2.83    +59.2497
iter:  39 23:55:14  -825.103156c -4.04  -2.88    +59.1642
iter:  40 23:56:40  -825.100052c -4.26  -2.95    +59.0989
iter:  41 23:58:07  -825.105549c -4.62  -3.02    +58.8704
iter:  42 23:59:34  -825.116724c -4.72  -3.12    +58.6970
iter:  43 00:01:00  -825.131539c -4.90  -3.16    +58.5310
iter:  44 00:02:27  -825.168242c -4.30  -3.15    +58.0437
iter:  45 00:03:54  -825.183414c -4.75  -3.10    +57.9318
iter:  46 00:05:21  -825.177921c -5.32  -3.02    +57.9645
iter:  47 00:06:47  -825.204460c -4.70  -3.01    +57.7488
iter:  48 00:08:14  -825.219137c -4.85  -2.99    +57.6578
iter:  49 00:09:41  -825.238223c -4.52  -2.95    +57.5508
iter:  50 00:11:07  -825.241166c -4.62  -2.92    +57.4339
iter:  51 00:12:34  -825.276381c -4.25  -2.95    +57.2557
iter:  52 00:14:00  -825.252837c -4.23  -2.84    +57.1198
iter:  53 00:15:27  -825.257762c -4.56  -2.93    +56.9452
iter:  54 00:16:54  -825.263619c -4.72  -2.98    +56.7953
iter:  55 00:18:21  -825.278326c -4.66  -3.01    +56.6529
iter:  56 00:19:48  -825.275988c -5.00  -2.98    +56.5171
iter:  57 00:21:15  -825.290624c -4.86  -3.05    +56.2826
iter:  58 00:22:42  -825.294250c -5.30  -3.04    +56.2203
iter:  59 00:24:09  -825.310033c -4.85  -3.05    +56.0346
iter:  60 00:25:36  -825.316071c -4.70  -3.04    +55.9147
iter:  61 00:27:03  -825.331734c -4.33  -3.13    +55.7498
iter:  62 00:28:29  -825.329733c -4.71  -3.13    +55.6809
iter:  63 00:29:56  -825.334903c -4.96  -3.31    +55.5006
iter:  64 00:31:23  -825.343600c -5.08  -3.42    +55.3676
iter:  65 00:32:50  -825.364498c -4.51  -3.43    +55.0420
iter:  66 00:34:16  -825.400430c -3.86  -3.37    +54.3469
iter:  67 00:35:43  -825.403565c -4.80  -3.19    +54.3543
iter:  68 00:37:10  -825.406942c -5.17  -3.18    +54.3055
iter:  69 00:38:37  -825.412770c -5.09  -3.16    +54.2330
iter:  70 00:40:04  -825.420658c -4.65  -3.13    +54.0733
iter:  71 00:41:30  -825.425774c -4.47  -3.10    +53.9442
iter:  72 00:42:57  -825.424407c -5.20  -3.03    +53.9884
iter:  73 00:44:24  -825.427204c -4.95  -3.04    +53.9034
iter:  74 00:45:50  -825.435208c -4.55  -3.04    +53.8706
iter:  75 00:47:17  -825.422374c -4.51  -2.97    +53.8276
iter:  76 00:48:44  -825.416992c -4.84  -3.10    +53.7862
iter:  77 00:50:11  -825.420118c -4.94  -3.14    +53.7962
iter:  78 00:51:38  -825.420707c -4.93  -3.14    +53.7853
iter:  79 00:53:05  -825.414888c -4.70  -3.16    +53.7522
iter:  80 00:54:32  -825.418997c -4.83  -3.27    +53.7705
iter:  81 00:55:59  -825.414493c -4.86  -3.24    +53.7966
iter:  82 00:57:26  -825.414917c -5.08  -3.32    +53.8032
iter:  83 00:58:52  -825.411080c -5.28  -3.35    +53.7971
iter:  84 01:00:19  -825.411884c -5.40  -3.46    +53.8127
iter:  85 01:01:46  -825.411030c -5.63  -3.46    +53.8286
iter:  86 01:03:13  -825.411239c -5.64  -3.55    +53.8292
iter:  87 01:04:41  -825.410872c -5.69  -3.55    +53.8317
iter:  88 01:06:08  -825.410128c -5.80  -3.59    +53.8432
iter:  89 01:07:35  -825.411046c -5.79  -3.60    +53.8540
iter:  90 01:09:02  -825.411048c -5.75  -3.64    +53.8552
iter:  91 01:10:29  -825.410436c -5.88  -3.62    +53.8485
iter:  92 01:11:56  -825.410592c -5.86  -3.70    +53.8575
iter:  93 01:13:23  -825.410409c -5.98  -3.69    +53.8610
iter:  94 01:14:50  -825.410614c -6.22  -3.75    +53.8596
iter:  95 01:16:17  -825.409927c -6.18  -3.80    +53.8567
iter:  96 01:17:45  -825.410225c -6.32  -3.83    +53.8611
iter:  97 01:19:12  -825.410280c -6.28  -3.83    +53.8679
iter:  98 01:20:39  -825.410526c -6.21  -3.86    +53.8654
iter:  99 01:22:06  -825.410449c -6.19  -3.84    +53.8654
iter: 100 01:23:33  -825.409995c -6.39  -3.88    +53.8689
iter: 101 01:25:00  -825.410594c -6.31  -3.94    +53.8734
iter: 102 01:26:27  -825.410435c -6.56  -3.93    +53.8724
iter: 103 01:27:55  -825.410324c -6.54  -3.98    +53.8677
iter: 104 01:29:22  -825.410285c -6.63  -4.04c   +53.8710
iter: 105 01:30:49  -825.410334c -6.71  -4.02c   +53.8723
iter: 106 01:32:16  -825.410503c -6.84  -4.07c   +53.8724
iter: 107 01:33:43  -825.410234c -6.65  -4.11c   +53.8719
iter: 108 01:35:10  -825.410368c -6.83  -4.08c   +53.8739
iter: 109 01:36:37  -825.410429c -6.68  -4.13c   +53.8777
iter: 110 01:38:04  -825.410585c -6.71  -4.12c   +53.8756
iter: 111 01:39:32  -825.410508c -6.83  -4.11c   +53.8753
iter: 112 01:40:59  -825.410287c -6.94  -4.21c   +53.8763
iter: 113 01:42:26  -825.410537c -7.06  -4.25c   +53.8782
iter: 114 01:43:53  -825.410453c -7.25  -4.24c   +53.8783
iter: 115 01:45:20  -825.410449c -7.08  -4.31c   +53.8779
iter: 116 01:46:48  -825.410405c -7.14  -4.31c   +53.8801
iter: 117 01:48:15  -825.410460c -7.16  -4.28c   +53.8821
iter: 118 01:49:42  -825.410651c -7.04  -4.37c   +53.8831
iter: 119 01:51:10  -825.410483c -7.15  -4.32c   +53.8834
iter: 120 01:52:37  -825.410539c -7.15  -4.35c   +53.8854
iter: 121 01:54:04  -825.410565c -7.19  -4.43c   +53.8871
iter: 122 01:55:31  -825.410636c -7.36  -4.41c   +53.8858
iter: 123 01:56:59  -825.410581c -7.47c -4.46c   +53.8858

Converged after 123 iterations.

Dipole moment: (28.883805, -2.872089, -10.353760) |e|*Ang

Total magnetic moment: (0.000000, 0.000000, 53.885780)
Local magnetic moments:
   0 Co ( 0.000000,  0.000000,  1.208120)
   1 Co ( 0.000000,  0.000000,  1.363128)
   2 Fe ( 0.000000,  0.000000,  2.310284)
   3 Al ( 0.000000,  0.000000, -0.043588)
   4 Fe ( 0.000000,  0.000000,  2.390091)
   5 Co ( 0.000000,  0.000000,  1.425715)
   6 Fe ( 0.000000,  0.000000,  1.978641)
   7 Cr ( 0.000000,  0.000000, -2.401751)
   8 Co ( 0.000000,  0.000000,  0.945118)
   9 Al ( 0.000000,  0.000000, -0.010699)
  10 Ni ( 0.000000,  0.000000,  0.184716)
  11 Ni ( 0.000000,  0.000000,  0.134597)
  12 Ni ( 0.000000,  0.000000,  0.155454)
  13 Al ( 0.000000,  0.000000, -0.028841)
  14 Co ( 0.000000,  0.000000,  1.272922)
  15 Fe ( 0.000000,  0.000000,  1.984207)
  16 Fe ( 0.000000,  0.000000,  2.340633)
  17 Fe ( 0.000000,  0.000000,  2.220634)
  18 Ni ( 0.000000,  0.000000,  0.243768)
  19 Co ( 0.000000,  0.000000,  1.078283)
  20 Ni ( 0.000000,  0.000000,  0.091007)
  21 Fe ( 0.000000,  0.000000,  2.287576)
  22 Al ( 0.000000,  0.000000, -0.019951)
  23 Co ( 0.000000,  0.000000,  0.696582)
  24 Fe ( 0.000000,  0.000000,  1.669937)
  25 Co ( 0.000000,  0.000000,  0.963058)
  26 Cr ( 0.000000,  0.000000, -1.866468)
  27 Ni ( 0.000000,  0.000000,  0.115071)
  28 Al ( 0.000000,  0.000000, -0.013014)
  29 Al ( 0.000000,  0.000000, -0.034354)
  30 Ni ( 0.000000,  0.000000,  0.294135)
  31 Cr ( 0.000000,  0.000000,  1.514235)
  32 Fe ( 0.000000,  0.000000,  2.100904)
  33 Cr ( 0.000000,  0.000000, -1.453737)
  34 Cr ( 0.000000,  0.000000, -1.613975)
  35 Co ( 0.000000,  0.000000,  0.910663)
  36 Cr ( 0.000000,  0.000000, -1.365544)
  37 Al ( 0.000000,  0.000000, -0.022925)
  38 Ni ( 0.000000,  0.000000,  0.053309)
  39 Fe ( 0.000000,  0.000000,  2.267834)
  40 Al ( 0.000000,  0.000000, -0.030576)
  41 Cr ( 0.000000,  0.000000, -2.006260)
  42 Al ( 0.000000,  0.000000, -0.027493)
  43 Fe ( 0.000000,  0.000000,  1.872839)
  44 Al ( 0.000000,  0.000000, -0.029352)
  45 Fe ( 0.000000,  0.000000,  1.845514)
  46 Co ( 0.000000,  0.000000,  0.912045)
  47 Ni ( 0.000000,  0.000000,  0.154113)
  48 Ni ( 0.000000,  0.000000,  0.325476)
  49 Ni ( 0.000000,  0.000000,  0.203075)
  50 Co ( 0.000000,  0.000000,  1.016355)
  51 Fe ( 0.000000,  0.000000,  2.325601)
  52 Co ( 0.000000,  0.000000,  1.189497)
  53 Cr ( 0.000000,  0.000000,  1.096671)
  54 Cr ( 0.000000,  0.000000, -1.446772)
  55 Cr ( 0.000000,  0.000000,  1.009208)
  56 Cr ( 0.000000,  0.000000, -1.238329)
  57 Co ( 0.000000,  0.000000,  1.247662)
  58 Co ( 0.000000,  0.000000,  1.132578)
  59 Co ( 0.000000,  0.000000,  1.107879)
[...]
  93 Ni ( 0.000000,  0.000000,  0.279608)
  94 Cr ( 0.000000,  0.000000,  1.212861)
  95 Al ( 0.000000,  0.000000, -0.018494)
  96 Cr ( 0.000000,  0.000000,  0.998361)
  97 Cr ( 0.000000,  0.000000, -1.284575)
  98 Fe ( 0.000000,  0.000000,  1.846468)
  99 Co ( 0.000000,  0.000000,  0.619641)
 100 Co ( 0.000000,  0.000000, -0.522066)
 101 Cr ( 0.000000,  0.000000, -2.205081)
 102 Al ( 0.000000,  0.000000, -0.017520)
 103 Fe ( 0.000000,  0.000000,  2.141780)
 104 Fe ( 0.000000,  0.000000,  2.482406)
 105 Ni ( 0.000000,  0.000000,  0.289489)
 106 Cr ( 0.000000,  0.000000, -1.264351)
 107 Co ( 0.000000,  0.000000,  0.899329)

Energy contributions relative to reference atoms: (reference = -3382523.201499)

Kinetic:       +211.085178
Potential:     -221.349611
External:        +0.000000
XC:            -846.324046
Entropy (-ST):   -4.220743
Local:          +33.288269
Free energy:   -827.520952
Extrapolated:  -825.410581

Spin contamination: 31.060344 electrons
Showing only first 2 kpts
                      Up                     Down
 Kpt  Band  Eigenvalues  Occupancy  Eigenvalues  Occupancy
  0   470      9.17460    0.99377     10.01026    0.03608
  0   471      9.19819    0.99212     10.01804    0.03347
  0   472      9.20956    0.99118     10.03440    0.02857
  0   473      9.22218    0.99000     10.04901    0.02478

  1   470      9.17986    0.99343     10.00513    0.03791
  1   471      9.19283    0.99253     10.01886    0.03321
  1   472      9.20003    0.99197     10.02779    0.03046
  1   473      9.21789    0.99042     10.02935    0.03000

Fermi level: 9.68174

No gap

Forces in eV/Ang:
  0 Co    0.13374   -0.49906    0.27192
  1 Co    0.47565   -0.23877    0.07228
  2 Fe   -0.28712   -0.24408   -0.60328
  3 Al    0.00774   -0.04936    0.07815
  4 Fe    0.42385    0.01519   -0.68671
  5 Co    0.05304    0.41344   -0.11930
  6 Fe    0.27501    0.20300   -0.82396
  7 Cr   -1.12246   -0.89669   -0.76391
  8 Co   -0.59655    0.34387   -0.54462
  9 Al   -0.20613   -0.61115   -1.34667
 10 Ni   -0.18628   -0.29436   -0.37636
 11 Ni   -0.16519   -0.34139   -0.48436
 12 Ni   -0.33449    0.52246    0.05687
 13 Al    0.51214   -0.50586   -0.30519
 14 Co    0.49813    0.09549    0.60998
 15 Fe   -0.27623   -0.20855    0.07013
 16 Fe    0.63246   -0.07662    0.25857
 17 Fe   -0.31701   -0.65606    0.77550
 18 Ni   -0.46179   -0.27118    0.02809
 19 Co    0.09508   -0.19583    0.12446
 20 Ni   -0.16977   -0.02000   -0.45238
 21 Fe   -0.00144    0.46110    0.06448
 22 Al    0.59697   -0.05493   -0.61637
 23 Co   -0.24287    0.48858   -0.46477
 24 Fe    0.19409    0.09713   -0.03473
 25 Co    0.19695    0.00228   -0.40061
 26 Cr   -0.64453    0.17408    0.05432
 27 Ni    0.71860    0.50616   -0.15302
 28 Al   -0.73525    0.20747    0.14418
 29 Al   -0.53047    0.24136   -0.96707
 30 Ni   -0.18875    0.12827    0.57803
 31 Cr    0.76581    1.37055   -0.56694
 32 Fe    0.81144   -0.43023    0.21414
 33 Cr    0.05463    0.15429   -0.54896
 34 Cr   -0.43395    0.41395   -0.09885
 35 Co   -0.21407    0.24596    0.23756
 36 Cr   -0.00452   -0.74463   -0.85353
 37 Al   -0.17046    0.16426    0.10013
 38 Ni    0.33263    0.01391    0.15756
 39 Fe    0.41632    0.80467   -0.26659
 40 Al   -0.52009    1.03701   -0.36124
 41 Cr   -0.74431    1.39515    0.24199
 42 Al    0.25870    0.04239    0.78985
 43 Fe   -0.71998    0.70560    0.05072
 44 Al    1.00142   -0.21187    0.10666
 45 Fe    0.40066    0.85009    0.45186
 46 Co   -0.06756   -0.41008    0.00446
 47 Ni   -0.06717   -0.19674    0.07020
 48 Ni    0.59340    0.33910   -0.07287
 49 Ni    0.39161    0.17670   -0.29779
 50 Co    0.64132    0.14647   -0.29738
 51 Fe    1.17110   -0.24115    0.36735
 52 Co   -0.32507   -0.02930    0.23639
 53 Cr   -0.23769   -1.01618   -0.18790
 54 Cr    0.03444    0.38477    0.28460
 55 Cr    0.11033   -0.62336    0.29994
 56 Cr   -0.70815    0.77733    1.25595
 57 Co    0.29031    0.09264   -0.02579
 58 Co   -0.62332    0.30102    0.21023
 59 Co   -0.48914    0.48705    0.67200
[...]
 93 Ni    0.34761   -0.19954   -0.22240
 94 Cr    0.38419    0.41432    0.71159
 95 Al   -1.28463   -0.08615   -0.98458
 96 Cr   -0.11039    0.42008    0.54856
 97 Cr    0.31117    0.33366    0.40922
 98 Fe    0.22989    0.39497   -0.08533
 99 Co    0.35262   -0.29905    0.21659
100 Co   -0.35356    0.26293   -0.07867
101 Cr   -0.41516    0.92674    0.22547
102 Al    0.97821   -0.06955   -1.34116
103 Fe   -0.29593   -0.25369    0.59067
104 Fe   -0.02932   -0.08276   -0.51378
105 Ni    0.03778    0.24763    0.13358
106 Cr   -0.71088    0.27964    0.35263
107 Co   -0.38908   -0.05991   -0.12524

Date: Sat Apr 15 01:57:18 2023