User:   c.zeng@d0028
Date:   Sat Apr 15 18:02:34 2023
Arch:   x86_64
Pid:    150643
CWD:    /home/c.zeng/projects/hea-corrosion/hea-mlp/data-curation/bulk-mcmc/dft-jobs/69
Python: 3.8.1
gpaw:   /home/c.zeng/usr/installs/gpaw/source/gpaw-22.8.0/gpaw
_gpaw:  /home/c.zeng/usr/installs/gpaw/source/gpaw-22.8.0/
        _gpaw.cpython-38-x86_64-linux-gnu.so
ase:    /home/c.zeng/.local/lib/python3.8/site-packages/ase-3.22.1-py3.8.egg/ase (version 3.22.1)
numpy:  /shared/centos7/python/3.8.1/lib/python3.8/site-packages/numpy (version 1.17.4)
scipy:  /shared/centos7/python/3.8.1/lib/python3.8/site-packages/scipy (version 1.4.1)
units:  Angstrom and eV
cores: 30
OpenMP: False
OMP_NUM_THREADS: 1

Input parameters:
  convergence: {energy: 0.0001}
  kpts: [2 2 2]
  maxiter: 666
  mode: {ecut: 350.0,
         name: pw}
  occupations: {fixmagmom: False,
                name: fermi-dirac,
                width: 0.1}
  spinpol: True
  xc: PBE

System changes: positions, numbers, cell, pbc, initial_charges, initial_magmoms

Initialize ...

species:
  Cr:
    name: Chromium
    id: 33f258bda2ca9f93018e70263a35547b
    Z: 24.0
    valence: 6
    core: 18
    charge: 0.0
    file: /home/c.zeng/usr/data/gpaw-setups-0.9.20000/Cr.PBE.gz
    compensation charges: {type: gauss,
                           rc: 0.35,
                           lmax: 2}
    cutoffs: {filter: 2.14,
              core: 3.04}
    valence states:
      #              energy  rcut
      - 4s(1.00)    -4.007   1.164
      - 4p(0.00)    -0.989   1.217
      - 3d(5.00)    -2.913   1.111
      -  s          23.205   1.164
      -  p          26.223   1.217
      -  d          24.299   1.111

    # Using partial waves for Cr as LCAO basis

  Fe:
    name: Iron
    id: 37abbd8d6c3c35915a9b583b742da910
    Z: 26.0
    valence: 8
    core: 18
    charge: 0.0
    file: /home/c.zeng/usr/data/gpaw-setups-0.9.20000/Fe.PBE.gz
    compensation charges: {type: gauss,
                           rc: 0.33,
                           lmax: 2}
    cutoffs: {filter: 2.06,
              core: 2.67}
    valence states:
      #              energy  rcut
      - 4s(2.00)    -5.291   1.164
      - 4p(0.00)    -1.326   1.058
      - 3d(6.00)    -7.505   1.058
      -  s          21.920   1.164
      -  p          25.885   1.058
      -  d          19.706   1.058

[...]

  Ni:
    name: Nickel
    id: 0d9f38a9d6e76a2886f07bb4381f212b
    Z: 28.0
    valence: 16
    core: 12
    charge: 0.0
    file: /home/c.zeng/usr/data/gpaw-setups-0.9.20000/Ni.PBE.gz
    compensation charges: {type: gauss,
                           rc: 0.36,
                           lmax: 2}
    cutoffs: {filter: 2.14,
              core: 1.98}
    valence states:
      #              energy  rcut
      - 4s(2.00)    -5.642   1.164
      - 3p(6.00)   -71.394   1.207
      - 4p(0.00)    -1.226   1.207
      - 3d(8.00)    -8.875   1.138
      -  s          21.570   1.164
      -  d          18.337   1.138

[...]

  Co:
    name: Cobalt
    id: 339d20d5b0b93d2de9531a1bee871d91
    Z: 27.0
    valence: 9
    core: 18
    charge: 0.0
    file: /home/c.zeng/usr/data/gpaw-setups-0.9.20000/Co.PBE.gz
    compensation charges: {type: gauss,
                           rc: 0.32,
                           lmax: 2}
    cutoffs: {filter: 1.87,
              core: 2.55}
    valence states:
      #              energy  rcut
      - 4s(2.00)    -5.469   1.005
      - 4p(0.00)    -1.277   1.058
      - 3d(7.00)    -8.205   1.005
      -  s          21.742   1.005
      -  p          25.934   1.058
      -  d          19.007   1.005

[...]

  Al:
    name: Aluminium
    id: 0292cae29f5d6237e50f6abdd43a7bdd
    Z: 13.0
    valence: 3
    core: 10
    charge: 0.0
    file: /home/c.zeng/usr/data/gpaw-setups-0.9.20000/Al.PBE.gz
    compensation charges: {type: gauss,
                           rc: 0.34,
                           lmax: 2}
    cutoffs: {filter: 1.91,
              core: 2.36}
    valence states:
      #              energy  rcut
      - 3s(2.00)    -7.753   1.085
      - 3p(1.00)    -2.712   1.085
      -  s          19.459   1.085
      -  p          24.499   1.085
      -  d           0.000   1.085

    # Using partial waves for Al as LCAO basis

Reference energy: -3699400.456887  # eV

Spin-polarized calculation.
Magnetic moment: 143.500000

Convergence criteria:
 Maximum [total energy] change in last 3 cyles: 0.0001 eV / electron
 Maximum integral of absolute [dens]ity change: 0.0001 electrons / valence electron
 Maximum integral of absolute [eigenst]ate change: 4e-08 eV^2 / valence electron
 Maximum number of scf [iter]ations: 666
 (Square brackets indicate name in SCF output, whereas a 'c' in
 the SCF output indicates the quantity has converged.)

Symmetries present (total): 1

  ( 1  0  0)
  ( 0  1  0)
  ( 0  0  1)

8 k-points: 2 x 2 x 2 Monkhorst-Pack grid
4 k-points in the irreducible part of the Brillouin zone
       k-points in crystal coordinates                weights
   0:     0.25000000   -0.25000000   -0.25000000          2/8
   1:     0.25000000   -0.25000000    0.25000000          2/8
   2:     0.25000000    0.25000000   -0.25000000          2/8
   3:     0.25000000    0.25000000    0.25000000          2/8

Wave functions: Plane wave expansion
  Cutoff energy: 350.000 eV
  Number of coefficients (min, max): 18052, 18052
  Pulay-stress correction: 0.000000 eV/Ang^3 (de/decut=0.000000)
  Using FFTW library
  ScaLapack parameters: grid=1x1, blocksize=None
  Wavefunction extrapolation:
    Improved wavefunction reuse through dual PAW basis

Occupation numbers: Fermi-Dirac:
  width: 0.1000  # eV

Eigensolver
   Davidson(niter=2)

Densities:
  Coarse grid: 48*48*48 grid
  Fine grid: 96*96*96 grid
  Total Charge: 0.000000

Density mixing:
  Method: difference
  Backend: pulay
  Linear mixing parameter: 0.05
  old densities: 5
  Damping of long wavelength oscillations: 50

Hamiltonian:
  XC and Coulomb potentials evaluated on a 96*96*96 grid
  Using the PBE Exchange-Correlation functional
  External potential:
    NoExternalPotential

XC parameters: PBE with 2 nearest neighbor stencil

Total number of cores used: 30
Parallelization over k-points: 2
Domain decomposition: 5 x 3 x 1

Number of atoms: 108
Number of atomic orbitals: 1025
Number of bands in calculation: 703
Number of valence electrons: 1020
Bands to converge: occupied

... initialized

Initializing position-dependent things.

Density initialized from atomic densities
Creating initial wave functions:
  703 bands from LCAO basis set

        Cr------------------------.
       /|  Co                Co   |
      Cr|   Cr         Ni         |
     / Fe      Fe       Al        |
    /   CCo      Ni       Fe      |
   /e   | CoNi     CoAl    NiNi   |
  /  FeNi  CrCo     NiNiCo        |
 *    FeFe  FeCoCr     CoAl       |
 |     CoFeCr  CoFe Ni  CrFeCr    |
 | Fe   CrNiCrCo NiCrCrFe  Cr     |
 |   CoNi  NiAlNi   NiCrCr   Fe   |
 |    FeNi  FeFeCoNi CoFeNi   Ni  |
 |     CrFeFe  Cr NiNi  CoFeFe    |
 |      .-CoNiCo-FeCrNiCo--CoCr---.
 |   CrCo    CoAl   NiCrFe       /
 |    / Ni    CrFe       Ni     /
 |   /            Cr           /
 |Cr/      Co       Co        /
 |/            Cr           /
 *----------------Cr-------*

Positions:
   0 Cr     0.005316   -0.016350   10.639749    ( 0.0000,  0.0000,  0.0000)
   1 Cr    10.672340    1.801276    1.786848    ( 0.0000,  0.0000,  0.0000)
   2 Fe     1.795727   10.625972    1.782259    ( 0.0000,  0.0000,  0.0000)
   3 Ni     1.780787    1.796175   10.644605    ( 0.0000,  0.0000,  2.1000)
   4 Fe     3.523539   -0.014558    0.017268    ( 0.0000,  0.0000,  2.0000)
   5 Co     3.522568    1.781672    1.746648    ( 0.0000,  0.0000,  0.0000)
   6 Co     5.320952   10.642342    1.763136    ( 0.0000,  0.0000,  1.5000)
   7 Cr     5.342082    1.828767    0.007462    ( 0.0000,  0.0000,  2.0000)
   8 Cr     7.144895    0.019195    0.012033    ( 0.0000,  0.0000,  0.0000)
   9 Co     7.143497    1.798064    1.764939    ( 0.0000,  0.0000,  2.1000)
  10 Ni     8.891362   10.651627    1.788353    ( 0.0000,  0.0000,  1.5000)
  11 Co     8.888779    1.804777   10.642609    ( 0.0000,  0.0000,  2.0000)
  12 Fe     0.008694    3.581540   10.650250    ( 0.0000,  0.0000,  2.1000)
  13 Cr     0.018979    5.332745    1.789751    ( 0.0000,  0.0000,  2.1000)
  14 Ni     1.778129    3.600941    1.760019    ( 0.0000,  0.0000,  2.0000)
  15 Co     1.790423    5.343267   -0.017766    ( 0.0000,  0.0000,  2.0000)
  16 Ni     3.542802    3.589864   -0.015614    ( 0.0000,  0.0000,  2.0000)
  17 Co     3.526837    5.358538    1.765793    ( 0.0000,  0.0000,  2.0000)
  18 Fe     5.336650    3.606501    1.755815    ( 0.0000,  0.0000,  0.0000)
  19 Ni     5.300399    5.323642   -0.012797    ( 0.0000,  0.0000,  2.1000)
  20 Al     7.122858    3.584816   10.659524    ( 0.0000,  0.0000,  2.0000)
  21 Cr     7.120500    5.315168    1.805502    ( 0.0000,  0.0000,  1.5000)
  22 Ni     8.892034    3.590952    1.773146    ( 0.0000,  0.0000,  2.1000)
  23 Fe     8.925340    5.301487   -0.003100    ( 0.0000,  0.0000,  0.0000)
  24 Cr     0.023055    7.096680   -0.007939    ( 0.0000,  0.0000,  0.0000)
  25 Cr     0.019141    8.871245    1.787510    ( 0.0000,  0.0000,  1.5000)
  26 Co     1.784372    7.104567    1.776443    ( 0.0000,  0.0000,  2.0000)
  27 Co     1.779944    8.867628   10.659406    ( 0.0000,  0.0000,  1.5000)
  28 Cr     3.547785    7.097897    0.009215    ( 0.0000,  0.0000,  2.1000)
  29 Cr     3.541137    8.858109    1.788225    ( 0.0000,  0.0000,  2.1000)
  30 Cr     5.295105    7.099391    1.787894    ( 0.0000,  0.0000,  2.1000)
  31 Ni     5.303685    8.873828    0.029898    ( 0.0000,  0.0000,  0.0000)
  32 Ni     7.106883    7.088719   10.645159    ( 0.0000,  0.0000,  0.0000)
  33 Co     7.111055    8.901137    1.809472    ( 0.0000,  0.0000,  0.0000)
  34 Co     8.939384    7.093404    1.799238    ( 0.0000,  0.0000,  0.0000)
  35 Co     8.919972    8.915853   10.664881    ( 0.0000,  0.0000,  0.0000)
  36 Cr    10.679704   10.658873    3.584517    ( 0.0000,  0.0000,  2.0000)
  37 Fe    10.670921    1.796367    5.340289    ( 0.0000,  0.0000,  2.1000)
  38 Fe     1.770350   10.649001    5.343491    ( 0.0000,  0.0000,  0.0000)
  39 Co     1.791800    1.784671    3.584891    ( 0.0000,  0.0000,  2.0000)
  40 Ni     3.529718   10.626388    3.565234    ( 0.0000,  0.0000,  2.1000)
  41 Fe     3.535716    1.793465    5.367289    ( 0.0000,  0.0000,  1.5000)
  42 Co     5.311497    0.001574    5.366254    ( 0.0000,  0.0000,  1.5000)
  43 Al     5.332627    1.768055    3.580793    ( 0.0000,  0.0000,  0.0000)
  44 Cr     7.136966   10.673941    3.563804    ( 0.0000,  0.0000,  2.0000)
  45 Ni     7.136774    1.794126    5.358944    ( 0.0000,  0.0000,  2.1000)
  46 Co     8.925938   10.673621    5.347589    ( 0.0000,  0.0000,  2.0000)
  47 Fe     8.883827    1.779111    3.582404    ( 0.0000,  0.0000,  1.5000)
  48 Cr    -0.010038    3.572341    3.580996    ( 0.0000,  0.0000,  2.0000)
  49 Co    10.685573    5.328935    5.338550    ( 0.0000,  0.0000,  2.0000)
  50 Ni     1.784180    3.582949    5.348357    ( 0.0000,  0.0000,  1.5000)
  51 Fe     1.766326    5.339510    3.565255    ( 0.0000,  0.0000,  1.5000)
  52 Ni     3.522387    3.605007    3.574059    ( 0.0000,  0.0000,  0.0000)
  53 Al     3.543581    5.347343    5.347962    ( 0.0000,  0.0000,  2.1000)
  54 Co     5.333950    3.591678    5.360630    ( 0.0000,  0.0000,  2.0000)
  55 Ni     5.336458    5.346308    3.560132    ( 0.0000,  0.0000,  0.0000)
  56 Ni     7.143102    3.570089    3.572138    ( 0.0000,  0.0000,  2.1000)
  57 Cr     7.120265    5.347471    5.345689    ( 0.0000,  0.0000,  2.0000)
  58 Ni     8.888299    3.570665    5.342018    ( 0.0000,  0.0000,  1.5000)
  59 Fe     8.904573    5.339084    3.577453    ( 0.0000,  0.0000,  2.0000)
[...]
  93 Ni     7.108740    5.307762    8.854395    ( 0.0000,  0.0000,  1.5000)
  94 Al     8.907593    3.561296    8.890348    ( 0.0000,  0.0000,  2.1000)
  95 Fe     8.917806    5.336309    7.100224    ( 0.0000,  0.0000,  0.0000)
  96 Fe     0.016270    7.102027    7.111664    ( 0.0000,  0.0000,  2.0000)
  97 Fe     0.000822    8.895150    8.883817    ( 0.0000,  0.0000,  1.5000)
  98 Co     1.771182    7.105090    8.888608    ( 0.0000,  0.0000,  1.5000)
  99 Cr     1.775184    8.850318    7.108494    ( 0.0000,  0.0000,  2.0000)
 100 Co     3.530401    7.086478    7.104972    ( 0.0000,  0.0000,  1.5000)
 101 Fe     3.524841    8.851001    8.894798    ( 0.0000,  0.0000,  0.0000)
 102 Co     5.310654    7.102827    8.871128    ( 0.0000,  0.0000,  0.0000)
 103 Ni     5.290613    8.850286    7.104876    ( 0.0000,  0.0000,  0.0000)
 104 Co     7.129016    7.083330    7.142750    ( 0.0000,  0.0000,  2.1000)
 105 Al     7.143241    8.903186    8.854384    ( 0.0000,  0.0000,  2.0000)
 106 Ni     8.926504    7.115858    8.862313    ( 0.0000,  0.0000,  0.0000)
 107 Ni     8.932896    8.877648    7.127479    ( 0.0000,  0.0000,  1.5000)

Unit cell:
           periodic     x           y           z      points  spacing
  1. axis:    yes   10.671700    0.000000    0.000000    48     0.2223
  2. axis:    yes    0.000000   10.671700    0.000000    48     0.2223
  3. axis:    yes    0.000000    0.000000   10.671700    48     0.2223

  Lengths:  10.671700  10.671700  10.671700
  Angles:   90.000000  90.000000  90.000000

Effective grid spacing dv^(1/3) = 0.2223

     iter     time        total  log10-change:  magmom
                         energy  eigst   dens
iter:   1 18:06:36  -938.989681                  +143.1413
iter:   2 18:08:10  -919.184923  -0.55  -1.36    +105.8409
iter:   3 18:09:45  -907.237426  -0.93  -1.32    +75.1647
iter:   4 18:11:19  -876.575292  -1.28  -1.36    +65.6388
iter:   5 18:12:52  -872.883339  -1.94  -1.47    +59.0096
iter:   6 18:14:26  -876.747820  -1.93  -1.51    +55.3970
iter:   7 18:16:00  -872.302504  -1.73  -1.52    +53.4507
iter:   8 18:17:34  -870.457617  -1.81  -1.59    +52.7631
iter:   9 18:19:07  -883.854397  -1.74  -1.72    +52.1580
iter:  10 18:20:41  -868.153466  -1.85  -1.59    +50.8714
iter:  11 18:22:15  -868.734148  -2.49  -1.90    +50.7787
iter:  12 18:23:49  -868.350462  -2.63  -1.89    +51.2570
iter:  13 18:25:23  -868.760268  -2.73  -1.97    +51.8907
iter:  14 18:26:57  -869.798713  -2.67  -1.99    +52.3847
iter:  15 18:28:30  -869.812174  -2.62  -1.98    +52.7293
iter:  16 18:30:04  -871.270548  -2.51  -2.04    +53.4514
iter:  17 18:31:38  -869.579405  -2.66  -2.01    +53.7105
iter:  18 18:33:12  -869.618834  -3.00  -2.18    +54.1260
iter:  19 18:34:46  -869.864120  -2.89  -2.23    +54.5762
iter:  20 18:36:20  -869.509341  -3.17  -2.23    +55.2804
iter:  21 18:37:54  -869.828872  -3.13  -2.36    +56.0553
iter:  22 18:39:28  -869.664305  -3.37  -2.32    +56.3393
iter:  23 18:41:03  -869.905633  -3.25  -2.41    +57.1866
iter:  24 18:42:37  -869.830291  -3.49  -2.43    +57.6570
iter:  25 18:44:11  -869.991749  -3.48  -2.50    +58.4535
iter:  26 18:45:45  -870.083247  -3.59  -2.52    +58.9764
iter:  27 18:47:19  -870.158091  -3.75  -2.56    +59.4220
iter:  28 18:48:53  -870.222483  -3.85  -2.56    +60.1825
iter:  29 18:50:26  -870.414041  -3.61  -2.63    +61.2263
iter:  30 18:51:59  -870.667716  -3.39  -2.61    +62.4420
iter:  31 18:53:33  -871.030427  -3.29  -2.54    +63.3435
iter:  32 18:55:06  -870.803741  -3.63  -2.43    +62.7945
iter:  33 18:56:40  -870.779549  -3.66  -2.56    +63.1584
iter:  34 18:58:13  -870.818529c -4.07  -2.65    +63.2291
iter:  35 18:59:47  -871.186267  -3.23  -2.65    +63.2745
iter:  36 19:01:20  -870.794369  -3.31  -2.41    +63.2090
iter:  37 19:02:54  -870.740514  -4.03  -2.72    +62.8836
iter:  38 19:04:27  -870.773134c -4.15  -2.82    +62.8360
iter:  39 19:06:01  -870.753133c -4.39  -2.81    +62.7866
iter:  40 19:07:34  -870.773311c -4.50  -2.89    +62.6713
iter:  41 19:09:08  -870.767816c -4.70  -2.89    +62.5934
iter:  42 19:10:41  -870.784809c -4.65  -2.96    +62.4945
iter:  43 19:12:15  -870.788987c -4.70  -2.95    +62.4075
iter:  44 19:13:48  -870.796695c -4.82  -3.05    +62.3312
iter:  45 19:15:21  -870.811270c -4.68  -3.05    +62.2353
iter:  46 19:16:55  -870.815193c -4.74  -3.09    +62.1749
iter:  47 19:18:29  -870.825788c -4.81  -3.15    +62.0752
iter:  48 19:20:02  -870.835338c -4.93  -3.19    +62.0026
iter:  49 19:21:36  -870.849100c -4.90  -3.22    +61.9141
iter:  50 19:23:09  -870.861535c -4.79  -3.18    +61.7979
iter:  51 19:24:43  -870.874589c -4.93  -3.28    +61.7151
iter:  52 19:26:16  -870.910784c -4.32  -3.30    +61.4477
iter:  53 19:27:50  -870.986131  -3.66  -3.27    +60.9520
iter:  54 19:29:24  -871.030112  -3.68  -3.10    +60.6548
iter:  55 19:30:57  -871.035793c -4.36  -3.02    +60.6563
iter:  56 19:32:31  -871.027701c -4.73  -3.01    +60.6888
iter:  57 19:34:05  -871.034208c -4.97  -3.07    +60.6810
iter:  58 19:35:38  -871.054953c -4.45  -3.05    +60.6794
iter:  59 19:37:12  -871.024834c -3.97  -2.93    +60.6536
iter:  60 19:38:45  -871.009523c -4.68  -3.06    +60.5671
iter:  61 19:40:19  -871.009157c -5.02  -3.24    +60.5289
iter:  62 19:41:53  -871.014739c -4.97  -3.26    +60.5108
iter:  63 19:43:27  -871.010625c -5.12  -3.25    +60.5009
iter:  64 19:45:00  -871.014902c -4.97  -3.35    +60.4879
iter:  65 19:46:34  -871.012350c -5.11  -3.25    +60.4874
iter:  66 19:48:07  -871.013424c -5.16  -3.41    +60.4813
iter:  67 19:49:40  -871.012621c -5.34  -3.39    +60.4781
iter:  68 19:51:14  -871.011413c -5.46  -3.45    +60.4820
iter:  69 19:52:47  -871.014131c -5.31  -3.52    +60.4714
iter:  70 19:54:21  -871.013539c -5.60  -3.48    +60.4750
iter:  71 19:55:55  -871.012237c -5.73  -3.58    +60.4813
iter:  72 19:57:28  -871.013046c -5.90  -3.64    +60.4859
iter:  73 19:59:02  -871.012975c -5.91  -3.63    +60.4850
iter:  74 20:00:36  -871.013266c -6.29  -3.67    +60.4819
iter:  75 20:02:09  -871.013681c -6.17  -3.74    +60.4871
iter:  76 20:03:43  -871.013988c -6.18  -3.73    +60.4848
iter:  77 20:05:17  -871.014462c -6.36  -3.74    +60.4845
iter:  78 20:06:50  -871.015678c -5.68  -3.76    +60.4791
iter:  79 20:08:24  -871.017571c -5.46  -3.73    +60.4763
iter:  80 20:09:57  -871.018196c -5.87  -3.64    +60.4765
iter:  81 20:11:31  -871.017431c -5.78  -3.69    +60.4772
iter:  82 20:13:04  -871.017526c -5.68  -3.78    +60.4691
iter:  83 20:14:37  -871.017717c -6.04  -3.80    +60.4683
iter:  84 20:16:10  -871.017787c -5.95  -3.84    +60.4692
iter:  85 20:17:44  -871.017401c -6.48  -3.98    +60.4658
iter:  86 20:19:17  -871.017450c -6.68  -4.07c   +60.4623
iter:  87 20:20:50  -871.017633c -7.06  -4.08c   +60.4605
iter:  88 20:22:24  -871.017836c -6.81  -4.15c   +60.4562
iter:  89 20:23:58  -871.017786c -6.72  -4.13c   +60.4527
iter:  90 20:25:31  -871.018020c -6.66  -4.11c   +60.4501
iter:  91 20:27:05  -871.018709c -6.37  -4.19c   +60.4484
iter:  92 20:28:40  -871.018258c -6.67  -4.04c   +60.4467
iter:  93 20:30:14  -871.018165c -6.77  -4.36c   +60.4423
iter:  94 20:31:48  -871.018270c -7.20  -4.26c   +60.4405
iter:  95 20:33:22  -871.018452c -7.16  -4.47c   +60.4376
iter:  96 20:34:56  -871.018532c -7.28  -4.48c   +60.4330
iter:  97 20:36:30  -871.018728c -6.94  -4.52c   +60.4244
iter:  98 20:38:05  -871.019766c -5.58  -4.45c   +60.3762
iter:  99 20:39:38  -871.020022c -6.32  -4.19c   +60.3675
iter: 100 20:41:12  -871.020013c -6.75  -4.16c   +60.3625
iter: 101 20:42:46  -871.020073c -7.00  -4.18c   +60.3563
iter: 102 20:44:20  -871.020247c -7.04  -4.20c   +60.3516
iter: 103 20:45:54  -871.020178c -6.45  -4.15c   +60.3517
iter: 104 20:47:28  -871.020149c -6.76  -4.11c   +60.3467
iter: 105 20:49:02  -871.020164c -6.85  -4.32c   +60.3405
iter: 106 20:50:36  -871.020244c -7.15  -4.24c   +60.3399
iter: 107 20:52:10  -871.020236c -7.36  -4.36c   +60.3364
iter: 108 20:53:44  -871.020243c -7.33  -4.44c   +60.3348
iter: 109 20:55:17  -871.020356c -7.51c -4.46c   +60.3316

Converged after 109 iterations.

Dipole moment: (-10.763641, 7.851004, 8.405835) |e|*Ang

Total magnetic moment: (0.000000, 0.000000, 60.331563)
Local magnetic moments:
   0 Cr ( 0.000000,  0.000000,  0.249900)
   1 Cr ( 0.000000,  0.000000, -0.795566)
   2 Fe ( 0.000000,  0.000000,  1.932879)
   3 Ni ( 0.000000,  0.000000,  0.105952)
   4 Fe ( 0.000000,  0.000000,  2.081225)
   5 Co ( 0.000000,  0.000000,  1.508058)
   6 Co ( 0.000000,  0.000000,  1.133703)
   7 Cr ( 0.000000,  0.000000, -1.560355)
   8 Cr ( 0.000000,  0.000000, -1.523785)
   9 Co ( 0.000000,  0.000000,  0.849097)
  10 Ni ( 0.000000,  0.000000,  0.096370)
  11 Co ( 0.000000,  0.000000,  0.684207)
  12 Fe ( 0.000000,  0.000000,  1.988067)
  13 Cr ( 0.000000,  0.000000, -0.927173)
  14 Ni ( 0.000000,  0.000000,  0.214326)
  15 Co ( 0.000000,  0.000000,  1.066759)
  16 Ni ( 0.000000,  0.000000,  0.253749)
  17 Co ( 0.000000,  0.000000,  1.159386)
  18 Fe ( 0.000000,  0.000000,  2.255112)
  19 Ni ( 0.000000,  0.000000,  0.221933)
  20 Al ( 0.000000,  0.000000, -0.019800)
  21 Cr ( 0.000000,  0.000000, -1.705618)
  22 Ni ( 0.000000,  0.000000,  0.053572)
  23 Fe ( 0.000000,  0.000000,  1.902978)
  24 Cr ( 0.000000,  0.000000, -1.314954)
  25 Cr ( 0.000000,  0.000000, -0.121769)
  26 Co ( 0.000000,  0.000000,  0.834832)
  27 Co ( 0.000000,  0.000000,  0.634803)
  28 Cr ( 0.000000,  0.000000, -1.026724)
  29 Cr ( 0.000000,  0.000000, -0.951435)
  30 Cr ( 0.000000,  0.000000,  0.456584)
  31 Ni ( 0.000000,  0.000000,  0.146894)
  32 Ni ( 0.000000,  0.000000,  0.271282)
  33 Co ( 0.000000,  0.000000,  1.182792)
  34 Co ( 0.000000,  0.000000,  0.636193)
  35 Co ( 0.000000,  0.000000,  0.744719)
  36 Cr ( 0.000000,  0.000000, -1.386442)
  37 Fe ( 0.000000,  0.000000,  2.148418)
  38 Fe ( 0.000000,  0.000000,  2.201623)
  39 Co ( 0.000000,  0.000000,  1.176067)
  40 Ni ( 0.000000,  0.000000,  0.405302)
  41 Fe ( 0.000000,  0.000000,  2.366515)
  42 Co ( 0.000000,  0.000000,  1.174357)
  43 Al ( 0.000000,  0.000000, -0.032231)
  44 Cr ( 0.000000,  0.000000, -1.760708)
  45 Ni ( 0.000000,  0.000000,  0.202985)
  46 Co ( 0.000000,  0.000000,  0.844658)
  47 Fe ( 0.000000,  0.000000,  1.988998)
  48 Cr ( 0.000000,  0.000000, -1.231187)
  49 Co ( 0.000000,  0.000000,  1.166394)
  50 Ni ( 0.000000,  0.000000,  0.303417)
  51 Fe ( 0.000000,  0.000000,  2.139848)
  52 Ni ( 0.000000,  0.000000,  0.441471)
  53 Al ( 0.000000,  0.000000, -0.031568)
  54 Co ( 0.000000,  0.000000,  0.633889)
  55 Ni ( 0.000000,  0.000000,  0.089089)
  56 Ni ( 0.000000,  0.000000,  0.245072)
  57 Cr ( 0.000000,  0.000000, -0.477788)
  58 Ni ( 0.000000,  0.000000,  0.146331)
  59 Fe ( 0.000000,  0.000000,  1.879796)
[...]
  93 Ni ( 0.000000,  0.000000,  0.185242)
  94 Al ( 0.000000,  0.000000, -0.032635)
  95 Fe ( 0.000000,  0.000000,  1.832403)
  96 Fe ( 0.000000,  0.000000,  2.264612)
  97 Fe ( 0.000000,  0.000000,  1.933741)
  98 Co ( 0.000000,  0.000000,  1.129120)
  99 Cr ( 0.000000,  0.000000, -1.719971)
 100 Co ( 0.000000,  0.000000,  1.198997)
 101 Fe ( 0.000000,  0.000000,  2.122367)
 102 Co ( 0.000000,  0.000000,  1.371816)
 103 Ni ( 0.000000,  0.000000,  0.297628)
 104 Co ( 0.000000,  0.000000,  0.850737)
 105 Al ( 0.000000,  0.000000, -0.023493)
 106 Ni ( 0.000000,  0.000000,  0.304287)
 107 Ni ( 0.000000,  0.000000,  0.324990)

Energy contributions relative to reference atoms: (reference = -3699400.456887)

Kinetic:       +126.842559
Potential:     -180.680863
External:        +0.000000
XC:            -852.712957
Entropy (-ST):   -4.591897
Local:          +37.826854
Free energy:   -873.316304
Extrapolated:  -871.020356

Spin contamination: 29.126452 electrons
Showing only first 2 kpts
                      Up                     Down
 Kpt  Band  Eigenvalues  Occupancy  Eigenvalues  Occupancy
  0   508      9.65368    0.99274     10.50683    0.02625
  0   509      9.66207    0.99211     10.50956    0.02556
  0   510      9.67899    0.99067     10.52348    0.02232
  0   511      9.68957    0.98964     10.53720    0.01951

  1   508      9.65325    0.99277     10.49878    0.02839
  1   509      9.68074    0.99051     10.50622    0.02641
  1   510      9.69501    0.98906     10.51863    0.02340
  1   511      9.70953    0.98738     10.52797    0.02136

Fermi level: 10.14549

No gap

Forces in eV/Ang:
  0 Cr   -0.25626    0.21035    0.21119
  1 Cr   -0.14678   -0.03287   -0.29907
  2 Fe   -0.22927    0.36292    0.08562
  3 Ni    0.00248    0.01704    0.29698
  4 Fe    0.49936    0.19765   -0.25346
  5 Co    0.00443   -0.10119    0.18459
  6 Co    0.12745    0.07738   -0.17538
  7 Cr   -0.91504   -0.66302    0.31913
  8 Cr    0.10060    0.34066    0.56591
  9 Co   -0.22770   -0.41875    0.00158
 10 Ni    0.21184    0.39929   -0.23652
 11 Co    0.36140   -0.64307    0.63838
 12 Fe    0.27279   -0.34905    0.77413
 13 Cr   -0.13049    0.18293   -0.11737
 14 Ni   -0.11303   -0.47321    0.14502
 15 Co   -0.08517    0.05318    0.20302
 16 Ni    0.02319   -0.19903    0.08251
 17 Co    0.24750    0.18177    0.08933
 18 Fe   -0.31169   -0.22257    0.22447
 19 Ni    0.14149    0.26427   -0.09340
 20 Al    0.08022   -0.19856    0.35767
 21 Cr    0.01563    0.99553    0.46916
 22 Ni    0.28524   -0.50834    0.18849
 23 Fe   -0.06010    1.13831    0.21775
 24 Cr   -0.10899    0.19449    0.05588
 25 Cr   -0.06467   -0.06713   -0.38246
 26 Co   -0.04554    0.06648   -0.26153
 27 Co    0.08991   -0.17906    0.16366
 28 Cr   -0.29558   -0.20775   -0.22042
 29 Cr    0.01338    0.14266   -0.08616
 30 Cr    0.10310    0.32416   -0.09777
 31 Ni    0.28987    0.30372   -0.21153
 32 Ni    0.07849   -0.03940    0.37614
 33 Co   -0.00937   -0.15825   -0.23514
 34 Co   -0.25879    0.20836   -0.25470
 35 Co   -0.10064   -0.31574    0.53762
 36 Cr   -0.04586    0.04322    0.04708
 37 Fe    0.22792   -0.11687   -0.18780
 38 Fe   -0.08608    0.02275   -0.19491
 39 Co   -0.05955    0.13872   -0.24795
 40 Ni    0.18761    0.23078   -0.01273
 41 Fe   -0.10197    0.00166    0.01789
 42 Co    0.03990   -0.15120   -0.05119
 43 Al   -0.33709    0.51781   -0.28987
 44 Cr    0.51326   -0.90144   -0.29416
 45 Ni   -0.18703   -0.24651   -0.01652
 46 Co   -0.07340   -0.00767   -0.00714
 47 Fe    0.12157   -0.11904   -0.21397
 48 Cr    0.20609   -0.16364   -0.18608
 49 Co   -0.02264   -0.16414    0.01486
 50 Ni   -0.16938   -0.31898   -0.06652
 51 Fe   -0.33626   -0.15163   -0.53895
 52 Ni    0.25771   -0.50820   -0.40006
 53 Al   -0.26242   -0.36925   -0.62066
 54 Co    0.36995   -0.04674    0.20526
 55 Ni    0.05289   -0.16529   -0.00178
 56 Ni   -0.19832    0.12258   -0.05446
 57 Cr   -0.18287   -0.09774   -0.36096
 58 Ni    0.11448    0.04756    0.03640
 59 Fe   -0.07706    0.07293   -0.11703
[...]
 93 Ni    0.19896    0.47035    0.36779
 94 Al    0.09466    0.34368   -0.11956
 95 Fe   -0.37630    0.18516   -0.02826
 96 Fe   -0.11207    0.26325   -0.07138
 97 Fe    0.13614   -0.12066    0.34399
 98 Co    0.10792    0.00794    0.28476
 99 Cr    0.04425   -0.17366   -0.23512
100 Co    0.20691    0.47018    0.41421
101 Fe    0.34900    0.14717   -0.04643
102 Co   -0.22072   -0.29194    0.09420
103 Ni    0.04237    0.24134   -0.00663
104 Co   -0.07541   -0.36902   -0.74790
105 Al   -0.44108   -0.53333   -0.18087
106 Ni   -0.02135   -0.30031    0.34592
107 Ni   -0.04558    0.29095   -0.43138

Date: Sat Apr 15 20:55:36 2023