User:   c.zeng@d0007
Date:   Sat Apr 15 14:40:42 2023
Arch:   x86_64
Pid:    145849
CWD:    /home/c.zeng/projects/hea-corrosion/hea-mlp/data-curation/bulk-mcmc/dft-jobs/48
Python: 3.8.1
gpaw:   /home/c.zeng/usr/installs/gpaw/source/gpaw-22.8.0/gpaw
_gpaw:  /home/c.zeng/usr/installs/gpaw/source/gpaw-22.8.0/
        _gpaw.cpython-38-x86_64-linux-gnu.so
ase:    /home/c.zeng/.local/lib/python3.8/site-packages/ase-3.22.1-py3.8.egg/ase (version 3.22.1)
numpy:  /shared/centos7/python/3.8.1/lib/python3.8/site-packages/numpy (version 1.17.4)
scipy:  /shared/centos7/python/3.8.1/lib/python3.8/site-packages/scipy (version 1.4.1)
units:  Angstrom and eV
cores: 30
OpenMP: False
OMP_NUM_THREADS: 1

Input parameters:
  convergence: {energy: 0.0001}
  kpts: [2 2 2]
  maxiter: 666
  mode: {ecut: 350.0,
         name: pw}
  occupations: {fixmagmom: False,
                name: fermi-dirac,
                width: 0.1}
  spinpol: True
  xc: PBE

System changes: positions, numbers, cell, pbc, initial_charges, initial_magmoms

Initialize ...

species:
  Co:
    name: Cobalt
    id: 339d20d5b0b93d2de9531a1bee871d91
    Z: 27.0
    valence: 9
    core: 18
    charge: 0.0
    file: /home/c.zeng/usr/data/gpaw-setups-0.9.20000/Co.PBE.gz
    compensation charges: {type: gauss,
                           rc: 0.32,
                           lmax: 2}
    cutoffs: {filter: 1.87,
              core: 2.55}
    valence states:
      #              energy  rcut
      - 4s(2.00)    -5.469   1.005
      - 4p(0.00)    -1.277   1.058
      - 3d(7.00)    -8.205   1.005
      -  s          21.742   1.005
      -  p          25.934   1.058
      -  d          19.007   1.005

    # Using partial waves for Co as LCAO basis

  Fe:
    name: Iron
    id: 37abbd8d6c3c35915a9b583b742da910
    Z: 26.0
    valence: 8
    core: 18
    charge: 0.0
    file: /home/c.zeng/usr/data/gpaw-setups-0.9.20000/Fe.PBE.gz
    compensation charges: {type: gauss,
                           rc: 0.33,
                           lmax: 2}
    cutoffs: {filter: 2.06,
              core: 2.67}
    valence states:
      #              energy  rcut
      - 4s(2.00)    -5.291   1.164
      - 4p(0.00)    -1.326   1.058
      - 3d(6.00)    -7.505   1.058
      -  s          21.920   1.164
      -  p          25.885   1.058
      -  d          19.706   1.058

[...]

  Ni:
    name: Nickel
    id: 0d9f38a9d6e76a2886f07bb4381f212b
    Z: 28.0
    valence: 16
    core: 12
    charge: 0.0
    file: /home/c.zeng/usr/data/gpaw-setups-0.9.20000/Ni.PBE.gz
    compensation charges: {type: gauss,
                           rc: 0.36,
                           lmax: 2}
    cutoffs: {filter: 2.14,
              core: 1.98}
    valence states:
      #              energy  rcut
      - 4s(2.00)    -5.642   1.164
      - 3p(6.00)   -71.394   1.207
      - 4p(0.00)    -1.226   1.207
      - 3d(8.00)    -8.875   1.138
      -  s          21.570   1.164
      -  d          18.337   1.138

[...]

  Cr:
    name: Chromium
    id: 33f258bda2ca9f93018e70263a35547b
    Z: 24.0
    valence: 6
    core: 18
    charge: 0.0
    file: /home/c.zeng/usr/data/gpaw-setups-0.9.20000/Cr.PBE.gz
    compensation charges: {type: gauss,
                           rc: 0.35,
                           lmax: 2}
    cutoffs: {filter: 2.14,
              core: 3.04}
    valence states:
      #              energy  rcut
      - 4s(1.00)    -4.007   1.164
      - 4p(0.00)    -0.989   1.217
      - 3d(5.00)    -2.913   1.111
      -  s          23.205   1.164
      -  p          26.223   1.217
      -  d          24.299   1.111

    # Using partial waves for Cr as LCAO basis

Reference energy: -3846758.590871  # eV

Spin-polarized calculation.
Magnetic moment: 151.200000

Convergence criteria:
 Maximum [total energy] change in last 3 cyles: 0.0001 eV / electron
 Maximum integral of absolute [dens]ity change: 0.0001 electrons / valence electron
 Maximum integral of absolute [eigenst]ate change: 4e-08 eV^2 / valence electron
 Maximum number of scf [iter]ations: 666
 (Square brackets indicate name in SCF output, whereas a 'c' in
 the SCF output indicates the quantity has converged.)

Symmetries present (total): 1

  ( 1  0  0)
  ( 0  1  0)
  ( 0  0  1)

8 k-points: 2 x 2 x 2 Monkhorst-Pack grid
4 k-points in the irreducible part of the Brillouin zone
       k-points in crystal coordinates                weights
   0:     0.25000000   -0.25000000   -0.25000000          2/8
   1:     0.25000000   -0.25000000    0.25000000          2/8
   2:     0.25000000    0.25000000   -0.25000000          2/8
   3:     0.25000000    0.25000000    0.25000000          2/8

Wave functions: Plane wave expansion
  Cutoff energy: 350.000 eV
  Number of coefficients (min, max): 17755, 17755
  Pulay-stress correction: 0.000000 eV/Ang^3 (de/decut=0.000000)
  Using FFTW library
  ScaLapack parameters: grid=1x1, blocksize=None
  Wavefunction extrapolation:
    Improved wavefunction reuse through dual PAW basis

Occupation numbers: Fermi-Dirac:
  width: 0.1000  # eV

Eigensolver
   Davidson(niter=2)

Densities:
  Coarse grid: 48*48*48 grid
  Fine grid: 96*96*96 grid
  Total Charge: 0.000000

Density mixing:
  Method: difference
  Backend: pulay
  Linear mixing parameter: 0.05
  old densities: 5
  Damping of long wavelength oscillations: 50

Hamiltonian:
  XC and Coulomb potentials evaluated on a 96*96*96 grid
  Using the PBE Exchange-Correlation functional
  External potential:
    NoExternalPotential

XC parameters: PBE with 2 nearest neighbor stencil

Total number of cores used: 30
Parallelization over k-points: 2
Domain decomposition: 5 x 3 x 1

Number of atoms: 108
Number of atomic orbitals: 1053
Number of bands in calculation: 727
Number of valence electrons: 1053
Bands to converge: occupied

... initialized

Initializing position-dependent things.

Density initialized from atomic densities
Creating initial wave functions:
  727 bands from LCAO basis set

       /|  Cr       Ni      Cr    |
      / |   NiFe     Ni           |
     /  |       Co      Fe       Fe
    /   |Cr      CFe       Co     Cr
   /    | Co       Ni       NFe   |
  /  CCo|  FeNi     CoCr          |
 *    CrCr    FeNi   FeCrCo       |
 |      |CoCr   FeFeCr  CoNiFe   Cr
 |      | CrCo     CoNiFeCrCrCr   |
 |    Co|  CoFeCr   CoCrFe   NiCo |
 |      Cr    NiNiNi NiCrNi     Ni|
 |      |FeFe  CoFeCr   FeNiFe   Cr
 |      .-FeCo-----NiNiFe--NiCr---Co
 |   Nio     Fe       Ni         /
 |    NiCo     Cor     CNie     /
 |   /    Co               Cr  /
 |  /      Fe       Fe    NiFe/
 | / Fe     Cr       CrCr    /
 |/            Co       Ni  /
 *--------Co------Co-------*

Positions:
   0 Co    -0.012479   -0.003723   10.616104    ( 0.0000,  0.0000,  2.1000)
   1 Fe    -0.011321    1.761305    1.763386    ( 0.0000,  0.0000,  2.1000)
   2 Fe     1.758365    0.001326    1.769011    ( 0.0000,  0.0000,  2.0000)
   3 Co     1.752686    1.779222   10.610436    ( 0.0000,  0.0000,  2.0000)
   4 Co     3.541196    0.004726   10.616104    ( 0.0000,  0.0000,  0.0000)
   5 Fe     3.534711    1.782438    1.778999    ( 0.0000,  0.0000,  0.0000)
   6 Ni     5.305717   10.600629    1.767950    ( 0.0000,  0.0000,  2.1000)
   7 Co     5.324780    1.765604   10.614618    ( 0.0000,  0.0000,  0.0000)
   8 Co     7.089121    0.014598   10.619926    ( 0.0000,  0.0000,  2.0000)
   9 Fe     7.085279    1.771219    1.773543    ( 0.0000,  0.0000,  1.5000)
  10 Cr     8.850554    0.011470    1.768756    ( 0.0000,  0.0000,  1.5000)
  11 Ni     8.842381    1.777333   10.615680    ( 0.0000,  0.0000,  2.1000)
  12 Fe    10.590535    3.538203   -0.001956    ( 0.0000,  0.0000,  0.0000)
  13 Ni    10.624277    5.310674    1.769786    ( 0.0000,  0.0000,  2.0000)
  14 Co     1.761379    3.535623    1.784572    ( 0.0000,  0.0000,  0.0000)
  15 Cr     1.770200    5.301408   10.611753    ( 0.0000,  0.0000,  2.0000)
  16 Cr     3.556003    3.551407   10.618333    ( 0.0000,  0.0000,  1.5000)
  17 Fe     3.539370    5.311290    1.775199    ( 0.0000,  0.0000,  2.1000)
  18 Cr     5.320142    3.545059    1.779678    ( 0.0000,  0.0000,  1.5000)
  19 Fe     5.306980    5.314654   10.602720    ( 0.0000,  0.0000,  0.0000)
  20 Cr     7.081585    3.529127   10.614725    ( 0.0000,  0.0000,  2.1000)
  21 Ni     7.069241    5.303361    1.781271    ( 0.0000,  0.0000,  1.5000)
  22 Fe     8.841447    3.542671    1.781600    ( 0.0000,  0.0000,  2.1000)
  23 Ni     8.850893    5.290379    0.000220    ( 0.0000,  0.0000,  0.0000)
  24 Ni     0.005868    7.083411   10.614937    ( 0.0000,  0.0000,  2.0000)
  25 Cr    10.601043    8.849694    1.772960    ( 0.0000,  0.0000,  2.1000)
  26 Fe     1.773713    7.072329    1.777184    ( 0.0000,  0.0000,  0.0000)
  27 Cr     1.755520    8.842943   10.608324    ( 0.0000,  0.0000,  0.0000)
  28 Fe     3.544009    7.063116   10.610489    ( 0.0000,  0.0000,  2.0000)
  29 Co     3.542225    8.826820    1.785580    ( 0.0000,  0.0000,  0.0000)
  30 Ni     5.309835    7.081776    1.776600    ( 0.0000,  0.0000,  2.1000)
  31 Ni     5.331945    8.840321   10.604673    ( 0.0000,  0.0000,  2.1000)
  32 Co     7.068434    7.069028   10.623110    ( 0.0000,  0.0000,  0.0000)
  33 Fe     7.083750    8.846796    1.774509    ( 0.0000,  0.0000,  1.5000)
  34 Ni     8.841404    7.058180    1.777173    ( 0.0000,  0.0000,  1.5000)
  35 Cr     8.835524    8.853600   10.611753    ( 0.0000,  0.0000,  0.0000)
  36 Cr    -0.009351   10.618864    3.531070    ( 0.0000,  0.0000,  2.0000)
  37 Fe    10.602508    1.764818    5.300452    ( 0.0000,  0.0000,  1.5000)
  38 Ni     1.756720    0.001379    5.295867    ( 0.0000,  0.0000,  0.0000)
  39 Co     1.766506    1.767154    3.539222    ( 0.0000,  0.0000,  2.0000)
  40 Co     3.539742    0.013881    3.542873    ( 0.0000,  0.0000,  2.0000)
  41 Fe     3.548944    1.788658    5.306237    ( 0.0000,  0.0000,  2.1000)
  42 Fe     5.320174   -0.004685    5.301386    ( 0.0000,  0.0000,  0.0000)
  43 Co     5.316862    1.765551    3.538935    ( 0.0000,  0.0000,  2.0000)
  44 Cr     7.081086   -0.000289    3.531325    ( 0.0000,  0.0000,  2.0000)
  45 Cr     7.072902    1.777407    5.300537    ( 0.0000,  0.0000,  2.0000)
  46 Fe     8.840544    0.012372    5.307851    ( 0.0000,  0.0000,  1.5000)
  47 Ni     8.833592    1.767928    3.534318    ( 0.0000,  0.0000,  2.1000)
  48 Cr    -0.004066    3.525285    3.545951    ( 0.0000,  0.0000,  0.0000)
  49 Co    -0.001689    5.317934    5.307787    ( 0.0000,  0.0000,  1.5000)
  50 Cr     1.769043    3.555101    5.297279    ( 0.0000,  0.0000,  2.0000)
  51 Fe     1.773692    5.305929    3.538266    ( 0.0000,  0.0000,  2.1000)
  52 Co     3.542746    3.537364    3.547575    ( 0.0000,  0.0000,  2.1000)
  53 Fe     3.548477    5.306927    5.301153    ( 0.0000,  0.0000,  2.0000)
  54 Ni     5.316246    3.553031    5.303637    ( 0.0000,  0.0000,  2.0000)
  55 Fe     5.303286    5.303531    3.542385    ( 0.0000,  0.0000,  1.5000)
  56 Ni     7.074962    3.533023    3.537215    ( 0.0000,  0.0000,  1.5000)
  57 Cr     7.066046    5.306046    5.300081    ( 0.0000,  0.0000,  2.0000)
  58 Ni     8.834526    3.538160    5.294530    ( 0.0000,  0.0000,  2.1000)
  59 Ni     8.846255    5.300452    3.537672    ( 0.0000,  0.0000,  1.5000)
[...]
  93 Cr     7.071130    5.304220    8.839313    ( 0.0000,  0.0000,  1.5000)
  94 Co     8.837997    3.524669    8.843389    ( 0.0000,  0.0000,  1.5000)
  95 Ni     8.833772    5.299051    7.076862    ( 0.0000,  0.0000,  0.0000)
  96 Cr     0.012168    7.080333    7.083835    ( 0.0000,  0.0000,  1.5000)
  97 Fe    -0.017034    8.848707    8.843941    ( 0.0000,  0.0000,  2.1000)
  98 Co     1.777938    7.075503    8.840194    ( 0.0000,  0.0000,  2.0000)
  99 Fe     1.758800    8.840035    7.069803    ( 0.0000,  0.0000,  0.0000)
 100 Fe     3.549921    7.066194    7.070090    ( 0.0000,  0.0000,  2.1000)
 101 Co     3.553137    8.839111    8.836776    ( 0.0000,  0.0000,  0.0000)
 102 Ni     5.304189    7.079929    8.840215    ( 0.0000,  0.0000,  2.0000)
 103 Co     5.321946    8.832180    7.082997    ( 0.0000,  0.0000,  2.1000)
 104 Cr     7.057077    7.072149    7.064167    ( 0.0000,  0.0000,  1.5000)
 105 Fe     7.082402    8.855500    8.837487    ( 0.0000,  0.0000,  2.1000)
 106 Co     8.846786    7.077881    8.846732    ( 0.0000,  0.0000,  0.0000)
 107 Ni     8.839313    8.848272    7.075153    ( 0.0000,  0.0000,  0.0000)

Unit cell:
           periodic     x           y           z      points  spacing
  1. axis:    yes   10.614300    0.000000    0.000000    48     0.2211
  2. axis:    yes    0.000000   10.614300    0.000000    48     0.2211
  3. axis:    yes    0.000000    0.000000   10.614300    48     0.2211

  Lengths:  10.614300  10.614300  10.614300
  Angles:   90.000000  90.000000  90.000000

Effective grid spacing dv^(1/3) = 0.2211

     iter     time        total  log10-change:  magmom
                         energy  eigst   dens
iter:   1 14:46:50  -956.666381                  +151.1218
iter:   2 14:49:31  -932.340785  -0.58  -1.36    +116.7465
iter:   3 14:52:53  -919.019969  -0.98  -1.36    +85.3013
iter:   4 14:55:40  -897.568719  -1.40  -1.39    +72.6971
iter:   5 14:58:21  -891.967361  -1.95  -1.48    +66.4214
iter:   6 15:01:04  -895.525344  -1.95  -1.53    +62.4129
iter:   7 15:03:45  -900.300824  -1.64  -1.54    +60.7399
iter:   8 15:06:28  -889.430910  -1.65  -1.56    +59.3563
iter:   9 15:09:10  -898.373839  -1.80  -1.77    +59.1357
iter:  10 15:11:51  -888.137598  -1.96  -1.68    +58.5473
iter:  11 15:14:33  -887.521412  -2.62  -1.91    +58.6026
iter:  12 15:17:14  -888.114809  -2.73  -1.96    +59.5682
iter:  13 15:19:56  -888.823838  -2.79  -1.99    +60.2401
iter:  14 15:22:37  -889.839237  -2.66  -2.02    +60.7437
iter:  15 15:25:19  -889.688260  -2.67  -2.01    +61.3781
iter:  16 15:28:48  -891.384947  -2.53  -2.11    +61.9083
iter:  17 15:31:33  -889.649217  -2.72  -2.04    +62.0445
iter:  18 15:34:15  -889.886397  -2.90  -2.23    +62.4918
iter:  19 15:36:57  -889.672160  -3.08  -2.27    +62.9533
iter:  20 15:39:40  -889.726823  -3.27  -2.31    +63.5544
iter:  21 15:42:22  -889.779962  -3.33  -2.38    +63.9308
iter:  22 15:45:05  -889.924336  -3.40  -2.42    +64.3151
iter:  23 15:47:47  -889.876120  -3.48  -2.42    +64.7377
iter:  24 15:50:27  -890.058152  -3.51  -2.50    +65.0907
iter:  25 15:53:09  -890.078778  -3.47  -2.50    +65.5623
iter:  26 15:55:50  -890.178052  -3.59  -2.55    +65.9057
iter:  27 15:58:31  -890.177817c -3.63  -2.55    +66.2426
iter:  28 16:01:13  -890.294197  -3.69  -2.63    +66.5599
iter:  29 16:03:54  -890.295042  -3.79  -2.62    +66.9345
iter:  30 16:06:37  -890.328032c -4.06  -2.66    +67.2476
iter:  31 16:09:18  -890.385590c -4.05  -2.70    +67.4831
iter:  32 16:11:55  -890.442850  -4.19  -2.72    +67.8806
iter:  33 16:14:13  -890.566386  -4.01  -2.72    +68.3488
iter:  34 16:17:16  -890.635603  -3.85  -2.64    +68.8286
iter:  35 16:20:18  -890.626896c -3.79  -2.64    +69.1264
iter:  36 16:23:21  -890.562212c -3.85  -2.68    +69.0699
iter:  37 16:26:23  -890.548639c -3.98  -2.89    +68.9929
iter:  38 16:29:26  -890.541167c -4.47  -3.02    +68.9416
iter:  39 16:32:29  -890.540399c -4.91  -3.08    +68.8750
iter:  40 16:35:32  -890.541318c -5.16  -3.13    +68.8673
iter:  41 16:38:34  -890.543540c -5.26  -3.16    +68.8338
iter:  42 16:41:37  -890.545767c -5.03  -3.22    +68.8398
iter:  43 16:44:39  -890.542690c -5.15  -3.30    +68.8175
iter:  44 16:47:40  -890.545599c -5.32  -3.42    +68.7950
iter:  45 16:50:43  -890.543949c -5.62  -3.42    +68.8015
iter:  46 16:53:46  -890.544847c -5.80  -3.52    +68.7848
iter:  47 16:56:49  -890.546995c -5.50  -3.56    +68.7674
iter:  48 16:59:52  -890.546668c -5.57  -3.56    +68.7772
iter:  49 17:02:55  -890.547531c -5.76  -3.70    +68.7659
iter:  50 17:05:57  -890.547845c -6.02  -3.72    +68.7582
iter:  51 17:09:00  -890.549201c -6.08  -3.78    +68.7585
iter:  52 17:12:03  -890.549583c -6.18  -3.81    +68.7583
iter:  53 17:15:05  -890.550273c -6.30  -3.82    +68.7471
iter:  54 17:18:09  -890.551365c -6.14  -3.93    +68.7455
iter:  55 17:21:12  -890.552153c -6.27  -3.94    +68.7341
iter:  56 17:24:14  -890.552357c -6.47  -3.98    +68.7342
iter:  57 17:27:17  -890.553266c -6.35  -4.04c   +68.7341
iter:  58 17:30:19  -890.553559c -6.58  -4.05c   +68.7350
iter:  59 17:33:22  -890.554135c -6.43  -4.08c   +68.7352
iter:  60 17:36:24  -890.556031c -5.56  -4.11c   +68.7338
iter:  61 17:39:26  -890.557755c -5.43  -4.07c   +68.7438
iter:  62 17:42:29  -890.560166c -5.22  -3.97    +68.7636
iter:  63 17:45:32  -890.558395c -5.91  -3.83    +68.7560
iter:  64 17:48:35  -890.558762c -6.63  -4.00c   +68.7625
iter:  65 17:51:38  -890.558657c -6.91  -3.99    +68.7651
iter:  66 17:54:41  -890.559593c -5.97  -4.00    +68.7692
iter:  67 17:57:44  -890.558445c -6.21  -3.79    +68.7670
iter:  68 18:00:47  -890.558219c -6.62  -4.17c   +68.7675
iter:  69 18:03:50  -890.558262c -6.99  -4.17c   +68.7639
iter:  70 18:06:53  -890.558245c -7.13  -4.23c   +68.7612
iter:  71 18:09:57  -890.558222c -7.01  -4.25c   +68.7642
iter:  72 18:13:00  -890.558212c -6.99  -4.28c   +68.7637
iter:  73 18:16:02  -890.558230c -6.99  -4.40c   +68.7622
iter:  74 18:19:04  -890.558212c -7.18  -4.40c   +68.7637
iter:  75 18:22:07  -890.558186c -7.45c -4.49c   +68.7659

Converged after 75 iterations.

Dipole moment: (6.813519, -2.202053, 0.635940) |e|*Ang

Total magnetic moment: (0.000000, 0.000000, 68.765926)
Local magnetic moments:
   0 Co ( 0.000000,  0.000000,  0.791711)
   1 Fe ( 0.000000,  0.000000,  2.014649)
   2 Fe ( 0.000000,  0.000000,  2.067679)
   3 Co ( 0.000000,  0.000000,  1.021948)
   4 Co ( 0.000000,  0.000000,  1.411289)
   5 Fe ( 0.000000,  0.000000,  2.195346)
   6 Ni ( 0.000000,  0.000000,  0.449299)
   7 Co ( 0.000000,  0.000000,  0.719158)
   8 Co ( 0.000000,  0.000000,  1.016932)
   9 Fe ( 0.000000,  0.000000,  2.014800)
  10 Cr ( 0.000000,  0.000000, -0.484108)
  11 Ni ( 0.000000,  0.000000,  0.318749)
  12 Fe ( 0.000000,  0.000000,  2.131499)
  13 Ni ( 0.000000,  0.000000,  0.317748)
  14 Co ( 0.000000,  0.000000,  1.061046)
  15 Cr ( 0.000000,  0.000000, -1.428482)
  16 Cr ( 0.000000,  0.000000, -0.882416)
  17 Fe ( 0.000000,  0.000000,  1.963650)
  18 Cr ( 0.000000,  0.000000, -1.481990)
  19 Fe ( 0.000000,  0.000000,  1.876547)
  20 Cr ( 0.000000,  0.000000, -1.122754)
  21 Ni ( 0.000000,  0.000000,  0.210917)
  22 Fe ( 0.000000,  0.000000,  2.199506)
  23 Ni ( 0.000000,  0.000000,  0.276523)
  24 Ni ( 0.000000,  0.000000,  0.202903)
  25 Cr ( 0.000000,  0.000000,  0.673724)
  26 Fe ( 0.000000,  0.000000,  2.075572)
  27 Cr ( 0.000000,  0.000000, -1.716182)
  28 Fe ( 0.000000,  0.000000,  2.296826)
  29 Co ( 0.000000,  0.000000,  1.565109)
  30 Ni ( 0.000000,  0.000000,  0.423021)
  31 Ni ( 0.000000,  0.000000,  0.589082)
  32 Co ( 0.000000,  0.000000,  1.371561)
  33 Fe ( 0.000000,  0.000000,  2.234204)
  34 Ni ( 0.000000,  0.000000,  0.234302)
  35 Cr ( 0.000000,  0.000000, -1.579678)
  36 Cr ( 0.000000,  0.000000, -1.484386)
  37 Fe ( 0.000000,  0.000000,  1.968745)
  38 Ni ( 0.000000,  0.000000,  0.320631)
  39 Co ( 0.000000,  0.000000,  1.010014)
  40 Co ( 0.000000,  0.000000,  1.479851)
  41 Fe ( 0.000000,  0.000000,  2.326306)
  42 Fe ( 0.000000,  0.000000,  2.113284)
  43 Co ( 0.000000,  0.000000,  1.109449)
  44 Cr ( 0.000000,  0.000000, -1.492446)
  45 Cr ( 0.000000,  0.000000,  0.610623)
  46 Fe ( 0.000000,  0.000000,  1.606952)
  47 Ni ( 0.000000,  0.000000,  0.056646)
  48 Cr ( 0.000000,  0.000000, -1.715531)
  49 Co ( 0.000000,  0.000000,  0.471928)
  50 Cr ( 0.000000,  0.000000, -1.156445)
  51 Fe ( 0.000000,  0.000000,  1.982392)
  52 Co ( 0.000000,  0.000000,  1.102420)
  53 Fe ( 0.000000,  0.000000,  2.074791)
  54 Ni ( 0.000000,  0.000000,  0.295938)
  55 Fe ( 0.000000,  0.000000,  2.114457)
  56 Ni ( 0.000000,  0.000000,  0.193802)
  57 Cr ( 0.000000,  0.000000,  0.485873)
  58 Ni ( 0.000000,  0.000000,  0.137596)
  59 Ni ( 0.000000,  0.000000,  0.175859)
[...]
  93 Cr ( 0.000000,  0.000000,  0.285283)
  94 Co ( 0.000000,  0.000000,  0.765345)
  95 Ni ( 0.000000,  0.000000,  0.126029)
  96 Cr ( 0.000000,  0.000000, -1.086535)
  97 Fe ( 0.000000,  0.000000,  2.138996)
  98 Co ( 0.000000,  0.000000,  1.068747)
  99 Fe ( 0.000000,  0.000000,  2.024333)
 100 Fe ( 0.000000,  0.000000,  2.209272)
 101 Co ( 0.000000,  0.000000,  1.497231)
 102 Ni ( 0.000000,  0.000000,  0.424433)
 103 Co ( 0.000000,  0.000000,  1.364397)
 104 Cr ( 0.000000,  0.000000, -1.314889)
 105 Fe ( 0.000000,  0.000000,  2.416979)
 106 Co ( 0.000000,  0.000000,  0.953513)
 107 Ni ( 0.000000,  0.000000,  0.221281)

Energy contributions relative to reference atoms: (reference = -3846758.590871)

Kinetic:       +129.294841
Potential:     -194.580490
External:        +0.000000
XC:            -863.037236
Entropy (-ST):   -4.585333
Local:          +40.057366
Free energy:   -892.850852
Extrapolated:  -890.558186

Spin contamination: 29.233524 electrons
Showing only first 2 kpts
                      Up                     Down
 Kpt  Band  Eigenvalues  Occupancy  Eigenvalues  Occupancy
  0   524      9.81216    0.99524     10.76745    0.01462
  0   525      9.81936    0.99488     10.77818    0.01315
  0   526      9.83928    0.99376     10.80310    0.01028
  0   527      9.85051    0.99303     10.80923    0.00968

  1   524      9.82698    0.99448     10.76638    0.01477
  1   525      9.83366    0.99410     10.77894    0.01305
  1   526      9.84019    0.99371     10.78586    0.01219
  1   527      9.84733    0.99324     10.79426    0.01122

Fermi level: 10.34639

No gap

Forces in eV/Ang:
  0 Co    0.10545    0.05034    0.04171
  1 Fe    0.36359   -0.15477    0.02184
  2 Fe    0.23083    0.00898   -0.10925
  3 Co    0.04380   -0.13307    0.06993
  4 Co   -0.00027   -0.16677   -0.01352
  5 Fe   -0.11955    0.09255   -0.08348
  6 Ni   -0.00130    0.15164   -0.12205
  7 Co   -0.05750    0.07302   -0.05772
  8 Co   -0.10708    0.10290    0.09509
  9 Fe   -0.27078   -0.22779   -0.28323
 10 Cr    0.32040    0.32739   -0.52126
 11 Ni   -0.01925   -0.21894    0.07268
 12 Fe    0.36618    0.27342   -0.08927
 13 Ni    0.05634   -0.17344   -0.03007
 14 Co    0.10772   -0.08511   -0.10094
 15 Cr   -0.34232    0.38960    0.11247
 16 Cr   -0.07615   -0.27051   -0.30935
 17 Fe    0.00232   -0.30387    0.10727
 18 Cr   -0.10814   -0.12003    0.36920
 19 Fe    0.05778   -0.21095    0.24433
 20 Cr    0.13314    0.12329   -0.42346
 21 Ni    0.04533    0.00914   -0.21555
 22 Fe   -0.09346    0.08176   -0.03989
 23 Ni   -0.12425    0.23258   -0.13827
 24 Ni    0.09407   -0.01230   -0.12504
 25 Cr   -0.43456    0.01257    0.30796
 26 Fe    0.08523    0.17753   -0.00676
 27 Cr    0.09570    0.05103   -0.15153
 28 Fe   -0.02833    0.25875   -0.15966
 29 Co   -0.06161    0.19932    0.07505
 30 Ni   -0.13349    0.02296   -0.11375
 31 Ni   -0.11740    0.12132    0.15802
 32 Co    0.14395   -0.13806   -0.14176
 33 Fe   -0.10490    0.00245   -0.16473
 34 Ni    0.00829    0.17867   -0.11956
 35 Cr   -0.01167   -0.43290   -0.30238
 36 Cr    0.24363    0.30218    0.28662
 37 Fe    0.25517   -0.01009    0.04980
 38 Ni    0.19439    0.10812    0.02832
 39 Co   -0.08442    0.24074   -0.00940
 40 Co   -0.00478   -0.25136   -0.09382
 41 Fe   -0.25397   -0.13345    0.12808
 42 Fe    0.07370   -0.40053    0.11361
 43 Co    0.00594    0.17008   -0.06528
 44 Cr   -0.21272   -0.24220    0.29384
 45 Cr    0.05317    0.02461    0.02451
 46 Fe   -0.28014   -0.29067    0.01708
 47 Ni    0.07335   -0.02341    0.11232
 48 Cr   -0.04317    0.09415   -0.16904
 49 Co    0.22127   -0.01955    0.12749
 50 Cr    0.58086    0.03663    0.49867
 51 Fe   -0.22235   -0.23328    0.09950
 52 Co   -0.11848    0.06662   -0.16494
 53 Fe   -0.17132   -0.08246    0.14585
 54 Ni    0.05986   -0.12093    0.00645
 55 Fe    0.05501    0.09369   -0.22125
 56 Ni   -0.15694    0.04768    0.07139
 57 Cr    0.22966    0.19267    0.15644
 58 Ni    0.09088    0.02951    0.16107
 59 Ni    0.02672   -0.01045    0.18822
[...]
 93 Cr    0.41166    0.12653    0.10024
 94 Co    0.01950    0.25850   -0.09794
 95 Ni    0.15558   -0.02523    0.09082
 96 Cr   -0.44706   -0.29115    0.31759
 97 Fe    0.08976   -0.13353    0.10170
 98 Co   -0.13502   -0.09092    0.02798
 99 Fe    0.38422    0.20420    0.40099
100 Fe   -0.11276    0.04855    0.47148
101 Co   -0.23343    0.19236   -0.16345
102 Ni    0.07313    0.11843    0.15293
103 Co   -0.16814    0.16042   -0.24287
104 Cr    0.14895    0.03342    0.02166
105 Fe   -0.06198   -0.30063    0.30823
106 Co   -0.14785   -0.13740   -0.09752
107 Ni   -0.16596   -0.09361    0.00203

Date: Sat Apr 15 18:22:30 2023