User:   c.zeng@d0050
Date:   Fri Apr 14 02:49:23 2023
Arch:   x86_64
Pid:    86773
CWD:    /home/c.zeng/projects/hea-corrosion/hea-mlp/data-curation/bulk-md/dft-jobs/88
Python: 3.8.1
gpaw:   /home/c.zeng/usr/installs/gpaw/source/gpaw-22.8.0/gpaw
_gpaw:  /home/c.zeng/usr/installs/gpaw/source/gpaw-22.8.0/
        _gpaw.cpython-38-x86_64-linux-gnu.so
ase:    /home/c.zeng/.local/lib/python3.8/site-packages/ase-3.22.1-py3.8.egg/ase (version 3.22.1)
numpy:  /shared/centos7/python/3.8.1/lib/python3.8/site-packages/numpy (version 1.17.4)
scipy:  /shared/centos7/python/3.8.1/lib/python3.8/site-packages/scipy (version 1.4.1)
units:  Angstrom and eV
cores: 30
OpenMP: False
OMP_NUM_THREADS: 1

Input parameters:
  convergence: {energy: 0.0001}
  kpts: [2 2 2]
  maxiter: 666
  mode: {ecut: 350.0,
         name: pw}
  occupations: {fixmagmom: False,
                name: fermi-dirac,
                width: 0.1}
  spinpol: True
  xc: PBE

System changes: positions, numbers, cell, pbc, initial_charges, initial_magmoms

Initialize ...

species:
  Al:
    name: Aluminium
    id: 0292cae29f5d6237e50f6abdd43a7bdd
    Z: 13.0
    valence: 3
    core: 10
    charge: 0.0
    file: /home/c.zeng/usr/data/gpaw-setups-0.9.20000/Al.PBE.gz
    compensation charges: {type: gauss,
                           rc: 0.34,
                           lmax: 2}
    cutoffs: {filter: 1.91,
              core: 2.36}
    valence states:
      #              energy  rcut
      - 3s(2.00)    -7.753   1.085
      - 3p(1.00)    -2.712   1.085
      -  s          19.459   1.085
      -  p          24.499   1.085
      -  d           0.000   1.085

    # Using partial waves for Al as LCAO basis

  Fe:
    name: Iron
    id: 37abbd8d6c3c35915a9b583b742da910
    Z: 26.0
    valence: 8
    core: 18
    charge: 0.0
    file: /home/c.zeng/usr/data/gpaw-setups-0.9.20000/Fe.PBE.gz
    compensation charges: {type: gauss,
                           rc: 0.33,
                           lmax: 2}
    cutoffs: {filter: 2.06,
              core: 2.67}
    valence states:
      #              energy  rcut
      - 4s(2.00)    -5.291   1.164
      - 4p(0.00)    -1.326   1.058
      - 3d(6.00)    -7.505   1.058
      -  s          21.920   1.164
      -  p          25.885   1.058
      -  d          19.706   1.058

[...]

  Cr:
    name: Chromium
    id: 33f258bda2ca9f93018e70263a35547b
    Z: 24.0
    valence: 6
    core: 18
    charge: 0.0
    file: /home/c.zeng/usr/data/gpaw-setups-0.9.20000/Cr.PBE.gz
    compensation charges: {type: gauss,
                           rc: 0.35,
                           lmax: 2}
    cutoffs: {filter: 2.14,
              core: 3.04}
    valence states:
      #              energy  rcut
      - 4s(1.00)    -4.007   1.164
      - 4p(0.00)    -0.989   1.217
      - 3d(5.00)    -2.913   1.111
      -  s          23.205   1.164
      -  p          26.223   1.217
      -  d          24.299   1.111

[...]

  Ni:
    name: Nickel
    id: 0d9f38a9d6e76a2886f07bb4381f212b
    Z: 28.0
    valence: 16
    core: 12
    charge: 0.0
    file: /home/c.zeng/usr/data/gpaw-setups-0.9.20000/Ni.PBE.gz
    compensation charges: {type: gauss,
                           rc: 0.36,
                           lmax: 2}
    cutoffs: {filter: 2.14,
              core: 1.98}
    valence states:
      #              energy  rcut
      - 4s(2.00)    -5.642   1.164
      - 3p(6.00)   -71.394   1.207
      - 4p(0.00)    -1.226   1.207
      - 3d(8.00)    -8.875   1.138
      -  s          21.570   1.164
      -  d          18.337   1.138

[...]

  Co:
    name: Cobalt
    id: 339d20d5b0b93d2de9531a1bee871d91
    Z: 27.0
    valence: 9
    core: 18
    charge: 0.0
    file: /home/c.zeng/usr/data/gpaw-setups-0.9.20000/Co.PBE.gz
    compensation charges: {type: gauss,
                           rc: 0.32,
                           lmax: 2}
    cutoffs: {filter: 1.87,
              core: 2.55}
    valence states:
      #              energy  rcut
      - 4s(2.00)    -5.469   1.005
      - 4p(0.00)    -1.277   1.058
      - 3d(7.00)    -8.205   1.005
      -  s          21.742   1.005
      -  p          25.934   1.058
      -  d          19.007   1.005

    # Using partial waves for Co as LCAO basis

Reference energy: -3235165.067515  # eV

Spin-polarized calculation.
Magnetic moment: 121.100000

Convergence criteria:
 Maximum [total energy] change in last 3 cyles: 0.0001 eV / electron
 Maximum integral of absolute [dens]ity change: 0.0001 electrons / valence electron
 Maximum integral of absolute [eigenst]ate change: 4e-08 eV^2 / valence electron
 Maximum number of scf [iter]ations: 666
 (Square brackets indicate name in SCF output, whereas a 'c' in
 the SCF output indicates the quantity has converged.)

Symmetries present (total): 1

  ( 1  0  0)
  ( 0  1  0)
  ( 0  0  1)

8 k-points: 2 x 2 x 2 Monkhorst-Pack grid
4 k-points in the irreducible part of the Brillouin zone
       k-points in crystal coordinates                weights
   0:     0.25000000   -0.25000000   -0.25000000          2/8
   1:     0.25000000   -0.25000000    0.25000000          2/8
   2:     0.25000000    0.25000000   -0.25000000          2/8
   3:     0.25000000    0.25000000    0.25000000          2/8

Wave functions: Plane wave expansion
  Cutoff energy: 350.000 eV
  Number of coefficients (min, max): 19084, 19084
  Pulay-stress correction: 0.000000 eV/Ang^3 (de/decut=0.000000)
  Using FFTW library
  ScaLapack parameters: grid=1x1, blocksize=None
  Wavefunction extrapolation:
    Improved wavefunction reuse through dual PAW basis

Occupation numbers: Fermi-Dirac:
  width: 0.1000  # eV

Eigensolver
   Davidson(niter=2)

Densities:
  Coarse grid: 48*48*48 grid
  Fine grid: 96*96*96 grid
  Total Charge: 0.000000

Density mixing:
  Method: difference
  Backend: pulay
  Linear mixing parameter: 0.05
  old densities: 5
  Damping of long wavelength oscillations: 50

Hamiltonian:
  XC and Coulomb potentials evaluated on a 96*96*96 grid
  Using the PBE Exchange-Correlation functional
  External potential:
    NoExternalPotential

XC parameters: PBE with 2 nearest neighbor stencil

Total number of cores used: 30
Parallelization over k-points: 2
Domain decomposition: 5 x 3 x 1

Number of atoms: 108
Number of atomic orbitals: 933
Number of bands in calculation: 624
Number of valence electrons: 912
Bands to converge: occupied

... initialized

Initializing position-dependent things.

Density initialized from atomic densities
Creating initial wave functions:
  624 bands from LCAO basis set

        .-----------------Fe-------.
       /|   Cr      Ni             |
      / |                      Ni  |
     / Al       Co       Ni        |
    /   CoFe     CFe     Ni Al     |
   /    |           ACr      CrCr  |
  /   Cr|  CoAl        CoFe        |
 *     CrNi   FeNiCo Cr CoNi  Cr Al|
 |      |AlAl    AlNiFe  NiFeAl  Cr|
 |    Cr| Fe CCo   Co Cr  AlFeCr   Fe
 |   FeCo  FeNi Cr  Cr Cr    Cr    |
 |    CoAl     Al Ni  AlFeNi       |
 |     AlCo Al  NiCoCo   CrCr      |
 |    Cr.-Ni-Co----Ni-Al----FCoe---.
 |   CoNi       Al    Co      Ni  /
 |    Ni      Al        Ni       /
 |   / Cr   Al   Fe      Al  Fe /
 |  /                Co    Fe  /
 | /  Cr   Fe          Ni     /e
 |/            Ni            /
 *--------------------------Al

Positions:
   0 Al    10.813421    0.118560    0.063193    ( 0.0000,  0.0000,  0.0000)
   1 Fe    10.641480    1.670570    2.078074    ( 0.0000,  0.0000,  2.0000)
   2 Cr     1.883530   11.055967    1.883479    ( 0.0000,  0.0000,  0.0000)
   3 Cr     1.530095    1.904706   -0.094461    ( 0.0000,  0.0000,  0.0000)
   4 Ni     3.264408   10.928253   10.772504    ( 0.0000,  0.0000,  1.5000)
   5 Al     3.730928    1.944399    1.948847    ( 0.0000,  0.0000,  0.0000)
   6 Al     5.602241   10.757039    1.786108    ( 0.0000,  0.0000,  0.0000)
   7 Ni     5.366100    1.553667   10.999077    ( 0.0000,  0.0000,  1.5000)
   8 Fe     7.475394   -0.210792   10.736053    ( 0.0000,  0.0000,  2.0000)
   9 Co     7.450194    1.672587    1.715112    ( 0.0000,  0.0000,  2.1000)
  10 Ni     8.918127    0.026319    1.596326    ( 0.0000,  0.0000,  1.5000)
  11 Fe     9.020329    1.862108   10.805411    ( 0.0000,  0.0000,  2.0000)
  12 Fe    10.793553    3.574949    0.138599    ( 0.0000,  0.0000,  2.0000)
  13 Co    10.959930    5.442093    1.800100    ( 0.0000,  0.0000,  2.1000)
  14 Cr     1.644330    3.182937    1.814126    ( 0.0000,  0.0000,  0.0000)
  15 Co     1.557520    5.223305   10.806305    ( 0.0000,  0.0000,  2.1000)
  16 Fe     3.266480    3.609036    0.013901    ( 0.0000,  0.0000,  2.0000)
  17 Al     3.841141    5.310340    1.739327    ( 0.0000,  0.0000,  0.0000)
  18 Fe     5.605931    3.601745    1.736724    ( 0.0000,  0.0000,  2.0000)
  19 Fe     5.485807    5.285459   -0.269409    ( 0.0000,  0.0000,  2.0000)
  20 Cr     7.045998    3.320656   10.778764    ( 0.0000,  0.0000,  0.0000)
  21 Co     7.096548    5.431575    1.875018    ( 0.0000,  0.0000,  2.1000)
  22 Al     8.864612    3.381893    1.909063    ( 0.0000,  0.0000,  0.0000)
  23 Fe     8.969520    5.130469    0.076253    ( 0.0000,  0.0000,  2.0000)
  24 Ni    11.024736    7.169390    0.134357    ( 0.0000,  0.0000,  1.5000)
  25 Al     0.197852    8.951041    1.664040    ( 0.0000,  0.0000,  0.0000)
  26 Ni     1.778984    7.168790    1.936911    ( 0.0000,  0.0000,  1.5000)
  27 Cr     2.099477    9.054244   10.793153    ( 0.0000,  0.0000,  0.0000)
  28 Fe     3.503080    7.128852    0.136242    ( 0.0000,  0.0000,  2.0000)
  29 Ni     3.604633    8.994938    1.756236    ( 0.0000,  0.0000,  1.5000)
  30 Ni     5.462033    7.385928    1.563534    ( 0.0000,  0.0000,  1.5000)
  31 Ni     5.222847    9.063617   10.663790    ( 0.0000,  0.0000,  1.5000)
  32 Co     7.406307    7.154225    0.102908    ( 0.0000,  0.0000,  2.1000)
  33 Cr     7.205242    9.105992    1.698894    ( 0.0000,  0.0000,  0.0000)
  34 Fe     9.060135    7.320975    1.839825    ( 0.0000,  0.0000,  2.0000)
  35 Ni     9.178409    9.031338    0.031357    ( 0.0000,  0.0000,  1.5000)
  36 Fe    -0.051513   -0.063184    3.499614    ( 0.0000,  0.0000,  2.0000)
  37 Co    10.802119    1.711570    5.287457    ( 0.0000,  0.0000,  2.1000)
  38 Cr     1.914412   10.882098    5.530579    ( 0.0000,  0.0000,  0.0000)
  39 Ni     1.843761    1.895184    3.717547    ( 0.0000,  0.0000,  1.5000)
  40 Al     3.695288   10.699953    3.902502    ( 0.0000,  0.0000,  0.0000)
  41 Al     3.992722    1.952603    5.595597    ( 0.0000,  0.0000,  0.0000)
  42 Cr     5.456223   10.605671    5.326676    ( 0.0000,  0.0000,  0.0000)
  43 Al     5.601396    1.835270    3.645101    ( 0.0000,  0.0000,  0.0000)
  44 Al     7.297834   10.640219    3.757641    ( 0.0000,  0.0000,  0.0000)
  45 Co     7.262821    1.903771    5.489355    ( 0.0000,  0.0000,  2.1000)
  46 Cr     9.008366   -0.237489    5.345630    ( 0.0000,  0.0000,  0.0000)
  47 Ni     8.759104    1.705252    3.675514    ( 0.0000,  0.0000,  1.5000)
  48 Fe    -0.189223    3.625130    3.612980    ( 0.0000,  0.0000,  2.0000)
  49 Fe    10.918125    5.528856    5.427238    ( 0.0000,  0.0000,  2.0000)
  50 Al     1.685100    3.760374    5.450491    ( 0.0000,  0.0000,  0.0000)
  51 Co     1.786054    5.235568    3.634504    ( 0.0000,  0.0000,  2.1000)
  52 Co     3.727604    3.946176    3.747902    ( 0.0000,  0.0000,  2.1000)
  53 Ni     3.331640    5.693796    5.494265    ( 0.0000,  0.0000,  1.5000)
  54 Ni     5.608626    4.018277    5.495982    ( 0.0000,  0.0000,  1.5000)
  55 Co     5.452407    5.744294    3.812149    ( 0.0000,  0.0000,  2.1000)
  56 Al     7.355802    3.623137    3.798948    ( 0.0000,  0.0000,  0.0000)
  57 Cr     7.409933    5.680849    5.462221    ( 0.0000,  0.0000,  0.0000)
  58 Ni     9.086663    3.833166    5.376913    ( 0.0000,  0.0000,  1.5000)
  59 Cr     9.017459    5.437735    3.419115    ( 0.0000,  0.0000,  0.0000)
[...]
  93 Co     7.357796    5.382992    8.929347    ( 0.0000,  0.0000,  2.1000)
  94 Ni     9.123614    3.746483    9.066996    ( 0.0000,  0.0000,  1.5000)
  95 Fe     9.133455    5.575136    7.204392    ( 0.0000,  0.0000,  2.0000)
  96 Al    -0.039969    7.419286    7.173933    ( 0.0000,  0.0000,  0.0000)
  97 Al     0.051079    8.858932    9.315675    ( 0.0000,  0.0000,  0.0000)
  98 Fe     1.863288    7.252610    9.141454    ( 0.0000,  0.0000,  2.0000)
  99 Co     1.793899    9.058348    7.208342    ( 0.0000,  0.0000,  2.1000)
 100 Fe     3.496062    7.368931    7.296894    ( 0.0000,  0.0000,  2.0000)
 101 Co     3.544426    8.973974    9.075913    ( 0.0000,  0.0000,  2.1000)
 102 Al     5.712560    7.193476    8.969858    ( 0.0000,  0.0000,  0.0000)
 103 Fe     5.353146    8.934956    7.496020    ( 0.0000,  0.0000,  2.0000)
 104 Co     7.411215    7.274766    7.366726    ( 0.0000,  0.0000,  2.1000)
 105 Ni     7.190994    9.085904    9.109100    ( 0.0000,  0.0000,  1.5000)
 106 Al     8.992304    7.281946    9.225386    ( 0.0000,  0.0000,  0.0000)
 107 Cr     8.988973    9.173044    7.303631    ( 0.0000,  0.0000,  0.0000)

Unit cell:
           periodic     x           y           z      points  spacing
  1. axis:    yes   10.872400    0.000000    0.000000    48     0.2265
  2. axis:    yes    0.000000   10.872400    0.000000    48     0.2265
  3. axis:    yes    0.000000    0.000000   10.872400    48     0.2265

  Lengths:  10.872400  10.872400  10.872400
  Angles:   90.000000  90.000000  90.000000

Effective grid spacing dv^(1/3) = 0.2265

     iter     time        total  log10-change:  magmom
                         energy  eigst   dens
iter:   1 02:53:52  -952.885832                  +121.3865
iter:   2 02:55:52  -839.880716  -0.21  -1.17    +65.9766
iter:   3 02:57:53  -823.730725  -0.90  -1.21    +56.5762
iter:   4 02:59:55  -816.302252  -1.25  -1.27    +52.7452
iter:   5 03:01:54  -805.457786  -1.52  -1.28    +50.8027
iter:   6 03:03:53  -797.369223  -1.39  -1.35    +50.6478
iter:   7 03:05:55  -803.586639  -1.27  -1.47    +50.4218
iter:   8 03:07:54  -795.598402  -1.62  -1.51    +50.7141
iter:   9 03:09:54  -791.322275  -2.19  -1.63    +51.1537
iter:  10 03:11:54  -791.550669  -2.43  -1.76    +52.4931
iter:  11 03:13:54  -792.410085  -2.45  -1.79    +53.2979
iter:  12 03:15:53  -792.899648  -2.32  -1.82    +54.3742
iter:  13 03:17:53  -792.333394  -2.45  -1.84    +54.8026
iter:  14 03:19:54  -792.114380  -2.69  -1.94    +55.0614
iter:  15 03:21:54  -792.356464  -2.85  -2.01    +55.5435
iter:  16 03:23:55  -792.272534  -2.92  -2.04    +55.7287
iter:  17 03:25:54  -792.380816  -2.84  -2.09    +56.1026
iter:  18 03:27:55  -792.251945  -3.13  -2.16    +56.2146
iter:  19 03:29:55  -792.287077  -3.13  -2.23    +56.2575
iter:  20 03:31:55  -792.264051c -3.31  -2.29    +56.3757
iter:  21 03:33:55  -792.368929  -3.32  -2.35    +56.3663
iter:  22 03:35:55  -792.332540  -3.40  -2.37    +56.2602
iter:  23 03:37:55  -792.376261c -3.55  -2.43    +56.1984
iter:  24 03:39:55  -792.426563  -3.56  -2.46    +56.0454
iter:  25 03:41:56  -792.429234c -3.80  -2.50    +55.9557
iter:  26 03:43:56  -792.463917c -3.80  -2.53    +55.7563
iter:  27 03:46:01  -792.507350c -3.88  -2.58    +55.5744
iter:  28 03:48:01  -792.530409c -4.01  -2.60    +55.3559
iter:  29 03:49:58  -792.569018c -4.05  -2.64    +55.1753
iter:  30 03:51:56  -792.605824c -3.99  -2.66    +54.9085
iter:  31 03:53:54  -792.617676c -4.18  -2.70    +54.7946
iter:  32 03:55:51  -792.628026c -4.30  -2.72    +54.6503
iter:  33 03:57:14  -792.654242c -4.28  -2.78    +54.4584
iter:  34 03:59:15  -792.668654c -4.24  -2.80    +54.3346
iter:  35 04:01:24  -792.673802c -4.51  -2.84    +54.2722
iter:  36 04:03:32  -792.684559c -4.48  -2.88    +54.1799
iter:  37 04:05:40  -792.693974c -4.51  -2.92    +54.1351
iter:  38 04:07:48  -792.693201c -4.61  -2.92    +54.0976
iter:  39 04:09:56  -792.699939c -4.72  -3.00    +54.0434
iter:  40 04:12:04  -792.704062c -4.83  -3.02    +54.0307
iter:  41 04:14:12  -792.706993c -4.85  -3.05    +53.9941
iter:  42 04:16:21  -792.711605c -4.92  -3.09    +53.9692
iter:  43 04:18:29  -792.712876c -4.90  -3.13    +53.9582
iter:  44 04:20:37  -792.713896c -5.17  -3.15    +53.9465
iter:  45 04:22:45  -792.716507c -5.20  -3.21    +53.9283
iter:  46 04:24:53  -792.717839c -5.32  -3.24    +53.9299
iter:  47 04:27:02  -792.719388c -5.26  -3.28    +53.9127
iter:  48 04:29:10  -792.720760c -5.44  -3.30    +53.9138
iter:  49 04:31:17  -792.722125c -5.43  -3.35    +53.9146
iter:  50 04:33:25  -792.723073c -5.49  -3.36    +53.9107
iter:  51 04:35:34  -792.724601c -5.56  -3.40    +53.9063
iter:  52 04:37:41  -792.725554c -5.54  -3.43    +53.9105
iter:  53 04:39:50  -792.726381c -5.62  -3.46    +53.8958
iter:  54 04:41:57  -792.727883c -5.73  -3.50    +53.8942
iter:  55 04:44:05  -792.728781c -5.65  -3.52    +53.8905
iter:  56 04:46:13  -792.729561c -5.80  -3.54    +53.8853
iter:  57 04:48:21  -792.730584c -5.74  -3.58    +53.8777
iter:  58 04:50:29  -792.731495c -5.89  -3.62    +53.8770
iter:  59 04:52:37  -792.732658c -5.77  -3.65    +53.8632
iter:  60 04:54:45  -792.733497c -6.01  -3.68    +53.8631
iter:  61 04:56:53  -792.734274c -5.90  -3.71    +53.8546
iter:  62 04:59:02  -792.734873c -6.05  -3.73    +53.8501
iter:  63 05:01:10  -792.735545c -6.06  -3.76    +53.8423
iter:  64 05:03:18  -792.736319c -6.09  -3.81    +53.8376
iter:  65 05:05:26  -792.737108c -5.98  -3.84    +53.8222
iter:  66 05:07:34  -792.737762c -6.20  -3.87    +53.8172
iter:  67 05:09:42  -792.738497c -5.98  -3.89    +53.8038
iter:  68 05:11:50  -792.738769c -6.39  -3.90    +53.8004
iter:  69 05:13:59  -792.739322c -6.21  -3.93    +53.7896
iter:  70 05:16:06  -792.739774c -6.34  -3.97    +53.7839
iter:  71 05:18:14  -792.740365c -6.14  -4.01c   +53.7683
iter:  72 05:20:22  -792.740752c -6.43  -4.03c   +53.7632
iter:  73 05:22:30  -792.741645c -6.00  -4.06c   +53.7443
iter:  74 05:24:38  -792.742006c -6.37  -4.05c   +53.7383
iter:  75 05:26:46  -792.743008c -5.93  -4.06c   +53.7180
iter:  76 05:28:53  -792.743541c -6.28  -4.00    +53.7117
iter:  77 05:31:01  -792.743352c -6.78  -3.97    +53.7109
iter:  78 05:33:09  -792.743834c -6.50  -4.04c   +53.7010
iter:  79 05:35:16  -792.743732c -7.16  -4.01c   +53.7049
iter:  80 05:37:24  -792.744579c -6.16  -4.01c   +53.6898
iter:  81 05:39:32  -792.744804c -6.67  -3.99    +53.6899
iter:  82 05:41:40  -792.745284c -6.49  -3.98    +53.6844
iter:  83 05:43:48  -792.745540c -6.22  -4.00    +53.6792
iter:  84 05:45:55  -792.746135c -6.35  -3.90    +53.6617
iter:  85 05:47:59  -792.747130c -5.91  -3.84    +53.6343
iter:  86 05:50:04  -792.746610c -6.38  -3.80    +53.6441
iter:  87 05:52:12  -792.746696c -6.18  -3.83    +53.6218
iter:  88 05:54:19  -792.747086c -6.29  -3.97    +53.6159
iter:  89 05:56:27  -792.747004c -6.07  -3.94    +53.6091
iter:  90 05:58:35  -792.747104c -6.51  -4.03c   +53.6027
iter:  91 06:00:43  -792.747369c -6.47  -4.13c   +53.5887
iter:  92 06:02:50  -792.747670c -6.63  -4.12c   +53.5814
iter:  93 06:04:59  -792.747845c -6.64  -4.13c   +53.5745
iter:  94 06:07:06  -792.748108c -6.72  -4.14c   +53.5690
iter:  95 06:09:15  -792.748101c -6.85  -4.05c   +53.5667
iter:  96 06:11:22  -792.748263c -6.82  -4.02c   +53.5610
iter:  97 06:13:31  -792.748664c -6.07  -4.04c   +53.5388
iter:  98 06:15:39  -792.748793c -6.53  -3.98    +53.5377
iter:  99 06:17:47  -792.749333c -6.33  -4.01c   +53.5303
iter: 100 06:19:56  -792.749342c -6.18  -3.84    +53.5284
iter: 101 06:22:04  -792.749137c -6.52  -3.94    +53.5223
iter: 102 06:24:12  -792.749493c -6.31  -4.01c   +53.5132
iter: 103 06:26:20  -792.749233c -6.63  -3.92    +53.5130
iter: 104 06:28:26  -792.749394c -6.87  -4.00    +53.5096
iter: 105 06:30:30  -792.749402c -6.64  -4.04c   +53.5038
iter: 106 06:32:38  -792.749854c -6.28  -4.04c   +53.5018
iter: 107 06:34:47  -792.749506c -6.51  -3.96    +53.5002
iter: 108 06:36:54  -792.749591c -6.58  -4.10c   +53.4976
iter: 109 06:39:02  -792.749825c -6.49  -4.13c   +53.4935
iter: 110 06:41:10  -792.749641c -6.63  -4.10c   +53.4897
iter: 111 06:43:18  -792.749724c -6.99  -4.16c   +53.4909
iter: 112 06:45:26  -792.749711c -7.05  -4.29c   +53.4887
iter: 113 06:47:34  -792.749828c -7.04  -4.35c   +53.4860
iter: 114 06:49:42  -792.749817c -7.40c -4.31c   +53.4845

Converged after 114 iterations.

Dipole moment: (27.480435, 50.137698, 12.266930) |e|*Ang

Total magnetic moment: (0.000000, 0.000000, 53.484460)
Local magnetic moments:
   0 Al ( 0.000000,  0.000000, -0.001997)
   1 Fe ( 0.000000,  0.000000,  1.877872)
   2 Cr ( 0.000000,  0.000000, -2.071468)
   3 Cr ( 0.000000,  0.000000,  1.101408)
   4 Ni ( 0.000000,  0.000000, -0.088666)
   5 Al ( 0.000000,  0.000000, -0.016091)
   6 Al ( 0.000000,  0.000000, -0.011745)
   7 Ni ( 0.000000,  0.000000,  0.226199)
   8 Fe ( 0.000000,  0.000000,  2.267024)
   9 Co ( 0.000000,  0.000000,  0.665227)
  10 Ni ( 0.000000,  0.000000,  0.241929)
  11 Fe ( 0.000000,  0.000000,  1.764037)
  12 Fe ( 0.000000,  0.000000,  1.916141)
  13 Co ( 0.000000,  0.000000,  1.455687)
  14 Cr ( 0.000000,  0.000000, -1.730194)
  15 Co ( 0.000000,  0.000000,  1.165541)
  16 Fe ( 0.000000,  0.000000,  1.951840)
  17 Al ( 0.000000,  0.000000, -0.040983)
  18 Fe ( 0.000000,  0.000000,  2.088126)
  19 Fe ( 0.000000,  0.000000,  2.304567)
  20 Cr ( 0.000000,  0.000000, -1.790134)
  21 Co ( 0.000000,  0.000000,  1.407001)
  22 Al ( 0.000000,  0.000000, -0.029772)
  23 Fe ( 0.000000,  0.000000,  2.371599)
  24 Ni ( 0.000000,  0.000000,  0.114732)
  25 Al ( 0.000000,  0.000000, -0.012534)
  26 Ni ( 0.000000,  0.000000,  0.350757)
  27 Cr ( 0.000000,  0.000000, -0.525375)
  28 Fe ( 0.000000,  0.000000,  2.377138)
  29 Ni ( 0.000000,  0.000000,  0.244914)
  30 Ni ( 0.000000,  0.000000,  0.368430)
  31 Ni ( 0.000000,  0.000000,  0.364466)
  32 Co ( 0.000000,  0.000000,  1.275958)
  33 Cr ( 0.000000,  0.000000, -1.668146)
  34 Fe ( 0.000000,  0.000000,  2.246419)
  35 Ni ( 0.000000,  0.000000,  0.171527)
  36 Fe ( 0.000000,  0.000000,  1.919138)
  37 Co ( 0.000000,  0.000000,  1.299916)
  38 Cr ( 0.000000,  0.000000, -2.193885)
  39 Ni ( 0.000000,  0.000000, -0.163157)
  40 Al ( 0.000000,  0.000000,  0.000025)
  41 Al ( 0.000000,  0.000000,  0.001303)
  42 Cr ( 0.000000,  0.000000, -1.113308)
  43 Al ( 0.000000,  0.000000, -0.006164)
  44 Al ( 0.000000,  0.000000,  0.001838)
  45 Co ( 0.000000,  0.000000,  0.610440)
  46 Cr ( 0.000000,  0.000000, -1.025265)
  47 Ni ( 0.000000,  0.000000,  0.182303)
  48 Fe ( 0.000000,  0.000000,  2.245940)
  49 Fe ( 0.000000,  0.000000,  2.114483)
  50 Al ( 0.000000,  0.000000, -0.032623)
  51 Co ( 0.000000,  0.000000,  1.422579)
  52 Co ( 0.000000,  0.000000,  1.233096)
  53 Ni ( 0.000000,  0.000000,  0.404304)
  54 Ni ( 0.000000,  0.000000,  0.165474)
  55 Co ( 0.000000,  0.000000,  1.322228)
  56 Al ( 0.000000,  0.000000, -0.004815)
  57 Cr ( 0.000000,  0.000000, -0.991760)
  58 Ni ( 0.000000,  0.000000,  0.001194)
  59 Cr ( 0.000000,  0.000000, -1.733489)
[...]
  93 Co ( 0.000000,  0.000000,  1.316620)
  94 Ni ( 0.000000,  0.000000,  0.134176)
  95 Fe ( 0.000000,  0.000000,  1.698027)
  96 Al ( 0.000000,  0.000000, -0.032786)
  97 Al ( 0.000000,  0.000000, -0.012557)
  98 Fe ( 0.000000,  0.000000,  1.743816)
  99 Co ( 0.000000,  0.000000,  1.136817)
 100 Fe ( 0.000000,  0.000000,  2.122159)
 101 Co ( 0.000000,  0.000000,  0.976005)
 102 Al ( 0.000000,  0.000000, -0.043505)
 103 Fe ( 0.000000,  0.000000,  2.265368)
 104 Co ( 0.000000,  0.000000,  0.997036)
 105 Ni ( 0.000000,  0.000000,  0.306234)
 106 Al ( 0.000000,  0.000000, -0.029480)
 107 Cr ( 0.000000,  0.000000,  1.104973)

Energy contributions relative to reference atoms: (reference = -3235165.067515)

Kinetic:       +421.074110
Potential:     -378.283551
External:        +0.000000
XC:            -864.850579
Entropy (-ST):   -3.896087
Local:          +31.258247
Free energy:   -794.697860
Extrapolated:  -792.749817

Spin contamination: 28.687431 electrons
Showing only first 2 kpts
                      Up                     Down
 Kpt  Band  Eigenvalues  Occupancy  Eigenvalues  Occupancy
  0   454      9.03503    0.99564      9.91297    0.03396
  0   455      9.04452    0.99521      9.92652    0.02979
  0   456      9.06915    0.99388      9.94048    0.02601
  0   457      9.08029    0.99317      9.95174    0.02330

  1   454      9.02399    0.99610      9.91746    0.03252
  1   455      9.05256    0.99481      9.93551    0.02730
  1   456      9.06683    0.99402      9.94491    0.02491
  1   457      9.08081    0.99313      9.96276    0.02092

Fermi level: 9.57818

No gap

Forces in eV/Ang:
  0 Al   -0.28923   -0.87338   -0.31101
  1 Fe    1.12476    1.03096   -0.78462
  2 Cr   -0.61576   -0.56428   -0.00854
  3 Cr    2.49066   -0.28779    0.51701
  4 Ni    2.11313    1.08343    0.59389
  5 Al   -0.08352   -0.06057   -0.75619
  6 Al   -2.06453    0.72516   -1.30496
  7 Ni    0.10190    0.89385   -0.27910
  8 Fe   -1.80138    1.37247   -0.03220
  9 Co   -3.18398   -0.06011   -0.12032
 10 Ni    1.52816   -1.20252    1.75606
 11 Fe    0.02779    0.02943    0.57357
 12 Fe   -0.81851    0.08028    0.08589
 13 Co   -0.39917   -0.78741    0.73985
 14 Cr   -0.84974    2.06531   -0.17917
 15 Co    1.44562    1.01932    0.70691
 16 Fe    1.53372   -0.04298   -0.29580
 17 Al   -0.59826    0.21558    0.44806
 18 Fe    0.20366   -0.28204    0.41835
 19 Fe    0.45459    0.26886    1.30366
 20 Cr    0.78803    0.93127    0.10786
 21 Co   -0.06204    0.27481    0.04648
 22 Al    1.29897    1.50123   -1.28974
 23 Fe   -0.60044    1.71635    0.69163
 24 Ni   -0.69224   -0.09145   -0.52277
 25 Al   -0.81651    0.59280    0.30854
 26 Ni    1.36493   -0.80310   -0.81585
 27 Cr   -1.35752   -1.07225    0.83747
 28 Fe    0.32639    0.01371   -1.53712
 29 Ni    0.02463    0.78411    0.62114
 30 Ni    0.02962   -1.34859    0.53634
 31 Ni    0.80079   -0.26479    1.10063
 32 Co   -0.97002   -0.06275    0.31079
 33 Cr    1.45133   -2.04758   -0.47645
 34 Fe   -0.15152   -0.91604   -0.07687
 35 Ni   -0.11720   -0.19048   -0.10772
 36 Fe    0.18876   -0.01795    0.84813
 37 Co   -0.08880   -0.14509    0.41923
 38 Cr   -1.40485   -0.17304    0.40991
 39 Ni    0.31516   -0.50020    0.82184
 40 Al   -1.52840    0.24841   -3.12834
 41 Al   -1.98110   -0.40983   -1.02341
 42 Cr    1.88745    1.19171    2.25338
 43 Al    0.57001    0.35552    0.27249
 44 Al   -0.74601    1.47356   -1.32361
 45 Co   -0.74793   -1.12158    0.80819
 46 Cr    1.95497    0.92289    1.89635
 47 Ni    1.58158   -0.38768    0.41355
 48 Fe    0.63798   -0.00600   -0.19042
 49 Fe   -0.68925    0.71072   -0.75146
 50 Al    0.86598   -1.06650   -0.43400
 51 Co   -0.52170    1.02956   -1.02320
 52 Co    0.32110   -1.04791   -0.04891
 53 Ni    1.57082   -0.50994    0.05098
 54 Ni   -0.09030   -1.45572   -0.60855
 55 Co   -0.05366   -0.93615   -0.68575
 56 Al   -1.48166    0.96444    0.12738
 57 Cr   -0.16320    0.25926    0.07518
 58 Ni    0.28626   -0.75109   -0.06314
 59 Cr    0.82935    1.48207    0.43105
[...]
 93 Co    0.01167   -0.29530    0.65105
 94 Ni   -1.08825   -0.95158   -0.46153
 95 Fe    0.19455   -0.95013    0.33402
 96 Al   -0.20941   -0.30890    0.39753
 97 Al    0.57686    1.83080   -1.11063
 98 Fe   -0.04520   -0.70231    0.31348
 99 Co    0.33799    0.26934    0.52658
100 Fe    0.86535   -0.81537    0.16645
101 Co   -0.39267    0.77912   -0.79066
102 Al   -1.12534   -0.31587    2.07737
103 Fe    0.48690    0.99296   -1.33955
104 Co    0.65503    0.83166   -1.52741
105 Ni    0.59319   -0.34487    0.25832
106 Al   -0.98119   -0.08033    0.00419
107 Cr    0.71060    0.25304   -0.37653

Date: Fri Apr 14 06:50:02 2023