User:   c.zeng@d0112
Date:   Fri Apr 14 20:31:23 2023
Arch:   x86_64
Pid:    212008
CWD:    /home/c.zeng/projects/hea-corrosion/hea-mlp/data-curation/bulk-mcmc/dft-jobs/170
Python: 3.8.1
gpaw:   /home/c.zeng/usr/installs/gpaw/source/gpaw-22.8.0/gpaw
_gpaw:  /home/c.zeng/usr/installs/gpaw/source/gpaw-22.8.0/
        _gpaw.cpython-38-x86_64-linux-gnu.so
ase:    /home/c.zeng/.local/lib/python3.8/site-packages/ase-3.22.1-py3.8.egg/ase (version 3.22.1)
numpy:  /shared/centos7/python/3.8.1/lib/python3.8/site-packages/numpy (version 1.17.4)
scipy:  /shared/centos7/python/3.8.1/lib/python3.8/site-packages/scipy (version 1.4.1)
units:  Angstrom and eV
cores: 30
OpenMP: False
OMP_NUM_THREADS: 1

Input parameters:
  convergence: {energy: 0.0001}
  kpts: [2 2 2]
  maxiter: 666
  mode: {ecut: 350.0,
         name: pw}
  occupations: {fixmagmom: False,
                name: fermi-dirac,
                width: 0.1}
  spinpol: True
  xc: PBE

System changes: positions, numbers, cell, pbc, initial_charges, initial_magmoms

Initialize ...

species:
  Fe:
    name: Iron
    id: 37abbd8d6c3c35915a9b583b742da910
    Z: 26.0
    valence: 8
    core: 18
    charge: 0.0
    file: /home/c.zeng/usr/data/gpaw-setups-0.9.20000/Fe.PBE.gz
    compensation charges: {type: gauss,
                           rc: 0.33,
                           lmax: 2}
    cutoffs: {filter: 2.06,
              core: 2.67}
    valence states:
      #              energy  rcut
      - 4s(2.00)    -5.291   1.164
      - 4p(0.00)    -1.326   1.058
      - 3d(6.00)    -7.505   1.058
      -  s          21.920   1.164
      -  p          25.885   1.058
      -  d          19.706   1.058

    # Using partial waves for Fe as LCAO basis

  Co:
    name: Cobalt
    id: 339d20d5b0b93d2de9531a1bee871d91
    Z: 27.0
    valence: 9
    core: 18
    charge: 0.0
    file: /home/c.zeng/usr/data/gpaw-setups-0.9.20000/Co.PBE.gz
    compensation charges: {type: gauss,
                           rc: 0.32,
                           lmax: 2}
    cutoffs: {filter: 1.87,
              core: 2.55}
    valence states:
      #              energy  rcut
      - 4s(2.00)    -5.469   1.005
      - 4p(0.00)    -1.277   1.058
      - 3d(7.00)    -8.205   1.005
      -  s          21.742   1.005
      -  p          25.934   1.058
      -  d          19.007   1.005

[...]

  Al:
    name: Aluminium
    id: 0292cae29f5d6237e50f6abdd43a7bdd
    Z: 13.0
    valence: 3
    core: 10
    charge: 0.0
    file: /home/c.zeng/usr/data/gpaw-setups-0.9.20000/Al.PBE.gz
    compensation charges: {type: gauss,
                           rc: 0.34,
                           lmax: 2}
    cutoffs: {filter: 1.91,
              core: 2.36}
    valence states:
      #              energy  rcut
      - 3s(2.00)    -7.753   1.085
      - 3p(1.00)    -2.712   1.085
      -  s          19.459   1.085
      -  p          24.499   1.085
      -  d           0.000   1.085

[...]

  Cr:
    name: Chromium
    id: 33f258bda2ca9f93018e70263a35547b
    Z: 24.0
    valence: 6
    core: 18
    charge: 0.0
    file: /home/c.zeng/usr/data/gpaw-setups-0.9.20000/Cr.PBE.gz
    compensation charges: {type: gauss,
                           rc: 0.35,
                           lmax: 2}
    cutoffs: {filter: 2.14,
              core: 3.04}
    valence states:
      #              energy  rcut
      - 4s(1.00)    -4.007   1.164
      - 4p(0.00)    -0.989   1.217
      - 3d(5.00)    -2.913   1.111
      -  s          23.205   1.164
      -  p          26.223   1.217
      -  d          24.299   1.111

[...]

  Ni:
    name: Nickel
    id: 0d9f38a9d6e76a2886f07bb4381f212b
    Z: 28.0
    valence: 16
    core: 12
    charge: 0.0
    file: /home/c.zeng/usr/data/gpaw-setups-0.9.20000/Ni.PBE.gz
    compensation charges: {type: gauss,
                           rc: 0.36,
                           lmax: 2}
    cutoffs: {filter: 2.14,
              core: 1.98}
    valence states:
      #              energy  rcut
      - 4s(2.00)    -5.642   1.164
      - 3p(6.00)   -71.394   1.207
      - 4p(0.00)    -1.226   1.207
      - 3d(8.00)    -8.875   1.138
      -  s          21.570   1.164
      -  d          18.337   1.138

    # Using partial waves for Ni as LCAO basis

Reference energy: -3382523.201499  # eV

Spin-polarized calculation.
Magnetic moment: 128.800000

Convergence criteria:
 Maximum [total energy] change in last 3 cyles: 0.0001 eV / electron
 Maximum integral of absolute [dens]ity change: 0.0001 electrons / valence electron
 Maximum integral of absolute [eigenst]ate change: 4e-08 eV^2 / valence electron
 Maximum number of scf [iter]ations: 666
 (Square brackets indicate name in SCF output, whereas a 'c' in
 the SCF output indicates the quantity has converged.)

Symmetries present (total): 1

  ( 1  0  0)
  ( 0  1  0)
  ( 0  0  1)

8 k-points: 2 x 2 x 2 Monkhorst-Pack grid
4 k-points in the irreducible part of the Brillouin zone
       k-points in crystal coordinates                weights
   0:     0.25000000   -0.25000000   -0.25000000          2/8
   1:     0.25000000   -0.25000000    0.25000000          2/8
   2:     0.25000000    0.25000000   -0.25000000          2/8
   3:     0.25000000    0.25000000    0.25000000          2/8

Wave functions: Plane wave expansion
  Cutoff energy: 350.000 eV
  Number of coefficients (min, max): 18865, 18865
  Pulay-stress correction: 0.000000 eV/Ang^3 (de/decut=0.000000)
  Using FFTW library
  ScaLapack parameters: grid=1x1, blocksize=None
  Wavefunction extrapolation:
    Improved wavefunction reuse through dual PAW basis

Occupation numbers: Fermi-Dirac:
  width: 0.1000  # eV

Eigensolver
   Davidson(niter=2)

Densities:
  Coarse grid: 48*48*48 grid
  Fine grid: 96*96*96 grid
  Total Charge: 0.000000

Density mixing:
  Method: difference
  Backend: pulay
  Linear mixing parameter: 0.05
  old densities: 5
  Damping of long wavelength oscillations: 50

Hamiltonian:
  XC and Coulomb potentials evaluated on a 96*96*96 grid
  Using the PBE Exchange-Correlation functional
  External potential:
    NoExternalPotential

XC parameters: PBE with 2 nearest neighbor stencil

Total number of cores used: 30
Parallelization over k-points: 2
Domain decomposition: 5 x 3 x 1

Number of atoms: 108
Number of atomic orbitals: 961
Number of bands in calculation: 649
Number of valence electrons: 945
Bands to converge: occupied

... initialized

Initializing position-dependent things.

Density initialized from atomic densities
Creating initial wave functions:
  649 bands from LCAO basis set

       /|                     Co   |
      / |            Co Co     CrCo|
     /  |       Cr       Ni       Cr
    /   |Co       Fel     FFer     |
   /i   | Fee        Fe      Co    |
  /  CrAl   NCr       Ni           |
 *      Ni     FeFe   AlFeCrFe   Cr|
 |      |CoNi   CrNiAl   NiAlNi   Co
 | CrCo | AlNi   AlAlCo     Ni     |
 |     Co  FeCr Cr  Fe FeNi  CrNi  |
 |      CoNi   AlCr   FeFeCoNi  Co |
 |Al    |FeCr   AlCrFe   CrFe     Co
 |      .-CrCo-----NiCr-FeCoCrNi---.
 |     /   Ni Co    Cr CoNi    Al /
 |    Fe       AFei       Al     /
 |   /  Fe         Al       Cr  /
 |  /      Fe       Al       Co/
 | / Co     Co       Ni Ni    /
 |/             Cr       Ni  /
 *--------Co----------------*

Positions:
   0 Fe    10.764147   10.861293   10.805330    ( 0.0000,  0.0000,  2.0000)
   1 Co    10.786221    1.792513    1.813624    ( 0.0000,  0.0000,  0.0000)
   2 Co     1.744156    0.036560    1.851269    ( 0.0000,  0.0000,  1.5000)
   3 Al     1.736571    1.831142   10.798805    ( 0.0000,  0.0000,  0.0000)
   4 Co     3.575126    0.057318    0.061759    ( 0.0000,  0.0000,  0.0000)
   5 Fe     3.594289    1.817617    1.845577    ( 0.0000,  0.0000,  2.0000)
   6 Fe     5.429813   10.817005    1.865054    ( 0.0000,  0.0000,  1.5000)
   7 Cr     5.429608    1.929425    0.057134    ( 0.0000,  0.0000,  0.0000)
   8 Co     7.316909   10.723332    0.087382    ( 0.0000,  0.0000,  0.0000)
   9 Al     7.263142    1.825786    1.869404    ( 0.0000,  0.0000,  2.1000)
  10 Ni     9.063554    0.025226    1.863474    ( 0.0000,  0.0000,  1.5000)
  11 Ni     9.049217    1.829703    0.033106    ( 0.0000,  0.0000,  2.1000)
  12 Ni     0.004792    3.558981   10.794801    ( 0.0000,  0.0000,  1.5000)
  13 Al    10.759710    5.390697    1.778165    ( 0.0000,  0.0000,  0.0000)
  14 Fe     1.733585    3.561849    1.761112    ( 0.0000,  0.0000,  2.0000)
  15 Co     1.776899    5.391834   10.795505    ( 0.0000,  0.0000,  0.0000)
  16 Co     3.565452    3.619360   10.832619    ( 0.0000,  0.0000,  2.1000)
  17 Co     3.633221    5.394614    1.719551    ( 0.0000,  0.0000,  0.0000)
  18 Ni     5.471624    3.659114    1.836033    ( 0.0000,  0.0000,  2.1000)
  19 Fe     5.440212    5.373060   -0.002773    ( 0.0000,  0.0000,  2.0000)
  20 Ni     7.258997    3.609080    0.031294    ( 0.0000,  0.0000,  0.0000)
  21 Co     7.268941    5.378362    1.785274    ( 0.0000,  0.0000,  2.0000)
  22 Al     9.030724    3.577636    1.833728    ( 0.0000,  0.0000,  2.1000)
  23 Fe     9.040420    5.372281   10.801110    ( 0.0000,  0.0000,  0.0000)
  24 Co    10.791663    7.196206   10.792486    ( 0.0000,  0.0000,  1.5000)
  25 Co    10.758434    9.040387    1.848239    ( 0.0000,  0.0000,  0.0000)
  26 Cr     1.690487    7.202493    1.786032    ( 0.0000,  0.0000,  0.0000)
  27 Ni     1.652691    8.981047    0.027217    ( 0.0000,  0.0000,  0.0000)
  28 Al     3.631241    7.164437    0.034633    ( 0.0000,  0.0000,  0.0000)
  29 Al     3.625452    9.063759    1.801678    ( 0.0000,  0.0000,  0.0000)
  30 Ni     5.490852    7.187095    1.746342    ( 0.0000,  0.0000,  2.0000)
  31 Cr     5.426935    8.989152    0.009861    ( 0.0000,  0.0000,  2.0000)
  32 Co     7.229122    7.237075   -0.008698    ( 0.0000,  0.0000,  1.5000)
  33 Cr     7.249194    8.995850    1.810713    ( 0.0000,  0.0000,  0.0000)
  34 Cr     9.052073    7.204300    1.764218    ( 0.0000,  0.0000,  2.1000)
  35 Co     9.092553    8.989639   10.808760    ( 0.0000,  0.0000,  1.5000)
  36 Cr    -0.000975   10.826235    3.639789    ( 0.0000,  0.0000,  1.5000)
  37 Al    10.822772    1.771770    5.422044    ( 0.0000,  0.0000,  2.1000)
  38 Ni     1.754263   10.802084    5.428872    ( 0.0000,  0.0000,  2.1000)
  39 Fe     1.741873    1.774270    3.610801    ( 0.0000,  0.0000,  0.0000)
  40 Al     3.591183   10.794152    3.612143    ( 0.0000,  0.0000,  2.0000)
  41 Cr     3.593088    1.736744    5.455177    ( 0.0000,  0.0000,  0.0000)
  42 Al     5.437150   10.794563    5.400804    ( 0.0000,  0.0000,  2.0000)
  43 Fe     5.451931    1.783251    3.601387    ( 0.0000,  0.0000,  1.5000)
  44 Al     7.226222    0.007781    3.626209    ( 0.0000,  0.0000,  0.0000)
  45 Fe     7.236069    1.766512    5.381392    ( 0.0000,  0.0000,  2.1000)
  46 Fe     9.034587   10.848850    5.403844    ( 0.0000,  0.0000,  2.1000)
  47 Ni     9.031558    1.804946    3.616730    ( 0.0000,  0.0000,  1.5000)
  48 Ni    10.773885    3.543973    3.617867    ( 0.0000,  0.0000,  1.5000)
  49 Ni    10.772186    5.358409    5.454917    ( 0.0000,  0.0000,  0.0000)
  50 Co     1.757531    3.575678    5.428937    ( 0.0000,  0.0000,  2.1000)
  51 Fe     1.621766    5.386986    3.572550    ( 0.0000,  0.0000,  0.0000)
  52 Co     3.634303    3.633188    3.540792    ( 0.0000,  0.0000,  0.0000)
  53 Cr     3.550606    5.397969    5.404753    ( 0.0000,  0.0000,  2.0000)
  54 Cr     5.402221    3.610887    5.370193    ( 0.0000,  0.0000,  2.0000)
  55 Cr     5.460241    5.433590    3.575613    ( 0.0000,  0.0000,  2.0000)
  56 Cr     7.250157    3.615183    3.623169    ( 0.0000,  0.0000,  1.5000)
  57 Fe     7.248707    5.410715    5.362099    ( 0.0000,  0.0000,  1.5000)
  58 Co     9.058230    3.565236    5.380082    ( 0.0000,  0.0000,  2.1000)
  59 Fe     9.074071    5.365323    3.589008    ( 0.0000,  0.0000,  2.1000)
[...]
  93 Ni     7.211073    5.388295    9.040181    ( 0.0000,  0.0000,  0.0000)
  94 Cr     9.095052    3.598119    8.980636    ( 0.0000,  0.0000,  2.0000)
  95 Al     9.078205    5.402416    7.227759    ( 0.0000,  0.0000,  0.0000)
  96 Cr    10.763411    7.244682    7.260285    ( 0.0000,  0.0000,  1.5000)
  97 Cr    10.795093    9.034566    8.977574    ( 0.0000,  0.0000,  2.0000)
  98 Fe     1.740045    7.178947    8.984662    ( 0.0000,  0.0000,  2.1000)
  99 Fe     1.734429    9.080207    7.236696    ( 0.0000,  0.0000,  1.5000)
 100 Fe     3.580482    7.154277    7.248285    ( 0.0000,  0.0000,  0.0000)
 101 Cr     3.612835    8.970898    8.958086    ( 0.0000,  0.0000,  0.0000)
 102 Al     5.410943    7.155878    9.067049    ( 0.0000,  0.0000,  0.0000)
 103 Fe     5.466441    9.064062    7.220963    ( 0.0000,  0.0000,  2.1000)
 104 Fe     7.307203    7.271549    7.289738    ( 0.0000,  0.0000,  0.0000)
 105 Ni     7.271073    9.044683    9.027879    ( 0.0000,  0.0000,  1.5000)
 106 Cr     9.081743    7.219805    9.041166    ( 0.0000,  0.0000,  2.1000)
 107 Co     9.063684    9.083009    7.213865    ( 0.0000,  0.0000,  2.0000)

Unit cell:
           periodic     x           y           z      points  spacing
  1. axis:    yes   10.820500    0.000000    0.000000    48     0.2254
  2. axis:    yes    0.000000   10.820500    0.000000    48     0.2254
  3. axis:    yes    0.000000    0.000000   10.820500    48     0.2254

  Lengths:  10.820500  10.820500  10.820500
  Angles:   90.000000  90.000000  90.000000

Effective grid spacing dv^(1/3) = 0.2254

     iter     time        total  log10-change:  magmom
                         energy  eigst   dens
iter:   1 20:34:57  -895.909326                  +128.4417
iter:   2 20:36:21  -861.452787  -0.40  -1.31    +96.7774
iter:   3 20:37:46  -843.631938  -0.94  -1.30    +68.7932
iter:   4 20:39:11  -833.380082  -1.25  -1.37    +59.1699
iter:   5 20:40:36  -826.042787  -1.86  -1.40    +54.2386
iter:   6 20:42:01  -827.533095  -1.96  -1.47    +52.2528
iter:   7 20:43:26  -826.417952  -1.68  -1.50    +50.9459
iter:   8 20:44:51  -825.740252  -1.77  -1.55    +50.7795
iter:   9 20:46:16  -828.929846  -1.79  -1.64    +51.3451
iter:  10 20:47:41  -823.516648  -1.97  -1.65    +50.8054
iter:  11 20:49:06  -824.482782  -2.24  -1.81    +51.6108
iter:  12 20:50:31  -823.063998  -2.40  -1.81    +52.2505
iter:  13 20:51:56  -823.485141  -2.59  -1.90    +53.3660
iter:  14 20:53:21  -824.268763  -2.50  -1.94    +54.3689
iter:  15 20:54:47  -824.807139  -2.49  -1.94    +55.1838
iter:  16 20:56:12  -824.804447  -2.46  -1.96    +56.5145
iter:  17 20:57:37  -824.234949  -2.72  -1.98    +56.7756
iter:  18 20:59:02  -824.665527  -2.71  -2.11    +57.6258
iter:  19 21:00:27  -824.375378  -2.87  -2.14    +58.2000
iter:  20 21:01:52  -824.458895  -3.09  -2.20    +58.8723
iter:  21 21:03:17  -824.727543  -3.10  -2.26    +59.2568
iter:  22 21:04:42  -824.853006  -3.08  -2.25    +59.4588
iter:  23 21:06:07  -824.729253  -3.19  -2.26    +60.1201
iter:  24 21:07:32  -824.814928  -3.37  -2.34    +60.2544
iter:  25 21:08:57  -824.786246c -3.47  -2.37    +60.3833
iter:  26 21:10:21  -824.917003  -3.48  -2.43    +60.3030
iter:  27 21:11:42  -824.901084  -3.50  -2.41    +60.3927
iter:  28 21:13:03  -825.015144  -3.45  -2.45    +60.3392
iter:  29 21:14:23  -825.051413  -3.39  -2.48    +60.0904
iter:  30 21:15:44  -825.029814c -3.50  -2.47    +60.0408
iter:  31 21:17:05  -824.978199c -3.69  -2.52    +59.8392
iter:  32 21:18:26  -825.039765c -3.76  -2.66    +59.7456
iter:  33 21:19:46  -825.016417c -3.90  -2.62    +59.5666
iter:  34 21:21:07  -825.027384c -4.12  -2.71    +59.3170
iter:  35 21:22:28  -825.066062c -3.98  -2.75    +59.1101
iter:  36 21:23:49  -825.059306c -4.34  -2.72    +58.8831
iter:  37 21:25:10  -825.081066c -4.37  -2.81    +58.5939
iter:  38 21:26:31  -825.115506c -4.20  -2.85    +58.2787
iter:  39 21:27:52  -825.124818c -4.26  -2.80    +58.1232
iter:  40 21:29:13  -825.155398c -4.20  -2.89    +57.8219
iter:  41 21:30:34  -825.178339c -4.10  -2.85    +57.5994
iter:  42 21:31:54  -825.162495c -4.29  -2.87    +57.4598
iter:  43 21:33:15  -825.180200c -4.37  -3.01    +57.1255
iter:  44 21:34:36  -825.189282c -4.58  -3.01    +56.9952
iter:  45 21:35:57  -825.198899c -4.70  -3.07    +56.7182
iter:  46 21:37:18  -825.214668c -4.67  -3.12    +56.4867
iter:  47 21:38:39  -825.222434c -5.15  -3.08    +56.3489
iter:  48 21:40:00  -825.286266c -3.83  -3.11    +55.2243
iter:  49 21:41:21  -825.323085  -4.11  -3.07    +54.7200
iter:  50 21:42:42  -825.348839c -4.45  -2.97    +54.5209
iter:  51 21:44:03  -825.336319c -4.48  -2.93    +54.6058
iter:  52 21:45:24  -825.343912c -4.57  -3.02    +54.4426
iter:  53 21:46:45  -825.340711c -4.94  -3.03    +54.3344
iter:  54 21:48:07  -825.349511c -4.54  -3.15    +54.1299
iter:  55 21:49:28  -825.355440c -4.87  -3.16    +53.9669
iter:  56 21:50:49  -825.362177c -5.09  -3.18    +53.8275
iter:  57 21:52:10  -825.372658c -4.97  -3.19    +53.6875
iter:  58 21:53:31  -825.373164c -5.42  -3.14    +53.6610
iter:  59 21:54:52  -825.383146c -5.02  -3.15    +53.5405
iter:  60 21:56:14  -825.385633c -5.18  -3.14    +53.5041
iter:  61 21:57:35  -825.388655c -4.91  -3.14    +53.4068
iter:  62 21:58:56  -825.414044c -4.33  -3.26    +53.2608
iter:  63 22:00:17  -825.393847c -4.83  -3.07    +53.2545
iter:  64 22:01:37  -825.399327c -5.16  -3.43    +53.1868
iter:  65 22:02:58  -825.403705c -5.32  -3.50    +53.1230
iter:  66 22:04:20  -825.408287c -5.32  -3.49    +53.0393
iter:  67 22:05:41  -825.414944c -5.26  -3.53    +52.9364
iter:  68 22:07:02  -825.445864c -4.10  -3.47    +52.5192
iter:  69 22:08:23  -825.457264c -4.33  -3.26    +52.4080
iter:  70 22:09:44  -825.466876c -4.38  -3.18    +52.3858
iter:  71 22:11:05  -825.469273c -5.11  -3.09    +52.4645
iter:  72 22:12:27  -825.474218c -5.32  -3.10    +52.4946
iter:  73 22:13:48  -825.481039c -5.06  -3.06    +52.5315
iter:  74 22:15:09  -825.472582c -4.83  -2.98    +52.5317
iter:  75 22:16:30  -825.481169c -4.17  -3.05    +52.6432
iter:  76 22:17:51  -825.475103c -4.29  -2.94    +52.6256
iter:  77 22:19:12  -825.478026c -4.24  -2.95    +52.5639
iter:  78 22:20:33  -825.450185c -4.65  -2.96    +52.5542
iter:  79 22:21:54  -825.449837c -5.09  -3.21    +52.4814
iter:  80 22:23:15  -825.452409c -4.86  -3.24    +52.4830
iter:  81 22:24:36  -825.453668c -4.85  -3.24    +52.4587
iter:  82 22:25:57  -825.455635c -4.69  -3.22    +52.4495
iter:  83 22:27:18  -825.448094c -4.93  -3.20    +52.4477
iter:  84 22:28:39  -825.450455c -4.96  -3.41    +52.4147
iter:  85 22:30:00  -825.446560c -5.24  -3.33    +52.4190
iter:  86 22:31:21  -825.445638c -5.51  -3.51    +52.3987
iter:  87 22:32:42  -825.445793c -5.50  -3.57    +52.4026
iter:  88 22:34:03  -825.445311c -5.84  -3.57    +52.3948
iter:  89 22:35:25  -825.445028c -5.83  -3.68    +52.3857
iter:  90 22:36:46  -825.445188c -5.83  -3.67    +52.3823
iter:  91 22:38:07  -825.445243c -5.85  -3.68    +52.3730
iter:  92 22:39:28  -825.445176c -5.92  -3.71    +52.3715
iter:  93 22:40:49  -825.445351c -5.85  -3.74    +52.3589
iter:  94 22:42:10  -825.444770c -6.04  -3.72    +52.3602
iter:  95 22:43:32  -825.444942c -6.12  -3.81    +52.3600
iter:  96 22:44:52  -825.444912c -6.42  -3.85    +52.3515
iter:  97 22:46:13  -825.444805c -6.32  -3.89    +52.3481
iter:  98 22:47:35  -825.444888c -6.28  -3.91    +52.3410
iter:  99 22:48:55  -825.444988c -6.32  -3.89    +52.3395
iter: 100 22:50:16  -825.445122c -6.17  -3.93    +52.3350
iter: 101 22:51:37  -825.445083c -6.11  -3.93    +52.3318
iter: 102 22:52:58  -825.444861c -6.31  -3.88    +52.3352
iter: 103 22:54:19  -825.445019c -6.42  -4.05c   +52.3332
iter: 104 22:55:41  -825.445098c -6.43  -4.05c   +52.3326
iter: 105 22:57:02  -825.444939c -6.85  -4.06c   +52.3268
iter: 106 22:58:23  -825.444940c -6.83  -4.24c   +52.3251
iter: 107 22:59:44  -825.445021c -7.21  -4.22c   +52.3236
iter: 108 23:01:05  -825.445012c -7.17  -4.27c   +52.3181
iter: 109 23:02:26  -825.445026c -6.93  -4.33c   +52.3154
iter: 110 23:03:47  -825.445082c -6.89  -4.25c   +52.3129
iter: 111 23:05:08  -825.445121c -6.97  -4.30c   +52.3131
iter: 112 23:06:30  -825.445300c -6.75  -4.36c   +52.3103
iter: 113 23:07:51  -825.445145c -7.07  -4.24c   +52.3072
iter: 114 23:09:12  -825.445183c -7.23  -4.55c   +52.3064
iter: 115 23:10:33  -825.445229c -7.73c -4.53c   +52.3045

Converged after 115 iterations.

Dipole moment: (29.508958, -3.289370, -10.683015) |e|*Ang

Total magnetic moment: (0.000000, 0.000000, 52.304519)
Local magnetic moments:
   0 Fe ( 0.000000,  0.000000,  2.306007)
   1 Co ( 0.000000,  0.000000,  1.322200)
   2 Co ( 0.000000,  0.000000,  1.317845)
   3 Al ( 0.000000,  0.000000, -0.042519)
   4 Co ( 0.000000,  0.000000,  1.387234)
   5 Fe ( 0.000000,  0.000000,  2.423436)
   6 Fe ( 0.000000,  0.000000,  1.975454)
   7 Cr ( 0.000000,  0.000000, -2.404842)
   8 Co ( 0.000000,  0.000000,  1.007295)
   9 Al ( 0.000000,  0.000000, -0.009937)
  10 Ni ( 0.000000,  0.000000,  0.165377)
  11 Ni ( 0.000000,  0.000000,  0.113144)
  12 Ni ( 0.000000,  0.000000,  0.228812)
  13 Al ( 0.000000,  0.000000, -0.032318)
  14 Fe ( 0.000000,  0.000000,  2.316192)
  15 Co ( 0.000000,  0.000000,  0.901895)
  16 Co ( 0.000000,  0.000000,  1.277048)
  17 Co ( 0.000000,  0.000000,  1.089092)
  18 Ni ( 0.000000,  0.000000,  0.263446)
  19 Fe ( 0.000000,  0.000000,  2.297893)
  20 Ni ( 0.000000,  0.000000,  0.111260)
  21 Co ( 0.000000,  0.000000,  1.195474)
  22 Al ( 0.000000,  0.000000, -0.025492)
  23 Fe ( 0.000000,  0.000000,  2.103528)
  24 Co ( 0.000000,  0.000000,  0.450228)
  25 Co ( 0.000000,  0.000000,  1.004576)
  26 Cr ( 0.000000,  0.000000, -1.827441)
  27 Ni ( 0.000000,  0.000000,  0.097715)
  28 Al ( 0.000000,  0.000000, -0.015748)
  29 Al ( 0.000000,  0.000000, -0.026054)
  30 Ni ( 0.000000,  0.000000,  0.303352)
  31 Cr ( 0.000000,  0.000000,  1.839455)
  32 Co ( 0.000000,  0.000000,  0.921722)
  33 Cr ( 0.000000,  0.000000, -1.316206)
  34 Cr ( 0.000000,  0.000000, -1.619271)
  35 Co ( 0.000000,  0.000000,  1.045192)
  36 Cr ( 0.000000,  0.000000, -1.506250)
  37 Al ( 0.000000,  0.000000, -0.026157)
  38 Ni ( 0.000000,  0.000000,  0.093586)
  39 Fe ( 0.000000,  0.000000,  2.233536)
  40 Al ( 0.000000,  0.000000, -0.032616)
  41 Cr ( 0.000000,  0.000000, -1.986611)
  42 Al ( 0.000000,  0.000000, -0.027167)
  43 Fe ( 0.000000,  0.000000,  1.850761)
  44 Al ( 0.000000,  0.000000, -0.033347)
  45 Fe ( 0.000000,  0.000000,  1.770711)
  46 Fe ( 0.000000,  0.000000,  1.965750)
  47 Ni ( 0.000000,  0.000000,  0.166679)
  48 Ni ( 0.000000,  0.000000,  0.374939)
  49 Ni ( 0.000000,  0.000000,  0.261700)
  50 Co ( 0.000000,  0.000000,  1.207247)
  51 Fe ( 0.000000,  0.000000,  2.369789)
  52 Co ( 0.000000,  0.000000,  1.123017)
  53 Cr ( 0.000000,  0.000000, -1.758595)
  54 Cr ( 0.000000,  0.000000, -1.119618)
  55 Cr ( 0.000000,  0.000000,  1.240982)
  56 Cr ( 0.000000,  0.000000, -1.617220)
  57 Fe ( 0.000000,  0.000000,  2.184857)
  58 Co ( 0.000000,  0.000000,  1.102108)
  59 Fe ( 0.000000,  0.000000,  2.166878)
[...]
  93 Ni ( 0.000000,  0.000000,  0.306647)
  94 Cr ( 0.000000,  0.000000,  1.457124)
  95 Al ( 0.000000,  0.000000, -0.014095)
  96 Cr ( 0.000000,  0.000000,  0.755329)
  97 Cr ( 0.000000,  0.000000, -0.280493)
  98 Fe ( 0.000000,  0.000000,  1.839089)
  99 Fe ( 0.000000,  0.000000,  1.953345)
 100 Fe ( 0.000000,  0.000000, -1.290164)
 101 Cr ( 0.000000,  0.000000, -2.171027)
 102 Al ( 0.000000,  0.000000, -0.009786)
 103 Fe ( 0.000000,  0.000000,  2.141023)
 104 Fe ( 0.000000,  0.000000,  2.419014)
 105 Ni ( 0.000000,  0.000000,  0.298765)
 106 Cr ( 0.000000,  0.000000, -1.336361)
 107 Co ( 0.000000,  0.000000,  0.962375)

Energy contributions relative to reference atoms: (reference = -3382523.201499)

Kinetic:       +217.077945
Potential:     -226.133246
External:        +0.000000
XC:            -847.573767
Entropy (-ST):   -4.201918
Local:          +33.284798
Free energy:   -827.546188
Extrapolated:  -825.445229

Spin contamination: 32.738239 electrons
Showing only first 2 kpts
                      Up                     Down
 Kpt  Band  Eigenvalues  Occupancy  Eigenvalues  Occupancy
  0   470      9.18025    0.99370      9.98766    0.04684
  0   471      9.20160    0.99221     10.00066    0.04136
  0   472      9.21971    0.99068     10.01706    0.03532
  0   473      9.23426    0.98924     10.03320    0.03022

  1   470      9.17997    0.99372      9.99721    0.04275
  1   471      9.19242    0.99289     10.01815    0.03496
  1   472      9.21236    0.99134     10.02960    0.03129
  1   473      9.22539    0.99014     10.03888    0.02860

Fermi level: 9.68634

No gap

Forces in eV/Ang:
  0 Fe    0.12950   -0.62281    0.36399
  1 Co    0.53596   -0.28669    0.06870
  2 Co    0.07587   -0.15857   -0.39543
  3 Al    0.43761   -0.33940   -0.26200
  4 Co    0.20873   -0.23472   -0.51004
  5 Fe    0.14324    0.38777   -0.36371
  6 Fe    0.32917    0.26400   -0.79036
  7 Cr   -1.13423   -1.06823   -0.79819
  8 Co   -0.51757    0.35433   -0.49123
  9 Al   -0.22547   -0.63627   -1.39116
 10 Ni   -0.24015   -0.25327   -0.32284
 11 Ni   -0.23486   -0.24362   -0.44295
 12 Ni   -0.28505    0.58443    0.09580
 13 Al    0.94223   -0.10809   -0.40438
 14 Fe    0.60887    0.44022    0.60575
 15 Co   -0.13261    0.04637    0.03054
 16 Co    0.31752    0.20361    0.31683
 17 Co   -0.36366   -0.54302    0.62272
 18 Ni   -0.49074   -0.16074   -0.06237
 19 Fe    0.28276   -0.51231    0.52820
 20 Ni   -0.12840   -0.03250   -0.36300
 21 Co    0.04159    0.48212    0.02008
 22 Al    0.46820   -0.23947   -0.69413
 23 Fe   -0.53660    0.82569   -0.42201
 24 Co    0.33170   -0.03359   -0.05484
 25 Co    0.29692   -0.24973   -0.21656
 26 Cr   -0.65132    0.06394    0.04751
 27 Ni    0.77728    0.45748   -0.26306
 28 Al   -1.06182   -0.07427    0.35987
 29 Al   -0.65124    0.51856   -1.12774
 30 Ni   -0.17200    0.05562    0.35856
 31 Cr    0.72949    1.39831   -0.56148
 32 Co    0.48770   -0.29052    0.19593
 33 Cr    0.08580    0.11708   -0.60082
 34 Cr   -0.49080    0.48004   -0.20765
 35 Co   -0.27705    0.07434    0.17781
 36 Cr   -0.11843   -0.66659   -0.90500
 37 Al    0.02668    0.33074    0.05781
 38 Ni    0.37991    0.02734    0.13002
 39 Fe    0.43922    0.60837   -0.23210
 40 Al   -0.59019    0.90443   -0.33210
 41 Cr   -0.70439    1.38977    0.17981
 42 Al    0.26745    0.05161    0.79985
 43 Fe   -0.57422    0.59145    0.20925
 44 Al    0.85387   -0.27792   -0.00334
 45 Fe    0.28433    0.98986    0.50606
 46 Fe    0.06151   -0.40343    0.17819
 47 Ni   -0.04126   -0.16119    0.03265
 48 Ni    0.52718    0.40403   -0.05309
 49 Ni    0.34025    0.18624   -0.31787
 50 Co    0.65549    0.19055   -0.28071
 51 Fe    1.24147   -0.17640    0.38316
 52 Co   -0.27615   -0.00988    0.30130
 53 Cr   -0.38881   -0.77628    0.01810
 54 Cr    0.12135    0.30674    0.26867
 55 Cr   -0.31042   -0.78259   -0.08473
 56 Cr   -0.74381    0.64661    1.09971
 57 Fe    0.18644   -0.13500    0.30584
 58 Co   -0.59323    0.08400    0.34011
 59 Fe   -0.41670    0.57791    0.71842
[...]
 93 Ni    0.37788   -0.13247   -0.23754
 94 Cr    0.22800    0.22039    0.37448
 95 Al   -1.36777   -0.18049   -0.92490
 96 Cr   -0.15126    0.29619    0.75676
 97 Cr    0.38703    0.01106    0.43083
 98 Fe    0.10810    0.15232   -0.14483
 99 Fe    0.42225    0.05989    0.40272
100 Fe   -0.45787    0.25337   -0.15543
101 Cr   -0.44267    1.10930    0.29372
102 Al    1.15855    0.07339   -1.33933
103 Fe   -0.37054   -0.25640    0.59093
104 Fe   -0.01347   -0.05578   -0.56551
105 Ni    0.05728    0.22924    0.12783
106 Cr   -0.70118    0.57125    0.36332
107 Co   -0.34149   -0.15395   -0.11720

Date: Fri Apr 14 23:10:50 2023