User:   c.zeng@d0133
Date:   Sat Apr  8 08:19:59 2023
Arch:   x86_64
Pid:    27895
CWD:    /home/c.zeng/projects/hea-corrosion/hea-mlp/data-curation/volume/dft-jobs/35
Python: 3.8.1
gpaw:   /home/c.zeng/usr/installs/gpaw/source/gpaw-22.8.0/gpaw
_gpaw:  /home/c.zeng/usr/installs/gpaw/source/gpaw-22.8.0/
        _gpaw.cpython-38-x86_64-linux-gnu.so
ase:    /home/c.zeng/.local/lib/python3.8/site-packages/ase-3.22.1-py3.8.egg/ase (version 3.22.1)
numpy:  /shared/centos7/python/3.8.1/lib/python3.8/site-packages/numpy (version 1.17.4)
scipy:  /shared/centos7/python/3.8.1/lib/python3.8/site-packages/scipy (version 1.4.1)
units:  Angstrom and eV
cores: 64
OpenMP: False
OMP_NUM_THREADS: 1

Input parameters:
  convergence: {energy: 0.0001}
  kpts: [2 2 2]
  maxiter: 666
  mode: {ecut: 350.0,
         name: pw}
  occupations: {fixmagmom: False,
                name: fermi-dirac,
                width: 0.1}
  spinpol: True
  xc: PBE

System changes: positions, numbers, cell, pbc, initial_charges, initial_magmoms

Initialize ...

species:
  Cr:
    name: Chromium
    id: 33f258bda2ca9f93018e70263a35547b
    Z: 24.0
    valence: 6
    core: 18
    charge: 0.0
    file: /home/c.zeng/usr/data/gpaw-setups-0.9.20000/Cr.PBE.gz
    compensation charges: {type: gauss,
                           rc: 0.35,
                           lmax: 2}
    cutoffs: {filter: 2.14,
              core: 3.04}
    valence states:
      #              energy  rcut
      - 4s(1.00)    -4.007   1.164
      - 4p(0.00)    -0.989   1.217
      - 3d(5.00)    -2.913   1.111
      -  s          23.205   1.164
      -  p          26.223   1.217
      -  d          24.299   1.111

    # Using partial waves for Cr as LCAO basis

  Al:
    name: Aluminium
    id: 0292cae29f5d6237e50f6abdd43a7bdd
    Z: 13.0
    valence: 3
    core: 10
    charge: 0.0
    file: /home/c.zeng/usr/data/gpaw-setups-0.9.20000/Al.PBE.gz
    compensation charges: {type: gauss,
                           rc: 0.34,
                           lmax: 2}
    cutoffs: {filter: 1.91,
              core: 2.36}
    valence states:
      #              energy  rcut
      - 3s(2.00)    -7.753   1.085
      - 3p(1.00)    -2.712   1.085
      -  s          19.459   1.085
      -  p          24.499   1.085
      -  d           0.000   1.085

[...]

  Co:
    name: Cobalt
    id: 339d20d5b0b93d2de9531a1bee871d91
    Z: 27.0
    valence: 9
    core: 18
    charge: 0.0
    file: /home/c.zeng/usr/data/gpaw-setups-0.9.20000/Co.PBE.gz
    compensation charges: {type: gauss,
                           rc: 0.32,
                           lmax: 2}
    cutoffs: {filter: 1.87,
              core: 2.55}
    valence states:
      #              energy  rcut
      - 4s(2.00)    -5.469   1.005
      - 4p(0.00)    -1.277   1.058
      - 3d(7.00)    -8.205   1.005
      -  s          21.742   1.005
      -  p          25.934   1.058
      -  d          19.007   1.005

[...]

  Fe:
    name: Iron
    id: 37abbd8d6c3c35915a9b583b742da910
    Z: 26.0
    valence: 8
    core: 18
    charge: 0.0
    file: /home/c.zeng/usr/data/gpaw-setups-0.9.20000/Fe.PBE.gz
    compensation charges: {type: gauss,
                           rc: 0.33,
                           lmax: 2}
    cutoffs: {filter: 2.06,
              core: 2.67}
    valence states:
      #              energy  rcut
      - 4s(2.00)    -5.291   1.164
      - 4p(0.00)    -1.326   1.058
      - 3d(6.00)    -7.505   1.058
      -  s          21.920   1.164
      -  p          25.885   1.058
      -  d          19.706   1.058

[...]

  Ni:
    name: Nickel
    id: 0d9f38a9d6e76a2886f07bb4381f212b
    Z: 28.0
    valence: 16
    core: 12
    charge: 0.0
    file: /home/c.zeng/usr/data/gpaw-setups-0.9.20000/Ni.PBE.gz
    compensation charges: {type: gauss,
                           rc: 0.36,
                           lmax: 2}
    cutoffs: {filter: 2.14,
              core: 1.98}
    valence states:
      #              energy  rcut
      - 4s(2.00)    -5.642   1.164
      - 3p(6.00)   -71.394   1.207
      - 4p(0.00)    -1.226   1.207
      - 3d(8.00)    -8.875   1.138
      -  s          21.570   1.164
      -  d          18.337   1.138

    # Using partial waves for Ni as LCAO basis

Reference energy: -3699400.456887  # eV

Spin-polarized calculation.
Magnetic moment: 143.500000

Convergence criteria:
 Maximum [total energy] change in last 3 cyles: 0.0001 eV / electron
 Maximum integral of absolute [dens]ity change: 0.0001 electrons / valence electron
 Maximum integral of absolute [eigenst]ate change: 4e-08 eV^2 / valence electron
 Maximum number of scf [iter]ations: 666
 (Square brackets indicate name in SCF output, whereas a 'c' in
 the SCF output indicates the quantity has converged.)

Symmetries present (total): 1

  ( 1  0  0)
  ( 0  1  0)
  ( 0  0  1)

8 k-points: 2 x 2 x 2 Monkhorst-Pack grid
4 k-points in the irreducible part of the Brillouin zone
       k-points in crystal coordinates                weights
   0:     0.25000000   -0.25000000   -0.25000000          2/8
   1:     0.25000000   -0.25000000    0.25000000          2/8
   2:     0.25000000    0.25000000   -0.25000000          2/8
   3:     0.25000000    0.25000000    0.25000000          2/8

Wave functions: Plane wave expansion
  Cutoff energy: 350.000 eV
  Number of coefficients (min, max): 19468, 19468
  Pulay-stress correction: 0.000000 eV/Ang^3 (de/decut=0.000000)
  Using FFTW library
  ScaLapack parameters: grid=1x1, blocksize=None
  Wavefunction extrapolation:
    Improved wavefunction reuse through dual PAW basis

Occupation numbers: Fermi-Dirac:
  width: 0.1000  # eV

Eigensolver
   Davidson(niter=2)

Densities:
  Coarse grid: 48*48*48 grid
  Fine grid: 96*96*96 grid
  Total Charge: 0.000000

Density mixing:
  Method: difference
  Backend: pulay
  Linear mixing parameter: 0.05
  old densities: 5
  Damping of long wavelength oscillations: 50

Hamiltonian:
  XC and Coulomb potentials evaluated on a 96*96*96 grid
  Using the PBE Exchange-Correlation functional
  External potential:
    NoExternalPotential

XC parameters: PBE with 2 nearest neighbor stencil

Total number of cores used: 64
Parallelization over k-points: 4
Domain decomposition: 4 x 2 x 2

Number of atoms: 108
Number of atomic orbitals: 1025
Number of bands in calculation: 703
Number of valence electrons: 1020
Bands to converge: occupied

... initialized

Initializing position-dependent things.

Density initialized from atomic densities
Creating initial wave functions:
  703 bands from LCAO basis set

       /|  Ni                Cr    |
      / |   Fe          Al         |
     / Ni       Cr       Fe        |
    /   Cr       Cr                |
   /o   | Ni       CrFe     Cri    |
  /  NiCo  FeCo     CrNi Fe        |
 Cr   FeCo  Cr NiNi     CoCo       |
 |     NiCoCr   CoNiCo   AlCrFe    |
 | Ni   | FeCo AlCoNiNi CoFeNi     Fe
 |   FeCr  NiCo Co  Fe FeCr  Fe    |
 |    CrNi   CrCoFeCrNi NiNi  Ni   |
 |     NiNiNi   CoCrCo   CrFeCo    |
 | Fe   .-FeCr-----CoCo-----Cr-----.
 |   CoFe    FeNil  CrNiFei       /
 |    CrFe     Co         Co     /
 |   /   Fe      Cr             /
 |  /      Cr     CoCo     CrAl/
 | /        Fe                /
 |/             Fe           /
 *--------Fe-------Cr-------*

Positions:
   0 Cr     0.000016    0.000009   10.934934    ( 0.0000,  0.0000,  0.0000)
   1 Al    10.934989    1.822558    1.822536    ( 0.0000,  0.0000,  0.0000)
   2 Cr     1.822536   10.934967    1.822504    ( 0.0000,  0.0000,  0.0000)
   3 Co     1.822526    1.822526   10.934956    ( 0.0000,  0.0000,  2.1000)
   4 Fe     3.644985    0.000011    0.000008    ( 0.0000,  0.0000,  2.0000)
   5 Cr     3.644964    1.822504    1.822438    ( 0.0000,  0.0000,  0.0000)
   6 Ni     5.467489   10.934967    1.822504    ( 0.0000,  0.0000,  1.5000)
   7 Fe     5.467511    1.822536    0.000002    ( 0.0000,  0.0000,  2.0000)
   8 Cr     7.290026    0.000056    0.000004    ( 0.0000,  0.0000,  0.0000)
   9 Co     7.290036    1.822504    1.822471    ( 0.0000,  0.0000,  2.1000)
  10 Ni     9.112474   10.934978    1.822558    ( 0.0000,  0.0000,  1.5000)
  11 Fe     9.112464    1.822526   10.934956    ( 0.0000,  0.0000,  2.0000)
  12 Co     0.000011    3.645007   10.934978    ( 0.0000,  0.0000,  2.1000)
  13 Co     0.000041    5.467467    1.822526    ( 0.0000,  0.0000,  2.1000)
  14 Fe     1.822515    3.645062    1.822482    ( 0.0000,  0.0000,  2.0000)
  15 Fe     1.822536    5.467489    0.000025    ( 0.0000,  0.0000,  2.0000)
  16 Fe     3.644996    3.645029    0.000007    ( 0.0000,  0.0000,  2.0000)
  17 Fe     3.644953    5.467533    1.822460    ( 0.0000,  0.0000,  2.0000)
  18 Cr     5.467511    3.645040    1.822416    ( 0.0000,  0.0000,  0.0000)
  19 Co     5.467456    5.467456    0.000003    ( 0.0000,  0.0000,  2.1000)
  20 Fe     7.289993    3.644985   10.934989    ( 0.0000,  0.0000,  2.0000)
  21 Ni     7.290004    5.467456    1.822526    ( 0.0000,  0.0000,  1.5000)
  22 Co     9.112485    3.645018    1.822493    ( 0.0000,  0.0000,  2.1000)
  23 Cr     9.112518    5.467413    0.000014    ( 0.0000,  0.0000,  0.0000)
  24 Cr     0.000063    7.289982    0.000003    ( 0.0000,  0.0000,  0.0000)
  25 Ni     0.000008    9.112496    1.822547    ( 0.0000,  0.0000,  1.5000)
  26 Fe     1.822536    7.289971    1.822482    ( 0.0000,  0.0000,  2.0000)
  27 Ni     1.822536    9.112496   10.934989    ( 0.0000,  0.0000,  1.5000)
  28 Co     3.644974    7.289960    0.000042    ( 0.0000,  0.0000,  2.1000)
  29 Co     3.644996    9.112474    1.822515    ( 0.0000,  0.0000,  2.1000)
  30 Co     5.467445    7.290004    1.822526    ( 0.0000,  0.0000,  2.1000)
  31 Cr     5.467445    9.112507    0.000041    ( 0.0000,  0.0000,  0.0000)
  32 Al     7.289949    7.289971   10.934956    ( 0.0000,  0.0000,  0.0000)
  33 Cr     7.289993    9.112540    1.822569    ( 0.0000,  0.0000,  0.0000)
  34 Cr     9.112529    7.289993    1.822558    ( 0.0000,  0.0000,  0.0000)
  35 Cr     9.112518    9.112551   10.934978    ( 0.0000,  0.0000,  0.0000)
  36 Fe    10.934967   10.934989    3.645029    ( 0.0000,  0.0000,  2.0000)
  37 Co    10.934989    1.822515    5.467456    ( 0.0000,  0.0000,  2.1000)
  38 Cr     1.822482   10.934978    5.467478    ( 0.0000,  0.0000,  0.0000)
  39 Fe     1.822482    1.822504    3.645018    ( 0.0000,  0.0000,  2.0000)
  40 Co     3.644996   10.934956    3.644996    ( 0.0000,  0.0000,  2.1000)
  41 Ni     3.645007    1.822515    5.467511    ( 0.0000,  0.0000,  1.5000)
  42 Ni     5.467500    0.000007    5.467467    ( 0.0000,  0.0000,  1.5000)
  43 Al     5.467544    1.822438    3.645051    ( 0.0000,  0.0000,  0.0000)
  44 Fe     7.290036   10.934978    3.645007    ( 0.0000,  0.0000,  2.0000)
  45 Co     7.290004    1.822504    5.467500    ( 0.0000,  0.0000,  2.1000)
  46 Fe     9.112518   10.935000    5.467445    ( 0.0000,  0.0000,  2.0000)
  47 Ni     9.112496    1.822471    3.645029    ( 0.0000,  0.0000,  1.5000)
  48 Fe     0.000001    3.645007    3.645018    ( 0.0000,  0.0000,  2.0000)
  49 Fe    10.935000    5.467500    5.467500    ( 0.0000,  0.0000,  2.0000)
  50 Ni     1.822482    3.645029    5.467489    ( 0.0000,  0.0000,  1.5000)
  51 Ni     1.822482    5.467500    3.644985    ( 0.0000,  0.0000,  1.5000)
  52 Cr     3.644942    3.645029    3.645007    ( 0.0000,  0.0000,  0.0000)
  53 Co     3.644996    5.467511    5.467522    ( 0.0000,  0.0000,  2.1000)
  54 Fe     5.467522    3.645018    5.467544    ( 0.0000,  0.0000,  2.0000)
  55 Cr     5.467522    5.467522    3.645029    ( 0.0000,  0.0000,  0.0000)
  56 Co     7.290036    3.645029    3.645029    ( 0.0000,  0.0000,  2.1000)
  57 Fe     7.290004    5.467489    5.467500    ( 0.0000,  0.0000,  2.0000)
  58 Ni     9.112496    3.645029    5.467456    ( 0.0000,  0.0000,  1.5000)
  59 Fe     9.112496    5.467489    3.645029    ( 0.0000,  0.0000,  2.0000)
[...]
  93 Ni     7.289982    5.467467    9.112485    ( 0.0000,  0.0000,  1.5000)
  94 Co     9.112507    3.644964    9.112529    ( 0.0000,  0.0000,  2.1000)
  95 Cr     9.112507    5.467522    7.289960    ( 0.0000,  0.0000,  0.0000)
  96 Fe     0.000045    7.289993    7.289982    ( 0.0000,  0.0000,  2.0000)
  97 Ni     0.000019    9.112518    9.112464    ( 0.0000,  0.0000,  1.5000)
  98 Ni     1.822482    7.290004    9.112474    ( 0.0000,  0.0000,  1.5000)
  99 Fe     1.822493    9.112464    7.290004    ( 0.0000,  0.0000,  2.0000)
 100 Ni     3.644942    7.289982    7.289960    ( 0.0000,  0.0000,  1.5000)
 101 Cr     3.644931    9.112496    9.112507    ( 0.0000,  0.0000,  0.0000)
 102 Cr     5.467500    7.289982    9.112485    ( 0.0000,  0.0000,  0.0000)
 103 Cr     5.467478    9.112464    7.289982    ( 0.0000,  0.0000,  0.0000)
 104 Co     7.290004    7.289971    7.290015    ( 0.0000,  0.0000,  2.1000)
 105 Fe     7.290036    9.112496    9.112464    ( 0.0000,  0.0000,  2.0000)
 106 Cr     9.112507    7.290036    9.112442    ( 0.0000,  0.0000,  0.0000)
 107 Ni     9.112529    9.112485    7.290015    ( 0.0000,  0.0000,  1.5000)

Unit cell:
           periodic     x           y           z      points  spacing
  1. axis:    yes   10.935000    0.000000    0.000000    48     0.2278
  2. axis:    yes    0.000000   10.935000    0.000000    48     0.2278
  3. axis:    yes    0.000000    0.000000   10.935000    48     0.2278

  Lengths:  10.935000  10.935000  10.935000
  Angles:   90.000000  90.000000  90.000000

Effective grid spacing dv^(1/3) = 0.2278

     iter     time        total  log10-change:  magmom
                         energy  eigst   dens
iter:   1 08:22:05 -1067.677884                  +143.7769
iter:   2 08:23:02  -938.992259  -0.18  -1.19    +82.0777
iter:   3 08:23:58  -924.651349  -0.82  -1.20    +75.9239
iter:   4 08:24:55  -896.530600  -1.25  -1.27    +71.6721
iter:   5 08:25:51  -883.196809  -1.64  -1.32    +70.5459
iter:   6 08:26:47  -885.022267  -1.30  -1.38    +73.2274
iter:   7 08:27:44  -877.393729  -1.26  -1.43    +73.7367
iter:   8 08:28:41  -868.937504  -1.65  -1.55    +74.5338
iter:   9 08:29:37  -865.226575  -1.93  -1.69    +76.0775
iter:  10 08:30:34  -865.522567  -2.50  -1.83    +77.2616
iter:  11 08:31:30  -865.918423  -2.55  -1.84    +79.3224
iter:  12 08:32:28  -867.058130  -2.57  -1.88    +80.4956
iter:  13 08:33:24  -867.640675  -2.43  -1.90    +80.8612
iter:  14 08:34:19  -866.869379  -2.48  -1.95    +81.5046
iter:  15 08:35:14  -867.406063  -2.68  -2.06    +81.8633
iter:  16 08:36:11  -866.863041  -2.89  -2.08    +81.5073
iter:  17 08:37:09  -866.919008  -3.16  -2.19    +81.8436
iter:  18 08:38:05  -866.852163c -3.31  -2.19    +81.8340
iter:  19 08:39:01  -867.082210  -3.25  -2.29    +81.6098
iter:  20 08:39:58  -866.953789  -3.23  -2.30    +81.4446
iter:  21 08:40:56  -867.126250  -3.37  -2.42    +81.3518
iter:  22 08:41:53  -867.074186  -3.38  -2.40    +81.1430
iter:  23 08:42:49  -867.054702c -3.51  -2.47    +80.7560
iter:  24 08:43:45  -867.098611c -3.70  -2.56    +80.6540
iter:  25 08:44:42  -867.116318c -3.78  -2.57    +80.3339
iter:  26 08:45:38  -867.167506c -3.84  -2.63    +80.0940
iter:  27 08:46:36  -867.154247c -3.87  -2.62    +79.8357
iter:  28 08:47:31  -867.197149c -4.05  -2.71    +79.5688
iter:  29 08:48:28  -867.234598c -4.12  -2.72    +79.2744
iter:  30 08:49:25  -867.251453c -4.30  -2.73    +79.1025
iter:  31 08:50:20  -867.283825c -4.35  -2.76    +78.8969
iter:  32 08:51:16  -867.322391c -4.31  -2.79    +78.6959
iter:  33 08:52:14  -867.330174c -4.37  -2.79    +78.4821
iter:  34 08:53:11  -867.361151c -4.36  -2.88    +78.3450
iter:  35 08:54:08  -867.380529c -4.46  -2.90    +78.1398
iter:  36 08:55:05  -867.396057c -4.61  -2.93    +78.0349
iter:  37 08:56:03  -867.416668c -4.57  -2.97    +77.9327
iter:  38 08:57:00  -867.448405c -4.40  -3.01    +77.7728
iter:  39 08:57:57  -867.452066c -4.59  -3.00    +77.6804
iter:  40 08:58:57  -867.478418c -4.54  -3.09    +77.5379
iter:  41 08:59:53  -867.478580c -4.78  -3.09    +77.5170
iter:  42 09:00:47  -867.492835c -4.75  -3.13    +77.4096
iter:  43 09:01:43  -867.505552c -4.79  -3.15    +77.2948
iter:  44 09:02:40  -867.520694c -4.73  -3.22    +77.2132
iter:  45 09:03:39  -867.524317c -4.91  -3.19    +77.1106
iter:  46 09:04:35  -867.532577c -4.98  -3.27    +77.0425
iter:  47 09:05:34  -867.544760c -4.90  -3.35    +76.9204
iter:  48 09:06:30  -867.550240c -5.12  -3.36    +76.8904
iter:  49 09:07:28  -867.561551c -4.94  -3.39    +76.8090
iter:  50 09:08:27  -867.575945c -4.74  -3.40    +76.7251
iter:  51 09:09:25  -867.601655c -4.39  -3.38    +76.6514
iter:  52 09:10:21  -867.590242c -5.41  -3.25    +76.7118
iter:  53 09:11:19  -867.614663c -4.57  -3.28    +76.6854
iter:  54 09:12:18  -867.611662c -5.37  -3.19    +76.7536
iter:  55 09:13:16  -867.621072c -5.17  -3.24    +76.7312
iter:  56 09:14:12  -867.627694c -5.26  -3.20    +76.8190
iter:  57 09:15:11  -867.625054c -5.63  -3.19    +76.7994
iter:  58 09:16:09  -867.635171c -4.68  -3.23    +76.8535
iter:  59 09:17:08  -867.630752c -5.30  -3.11    +76.8473
iter:  60 09:18:05  -867.634786c -4.82  -3.23    +76.8464
iter:  61 09:19:03  -867.637925c -5.06  -3.19    +76.8323
iter:  62 09:20:00  -867.637434c -5.13  -3.22    +76.8111
iter:  63 09:20:58  -867.639800c -5.03  -3.32    +76.8500
iter:  64 09:21:57  -867.643138c -5.29  -3.38    +76.8955
iter:  65 09:22:55  -867.648018c -5.33  -3.39    +76.9541
iter:  66 09:23:53  -867.648940c -5.69  -3.42    +76.9852
iter:  67 09:24:52  -867.656011c -5.31  -3.44    +77.0666
iter:  68 09:25:50  -867.658556c -5.53  -3.47    +77.1054
iter:  69 09:26:49  -867.663064c -5.32  -3.47    +77.1817
iter:  70 09:27:47  -867.667134c -5.38  -3.52    +77.2416
iter:  71 09:28:46  -867.671688c -5.34  -3.53    +77.2840
iter:  72 09:29:45  -867.672784c -5.53  -3.53    +77.3572
iter:  73 09:30:42  -867.679205c -5.36  -3.65    +77.4376
iter:  74 09:31:40  -867.684365c -5.39  -3.65    +77.5190
iter:  75 09:32:39  -867.701866c -4.57  -3.65    +77.7979
iter:  76 09:33:36  -867.721354c -4.06  -3.51    +78.3177
iter:  77 09:34:34  -867.720418c -5.13  -3.35    +78.2926
iter:  78 09:35:31  -867.720065c -5.46  -3.38    +78.2953
iter:  79 09:36:30  -867.722206c -5.66  -3.38    +78.3164
iter:  80 09:37:27  -867.723129c -5.64  -3.35    +78.3256
iter:  81 09:38:25  -867.720136c -4.65  -3.34    +78.3285
iter:  82 09:39:22  -867.715530c -4.85  -3.22    +78.3135
iter:  83 09:40:22  -867.713733c -5.56  -3.32    +78.2593
iter:  84 09:41:21  -867.712457c -5.56  -3.40    +78.2294
iter:  85 09:42:21  -867.716254c -5.11  -3.38    +78.1954
iter:  86 09:43:20  -867.713205c -5.33  -3.36    +78.1788
iter:  87 09:44:17  -867.714289c -5.21  -3.45    +78.1325
iter:  88 09:45:16  -867.709936c -5.39  -3.42    +78.1360
iter:  89 09:46:15  -867.713332c -5.40  -3.71    +78.0940
iter:  90 09:47:12  -867.712550c -5.48  -3.54    +78.0888
iter:  91 09:48:07  -867.709945c -5.81  -3.64    +78.0888
iter:  92 09:49:05  -867.710230c -6.03  -3.78    +78.0739
iter:  93 09:50:03  -867.710098c -6.12  -3.80    +78.0644
iter:  94 09:51:01  -867.709849c -6.48  -3.87    +78.0382
iter:  95 09:51:59  -867.709547c -6.74  -4.02c   +78.0297
iter:  96 09:52:58  -867.709509c -6.56  -3.99    +78.0244
iter:  97 09:53:56  -867.710231c -6.51  -3.99    +78.0177
iter:  98 09:54:54  -867.710071c -6.21  -3.97    +78.0136
iter:  99 09:55:53  -867.709742c -6.34  -3.93    +78.0088
iter: 100 09:56:50  -867.709362c -6.35  -4.06c   +78.0106
iter: 101 09:57:48  -867.709718c -6.71  -4.05c   +78.0030
iter: 102 09:58:46  -867.709644c -6.84  -4.16c   +77.9978
iter: 103 09:59:42  -867.709188c -7.04  -4.24c   +77.9937
iter: 104 10:00:42  -867.709302c -7.21  -4.28c   +77.9892
iter: 105 10:01:40  -867.709301c -7.32  -4.32c   +77.9868
iter: 106 10:02:36  -867.709617c -6.84  -4.39c   +77.9837
iter: 107 10:03:34  -867.709213c -7.07  -4.21c   +77.9843
iter: 108 10:04:32  -867.709169c -7.19  -4.39c   +77.9820
iter: 109 10:05:29  -867.709497c -7.21  -4.43c   +77.9809
iter: 110 10:06:26  -867.709320c -7.40c -4.40c   +77.9811

Converged after 110 iterations.

Dipole moment: (0.156069, -0.111990, 0.008194) |e|*Ang

Total magnetic moment: (0.000000, 0.000000, 77.981129)
Local magnetic moments:
   0 Cr ( 0.000000,  0.000000, -1.737057)
   1 Al ( 0.000000,  0.000000, -0.040398)
   2 Cr ( 0.000000,  0.000000, -1.668347)
   3 Co ( 0.000000,  0.000000,  0.974690)
   4 Fe ( 0.000000,  0.000000,  2.081239)
   5 Cr ( 0.000000,  0.000000, -0.835111)
   6 Ni ( 0.000000,  0.000000,  0.228765)
   7 Fe ( 0.000000,  0.000000,  2.280928)
   8 Cr ( 0.000000,  0.000000, -1.627901)
   9 Co ( 0.000000,  0.000000,  1.345927)
  10 Ni ( 0.000000,  0.000000,  0.234010)
  11 Fe ( 0.000000,  0.000000,  2.492243)
  12 Co ( 0.000000,  0.000000,  1.551024)
  13 Co ( 0.000000,  0.000000,  1.272569)
  14 Fe ( 0.000000,  0.000000,  2.322888)
  15 Fe ( 0.000000,  0.000000,  2.606936)
  16 Fe ( 0.000000,  0.000000,  2.404327)
  17 Fe ( 0.000000,  0.000000,  2.328735)
  18 Cr ( 0.000000,  0.000000, -1.433316)
  19 Co ( 0.000000,  0.000000,  1.458510)
  20 Fe ( 0.000000,  0.000000,  2.562225)
  21 Ni ( 0.000000,  0.000000,  0.284926)
  22 Co ( 0.000000,  0.000000,  1.502806)
  23 Cr ( 0.000000,  0.000000, -1.809883)
  24 Cr ( 0.000000,  0.000000, -1.790491)
  25 Ni ( 0.000000,  0.000000,  0.179733)
  26 Fe ( 0.000000,  0.000000,  2.574551)
  27 Ni ( 0.000000,  0.000000,  0.297084)
  28 Co ( 0.000000,  0.000000,  1.420313)
  29 Co ( 0.000000,  0.000000,  1.432265)
  30 Co ( 0.000000,  0.000000,  1.373950)
  31 Cr ( 0.000000,  0.000000,  1.511853)
  32 Al ( 0.000000,  0.000000, -0.017711)
  33 Cr ( 0.000000,  0.000000, -1.882443)
  34 Cr ( 0.000000,  0.000000,  1.647263)
  35 Cr ( 0.000000,  0.000000,  1.441125)
  36 Fe ( 0.000000,  0.000000,  2.498273)
  37 Co ( 0.000000,  0.000000,  1.270655)
  38 Cr ( 0.000000,  0.000000, -1.884608)
  39 Fe ( 0.000000,  0.000000,  2.243652)
  40 Co ( 0.000000,  0.000000,  1.308568)
  41 Ni ( 0.000000,  0.000000,  0.167268)
  42 Ni ( 0.000000,  0.000000,  0.302910)
  43 Al ( 0.000000,  0.000000, -0.022857)
  44 Fe ( 0.000000,  0.000000,  2.486746)
  45 Co ( 0.000000,  0.000000,  1.346420)
  46 Fe ( 0.000000,  0.000000,  2.252019)
  47 Ni ( 0.000000,  0.000000,  0.568582)
  48 Fe ( 0.000000,  0.000000,  2.599093)
  49 Fe ( 0.000000,  0.000000,  2.547467)
  50 Ni ( 0.000000,  0.000000,  0.468844)
  51 Ni ( 0.000000,  0.000000,  0.465016)
  52 Cr ( 0.000000,  0.000000, -1.128056)
  53 Co ( 0.000000,  0.000000,  1.554940)
  54 Fe ( 0.000000,  0.000000,  2.439468)
  55 Cr ( 0.000000,  0.000000, -2.015048)
  56 Co ( 0.000000,  0.000000,  1.446802)
  57 Fe ( 0.000000,  0.000000,  2.579138)
  58 Ni ( 0.000000,  0.000000,  0.440056)
  59 Fe ( 0.000000,  0.000000,  2.508505)
[...]
  93 Ni ( 0.000000,  0.000000,  0.202793)
  94 Co ( 0.000000,  0.000000,  1.453597)
  95 Cr ( 0.000000,  0.000000, -2.362789)
  96 Fe ( 0.000000,  0.000000,  2.541296)
  97 Ni ( 0.000000,  0.000000,  0.284826)
  98 Ni ( 0.000000,  0.000000,  0.475385)
  99 Fe ( 0.000000,  0.000000,  2.270174)
 100 Ni ( 0.000000,  0.000000,  0.464497)
 101 Cr ( 0.000000,  0.000000, -1.786594)
 102 Cr ( 0.000000,  0.000000, -1.803391)
 103 Cr ( 0.000000,  0.000000,  1.572578)
 104 Co ( 0.000000,  0.000000,  1.183630)
 105 Fe ( 0.000000,  0.000000,  1.790353)
 106 Cr ( 0.000000,  0.000000,  1.484879)
 107 Ni ( 0.000000,  0.000000,  0.239152)

Energy contributions relative to reference atoms: (reference = -3699400.456887)

Kinetic:        -54.472490
Potential:      -35.120390
External:        +0.000000
XC:            -812.522560
Entropy (-ST):   -4.571885
Local:          +36.692063
Free energy:   -869.995262
Extrapolated:  -867.709320

Spin contamination: 40.073196 electrons
Showing only first 2 kpts
                      Up                     Down
 Kpt  Band  Eigenvalues  Occupancy  Eigenvalues  Occupancy
  0   508      8.54859    0.99870      9.62140    0.01661
  0   509      8.56555    0.99846      9.64524    0.01313
  0   510      8.57464    0.99832      9.65697    0.01170
  0   511      8.59465    0.99795      9.66449    0.01086

  1   508      8.54302    0.99877      9.61930    0.01696
  1   509      8.55311    0.99864      9.63502    0.01453
  1   510      8.57848    0.99825      9.63817    0.01408
  1   511      8.59503    0.99794      9.65890    0.01148

Fermi level: 9.21330

No gap

Forces in eV/Ang:
  0 Cr   -0.06144   -0.43254   -0.86424
  1 Al   -0.38019    0.46666    0.12354
  2 Cr    0.70061   -0.61682    0.11074
  3 Co    0.35064    0.00973   -0.08386
  4 Fe   -0.39673    0.21957    0.31241
  5 Cr   -0.37195    0.09864   -0.50478
  6 Ni   -0.12909    0.08617   -0.10053
  7 Fe    0.15702   -0.06710    0.20581
  8 Cr    0.49309    0.15571    0.10488
  9 Co    0.28013    0.03142   -0.08206
 10 Ni   -0.17181   -0.07601    0.03859
 11 Fe   -0.35418   -0.13716   -0.10018
 12 Co   -0.05112    0.27207   -0.27680
 13 Co    0.12325   -0.27255    0.05068
 14 Fe    0.15009    0.24369   -0.10640
 15 Fe   -0.15430    0.06637   -0.44638
 16 Fe    0.18657    0.04032   -0.33913
 17 Fe    0.24258    0.10868    0.28934
 18 Cr    0.02892    0.20601   -0.38197
 19 Co   -0.52661   -0.10402    0.05149
 20 Fe   -0.06798    0.29406   -0.03246
 21 Ni   -0.01575   -0.09228    0.22828
 22 Co   -0.15521    0.20988    0.02807
 23 Cr    0.44761   -0.77258   -0.07596
 24 Cr    0.19333    0.33904   -0.04912
 25 Ni    0.05127    0.15705   -0.04999
 26 Fe   -0.03357    0.10651    0.24978
 27 Ni   -0.00040    0.05820    0.03491
 28 Co    0.06239   -0.22988    0.04241
 29 Co   -0.16971    0.08438    0.13986
 30 Co   -0.16386   -0.16755    0.20628
 31 Cr   -0.38637    0.07156    0.57331
 32 Al   -0.46822   -0.69328    0.10212
 33 Cr    0.00580    0.15898    0.79005
 34 Cr    0.17512   -0.38845    0.06045
 35 Cr    0.36648    0.83771    0.05890
 36 Fe    0.09302   -0.18092    0.35033
 37 Co   -0.07705    0.22367   -0.03176
 38 Cr   -0.00059   -0.30454   -0.25732
 39 Fe    0.43828   -0.06740    0.36165
 40 Co   -0.26775   -0.28907   -0.05711
 41 Ni   -0.06263    0.13436    0.07652
 42 Ni   -0.08213    0.09666    0.12469
 43 Al    0.34531   -0.62601    0.39985
 44 Fe    0.39580    0.29464   -0.30974
 45 Co    0.12374    0.16852    0.03770
 46 Fe    0.02859    0.21893    0.05606
 47 Ni   -0.20482    0.00122    0.08085
 48 Fe   -0.12907    0.08541    0.35080
 49 Fe    0.10169   -0.26117    0.17603
 50 Ni    0.13451    0.09005    0.07328
 51 Ni    0.26232   -0.09445    0.00807
 52 Cr   -0.76142    0.23401   -0.07207
 53 Co   -0.03972   -0.04644   -0.05974
 54 Fe   -0.11430    0.00416    0.34068
 55 Cr    0.12011    0.31580    0.02175
 56 Co    0.19319    0.06800    0.01538
 57 Fe    0.00316    0.19920    0.18763
 58 Ni   -0.07518   -0.12627   -0.07016
 59 Fe   -0.09134   -0.16929   -0.08665
[...]
 93 Ni   -0.09085    0.01877   -0.05261
 94 Co    0.04585   -0.13858    0.04789
 95 Cr   -0.00409   -0.10998    0.14059
 96 Fe    0.16697    0.07484   -0.19289
 97 Ni    0.05792    0.11446   -0.04646
 98 Ni    0.08592   -0.11091   -0.07452
 99 Fe    0.38587   -0.18320    0.10466
100 Ni   -0.03486   -0.04921    0.02118
101 Cr   -0.88263   -0.13694    0.03497
102 Cr    0.06196   -0.26480   -0.59782
103 Cr   -0.53371   -0.32921   -0.09680
104 Co   -0.19423   -0.23689    0.36501
105 Fe    0.46353    0.06063   -0.52775
106 Cr    0.20071   -0.13872   -0.24659
107 Ni    0.06389    0.09322    0.14867

Date: Sat Apr  8 10:06:40 2023