User:   c.zeng@d0068
Date:   Fri Apr 14 00:34:24 2023
Arch:   x86_64
Pid:    257658
CWD:    /home/c.zeng/projects/hea-corrosion/hea-mlp/data-curation/bulk-md/dft-jobs/66
Python: 3.8.1
gpaw:   /home/c.zeng/usr/installs/gpaw/source/gpaw-22.8.0/gpaw
_gpaw:  /home/c.zeng/usr/installs/gpaw/source/gpaw-22.8.0/
        _gpaw.cpython-38-x86_64-linux-gnu.so
ase:    /home/c.zeng/.local/lib/python3.8/site-packages/ase-3.22.1-py3.8.egg/ase (version 3.22.1)
numpy:  /shared/centos7/python/3.8.1/lib/python3.8/site-packages/numpy (version 1.17.4)
scipy:  /shared/centos7/python/3.8.1/lib/python3.8/site-packages/scipy (version 1.4.1)
units:  Angstrom and eV
cores: 30
OpenMP: False
OMP_NUM_THREADS: 1

Input parameters:
  convergence: {energy: 0.0001}
  kpts: [2 2 2]
  maxiter: 666
  mode: {ecut: 350.0,
         name: pw}
  occupations: {fixmagmom: False,
                name: fermi-dirac,
                width: 0.1}
  spinpol: True
  xc: PBE

System changes: positions, numbers, cell, pbc, initial_charges, initial_magmoms

Initialize ...

species:
  Fe:
    name: Iron
    id: 37abbd8d6c3c35915a9b583b742da910
    Z: 26.0
    valence: 8
    core: 18
    charge: 0.0
    file: /home/c.zeng/usr/data/gpaw-setups-0.9.20000/Fe.PBE.gz
    compensation charges: {type: gauss,
                           rc: 0.33,
                           lmax: 2}
    cutoffs: {filter: 2.06,
              core: 2.67}
    valence states:
      #              energy  rcut
      - 4s(2.00)    -5.291   1.164
      - 4p(0.00)    -1.326   1.058
      - 3d(6.00)    -7.505   1.058
      -  s          21.920   1.164
      -  p          25.885   1.058
      -  d          19.706   1.058

    # Using partial waves for Fe as LCAO basis

  Cr:
    name: Chromium
    id: 33f258bda2ca9f93018e70263a35547b
    Z: 24.0
    valence: 6
    core: 18
    charge: 0.0
    file: /home/c.zeng/usr/data/gpaw-setups-0.9.20000/Cr.PBE.gz
    compensation charges: {type: gauss,
                           rc: 0.35,
                           lmax: 2}
    cutoffs: {filter: 2.14,
              core: 3.04}
    valence states:
      #              energy  rcut
      - 4s(1.00)    -4.007   1.164
      - 4p(0.00)    -0.989   1.217
      - 3d(5.00)    -2.913   1.111
      -  s          23.205   1.164
      -  p          26.223   1.217
      -  d          24.299   1.111

[...]

  Ni:
    name: Nickel
    id: 0d9f38a9d6e76a2886f07bb4381f212b
    Z: 28.0
    valence: 16
    core: 12
    charge: 0.0
    file: /home/c.zeng/usr/data/gpaw-setups-0.9.20000/Ni.PBE.gz
    compensation charges: {type: gauss,
                           rc: 0.36,
                           lmax: 2}
    cutoffs: {filter: 2.14,
              core: 1.98}
    valence states:
      #              energy  rcut
      - 4s(2.00)    -5.642   1.164
      - 3p(6.00)   -71.394   1.207
      - 4p(0.00)    -1.226   1.207
      - 3d(8.00)    -8.875   1.138
      -  s          21.570   1.164
      -  d          18.337   1.138

[...]

  Al:
    name: Aluminium
    id: 0292cae29f5d6237e50f6abdd43a7bdd
    Z: 13.0
    valence: 3
    core: 10
    charge: 0.0
    file: /home/c.zeng/usr/data/gpaw-setups-0.9.20000/Al.PBE.gz
    compensation charges: {type: gauss,
                           rc: 0.34,
                           lmax: 2}
    cutoffs: {filter: 1.91,
              core: 2.36}
    valence states:
      #              energy  rcut
      - 3s(2.00)    -7.753   1.085
      - 3p(1.00)    -2.712   1.085
      -  s          19.459   1.085
      -  p          24.499   1.085
      -  d           0.000   1.085

[...]

  Co:
    name: Cobalt
    id: 339d20d5b0b93d2de9531a1bee871d91
    Z: 27.0
    valence: 9
    core: 18
    charge: 0.0
    file: /home/c.zeng/usr/data/gpaw-setups-0.9.20000/Co.PBE.gz
    compensation charges: {type: gauss,
                           rc: 0.32,
                           lmax: 2}
    cutoffs: {filter: 1.87,
              core: 2.55}
    valence states:
      #              energy  rcut
      - 4s(2.00)    -5.469   1.005
      - 4p(0.00)    -1.277   1.058
      - 3d(7.00)    -8.205   1.005
      -  s          21.742   1.005
      -  p          25.934   1.058
      -  d          19.007   1.005

    # Using partial waves for Co as LCAO basis

Reference energy: -3382523.201499  # eV

Spin-polarized calculation.
Magnetic moment: 128.800000

Convergence criteria:
 Maximum [total energy] change in last 3 cyles: 0.0001 eV / electron
 Maximum integral of absolute [dens]ity change: 0.0001 electrons / valence electron
 Maximum integral of absolute [eigenst]ate change: 4e-08 eV^2 / valence electron
 Maximum number of scf [iter]ations: 666
 (Square brackets indicate name in SCF output, whereas a 'c' in
 the SCF output indicates the quantity has converged.)

Symmetries present (total): 1

  ( 1  0  0)
  ( 0  1  0)
  ( 0  0  1)

8 k-points: 2 x 2 x 2 Monkhorst-Pack grid
4 k-points in the irreducible part of the Brillouin zone
       k-points in crystal coordinates                weights
   0:     0.25000000   -0.25000000   -0.25000000          2/8
   1:     0.25000000   -0.25000000    0.25000000          2/8
   2:     0.25000000    0.25000000   -0.25000000          2/8
   3:     0.25000000    0.25000000    0.25000000          2/8

Wave functions: Plane wave expansion
  Cutoff energy: 350.000 eV
  Number of coefficients (min, max): 18865, 18865
  Pulay-stress correction: 0.000000 eV/Ang^3 (de/decut=0.000000)
  Using FFTW library
  ScaLapack parameters: grid=1x1, blocksize=None
  Wavefunction extrapolation:
    Improved wavefunction reuse through dual PAW basis

Occupation numbers: Fermi-Dirac:
  width: 0.1000  # eV

Eigensolver
   Davidson(niter=2)

Densities:
  Coarse grid: 48*48*48 grid
  Fine grid: 96*96*96 grid
  Total Charge: 0.000000

Density mixing:
  Method: difference
  Backend: pulay
  Linear mixing parameter: 0.05
  old densities: 5
  Damping of long wavelength oscillations: 50

Hamiltonian:
  XC and Coulomb potentials evaluated on a 96*96*96 grid
  Using the PBE Exchange-Correlation functional
  External potential:
    NoExternalPotential

XC parameters: PBE with 2 nearest neighbor stencil

Total number of cores used: 30
Parallelization over k-points: 2
Domain decomposition: 5 x 3 x 1

Number of atoms: 108
Number of atomic orbitals: 961
Number of bands in calculation: 649
Number of valence electrons: 945
Bands to converge: occupied

... initialized

Initializing position-dependent things.

Density initialized from atomic densities
Creating initial wave functions:
  649 bands from LCAO basis set

      Ni|      Cr   FeCrNi   NiNi  |
     / Fe                          |
    /   |Cro    Al       NioCo     |
   /    |  NCo      Cr        Ni   |
  /     |     Fe     CCr       Fe  |
 *      CoAl   CrNi      Fe     NiCo
 |      |CrFe     CoAl   FeCrCo    |
 |   Co | ANi    FeAl Al    CrNi   |
 |    Co|  NiFe     NiNi Ni  CrCr  |
 |    FeCoFeNi AFe   Ni AlCoFe Ni  |
 | Co   Al Al   CrFe     CrCo      |
 |  NiCo.-Cr-------FCoNiCoAl-Co---Fe
 |     /   AAl Fei    Fe Ni       /
 Ni  CrCr    Cr            Co    /
 |   /  Fe       CCr       Al   /
 | Cr      Fe        Co        /
 | /            Al    Cr      /
 |/    Cr                Co  /

Positions:
   0 Fe    10.583806   10.567073   10.953976    ( 0.0000,  0.0000,  2.0000)
   1 Cr    11.087148    1.665515    1.857958    ( 0.0000,  0.0000,  0.0000)
   2 Ni     1.778190   -0.168318    1.660839    ( 0.0000,  0.0000,  1.5000)
   3 Cr     1.795558    1.729417   10.860022    ( 0.0000,  0.0000,  0.0000)
   4 Al     3.637864    0.086756   -0.254601    ( 0.0000,  0.0000,  0.0000)
   5 Fe     3.464966    1.745927    1.746602    ( 0.0000,  0.0000,  2.0000)
   6 Ni     5.294328   10.766320    1.849685    ( 0.0000,  0.0000,  1.5000)
   7 Al     5.510588    2.009928    0.212918    ( 0.0000,  0.0000,  0.0000)
   8 Al     7.404769   10.537356    0.412342    ( 0.0000,  0.0000,  0.0000)
   9 Co     7.526435    1.877486    1.836967    ( 0.0000,  0.0000,  2.1000)
  10 Ni     9.177533   -0.097767    1.962699    ( 0.0000,  0.0000,  1.5000)
  11 Co     8.972423    1.836121    0.056254    ( 0.0000,  0.0000,  2.1000)
  12 Ni    -0.167179    3.586567   10.680738    ( 0.0000,  0.0000,  1.5000)
  13 Cr    10.952457    5.324376    1.626791    ( 0.0000,  0.0000,  0.0000)
  14 Fe     1.805637    3.334129    1.777963    ( 0.0000,  0.0000,  2.0000)
  15 Cr     1.902643    5.206390   10.813445    ( 0.0000,  0.0000,  0.0000)
  16 Co     3.580601    3.625950   10.791675    ( 0.0000,  0.0000,  2.1000)
  17 Cr     3.535139    5.254896    1.702794    ( 0.0000,  0.0000,  0.0000)
  18 Co     5.279734    3.747587    1.612663    ( 0.0000,  0.0000,  2.1000)
  19 Fe     5.434807    5.657314    0.112051    ( 0.0000,  0.0000,  2.0000)
  20 Cr     7.419142    3.713565    0.079299    ( 0.0000,  0.0000,  0.0000)
  21 Fe     7.122423    5.497243    1.892376    ( 0.0000,  0.0000,  2.0000)
  22 Co     9.407460    3.528255    1.914513    ( 0.0000,  0.0000,  2.1000)
  23 Al     8.861845    5.564934   10.992385    ( 0.0000,  0.0000,  0.0000)
  24 Ni    10.864975    7.223611   10.808394    ( 0.0000,  0.0000,  1.5000)
  25 Cr    11.074099    9.067947    2.238900    ( 0.0000,  0.0000,  0.0000)
  26 Cr     1.629522    7.164426    1.780452    ( 0.0000,  0.0000,  0.0000)
  27 Al     1.713137    8.857378    0.112130    ( 0.0000,  0.0000,  0.0000)
  28 Cr     3.532199    7.247246   -0.136032    ( 0.0000,  0.0000,  0.0000)
  29 Cr     3.520324    8.907482    1.809596    ( 0.0000,  0.0000,  0.0000)
  30 Fe     5.215501    7.233623    1.824307    ( 0.0000,  0.0000,  2.0000)
  31 Fe     5.280704    9.010209   -0.308519    ( 0.0000,  0.0000,  2.0000)
  32 Ni     7.165720    7.241481   -0.015327    ( 0.0000,  0.0000,  1.5000)
  33 Cr     7.070739    9.124474    1.889216    ( 0.0000,  0.0000,  0.0000)
  34 Co     9.151307    7.398679    1.662589    ( 0.0000,  0.0000,  2.1000)
  35 Ni     9.006352    8.911781   10.545438    ( 0.0000,  0.0000,  1.5000)
  36 Ni     0.119200   10.909410    3.903342    ( 0.0000,  0.0000,  1.5000)
  37 Co    10.946640    1.912536    5.445009    ( 0.0000,  0.0000,  2.1000)
  38 Co     1.951516   10.845670    5.427144    ( 0.0000,  0.0000,  2.1000)
  39 Cr     1.720047    1.882000    3.559813    ( 0.0000,  0.0000,  0.0000)
  40 Fe     3.553648   10.593099    3.448586    ( 0.0000,  0.0000,  2.0000)
  41 Al     3.488277    1.793591    5.354613    ( 0.0000,  0.0000,  0.0000)
  42 Fe     5.461029   10.921565    5.237022    ( 0.0000,  0.0000,  2.0000)
  43 Ni     5.338836    1.988917    3.592839    ( 0.0000,  0.0000,  1.5000)
  44 Cr     6.954811    0.071063    3.487932    ( 0.0000,  0.0000,  0.0000)
  45 Co     7.314107    1.680332    5.174838    ( 0.0000,  0.0000,  2.1000)
  46 Co     9.192066   11.008419    5.397464    ( 0.0000,  0.0000,  2.1000)
  47 Ni     9.150784    1.834570    3.670047    ( 0.0000,  0.0000,  1.5000)
  48 Ni    10.913747    3.623690    3.627733    ( 0.0000,  0.0000,  1.5000)
  49 Cr    10.397216    5.509133    5.406196    ( 0.0000,  0.0000,  0.0000)
  50 Co     1.932311    3.749949    5.255250    ( 0.0000,  0.0000,  2.1000)
  51 Al     1.541803    5.380611    3.378956    ( 0.0000,  0.0000,  0.0000)
  52 Al     3.714802    3.396533    3.428139    ( 0.0000,  0.0000,  0.0000)
[...]
iter:  81 03:38:51  -808.232435c -6.01  -4.21c   +64.6463
iter:  82 03:41:01  -808.222560c -4.33  -4.13c   +64.6671
iter:  83 03:43:12  -808.213830c -4.07  -3.96    +64.6782
iter:  84 03:45:51  -808.213438c -4.89  -3.61    +64.6695
iter:  85 03:48:47  -808.212567c -5.12  -3.58    +64.6475
iter:  86 03:50:58  -808.211982c -5.05  -3.53    +64.6319
iter:  87 03:53:09  -808.212312c -5.08  -3.49    +64.6399
iter:  88 03:55:21  -808.210871c -5.13  -3.45    +64.6718
iter:  89 03:57:31  -808.212301c -5.26  -3.45    +64.6556
iter:  90 03:59:42  -808.214462c -5.29  -3.39    +64.7307
iter:  91 04:01:53  -808.211877c -5.52  -3.40    +64.7363
iter:  92 04:04:04  -808.213817c -5.00  -3.49    +64.7747
iter:  93 04:06:14  -808.211103c -5.43  -3.50    +64.7940
iter:  94 04:08:25  -808.211145c -5.88  -3.60    +64.8094
iter:  95 04:10:36  -808.211580c -6.00  -3.75    +64.8204
iter:  96 04:12:47  -808.212565c -5.78  -3.76    +64.8460
iter:  97 04:14:56  -808.212216c -5.99  -3.80    +64.8499
iter:  98 04:17:07  -808.212501c -6.02  -3.94    +64.8595
iter:  99 04:19:45  -808.213382c -6.14  -3.94    +64.8761
iter: 100 04:22:42  -808.213471c -6.30  -4.03c   +64.8901
iter: 101 04:24:53  -808.214130c -6.16  -4.08c   +64.9078
iter: 102 04:27:04  -808.214643c -6.30  -4.12c   +64.9164
iter: 103 04:29:15  -808.215376c -6.16  -4.14c   +64.9300
iter: 104 04:31:26  -808.210335c -4.75  -4.07c   +64.8296
iter: 105 04:33:35  -808.211854c -6.30  -4.06c   +64.8639
iter: 106 04:35:46  -808.211006c -6.29  -4.21c   +64.8498
iter: 107 04:37:57  -808.212516c -5.79  -4.15c   +64.8837
iter: 108 04:40:46  -808.211183c -6.04  -4.27c   +64.8525
iter: 109 04:43:32  -808.214227c -5.27  -4.28c   +64.9250
iter: 110 04:45:42  -808.217425c -4.98  -4.21c   +64.9932
iter: 111 04:47:53  -808.218557c -5.48  -3.94    +65.0112
iter: 112 04:50:04  -808.210207c -4.35  -3.87    +64.8589
iter: 113 04:52:16  -808.208776c -4.98  -4.10c   +64.8305
iter: 114 04:54:26  -808.211817c -5.29  -3.98    +64.8917
iter: 115 04:56:37  -808.209956c -5.69  -4.32c   +64.8528
iter: 116 04:58:48  -808.211296c -5.95  -4.09c   +64.8792
iter: 117 05:00:59  -808.211892c -6.14  -4.30c   +64.8935
iter: 118 05:03:09  -808.212978c -5.86  -4.39c   +64.9175
iter: 119 05:05:20  -808.213415c -6.28  -4.59c   +64.9275
iter: 120 05:07:30  -808.213847c -6.38  -4.56c   +64.9377
iter: 121 05:09:40  -808.213784c -7.35  -4.51c   +64.9351
iter: 122 05:11:50  -808.214184c -6.68  -4.54c   +64.9359
iter: 123 05:13:59  -808.212136c -5.31  -4.44c   +64.9337
iter: 124 05:16:10  -808.212161c -6.49  -4.37c   +64.9313
iter: 125 05:18:20  -808.212472c -6.94  -4.40c   +64.9348
iter: 126 05:20:29  -808.212697c -7.00  -4.48c   +64.9344
iter: 127 05:23:00  -808.213020c -6.79  -4.57c   +64.9380
iter: 128 05:26:02  -808.213153c -7.04  -4.67c   +64.9410
iter: 129 05:28:13  -808.213792c -6.27  -4.79c   +64.9509
iter: 130 05:30:24  -808.213788c -7.26  -4.59c   +64.9491
iter: 131 05:32:34  -808.214310c -6.48  -4.65c   +64.9587
iter: 132 05:34:45  -808.214909c -6.28  -4.49c   +64.9693
iter: 133 05:36:55  -808.209074c -4.51  -4.35c   +64.8629
iter: 134 05:39:06  -808.210536c -6.03  -3.98    +64.8850
iter: 135 05:41:17  -808.210141c -6.47  -4.17c   +64.8761
iter: 136 05:43:28  -808.212669c -5.28  -4.13c   +64.9268
iter: 137 05:46:15  -808.207675c -4.72  -4.57c   +64.8208
iter: 138 05:49:02  -808.207872c -6.00  -3.89    +64.8247
iter: 139 05:51:12  -808.208886c -6.05  -3.93    +64.8483
iter: 140 05:53:23  -808.211462c -5.05  -3.99    +64.9113
iter: 141 05:55:34  -808.215876c -4.57  -4.21c   +65.0199
iter: 142 05:57:45  -808.219322c -4.63  -3.85    +65.1133
iter: 143 05:59:55  -808.215886c -5.05  -3.67    +65.0077
iter: 144 06:02:06  -808.216188c -6.48  -3.90    +65.0228
iter: 145 06:04:18  -808.216284c -6.96  -3.90    +65.0286
iter: 146 06:06:28  -808.216760c -6.09  -3.93    +65.0573
iter: 147 06:08:39  -808.216948c -6.61  -3.86    +65.0653
iter: 148 06:11:24  -808.217125c -5.75  -3.91    +65.0915
iter: 149 06:14:13  -808.217954c -6.14  -3.89    +65.0990
iter: 150 06:16:23  -808.217750c -6.40  -3.96    +65.1046
iter: 151 06:18:33  -808.218284c -6.34  -4.07c   +65.1182
iter: 152 06:20:45  -808.218587c -6.25  -4.06c   +65.1216
iter: 153 06:22:55  -808.218721c -6.78  -4.03c   +65.1266
iter: 154 06:25:06  -808.219366c -6.09  -4.05c   +65.1406
iter: 155 06:27:16  -808.218866c -6.71  -3.90    +65.1277
iter: 156 06:29:26  -808.219784c -5.94  -3.93    +65.1650
iter: 157 06:31:37  -808.219774c -6.38  -3.85    +65.1726
iter: 158 06:34:29  -808.219901c -6.53  -4.05c   +65.1685
iter: 159 06:37:10  -808.220220c -6.45  -4.08c   +65.1764
iter: 160 06:39:20  -808.220883c -6.17  -4.18c   +65.1770
iter: 161 06:41:30  -808.220538c -6.63  -4.06c   +65.1773
iter: 162 06:43:41  -808.220672c -6.51  -4.30c   +65.1789
iter: 163 06:45:52  -808.220945c -6.97  -4.28c   +65.1815
iter: 164 06:48:02  -808.221091c -6.70  -4.40c   +65.1812
iter: 165 06:50:12  -808.221196c -6.94  -4.40c   +65.1835
iter: 166 06:52:24  -808.221550c -6.41  -4.44c   +65.1878
iter: 167 06:54:34  -808.221555c -7.07  -4.39c   +65.1880
iter: 168 06:56:45  -808.221842c -6.70  -4.56c   +65.1893
iter: 169 06:58:56  -808.221394c -6.66  -4.55c   +65.1885
iter: 170 07:01:05  -808.220372c -5.58  -4.56c   +65.1834
iter: 171 07:03:16  -808.221150c -6.19  -4.32c   +65.1867
iter: 172 07:05:26  -808.220220c -5.84  -4.60c   +65.1820
iter: 173 07:07:37  -808.220309c -7.17  -4.35c   +65.1825
iter: 174 07:09:46  -808.220450c -7.36  -4.44c   +65.1846
iter: 175 07:11:56  -808.220618c -7.12  -4.55c   +65.1876
iter: 176 07:14:06  -808.219383c -5.62  -4.77c   +65.1630
iter: 177 07:16:52  -808.221794c -5.12  -4.36c   +65.2103
iter: 178 07:19:40  -808.221747c -6.40  -4.41c   +65.2078
iter: 179 07:21:50  -808.222124c -6.32  -4.45c   +65.2161
iter: 180 07:24:00  -808.223381c -5.56  -4.34c   +65.2388
iter: 181 07:26:11  -808.218651c -4.50  -4.09c   +65.1484
iter: 182 07:28:20  -808.218688c -5.65  -4.18c   +65.1495
iter: 183 07:30:30  -808.218912c -6.59  -4.17c   +65.1536
iter: 184 07:32:40  -808.219046c -6.98  -4.23c   +65.1592
iter: 185 07:34:51  -808.219797c -5.90  -4.28c   +65.1901
iter: 186 07:37:01  -808.222178c -4.88  -4.56c   +65.2799
iter: 187 07:39:11  -808.222268c -5.92  -4.21c   +65.2773
iter: 188 07:41:21  -808.222382c -6.42  -4.19c   +65.2886
iter: 189 07:43:32  -808.222682c -6.24  -4.15c   +65.3010
iter: 190 07:45:42  -808.221894c -5.75  -4.09c   +65.2601
iter: 191 07:47:52  -808.222703c -5.80  -4.31c   +65.2954
iter: 192 07:50:02  -808.222474c -6.63  -4.08c   +65.2746
iter: 193 07:52:12  -808.223026c -6.36  -4.19c   +65.2913
iter: 194 07:54:23  -808.223506c -6.19  -4.09c   +65.2965
iter: 195 07:56:33  -808.223350c -6.69  -3.99    +65.2935
iter: 196 07:58:43  -808.223769c -6.47  -4.03c   +65.2936
iter: 197 08:00:52  -808.223432c -6.87  -3.98    +65.2834
iter: 198 08:03:03  -808.223320c -6.09  -4.06c   +65.2823
iter: 199 08:05:13  -808.223369c -6.41  -3.94    +65.2832
iter: 200 08:08:08  -808.223524c -6.56  -4.08c   +65.2841
iter: 201 08:10:47  -808.223671c -6.77  -4.13c   +65.2787
iter: 202 08:12:57  -808.223687c -7.00  -4.18c   +65.2763
iter: 203 08:15:08  -808.223824c -6.96  -4.18c   +65.2753
iter: 204 08:17:18  -808.223011c -5.78  -4.15c   +65.2650
iter: 205 08:19:28  -808.223151c -6.87  -4.18c   +65.2712
iter: 206 08:21:38  -808.223192c -6.76  -4.24c   +65.2711
iter: 207 08:23:48  -808.223413c -6.88  -4.19c   +65.2687
iter: 208 08:26:00  -808.223332c -6.57  -4.28c   +65.2699
iter: 209 08:28:10  -808.223441c -6.83  -4.20c   +65.2687
iter: 210 08:30:20  -808.223460c -6.81  -4.35c   +65.2629
iter: 211 08:32:30  -808.223708c -7.06  -4.38c   +65.2675
iter: 212 08:34:40  -808.223796c -6.93  -4.40c   +65.2677
iter: 213 08:36:51  -808.223878c -6.90  -4.39c   +65.2667
iter: 214 08:39:00  -808.224192c -6.84  -4.52c   +65.2668
iter: 215 08:41:10  -808.224122c -7.05  -4.52c   +65.2652
iter: 216 08:43:20  -808.224234c -7.21  -4.50c   +65.2604
iter: 217 08:45:30  -808.224407c -6.80  -4.68c   +65.2568
iter: 218 08:47:39  -808.223950c -6.35  -4.64c   +65.2663
iter: 219 08:49:49  -808.222546c -5.01  -4.73c   +65.3124
iter: 220 08:51:58  -808.222035c -5.19  -4.29c   +65.3399
iter: 221 08:54:54  -808.221847c -5.30  -4.10c   +65.3670
iter: 222 08:57:31  -808.221873c -5.91  -3.99    +65.3788
iter: 223 08:59:41  -808.222002c -6.19  -3.96    +65.3946
iter: 224 09:01:51  -808.221936c -6.59  -3.94    +65.4015
iter: 225 09:04:02  -808.221966c -6.93  -3.94    +65.4039
iter: 226 09:06:12  -808.221907c -6.06  -3.96    +65.4087
iter: 227 09:08:22  -808.222059c -6.10  -3.91    +65.4070
iter: 228 09:10:31  -808.222201c -5.88  -3.88    +65.4100
iter: 229 09:12:41  -808.221174c -6.25  -3.81    +65.4029
iter: 230 09:15:18  -808.221747c -6.57  -4.06c   +65.4164
iter: 231 09:18:12  -808.221568c -6.81  -4.11c   +65.4160
iter: 232 09:20:22  -808.221567c -6.84  -4.18c   +65.4219
iter: 233 09:22:32  -808.221601c -6.83  -4.26c   +65.4211
iter: 234 09:24:43  -808.221715c -6.61  -4.19c   +65.4235
iter: 235 09:26:53  -808.221877c -6.70  -4.18c   +65.4288
iter: 236 09:29:03  -808.221489c -6.83  -4.27c   +65.4267
iter: 237 09:31:14  -808.221781c -6.73  -4.29c   +65.4318
iter: 238 09:33:24  -808.221788c -7.09  -4.30c   +65.4324
iter: 239 09:35:34  -808.221825c -7.15  -4.48c   +65.4356
iter: 240 09:37:44  -808.221822c -7.37  -4.53c   +65.4355
iter: 241 09:39:54  -808.221809c -7.33  -4.62c   +65.4359
iter: 242 09:42:03  -808.221937c -7.43c -4.56c   +65.4377

Converged after 242 iterations.

Dipole moment: (-4.118313, 20.760218, -4.717056) |e|*Ang

Total magnetic moment: (0.000000, 0.000000, 65.437704)
Local magnetic moments:
   0 Fe ( 0.000000,  0.000000,  2.396981)
   1 Cr ( 0.000000,  0.000000,  1.053421)
   2 Ni ( 0.000000,  0.000000,  0.004501)
   3 Cr ( 0.000000,  0.000000, -1.444027)
   4 Al ( 0.000000,  0.000000, -0.017624)
   5 Fe ( 0.000000,  0.000000,  1.878610)
   6 Ni ( 0.000000,  0.000000,  0.206753)
   7 Al ( 0.000000,  0.000000, -0.007422)
   8 Al ( 0.000000,  0.000000, -0.002522)
   9 Co ( 0.000000,  0.000000,  1.375296)
  10 Ni ( 0.000000,  0.000000,  0.263511)
  11 Co ( 0.000000,  0.000000,  1.073907)
  12 Ni ( 0.000000,  0.000000,  0.484573)
  13 Cr ( 0.000000,  0.000000,  1.052790)
  14 Fe ( 0.000000,  0.000000,  1.006028)
  15 Cr ( 0.000000,  0.000000, -0.917293)
  16 Co ( 0.000000,  0.000000,  0.463587)
  17 Cr ( 0.000000,  0.000000,  0.414209)
  18 Co ( 0.000000,  0.000000,  0.611129)
  19 Fe ( 0.000000,  0.000000,  1.528346)
  20 Cr ( 0.000000,  0.000000, -1.475707)
  21 Fe ( 0.000000,  0.000000,  2.266373)
  22 Co ( 0.000000,  0.000000,  1.187641)
  23 Al ( 0.000000,  0.000000, -0.027349)
  24 Ni ( 0.000000,  0.000000,  0.262365)
  25 Cr ( 0.000000,  0.000000,  0.858142)
  26 Cr ( 0.000000,  0.000000,  0.007646)
  27 Al ( 0.000000,  0.000000, -0.014027)
  28 Cr ( 0.000000,  0.000000, -1.226957)
  29 Cr ( 0.000000,  0.000000, -1.448778)
  30 Fe ( 0.000000,  0.000000,  1.547050)
  31 Fe ( 0.000000,  0.000000,  1.767090)
  32 Ni ( 0.000000,  0.000000,  0.307537)
  33 Cr ( 0.000000,  0.000000,  1.670233)
  34 Co ( 0.000000,  0.000000,  1.141030)
  35 Ni ( 0.000000,  0.000000,  0.428407)
  36 Ni ( 0.000000,  0.000000,  0.336907)
  37 Co ( 0.000000,  0.000000,  1.433494)
  38 Co ( 0.000000,  0.000000,  1.058058)
  39 Cr ( 0.000000,  0.000000, -1.136976)
  40 Fe ( 0.000000,  0.000000,  2.245766)
  41 Al ( 0.000000,  0.000000, -0.037520)
  42 Fe ( 0.000000,  0.000000,  1.892711)
  43 Ni ( 0.000000,  0.000000,  0.296930)
  44 Cr ( 0.000000,  0.000000, -1.504474)
  45 Co ( 0.000000,  0.000000,  1.498645)
  46 Co ( 0.000000,  0.000000,  1.532545)
  47 Ni ( 0.000000,  0.000000,  0.531216)
  48 Ni ( 0.000000,  0.000000,  0.226837)
  49 Cr ( 0.000000,  0.000000,  0.436708)
  50 Co ( 0.000000,  0.000000,  0.862942)
  51 Al ( 0.000000,  0.000000, -0.016116)
  52 Al ( 0.000000,  0.000000, -0.036648)
  53 Fe ( 0.000000,  0.000000,  1.962232)
  54 Fe ( 0.000000,  0.000000,  2.306776)
  55 Fe ( 0.000000,  0.000000,  2.161109)
  56 Ni ( 0.000000,  0.000000,  0.603476)
  57 Ni ( 0.000000,  0.000000,  0.191973)
  58 Co ( 0.000000,  0.000000,  1.226206)
  59 Co ( 0.000000,  0.000000,  1.232018)
[...]
  93 Cr ( 0.000000,  0.000000,  0.544222)
  94 Fe ( 0.000000,  0.000000,  1.890822)
  95 Cr ( 0.000000,  0.000000, -1.318589)
  96 Ni ( 0.000000,  0.000000,  0.057500)
  97 Fe ( 0.000000,  0.000000,  2.090347)
  98 Co ( 0.000000,  0.000000,  0.320693)
  99 Ni ( 0.000000,  0.000000,  0.335363)
 100 Cr ( 0.000000,  0.000000, -0.106032)
 101 Al ( 0.000000,  0.000000, -0.010454)
 102 Cr ( 0.000000,  0.000000, -0.138481)
 103 Co ( 0.000000,  0.000000,  0.767396)
 104 Al ( 0.000000,  0.000000, -0.024523)
 105 Ni ( 0.000000,  0.000000,  0.214686)
 106 Co ( 0.000000,  0.000000,  1.151141)
 107 Fe ( 0.000000,  0.000000,  2.131507)

Energy contributions relative to reference atoms: (reference = -3382523.201499)

Kinetic:       +427.966819
Potential:     -395.299172
External:        +0.000000
XC:            -872.041889
Entropy (-ST):   -4.238033
Local:          +33.271321
Free energy:   -810.340954
Extrapolated:  -808.221937

Spin contamination: 21.105905 electrons
Showing only first 2 kpts
                      Up                     Down
 Kpt  Band  Eigenvalues  Occupancy  Eigenvalues  Occupancy
  0   470      9.12296    0.99673     10.09665    0.01768
  0   471      9.13709    0.99623     10.09890    0.01729
  0   472      9.15904    0.99531     10.11266    0.01510
  0   473      9.16740    0.99491     10.11851    0.01426

  1   470      9.12453    0.99668     10.08950    0.01896
  1   471      9.14159    0.99606     10.09779    0.01748
  1   472      9.15447    0.99552     10.11405    0.01490
  1   473      9.16407    0.99507     10.13175    0.01251

Fermi level: 9.69489

No gap

Forces in eV/Ang:
  0 Fe    1.32217    1.25385   -0.80650
  1 Cr   -1.97576    0.16936   -0.33160
  2 Ni    0.90262    0.89769    0.73273
  3 Cr   -0.82726    0.54654   -0.84927
  4 Al    0.17678   -0.70287    0.71444
  5 Fe    0.73696   -1.06673   -0.21335
  6 Ni   -0.32283    0.75669   -1.12820
  7 Al   -0.87368   -1.20606   -0.27782
  8 Al    0.12562    3.87329   -4.46663
  9 Co   -1.00485    0.03869    0.48659
 10 Ni   -0.33501    0.45972    0.42675
 11 Co    0.98302   -0.57778    0.71644
 12 Ni    0.79300   -1.05022    1.02449
 13 Cr   -1.13928    0.43644   -1.01007
 14 Fe   -0.25321    1.94488   -0.93888
 15 Cr   -0.76285    0.99583   -0.15695
 16 Co    0.47561   -0.58858    0.19196
 17 Cr   -0.13463    1.60624   -0.61672
 18 Co    1.57432    0.34362    1.58296
 19 Fe   -0.77010   -0.96334   -0.07347
 20 Cr   -1.39511   -0.13129    0.81033
 21 Fe    0.18014   -0.18597   -0.28067
 22 Co   -2.04094   -0.00668   -0.96760
 23 Al    1.34611    0.30125   -0.87855
 24 Ni   -0.61550   -0.55117   -0.10279
 25 Cr   -1.71670   -0.78586   -1.43202
 26 Cr    0.85403    0.17430    1.15638
 27 Al   -0.17455    2.14921   -1.17226
 28 Cr    0.98012   -0.60194   -0.65384
 29 Cr    0.83248    0.49717   -0.31245
 30 Fe    1.04976    0.16866   -0.82902
 31 Fe    0.67748   -0.36028    1.30095
 32 Ni   -0.19530    1.01121    0.30066
 33 Cr   -0.21757   -4.06415    2.56306
 34 Co   -0.17847    0.38421    1.52428
 35 Ni   -0.72265   -0.12812    1.75168
 36 Ni    0.25299   -0.15949   -2.00728
 37 Co   -0.03457   -0.15680    0.09607
 38 Co   -0.72085   -0.57398    0.16675
 39 Cr   -0.16405   -1.40584    0.24874
 40 Fe   -0.84772    1.55928    0.88987
 41 Al    0.51284   -0.08489    1.30789
 42 Fe   -0.72416   -0.20734   -0.17651
 43 Ni    1.67194   -1.79901   -0.94497
 44 Cr    1.64357    0.00876   -0.27792
 45 Co   -0.54255    0.68622    0.98288
 46 Co   -1.28936   -0.50708    0.49052
 47 Ni    0.10461    0.04236   -0.62322
 48 Ni   -0.75466   -0.18627    0.71856
 49 Cr    0.27469   -1.46272   -0.00201
 50 Co   -0.69693   -0.19659    0.58861
 51 Al    2.30879   -0.76717    2.87315
 52 Al   -1.71906    2.71573    0.26644
 53 Fe   -0.32428   -0.15973   -0.75010
 54 Fe    0.96230    0.09676    1.27379
 55 Fe    0.21356    0.84739   -0.47699
 56 Ni    0.24239   -0.49033    0.16131
 57 Ni    0.56166    1.25697   -0.33986
 58 Co    1.41597    0.48334   -1.88758
 59 Co   -0.25167   -0.23314    0.18422
[...]
 93 Cr    1.23938    0.27127   -0.46252
 94 Fe    1.63620    0.62967    0.57294
 95 Cr    0.15156    0.31571   -0.18532
 96 Ni    1.11825    0.74695    1.31834
 97 Fe   -0.43485    0.33332   -0.97361
 98 Co    1.07698   -1.91885   -1.03102
 99 Ni    0.11873   -0.43749   -0.32238
100 Cr   -2.18739   -2.70977   -0.93651
101 Al   -1.00139    1.03155    2.27018
102 Cr   -0.89009    0.73291    0.70883
103 Co    0.22936   -1.16124    1.01202
104 Al   -2.94652   -0.77280    3.46028
105 Ni    0.35588    1.01565    1.44128
106 Co   -0.12104   -0.99719   -0.73488
107 Fe   -0.36150   -1.38976   -1.55437

Date: Fri Apr 14 09:42:26 2023