User:   c.zeng@d0061
Date:   Sat Apr 15 14:47:47 2023
Arch:   x86_64
Pid:    236593
CWD:    /home/c.zeng/projects/hea-corrosion/hea-mlp/data-curation/bulk-mcmc/dft-jobs/49
Python: 3.8.1
gpaw:   /home/c.zeng/usr/installs/gpaw/source/gpaw-22.8.0/gpaw
_gpaw:  /home/c.zeng/usr/installs/gpaw/source/gpaw-22.8.0/
        _gpaw.cpython-38-x86_64-linux-gnu.so
ase:    /home/c.zeng/.local/lib/python3.8/site-packages/ase-3.22.1-py3.8.egg/ase (version 3.22.1)
numpy:  /shared/centos7/python/3.8.1/lib/python3.8/site-packages/numpy (version 1.17.4)
scipy:  /shared/centos7/python/3.8.1/lib/python3.8/site-packages/scipy (version 1.4.1)
units:  Angstrom and eV
cores: 30
OpenMP: False
OMP_NUM_THREADS: 1

Input parameters:
  convergence: {energy: 0.0001}
  kpts: [2 2 2]
  maxiter: 666
  mode: {ecut: 350.0,
         name: pw}
  occupations: {fixmagmom: False,
                name: fermi-dirac,
                width: 0.1}
  spinpol: True
  xc: PBE

System changes: positions, numbers, cell, pbc, initial_charges, initial_magmoms

Initialize ...

species:
  Co:
    name: Cobalt
    id: 339d20d5b0b93d2de9531a1bee871d91
    Z: 27.0
    valence: 9
    core: 18
    charge: 0.0
    file: /home/c.zeng/usr/data/gpaw-setups-0.9.20000/Co.PBE.gz
    compensation charges: {type: gauss,
                           rc: 0.32,
                           lmax: 2}
    cutoffs: {filter: 1.87,
              core: 2.55}
    valence states:
      #              energy  rcut
      - 4s(2.00)    -5.469   1.005
      - 4p(0.00)    -1.277   1.058
      - 3d(7.00)    -8.205   1.005
      -  s          21.742   1.005
      -  p          25.934   1.058
      -  d          19.007   1.005

    # Using partial waves for Co as LCAO basis

  Fe:
    name: Iron
    id: 37abbd8d6c3c35915a9b583b742da910
    Z: 26.0
    valence: 8
    core: 18
    charge: 0.0
    file: /home/c.zeng/usr/data/gpaw-setups-0.9.20000/Fe.PBE.gz
    compensation charges: {type: gauss,
                           rc: 0.33,
                           lmax: 2}
    cutoffs: {filter: 2.06,
              core: 2.67}
    valence states:
      #              energy  rcut
      - 4s(2.00)    -5.291   1.164
      - 4p(0.00)    -1.326   1.058
      - 3d(6.00)    -7.505   1.058
      -  s          21.920   1.164
      -  p          25.885   1.058
      -  d          19.706   1.058

[...]

  Ni:
    name: Nickel
    id: 0d9f38a9d6e76a2886f07bb4381f212b
    Z: 28.0
    valence: 16
    core: 12
    charge: 0.0
    file: /home/c.zeng/usr/data/gpaw-setups-0.9.20000/Ni.PBE.gz
    compensation charges: {type: gauss,
                           rc: 0.36,
                           lmax: 2}
    cutoffs: {filter: 2.14,
              core: 1.98}
    valence states:
      #              energy  rcut
      - 4s(2.00)    -5.642   1.164
      - 3p(6.00)   -71.394   1.207
      - 4p(0.00)    -1.226   1.207
      - 3d(8.00)    -8.875   1.138
      -  s          21.570   1.164
      -  d          18.337   1.138

[...]

  Cr:
    name: Chromium
    id: 33f258bda2ca9f93018e70263a35547b
    Z: 24.0
    valence: 6
    core: 18
    charge: 0.0
    file: /home/c.zeng/usr/data/gpaw-setups-0.9.20000/Cr.PBE.gz
    compensation charges: {type: gauss,
                           rc: 0.35,
                           lmax: 2}
    cutoffs: {filter: 2.14,
              core: 3.04}
    valence states:
      #              energy  rcut
      - 4s(1.00)    -4.007   1.164
      - 4p(0.00)    -0.989   1.217
      - 3d(5.00)    -2.913   1.111
      -  s          23.205   1.164
      -  p          26.223   1.217
      -  d          24.299   1.111

    # Using partial waves for Cr as LCAO basis

Reference energy: -3846758.590871  # eV

Spin-polarized calculation.
Magnetic moment: 151.200000

Convergence criteria:
 Maximum [total energy] change in last 3 cyles: 0.0001 eV / electron
 Maximum integral of absolute [dens]ity change: 0.0001 electrons / valence electron
 Maximum integral of absolute [eigenst]ate change: 4e-08 eV^2 / valence electron
 Maximum number of scf [iter]ations: 666
 (Square brackets indicate name in SCF output, whereas a 'c' in
 the SCF output indicates the quantity has converged.)

Symmetries present (total): 1

  ( 1  0  0)
  ( 0  1  0)
  ( 0  0  1)

8 k-points: 2 x 2 x 2 Monkhorst-Pack grid
4 k-points in the irreducible part of the Brillouin zone
       k-points in crystal coordinates                weights
   0:     0.25000000   -0.25000000   -0.25000000          2/8
   1:     0.25000000   -0.25000000    0.25000000          2/8
   2:     0.25000000    0.25000000   -0.25000000          2/8
   3:     0.25000000    0.25000000    0.25000000          2/8

Wave functions: Plane wave expansion
  Cutoff energy: 350.000 eV
  Number of coefficients (min, max): 17755, 17755
  Pulay-stress correction: 0.000000 eV/Ang^3 (de/decut=0.000000)
  Using FFTW library
  ScaLapack parameters: grid=1x1, blocksize=None
  Wavefunction extrapolation:
    Improved wavefunction reuse through dual PAW basis

Occupation numbers: Fermi-Dirac:
  width: 0.1000  # eV

Eigensolver
   Davidson(niter=2)

Densities:
  Coarse grid: 48*48*48 grid
  Fine grid: 96*96*96 grid
  Total Charge: 0.000000

Density mixing:
  Method: difference
  Backend: pulay
  Linear mixing parameter: 0.05
  old densities: 5
  Damping of long wavelength oscillations: 50

Hamiltonian:
  XC and Coulomb potentials evaluated on a 96*96*96 grid
  Using the PBE Exchange-Correlation functional
  External potential:
    NoExternalPotential

XC parameters: PBE with 2 nearest neighbor stencil

Total number of cores used: 30
Parallelization over k-points: 2
Domain decomposition: 5 x 3 x 1

Number of atoms: 108
Number of atomic orbitals: 1053
Number of bands in calculation: 727
Number of valence electrons: 1053
Bands to converge: occupied

... initialized

Initializing position-dependent things.

Density initialized from atomic densities
Creating initial wave functions:
  727 bands from LCAO basis set

       /|  Cr       Ni      Cr    |
      / |   NiFe     Cr           |
     /  |       Co      Fe       Fe
    /   |Ni      CFe       Co     Ni
   /    | Co       Ni       CFe   |
  /  CCo|  FeCr     CoNi          |
 *    CrCr    FeNi   FeNiCo       |
 |      |CoCr   FeFeCr  CoCrFe   Ni
 |      | NiCo     CoNiFeCrCrNi   |
 |    Co|  CoFeNi   CoNiFe   NiCo |
 |      Cr    CrCrNi NiNiCr     Cr|
 |      |FeFe  CoFeNi   FeCrFe   Cr
 |      .-FeCo-----CrNiFe--NiNi---Co
 |   Cro     Fe       Cr         /
 |    CrCo     Coi     CNie     /
 |   /    Co               Cr  /
 |  /      Fe       Fe    NiFe/
 | / Fe     Cr       CrNi    /
 |/            Co       Ni  /
 *--------Co------Co-------*

Positions:
   0 Co    -0.012479   -0.003723   10.616104    ( 0.0000,  0.0000,  2.1000)
   1 Fe    -0.011321    1.761305    1.763386    ( 0.0000,  0.0000,  2.1000)
   2 Fe     1.758365    0.001326    1.769011    ( 0.0000,  0.0000,  2.0000)
   3 Co     1.752686    1.779222   10.610436    ( 0.0000,  0.0000,  2.0000)
   4 Co     3.541196    0.004726   10.616104    ( 0.0000,  0.0000,  0.0000)
   5 Fe     3.534711    1.782438    1.778999    ( 0.0000,  0.0000,  0.0000)
   6 Ni     5.305717   10.600629    1.767950    ( 0.0000,  0.0000,  2.1000)
   7 Co     5.324780    1.765604   10.614618    ( 0.0000,  0.0000,  0.0000)
   8 Co     7.089121    0.014598   10.619926    ( 0.0000,  0.0000,  2.0000)
   9 Fe     7.085279    1.771219    1.773543    ( 0.0000,  0.0000,  1.5000)
  10 Ni     8.850554    0.011470    1.768756    ( 0.0000,  0.0000,  1.5000)
  11 Ni     8.842381    1.777333   10.615680    ( 0.0000,  0.0000,  2.1000)
  12 Fe    10.590535    3.538203   -0.001956    ( 0.0000,  0.0000,  0.0000)
  13 Cr    10.624277    5.310674    1.769786    ( 0.0000,  0.0000,  2.0000)
  14 Co     1.761379    3.535623    1.784572    ( 0.0000,  0.0000,  0.0000)
  15 Ni     1.770200    5.301408   10.611753    ( 0.0000,  0.0000,  2.0000)
  16 Cr     3.556003    3.551407   10.618333    ( 0.0000,  0.0000,  1.5000)
  17 Fe     3.539370    5.311290    1.775199    ( 0.0000,  0.0000,  2.1000)
  18 Ni     5.320142    3.545059    1.779678    ( 0.0000,  0.0000,  1.5000)
  19 Fe     5.306980    5.314654   10.602720    ( 0.0000,  0.0000,  0.0000)
  20 Cr     7.081585    3.529127   10.614725    ( 0.0000,  0.0000,  2.1000)
  21 Cr     7.069241    5.303361    1.781271    ( 0.0000,  0.0000,  1.5000)
  22 Fe     8.841447    3.542671    1.781600    ( 0.0000,  0.0000,  2.1000)
  23 Ni     8.850893    5.290379    0.000220    ( 0.0000,  0.0000,  0.0000)
  24 Cr     0.005868    7.083411   10.614937    ( 0.0000,  0.0000,  2.0000)
  25 Cr    10.601043    8.849694    1.772960    ( 0.0000,  0.0000,  2.1000)
  26 Fe     1.773713    7.072329    1.777184    ( 0.0000,  0.0000,  0.0000)
  27 Cr     1.755520    8.842943   10.608324    ( 0.0000,  0.0000,  0.0000)
  28 Fe     3.544009    7.063116   10.610489    ( 0.0000,  0.0000,  2.0000)
  29 Co     3.542225    8.826820    1.785580    ( 0.0000,  0.0000,  0.0000)
  30 Cr     5.309835    7.081776    1.776600    ( 0.0000,  0.0000,  2.1000)
  31 Ni     5.331945    8.840321   10.604673    ( 0.0000,  0.0000,  2.1000)
  32 Co     7.068434    7.069028   10.623110    ( 0.0000,  0.0000,  0.0000)
  33 Fe     7.083750    8.846796    1.774509    ( 0.0000,  0.0000,  1.5000)
  34 Ni     8.841404    7.058180    1.777173    ( 0.0000,  0.0000,  1.5000)
  35 Cr     8.835524    8.853600   10.611753    ( 0.0000,  0.0000,  0.0000)
  36 Cr    -0.009351   10.618864    3.531070    ( 0.0000,  0.0000,  2.0000)
  37 Fe    10.602508    1.764818    5.300452    ( 0.0000,  0.0000,  1.5000)
  38 Cr     1.756720    0.001379    5.295867    ( 0.0000,  0.0000,  0.0000)
  39 Co     1.766506    1.767154    3.539222    ( 0.0000,  0.0000,  2.0000)
  40 Co     3.539742    0.013881    3.542873    ( 0.0000,  0.0000,  2.0000)
  41 Fe     3.548944    1.788658    5.306237    ( 0.0000,  0.0000,  2.1000)
  42 Fe     5.320174   -0.004685    5.301386    ( 0.0000,  0.0000,  0.0000)
  43 Co     5.316862    1.765551    3.538935    ( 0.0000,  0.0000,  2.0000)
  44 Cr     7.081086   -0.000289    3.531325    ( 0.0000,  0.0000,  2.0000)
  45 Ni     7.072902    1.777407    5.300537    ( 0.0000,  0.0000,  2.0000)
  46 Fe     8.840544    0.012372    5.307851    ( 0.0000,  0.0000,  1.5000)
  47 Ni     8.833592    1.767928    3.534318    ( 0.0000,  0.0000,  2.1000)
  48 Ni    -0.004066    3.525285    3.545951    ( 0.0000,  0.0000,  0.0000)
  49 Co    -0.001689    5.317934    5.307787    ( 0.0000,  0.0000,  1.5000)
  50 Cr     1.769043    3.555101    5.297279    ( 0.0000,  0.0000,  2.0000)
  51 Fe     1.773692    5.305929    3.538266    ( 0.0000,  0.0000,  2.1000)
  52 Co     3.542746    3.537364    3.547575    ( 0.0000,  0.0000,  2.1000)
  53 Fe     3.548477    5.306927    5.301153    ( 0.0000,  0.0000,  2.0000)
  54 Cr     5.316246    3.553031    5.303637    ( 0.0000,  0.0000,  2.0000)
  55 Fe     5.303286    5.303531    3.542385    ( 0.0000,  0.0000,  1.5000)
  56 Ni     7.074962    3.533023    3.537215    ( 0.0000,  0.0000,  1.5000)
  57 Ni     7.066046    5.306046    5.300081    ( 0.0000,  0.0000,  2.0000)
  58 Cr     8.834526    3.538160    5.294530    ( 0.0000,  0.0000,  2.1000)
  59 Cr     8.846255    5.300452    3.537672    ( 0.0000,  0.0000,  1.5000)
[...]
  93 Ni     7.071130    5.304220    8.839313    ( 0.0000,  0.0000,  1.5000)
  94 Co     8.837997    3.524669    8.843389    ( 0.0000,  0.0000,  1.5000)
  95 Cr     8.833772    5.299051    7.076862    ( 0.0000,  0.0000,  0.0000)
  96 Cr     0.012168    7.080333    7.083835    ( 0.0000,  0.0000,  1.5000)
  97 Fe    -0.017034    8.848707    8.843941    ( 0.0000,  0.0000,  2.1000)
  98 Co     1.777938    7.075503    8.840194    ( 0.0000,  0.0000,  2.0000)
  99 Fe     1.758800    8.840035    7.069803    ( 0.0000,  0.0000,  0.0000)
 100 Fe     3.549921    7.066194    7.070090    ( 0.0000,  0.0000,  2.1000)
 101 Co     3.553137    8.839111    8.836776    ( 0.0000,  0.0000,  0.0000)
 102 Ni     5.304189    7.079929    8.840215    ( 0.0000,  0.0000,  2.0000)
 103 Co     5.321946    8.832180    7.082997    ( 0.0000,  0.0000,  2.1000)
 104 Ni     7.057077    7.072149    7.064167    ( 0.0000,  0.0000,  1.5000)
 105 Fe     7.082402    8.855500    8.837487    ( 0.0000,  0.0000,  2.1000)
 106 Co     8.846786    7.077881    8.846732    ( 0.0000,  0.0000,  0.0000)
 107 Cr     8.839313    8.848272    7.075153    ( 0.0000,  0.0000,  0.0000)

Unit cell:
           periodic     x           y           z      points  spacing
  1. axis:    yes   10.614300    0.000000    0.000000    48     0.2211
  2. axis:    yes    0.000000   10.614300    0.000000    48     0.2211
  3. axis:    yes    0.000000    0.000000   10.614300    48     0.2211

  Lengths:  10.614300  10.614300  10.614300
  Angles:   90.000000  90.000000  90.000000

Effective grid spacing dv^(1/3) = 0.2211

     iter     time        total  log10-change:  magmom
                         energy  eigst   dens
iter:   1 14:54:36  -957.135024                  +151.1276
iter:   2 14:57:25  -944.518054  -0.54  -1.37    +116.3992
iter:   3 15:00:13  -922.672857  -0.96  -1.33    +86.2880
iter:   4 15:03:01  -896.670567  -1.42  -1.38    +73.1750
iter:   5 15:05:49  -891.822861  -1.96  -1.48    +66.4782
iter:   6 15:08:29  -896.195204  -1.96  -1.52    +62.7965
iter:   7 15:11:17  -897.057859  -1.71  -1.53    +60.8367
iter:   8 15:14:05  -886.989350  -1.74  -1.56    +59.0952
iter:   9 15:16:53  -893.073055  -1.89  -1.80    +58.9369
iter:  10 15:19:41  -889.052108  -2.08  -1.77    +58.4265
iter:  11 15:22:29  -887.614230  -2.57  -1.87    +58.8150
iter:  12 15:25:16  -887.843273  -2.83  -1.95    +59.6545
iter:  13 15:28:02  -889.061336  -2.71  -1.98    +60.4703
iter:  14 15:30:45  -889.457340  -2.70  -1.97    +60.7712
iter:  15 15:33:33  -890.259356  -2.61  -2.03    +61.3236
iter:  16 15:36:21  -893.271410  -2.36  -2.07    +62.1880
iter:  17 15:39:09  -890.388142  -2.51  -1.97    +61.7769
iter:  18 15:41:57  -889.947317  -2.90  -2.17    +61.8676
iter:  19 15:44:45  -890.597142  -2.83  -2.29    +62.4537
iter:  20 15:47:34  -889.823646  -3.13  -2.21    +62.9656
iter:  21 15:50:22  -889.948058  -3.49  -2.37    +63.5432
iter:  22 15:53:10  -890.148205  -3.52  -2.42    +63.9927
iter:  23 15:55:51  -890.174771  -3.66  -2.41    +64.6865
iter:  24 15:58:40  -890.359348  -3.62  -2.46    +65.4241
iter:  25 16:01:28  -890.541106  -3.52  -2.48    +66.2773
iter:  26 16:04:16  -890.634559  -3.47  -2.48    +66.5180
iter:  27 16:07:03  -890.735034  -3.45  -2.56    +66.9759
iter:  28 16:09:52  -890.874780  -3.42  -2.60    +67.1279
iter:  29 16:12:39  -890.799027  -3.60  -2.57    +67.1419
iter:  30 16:15:23  -890.866981c -3.72  -2.70    +67.3867
iter:  31 16:18:08  -890.831107c -4.00  -2.67    +67.5703
iter:  32 16:20:56  -890.873043c -4.19  -2.80    +67.8419
iter:  33 16:23:44  -890.885181c -4.51  -2.80    +67.9227
iter:  34 16:26:33  -890.939457c -4.28  -2.84    +68.1950
iter:  35 16:29:20  -891.032341  -3.76  -2.86    +68.6279
iter:  36 16:32:07  -891.052564  -4.43  -2.82    +68.5502
iter:  37 16:34:50  -891.108259c -4.06  -2.80    +68.3165
iter:  38 16:37:38  -891.120002c -4.25  -2.75    +68.1931
iter:  39 16:40:26  -891.101609c -4.28  -2.77    +68.1966
iter:  40 16:43:14  -891.137156c -3.87  -2.85    +68.1425
iter:  41 16:46:02  -891.109079c -4.08  -2.81    +68.1536
iter:  42 16:48:50  -891.073422c -4.22  -2.90    +68.1819
iter:  43 16:51:37  -891.071679c -4.82  -3.11    +68.1974
iter:  44 16:54:25  -891.076400c -4.86  -3.17    +68.2385
iter:  45 16:57:12  -891.075890c -5.11  -3.18    +68.2395
iter:  46 17:00:00  -891.079215c -4.92  -3.24    +68.2739
iter:  47 17:02:49  -891.078288c -4.98  -3.30    +68.2728
iter:  48 17:05:37  -891.079655c -5.05  -3.37    +68.2689
iter:  49 17:08:16  -891.077349c -5.30  -3.43    +68.3118
iter:  50 17:11:05  -891.077994c -5.63  -3.55    +68.3276
iter:  51 17:13:52  -891.078813c -5.72  -3.58    +68.3521
iter:  52 17:16:40  -891.080075c -5.68  -3.63    +68.3642
iter:  53 17:19:28  -891.080065c -5.57  -3.65    +68.3803
iter:  54 17:22:15  -891.081188c -5.58  -3.73    +68.3950
iter:  55 17:25:03  -891.081249c -5.80  -3.77    +68.4081
iter:  56 17:27:51  -891.082049c -5.91  -3.89    +68.4399
iter:  57 17:30:39  -891.083351c -5.68  -3.90    +68.4731
iter:  58 17:33:27  -891.085225c -5.39  -3.91    +68.5521
iter:  59 17:36:15  -891.087799c -5.01  -3.89    +68.6619
iter:  60 17:39:02  -891.089692c -5.12  -3.78    +68.7455
iter:  61 17:41:51  -891.088687c -6.04  -3.69    +68.7276
iter:  62 17:44:39  -891.089035c -6.12  -3.76    +68.7327
iter:  63 17:47:26  -891.088541c -6.30  -3.76    +68.7354
iter:  64 17:50:11  -891.089367c -5.93  -3.80    +68.7421
iter:  65 17:53:00  -891.088009c -5.56  -3.68    +68.7409
iter:  66 17:55:50  -891.087971c -5.93  -3.78    +68.7335
iter:  67 17:58:40  -891.087570c -6.83  -3.80    +68.7219
iter:  68 18:01:29  -891.087649c -6.75  -3.93    +68.7022
iter:  69 18:04:20  -891.088059c -6.08  -3.94    +68.6968
iter:  70 18:07:05  -891.087688c -6.34  -3.92    +68.6946
iter:  71 18:09:53  -891.087894c -6.24  -3.95    +68.6881
iter:  72 18:12:43  -891.087660c -6.46  -3.99    +68.6761
iter:  73 18:15:33  -891.087586c -6.83  -4.09c   +68.6800
iter:  74 18:18:23  -891.087551c -7.17  -4.17c   +68.6768
iter:  75 18:21:14  -891.087534c -7.02  -4.24c   +68.6720
iter:  76 18:24:03  -891.087738c -6.84  -4.18c   +68.6715
iter:  77 18:26:46  -891.087503c -6.96  -4.19c   +68.6724
iter:  78 18:29:37  -891.087615c -6.87  -4.30c   +68.6736
iter:  79 18:32:28  -891.087490c -7.12  -4.24c   +68.6678
iter:  80 18:35:18  -891.087482c -7.28  -4.51c   +68.6660
iter:  81 18:38:09  -891.087526c -7.36  -4.51c   +68.6655
iter:  82 18:40:59  -891.087419c -7.55c -4.49c   +68.6635

Converged after 82 iterations.

Dipole moment: (6.346233, -1.955774, 0.672226) |e|*Ang

Total magnetic moment: (0.000000, 0.000000, 68.663513)
Local magnetic moments:
   0 Co ( 0.000000,  0.000000,  1.031748)
   1 Fe ( 0.000000,  0.000000,  2.308082)
   2 Fe ( 0.000000,  0.000000,  2.060884)
   3 Co ( 0.000000,  0.000000,  0.954035)
   4 Co ( 0.000000,  0.000000,  1.301792)
   5 Fe ( 0.000000,  0.000000,  2.388518)
   6 Ni ( 0.000000,  0.000000,  0.501150)
   7 Co ( 0.000000,  0.000000,  0.799608)
   8 Co ( 0.000000,  0.000000,  0.958334)
   9 Fe ( 0.000000,  0.000000,  2.309948)
  10 Ni ( 0.000000,  0.000000,  0.303521)
  11 Ni ( 0.000000,  0.000000,  0.378997)
  12 Fe ( 0.000000,  0.000000,  2.152828)
  13 Cr ( 0.000000,  0.000000, -0.219481)
  14 Co ( 0.000000,  0.000000,  1.202276)
  15 Ni ( 0.000000,  0.000000,  0.131585)
  16 Cr ( 0.000000,  0.000000, -1.197143)
  17 Fe ( 0.000000,  0.000000,  1.828440)
  18 Ni ( 0.000000,  0.000000,  0.224922)
  19 Fe ( 0.000000,  0.000000,  1.929543)
  20 Cr ( 0.000000,  0.000000, -1.498463)
  21 Cr ( 0.000000,  0.000000,  0.562299)
  22 Fe ( 0.000000,  0.000000,  1.883669)
  23 Ni ( 0.000000,  0.000000,  0.205747)
  24 Cr ( 0.000000,  0.000000, -0.246327)
  25 Cr ( 0.000000,  0.000000,  1.124367)
  26 Fe ( 0.000000,  0.000000,  1.639128)
  27 Cr ( 0.000000,  0.000000, -1.381389)
  28 Fe ( 0.000000,  0.000000,  2.157999)
  29 Co ( 0.000000,  0.000000,  1.279801)
  30 Cr ( 0.000000,  0.000000, -1.381802)
  31 Ni ( 0.000000,  0.000000,  0.391292)
  32 Co ( 0.000000,  0.000000,  1.140605)
  33 Fe ( 0.000000,  0.000000,  2.368714)
  34 Ni ( 0.000000,  0.000000,  0.092775)
  35 Cr ( 0.000000,  0.000000, -1.509756)
  36 Cr ( 0.000000,  0.000000, -1.614971)
  37 Fe ( 0.000000,  0.000000,  2.108358)
  38 Cr ( 0.000000,  0.000000, -1.666287)
  39 Co ( 0.000000,  0.000000,  0.964608)
  40 Co ( 0.000000,  0.000000,  1.344471)
  41 Fe ( 0.000000,  0.000000,  2.183095)
  42 Fe ( 0.000000,  0.000000,  2.430386)
  43 Co ( 0.000000,  0.000000,  1.219434)
  44 Cr ( 0.000000,  0.000000, -2.053912)
  45 Ni ( 0.000000,  0.000000,  0.293151)
  46 Fe ( 0.000000,  0.000000,  2.255357)
  47 Ni ( 0.000000,  0.000000,  0.289479)
  48 Ni ( 0.000000,  0.000000,  0.238416)
  49 Co ( 0.000000,  0.000000,  0.903492)
  50 Cr ( 0.000000,  0.000000, -1.686297)
  51 Fe ( 0.000000,  0.000000,  1.888718)
  52 Co ( 0.000000,  0.000000,  1.115103)
  53 Fe ( 0.000000,  0.000000,  2.108494)
  54 Cr ( 0.000000,  0.000000, -1.889345)
  55 Fe ( 0.000000,  0.000000,  1.859888)
  56 Ni ( 0.000000,  0.000000,  0.236687)
  57 Ni ( 0.000000,  0.000000,  0.231915)
  58 Cr ( 0.000000,  0.000000, -1.367298)
  59 Cr ( 0.000000,  0.000000,  0.033681)
[...]
  93 Ni ( 0.000000,  0.000000,  0.342443)
  94 Co ( 0.000000,  0.000000,  1.018013)
  95 Cr ( 0.000000,  0.000000,  0.873048)
  96 Cr ( 0.000000,  0.000000, -1.140590)
  97 Fe ( 0.000000,  0.000000,  1.904291)
  98 Co ( 0.000000,  0.000000,  1.074142)
  99 Fe ( 0.000000,  0.000000,  2.203663)
 100 Fe ( 0.000000,  0.000000,  2.166452)
 101 Co ( 0.000000,  0.000000,  1.378816)
 102 Ni ( 0.000000,  0.000000,  0.440283)
 103 Co ( 0.000000,  0.000000,  1.384551)
 104 Ni ( 0.000000,  0.000000,  0.350108)
 105 Fe ( 0.000000,  0.000000,  2.288961)
 106 Co ( 0.000000,  0.000000,  0.700060)
 107 Cr ( 0.000000,  0.000000, -1.480764)

Energy contributions relative to reference atoms: (reference = -3846758.590871)

Kinetic:       +148.709193
Potential:     -209.785258
External:        +0.000000
XC:            -867.638861
Entropy (-ST):   -4.506417
Local:          +39.880715
Free energy:   -893.340628
Extrapolated:  -891.087419

Spin contamination: 31.502668 electrons
Showing only first 2 kpts
                      Up                     Down
 Kpt  Band  Eigenvalues  Occupancy  Eigenvalues  Occupancy
  0   524      9.80767    0.99579     10.76906    0.01555
  0   525      9.82628    0.99493     10.78521    0.01326
  0   526      9.84369    0.99397     10.78971    0.01268
  0   527      9.85179    0.99347     10.80650    0.01074

  1   524      9.81535    0.99545     10.76599    0.01602
  1   525      9.82609    0.99494     10.77503    0.01466
  1   526      9.84186    0.99408     10.79974    0.01149
  1   527      9.85639    0.99316     10.81016    0.01036

Fermi level: 10.35424

No gap

Forces in eV/Ang:
  0 Co    0.20119   -0.06595   -0.09104
  1 Fe    0.21880    0.04981    0.20258
  2 Fe    0.34704   -0.12860    0.09642
  3 Co    0.09964   -0.06979    0.14193
  4 Co   -0.11727   -0.14836   -0.05189
  5 Fe    0.04631   -0.09642   -0.03540
  6 Ni   -0.08389    0.15337   -0.24008
  7 Co   -0.09339    0.26483    0.20183
  8 Co   -0.09327   -0.01332   -0.11039
  9 Fe   -0.37334    0.01611   -0.28650
 10 Ni   -0.03260    0.11937   -0.16444
 11 Ni   -0.05665   -0.22604    0.09630
 12 Fe    0.33742    0.32125   -0.05429
 13 Cr    0.02068   -0.21089   -0.07769
 14 Co   -0.04071    0.01686   -0.23329
 15 Ni   -0.01109    0.06756    0.02825
 16 Cr    0.19678   -0.26281    0.31827
 17 Fe   -0.09616   -0.30683    0.00766
 18 Ni   -0.09230   -0.05404   -0.07100
 19 Fe   -0.09554   -0.31814   -0.04267
 20 Cr   -0.17234    0.09142   -0.14305
 21 Cr    0.12660    0.03367   -0.03449
 22 Fe    0.11194    0.08266   -0.00303
 23 Ni   -0.02997    0.29732   -0.07036
 24 Cr   -0.13678   -0.39633   -0.38471
 25 Cr    0.03615   -0.11868   -0.23085
 26 Fe    0.11055    0.13597    0.14625
 27 Cr    0.35169    0.16626   -0.10252
 28 Fe   -0.02290    0.36741   -0.07647
 29 Co   -0.16517    0.16056    0.14369
 30 Cr    0.16422    0.14399   -0.48892
 31 Ni   -0.19086    0.10692    0.18570
 32 Co    0.09838   -0.11564   -0.14361
 33 Fe   -0.02902   -0.14278   -0.11670
 34 Ni   -0.08149   -0.08865   -0.15520
 35 Cr   -0.18798    0.11549   -0.17447
 36 Cr   -0.24394    0.09604   -0.31751
 37 Fe    0.43364    0.06538    0.15291
 38 Cr    0.57818    0.02402    0.18697
 39 Co    0.09559    0.19705    0.01315
 40 Co   -0.01900   -0.24318   -0.08397
 41 Fe   -0.37935   -0.04065   -0.04945
 42 Fe    0.09173    0.00014    0.16577
 43 Co   -0.27447    0.02349   -0.07463
 44 Cr   -0.05314    0.02550    0.26173
 45 Ni    0.08627   -0.03101    0.22400
 46 Fe   -0.04468   -0.42317   -0.06095
 47 Ni    0.05724    0.20410   -0.11811
 48 Ni    0.08350    0.03533    0.01039
 49 Co    0.06009   -0.28224   -0.07753
 50 Cr    0.06963   -0.19073    0.31943
 51 Fe   -0.14152   -0.17802   -0.02862
 52 Co   -0.10921    0.06365   -0.12025
 53 Fe   -0.19097   -0.18723    0.02776
 54 Cr   -0.19013   -0.19185   -0.12282
 55 Fe    0.06765    0.03759   -0.08077
 56 Ni   -0.04106   -0.04347    0.13379
 57 Ni    0.18530    0.04277   -0.09063
 58 Cr    0.09073    0.23657    0.09435
 59 Cr   -0.00699    0.04698    0.07810
[...]
 93 Ni    0.14317    0.14633    0.11633
 94 Co    0.02486    0.17819    0.14774
 95 Cr    0.08706   -0.04474    0.15163
 96 Cr    0.35224   -0.64623    0.13873
 97 Fe   -0.08878    0.01488    0.23037
 98 Co   -0.19752   -0.24229    0.13351
 99 Fe    0.02517    0.11519    0.12883
100 Fe   -0.13131    0.06345    0.37601
101 Co   -0.16070    0.16603   -0.07691
102 Ni    0.14048    0.03162    0.23196
103 Co   -0.12591    0.18679   -0.37286
104 Ni    0.25536    0.02682    0.05039
105 Fe    0.04453   -0.09437    0.04364
106 Co    0.10529   -0.03528    0.05795
107 Cr   -0.24882    0.05644    0.13357

Date: Sat Apr 15 18:41:27 2023