User:   c.zeng@d0025
Date:   Sat Apr 15 23:45:39 2023
Arch:   x86_64
Pid:    277859
CWD:    /home/c.zeng/projects/hea-corrosion/hea-mlp/data-curation/bulk-mcmc/dft-jobs/99
Python: 3.8.1
gpaw:   /home/c.zeng/usr/installs/gpaw/source/gpaw-22.8.0/gpaw
_gpaw:  /home/c.zeng/usr/installs/gpaw/source/gpaw-22.8.0/
        _gpaw.cpython-38-x86_64-linux-gnu.so
ase:    /home/c.zeng/.local/lib/python3.8/site-packages/ase-3.22.1-py3.8.egg/ase (version 3.22.1)
numpy:  /home/c.zeng/.local/lib/python3.8/site-packages/numpy (version 1.24.2)
scipy:  /home/c.zeng/.local/lib/python3.8/site-packages/scipy (version 1.10.1)
units:  Angstrom and eV
cores: 30
OpenMP: False
OMP_NUM_THREADS: 1

Input parameters:
  convergence: {energy: 0.0001}
  kpts: [2 2 2]
  maxiter: 666
  mode: {ecut: 350.0,
         name: pw}
  occupations: {fixmagmom: False,
                name: fermi-dirac,
                width: 0.1}
  spinpol: True
  xc: PBE

System changes: positions, numbers, cell, pbc, initial_charges, initial_magmoms

Initialize ...

species:
  Ni:
    name: Nickel
    id: 0d9f38a9d6e76a2886f07bb4381f212b
    Z: 28.0
    valence: 16
    core: 12
    charge: 0.0
    file: /home/c.zeng/usr/data/gpaw-setups-0.9.20000/Ni.PBE.gz
    compensation charges: {type: gauss,
                           rc: 0.36,
                           lmax: 2}
    cutoffs: {filter: 2.14,
              core: 1.98}
    valence states:
      #              energy  rcut
      - 4s(2.00)    -5.642   1.164
      - 3p(6.00)   -71.394   1.207
      - 4p(0.00)    -1.226   1.207
      - 3d(8.00)    -8.875   1.138
      -  s          21.570   1.164
      -  d          18.337   1.138

    # Using partial waves for Ni as LCAO basis

  Cr:
    name: Chromium
    id: 33f258bda2ca9f93018e70263a35547b
    Z: 24.0
    valence: 6
    core: 18
    charge: 0.0
    file: /home/c.zeng/usr/data/gpaw-setups-0.9.20000/Cr.PBE.gz
    compensation charges: {type: gauss,
                           rc: 0.35,
                           lmax: 2}
    cutoffs: {filter: 2.14,
              core: 3.04}
    valence states:
      #              energy  rcut
      - 4s(1.00)    -4.007   1.164
      - 4p(0.00)    -0.989   1.217
      - 3d(5.00)    -2.913   1.111
      -  s          23.205   1.164
      -  p          26.223   1.217
      -  d          24.299   1.111

[...]

  Fe:
    name: Iron
    id: 37abbd8d6c3c35915a9b583b742da910
    Z: 26.0
    valence: 8
    core: 18
    charge: 0.0
    file: /home/c.zeng/usr/data/gpaw-setups-0.9.20000/Fe.PBE.gz
    compensation charges: {type: gauss,
                           rc: 0.33,
                           lmax: 2}
    cutoffs: {filter: 2.06,
              core: 2.67}
    valence states:
      #              energy  rcut
      - 4s(2.00)    -5.291   1.164
      - 4p(0.00)    -1.326   1.058
      - 3d(6.00)    -7.505   1.058
      -  s          21.920   1.164
      -  p          25.885   1.058
      -  d          19.706   1.058

[...]

  Co:
    name: Cobalt
    id: 339d20d5b0b93d2de9531a1bee871d91
    Z: 27.0
    valence: 9
    core: 18
    charge: 0.0
    file: /home/c.zeng/usr/data/gpaw-setups-0.9.20000/Co.PBE.gz
    compensation charges: {type: gauss,
                           rc: 0.32,
                           lmax: 2}
    cutoffs: {filter: 1.87,
              core: 2.55}
    valence states:
      #              energy  rcut
      - 4s(2.00)    -5.469   1.005
      - 4p(0.00)    -1.277   1.058
      - 3d(7.00)    -8.205   1.005
      -  s          21.742   1.005
      -  p          25.934   1.058
      -  d          19.007   1.005

[...]

  Al:
    name: Aluminium
    id: 0292cae29f5d6237e50f6abdd43a7bdd
    Z: 13.0
    valence: 3
    core: 10
    charge: 0.0
    file: /home/c.zeng/usr/data/gpaw-setups-0.9.20000/Al.PBE.gz
    compensation charges: {type: gauss,
                           rc: 0.34,
                           lmax: 2}
    cutoffs: {filter: 1.91,
              core: 2.36}
    valence states:
      #              energy  rcut
      - 3s(2.00)    -7.753   1.085
      - 3p(1.00)    -2.712   1.085
      -  s          19.459   1.085
      -  p          24.499   1.085
      -  d           0.000   1.085

    # Using partial waves for Al as LCAO basis

Reference energy: -3699400.456887  # eV

Spin-polarized calculation.
Magnetic moment: 143.500000

Convergence criteria:
 Maximum [total energy] change in last 3 cyles: 0.0001 eV / electron
 Maximum integral of absolute [dens]ity change: 0.0001 electrons / valence electron
 Maximum integral of absolute [eigenst]ate change: 4e-08 eV^2 / valence electron
 Maximum number of scf [iter]ations: 666
 (Square brackets indicate name in SCF output, whereas a 'c' in
 the SCF output indicates the quantity has converged.)

Symmetries present (total): 1

  ( 1  0  0)
  ( 0  1  0)
  ( 0  0  1)

8 k-points: 2 x 2 x 2 Monkhorst-Pack grid
4 k-points in the irreducible part of the Brillouin zone
       k-points in crystal coordinates                weights
   0:     0.25000000   -0.25000000   -0.25000000          2/8
   1:     0.25000000   -0.25000000    0.25000000          2/8
   2:     0.25000000    0.25000000   -0.25000000          2/8
   3:     0.25000000    0.25000000    0.25000000          2/8

Wave functions: Plane wave expansion
  Cutoff energy: 350.000 eV
  Number of coefficients (min, max): 18052, 18052
  Pulay-stress correction: 0.000000 eV/Ang^3 (de/decut=0.000000)
  Using FFTW library
  ScaLapack parameters: grid=1x1, blocksize=None
  Wavefunction extrapolation:
    Improved wavefunction reuse through dual PAW basis

Occupation numbers: Fermi-Dirac:
  width: 0.1000  # eV

Eigensolver
   Davidson(niter=2)

Densities:
  Coarse grid: 48*48*48 grid
  Fine grid: 96*96*96 grid
  Total Charge: 0.000000

Density mixing:
  Method: difference
  Backend: pulay
  Linear mixing parameter: 0.05
  old densities: 5
  Damping of long wavelength oscillations: 50

Hamiltonian:
  XC and Coulomb potentials evaluated on a 96*96*96 grid
  Using the PBE Exchange-Correlation functional
  External potential:
    NoExternalPotential

XC parameters: PBE with 2 nearest neighbor stencil

Total number of cores used: 30
Parallelization over k-points: 2
Domain decomposition: 5 x 3 x 1

Number of atoms: 108
Number of atomic orbitals: 1025
Number of bands in calculation: 703
Number of valence electrons: 1020
Bands to converge: occupied

... initialized

Initializing position-dependent things.

Density initialized from atomic densities
Creating initial wave functions:
  703 bands from LCAO basis set

        Ni------------------------.
       /|  Co                Co   |
      Cr|   Ni         Cr         |
     / Fe      Fe       Al        |
    /   CCo      Ni       Fe      |
   /e   | CoNi     CoAl    NiCr   |
  /  FeCr  NiCo     NiCrCo        |
 *    FeFe  FeCoCr     CoAl       |
 |     CoFeCr  CoFe Cr  CrFeCr    |
 | Fe   CrNiNiCo NiNiCrFe  Ni     |
 |   CoNi  NiAlNi   NiCrCr   Fe   |
 |    FeCr  FeFeCoNi CoFeNi   Cr  |
 |     CrFeFe  Ni CrCr  CoFeFe    |
 |      .-CoCrCo-FeCrCrCo--CoCr---.
 |   NiCo    CoAl   NiNiFe       /
 |    / Cr    NiFe       Cr     /
 |   /            Ni           /
 |Cr/      Co       Co        /
 |/            Ni           /
 *----------------Ni-------*

Positions:
   0 Ni     0.005316   -0.016350   10.639749    ( 0.0000,  0.0000,  0.0000)
   1 Cr    10.672340    1.801276    1.786848    ( 0.0000,  0.0000,  0.0000)
   2 Fe     1.795727   10.625972    1.782259    ( 0.0000,  0.0000,  0.0000)
   3 Cr     1.780787    1.796175   10.644605    ( 0.0000,  0.0000,  2.1000)
   4 Fe     3.523539   -0.014558    0.017268    ( 0.0000,  0.0000,  2.0000)
   5 Co     3.522568    1.781672    1.746648    ( 0.0000,  0.0000,  0.0000)
   6 Co     5.320952   10.642342    1.763136    ( 0.0000,  0.0000,  1.5000)
   7 Ni     5.342082    1.828767    0.007462    ( 0.0000,  0.0000,  2.0000)
   8 Ni     7.144895    0.019195    0.012033    ( 0.0000,  0.0000,  0.0000)
   9 Co     7.143497    1.798064    1.764939    ( 0.0000,  0.0000,  2.1000)
  10 Cr     8.891362   10.651627    1.788353    ( 0.0000,  0.0000,  1.5000)
  11 Co     8.888779    1.804777   10.642609    ( 0.0000,  0.0000,  2.0000)
  12 Fe     0.008694    3.581540   10.650250    ( 0.0000,  0.0000,  2.1000)
  13 Ni     0.018979    5.332745    1.789751    ( 0.0000,  0.0000,  2.1000)
  14 Cr     1.778129    3.600941    1.760019    ( 0.0000,  0.0000,  2.0000)
  15 Co     1.790423    5.343267   -0.017766    ( 0.0000,  0.0000,  2.0000)
  16 Ni     3.542802    3.589864   -0.015614    ( 0.0000,  0.0000,  2.0000)
  17 Co     3.526837    5.358538    1.765793    ( 0.0000,  0.0000,  2.0000)
  18 Fe     5.336650    3.606501    1.755815    ( 0.0000,  0.0000,  0.0000)
  19 Ni     5.300399    5.323642   -0.012797    ( 0.0000,  0.0000,  2.1000)
  20 Al     7.122858    3.584816   10.659524    ( 0.0000,  0.0000,  2.0000)
  21 Ni     7.120500    5.315168    1.805502    ( 0.0000,  0.0000,  1.5000)
  22 Cr     8.892034    3.590952    1.773146    ( 0.0000,  0.0000,  2.1000)
  23 Fe     8.925340    5.301487   -0.003100    ( 0.0000,  0.0000,  0.0000)
  24 Cr     0.023055    7.096680   -0.007939    ( 0.0000,  0.0000,  0.0000)
  25 Cr     0.019141    8.871245    1.787510    ( 0.0000,  0.0000,  1.5000)
  26 Co     1.784372    7.104567    1.776443    ( 0.0000,  0.0000,  2.0000)
  27 Co     1.779944    8.867628   10.659406    ( 0.0000,  0.0000,  1.5000)
  28 Ni     3.547785    7.097897    0.009215    ( 0.0000,  0.0000,  2.1000)
  29 Ni     3.541137    8.858109    1.788225    ( 0.0000,  0.0000,  2.1000)
  30 Cr     5.295105    7.099391    1.787894    ( 0.0000,  0.0000,  2.1000)
  31 Ni     5.303685    8.873828    0.029898    ( 0.0000,  0.0000,  0.0000)
  32 Cr     7.106883    7.088719   10.645159    ( 0.0000,  0.0000,  0.0000)
  33 Co     7.111055    8.901137    1.809472    ( 0.0000,  0.0000,  0.0000)
  34 Co     8.939384    7.093404    1.799238    ( 0.0000,  0.0000,  0.0000)
  35 Co     8.919972    8.915853   10.664881    ( 0.0000,  0.0000,  0.0000)
  36 Cr    10.679704   10.658873    3.584517    ( 0.0000,  0.0000,  2.0000)
  37 Fe    10.670921    1.796367    5.340289    ( 0.0000,  0.0000,  2.1000)
  38 Fe     1.770350   10.649001    5.343491    ( 0.0000,  0.0000,  0.0000)
  39 Co     1.791800    1.784671    3.584891    ( 0.0000,  0.0000,  2.0000)
  40 Ni     3.529718   10.626388    3.565234    ( 0.0000,  0.0000,  2.1000)
  41 Fe     3.535716    1.793465    5.367289    ( 0.0000,  0.0000,  1.5000)
  42 Co     5.311497    0.001574    5.366254    ( 0.0000,  0.0000,  1.5000)
  43 Al     5.332627    1.768055    3.580793    ( 0.0000,  0.0000,  0.0000)
  44 Ni     7.136966   10.673941    3.563804    ( 0.0000,  0.0000,  2.0000)
  45 Cr     7.136774    1.794126    5.358944    ( 0.0000,  0.0000,  2.1000)
  46 Co     8.925938   10.673621    5.347589    ( 0.0000,  0.0000,  2.0000)
  47 Fe     8.883827    1.779111    3.582404    ( 0.0000,  0.0000,  1.5000)
  48 Cr    -0.010038    3.572341    3.580996    ( 0.0000,  0.0000,  2.0000)
  49 Co    10.685573    5.328935    5.338550    ( 0.0000,  0.0000,  2.0000)
  50 Cr     1.784180    3.582949    5.348357    ( 0.0000,  0.0000,  1.5000)
  51 Fe     1.766326    5.339510    3.565255    ( 0.0000,  0.0000,  1.5000)
[...]
iter:  78 03:07:52  -869.638468c -5.51  -3.52    +68.4433
iter:  79 03:10:21  -869.642831c -5.28  -3.40    +68.2750
iter:  80 03:12:49  -869.646353c -5.50  -3.50    +68.2451
iter:  81 03:15:18  -869.648625c -5.46  -3.43    +68.2060
iter:  82 03:18:41  -869.658578c -4.75  -3.43    +68.0921
iter:  83 03:21:28  -869.657864c -4.99  -3.21    +68.0932
iter:  84 03:23:56  -869.663036c -4.96  -3.39    +68.0988
iter:  85 03:26:24  -869.661760c -5.33  -3.38    +68.0223
iter:  86 03:28:53  -869.666266c -5.52  -3.56    +67.9551
iter:  87 03:31:21  -869.672772c -5.41  -3.56    +67.8903
iter:  88 03:33:50  -869.632488c -4.00  -3.51    +68.3447
iter:  89 03:36:19  -869.635386c -5.19  -3.64    +68.2880
iter:  90 03:38:48  -869.639537c -5.70  -3.68    +68.2594
iter:  91 03:41:17  -869.638200c -6.09  -3.68    +68.3102
iter:  92 03:43:46  -869.645180c -5.49  -3.74    +68.2065
iter:  93 03:46:15  -869.638418c -5.60  -3.69    +68.3195
iter:  94 03:48:44  -869.622398c -4.56  -3.75    +68.5699
iter:  95 03:51:12  -869.614219c -4.67  -3.69    +68.6880
iter:  96 03:53:40  -869.606021c -4.64  -3.64    +68.7319
iter:  97 03:56:09  -869.606768c -5.11  -3.67    +68.6806
iter:  98 03:58:36  -869.609877c -5.20  -3.73    +68.5986
iter:  99 04:01:05  -869.614763c -5.03  -3.75    +68.4723
iter: 100 04:03:34  -869.613562c -5.59  -3.67    +68.5136
iter: 101 04:06:02  -869.617108c -5.07  -3.69    +68.3222
iter: 102 04:08:30  -869.624509c -4.51  -3.66    +67.9881
iter: 103 04:10:59  -869.621701c -5.25  -3.41    +68.2280
iter: 104 04:14:40  -869.629208c -4.54  -3.58    +67.8626
iter: 105 04:17:12  -869.630182c -5.48  -3.32    +68.0421
iter: 106 04:19:40  -869.632995c -5.36  -3.40    +67.9303
[...]
iter: 130 05:20:20  -869.622871c -5.26  -3.40    +68.7517
iter: 131 05:22:49  -869.623956c -5.56  -3.43    +68.7565
iter: 132 05:25:19  -869.625624c -5.59  -3.43    +68.7917
iter: 133 05:27:47  -869.632904c -5.10  -3.43    +68.8161
iter: 134 05:30:16  -869.636166c -4.35  -3.25    +68.8081
iter: 135 05:32:45  -869.624060c -4.56  -3.12    +68.7472
iter: 136 05:35:12  -869.616408c -5.19  -3.25    +68.7413
iter: 137 05:37:41  -869.617931c -5.46  -3.71    +68.6859
iter: 138 05:40:11  -869.620109c -5.33  -3.61    +68.6546
iter: 139 05:42:39  -869.620788c -5.63  -3.59    +68.6471
iter: 140 05:45:08  -869.621903c -5.69  -3.85    +68.6186
iter: 141 05:47:36  -869.623530c -5.76  -3.85    +68.6001
iter: 142 05:51:18  -869.623539c -6.08  -3.85    +68.5908
iter: 143 05:53:50  -869.627005c -5.66  -3.96    +68.5816
iter: 144 05:56:19  -869.626877c -6.03  -3.86    +68.5647
iter: 145 05:58:49  -869.628128c -5.89  -4.01c   +68.5302
iter: 146 06:01:17  -869.628740c -6.41  -4.07c   +68.5225
iter: 147 06:03:45  -869.630456c -6.00  -4.16c   +68.5049
iter: 148 06:06:14  -869.630986c -6.48  -4.19c   +68.4957
iter: 149 06:08:43  -869.633557c -5.81  -4.25c   +68.4612
iter: 150 06:12:06  -869.609788c -3.84  -4.21c   +68.8353
iter: 151 06:14:58  -869.605371c -4.13  -3.71    +68.9892
iter: 152 06:17:27  -869.607814c -5.17  -3.55    +68.8999
iter: 153 06:19:56  -869.609808c -5.18  -3.61    +68.8084
iter: 154 06:22:25  -869.610614c -5.84  -3.68    +68.7793
iter: 155 06:24:54  -869.610473c -6.25  -3.70    +68.8063
iter: 156 06:27:22  -869.610887c -6.02  -3.67    +68.7912
iter: 157 06:29:51  -869.609222c -6.29  -3.61    +68.7994
iter: 158 06:32:20  -869.610959c -5.15  -3.68    +68.7820
iter: 159 06:34:48  -869.608174c -4.98  -3.33    +68.7799
iter: 160 06:37:17  -869.605880c -5.51  -3.50    +68.7923
iter: 161 06:39:46  -869.607632c -5.76  -3.77    +68.7303
iter: 162 06:42:14  -869.608233c -6.10  -3.86    +68.7266
iter: 163 06:44:43  -869.611361c -5.57  -3.81    +68.6885
iter: 164 06:47:11  -869.612039c -5.53  -3.76    +68.6408
iter: 165 06:49:40  -869.613097c -5.75  -3.84    +68.6403
iter: 166 06:52:09  -869.613488c -6.13  -3.93    +68.6451
iter: 167 06:54:48  -869.615089c -5.83  -3.95    +68.6162
iter: 168 06:58:18  -869.616274c -6.02  -4.07c   +68.6005
iter: 169 07:00:46  -869.616496c -6.40  -4.10c   +68.5905
iter: 170 07:03:14  -869.620075c -5.53  -4.33c   +68.5658
iter: 171 07:05:44  -869.617337c -5.88  -4.26c   +68.5944
iter: 172 07:08:13  -869.612909c -5.21  -4.20c   +68.6293
iter: 173 07:10:42  -869.615475c -6.21  -4.00    +68.6114
iter: 174 07:13:10  -869.612644c -5.83  -4.11c   +68.6370
iter: 175 07:15:38  -869.606617c -4.91  -3.99    +68.7043
iter: 176 07:18:23  -869.596504c -4.21  -3.75    +68.8592
iter: 177 07:21:49  -869.598805c -5.45  -3.49    +68.8229
iter: 178 07:24:17  -869.598723c -5.91  -3.60    +68.8162
iter: 179 07:26:46  -869.598537c -6.01  -3.58    +68.7948
iter: 180 07:29:14  -869.600882c -5.56  -3.57    +68.7948
iter: 181 07:31:42  -869.602554c -4.98  -3.47    +68.7952
iter: 182 07:34:11  -869.600372c -4.94  -3.40    +68.7653
iter: 183 07:36:39  -869.597921c -5.38  -3.47    +68.7257
iter: 184 07:39:06  -869.600249c -5.46  -3.65    +68.6836
iter: 185 07:41:35  -869.599816c -6.04  -3.68    +68.6845
iter: 186 07:44:02  -869.601122c -5.51  -3.83    +68.6250
iter: 187 07:47:43  -869.603214c -5.61  -3.83    +68.6275
iter: 188 07:50:13  -869.602725c -6.05  -3.92    +68.6363
iter: 189 07:52:42  -869.603888c -6.03  -3.88    +68.6212
iter: 190 07:55:12  -869.604497c -6.15  -3.94    +68.6177
iter: 191 07:57:40  -869.605796c -5.73  -3.99    +68.5795
iter: 192 08:00:09  -869.604415c -6.25  -4.10c   +68.5974
iter: 193 08:02:37  -869.604365c -5.85  -4.11c   +68.6616
iter: 194 08:05:05  -869.606433c -6.01  -4.02c   +68.6261
iter: 195 08:07:34  -869.596215c -4.52  -4.17c   +68.7956
iter: 196 08:10:03  -869.595677c -5.01  -3.69    +68.8319
iter: 197 08:12:32  -869.594581c -5.42  -3.57    +68.8129
iter: 198 08:15:00  -869.593453c -5.90  -3.55    +68.7950
iter: 199 08:17:29  -869.593286c -6.39  -3.55    +68.8010
iter: 200 08:19:56  -869.591711c -5.54  -3.60    +68.7765
iter: 201 08:23:00  -869.586832c -5.38  -3.60    +68.8164
iter: 202 08:26:08  -869.593855c -5.05  -3.62    +68.7190
iter: 203 08:28:36  -869.592644c -5.47  -3.67    +68.7144
iter: 204 08:31:05  -869.595621c -5.43  -3.64    +68.6417
iter: 205 08:33:33  -869.600517c -5.03  -3.86    +68.5024
iter: 206 08:36:02  -869.605024c -5.21  -3.80    +68.4249
iter: 207 08:38:30  -869.600043c -5.60  -3.68    +68.5153
iter: 208 08:40:59  -869.588149c -4.52  -3.82    +68.7498
iter: 209 08:43:27  -869.588641c -5.53  -3.85    +68.7596
iter: 210 08:45:55  -869.589802c -6.00  -3.84    +68.6899
iter: 211 08:48:23  -869.593125c -5.40  -3.88    +68.5949
iter: 212 08:50:32  -869.596556c -5.22  -3.94    +68.4824
iter: 213 08:52:18  -869.591536c -5.23  -3.95    +68.6382
iter: 214 08:54:05  -869.583767c -4.39  -3.98    +68.9724
iter: 215 08:55:51  -869.591654c -4.69  -3.54    +68.6635
iter: 216 08:57:37  -869.595514c -5.00  -3.87    +68.5540
iter: 217 08:59:24  -869.591813c -5.68  -3.91    +68.6490
iter: 218 09:01:10  -869.593266c -6.35  -3.95    +68.6348
iter: 219 09:02:56  -869.595013c -5.75  -4.02c   +68.5866
iter: 220 09:04:43  -869.591488c -5.32  -4.10c   +68.6694
iter: 221 09:06:29  -869.596468c -5.08  -3.72    +68.5418
iter: 222 09:08:15  -869.592071c -5.29  -4.09c   +68.6425
iter: 223 09:10:01  -869.590202c -5.45  -4.02c   +68.6527
iter: 224 09:11:48  -869.593206c -5.52  -3.82    +68.5928
iter: 225 09:13:34  -869.588578c -5.24  -4.10c   +68.6332
iter: 226 09:15:20  -869.587169c -5.32  -3.95    +68.6241
iter: 227 09:17:06  -869.587525c -5.69  -3.84    +68.5663
iter: 228 09:18:53  -869.587261c -6.01  -3.68    +68.5955
iter: 229 09:20:39  -869.588211c -6.06  -3.98    +68.5479
iter: 230 09:22:25  -869.587876c -5.86  -4.02c   +68.5895
iter: 231 09:24:11  -869.590240c -5.22  -3.81    +68.4980
iter: 232 09:25:58  -869.590578c -5.98  -3.88    +68.4704
iter: 233 09:27:45  -869.591750c -5.91  -4.07c   +68.4315
iter: 234 09:29:33  -869.592474c -6.11  -4.07c   +68.3967
iter: 235 09:31:20  -869.595603c -5.36  -4.17c   +68.3008
iter: 236 09:33:08  -869.585582c -4.48  -3.92    +68.5920
iter: 237 09:34:55  -869.587377c -5.97  -3.89    +68.5381
iter: 238 09:36:43  -869.588367c -6.11  -4.10c   +68.4842
iter: 239 09:38:31  -869.591347c -5.29  -4.17c   +68.3538
iter: 240 09:40:18  -869.592140c -5.88  -4.15c   +68.3178
iter: 241 09:42:06  -869.593714c -5.72  -4.13c   +68.2619
iter: 242 09:43:54  -869.590736c -5.56  -4.03c   +68.3560
iter: 243 09:45:41  -869.587338c -4.88  -4.18c   +68.5128
iter: 244 09:47:29  -869.590178c -5.35  -3.94    +68.3745
iter: 245 09:49:17  -869.591602c -5.61  -4.36c   +68.3142
iter: 246 09:51:04  -869.590954c -6.94  -4.26c   +68.3322
iter: 247 09:52:52  -869.591305c -6.93  -4.58c   +68.3206
iter: 248 09:54:40  -869.592428c -6.06  -4.54c   +68.2712
iter: 249 09:56:27  -869.591149c -6.18  -4.40c   +68.3295
iter: 250 09:58:15  -869.590198c -6.11  -4.63c   +68.3765
iter: 251 10:00:02  -869.594002c -5.14  -4.62c   +68.1942
iter: 252 10:01:50  -869.591038c -5.45  -4.21c   +68.3448
iter: 253 10:03:38  -869.592810c -5.94  -4.58c   +68.2627
iter: 254 10:05:25  -869.588494c -5.09  -4.38c   +68.4474
iter: 255 10:07:13  -869.590477c -5.97  -4.42c   +68.3634
iter: 256 10:09:00  -869.592636c -5.56  -4.64c   +68.2762
iter: 257 10:10:48  -869.589171c -5.36  -4.40c   +68.4109
iter: 258 10:12:35  -869.589558c -6.91  -4.57c   +68.3894
iter: 259 10:14:23  -869.590332c -6.45  -4.68c   +68.3546
iter: 260 10:16:10  -869.590279c -7.87c -4.63c   +68.3581

Converged after 260 iterations.

Dipole moment: (-10.530952, 8.046887, 8.903935) |e|*Ang

Total magnetic moment: (0.000000, 0.000000, 68.358056)
Local magnetic moments:
   0 Ni ( 0.000000,  0.000000,  0.144380)
   1 Cr ( 0.000000,  0.000000,  0.143533)
   2 Fe ( 0.000000,  0.000000,  2.175831)
   3 Cr ( 0.000000,  0.000000, -0.425298)
   4 Fe ( 0.000000,  0.000000,  2.317582)
   5 Co ( 0.000000,  0.000000,  1.051306)
   6 Co ( 0.000000,  0.000000,  1.629878)
   7 Ni ( 0.000000,  0.000000,  0.332378)
   8 Ni ( 0.000000,  0.000000,  0.384296)
   9 Co ( 0.000000,  0.000000,  1.100388)
  10 Cr ( 0.000000,  0.000000, -0.412768)
  11 Co ( 0.000000,  0.000000,  0.338938)
  12 Fe ( 0.000000,  0.000000,  1.541530)
  13 Ni ( 0.000000,  0.000000,  0.257206)
  14 Cr ( 0.000000,  0.000000, -0.678263)
  15 Co ( 0.000000,  0.000000,  1.248556)
  16 Ni ( 0.000000,  0.000000,  0.275920)
  17 Co ( 0.000000,  0.000000,  0.907225)
  18 Fe ( 0.000000,  0.000000,  2.217949)
  19 Ni ( 0.000000,  0.000000,  0.276560)
  20 Al ( 0.000000,  0.000000, -0.017013)
  21 Ni ( 0.000000,  0.000000,  0.137382)
  22 Cr ( 0.000000,  0.000000, -0.624370)
  23 Fe ( 0.000000,  0.000000,  1.641687)
  24 Cr ( 0.000000,  0.000000, -1.616105)
  25 Cr ( 0.000000,  0.000000, -0.881205)
  26 Co ( 0.000000,  0.000000,  1.342932)
  27 Co ( 0.000000,  0.000000,  1.303035)
  28 Ni ( 0.000000,  0.000000,  0.475309)
  29 Ni ( 0.000000,  0.000000,  0.512678)
  30 Cr ( 0.000000,  0.000000,  0.940917)
  31 Ni ( 0.000000,  0.000000,  0.438092)
  32 Cr ( 0.000000,  0.000000, -0.052097)
  33 Co ( 0.000000,  0.000000,  1.315844)
  34 Co ( 0.000000,  0.000000,  0.987423)
  35 Co ( 0.000000,  0.000000,  0.794162)
  36 Cr ( 0.000000,  0.000000, -0.159046)
  37 Fe ( 0.000000,  0.000000,  1.874986)
  38 Fe ( 0.000000,  0.000000, -1.984631)
  39 Co ( 0.000000,  0.000000,  0.194504)
  40 Ni ( 0.000000,  0.000000,  0.356133)
  41 Fe ( 0.000000,  0.000000,  2.232870)
  42 Co ( 0.000000,  0.000000,  1.214108)
  43 Al ( 0.000000,  0.000000, -0.033939)
  44 Ni ( 0.000000,  0.000000,  0.290387)
  45 Cr ( 0.000000,  0.000000,  0.277356)
  46 Co ( 0.000000,  0.000000,  0.835386)
  47 Fe ( 0.000000,  0.000000,  1.592160)
  48 Cr ( 0.000000,  0.000000, -0.372408)
  49 Co ( 0.000000,  0.000000,  1.189855)
  50 Cr ( 0.000000,  0.000000, -1.455149)
  51 Fe ( 0.000000,  0.000000,  1.676867)
  52 Cr ( 0.000000,  0.000000,  0.694558)
  53 Al ( 0.000000,  0.000000, -0.028653)
  54 Co ( 0.000000,  0.000000,  0.236389)
  55 Cr ( 0.000000,  0.000000, -0.643585)
  56 Cr ( 0.000000,  0.000000, -0.419905)
  57 Cr ( 0.000000,  0.000000, -1.238282)
  58 Ni ( 0.000000,  0.000000,  0.145140)
  59 Fe ( 0.000000,  0.000000,  1.903223)
[...]
  93 Cr ( 0.000000,  0.000000, -1.031795)
  94 Al ( 0.000000,  0.000000, -0.019814)
  95 Fe ( 0.000000,  0.000000,  1.791796)
  96 Fe ( 0.000000,  0.000000,  2.329405)
  97 Fe ( 0.000000,  0.000000,  2.344221)
  98 Co ( 0.000000,  0.000000,  1.504098)
  99 Ni ( 0.000000,  0.000000,  0.527911)
 100 Co ( 0.000000,  0.000000,  1.480499)
 101 Fe ( 0.000000,  0.000000,  2.658512)
 102 Co ( 0.000000,  0.000000,  1.218610)
 103 Ni ( 0.000000,  0.000000,  0.395240)
 104 Co ( 0.000000,  0.000000,  0.744938)
 105 Al ( 0.000000,  0.000000, -0.020136)
 106 Ni ( 0.000000,  0.000000,  0.198629)
 107 Cr ( 0.000000,  0.000000, -1.416685)

Energy contributions relative to reference atoms: (reference = -3699400.456887)

Kinetic:       +135.596746
Potential:     -188.084134
External:        +0.000000
XC:            -852.643760
Entropy (-ST):   -4.613777
Local:          +37.847758
Free energy:   -871.897168
Extrapolated:  -869.590279

Spin contamination: 23.413828 electrons
Showing only first 2 kpts
                      Up                     Down
 Kpt  Band  Eigenvalues  Occupancy  Eigenvalues  Occupancy
  0   508      9.62039    0.99490     10.53351    0.02066
  0   509      9.62907    0.99444     10.54593    0.01829
  0   510      9.64254    0.99364     10.55685    0.01643
  0   511      9.65671    0.99268     10.57638    0.01356

  1   508      9.61736    0.99505     10.53680    0.02001
  1   509      9.62999    0.99438     10.56594    0.01502
  1   510      9.63835    0.99390     10.57569    0.01365
  1   511      9.64605    0.99341     10.57910    0.01320

Fermi level: 10.14765

Gap: 0.004 eV
Transition (v -> c):
  (s=1, k=2, n=475, [0.25, 0.25, -0.25]) -> (s=0, k=1, n=544, [0.25, -0.25, 0.25])

Forces in eV/Ang:
  0 Ni   -0.01830    0.35849    0.41545
  1 Cr    0.24885   -0.19226   -0.40699
  2 Fe   -0.26243    0.48352   -0.01492
  3 Cr   -0.14319   -0.32380    0.33456
  4 Fe    0.50507    0.32526   -0.17485
  5 Co   -0.04592    0.05651    0.13235
  6 Co    0.04385   -0.00126   -0.10839
  7 Ni   -0.18960   -0.57261    0.10237
  8 Ni   -0.34019    0.05145    0.01570
  9 Co    0.00035   -0.19950    0.24966
 10 Cr    0.10023    0.45600   -0.38659
 11 Co    0.31411   -0.51815    0.36227
 12 Fe    0.20562   -0.10304    0.74065
 13 Ni   -0.01020    0.11775   -0.20715
 14 Cr   -0.12589   -0.19333    0.12594
 15 Co    0.05990    0.01513    0.14730
 16 Ni   -0.00054   -0.13598    0.31331
 17 Co    0.04778   -0.13223   -0.07491
 18 Fe   -0.59254   -0.20693    0.39608
 19 Ni    0.09768    0.37604    0.15785
 20 Al   -0.66353   -0.07479    1.29099
 21 Ni    0.02244    0.53999   -0.45194
 22 Cr    1.11841   -0.42634    0.38176
 23 Fe   -0.08081    0.93709    0.37597
 24 Cr   -0.42901   -0.03883   -0.00011
 25 Cr   -0.16095    0.12019   -0.21396
 26 Co   -0.08398    0.02975   -0.11233
 27 Co   -0.05893    0.03072    0.20262
 28 Ni   -0.02871    0.01236   -0.20193
 29 Ni   -0.01308    0.11942   -0.12083
 30 Cr    0.34698   -0.10721   -0.38168
 31 Ni    0.35763    0.21528   -0.23607
 32 Cr    0.23715   -0.41218    1.02399
 33 Co    0.17603   -0.27023   -0.48784
 34 Co   -0.38950    0.15311   -0.38363
 35 Co   -0.25977   -0.43727    0.52334
 36 Cr   -0.03216    0.11784    0.18202
 37 Fe    0.21905   -0.13813   -0.14249
 38 Fe   -0.27086    0.22767   -0.25045
 39 Co   -0.02393   -0.02431   -0.12960
 40 Ni    0.24985    0.36923    0.00407
 41 Fe    0.00689   -0.15900   -0.04833
 42 Co    0.06781   -0.35246    0.20120
 43 Al   -0.24235   -0.61867   -0.51236
 44 Ni   -0.00955   -0.12475    0.14796
 45 Cr    0.31978   -0.04718    0.45284
 46 Co   -0.29021   -0.24212    0.08973
 47 Fe   -0.13367   -0.04980   -0.10169
 48 Cr   -0.09743   -0.18468   -0.19084
 49 Co   -0.07115    0.08144   -0.04358
 50 Cr   -0.78465   -0.89718   -0.12024
 51 Fe   -0.20549   -0.19600   -0.30288
 52 Cr   -0.17471   -0.23080   -0.71224
 53 Al    0.18155    0.52705    0.52289
 54 Co    0.07903   -0.32299   -0.08545
 55 Cr    0.38652   -0.27317   -0.57008
 56 Cr    0.25016    0.26799    0.14057
 57 Cr    0.17533    0.28074    0.35010
 58 Ni    0.09863    0.07346   -0.00521
 59 Fe   -0.11834   -0.13132   -0.21645
[...]
 93 Cr   -0.32014    1.19761   -0.48087
 94 Al    0.88221    0.50231    0.00176
 95 Fe   -0.16475    0.25646   -0.24987
 96 Fe   -0.10929    0.03694   -0.33729
 97 Fe    0.15128   -0.07909    0.18411
 98 Co    0.07943   -0.02762    0.03921
 99 Ni    0.05877    0.22042   -0.20276
100 Co    0.15662    0.38918    0.27282
101 Fe    0.26842   -0.01703   -0.12927
102 Co    0.22134   -0.28896    0.25640
103 Ni    0.14563    0.31368   -0.00643
104 Co   -0.12839   -0.11675   -0.46172
105 Al   -0.99305    0.12297    0.46481
106 Ni   -0.26502   -0.28178    0.34371
107 Cr    1.04547    0.30151   -0.80585

Date: Sun Apr 16 10:16:34 2023