User:   c.zeng@d0022
Date:   Thu Apr 13 22:57:39 2023
Arch:   x86_64
Pid:    162511
CWD:    /home/c.zeng/projects/hea-corrosion/hea-mlp/data-curation/bulk-md/dft-jobs/54
Python: 3.8.1
gpaw:   /home/c.zeng/usr/installs/gpaw/source/gpaw-22.8.0/gpaw
_gpaw:  /home/c.zeng/usr/installs/gpaw/source/gpaw-22.8.0/
        _gpaw.cpython-38-x86_64-linux-gnu.so
ase:    /home/c.zeng/.local/lib/python3.8/site-packages/ase-3.22.1-py3.8.egg/ase (version 3.22.1)
numpy:  /shared/centos7/python/3.8.1/lib/python3.8/site-packages/numpy (version 1.17.4)
scipy:  /shared/centos7/python/3.8.1/lib/python3.8/site-packages/scipy (version 1.4.1)
units:  Angstrom and eV
cores: 30
OpenMP: False
OMP_NUM_THREADS: 1

Input parameters:
  convergence: {energy: 0.0001}
  kpts: [2 2 2]
  maxiter: 666
  mode: {ecut: 350.0,
         name: pw}
  occupations: {fixmagmom: False,
                name: fermi-dirac,
                width: 0.1}
  spinpol: True
  xc: PBE

System changes: positions, numbers, cell, pbc, initial_charges, initial_magmoms

Initialize ...

species:
  Co:
    name: Cobalt
    id: 339d20d5b0b93d2de9531a1bee871d91
    Z: 27.0
    valence: 9
    core: 18
    charge: 0.0
    file: /home/c.zeng/usr/data/gpaw-setups-0.9.20000/Co.PBE.gz
    compensation charges: {type: gauss,
                           rc: 0.32,
                           lmax: 2}
    cutoffs: {filter: 1.87,
              core: 2.55}
    valence states:
      #              energy  rcut
      - 4s(2.00)    -5.469   1.005
      - 4p(0.00)    -1.277   1.058
      - 3d(7.00)    -8.205   1.005
      -  s          21.742   1.005
      -  p          25.934   1.058
      -  d          19.007   1.005

    # Using partial waves for Co as LCAO basis

  Ni:
    name: Nickel
    id: 0d9f38a9d6e76a2886f07bb4381f212b
    Z: 28.0
    valence: 16
    core: 12
    charge: 0.0
    file: /home/c.zeng/usr/data/gpaw-setups-0.9.20000/Ni.PBE.gz
    compensation charges: {type: gauss,
                           rc: 0.36,
                           lmax: 2}
    cutoffs: {filter: 2.14,
              core: 1.98}
    valence states:
      #              energy  rcut
      - 4s(2.00)    -5.642   1.164
      - 3p(6.00)   -71.394   1.207
      - 4p(0.00)    -1.226   1.207
      - 3d(8.00)    -8.875   1.138
      -  s          21.570   1.164
      -  d          18.337   1.138

[...]

  Al:
    name: Aluminium
    id: 0292cae29f5d6237e50f6abdd43a7bdd
    Z: 13.0
    valence: 3
    core: 10
    charge: 0.0
    file: /home/c.zeng/usr/data/gpaw-setups-0.9.20000/Al.PBE.gz
    compensation charges: {type: gauss,
                           rc: 0.34,
                           lmax: 2}
    cutoffs: {filter: 1.91,
              core: 2.36}
    valence states:
      #              energy  rcut
      - 3s(2.00)    -7.753   1.085
      - 3p(1.00)    -2.712   1.085
      -  s          19.459   1.085
      -  p          24.499   1.085
      -  d           0.000   1.085

[...]

  Cr:
    name: Chromium
    id: 33f258bda2ca9f93018e70263a35547b
    Z: 24.0
    valence: 6
    core: 18
    charge: 0.0
    file: /home/c.zeng/usr/data/gpaw-setups-0.9.20000/Cr.PBE.gz
    compensation charges: {type: gauss,
                           rc: 0.35,
                           lmax: 2}
    cutoffs: {filter: 2.14,
              core: 3.04}
    valence states:
      #              energy  rcut
      - 4s(1.00)    -4.007   1.164
      - 4p(0.00)    -0.989   1.217
      - 3d(5.00)    -2.913   1.111
      -  s          23.205   1.164
      -  p          26.223   1.217
      -  d          24.299   1.111

[...]

  Fe:
    name: Iron
    id: 37abbd8d6c3c35915a9b583b742da910
    Z: 26.0
    valence: 8
    core: 18
    charge: 0.0
    file: /home/c.zeng/usr/data/gpaw-setups-0.9.20000/Fe.PBE.gz
    compensation charges: {type: gauss,
                           rc: 0.33,
                           lmax: 2}
    cutoffs: {filter: 2.06,
              core: 2.67}
    valence states:
      #              energy  rcut
      - 4s(2.00)    -5.291   1.164
      - 4p(0.00)    -1.326   1.058
      - 3d(6.00)    -7.505   1.058
      -  s          21.920   1.164
      -  p          25.885   1.058
      -  d          19.706   1.058

    # Using partial waves for Fe as LCAO basis

Reference energy: -3548577.034362  # eV

Spin-polarized calculation.
Magnetic moment: 136.400000

Convergence criteria:
 Maximum [total energy] change in last 3 cyles: 0.0001 eV / electron
 Maximum integral of absolute [dens]ity change: 0.0001 electrons / valence electron
 Maximum integral of absolute [eigenst]ate change: 4e-08 eV^2 / valence electron
 Maximum number of scf [iter]ations: 666
 (Square brackets indicate name in SCF output, whereas a 'c' in
 the SCF output indicates the quantity has converged.)

Symmetries present (total): 1

  ( 1  0  0)
  ( 0  1  0)
  ( 0  0  1)

8 k-points: 2 x 2 x 2 Monkhorst-Pack grid
4 k-points in the irreducible part of the Brillouin zone
       k-points in crystal coordinates                weights
   0:     0.25000000   -0.25000000   -0.25000000          2/8
   1:     0.25000000   -0.25000000    0.25000000          2/8
   2:     0.25000000    0.25000000   -0.25000000          2/8
   3:     0.25000000    0.25000000    0.25000000          2/8

Wave functions: Plane wave expansion
  Cutoff energy: 350.000 eV
  Number of coefficients (min, max): 18331, 18331
  Pulay-stress correction: 0.000000 eV/Ang^3 (de/decut=0.000000)
  Using FFTW library
  ScaLapack parameters: grid=1x1, blocksize=None
  Wavefunction extrapolation:
    Improved wavefunction reuse through dual PAW basis

Occupation numbers: Fermi-Dirac:
  width: 0.1000  # eV

Eigensolver
   Davidson(niter=2)

Densities:
  Coarse grid: 48*48*48 grid
  Fine grid: 96*96*96 grid
  Total Charge: 0.000000

Density mixing:
  Method: difference
  Backend: pulay
  Linear mixing parameter: 0.05
  old densities: 5
  Damping of long wavelength oscillations: 50

Hamiltonian:
  XC and Coulomb potentials evaluated on a 96*96*96 grid
  Using the PBE Exchange-Correlation functional
  External potential:
    NoExternalPotential

XC parameters: PBE with 2 nearest neighbor stencil

Total number of cores used: 30
Parallelization over k-points: 2
Domain decomposition: 5 x 3 x 1

Number of atoms: 108
Number of atomic orbitals: 994
Number of bands in calculation: 674
Number of valence electrons: 980
Bands to converge: occupied

... initialized

Initializing position-dependent things.

Density initialized from atomic densities
Creating initial wave functions:
  674 bands from LCAO basis set

       /|  Cr                Cr   Co
      / |      Fe    Fe        Fe |
     /  |                    Al   |
    /  NiAl     Ni Fe   Ni Fe     |
   /    | Ni  Fe Fe  Coi          Al
  /    Cr  Co  Fel CoCoCo   FeCo  |
 *     Ni Cr  Co        CrCr   Co |
 |Co    NFeFe  CoCoCr     Cr    Ni|
 | Cr Co| CrCo  Co CFe   CrFe     |
 |     Fe  NiNiCr   CrCNi   Ni Fe |
 |      Fe    CoCoNi FeCrCr   FNi |
 |     AlNi    NiCrCo   CrFeNi    |
 |   Co .-NNi------CoCr--CrFeCr---.
 |   FeNi   Ni Ni   FeAl         /
 |    /                FNiCr    /
 |   / Al       Alo        Cr  /
 |Ni/      Fe      Fe        Co
 | / Al     Cr               /
 |/                     Al  /

Positions:
   0 Co    10.673477   -0.145028   10.309504    ( 0.0000,  0.0000,  2.1000)
   1 Ni    10.859730    1.552392    2.046193    ( 0.0000,  0.0000,  1.5000)
   2 Al     1.706003    0.108261    1.602923    ( 0.0000,  0.0000,  0.0000)
   3 Cr     1.929381    1.715078   10.680598    ( 0.0000,  0.0000,  0.0000)
   4 Cr     3.672193    0.012496   10.593718    ( 0.0000,  0.0000,  0.0000)
   5 Fe     3.611889    1.707906    1.726840    ( 0.0000,  0.0000,  2.0000)
   6 Fe     5.182638   -0.010730    2.031394    ( 0.0000,  0.0000,  2.0000)
   7 Fe     5.423075    1.600313   -0.081666    ( 0.0000,  0.0000,  2.0000)
   8 Cr     7.137168   -0.009637    0.051263    ( 0.0000,  0.0000,  0.0000)
   9 Fe     7.142998    1.692719    1.639974    ( 0.0000,  0.0000,  2.0000)
  10 Fe     9.148918   -0.031120    1.689880    ( 0.0000,  0.0000,  2.0000)
  11 Al     9.208647    1.693997    0.039449    ( 0.0000,  0.0000,  0.0000)
  12 Co    10.635825    3.558715   10.885380    ( 0.0000,  0.0000,  2.1000)
  13 Fe    11.010502    5.418837    1.819282    ( 0.0000,  0.0000,  2.0000)
  14 Al     1.730323    3.407081    1.719115    ( 0.0000,  0.0000,  0.0000)
  15 Al     1.668600    5.471817   10.596988    ( 0.0000,  0.0000,  0.0000)
  16 Cr     3.426974    3.471012   10.807073    ( 0.0000,  0.0000,  0.0000)
  17 Cr     3.228411    5.177374    1.779948    ( 0.0000,  0.0000,  0.0000)
  18 Al     5.478659    3.364382    1.560471    ( 0.0000,  0.0000,  0.0000)
  19 Co     5.198406    5.259257   11.200848    ( 0.0000,  0.0000,  2.1000)
  20 Co     7.373812    3.405258   -0.130498    ( 0.0000,  0.0000,  2.1000)
  21 Cr     7.325815    5.431497    1.829447    ( 0.0000,  0.0000,  0.0000)
  22 Cr     9.159076    3.542626    1.936266    ( 0.0000,  0.0000,  0.0000)
  23 Cr     9.205022    5.484597    0.080069    ( 0.0000,  0.0000,  0.0000)
  24 Fe    10.580485    7.295096   10.671832    ( 0.0000,  0.0000,  2.0000)
  25 Al    10.822291    9.125069    1.727652    ( 0.0000,  0.0000,  0.0000)
  26 Ni     1.962990    7.189032    1.738182    ( 0.0000,  0.0000,  1.5000)
  27 Cr     1.721223    8.904045   10.563309    ( 0.0000,  0.0000,  0.0000)
  28 Fe     3.615565    7.402110   10.664463    ( 0.0000,  0.0000,  2.0000)
  29 Ni     3.550868    8.861081    1.764389    ( 0.0000,  0.0000,  1.5000)
  30 Co     5.377226    7.315401    2.032021    ( 0.0000,  0.0000,  2.1000)
  31 Fe     5.401913    9.035030   10.766191    ( 0.0000,  0.0000,  2.0000)
  32 Fe     7.050498    7.289538   11.005166    ( 0.0000,  0.0000,  2.0000)
  33 Cr     7.097461    9.162084    1.888010    ( 0.0000,  0.0000,  0.0000)
  34 Fe     8.826121    7.381305    1.958044    ( 0.0000,  0.0000,  2.0000)
  35 Cr     8.878457    9.164646   -0.104450    ( 0.0000,  0.0000,  0.0000)
  36 Ni    10.784148   -0.085817    3.915796    ( 0.0000,  0.0000,  1.5000)
  37 Ni    -0.035171    1.860381    5.361508    ( 0.0000,  0.0000,  1.5000)
  38 Co     1.792054    0.052184    5.373140    ( 0.0000,  0.0000,  2.1000)
  39 Ni     1.781813    1.862759    3.670589    ( 0.0000,  0.0000,  1.5000)
  40 Co     3.480882   -0.090346    3.686125    ( 0.0000,  0.0000,  2.1000)
  41 Ni     3.598170    1.645280    5.249290    ( 0.0000,  0.0000,  1.5000)
  42 Co     5.338799   -0.194573    5.489072    ( 0.0000,  0.0000,  2.1000)
  43 Ni     5.436419    1.848894    3.640962    ( 0.0000,  0.0000,  1.5000)
  44 Cr     7.036353   -0.096198    3.466544    ( 0.0000,  0.0000,  0.0000)
  45 Co     7.023574    2.026882    5.262069    ( 0.0000,  0.0000,  2.1000)
  46 Al     8.684240   10.937856    5.190552    ( 0.0000,  0.0000,  0.0000)
  47 Ni     8.893276    1.760139    3.395955    ( 0.0000,  0.0000,  1.5000)
  48 Cr    10.608208    3.624025    3.800489    ( 0.0000,  0.0000,  0.0000)
  49 Fe    -0.026097    5.470691    5.463589    ( 0.0000,  0.0000,  2.0000)
  50 Fe     1.801662    3.516832    5.368881    ( 0.0000,  0.0000,  2.0000)
  51 Ni     1.754135    5.404918    3.777053    ( 0.0000,  0.0000,  1.5000)
  52 Ni     3.497006    3.617304    3.326750    ( 0.0000,  0.0000,  1.5000)
  53 Ni     3.483175    5.160903    5.220581    ( 0.0000,  0.0000,  1.5000)
  54 Co     5.414084    3.595445    5.259043    ( 0.0000,  0.0000,  2.1000)
  55 Cr     5.180651    5.263593    3.537410    ( 0.0000,  0.0000,  0.0000)
  56 Cr     7.231171    3.572539    3.513054    ( 0.0000,  0.0000,  0.0000)
  57 Co     7.142600    5.305930    5.306029    ( 0.0000,  0.0000,  2.1000)
  58 Cr     9.045876    3.854161    5.440786    ( 0.0000,  0.0000,  0.0000)
  59 Fe     8.953601    5.426309    3.583810    ( 0.0000,  0.0000,  2.0000)
[...]
  93 Ni     7.288554    5.349281    9.252361    ( 0.0000,  0.0000,  1.5000)
  94 Cr     9.193509    3.461673    9.021712    ( 0.0000,  0.0000,  0.0000)
  95 Cr     8.724476    5.407174    7.123559    ( 0.0000,  0.0000,  0.0000)
  96 Co    10.437862    7.146088    7.067765    ( 0.0000,  0.0000,  2.1000)
  97 Ni    10.951883    8.879586    8.729562    ( 0.0000,  0.0000,  1.5000)
  98 Ni     1.896004    7.343658    8.760718    ( 0.0000,  0.0000,  1.5000)
  99 Co     1.913993    8.934210    6.898644    ( 0.0000,  0.0000,  2.1000)
 100 Co     3.495952    7.111854    7.022404    ( 0.0000,  0.0000,  2.1000)
 101 Ni     3.707500    8.964777    8.629645    ( 0.0000,  0.0000,  1.5000)
 102 Fe     5.540730    7.085405    9.218786    ( 0.0000,  0.0000,  2.0000)
 103 Co     5.253761    8.667234    7.135905    ( 0.0000,  0.0000,  2.1000)
 104 Co     6.967243    7.059885    7.361157    ( 0.0000,  0.0000,  2.1000)
 105 Ni     7.034196    8.880338    8.684474    ( 0.0000,  0.0000,  1.5000)
 106 Fe     8.897146    7.350265    9.080081    ( 0.0000,  0.0000,  2.0000)
 107 Fe     8.742046    8.681862    7.103472    ( 0.0000,  0.0000,  2.0000)

Unit cell:
           periodic     x           y           z      points  spacing
  1. axis:    yes   10.722400    0.000000    0.000000    48     0.2234
  2. axis:    yes    0.000000   10.722400    0.000000    48     0.2234
  3. axis:    yes    0.000000    0.000000   10.722400    48     0.2234

  Lengths:  10.722400  10.722400  10.722400
  Angles:   90.000000  90.000000  90.000000

Effective grid spacing dv^(1/3) = 0.2234

     iter     time        total  log10-change:  magmom
                         energy  eigst   dens
iter:   1 23:01:06 -1015.042239                  +136.6833
iter:   2 23:02:25  -900.550047  -0.22  -1.18    +75.6237
iter:   3 23:03:44  -898.990152  -0.79  -1.20    +63.0698
iter:   4 23:05:03  -868.154737  -1.20  -1.26    +58.4734
iter:   5 23:06:23  -858.086099  -1.59  -1.29    +54.7081
iter:   6 23:07:42  -865.994604  -1.26  -1.34    +55.2108
iter:   7 23:09:01  -844.585325  -1.29  -1.38    +53.3924
iter:   8 23:10:20  -840.329036  -1.51  -1.56    +53.0528
iter:   9 23:11:39  -839.147703  -1.90  -1.69    +53.6989
iter:  10 23:12:58  -836.924626  -2.24  -1.73    +54.7874
iter:  11 23:14:17  -837.674462  -2.45  -1.83    +55.7367
iter:  12 23:15:37  -837.318036  -2.51  -1.82    +57.2000
iter:  13 23:16:56  -839.289164  -2.38  -1.88    +58.4202
iter:  14 23:18:15  -837.647857  -2.38  -1.87    +58.5884
iter:  15 23:19:35  -839.707026  -2.34  -1.99    +59.5371
iter:  16 23:20:54  -837.906374  -2.46  -1.94    +59.8503
iter:  17 23:22:13  -837.948130  -2.72  -2.03    +60.8086
iter:  18 23:23:32  -837.764064  -2.76  -2.09    +60.9991
iter:  19 23:24:51  -837.715208  -2.89  -2.13    +61.4885
iter:  20 23:26:11  -837.358874  -3.08  -2.16    +62.1464
iter:  21 23:27:30  -837.443007  -3.19  -2.24    +62.2239
iter:  22 23:28:49  -837.586127  -3.15  -2.26    +62.7323
iter:  23 23:30:09  -837.462113  -3.19  -2.26    +62.8186
iter:  24 23:31:28  -837.556585  -3.25  -2.29    +63.1390
iter:  25 23:32:47  -837.567907  -3.23  -2.31    +63.1410
iter:  26 23:34:06  -837.494414c -3.32  -2.35    +63.1556
iter:  27 23:35:26  -837.452088  -3.53  -2.37    +63.6494
iter:  28 23:36:45  -837.509064c -3.54  -2.42    +63.6330
iter:  29 23:38:04  -837.512139c -3.53  -2.42    +63.7473
iter:  30 23:39:23  -837.496996c -3.72  -2.44    +63.7672
iter:  31 23:40:43  -837.513190c -3.73  -2.47    +63.9272
iter:  32 23:42:02  -837.567428c -3.67  -2.50    +63.9697
iter:  33 23:43:21  -837.538323c -3.75  -2.50    +63.8031
iter:  34 23:44:40  -837.576040c -3.80  -2.53    +63.9560
iter:  35 23:45:59  -837.601685c -3.62  -2.54    +63.9819
iter:  36 23:47:19  -837.592876c -3.81  -2.52    +64.0454
iter:  37 23:48:38  -837.581894c -3.86  -2.56    +63.9502
iter:  38 23:49:57  -837.567886c -3.91  -2.60    +63.9780
iter:  39 23:51:17  -837.552062c -4.12  -2.62    +64.2317
iter:  40 23:52:36  -837.562463c -4.30  -2.66    +64.2266
iter:  41 23:53:55  -837.593902c -4.12  -2.67    +64.2884
iter:  42 23:55:14  -837.583387c -4.17  -2.65    +64.2800
iter:  43 23:56:33  -837.592220c -4.16  -2.68    +64.3657
iter:  44 23:57:52  -837.624630c -4.05  -2.70    +64.4132
iter:  45 23:59:11  -837.608910c -4.09  -2.70    +64.3143
iter:  46 00:00:31  -837.596188c -4.24  -2.73    +64.4318
iter:  47 00:01:50  -837.604504c -4.25  -2.75    +64.4967
iter:  48 00:03:09  -837.599646c -4.36  -2.76    +64.5490
iter:  49 00:04:28  -837.594291c -4.52  -2.79    +64.5186
iter:  50 00:05:48  -837.594208c -4.61  -2.82    +64.5494
iter:  51 00:07:07  -837.602813c -4.52  -2.83    +64.6755
iter:  52 00:08:26  -837.609735c -4.49  -2.84    +64.6620
iter:  53 00:09:45  -837.625635c -4.42  -2.85    +64.6752
iter:  54 00:11:04  -837.624009c -4.25  -2.83    +64.6686
iter:  55 00:12:23  -837.618918c -4.30  -2.84    +64.7373
iter:  56 00:13:43  -837.619916c -4.46  -2.87    +64.8046
iter:  57 00:15:02  -837.613629c -4.55  -2.91    +64.7479
iter:  58 00:16:21  -837.604594c -4.67  -2.95    +64.8330
iter:  59 00:17:40  -837.606917c -5.03  -2.97    +64.8871
iter:  60 00:18:59  -837.613731c -4.75  -3.01    +64.9288
iter:  61 00:20:18  -837.618217c -4.69  -2.98    +64.9062
iter:  62 00:21:37  -837.614903c -4.69  -2.99    +64.9098
iter:  63 00:22:56  -837.618480c -4.67  -3.02    +65.0046
iter:  64 00:24:15  -837.627662c -4.52  -3.05    +64.9773
iter:  65 00:25:35  -837.616378c -4.84  -3.02    +64.9711
iter:  66 00:26:54  -837.615612c -4.77  -3.10    +64.9564
iter:  67 00:28:13  -837.612533c -4.96  -3.10    +65.0094
iter:  68 00:29:32  -837.612594c -5.19  -3.16    +65.0510
iter:  69 00:30:51  -837.612017c -5.40  -3.20    +65.0459
iter:  70 00:32:10  -837.612973c -5.11  -3.23    +65.0878
iter:  71 00:33:29  -837.613188c -5.33  -3.19    +65.1114
iter:  72 00:34:48  -837.617671c -5.07  -3.26    +65.1390
iter:  73 00:36:07  -837.618564c -5.04  -3.20    +65.1177
iter:  74 00:37:26  -837.614208c -5.07  -3.23    +65.1161
iter:  75 00:38:46  -837.613248c -5.35  -3.27    +65.1739
iter:  76 00:40:05  -837.616960c -5.36  -3.33    +65.1676
iter:  77 00:41:24  -837.613240c -5.60  -3.32    +65.1700
iter:  78 00:42:43  -837.613277c -5.71  -3.38    +65.1661
iter:  79 00:44:02  -837.613845c -5.77  -3.39    +65.1853
iter:  80 00:45:21  -837.616164c -5.50  -3.40    +65.1977
iter:  81 00:46:40  -837.615729c -5.49  -3.39    +65.1854
iter:  82 00:47:59  -837.616281c -5.37  -3.41    +65.2098
iter:  83 00:49:18  -837.617408c -5.25  -3.39    +65.2260
iter:  84 00:51:04  -837.617545c -5.43  -3.40    +65.2449
iter:  85 00:53:07  -837.617364c -5.58  -3.43    +65.2293
iter:  86 00:55:09  -837.615825c -5.59  -3.50    +65.2348
iter:  87 00:57:11  -837.615577c -5.80  -3.52    +65.2631
iter:  88 00:59:13  -837.616793c -6.21  -3.57    +65.2613
iter:  89 01:01:15  -837.616373c -5.57  -3.62    +65.2612
iter:  90 01:03:18  -837.616869c -5.57  -3.52    +65.2565
iter:  91 01:05:20  -837.616326c -5.67  -3.54    +65.2758
iter:  92 01:07:24  -837.617929c -5.61  -3.64    +65.2787
iter:  93 01:09:26  -837.617663c -5.59  -3.64    +65.2616
iter:  94 01:11:29  -837.615857c -6.07  -3.65    +65.2757
iter:  95 01:13:33  -837.616872c -6.11  -3.85    +65.2864
iter:  96 01:15:36  -837.616533c -6.55  -3.80    +65.2920
iter:  97 01:17:40  -837.616579c -6.92  -3.90    +65.2876
iter:  98 01:19:43  -837.616456c -6.76  -3.95    +65.2941
iter:  99 01:21:47  -837.616707c -6.52  -3.94    +65.2986
iter: 100 01:23:50  -837.617187c -6.52  -3.92    +65.2987
iter: 101 01:25:54  -837.617000c -6.12  -3.97    +65.2976
iter: 102 01:27:57  -837.617270c -6.04  -3.83    +65.2972
iter: 103 01:30:01  -837.616934c -6.27  -3.88    +65.3088
iter: 104 01:32:05  -837.617409c -6.54  -4.00c   +65.3117
iter: 105 01:34:09  -837.617325c -6.87  -4.06c   +65.3053
iter: 106 01:36:14  -837.617071c -6.90  -4.13c   +65.3089
iter: 107 01:38:18  -837.617244c -7.46c -4.20c   +65.3096

Converged after 107 iterations.

Dipole moment: (20.849489, 15.929740, 9.940058) |e|*Ang

Total magnetic moment: (0.000000, 0.000000, 65.309593)
Local magnetic moments:
   0 Co ( 0.000000,  0.000000,  0.414189)
   1 Ni ( 0.000000,  0.000000,  0.199325)
   2 Al ( 0.000000,  0.000000,  0.002531)
   3 Cr ( 0.000000,  0.000000,  1.144741)
   4 Cr ( 0.000000,  0.000000, -1.294516)
   5 Fe ( 0.000000,  0.000000,  1.730746)
   6 Fe ( 0.000000,  0.000000,  1.841228)
   7 Fe ( 0.000000,  0.000000,  1.486396)
   8 Cr ( 0.000000,  0.000000, -0.458724)
   9 Fe ( 0.000000,  0.000000,  1.854952)
  10 Fe ( 0.000000,  0.000000,  1.829992)
  11 Al ( 0.000000,  0.000000, -0.028091)
  12 Co ( 0.000000,  0.000000, -0.136993)
  13 Fe ( 0.000000,  0.000000,  2.077439)
  14 Al ( 0.000000,  0.000000, -0.011547)
  15 Al ( 0.000000,  0.000000, -0.030170)
  16 Cr ( 0.000000,  0.000000, -1.148420)
  17 Cr ( 0.000000,  0.000000,  1.304259)
  18 Al ( 0.000000,  0.000000, -0.019826)
  19 Co ( 0.000000,  0.000000,  0.639141)
  20 Co ( 0.000000,  0.000000,  0.978081)
  21 Cr ( 0.000000,  0.000000, -0.735818)
  22 Cr ( 0.000000,  0.000000,  0.701046)
  23 Cr ( 0.000000,  0.000000, -1.569927)
  24 Fe ( 0.000000,  0.000000,  1.867065)
  25 Al ( 0.000000,  0.000000, -0.017006)
  26 Ni ( 0.000000,  0.000000,  0.281770)
  27 Cr ( 0.000000,  0.000000, -1.796131)
  28 Fe ( 0.000000,  0.000000,  2.311915)
  29 Ni ( 0.000000,  0.000000,  0.238193)
  30 Co ( 0.000000,  0.000000,  0.683619)
  31 Fe ( 0.000000,  0.000000,  1.916554)
  32 Fe ( 0.000000,  0.000000,  2.029033)
  33 Cr ( 0.000000,  0.000000, -0.131098)
  34 Fe ( 0.000000,  0.000000,  2.027358)
  35 Cr ( 0.000000,  0.000000, -0.474218)
  36 Ni ( 0.000000,  0.000000,  0.317148)
  37 Ni ( 0.000000,  0.000000,  0.068327)
  38 Co ( 0.000000,  0.000000,  1.353064)
  39 Ni ( 0.000000,  0.000000,  0.370546)
  40 Co ( 0.000000,  0.000000,  1.543122)
  41 Ni ( 0.000000,  0.000000,  0.478409)
  42 Co ( 0.000000,  0.000000,  1.109127)
  43 Ni ( 0.000000,  0.000000,  0.180424)
  44 Cr ( 0.000000,  0.000000, -0.355040)
  45 Co ( 0.000000,  0.000000,  0.792466)
  46 Al ( 0.000000,  0.000000, -0.004557)
  47 Ni ( 0.000000,  0.000000,  0.092881)
  48 Cr ( 0.000000,  0.000000, -0.940903)
  49 Fe ( 0.000000,  0.000000,  1.637859)
  50 Fe ( 0.000000,  0.000000,  2.285253)
  51 Ni ( 0.000000,  0.000000,  0.336766)
  52 Ni ( 0.000000,  0.000000,  0.195064)
  53 Ni ( 0.000000,  0.000000,  0.378682)
  54 Co ( 0.000000,  0.000000,  1.089641)
  55 Cr ( 0.000000,  0.000000, -1.852565)
  56 Cr ( 0.000000,  0.000000, -0.469178)
  57 Co ( 0.000000,  0.000000,  0.727814)
  58 Cr ( 0.000000,  0.000000,  0.778955)
  59 Fe ( 0.000000,  0.000000,  1.017956)
[...]
  93 Ni ( 0.000000,  0.000000,  0.259061)
  94 Cr ( 0.000000,  0.000000,  1.172749)
  95 Cr ( 0.000000,  0.000000, -1.426916)
  96 Co ( 0.000000,  0.000000,  1.154166)
  97 Ni ( 0.000000,  0.000000,  0.280692)
  98 Ni ( 0.000000,  0.000000,  0.419811)
  99 Co ( 0.000000,  0.000000,  1.456349)
 100 Co ( 0.000000,  0.000000,  1.514765)
 101 Ni ( 0.000000,  0.000000,  0.566127)
 102 Fe ( 0.000000,  0.000000,  2.363998)
 103 Co ( 0.000000,  0.000000,  1.486084)
 104 Co ( 0.000000,  0.000000,  1.295278)
 105 Ni ( 0.000000,  0.000000,  0.387662)
 106 Fe ( 0.000000,  0.000000,  2.024659)
 107 Fe ( 0.000000,  0.000000,  1.343328)

Energy contributions relative to reference atoms: (reference = -3548577.034362)

Kinetic:       +381.789917
Potential:     -374.990358
External:        +0.000000
XC:            -878.327687
Entropy (-ST):   -4.389831
Local:          +36.105799
Free energy:   -839.812160
Extrapolated:  -837.617244

Spin contamination: 22.677784 electrons
Showing only first 2 kpts
                      Up                     Down
 Kpt  Band  Eigenvalues  Occupancy  Eigenvalues  Occupancy
  0   488      9.50336    0.99530     10.43176    0.01930
  0   489      9.51698    0.99462     10.44178    0.01750
  0   490      9.53019    0.99387     10.45643    0.01515
  0   491      9.54235    0.99308     10.46659    0.01370

  1   488      9.50943    0.99501     10.43273    0.01912
  1   489      9.53381    0.99364     10.44129    0.01758
  1   490      9.54492    0.99290     10.44846    0.01638
  1   491      9.55269    0.99233     10.46358    0.01412

Fermi level: 10.03897

No gap

Forces in eV/Ang:
  0 Co    1.32487   -0.42078    2.15814
  1 Ni   -1.25394    1.80840   -1.05222
  2 Al    2.51829   -1.24172    1.81802
  3 Cr   -0.92940    0.44423   -2.68681
  4 Cr    0.08541   -0.21352   -0.15903
  5 Fe    0.23820   -0.21942    1.07678
  6 Fe    0.11402    0.02808   -1.07536
  7 Fe   -0.84312    0.35359   -0.11254
  8 Cr   -0.56603   -0.65038   -0.79310
  9 Fe    1.10815   -0.61920    0.83695
 10 Fe   -1.66035    0.13163    1.23832
 11 Al   -0.61442   -0.20763    0.19463
 12 Co    0.57413   -0.16493   -1.17106
 13 Fe   -1.66432    0.38443    0.83454
 14 Al   -2.21581   -0.74140    1.78604
 15 Al   -0.29801    0.22467   -1.27688
 16 Cr    0.52956   -0.11300   -1.22235
 17 Cr    2.26724    2.70118   -0.65977
 18 Al    0.01429   -0.02173    1.71923
 19 Co    0.50568    2.35511   -0.99577
 20 Co   -0.01416    0.26128    0.80822
 21 Cr   -0.70719   -0.15389   -0.05680
 22 Cr   -0.27496    0.73939   -0.59137
 23 Cr   -0.45533   -0.17766    0.26537
 24 Fe    0.92449    0.19794    0.19987
 25 Al   -1.12185   -2.76430    1.37464
 26 Ni   -1.21814   -0.24633    0.46716
 27 Cr    1.16984    0.17168   -0.29606
 28 Fe   -0.07730   -0.81042    0.07418
 29 Ni    0.17174    1.45021    0.72333
 30 Co   -0.28644   -0.91253   -1.17779
 31 Fe   -0.30225    0.52736   -0.24096
 32 Fe    0.77667   -0.71759   -0.60491
 33 Cr    0.00092   -0.65179   -0.53104
 34 Fe    0.54195   -0.83732   -1.36366
 35 Cr   -0.13794   -1.59404    1.64751
 36 Ni   -0.82923    1.05837   -2.24768
 37 Ni   -0.39840   -0.08348   -0.01738
 38 Co    0.74048   -0.34366    0.30373
 39 Ni    0.40864   -0.72425   -0.13084
 40 Co    0.45550    0.56045   -0.73366
 41 Ni    0.33043    1.38378    0.42230
 42 Co    0.88612    0.89037   -1.47988
 43 Ni   -0.98297   -0.61304   -1.25304
 44 Cr   -0.79049    1.31382   -0.11344
 45 Co    1.37848   -0.87308    0.78303
 46 Al    0.37992    0.59371    0.55331
 47 Ni   -0.06050   -0.15600    1.10760
 48 Cr    0.13219    0.39986   -1.11799
 49 Fe    0.65990    0.00001   -0.66004
 50 Fe   -0.13325    0.15728   -0.36871
 51 Ni   -0.73264    0.01028   -1.23430
 52 Ni    0.39928   -1.54591    1.69965
 53 Ni    1.33707    1.22702    0.99204
 54 Co   -1.24284    0.81320    0.42384
 55 Cr    1.15085    1.02874   -0.79247
 56 Cr    0.09933    0.40193    0.27988
 57 Co   -1.00754    0.50391   -0.48112
 58 Cr   -1.33619   -2.20583    0.12628
 59 Fe   -0.21959   -0.10760   -0.54218
[...]
 93 Ni   -0.12147    0.50209   -0.46421
 94 Cr   -0.49094    1.06484   -1.15676
 95 Cr    0.63580   -0.02983    1.17074
 96 Co    1.68077    0.17999    1.10421
 97 Ni   -1.66713    0.84905   -0.73348
 98 Ni   -0.21398   -1.77131    0.25837
 99 Co   -1.26692    0.22380    0.92446
100 Co    0.54507    0.00297   -0.21372
101 Ni   -1.53648   -0.48005    2.27887
102 Fe   -0.93460   -0.41162   -0.64386
103 Co    1.08578    1.05805   -1.19225
104 Co    0.50150   -1.63209   -1.36717
105 Ni   -0.28990    1.35868    2.33767
106 Fe   -0.32464   -1.27071   -0.42112
107 Fe    1.06745    1.04844   -0.77156

Date: Fri Apr 14 01:38:39 2023