User:   c.zeng@d0022
Date:   Sat Apr 15 16:56:46 2023
Arch:   x86_64
Pid:    276136
CWD:    /home/c.zeng/projects/hea-corrosion/hea-mlp/data-curation/bulk-mcmc/dft-jobs/6
Python: 3.8.1
gpaw:   /home/c.zeng/usr/installs/gpaw/source/gpaw-22.8.0/gpaw
_gpaw:  /home/c.zeng/usr/installs/gpaw/source/gpaw-22.8.0/
        _gpaw.cpython-38-x86_64-linux-gnu.so
ase:    /home/c.zeng/.local/lib/python3.8/site-packages/ase-3.22.1-py3.8.egg/ase (version 3.22.1)
numpy:  /shared/centos7/python/3.8.1/lib/python3.8/site-packages/numpy (version 1.17.4)
scipy:  /shared/centos7/python/3.8.1/lib/python3.8/site-packages/scipy (version 1.4.1)
units:  Angstrom and eV
cores: 30
OpenMP: False
OMP_NUM_THREADS: 1

Input parameters:
  convergence: {energy: 0.0001}
  kpts: [2 2 2]
  maxiter: 666
  mode: {ecut: 350.0,
         name: pw}
  occupations: {fixmagmom: False,
                name: fermi-dirac,
                width: 0.1}
  spinpol: True
  xc: PBE

System changes: positions, numbers, cell, pbc, initial_charges, initial_magmoms

Initialize ...

species:
  Co:
    name: Cobalt
    id: 339d20d5b0b93d2de9531a1bee871d91
    Z: 27.0
    valence: 9
    core: 18
    charge: 0.0
    file: /home/c.zeng/usr/data/gpaw-setups-0.9.20000/Co.PBE.gz
    compensation charges: {type: gauss,
                           rc: 0.32,
                           lmax: 2}
    cutoffs: {filter: 1.87,
              core: 2.55}
    valence states:
      #              energy  rcut
      - 4s(2.00)    -5.469   1.005
      - 4p(0.00)    -1.277   1.058
      - 3d(7.00)    -8.205   1.005
      -  s          21.742   1.005
      -  p          25.934   1.058
      -  d          19.007   1.005

    # Using partial waves for Co as LCAO basis

  Fe:
    name: Iron
    id: 37abbd8d6c3c35915a9b583b742da910
    Z: 26.0
    valence: 8
    core: 18
    charge: 0.0
    file: /home/c.zeng/usr/data/gpaw-setups-0.9.20000/Fe.PBE.gz
    compensation charges: {type: gauss,
                           rc: 0.33,
                           lmax: 2}
    cutoffs: {filter: 2.06,
              core: 2.67}
    valence states:
      #              energy  rcut
      - 4s(2.00)    -5.291   1.164
      - 4p(0.00)    -1.326   1.058
      - 3d(6.00)    -7.505   1.058
      -  s          21.920   1.164
      -  p          25.885   1.058
      -  d          19.706   1.058

[...]

  Ni:
    name: Nickel
    id: 0d9f38a9d6e76a2886f07bb4381f212b
    Z: 28.0
    valence: 16
    core: 12
    charge: 0.0
    file: /home/c.zeng/usr/data/gpaw-setups-0.9.20000/Ni.PBE.gz
    compensation charges: {type: gauss,
                           rc: 0.36,
                           lmax: 2}
    cutoffs: {filter: 2.14,
              core: 1.98}
    valence states:
      #              energy  rcut
      - 4s(2.00)    -5.642   1.164
      - 3p(6.00)   -71.394   1.207
      - 4p(0.00)    -1.226   1.207
      - 3d(8.00)    -8.875   1.138
      -  s          21.570   1.164
      -  d          18.337   1.138

[...]

  Cr:
    name: Chromium
    id: 33f258bda2ca9f93018e70263a35547b
    Z: 24.0
    valence: 6
    core: 18
    charge: 0.0
    file: /home/c.zeng/usr/data/gpaw-setups-0.9.20000/Cr.PBE.gz
    compensation charges: {type: gauss,
                           rc: 0.35,
                           lmax: 2}
    cutoffs: {filter: 2.14,
              core: 3.04}
    valence states:
      #              energy  rcut
      - 4s(1.00)    -4.007   1.164
      - 4p(0.00)    -0.989   1.217
      - 3d(5.00)    -2.913   1.111
      -  s          23.205   1.164
      -  p          26.223   1.217
      -  d          24.299   1.111

    # Using partial waves for Cr as LCAO basis

Reference energy: -3846758.590871  # eV

Spin-polarized calculation.
Magnetic moment: 151.200000

Convergence criteria:
 Maximum [total energy] change in last 3 cyles: 0.0001 eV / electron
 Maximum integral of absolute [dens]ity change: 0.0001 electrons / valence electron
 Maximum integral of absolute [eigenst]ate change: 4e-08 eV^2 / valence electron
 Maximum number of scf [iter]ations: 666
 (Square brackets indicate name in SCF output, whereas a 'c' in
 the SCF output indicates the quantity has converged.)

Symmetries present (total): 1

  ( 1  0  0)
  ( 0  1  0)
  ( 0  0  1)

8 k-points: 2 x 2 x 2 Monkhorst-Pack grid
4 k-points in the irreducible part of the Brillouin zone
       k-points in crystal coordinates                weights
   0:     0.25000000   -0.25000000   -0.25000000          2/8
   1:     0.25000000   -0.25000000    0.25000000          2/8
   2:     0.25000000    0.25000000   -0.25000000          2/8
   3:     0.25000000    0.25000000    0.25000000          2/8

Wave functions: Plane wave expansion
  Cutoff energy: 350.000 eV
  Number of coefficients (min, max): 17755, 17755
  Pulay-stress correction: 0.000000 eV/Ang^3 (de/decut=0.000000)
  Using FFTW library
  ScaLapack parameters: grid=1x1, blocksize=None
  Wavefunction extrapolation:
    Improved wavefunction reuse through dual PAW basis

Occupation numbers: Fermi-Dirac:
  width: 0.1000  # eV

Eigensolver
   Davidson(niter=2)

Densities:
  Coarse grid: 48*48*48 grid
  Fine grid: 96*96*96 grid
  Total Charge: 0.000000

Density mixing:
  Method: difference
  Backend: pulay
  Linear mixing parameter: 0.05
  old densities: 5
  Damping of long wavelength oscillations: 50

Hamiltonian:
  XC and Coulomb potentials evaluated on a 96*96*96 grid
  Using the PBE Exchange-Correlation functional
  External potential:
    NoExternalPotential

XC parameters: PBE with 2 nearest neighbor stencil

Total number of cores used: 30
Parallelization over k-points: 2
Domain decomposition: 5 x 3 x 1

Number of atoms: 108
Number of atomic orbitals: 1053
Number of bands in calculation: 727
Number of valence electrons: 1053
Bands to converge: occupied

... initialized

Initializing position-dependent things.

Density initialized from atomic densities
Creating initial wave functions:
  727 bands from LCAO basis set

       /|  Cr       Cr      Cr    |
      / |   CrFe     Ni           |
     /  |       Co      Fe       Fe
    /   |Cr      CFe       Co     Cr
   /    | Co       Ni       CFe   |
  /  CCo|  FeNi     CoNi          |
 *    NiNi    FeCr   FeNiCo       |
 |      |CoNi   FeFeCr  CoNiFe   Ni
 |      | NiCo     CoNiFeCrCrCr   |
 |    Co|  CoFeCr   CoNiFe   NiCo |
 |      Cr    CrCrNi NiCrCr     Ni|
 |      |FeFe  CoFeNi   FeNiFe   Cr
 |      .-FeCo-----NiCrFe--NiCr---Co
 |   Nio     Fe       Cr         /
 |    CrCo     Cor     CCre     /
 |   /    Co               Ni  /
 |  /      Fe       Fe    CrFe/
 | / Fe     Ni       NiCr    /
 |/            Co       Ni  /
 *--------Co------Co-------*

Positions:
   0 Co    -0.012479   -0.003723   10.616104    ( 0.0000,  0.0000,  2.1000)
   1 Fe    -0.011321    1.761305    1.763386    ( 0.0000,  0.0000,  2.1000)
   2 Fe     1.758365    0.001326    1.769011    ( 0.0000,  0.0000,  2.0000)
   3 Co     1.752686    1.779222   10.610436    ( 0.0000,  0.0000,  2.0000)
   4 Co     3.541196    0.004726   10.616104    ( 0.0000,  0.0000,  0.0000)
   5 Fe     3.534711    1.782438    1.778999    ( 0.0000,  0.0000,  0.0000)
   6 Ni     5.305717   10.600629    1.767950    ( 0.0000,  0.0000,  2.1000)
   7 Co     5.324780    1.765604   10.614618    ( 0.0000,  0.0000,  0.0000)
   8 Co     7.089121    0.014598   10.619926    ( 0.0000,  0.0000,  2.0000)
   9 Fe     7.085279    1.771219    1.773543    ( 0.0000,  0.0000,  1.5000)
  10 Cr     8.850554    0.011470    1.768756    ( 0.0000,  0.0000,  1.5000)
  11 Ni     8.842381    1.777333   10.615680    ( 0.0000,  0.0000,  2.1000)
  12 Fe    10.590535    3.538203   -0.001956    ( 0.0000,  0.0000,  0.0000)
  13 Ni    10.624277    5.310674    1.769786    ( 0.0000,  0.0000,  2.0000)
  14 Co     1.761379    3.535623    1.784572    ( 0.0000,  0.0000,  0.0000)
  15 Cr     1.770200    5.301408   10.611753    ( 0.0000,  0.0000,  2.0000)
  16 Ni     3.556003    3.551407   10.618333    ( 0.0000,  0.0000,  1.5000)
  17 Fe     3.539370    5.311290    1.775199    ( 0.0000,  0.0000,  2.1000)
  18 Cr     5.320142    3.545059    1.779678    ( 0.0000,  0.0000,  1.5000)
  19 Fe     5.306980    5.314654   10.602720    ( 0.0000,  0.0000,  0.0000)
  20 Ni     7.081585    3.529127   10.614725    ( 0.0000,  0.0000,  2.1000)
  21 Cr     7.069241    5.303361    1.781271    ( 0.0000,  0.0000,  1.5000)
  22 Fe     8.841447    3.542671    1.781600    ( 0.0000,  0.0000,  2.1000)
  23 Cr     8.850893    5.290379    0.000220    ( 0.0000,  0.0000,  0.0000)
  24 Cr     0.005868    7.083411   10.614937    ( 0.0000,  0.0000,  2.0000)
  25 Cr    10.601043    8.849694    1.772960    ( 0.0000,  0.0000,  2.1000)
  26 Fe     1.773713    7.072329    1.777184    ( 0.0000,  0.0000,  0.0000)
  27 Cr     1.755520    8.842943   10.608324    ( 0.0000,  0.0000,  0.0000)
  28 Fe     3.544009    7.063116   10.610489    ( 0.0000,  0.0000,  2.0000)
  29 Co     3.542225    8.826820    1.785580    ( 0.0000,  0.0000,  0.0000)
  30 Ni     5.309835    7.081776    1.776600    ( 0.0000,  0.0000,  2.1000)
  31 Cr     5.331945    8.840321   10.604673    ( 0.0000,  0.0000,  2.1000)
  32 Co     7.068434    7.069028   10.623110    ( 0.0000,  0.0000,  0.0000)
  33 Fe     7.083750    8.846796    1.774509    ( 0.0000,  0.0000,  1.5000)
  34 Ni     8.841404    7.058180    1.777173    ( 0.0000,  0.0000,  1.5000)
  35 Cr     8.835524    8.853600   10.611753    ( 0.0000,  0.0000,  0.0000)
  36 Ni    -0.009351   10.618864    3.531070    ( 0.0000,  0.0000,  2.0000)
  37 Fe    10.602508    1.764818    5.300452    ( 0.0000,  0.0000,  1.5000)
  38 Ni     1.756720    0.001379    5.295867    ( 0.0000,  0.0000,  0.0000)
  39 Co     1.766506    1.767154    3.539222    ( 0.0000,  0.0000,  2.0000)
  40 Co     3.539742    0.013881    3.542873    ( 0.0000,  0.0000,  2.0000)
  41 Fe     3.548944    1.788658    5.306237    ( 0.0000,  0.0000,  2.1000)
  42 Fe     5.320174   -0.004685    5.301386    ( 0.0000,  0.0000,  0.0000)
  43 Co     5.316862    1.765551    3.538935    ( 0.0000,  0.0000,  2.0000)
  44 Cr     7.081086   -0.000289    3.531325    ( 0.0000,  0.0000,  2.0000)
  45 Ni     7.072902    1.777407    5.300537    ( 0.0000,  0.0000,  2.0000)
  46 Fe     8.840544    0.012372    5.307851    ( 0.0000,  0.0000,  1.5000)
  47 Cr     8.833592    1.767928    3.534318    ( 0.0000,  0.0000,  2.1000)
  48 Cr    -0.004066    3.525285    3.545951    ( 0.0000,  0.0000,  0.0000)
  49 Co    -0.001689    5.317934    5.307787    ( 0.0000,  0.0000,  1.5000)
  50 Cr     1.769043    3.555101    5.297279    ( 0.0000,  0.0000,  2.0000)
  51 Fe     1.773692    5.305929    3.538266    ( 0.0000,  0.0000,  2.1000)
  52 Co     3.542746    3.537364    3.547575    ( 0.0000,  0.0000,  2.1000)
  53 Fe     3.548477    5.306927    5.301153    ( 0.0000,  0.0000,  2.0000)
  54 Cr     5.316246    3.553031    5.303637    ( 0.0000,  0.0000,  2.0000)
  55 Fe     5.303286    5.303531    3.542385    ( 0.0000,  0.0000,  1.5000)
  56 Cr     7.074962    3.533023    3.537215    ( 0.0000,  0.0000,  1.5000)
  57 Ni     7.066046    5.306046    5.300081    ( 0.0000,  0.0000,  2.0000)
  58 Cr     8.834526    3.538160    5.294530    ( 0.0000,  0.0000,  2.1000)
  59 Ni     8.846255    5.300452    3.537672    ( 0.0000,  0.0000,  1.5000)
[...]
[...]
iter:  17 17:48:40  -888.763728  -2.58  -1.96    +55.6899
iter:  18 17:51:24  -889.363540  -2.58  -2.07    +56.0703
iter:  19 17:54:09  -889.343359  -2.66  -2.08    +56.3823
iter:  20 17:57:46  -889.108190  -2.65  -2.12    +56.9346
iter:  21 18:00:32  -888.611588  -3.03  -2.11    +57.6550
iter:  22 18:03:16  -888.558829  -3.09  -2.21    +58.1026
iter:  23 18:06:00  -888.342941  -3.50  -2.23    +58.5824
iter:  24 18:08:44  -888.569108  -3.59  -2.31    +59.4700
iter:  25 18:11:27  -888.791403  -3.50  -2.32    +60.2406
iter:  26 18:14:17  -889.366640  -3.10  -2.32    +60.6520
iter:  27 18:17:50  -889.409387  -3.13  -2.28    +60.9532
iter:  28 18:20:33  -889.993630  -2.95  -2.30    +61.7868
iter:  29 18:23:17  -889.584705  -3.01  -2.25    +62.1042
iter:  30 18:26:01  -889.565801  -3.20  -2.36    +62.2045
iter:  31 18:28:44  -889.196867  -3.49  -2.39    +62.2625
iter:  32 18:31:27  -889.195412  -4.02  -2.50    +62.7655
iter:  33 18:34:44  -889.242804c -4.22  -2.54    +63.2535
iter:  34 18:37:51  -889.339714  -4.01  -2.56    +63.8036
iter:  35 18:40:35  -889.633601  -3.55  -2.58    +64.0946
iter:  36 18:43:19  -889.462275  -3.65  -2.50    +64.1517
iter:  37 18:46:03  -889.696840  -3.50  -2.78    +64.3214
iter:  38 18:48:46  -889.451564  -3.81  -2.59    +64.2532
iter:  39 18:51:30  -889.476820  -4.15  -2.96    +64.4964
iter:  40 18:55:07  -889.478907c -4.44  -3.00    +64.5864
iter:  41 18:57:53  -889.488291c -4.63  -3.09    +64.6958
iter:  42 19:00:37  -889.505503c -4.76  -3.17    +64.8323
iter:  43 19:03:21  -889.518024c -4.82  -3.23    +64.9443
iter:  44 19:06:04  -889.535812c -4.96  -3.22    +65.1206
iter:  45 19:08:47  -889.541485c -5.55  -3.28    +65.1804
iter:  46 19:12:06  -889.551985c -5.44  -3.29    +65.1689
iter:  47 19:15:12  -889.569772c -5.19  -3.27    +65.3901
iter:  48 19:17:56  -889.556713c -5.17  -3.27    +65.1228
iter:  49 19:20:40  -889.589160c -4.95  -3.25    +65.3608
iter:  50 19:23:23  -889.512617c -4.16  -3.22    +64.7450
iter:  51 19:26:06  -889.449541  -3.89  -3.25    +64.0427
iter:  52 19:28:49  -889.455602c -4.85  -3.32    +64.0352
iter:  53 19:32:30  -889.472673c -4.80  -3.36    +64.1753
iter:  54 19:35:14  -889.475462c -5.19  -3.30    +64.2455
iter:  55 19:37:58  -889.486159c -5.23  -3.42    +64.3626
iter:  56 19:40:40  -889.517820c -4.50  -3.45    +64.6466
iter:  57 19:43:24  -889.519740c -5.51  -3.39    +64.6721
iter:  58 19:46:07  -889.524503c -4.91  -3.36    +64.3954
iter:  59 19:49:36  -889.538191c -4.88  -3.32    +64.4308
iter:  60 19:52:28  -889.555111c -4.86  -3.27    +64.6381
iter:  61 19:55:12  -889.553848c -5.33  -3.22    +64.7136
iter:  62 19:57:56  -889.563921c -5.21  -3.23    +64.8500
iter:  63 20:00:40  -889.555987c -5.22  -3.23    +64.7082
iter:  64 20:03:27  -889.584890c -4.59  -3.17    +64.9374
iter:  65 20:06:27  -889.569404c -4.53  -3.10    +64.8772
iter:  66 20:08:59  -889.570121c -4.96  -3.13    +64.9717
iter:  67 20:11:17  -889.576500c -5.00  -3.31    +65.0261
iter:  68 20:14:21  -889.581634c -5.21  -3.22    +65.0962
iter:  69 20:17:24  -889.588216c -5.49  -3.34    +65.0947
iter:  70 20:20:27  -889.574852c -4.98  -3.35    +65.1485
iter:  71 20:23:30  -889.557408c -4.31  -3.39    +65.3204
iter:  72 20:26:33  -889.566585c -5.18  -3.35    +65.3069
iter:  73 20:29:36  -889.560721c -5.39  -3.53    +65.3163
iter:  74 20:32:39  -889.572914c -5.14  -3.53    +65.3294
iter:  75 20:35:42  -889.556875c -5.00  -3.68    +65.2943
iter:  76 20:38:44  -889.531406c -4.14  -3.58    +65.1349
iter:  77 20:41:47  -889.537383c -5.47  -3.40    +65.0324
iter:  78 20:44:49  -889.547037c -4.85  -3.46    +64.8990
iter:  79 20:47:52  -889.548283c -5.72  -3.58    +64.8858
iter:  80 20:50:55  -889.552327c -5.49  -3.63    +64.8637
iter:  81 20:53:58  -889.548088c -5.47  -3.62    +64.8692
iter:  82 20:57:01  -889.543822c -5.48  -3.57    +64.8756
iter:  83 21:00:05  -889.550633c -5.32  -3.54    +64.8576
iter:  84 21:03:07  -889.541987c -4.88  -3.64    +64.8524
iter:  85 21:06:09  -889.537083c -5.07  -3.50    +64.7927
iter:  86 21:09:12  -889.541491c -5.40  -3.48    +64.7461
iter:  87 21:12:15  -889.534750c -4.73  -3.49    +64.7533
iter:  88 21:15:17  -889.535866c -5.52  -3.41    +64.6114
iter:  89 21:18:20  -889.546328c -4.86  -3.40    +64.3198
iter:  90 21:21:22  -889.536959c -5.01  -3.25    +64.6210
iter:  91 21:24:25  -889.541425c -5.27  -3.47    +64.4810
iter:  92 21:27:27  -889.564384c -4.58  -3.38    +64.3954
iter:  93 21:30:30  -889.539631c -4.94  -3.13    +64.4421
iter:  94 21:33:33  -889.538992c -5.47  -3.52    +64.3621
iter:  95 21:36:35  -889.540425c -5.63  -3.61    +64.3175
iter:  96 21:39:38  -889.544015c -5.26  -3.70    +64.2577
iter:  97 21:42:41  -889.544439c -5.89  -3.66    +64.2050
iter:  98 21:45:43  -889.546811c -5.54  -3.75    +64.1153
iter:  99 21:48:45  -889.551006c -5.32  -3.73    +64.0383
iter: 100 21:51:46  -889.546600c -5.46  -3.64    +64.1269
iter: 101 21:54:49  -889.543606c -5.52  -3.68    +64.1417
iter: 102 21:57:51  -889.547472c -5.60  -3.78    +64.0872
iter: 103 22:00:54  -889.543051c -5.50  -3.71    +64.1522
iter: 104 22:03:56  -889.541633c -5.31  -3.80    +64.1859
iter: 105 22:06:59  -889.544587c -5.31  -3.76    +64.1036
iter: 106 22:10:02  -889.544628c -5.85  -3.88    +64.0827
iter: 107 22:13:03  -889.546106c -5.70  -3.74    +64.0495
iter: 108 22:16:05  -889.546569c -5.64  -3.81    +63.9981
iter: 109 22:19:08  -889.547901c -5.95  -3.93    +63.9960
iter: 110 22:22:11  -889.545488c -5.76  -3.96    +64.0021
iter: 111 22:25:14  -889.543363c -5.51  -3.98    +63.9909
iter: 112 22:28:16  -889.544597c -6.01  -3.94    +63.9825
iter: 113 22:31:19  -889.544070c -6.38  -3.95    +63.9833
iter: 114 22:34:21  -889.544673c -6.47  -4.08c   +63.9465
iter: 115 22:37:23  -889.545002c -6.65  -4.16c   +63.9546
iter: 116 22:40:26  -889.546269c -6.08  -4.14c   +63.9415
iter: 117 22:43:29  -889.542863c -5.37  -4.10c   +63.9590
iter: 118 22:46:31  -889.541145c -5.36  -4.09c   +63.9614
iter: 119 22:49:35  -889.542609c -6.06  -4.23c   +63.9349
iter: 120 22:52:40  -889.541881c -6.08  -4.24c   +63.9320
iter: 121 22:55:45  -889.540997c -5.52  -4.21c   +63.9121
iter: 122 22:58:51  -889.541715c -6.54  -4.23c   +63.8756
iter: 123 23:01:56  -889.544655c -5.25  -4.21c   +63.7420
iter: 124 23:05:00  -889.543398c -6.40  -3.96    +63.7991
iter: 125 23:08:03  -889.543871c -6.54  -4.05c   +63.7871
iter: 126 23:11:07  -889.544214c -6.61  -3.90    +63.7923
iter: 127 23:14:11  -889.544239c -6.14  -3.98    +63.7613
iter: 128 23:17:16  -889.544882c -6.33  -3.93    +63.7522
iter: 129 23:20:20  -889.544342c -6.18  -3.88    +63.7322
iter: 130 23:23:24  -889.545383c -6.07  -4.06c   +63.7205
iter: 131 23:26:29  -889.545086c -6.42  -3.95    +63.7132
iter: 132 23:29:33  -889.545475c -6.62  -4.08c   +63.7028
iter: 133 23:32:37  -889.545563c -6.90  -4.17c   +63.7028
iter: 134 23:35:37  -889.546341c -6.34  -4.15c   +63.6979
iter: 135 23:38:41  -889.546110c -6.57  -3.99    +63.6903
iter: 136 23:41:46  -889.546897c -6.37  -4.16c   +63.6957
iter: 137 23:44:50  -889.546683c -6.32  -4.22c   +63.6828
iter: 138 23:47:55  -889.546892c -6.16  -4.03c   +63.6872
iter: 139 23:50:58  -889.547268c -6.81  -4.18c   +63.6853
iter: 140 23:54:02  -889.547828c -6.39  -4.22c   +63.6898
iter: 141 23:57:07  -889.547310c -6.47  -4.40c   +63.6945
iter: 142 00:00:12  -889.547635c -6.82  -4.30c   +63.7116
iter: 143 00:03:16  -889.548079c -6.79  -4.46c   +63.7070
iter: 144 00:06:21  -889.546359c -5.48  -4.58c   +63.7355
iter: 145 00:09:25  -889.545391c -5.27  -4.32c   +63.7383
iter: 146 00:12:29  -889.545635c -5.76  -4.07c   +63.7109
iter: 147 00:15:33  -889.546542c -5.62  -4.00c   +63.6431
iter: 148 00:18:38  -889.546848c -6.48  -3.93    +63.6137
iter: 149 00:21:37  -889.547451c -6.21  -3.94    +63.5508
iter: 150 00:24:42  -889.548594c -5.83  -3.95    +63.4676
iter: 151 00:27:46  -889.547426c -6.42  -3.87    +63.5233
iter: 152 00:30:51  -889.548708c -5.67  -3.97    +63.4852
iter: 153 00:33:55  -889.547439c -6.03  -3.85    +63.4992
iter: 154 00:37:00  -889.547583c -6.27  -3.92    +63.4774
iter: 155 00:40:05  -889.547574c -6.65  -4.05c   +63.4541
iter: 156 00:43:09  -889.547542c -6.72  -4.14c   +63.4311
iter: 157 00:46:13  -889.547835c -6.69  -4.15c   +63.4095
iter: 158 00:49:14  -889.548115c -6.71  -4.19c   +63.3847
iter: 159 00:52:19  -889.548469c -6.18  -4.15c   +63.3394
iter: 160 00:55:23  -889.548369c -7.28  -4.05c   +63.3491
iter: 161 00:58:27  -889.548571c -6.90  -4.06c   +63.3352
iter: 162 01:01:32  -889.548600c -7.39  -4.06c   +63.3289
iter: 163 01:04:36  -889.548571c -6.82  -4.04c   +63.3129
iter: 164 01:07:41  -889.549706c -6.11  -4.01c   +63.2911
iter: 165 01:10:45  -889.548694c -6.48  -3.84    +63.2952
iter: 166 01:13:50  -889.549135c -6.36  -4.07c   +63.2865
iter: 167 01:16:51  -889.549143c -6.50  -3.98    +63.2851
iter: 168 01:19:56  -889.548812c -6.66  -4.09c   +63.2696
iter: 169 01:23:00  -889.549025c -6.82  -4.13c   +63.2639
iter: 170 01:26:04  -889.549060c -6.78  -4.16c   +63.2639
iter: 171 01:29:09  -889.549442c -6.66  -4.18c   +63.2570
iter: 172 01:32:13  -889.549193c -6.84  -4.13c   +63.2541
iter: 173 01:35:17  -889.549193c -6.69  -4.23c   +63.2463
iter: 174 01:38:21  -889.549726c -6.64  -4.16c   +63.2472
iter: 175 01:41:21  -889.549656c -6.78  -4.16c   +63.2480
iter: 176 01:44:26  -889.549644c -7.06  -4.21c   +63.2409
iter: 177 01:47:30  -889.549601c -6.83  -4.37c   +63.2410
iter: 178 01:50:34  -889.549689c -7.43c -4.26c   +63.2392

Converged after 178 iterations.

Dipole moment: (6.875633, -2.058324, 0.891224) |e|*Ang

Total magnetic moment: (0.000000, 0.000000, 63.239207)
Local magnetic moments:
   0 Co ( 0.000000,  0.000000,  0.606060)
   1 Fe ( 0.000000,  0.000000,  1.994613)
   2 Fe ( 0.000000,  0.000000,  2.087440)
   3 Co ( 0.000000,  0.000000,  1.317327)
   4 Co ( 0.000000,  0.000000,  1.157485)
   5 Fe ( 0.000000,  0.000000,  2.359149)
   6 Ni ( 0.000000,  0.000000,  0.386057)
   7 Co ( 0.000000,  0.000000,  1.218274)
   8 Co ( 0.000000,  0.000000,  0.925537)
   9 Fe ( 0.000000,  0.000000,  1.780503)
  10 Cr ( 0.000000,  0.000000, -0.134606)
  11 Ni ( 0.000000,  0.000000,  0.279912)
  12 Fe ( 0.000000,  0.000000, -0.283115)
  13 Ni ( 0.000000,  0.000000,  0.106532)
  14 Co ( 0.000000,  0.000000,  1.160468)
  15 Cr ( 0.000000,  0.000000, -0.561701)
  16 Ni ( 0.000000,  0.000000,  0.303292)
  17 Fe ( 0.000000,  0.000000,  1.939716)
  18 Cr ( 0.000000,  0.000000, -1.429595)
  19 Fe ( 0.000000,  0.000000,  2.246673)
  20 Ni ( 0.000000,  0.000000,  0.188512)
  21 Cr ( 0.000000,  0.000000,  0.969102)
  22 Fe ( 0.000000,  0.000000,  1.519487)
  23 Cr ( 0.000000,  0.000000, -0.971881)
  24 Cr ( 0.000000,  0.000000,  0.315575)
  25 Cr ( 0.000000,  0.000000,  0.083378)
  26 Fe ( 0.000000,  0.000000, -0.368084)
  27 Cr ( 0.000000,  0.000000, -0.897857)
  28 Fe ( 0.000000,  0.000000,  2.000127)
  29 Co ( 0.000000,  0.000000,  1.255759)
  30 Ni ( 0.000000,  0.000000,  0.271519)
  31 Cr ( 0.000000,  0.000000, -1.755951)
  32 Co ( 0.000000,  0.000000,  0.938546)
  33 Fe ( 0.000000,  0.000000,  2.052981)
  34 Ni ( 0.000000,  0.000000,  0.138394)
  35 Cr ( 0.000000,  0.000000, -1.150988)
  36 Ni ( 0.000000,  0.000000,  0.289825)
  37 Fe ( 0.000000,  0.000000,  1.765427)
  38 Ni ( 0.000000,  0.000000,  0.468367)
  39 Co ( 0.000000,  0.000000,  1.148427)
  40 Co ( 0.000000,  0.000000,  1.508794)
  41 Fe ( 0.000000,  0.000000,  2.080299)
  42 Fe ( 0.000000,  0.000000,  2.263822)
  43 Co ( 0.000000,  0.000000,  0.889523)
  44 Cr ( 0.000000,  0.000000, -1.337381)
  45 Ni ( 0.000000,  0.000000,  0.157926)
  46 Fe ( 0.000000,  0.000000,  1.906923)
  47 Cr ( 0.000000,  0.000000, -0.061836)
  48 Cr ( 0.000000,  0.000000, -1.171521)
  49 Co ( 0.000000,  0.000000,  0.217144)
  50 Cr ( 0.000000,  0.000000, -1.307454)
  51 Fe ( 0.000000,  0.000000,  1.898654)
  52 Co ( 0.000000,  0.000000,  0.868393)
  53 Fe ( 0.000000,  0.000000,  1.956319)
  54 Cr ( 0.000000,  0.000000, -1.471345)
  55 Fe ( 0.000000,  0.000000,  1.771751)
  56 Cr ( 0.000000,  0.000000, -0.225044)
  57 Ni ( 0.000000,  0.000000,  0.177481)
  58 Cr ( 0.000000,  0.000000,  0.241071)
  59 Ni ( 0.000000,  0.000000,  0.043173)
[...]
  93 Ni ( 0.000000,  0.000000,  0.324585)
  94 Co ( 0.000000,  0.000000,  1.163508)
  95 Ni ( 0.000000,  0.000000,  0.096917)
  96 Ni ( 0.000000,  0.000000,  0.321503)
  97 Fe ( 0.000000,  0.000000,  1.547880)
  98 Co ( 0.000000,  0.000000,  0.946462)
  99 Fe ( 0.000000,  0.000000,  2.307035)
 100 Fe ( 0.000000,  0.000000,  2.374289)
 101 Co ( 0.000000,  0.000000,  1.178614)
 102 Ni ( 0.000000,  0.000000,  0.425278)
 103 Co ( 0.000000,  0.000000,  1.614883)
 104 Ni ( 0.000000,  0.000000,  0.336981)
 105 Fe ( 0.000000,  0.000000,  2.147965)
 106 Co ( 0.000000,  0.000000,  0.977716)
 107 Cr ( 0.000000,  0.000000, -1.640048)

Energy contributions relative to reference atoms: (reference = -3846758.590871)

Kinetic:       +107.811182
Potential:     -177.455999
External:        +0.000000
XC:            -857.589321
Entropy (-ST):   -4.785697
Local:          +40.077298
Free energy:   -891.942538
Extrapolated:  -889.549689

Spin contamination: 28.881508 electrons
Showing only first 2 kpts
                      Up                     Down
 Kpt  Band  Eigenvalues  Occupancy  Eigenvalues  Occupancy
  0   524      9.85251    0.99221     10.69469    0.02725
  0   525      9.85645    0.99190     10.70947    0.02359
  0   526      9.87230    0.99052     10.72236    0.02080
  0   527      9.89565    0.98805     10.72929    0.01943

  1   524      9.85692    0.99186     10.69385    0.02747
  1   525      9.87572    0.99019     10.71152    0.02313
  1   526      9.88819    0.98890     10.72527    0.02022
  1   527      9.89592    0.98802     10.73499    0.01838

Fermi level: 10.33718

No gap

Forces in eV/Ang:
  0 Co    0.12258   -0.00601   -0.13595
  1 Fe    0.32224    0.19325   -0.28905
  2 Fe    0.08904   -0.31729   -0.08687
  3 Co   -0.06853   -0.13179    0.09242
  4 Co   -0.09025   -0.03167   -0.15527
  5 Fe    0.06990    0.13847   -0.01999
  6 Ni   -0.01501    0.06905    0.01213
  7 Co   -0.09581    0.01505   -0.07557
  8 Co   -0.14503    0.03896   -0.01636
  9 Fe   -0.32031   -0.08920   -0.36630
 10 Cr    0.10666    0.28276   -0.28253
 11 Ni    0.02646    0.00287    0.00773
 12 Fe    0.08141    0.50777    0.11514
 13 Ni    0.06378   -0.13055   -0.22240
 14 Co   -0.07492   -0.00063   -0.07481
 15 Cr   -0.53025    0.07496    0.21699
 16 Ni   -0.14179   -0.24991   -0.07527
 17 Fe   -0.09790   -0.31765    0.05434
 18 Cr   -0.15149   -0.15018   -0.25643
 19 Fe    0.05933   -0.21003   -0.10667
 20 Ni   -0.08538    0.00973   -0.13294
 21 Cr   -0.04443    0.20361    0.02314
 22 Fe    0.37770   -0.23369    0.02040
 23 Cr    0.39192   -0.03193   -0.24229
 24 Cr    0.27451   -0.07221   -0.30031
 25 Cr    0.25292   -0.11375    0.33007
 26 Fe   -0.17595    0.37565   -0.49686
 27 Cr    0.24695   -0.43757    0.19184
 28 Fe   -0.37754    0.41986   -0.05104
 29 Co   -0.22024    0.25610    0.01369
 30 Ni   -0.05122    0.11911   -0.05316
 31 Cr   -0.21136    0.13557    0.21996
 32 Co    0.30436   -0.12275   -0.21383
 33 Fe   -0.06430   -0.23856   -0.04061
 34 Ni   -0.02157    0.30778   -0.14694
 35 Cr    0.10695   -0.35595   -0.18332
 36 Ni    0.12192    0.02591    0.11278
 37 Fe    0.60078   -0.00012    0.10452
 38 Ni    0.23539    0.12438    0.14605
 39 Co   -0.10186    0.17890    0.11371
 40 Co    0.00143   -0.30378   -0.07322
 41 Fe   -0.52680   -0.03852   -0.26249
 42 Fe    0.23388   -0.32900   -0.13442
 43 Co   -0.04164    0.22761    0.02462
 44 Cr   -0.14525    0.06614    0.19472
 45 Ni   -0.03351   -0.12385    0.22510
 46 Fe   -0.01690   -0.31176    0.09011
 47 Cr    0.25303   -0.06728    0.11598
 48 Cr   -0.12724    0.20604   -0.27312
 49 Co    0.05516   -0.59235    0.09946
 50 Cr    0.47955   -0.17190    0.02727
 51 Fe   -0.18704   -0.05359   -0.04672
 52 Co   -0.20173   -0.07901    0.02368
 53 Fe   -0.21314   -0.19846   -0.03613
 54 Cr   -0.38558   -0.21190   -0.05875
 55 Fe   -0.02044    0.01660    0.33620
 56 Cr    0.53464   -0.00050    0.20408
 57 Ni    0.12779   -0.02193    0.06240
 58 Cr    0.00825    0.32366   -0.15877
 59 Ni   -0.02714   -0.18624    0.12853
[...]
 93 Ni    0.15065    0.05348    0.13198
 94 Co    0.24917   -0.00789    0.06197
 95 Ni    0.15557    0.12688   -0.10415
 96 Ni   -0.12579   -0.15021    0.17118
 97 Fe    0.10641   -0.07724    0.13058
 98 Co   -0.12449    0.02734    0.27446
 99 Fe   -0.07915    0.12667    0.09998
100 Fe   -0.10674    0.04426    0.43767
101 Co   -0.14795    0.02397    0.06130
102 Ni    0.09010    0.01836    0.20274
103 Co   -0.15826    0.17518   -0.30655
104 Ni    0.22163    0.04405    0.17347
105 Fe    0.00555   -0.13458    0.07942
106 Co    0.04774    0.03349    0.11908
107 Cr   -0.28561   -0.30982    0.21943

Date: Sun Apr 16 01:50:58 2023