User:   c.zeng@d0029
Date:   Sat Apr 15 11:28:07 2023
Arch:   x86_64
Pid:    147484
CWD:    /home/c.zeng/projects/hea-corrosion/hea-mlp/data-curation/bulk-mcmc/dft-jobs/3
Python: 3.8.1
gpaw:   /home/c.zeng/usr/installs/gpaw/source/gpaw-22.8.0/gpaw
_gpaw:  /home/c.zeng/usr/installs/gpaw/source/gpaw-22.8.0/
        _gpaw.cpython-38-x86_64-linux-gnu.so
ase:    /home/c.zeng/.local/lib/python3.8/site-packages/ase-3.22.1-py3.8.egg/ase (version 3.22.1)
numpy:  /shared/centos7/python/3.8.1/lib/python3.8/site-packages/numpy (version 1.17.4)
scipy:  /shared/centos7/python/3.8.1/lib/python3.8/site-packages/scipy (version 1.4.1)
units:  Angstrom and eV
cores: 30
OpenMP: False
OMP_NUM_THREADS: 1

Input parameters:
  convergence: {energy: 0.0001}
  kpts: [2 2 2]
  maxiter: 666
  mode: {ecut: 350.0,
         name: pw}
  occupations: {fixmagmom: False,
                name: fermi-dirac,
                width: 0.1}
  spinpol: True
  xc: PBE

System changes: positions, numbers, cell, pbc, initial_charges, initial_magmoms

Initialize ...

species:
  Co:
    name: Cobalt
    id: 339d20d5b0b93d2de9531a1bee871d91
    Z: 27.0
    valence: 9
    core: 18
    charge: 0.0
    file: /home/c.zeng/usr/data/gpaw-setups-0.9.20000/Co.PBE.gz
    compensation charges: {type: gauss,
                           rc: 0.32,
                           lmax: 2}
    cutoffs: {filter: 1.87,
              core: 2.55}
    valence states:
      #              energy  rcut
      - 4s(2.00)    -5.469   1.005
      - 4p(0.00)    -1.277   1.058
      - 3d(7.00)    -8.205   1.005
      -  s          21.742   1.005
      -  p          25.934   1.058
      -  d          19.007   1.005

    # Using partial waves for Co as LCAO basis

  Fe:
    name: Iron
    id: 37abbd8d6c3c35915a9b583b742da910
    Z: 26.0
    valence: 8
    core: 18
    charge: 0.0
    file: /home/c.zeng/usr/data/gpaw-setups-0.9.20000/Fe.PBE.gz
    compensation charges: {type: gauss,
                           rc: 0.33,
                           lmax: 2}
    cutoffs: {filter: 2.06,
              core: 2.67}
    valence states:
      #              energy  rcut
      - 4s(2.00)    -5.291   1.164
      - 4p(0.00)    -1.326   1.058
      - 3d(6.00)    -7.505   1.058
      -  s          21.920   1.164
      -  p          25.885   1.058
      -  d          19.706   1.058

[...]

  Ni:
    name: Nickel
    id: 0d9f38a9d6e76a2886f07bb4381f212b
    Z: 28.0
    valence: 16
    core: 12
    charge: 0.0
    file: /home/c.zeng/usr/data/gpaw-setups-0.9.20000/Ni.PBE.gz
    compensation charges: {type: gauss,
                           rc: 0.36,
                           lmax: 2}
    cutoffs: {filter: 2.14,
              core: 1.98}
    valence states:
      #              energy  rcut
      - 4s(2.00)    -5.642   1.164
      - 3p(6.00)   -71.394   1.207
      - 4p(0.00)    -1.226   1.207
      - 3d(8.00)    -8.875   1.138
      -  s          21.570   1.164
      -  d          18.337   1.138

[...]

  Cr:
    name: Chromium
    id: 33f258bda2ca9f93018e70263a35547b
    Z: 24.0
    valence: 6
    core: 18
    charge: 0.0
    file: /home/c.zeng/usr/data/gpaw-setups-0.9.20000/Cr.PBE.gz
    compensation charges: {type: gauss,
                           rc: 0.35,
                           lmax: 2}
    cutoffs: {filter: 2.14,
              core: 3.04}
    valence states:
      #              energy  rcut
      - 4s(1.00)    -4.007   1.164
      - 4p(0.00)    -0.989   1.217
      - 3d(5.00)    -2.913   1.111
      -  s          23.205   1.164
      -  p          26.223   1.217
      -  d          24.299   1.111

    # Using partial waves for Cr as LCAO basis

Reference energy: -3846758.590871  # eV

Spin-polarized calculation.
Magnetic moment: 151.200000

Convergence criteria:
 Maximum [total energy] change in last 3 cyles: 0.0001 eV / electron
 Maximum integral of absolute [dens]ity change: 0.0001 electrons / valence electron
 Maximum integral of absolute [eigenst]ate change: 4e-08 eV^2 / valence electron
 Maximum number of scf [iter]ations: 666
 (Square brackets indicate name in SCF output, whereas a 'c' in
 the SCF output indicates the quantity has converged.)

Symmetries present (total): 1

  ( 1  0  0)
  ( 0  1  0)
  ( 0  0  1)

8 k-points: 2 x 2 x 2 Monkhorst-Pack grid
4 k-points in the irreducible part of the Brillouin zone
       k-points in crystal coordinates                weights
   0:     0.25000000   -0.25000000   -0.25000000          2/8
   1:     0.25000000   -0.25000000    0.25000000          2/8
   2:     0.25000000    0.25000000   -0.25000000          2/8
   3:     0.25000000    0.25000000    0.25000000          2/8

Wave functions: Plane wave expansion
  Cutoff energy: 350.000 eV
  Number of coefficients (min, max): 17755, 17755
  Pulay-stress correction: 0.000000 eV/Ang^3 (de/decut=0.000000)
  Using FFTW library
  ScaLapack parameters: grid=1x1, blocksize=None
  Wavefunction extrapolation:
    Improved wavefunction reuse through dual PAW basis

Occupation numbers: Fermi-Dirac:
  width: 0.1000  # eV

Eigensolver
   Davidson(niter=2)

Densities:
  Coarse grid: 48*48*48 grid
  Fine grid: 96*96*96 grid
  Total Charge: 0.000000

Density mixing:
  Method: difference
  Backend: pulay
  Linear mixing parameter: 0.05
  old densities: 5
  Damping of long wavelength oscillations: 50

Hamiltonian:
  XC and Coulomb potentials evaluated on a 96*96*96 grid
  Using the PBE Exchange-Correlation functional
  External potential:
    NoExternalPotential

XC parameters: PBE with 2 nearest neighbor stencil

Total number of cores used: 30
Parallelization over k-points: 2
Domain decomposition: 5 x 3 x 1

Number of atoms: 108
Number of atomic orbitals: 1053
Number of bands in calculation: 727
Number of valence electrons: 1053
Bands to converge: occupied

... initialized

Initializing position-dependent things.

Density initialized from atomic densities
Creating initial wave functions:
  727 bands from LCAO basis set

       /|  Cr       Ni      Cr    |
      / |   NiFe     Cr           |
     /  |       Co      Fe       Fe
    /   |Cr      CFe       Co     Ni
   /    | Co       Cr       CFe   |
  /  CCo|  FeCr     CoNi          |
 *    CrCr    FeNi   FeCrCo       |
 |      |CoCr   FeFeCr  CoNiFe   Cr
 |      | NiCo     CoNiFeNiNiNi   |
 |    Co|  CoFeNi   CoNiFe   NiCo |
 |      Ni    CrNiCr NiCrCr     Ni|
 |      |FeFe  CoFeCr   FeCrFe   Ni
 |      .-FeCo-----NiCrFe--NiNi---Co
 |   Cro     Fe       Cr         /
 |    CrCo     Coi     CNie     /
 |   /    Co               Cr  /
 |  /      Fe       Fe    NiFe/
 | / Fe     Cr       NiNi    /
 |/            Co       Cr  /
 *--------Co------Co-------*

Positions:
   0 Co    -0.012479   -0.003723   10.616104    ( 0.0000,  0.0000,  2.1000)
   1 Fe    -0.011321    1.761305    1.763386    ( 0.0000,  0.0000,  2.1000)
   2 Fe     1.758365    0.001326    1.769011    ( 0.0000,  0.0000,  2.0000)
   3 Co     1.752686    1.779222   10.610436    ( 0.0000,  0.0000,  2.0000)
   4 Co     3.541196    0.004726   10.616104    ( 0.0000,  0.0000,  0.0000)
   5 Fe     3.534711    1.782438    1.778999    ( 0.0000,  0.0000,  0.0000)
   6 Ni     5.305717   10.600629    1.767950    ( 0.0000,  0.0000,  2.1000)
   7 Co     5.324780    1.765604   10.614618    ( 0.0000,  0.0000,  0.0000)
   8 Co     7.089121    0.014598   10.619926    ( 0.0000,  0.0000,  2.0000)
   9 Fe     7.085279    1.771219    1.773543    ( 0.0000,  0.0000,  1.5000)
  10 Ni     8.850554    0.011470    1.768756    ( 0.0000,  0.0000,  1.5000)
  11 Cr     8.842381    1.777333   10.615680    ( 0.0000,  0.0000,  2.1000)
  12 Fe    10.590535    3.538203   -0.001956    ( 0.0000,  0.0000,  0.0000)
  13 Cr    10.624277    5.310674    1.769786    ( 0.0000,  0.0000,  2.0000)
  14 Co     1.761379    3.535623    1.784572    ( 0.0000,  0.0000,  0.0000)
  15 Cr     1.770200    5.301408   10.611753    ( 0.0000,  0.0000,  2.0000)
  16 Cr     3.556003    3.551407   10.618333    ( 0.0000,  0.0000,  1.5000)
  17 Fe     3.539370    5.311290    1.775199    ( 0.0000,  0.0000,  2.1000)
  18 Ni     5.320142    3.545059    1.779678    ( 0.0000,  0.0000,  1.5000)
  19 Fe     5.306980    5.314654   10.602720    ( 0.0000,  0.0000,  0.0000)
  20 Ni     7.081585    3.529127   10.614725    ( 0.0000,  0.0000,  2.1000)
  21 Cr     7.069241    5.303361    1.781271    ( 0.0000,  0.0000,  1.5000)
  22 Fe     8.841447    3.542671    1.781600    ( 0.0000,  0.0000,  2.1000)
  23 Ni     8.850893    5.290379    0.000220    ( 0.0000,  0.0000,  0.0000)
  24 Cr     0.005868    7.083411   10.614937    ( 0.0000,  0.0000,  2.0000)
  25 Ni    10.601043    8.849694    1.772960    ( 0.0000,  0.0000,  2.1000)
  26 Fe     1.773713    7.072329    1.777184    ( 0.0000,  0.0000,  0.0000)
  27 Cr     1.755520    8.842943   10.608324    ( 0.0000,  0.0000,  0.0000)
  28 Fe     3.544009    7.063116   10.610489    ( 0.0000,  0.0000,  2.0000)
  29 Co     3.542225    8.826820    1.785580    ( 0.0000,  0.0000,  0.0000)
  30 Ni     5.309835    7.081776    1.776600    ( 0.0000,  0.0000,  2.1000)
  31 Ni     5.331945    8.840321   10.604673    ( 0.0000,  0.0000,  2.1000)
  32 Co     7.068434    7.069028   10.623110    ( 0.0000,  0.0000,  0.0000)
  33 Fe     7.083750    8.846796    1.774509    ( 0.0000,  0.0000,  1.5000)
  34 Ni     8.841404    7.058180    1.777173    ( 0.0000,  0.0000,  1.5000)
  35 Cr     8.835524    8.853600   10.611753    ( 0.0000,  0.0000,  0.0000)
  36 Cr    -0.009351   10.618864    3.531070    ( 0.0000,  0.0000,  2.0000)
  37 Fe    10.602508    1.764818    5.300452    ( 0.0000,  0.0000,  1.5000)
  38 Cr     1.756720    0.001379    5.295867    ( 0.0000,  0.0000,  0.0000)
  39 Co     1.766506    1.767154    3.539222    ( 0.0000,  0.0000,  2.0000)
  40 Co     3.539742    0.013881    3.542873    ( 0.0000,  0.0000,  2.0000)
  41 Fe     3.548944    1.788658    5.306237    ( 0.0000,  0.0000,  2.1000)
  42 Fe     5.320174   -0.004685    5.301386    ( 0.0000,  0.0000,  0.0000)
  43 Co     5.316862    1.765551    3.538935    ( 0.0000,  0.0000,  2.0000)
  44 Ni     7.081086   -0.000289    3.531325    ( 0.0000,  0.0000,  2.0000)
  45 Cr     7.072902    1.777407    5.300537    ( 0.0000,  0.0000,  2.0000)
  46 Fe     8.840544    0.012372    5.307851    ( 0.0000,  0.0000,  1.5000)
  47 Ni     8.833592    1.767928    3.534318    ( 0.0000,  0.0000,  2.1000)
  48 Ni    -0.004066    3.525285    3.545951    ( 0.0000,  0.0000,  0.0000)
  49 Co    -0.001689    5.317934    5.307787    ( 0.0000,  0.0000,  1.5000)
  50 Ni     1.769043    3.555101    5.297279    ( 0.0000,  0.0000,  2.0000)
  51 Fe     1.773692    5.305929    3.538266    ( 0.0000,  0.0000,  2.1000)
  52 Co     3.542746    3.537364    3.547575    ( 0.0000,  0.0000,  2.1000)
  53 Fe     3.548477    5.306927    5.301153    ( 0.0000,  0.0000,  2.0000)
  54 Ni     5.316246    3.553031    5.303637    ( 0.0000,  0.0000,  2.0000)
  55 Fe     5.303286    5.303531    3.542385    ( 0.0000,  0.0000,  1.5000)
  56 Cr     7.074962    3.533023    3.537215    ( 0.0000,  0.0000,  1.5000)
  57 Ni     7.066046    5.306046    5.300081    ( 0.0000,  0.0000,  2.0000)
  58 Cr     8.834526    3.538160    5.294530    ( 0.0000,  0.0000,  2.1000)
  59 Cr     8.846255    5.300452    3.537672    ( 0.0000,  0.0000,  1.5000)
[...]
  93 Ni     7.071130    5.304220    8.839313    ( 0.0000,  0.0000,  1.5000)
  94 Co     8.837997    3.524669    8.843389    ( 0.0000,  0.0000,  1.5000)
  95 Ni     8.833772    5.299051    7.076862    ( 0.0000,  0.0000,  0.0000)
  96 Cr     0.012168    7.080333    7.083835    ( 0.0000,  0.0000,  1.5000)
  97 Fe    -0.017034    8.848707    8.843941    ( 0.0000,  0.0000,  2.1000)
  98 Co     1.777938    7.075503    8.840194    ( 0.0000,  0.0000,  2.0000)
  99 Fe     1.758800    8.840035    7.069803    ( 0.0000,  0.0000,  0.0000)
 100 Fe     3.549921    7.066194    7.070090    ( 0.0000,  0.0000,  2.1000)
 101 Co     3.553137    8.839111    8.836776    ( 0.0000,  0.0000,  0.0000)
 102 Cr     5.304189    7.079929    8.840215    ( 0.0000,  0.0000,  2.0000)
 103 Co     5.321946    8.832180    7.082997    ( 0.0000,  0.0000,  2.1000)
 104 Cr     7.057077    7.072149    7.064167    ( 0.0000,  0.0000,  1.5000)
 105 Fe     7.082402    8.855500    8.837487    ( 0.0000,  0.0000,  2.1000)
 106 Co     8.846786    7.077881    8.846732    ( 0.0000,  0.0000,  0.0000)
 107 Cr     8.839313    8.848272    7.075153    ( 0.0000,  0.0000,  0.0000)

Unit cell:
           periodic     x           y           z      points  spacing
  1. axis:    yes   10.614300    0.000000    0.000000    48     0.2211
  2. axis:    yes    0.000000   10.614300    0.000000    48     0.2211
  3. axis:    yes    0.000000    0.000000   10.614300    48     0.2211

  Lengths:  10.614300  10.614300  10.614300
  Angles:   90.000000  90.000000  90.000000

Effective grid spacing dv^(1/3) = 0.2211

     iter     time        total  log10-change:  magmom
                         energy  eigst   dens
iter:   1 11:34:45  -940.078802                  +151.0879
iter:   2 11:37:49  -952.845897  -0.55  -1.37    +116.8981
iter:   3 11:40:52  -918.057400  -0.98  -1.32    +89.9155
iter:   4 11:43:56  -892.931521  -1.51  -1.41    +74.1671
iter:   5 11:47:00  -890.237317  -1.98  -1.51    +66.5840
iter:   6 11:50:03  -893.949319  -2.04  -1.54    +61.6611
iter:   7 11:53:07  -892.037175  -1.85  -1.55    +60.0028
iter:   8 11:56:11  -886.218287  -1.76  -1.60    +58.5870
iter:   9 11:59:14  -891.402072  -1.89  -1.83    +58.2680
iter:  10 12:02:18  -887.809575  -2.17  -1.82    +58.0011
iter:  11 12:05:21  -887.218837  -2.77  -1.92    +58.4553
iter:  12 12:08:26  -888.132169  -2.79  -1.99    +59.2005
iter:  13 12:11:30  -888.562353  -2.77  -1.99    +59.5191
iter:  14 12:14:35  -889.907101  -2.62  -2.03    +59.9059
iter:  15 12:17:40  -889.794543  -2.56  -2.07    +60.2898
iter:  16 12:20:45  -891.783566  -2.45  -2.12    +60.5769
iter:  17 12:23:48  -889.105740  -2.74  -2.02    +60.2153
iter:  18 12:26:53  -889.399506  -3.05  -2.31    +60.3783
iter:  19 12:29:57  -889.022843  -3.21  -2.29    +60.7040
iter:  20 12:33:00  -889.040298  -3.63  -2.38    +61.0042
iter:  21 12:36:04  -889.128790  -3.64  -2.42    +61.2686
iter:  22 12:39:08  -889.250873  -3.63  -2.46    +61.4791
iter:  23 12:42:13  -889.365394  -3.47  -2.47    +61.8142
iter:  24 12:45:18  -889.546833  -3.39  -2.47    +61.9020
iter:  25 12:48:22  -889.636782  -3.23  -2.48    +62.0126
iter:  26 12:51:27  -889.595890c -3.37  -2.50    +62.1789
iter:  27 12:54:31  -889.535145c -3.53  -2.55    +62.3712
iter:  28 12:57:36  -889.505990c -3.83  -2.59    +62.5715
iter:  29 13:00:42  -889.501367c -4.03  -2.67    +62.7263
iter:  30 13:03:47  -889.520377c -4.49  -2.72    +62.9863
iter:  31 13:06:53  -889.628556  -3.89  -2.76    +63.5440
iter:  32 13:09:58  -889.647186  -4.25  -2.74    +63.8305
iter:  33 13:13:02  -889.676334c -4.36  -2.77    +64.0596
iter:  34 13:16:07  -889.786629  -3.77  -2.81    +64.3204
iter:  35 13:19:12  -889.743777  -4.03  -2.79    +64.4017
iter:  36 13:22:17  -889.765237c -4.21  -2.91    +64.6315
iter:  37 13:25:21  -889.780484c -4.40  -2.99    +64.8525
iter:  38 13:28:25  -889.808664c -4.47  -3.05    +65.1083
iter:  39 13:31:30  -889.824737c -4.77  -3.09    +65.2515
iter:  40 13:34:34  -889.856123c -4.82  -3.12    +65.5262
iter:  41 13:37:39  -889.923022c -4.35  -3.13    +66.0336
iter:  42 13:40:44  -889.955547c -4.76  -3.06    +66.2654
iter:  43 13:43:49  -890.030819  -3.95  -3.03    +66.9620
iter:  44 13:46:54  -890.130192  -3.68  -3.06    +67.9742
iter:  45 13:49:59  -890.186612  -3.87  -2.92    +68.6378
iter:  46 13:53:04  -890.202445c -4.65  -2.87    +68.4958
iter:  47 13:56:09  -890.201247c -4.81  -2.85    +68.6161
iter:  48 13:59:14  -890.208445c -5.39  -2.85    +68.5979
iter:  49 14:02:18  -890.359963  -3.77  -2.84    +68.6247
iter:  50 14:05:23  -890.287001  -3.49  -2.60    +68.6183
iter:  51 14:08:28  -890.348495c -3.53  -2.63    +68.5060
iter:  52 14:11:32  -890.269893c -3.62  -2.61    +68.4349
iter:  53 14:14:37  -890.109671  -4.10  -2.69    +68.4302
iter:  54 14:17:42  -890.153749  -4.21  -3.07    +68.4531
iter:  55 14:20:48  -890.104065c -4.53  -2.89    +68.4045
iter:  56 14:23:52  -890.114008c -4.92  -3.13    +68.4049
iter:  57 14:26:56  -890.127514c -4.57  -3.10    +68.4147
iter:  58 14:30:01  -890.117064c -4.54  -3.01    +68.4087
iter:  59 14:33:05  -890.112258c -4.52  -3.09    +68.3776
iter:  60 14:36:10  -890.112248c -4.76  -3.13    +68.3660
iter:  61 14:39:14  -890.117400c -4.62  -3.19    +68.4158
iter:  62 14:42:18  -890.112168c -4.69  -3.14    +68.3933
iter:  63 14:45:23  -890.105176c -4.92  -3.17    +68.3249
iter:  64 14:48:28  -890.102478c -5.16  -3.31    +68.3084
iter:  65 14:51:34  -890.101283c -5.12  -3.40    +68.3099
iter:  66 14:54:38  -890.098553c -5.77  -3.39    +68.3089
iter:  67 14:57:40  -890.099967c -5.47  -3.58    +68.2870
iter:  68 15:00:45  -890.100855c -5.54  -3.48    +68.2971
iter:  69 15:03:50  -890.098900c -5.77  -3.55    +68.3149
iter:  70 15:06:55  -890.098674c -5.77  -3.62    +68.3099
iter:  71 15:09:59  -890.100715c -5.64  -3.63    +68.3009
iter:  72 15:13:04  -890.098285c -5.86  -3.58    +68.2937
iter:  73 15:16:08  -890.099128c -6.13  -3.75    +68.3003
iter:  74 15:19:13  -890.098295c -6.18  -3.72    +68.2960
iter:  75 15:22:18  -890.098770c -6.19  -3.76    +68.2866
iter:  76 15:25:23  -890.099293c -6.17  -3.80    +68.2890
iter:  77 15:28:27  -890.098883c -6.15  -3.78    +68.2920
iter:  78 15:31:31  -890.099600c -5.87  -3.84    +68.2938
iter:  79 15:34:14  -890.099200c -6.10  -3.78    +68.2873
iter:  80 15:37:00  -890.099667c -6.15  -3.85    +68.2928
iter:  81 15:40:03  -890.099242c -6.19  -3.94    +68.2945
iter:  82 15:43:06  -890.099057c -6.34  -3.93    +68.2886
iter:  83 15:46:09  -890.099124c -6.71  -3.99    +68.2774
iter:  84 15:49:12  -890.099200c -6.48  -4.20c   +68.2745
iter:  85 15:52:15  -890.099284c -6.93  -4.05c   +68.2756
iter:  86 15:55:18  -890.099158c -6.91  -4.25c   +68.2708
iter:  87 15:58:21  -890.099550c -6.79  -4.26c   +68.2703
iter:  88 16:01:23  -890.099553c -6.91  -4.17c   +68.2712
iter:  89 16:04:26  -890.099443c -7.02  -4.32c   +68.2726
iter:  90 16:07:28  -890.099683c -7.01  -4.36c   +68.2692
iter:  91 16:10:31  -890.099543c -7.20  -4.31c   +68.2655
iter:  92 16:13:33  -890.099778c -7.26  -4.46c   +68.2639
iter:  93 16:16:36  -890.099750c -7.32  -4.44c   +68.2628
iter:  94 16:19:38  -890.099810c -7.30  -4.50c   +68.2587
iter:  95 16:22:41  -890.100063c -7.12  -4.58c   +68.2565
iter:  96 16:25:44  -890.099908c -7.49c -4.43c   +68.2559

Converged after 96 iterations.

Dipole moment: (6.397952, -2.119946, 0.735207) |e|*Ang

Total magnetic moment: (0.000000, 0.000000, 68.255864)
Local magnetic moments:
   0 Co ( 0.000000,  0.000000,  0.991566)
   1 Fe ( 0.000000,  0.000000,  2.225890)
   2 Fe ( 0.000000,  0.000000,  2.221194)
   3 Co ( 0.000000,  0.000000,  1.053341)
   4 Co ( 0.000000,  0.000000,  1.251349)
   5 Fe ( 0.000000,  0.000000,  2.468628)
   6 Ni ( 0.000000,  0.000000,  0.559676)
   7 Co ( 0.000000,  0.000000,  0.993404)
   8 Co ( 0.000000,  0.000000,  0.977513)
   9 Fe ( 0.000000,  0.000000,  2.403868)
  10 Ni ( 0.000000,  0.000000,  0.276472)
  11 Cr ( 0.000000,  0.000000, -1.718804)
  12 Fe ( 0.000000,  0.000000,  1.862368)
  13 Cr ( 0.000000,  0.000000, -0.845142)
  14 Co ( 0.000000,  0.000000,  0.934257)
  15 Cr ( 0.000000,  0.000000, -0.574182)
  16 Cr ( 0.000000,  0.000000, -1.146349)
  17 Fe ( 0.000000,  0.000000,  1.873451)
  18 Ni ( 0.000000,  0.000000,  0.303054)
  19 Fe ( 0.000000,  0.000000,  1.998788)
  20 Ni ( 0.000000,  0.000000,  0.235732)
  21 Cr ( 0.000000,  0.000000, -0.039239)
  22 Fe ( 0.000000,  0.000000,  1.810753)
  23 Ni ( 0.000000,  0.000000,  0.180324)
  24 Cr ( 0.000000,  0.000000,  0.660731)
  25 Ni ( 0.000000,  0.000000,  0.153457)
  26 Fe ( 0.000000,  0.000000,  1.783556)
  27 Cr ( 0.000000,  0.000000, -1.534730)
  28 Fe ( 0.000000,  0.000000,  1.927666)
  29 Co ( 0.000000,  0.000000,  1.443425)
  30 Ni ( 0.000000,  0.000000,  0.276955)
  31 Ni ( 0.000000,  0.000000,  0.399935)
  32 Co ( 0.000000,  0.000000,  1.200464)
  33 Fe ( 0.000000,  0.000000,  2.456643)
  34 Ni ( 0.000000,  0.000000,  0.104972)
  35 Cr ( 0.000000,  0.000000, -1.536198)
  36 Cr ( 0.000000,  0.000000, -1.667784)
  37 Fe ( 0.000000,  0.000000,  2.178089)
  38 Cr ( 0.000000,  0.000000, -1.730583)
  39 Co ( 0.000000,  0.000000,  1.194196)
  40 Co ( 0.000000,  0.000000,  1.453705)
  41 Fe ( 0.000000,  0.000000,  2.510543)
  42 Fe ( 0.000000,  0.000000,  2.078893)
  43 Co ( 0.000000,  0.000000,  1.366621)
  44 Ni ( 0.000000,  0.000000,  0.407867)
  45 Cr ( 0.000000,  0.000000,  0.613633)
  46 Fe ( 0.000000,  0.000000,  1.579766)
  47 Ni ( 0.000000,  0.000000,  0.259087)
  48 Ni ( 0.000000,  0.000000,  0.307565)
  49 Co ( 0.000000,  0.000000,  1.243255)
  50 Ni ( 0.000000,  0.000000,  0.534043)
  51 Fe ( 0.000000,  0.000000,  2.195007)
  52 Co ( 0.000000,  0.000000,  1.423734)
  53 Fe ( 0.000000,  0.000000,  2.297258)
  54 Ni ( 0.000000,  0.000000,  0.327786)
  55 Fe ( 0.000000,  0.000000,  1.836637)
  56 Cr ( 0.000000,  0.000000, -1.228820)
  57 Ni ( 0.000000,  0.000000,  0.134971)
  58 Cr ( 0.000000,  0.000000, -1.111365)
  59 Cr ( 0.000000,  0.000000,  0.758622)
[...]
  93 Ni ( 0.000000,  0.000000,  0.219633)
  94 Co ( 0.000000,  0.000000,  1.136916)
  95 Ni ( 0.000000,  0.000000,  0.251118)
  96 Cr ( 0.000000,  0.000000, -1.360975)
  97 Fe ( 0.000000,  0.000000,  1.875627)
  98 Co ( 0.000000,  0.000000,  0.776013)
  99 Fe ( 0.000000,  0.000000,  1.981971)
 100 Fe ( 0.000000,  0.000000,  1.985283)
 101 Co ( 0.000000,  0.000000,  1.167293)
 102 Cr ( 0.000000,  0.000000, -1.370677)
 103 Co ( 0.000000,  0.000000,  0.724952)
 104 Cr ( 0.000000,  0.000000, -1.012743)
 105 Fe ( 0.000000,  0.000000,  1.752995)
 106 Co ( 0.000000,  0.000000,  0.650906)
 107 Cr ( 0.000000,  0.000000, -0.327049)

Energy contributions relative to reference atoms: (reference = -3846758.590871)

Kinetic:       +134.582851
Potential:     -199.015655
External:        +0.000000
XC:            -863.400253
Entropy (-ST):   -4.592466
Local:          +40.029382
Free energy:   -892.396141
Extrapolated:  -890.099908

Spin contamination: 29.040169 electrons
Showing only first 2 kpts
                      Up                     Down
 Kpt  Band  Eigenvalues  Occupancy  Eigenvalues  Occupancy
  0   524      9.82498    0.99428     10.76543    0.01412
  0   525      9.83764    0.99352     10.77216    0.01322
  0   526      9.85317    0.99244     10.78357    0.01181
  0   527      9.86560    0.99144     10.79732    0.01031

  1   524      9.81834    0.99465     10.75061    0.01634
  1   525      9.82605    0.99422     10.76215    0.01459
  1   526      9.84099    0.99330     10.77293    0.01312
  1   527      9.85849    0.99203     10.79310    0.01075

Fermi level: 10.34085

No gap

Forces in eV/Ang:
  0 Co    0.00445   -0.12907    0.03158
  1 Fe    0.30461    0.25425    0.03177
  2 Fe    0.07221   -0.41547    0.16920
  3 Co    0.06362    0.08539    0.18706
  4 Co    0.08251   -0.10817   -0.05538
  5 Fe    0.06238    0.01318   -0.08944
  6 Ni   -0.04706    0.15987   -0.08085
  7 Co   -0.08079    0.19145    0.05171
  8 Co   -0.09370   -0.11307   -0.22078
  9 Fe   -0.41018   -0.25260   -0.11895
 10 Ni   -0.08053   -0.13742   -0.01413
 11 Cr    0.00397   -0.26644    0.04638
 12 Fe    0.47107    0.41475   -0.07145
 13 Cr    0.09502   -0.39164   -0.17510
 14 Co   -0.12885    0.01773   -0.28390
 15 Cr   -0.09697    0.31877    0.10960
 16 Cr    0.08613   -0.19970    0.26541
 17 Fe    0.06255   -0.43187   -0.15428
 18 Ni   -0.09166   -0.06864   -0.07978
 19 Fe    0.06137   -0.23086    0.16952
 20 Ni   -0.21279    0.05611    0.10477
 21 Cr    0.37068    0.18118   -0.08552
 22 Fe    0.02715    0.11982   -0.03044
 23 Ni   -0.04735    0.26352    0.04741
 24 Cr   -0.01966   -0.59248   -0.65487
 25 Ni    0.26539   -0.12520   -0.07526
 26 Fe   -0.20216    0.51739    0.15616
 27 Cr    0.20872   -0.22120   -0.04380
 28 Fe   -0.13692    0.42136   -0.06253
 29 Co   -0.10216    0.29103    0.07154
 30 Ni   -0.01217   -0.01030   -0.02444
 31 Ni   -0.19109    0.07154    0.16736
 32 Co    0.27594    0.02959   -0.04471
 33 Fe   -0.19885   -0.12486   -0.28000
 34 Ni   -0.01233   -0.01139   -0.18252
 35 Cr    0.05651    0.13736   -0.26554
 36 Cr   -0.22464    0.01467   -0.07907
 37 Fe    0.26871   -0.11739    0.12558
 38 Cr    0.48495   -0.05733    0.38982
 39 Co    0.04946    0.15064    0.03688
 40 Co   -0.13543   -0.33864   -0.16901
 41 Fe   -0.22489   -0.00387   -0.03210
 42 Fe    0.11148   -0.27957    0.05394
 43 Co   -0.09895    0.05820    0.03246
 44 Ni    0.03659    0.12745    0.13486
 45 Cr    0.00585    0.06519   -0.04239
 46 Fe   -0.21918   -0.07792   -0.09144
 47 Ni    0.10872    0.15279    0.03475
 48 Ni    0.00390   -0.08899   -0.07110
 49 Co   -0.09899   -0.03529   -0.01812
 50 Ni   -0.09996   -0.13818    0.24916
 51 Fe   -0.35850   -0.23687   -0.02188
 52 Co    0.05740   -0.04090   -0.15357
 53 Fe   -0.04877   -0.20238    0.07567
 54 Ni    0.04360   -0.12164    0.00748
 55 Fe    0.29051    0.10831    0.03654
 56 Cr   -0.20991   -0.04110   -0.08461
 57 Ni   -0.04007   -0.00307   -0.06313
 58 Cr    0.26316    0.04905    0.36321
 59 Cr    0.13845    0.10503    0.05414
[...]
 93 Ni    0.15270    0.27939    0.06259
 94 Co    0.18379    0.07547   -0.05784
 95 Ni    0.11498    0.08932   -0.03897
 96 Cr   -0.09806   -0.16766    0.25815
 97 Fe   -0.09225    0.11024    0.04136
 98 Co   -0.07894   -0.19348   -0.00784
 99 Fe    0.30325    0.16054    0.30580
100 Fe   -0.21965    0.18373    0.30349
101 Co   -0.11442    0.01719   -0.16047
102 Cr   -0.08268    0.43233    0.41531
103 Co    0.12281    0.06018   -0.21702
104 Cr    0.25674    0.20963   -0.24431
105 Fe    0.00245    0.06116    0.04657
106 Co   -0.03585    0.00240   -0.02433
107 Cr    0.04253    0.07534    0.37445

Date: Sat Apr 15 16:26:07 2023