User:   c.zeng@d0148
Date:   Sat Apr  8 15:55:02 2023
Arch:   x86_64
Pid:    9546
CWD:    /home/c.zeng/projects/hea-corrosion/hea-mlp/data-curation/volume/dft-jobs/89
Python: 3.8.1
gpaw:   /home/c.zeng/usr/installs/gpaw/source/gpaw-22.8.0/gpaw
_gpaw:  /home/c.zeng/usr/installs/gpaw/source/gpaw-22.8.0/
        _gpaw.cpython-38-x86_64-linux-gnu.so
ase:    /home/c.zeng/.local/lib/python3.8/site-packages/ase-3.22.1-py3.8.egg/ase (version 3.22.1)
numpy:  /shared/centos7/python/3.8.1/lib/python3.8/site-packages/numpy (version 1.17.4)
scipy:  /shared/centos7/python/3.8.1/lib/python3.8/site-packages/scipy (version 1.4.1)
units:  Angstrom and eV
cores: 64
OpenMP: False
OMP_NUM_THREADS: 1

Input parameters:
  convergence: {energy: 0.0001}
  kpts: [2 2 2]
  maxiter: 666
  mode: {ecut: 350.0,
         name: pw}
  occupations: {fixmagmom: False,
                name: fermi-dirac,
                width: 0.1}
  spinpol: True
  xc: PBE

System changes: positions, numbers, cell, pbc, initial_charges, initial_magmoms

Initialize ...

species:
  Fe:
    name: Iron
    id: 37abbd8d6c3c35915a9b583b742da910
    Z: 26.0
    valence: 8
    core: 18
    charge: 0.0
    file: /home/c.zeng/usr/data/gpaw-setups-0.9.20000/Fe.PBE.gz
    compensation charges: {type: gauss,
                           rc: 0.33,
                           lmax: 2}
    cutoffs: {filter: 2.06,
              core: 2.67}
    valence states:
      #              energy  rcut
      - 4s(2.00)    -5.291   1.164
      - 4p(0.00)    -1.326   1.058
      - 3d(6.00)    -7.505   1.058
      -  s          21.920   1.164
      -  p          25.885   1.058
      -  d          19.706   1.058

    # Using partial waves for Fe as LCAO basis

  Cr:
    name: Chromium
    id: 33f258bda2ca9f93018e70263a35547b
    Z: 24.0
    valence: 6
    core: 18
    charge: 0.0
    file: /home/c.zeng/usr/data/gpaw-setups-0.9.20000/Cr.PBE.gz
    compensation charges: {type: gauss,
                           rc: 0.35,
                           lmax: 2}
    cutoffs: {filter: 2.14,
              core: 3.04}
    valence states:
      #              energy  rcut
      - 4s(1.00)    -4.007   1.164
      - 4p(0.00)    -0.989   1.217
      - 3d(5.00)    -2.913   1.111
      -  s          23.205   1.164
      -  p          26.223   1.217
      -  d          24.299   1.111

[...]

  Ni:
    name: Nickel
    id: 0d9f38a9d6e76a2886f07bb4381f212b
    Z: 28.0
    valence: 16
    core: 12
    charge: 0.0
    file: /home/c.zeng/usr/data/gpaw-setups-0.9.20000/Ni.PBE.gz
    compensation charges: {type: gauss,
                           rc: 0.36,
                           lmax: 2}
    cutoffs: {filter: 2.14,
              core: 1.98}
    valence states:
      #              energy  rcut
      - 4s(2.00)    -5.642   1.164
      - 3p(6.00)   -71.394   1.207
      - 4p(0.00)    -1.226   1.207
      - 3d(8.00)    -8.875   1.138
      -  s          21.570   1.164
      -  d          18.337   1.138

[...]

  Al:
    name: Aluminium
    id: 0292cae29f5d6237e50f6abdd43a7bdd
    Z: 13.0
    valence: 3
    core: 10
    charge: 0.0
    file: /home/c.zeng/usr/data/gpaw-setups-0.9.20000/Al.PBE.gz
    compensation charges: {type: gauss,
                           rc: 0.34,
                           lmax: 2}
    cutoffs: {filter: 1.91,
              core: 2.36}
    valence states:
      #              energy  rcut
      - 3s(2.00)    -7.753   1.085
      - 3p(1.00)    -2.712   1.085
      -  s          19.459   1.085
      -  p          24.499   1.085
      -  d           0.000   1.085

[...]

  Co:
    name: Cobalt
    id: 339d20d5b0b93d2de9531a1bee871d91
    Z: 27.0
    valence: 9
    core: 18
    charge: 0.0
    file: /home/c.zeng/usr/data/gpaw-setups-0.9.20000/Co.PBE.gz
    compensation charges: {type: gauss,
                           rc: 0.32,
                           lmax: 2}
    cutoffs: {filter: 1.87,
              core: 2.55}
    valence states:
      #              energy  rcut
      - 4s(2.00)    -5.469   1.005
      - 4p(0.00)    -1.277   1.058
      - 3d(7.00)    -8.205   1.005
      -  s          21.742   1.005
      -  p          25.934   1.058
      -  d          19.007   1.005

    # Using partial waves for Co as LCAO basis

Reference energy: -3382523.201499  # eV

Spin-polarized calculation.
Magnetic moment: 128.800000

Convergence criteria:
 Maximum [total energy] change in last 3 cyles: 0.0001 eV / electron
 Maximum integral of absolute [dens]ity change: 0.0001 electrons / valence electron
 Maximum integral of absolute [eigenst]ate change: 4e-08 eV^2 / valence electron
 Maximum number of scf [iter]ations: 666
 (Square brackets indicate name in SCF output, whereas a 'c' in
 the SCF output indicates the quantity has converged.)

Symmetries present (total): 1

  ( 1  0  0)
  ( 0  1  0)
  ( 0  0  1)

8 k-points: 2 x 2 x 2 Monkhorst-Pack grid
4 k-points in the irreducible part of the Brillouin zone
       k-points in crystal coordinates                weights
   0:     0.25000000   -0.25000000   -0.25000000          2/8
   1:     0.25000000   -0.25000000    0.25000000          2/8
   2:     0.25000000    0.25000000   -0.25000000          2/8
   3:     0.25000000    0.25000000    0.25000000          2/8

Wave functions: Plane wave expansion
  Cutoff energy: 350.000 eV
  Number of coefficients (min, max): 25080, 25080
  Pulay-stress correction: 0.000000 eV/Ang^3 (de/decut=0.000000)
  Using FFTW library
  ScaLapack parameters: grid=1x1, blocksize=None
  Wavefunction extrapolation:
    Improved wavefunction reuse through dual PAW basis

Occupation numbers: Fermi-Dirac:
  width: 0.1000  # eV

Eigensolver
   Davidson(niter=2)

Densities:
  Coarse grid: 54*54*54 grid
  Fine grid: 108*108*108 grid
  Total Charge: 0.000000

Density mixing:
  Method: difference
  Backend: pulay
  Linear mixing parameter: 0.05
  old densities: 5
  Damping of long wavelength oscillations: 50

Hamiltonian:
  XC and Coulomb potentials evaluated on a 108*108*108 grid
  Using the PBE Exchange-Correlation functional
  External potential:
    NoExternalPotential

XC parameters: PBE with 2 nearest neighbor stencil

Total number of cores used: 64
Parallelization over k-points: 4
Domain decomposition: 4 x 2 x 2

Number of atoms: 108
Number of atomic orbitals: 961
Number of bands in calculation: 649
Number of valence electrons: 945
Bands to converge: occupied

... initialized

Initializing position-dependent things.

Density initialized from atomic densities
Creating initial wave functions:
  649 bands from LCAO basis set

        .----------------------------Fe
       /|                      Ni    |
      / |                          Ni|
     /  |             Cr        Ni   |
    /   |Cr      Al       Ni Al     Fe
   /i   | Co        Cr     Co Co     Fe
  /    Cr   NiFe     Co Cr     FeFe  |
 *      Co     Cr Ni     Al Fe     Ni|
 |      |Cr Feo       Al     CrCoo   |
 |      |        CrCo     Fe        Co
 |    CoNiAl Ni     Al Al  Cr CrNi   |
 |     Co   NiFe Fe  Ni NiNi   CrCr  |
 |      Co Fe  Al Fe  Ni Al Co     Fe|
 |      |   Al       Co        Co    |
 |      |Al      CrFe     Cr Co     Cr
 |      .-Cr-Al-----Fe-Ni--Al-CoNi---.
 |     Cr   AlCr Ni  Fe FeNi     Cr /
 |    / Fe Fe  Cr Co     NiCo      /
 |   /      Fe     Fe Co       Cr /
 |  / Ni                         /
 | /         Co        CrNi     /
 |/              Al       Co   /
 *---------Al-----------------*

Positions:
   0 Fe    -0.000003   -0.000001   -0.000003    ( 0.0000,  0.0000,  2.0000)
   1 Cr    -0.000001    1.984504    1.984492    ( 0.0000,  0.0000,  0.0000)
   2 Ni     1.984504    0.000005    1.984504    ( 0.0000,  0.0000,  1.5000)
   3 Cr     1.984504    1.984504   -0.000000    ( 0.0000,  0.0000,  0.0000)
   4 Al     3.968996    0.000014    0.000012    ( 0.0000,  0.0000,  0.0000)
   5 Fe     3.968996    1.984504    1.984504    ( 0.0000,  0.0000,  2.0000)
   6 Ni     5.953488   -0.000001    1.984504    ( 0.0000,  0.0000,  1.5000)
   7 Al     5.953476    1.984516    0.000012    ( 0.0000,  0.0000,  0.0000)
   8 Al     7.938016   -0.000025    0.000010    ( 0.0000,  0.0000,  0.0000)
   9 Co     7.938004    1.984504    1.984504    ( 0.0000,  0.0000,  2.1000)
  10 Ni     9.922508    0.000003    1.984492    ( 0.0000,  0.0000,  1.5000)
  11 Co     9.922508    1.984504    0.000001    ( 0.0000,  0.0000,  2.1000)
  12 Ni     0.000000    3.968996   -0.000004    ( 0.0000,  0.0000,  1.5000)
  13 Cr    -0.000003    5.953500    1.984504    ( 0.0000,  0.0000,  0.0000)
  14 Fe     1.984504    3.968996    1.984504    ( 0.0000,  0.0000,  2.0000)
  15 Cr     1.984504    5.953500   -0.000005    ( 0.0000,  0.0000,  0.0000)
  16 Co     3.968996    3.968996    0.000001    ( 0.0000,  0.0000,  2.1000)
  17 Cr     3.969008    5.953488    1.984492    ( 0.0000,  0.0000,  0.0000)
  18 Co     5.953500    3.969008    1.984504    ( 0.0000,  0.0000,  2.1000)
  19 Fe     5.953500    5.953500    0.000004    ( 0.0000,  0.0000,  2.0000)
  20 Cr     7.938004    3.969008    0.000008    ( 0.0000,  0.0000,  0.0000)
  21 Fe     7.937992    5.953500    1.984504    ( 0.0000,  0.0000,  2.0000)
  22 Co     9.922496    3.968996    1.984504    ( 0.0000,  0.0000,  2.1000)
  23 Al     9.922496    5.953500   -0.000003    ( 0.0000,  0.0000,  0.0000)
  24 Ni    -0.000004    7.938004   -0.000006    ( 0.0000,  0.0000,  1.5000)
  25 Cr    -0.000005    9.922496    1.984504    ( 0.0000,  0.0000,  0.0000)
  26 Cr     1.984492    7.938004    1.984504    ( 0.0000,  0.0000,  0.0000)
  27 Al     1.984480    9.922496    0.000003    ( 0.0000,  0.0000,  0.0000)
  28 Cr     3.969008    7.937992    0.000002    ( 0.0000,  0.0000,  0.0000)
  29 Cr     3.969008    9.922508    1.984504    ( 0.0000,  0.0000,  0.0000)
  30 Fe     5.953500    7.937992    1.984504    ( 0.0000,  0.0000,  2.0000)
  31 Fe     5.953500    9.922496    0.000004    ( 0.0000,  0.0000,  2.0000)
  32 Ni     7.937992    7.938004    0.000006    ( 0.0000,  0.0000,  1.5000)
  33 Cr     7.937992    9.922496    1.984492    ( 0.0000,  0.0000,  0.0000)
  34 Co     9.922496    7.938004    1.984504    ( 0.0000,  0.0000,  2.1000)
  35 Ni     9.922508    9.922496   -0.000004    ( 0.0000,  0.0000,  1.5000)
  36 Ni     0.000001   -0.000002    3.969008    ( 0.0000,  0.0000,  1.5000)
  37 Co    -0.000001    1.984504    5.953500    ( 0.0000,  0.0000,  2.1000)
  38 Co     1.984492   -0.000003    5.953500    ( 0.0000,  0.0000,  2.1000)
  39 Cr     1.984492    1.984492    3.968996    ( 0.0000,  0.0000,  0.0000)
  40 Fe     3.968996    0.000001    3.968996    ( 0.0000,  0.0000,  2.0000)
  41 Al     3.969008    1.984492    5.953512    ( 0.0000,  0.0000,  0.0000)
  42 Fe     5.953500   -0.000001    5.953500    ( 0.0000,  0.0000,  2.0000)
  43 Ni     5.953500    1.984492    3.968996    ( 0.0000,  0.0000,  1.5000)
  44 Cr     7.937992   -0.000000    3.969008    ( 0.0000,  0.0000,  0.0000)
  45 Co     7.937992    1.984492    5.953500    ( 0.0000,  0.0000,  2.1000)
  46 Co     9.922496   -0.000001    5.953500    ( 0.0000,  0.0000,  2.1000)
  47 Ni     9.922496    1.984504    3.968996    ( 0.0000,  0.0000,  1.5000)
  48 Ni    -0.000003    3.968996    3.968996    ( 0.0000,  0.0000,  1.5000)
  49 Cr    -0.000006    5.953500    5.953500    ( 0.0000,  0.0000,  0.0000)
  50 Co     1.984492    3.968996    5.953500    ( 0.0000,  0.0000,  2.1000)
  51 Al     1.984492    5.953488    3.968996    ( 0.0000,  0.0000,  0.0000)
  52 Al     3.969020    3.969008    3.968984    ( 0.0000,  0.0000,  0.0000)
  53 Fe     3.969008    5.953488    5.953500    ( 0.0000,  0.0000,  2.0000)
  54 Fe     5.953500    3.969008    5.953500    ( 0.0000,  0.0000,  2.0000)
  55 Fe     5.953500    5.953500    3.968996    ( 0.0000,  0.0000,  2.0000)
  56 Ni     7.937992    3.969008    3.968996    ( 0.0000,  0.0000,  1.5000)
  57 Ni     7.937992    5.953488    5.953488    ( 0.0000,  0.0000,  1.5000)
  58 Co     9.922508    3.968996    5.953500    ( 0.0000,  0.0000,  2.1000)
  59 Co     9.922496    5.953500    3.968996    ( 0.0000,  0.0000,  2.1000)
[...]
  93 Cr     7.937992    5.953500    9.922508    ( 0.0000,  0.0000,  0.0000)
  94 Fe     9.922508    3.968996    9.922496    ( 0.0000,  0.0000,  2.0000)
  95 Cr     9.922508    5.953500    7.938004    ( 0.0000,  0.0000,  0.0000)
  96 Ni    -0.000004    7.938004    7.938004    ( 0.0000,  0.0000,  1.5000)
  97 Fe    -0.000002    9.922496    9.922496    ( 0.0000,  0.0000,  2.0000)
  98 Co     1.984492    7.937992    9.922496    ( 0.0000,  0.0000,  2.1000)
  99 Ni     1.984492    9.922508    7.938004    ( 0.0000,  0.0000,  1.5000)
 100 Cr     3.968996    7.937992    7.938004    ( 0.0000,  0.0000,  0.0000)
 101 Al     3.969008    9.922496    9.922484    ( 0.0000,  0.0000,  0.0000)
 102 Cr     5.953500    7.937992    9.922508    ( 0.0000,  0.0000,  0.0000)
 103 Co     5.953500    9.922508    7.937992    ( 0.0000,  0.0000,  2.1000)
 104 Al     7.938004    7.938016    7.938016    ( 0.0000,  0.0000,  0.0000)
 105 Ni     7.938004    9.922496    9.922496    ( 0.0000,  0.0000,  1.5000)
 106 Co     9.922508    7.938004    9.922496    ( 0.0000,  0.0000,  2.1000)
 107 Fe     9.922496    9.922508    7.938004    ( 0.0000,  0.0000,  2.0000)

Unit cell:
           periodic     x           y           z      points  spacing
  1. axis:    yes   11.907000    0.000000    0.000000    54     0.2205
  2. axis:    yes    0.000000   11.907000    0.000000    54     0.2205
  3. axis:    yes    0.000000    0.000000   11.907000    54     0.2205

  Lengths:  11.907000  11.907000  11.907000
  Angles:   90.000000  90.000000  90.000000

Effective grid spacing dv^(1/3) = 0.2205

     iter     time        total  log10-change:  magmom
                         energy  eigst   dens
iter:   1 15:57:41 -1006.399602                  +129.0863
iter:   2 15:58:57  -867.417792  +0.03  -1.14    +68.3053
iter:   3 16:00:13  -876.441658  -0.45  -1.05    +73.2033
iter:   4 16:01:28  -794.527108  -1.09  -1.15    +67.9304
iter:   5 16:02:43  -783.698776  -1.65  -1.29    +69.3660
iter:   6 16:03:57  -788.703217  -1.65  -1.34    +78.6190
iter:   7 16:05:14  -791.705770  -1.27  -1.32    +82.7925
iter:   8 16:06:31  -783.526182  -1.41  -1.35    +86.8184
iter:   9 16:07:48  -782.439869  -1.39  -1.42    +88.2986
iter:  10 16:09:06  -779.933199  -1.64  -1.54    +89.5882
iter:  11 16:10:21  -786.988351  -1.59  -1.63    +89.3228
iter:  12 16:11:36  -776.250696  -1.97  -1.52    +88.4329
iter:  13 16:12:51  -777.082368  -2.10  -1.78    +89.3930
iter:  14 16:14:07  -775.964561  -2.53  -1.80    +89.2420
iter:  15 16:15:24  -778.055951  -2.43  -1.86    +87.7410
iter:  16 16:16:41  -779.378809  -2.60  -1.89    +87.0318
iter:  17 16:17:57  -780.283144  -2.49  -1.85    +85.7806
iter:  18 16:19:13  -781.193082  -2.51  -1.89    +85.4912
iter:  19 16:20:29  -781.613382  -2.57  -1.93    +83.6042
iter:  20 16:21:44  -782.633328  -2.56  -1.98    +83.0421
iter:  21 16:23:01  -782.473759  -2.88  -1.95    +82.8982
iter:  22 16:24:18  -783.711673  -2.72  -2.05    +81.2057
iter:  23 16:25:32  -783.399068  -3.10  -2.00    +80.7269
iter:  24 16:26:47  -783.905869  -3.02  -2.06    +79.1221
iter:  25 16:28:03  -784.047324  -3.30  -2.07    +79.0117
iter:  26 16:29:20  -784.439442  -3.07  -2.10    +77.4213
iter:  27 16:30:36  -784.548684  -3.15  -2.11    +76.9518
iter:  28 16:31:52  -785.006575  -2.92  -2.13    +76.0047
iter:  29 16:33:09  -784.995065  -2.98  -2.15    +75.2979
iter:  30 16:34:23  -785.142721  -2.85  -2.21    +74.6542
iter:  31 16:35:38  -785.272194  -3.18  -2.29    +74.0670
iter:  32 16:36:55  -785.417451  -3.38  -2.33    +74.0048
iter:  33 16:38:10  -785.581098  -3.59  -2.39    +73.3547
iter:  34 16:39:25  -785.707790  -3.67  -2.43    +72.7883
iter:  35 16:40:40  -785.799316  -3.55  -2.47    +72.1580
iter:  36 16:41:57  -785.770388c -3.71  -2.51    +72.1587
iter:  37 16:43:14  -785.840506c -3.58  -2.64    +71.9285
iter:  38 16:44:31  -785.755430c -3.87  -2.59    +71.9971
iter:  39 16:45:46  -785.771738c -4.10  -2.80    +71.9585
iter:  40 16:47:01  -785.759265c -4.57  -2.82    +72.0026
iter:  41 16:48:18  -785.768441c -4.59  -2.92    +72.0218
iter:  42 16:49:35  -785.763035c -4.76  -2.91    +72.0530
iter:  43 16:50:51  -785.768450c -4.67  -3.00    +72.1077
iter:  44 16:52:08  -785.765349c -4.70  -3.03    +72.1316
iter:  45 16:53:24  -785.766816c -4.90  -3.04    +72.1465
iter:  46 16:54:42  -785.766074c -4.58  -3.12    +72.1576
iter:  47 16:55:57  -785.765927c -4.93  -3.14    +72.1392
iter:  48 16:57:14  -785.762427c -4.92  -3.21    +72.1480
iter:  49 16:58:32  -785.763487c -5.33  -3.30    +72.1304
iter:  50 16:59:48  -785.765374c -5.31  -3.34    +72.0996
iter:  51 17:01:04  -785.763123c -5.43  -3.37    +72.0960
iter:  52 17:02:20  -785.765482c -5.44  -3.38    +72.0788
iter:  53 17:03:36  -785.763549c -5.53  -3.42    +72.0703
iter:  54 17:04:53  -785.764611c -5.61  -3.56    +72.0557
iter:  55 17:06:10  -785.764209c -5.86  -3.57    +72.0569
iter:  56 17:07:28  -785.763694c -6.12  -3.66    +72.0529
iter:  57 17:08:45  -785.764382c -6.20  -3.68    +72.0493
iter:  58 17:10:01  -785.764207c -6.05  -3.75    +72.0532
iter:  59 17:11:16  -785.763436c -6.20  -3.75    +72.0516
iter:  60 17:12:34  -785.764164c -6.26  -3.85    +72.0456
iter:  61 17:13:51  -785.763660c -6.51  -3.93    +72.0514
iter:  62 17:15:08  -785.763384c -6.45  -3.96    +72.0514
iter:  63 17:16:26  -785.763545c -6.67  -3.99    +72.0519
iter:  64 17:17:42  -785.763556c -6.66  -4.07c   +72.0548
iter:  65 17:18:59  -785.763428c -6.78  -4.15c   +72.0556
iter:  66 17:20:16  -785.763170c -6.94  -4.15c   +72.0576
iter:  67 17:21:33  -785.763396c -6.99  -4.24c   +72.0585
iter:  68 17:22:49  -785.763485c -7.18  -4.24c   +72.0576
iter:  69 17:24:06  -785.763206c -7.08  -4.29c   +72.0590
iter:  70 17:25:22  -785.763242c -7.36  -4.30c   +72.0579
iter:  71 17:26:39  -785.763229c -7.47c -4.38c   +72.0551

Converged after 71 iterations.

Dipole moment: (-0.459398, -0.111219, 0.171697) |e|*Ang

Total magnetic moment: (0.000000, 0.000000, 72.055094)
Local magnetic moments:
   0 Fe ( 0.000000,  0.000000,  2.912992)
   1 Cr ( 0.000000,  0.000000, -3.178975)
   2 Ni ( 0.000000,  0.000000, -0.028380)
   3 Cr ( 0.000000,  0.000000, -3.200084)
   4 Al ( 0.000000,  0.000000, -0.004502)
   5 Fe ( 0.000000,  0.000000,  2.815926)
   6 Ni ( 0.000000,  0.000000,  0.325973)
   7 Al ( 0.000000,  0.000000, -0.010837)
   8 Al ( 0.000000,  0.000000, -0.021300)
   9 Co ( 0.000000,  0.000000,  1.772564)
  10 Ni ( 0.000000,  0.000000,  0.301297)
  11 Co ( 0.000000,  0.000000,  1.705875)
  12 Ni ( 0.000000,  0.000000,  0.412756)
  13 Cr ( 0.000000,  0.000000,  2.824905)
  14 Fe ( 0.000000,  0.000000,  2.610221)
  15 Cr ( 0.000000,  0.000000, -3.094017)
  16 Co ( 0.000000,  0.000000,  1.628845)
  17 Cr ( 0.000000,  0.000000, -2.973592)
  18 Co ( 0.000000,  0.000000,  1.648277)
  19 Fe ( 0.000000,  0.000000,  2.858936)
  20 Cr ( 0.000000,  0.000000, -3.142088)
  21 Fe ( 0.000000,  0.000000,  2.919796)
  22 Co ( 0.000000,  0.000000,  1.740588)
  23 Al ( 0.000000,  0.000000, -0.039546)
  24 Ni ( 0.000000,  0.000000,  0.387050)
  25 Cr ( 0.000000,  0.000000, -3.136151)
  26 Cr ( 0.000000,  0.000000,  2.763706)
  27 Al ( 0.000000,  0.000000, -0.008403)
  28 Cr ( 0.000000,  0.000000, -3.018118)
  29 Cr ( 0.000000,  0.000000, -3.124716)
  30 Fe ( 0.000000,  0.000000,  2.695782)
  31 Fe ( 0.000000,  0.000000,  2.631579)
  32 Ni ( 0.000000,  0.000000,  0.553836)
  33 Cr ( 0.000000,  0.000000,  3.017835)
  34 Co ( 0.000000,  0.000000,  1.574459)
  35 Ni ( 0.000000,  0.000000,  0.559598)
  36 Ni ( 0.000000,  0.000000,  0.339060)
  37 Co ( 0.000000,  0.000000,  1.939711)
  38 Co ( 0.000000,  0.000000,  1.743002)
  39 Cr ( 0.000000,  0.000000, -3.145656)
  40 Fe ( 0.000000,  0.000000,  2.931983)
  41 Al ( 0.000000,  0.000000, -0.035073)
  42 Fe ( 0.000000,  0.000000,  2.928728)
  43 Ni ( 0.000000,  0.000000,  0.544758)
  44 Cr ( 0.000000,  0.000000, -3.153050)
  45 Co ( 0.000000,  0.000000,  1.885761)
  46 Co ( 0.000000,  0.000000,  1.829391)
  47 Ni ( 0.000000,  0.000000,  0.631350)
  48 Ni ( 0.000000,  0.000000,  0.420973)
  49 Cr ( 0.000000,  0.000000,  2.973415)
  50 Co ( 0.000000,  0.000000,  1.551812)
  51 Al ( 0.000000,  0.000000, -0.043658)
  52 Al ( 0.000000,  0.000000, -0.026281)
  53 Fe ( 0.000000,  0.000000,  2.664767)
  54 Fe ( 0.000000,  0.000000,  2.916868)
  55 Fe ( 0.000000,  0.000000,  2.720495)
  56 Ni ( 0.000000,  0.000000,  0.730511)
  57 Ni ( 0.000000,  0.000000,  0.197407)
  58 Co ( 0.000000,  0.000000,  1.830201)
  59 Co ( 0.000000,  0.000000,  1.791507)
[...]
  93 Cr ( 0.000000,  0.000000,  2.977767)
  94 Fe ( 0.000000,  0.000000,  2.798108)
  95 Cr ( 0.000000,  0.000000, -3.040832)
  96 Ni ( 0.000000,  0.000000,  0.492420)
  97 Fe ( 0.000000,  0.000000,  3.036414)
  98 Co ( 0.000000,  0.000000,  1.450376)
  99 Ni ( 0.000000,  0.000000,  0.550595)
 100 Cr ( 0.000000,  0.000000,  2.917428)
 101 Al ( 0.000000,  0.000000, -0.010279)
 102 Cr ( 0.000000,  0.000000, -3.062872)
 103 Co ( 0.000000,  0.000000,  1.467658)
 104 Al ( 0.000000,  0.000000, -0.016322)
 105 Ni ( 0.000000,  0.000000,  0.472129)
 106 Co ( 0.000000,  0.000000,  1.692156)
 107 Fe ( 0.000000,  0.000000,  2.968684)

Energy contributions relative to reference atoms: (reference = -3382523.201499)

Kinetic:       -287.701123
Potential:     +175.336787
External:        +0.000000
XC:            -700.654166
Entropy (-ST):   -4.633742
Local:          +29.572144
Free energy:   -788.080100
Extrapolated:  -785.763229

Spin contamination: 64.505806 electrons
Showing only first 2 kpts
                      Up                     Down
 Kpt  Band  Eigenvalues  Occupancy  Eigenvalues  Occupancy
  0   470      5.70827    0.99975      6.84928    0.04210
  0   471      5.72637    0.99970      6.85485    0.03991
  0   472      5.74115    0.99965      6.86615    0.03580
  0   473      5.75483    0.99960      6.88111    0.03098

  1   470      5.72058    0.99971      6.84837    0.04247
  1   471      5.73066    0.99968      6.85710    0.03906
  1   472      5.74395    0.99964      6.86737    0.03538
  1   473      5.76047    0.99958      6.88132    0.03092

Fermi level: 6.53681

No gap

Forces in eV/Ang:
  0 Fe   -0.32850    0.32021   -0.25657
  1 Cr   -0.83618    0.01366   -0.02175
  2 Ni    0.03459    0.05879   -0.04150
  3 Cr    0.08753    0.34276   -0.35474
  4 Al   -0.14784    0.18426    0.41333
  5 Fe    0.01792    0.35199    0.01511
  6 Ni   -0.04946    0.21407   -0.12876
  7 Al   -0.38787    0.68863    0.56480
  8 Al    0.80567   -0.51152    0.38369
  9 Co    0.18881    0.34593    0.18397
 10 Ni   -0.04075    0.06865   -0.10513
 11 Co    0.20306    0.13876    0.09616
 12 Ni   -0.01910   -0.14278   -0.10785
 13 Cr   -0.34760   -0.27927   -0.03812
 14 Fe    0.09384   -0.36462   -0.30288
 15 Cr   -0.78623   -0.40989   -0.43732
 16 Co   -0.00806    0.14423   -0.05338
 17 Cr    0.38589   -0.22318    0.05854
 18 Co    0.16727   -0.09143    0.15391
 19 Fe   -0.34168   -0.10019    0.44554
 20 Cr    0.08293    0.23492    0.23752
 21 Fe    0.04051   -0.01990    0.13929
 22 Co   -0.20803   -0.19798    0.21267
 23 Al    0.25712    0.42792    0.02700
 24 Ni   -0.12841    0.09921   -0.08168
 25 Cr    0.02727   -0.02314   -0.15662
 26 Cr    0.44721    0.14364   -0.41276
 27 Al   -0.75342   -0.08188   -0.10449
 28 Cr    0.10965   -0.09997   -0.12649
 29 Cr    0.29927    0.45970    0.69607
 30 Fe   -0.07879   -0.21077   -0.18894
 31 Fe    0.00970   -0.41142   -0.01768
 32 Ni   -0.00844    0.09274    0.05339
 33 Cr    0.42839    0.11420    0.12730
 34 Co    0.10247   -0.10831   -0.02778
 35 Ni    0.10411   -0.09314   -0.07247
 36 Ni   -0.01543    0.02580    0.20472
 37 Co   -0.07270    0.08420    0.14655
 38 Co   -0.18797   -0.01181    0.15836
 39 Cr   -0.21517   -0.21827    0.16629
 40 Fe    0.05332   -0.18113   -0.15571
 41 Al   -0.02471   -0.10135    0.51986
 42 Fe    0.21418    0.05658    0.09741
 43 Ni   -0.01619    0.07298   -0.00993
 44 Cr   -0.37867    0.45268    0.05492
 45 Co   -0.02062    0.05973    0.06430
 46 Co    0.09974    0.00710    0.08743
 47 Ni   -0.01565    0.06655    0.07157
 48 Ni   -0.00611   -0.03477    0.05938
 49 Cr   -0.15492   -0.41641    0.27212
 50 Co    0.04275   -0.24984    0.09169
 51 Al   -0.78287   -0.59034    0.01251
 52 Al    0.49961   -0.07302   -0.05184
 53 Fe    0.22766   -0.47062    0.02700
 54 Fe    0.29618    0.04842   -0.02695
 55 Fe    0.17050   -0.37010   -0.19854
 56 Ni    0.04957   -0.11152   -0.06212
 57 Ni    0.05364    0.08647   -0.11709
 58 Co    0.00656   -0.27949   -0.27002
 59 Co   -0.20831   -0.26007   -0.08009
[...]
 93 Cr   -0.08279    0.19004   -0.00861
 94 Fe    0.78853   -0.61830    0.04745
 95 Cr    0.44911   -0.35474    0.37437
 96 Ni   -0.02933    0.18235    0.21800
 97 Fe   -0.10762   -0.24709   -0.20636
 98 Co   -0.25827   -0.10260    0.04894
 99 Ni   -0.12466    0.10370    0.02939
100 Cr   -0.08257    0.25200    0.18987
101 Al   -0.30046   -0.13778   -0.81712
102 Cr    0.48896   -0.11826   -0.16795
103 Co    0.44028    0.43043   -0.03434
104 Al    0.00554    0.20041    0.35905
105 Ni    0.07839   -0.01030   -0.00310
106 Co    0.23367    0.37766    0.06624
107 Fe    0.04217    0.18828    0.06057

Date: Sat Apr  8 17:27:03 2023