User:   c.zeng@d0143
Date:   Sat Apr  8 02:28:37 2023
Arch:   x86_64
Pid:    30344
CWD:    /home/c.zeng/projects/hea-corrosion/hea-mlp/data-curation/volume/dft-jobs/12
Python: 3.8.1
gpaw:   /home/c.zeng/usr/installs/gpaw/source/gpaw-22.8.0/gpaw
_gpaw:  /home/c.zeng/usr/installs/gpaw/source/gpaw-22.8.0/
        _gpaw.cpython-38-x86_64-linux-gnu.so
ase:    /home/c.zeng/.local/lib/python3.8/site-packages/ase-3.22.1-py3.8.egg/ase (version 3.22.1)
numpy:  /shared/centos7/python/3.8.1/lib/python3.8/site-packages/numpy (version 1.17.4)
scipy:  /shared/centos7/python/3.8.1/lib/python3.8/site-packages/scipy (version 1.4.1)
units:  Angstrom and eV
cores: 64
OpenMP: False
OMP_NUM_THREADS: 1

Input parameters:
  convergence: {energy: 0.0001}
  kpts: [2 2 2]
  maxiter: 666
  mode: {ecut: 350.0,
         name: pw}
  occupations: {fixmagmom: False,
                name: fermi-dirac,
                width: 0.1}
  spinpol: True
  xc: PBE

System changes: positions, numbers, cell, pbc, initial_charges, initial_magmoms

Initialize ...

species:
  Co:
    name: Cobalt
    id: 339d20d5b0b93d2de9531a1bee871d91
    Z: 27.0
    valence: 9
    core: 18
    charge: 0.0
    file: /home/c.zeng/usr/data/gpaw-setups-0.9.20000/Co.PBE.gz
    compensation charges: {type: gauss,
                           rc: 0.32,
                           lmax: 2}
    cutoffs: {filter: 1.87,
              core: 2.55}
    valence states:
      #              energy  rcut
      - 4s(2.00)    -5.469   1.005
      - 4p(0.00)    -1.277   1.058
      - 3d(7.00)    -8.205   1.005
      -  s          21.742   1.005
      -  p          25.934   1.058
      -  d          19.007   1.005

    # Using partial waves for Co as LCAO basis

  Fe:
    name: Iron
    id: 37abbd8d6c3c35915a9b583b742da910
    Z: 26.0
    valence: 8
    core: 18
    charge: 0.0
    file: /home/c.zeng/usr/data/gpaw-setups-0.9.20000/Fe.PBE.gz
    compensation charges: {type: gauss,
                           rc: 0.33,
                           lmax: 2}
    cutoffs: {filter: 2.06,
              core: 2.67}
    valence states:
      #              energy  rcut
      - 4s(2.00)    -5.291   1.164
      - 4p(0.00)    -1.326   1.058
      - 3d(6.00)    -7.505   1.058
      -  s          21.920   1.164
      -  p          25.885   1.058
      -  d          19.706   1.058

[...]

  Cr:
    name: Chromium
    id: 33f258bda2ca9f93018e70263a35547b
    Z: 24.0
    valence: 6
    core: 18
    charge: 0.0
    file: /home/c.zeng/usr/data/gpaw-setups-0.9.20000/Cr.PBE.gz
    compensation charges: {type: gauss,
                           rc: 0.35,
                           lmax: 2}
    cutoffs: {filter: 2.14,
              core: 3.04}
    valence states:
      #              energy  rcut
      - 4s(1.00)    -4.007   1.164
      - 4p(0.00)    -0.989   1.217
      - 3d(5.00)    -2.913   1.111
      -  s          23.205   1.164
      -  p          26.223   1.217
      -  d          24.299   1.111

[...]

  Ni:
    name: Nickel
    id: 0d9f38a9d6e76a2886f07bb4381f212b
    Z: 28.0
    valence: 16
    core: 12
    charge: 0.0
    file: /home/c.zeng/usr/data/gpaw-setups-0.9.20000/Ni.PBE.gz
    compensation charges: {type: gauss,
                           rc: 0.36,
                           lmax: 2}
    cutoffs: {filter: 2.14,
              core: 1.98}
    valence states:
      #              energy  rcut
      - 4s(2.00)    -5.642   1.164
      - 3p(6.00)   -71.394   1.207
      - 4p(0.00)    -1.226   1.207
      - 3d(8.00)    -8.875   1.138
      -  s          21.570   1.164
      -  d          18.337   1.138

    # Using partial waves for Ni as LCAO basis

Reference energy: -3846758.590871  # eV

Spin-polarized calculation.
Magnetic moment: 151.200000

Convergence criteria:
 Maximum [total energy] change in last 3 cyles: 0.0001 eV / electron
 Maximum integral of absolute [dens]ity change: 0.0001 electrons / valence electron
 Maximum integral of absolute [eigenst]ate change: 4e-08 eV^2 / valence electron
 Maximum number of scf [iter]ations: 666
 (Square brackets indicate name in SCF output, whereas a 'c' in
 the SCF output indicates the quantity has converged.)

Symmetries present (total): 1

  ( 1  0  0)
  ( 0  1  0)
  ( 0  0  1)

8 k-points: 2 x 2 x 2 Monkhorst-Pack grid
4 k-points in the irreducible part of the Brillouin zone
       k-points in crystal coordinates                weights
   0:     0.25000000   -0.25000000   -0.25000000          2/8
   1:     0.25000000   -0.25000000    0.25000000          2/8
   2:     0.25000000    0.25000000   -0.25000000          2/8
   3:     0.25000000    0.25000000    0.25000000          2/8

Wave functions: Plane wave expansion
  Cutoff energy: 350.000 eV
  Number of coefficients (min, max): 18127, 18127
  Pulay-stress correction: 0.000000 eV/Ang^3 (de/decut=0.000000)
  Using FFTW library
  ScaLapack parameters: grid=1x1, blocksize=None
  Wavefunction extrapolation:
    Improved wavefunction reuse through dual PAW basis

Occupation numbers: Fermi-Dirac:
  width: 0.1000  # eV

Eigensolver
   Davidson(niter=2)

Densities:
  Coarse grid: 48*48*48 grid
  Fine grid: 96*96*96 grid
  Total Charge: 0.000000

Density mixing:
  Method: difference
  Backend: pulay
  Linear mixing parameter: 0.05
  old densities: 5
  Damping of long wavelength oscillations: 50

Hamiltonian:
  XC and Coulomb potentials evaluated on a 96*96*96 grid
  Using the PBE Exchange-Correlation functional
  External potential:
    NoExternalPotential

XC parameters: PBE with 2 nearest neighbor stencil

Total number of cores used: 64
Parallelization over k-points: 4
Domain decomposition: 4 x 2 x 2

Number of atoms: 108
Number of atomic orbitals: 1053
Number of bands in calculation: 727
Number of valence electrons: 1053
Bands to converge: occupied

... initialized

Initializing position-dependent things.

Density initialized from atomic densities
Creating initial wave functions:
  727 bands from LCAO basis set

       /|  Cr       Co       Cr   |
      Fe|     Fe     Fe           |
     / Co       Cr      Co        |
    /   |Fe      CrFe      Cr     Co
   /    | FeNi      CCo      Cr   |
  /  CFe|  CrFeCr     NiCo        |
 *    NiCrCr  CoNiFe   NiNi       |
 |Co    |NiCo  Ni CFe   CoCr     Fe
 |   Fe FeFeCr     CoNiCo  CrCr   |
 |   NCr|  NiFeCr   NiFeNi   Ni   |
 |    NiFeCr  FeFeNi CoFeCo       |
 |      |CoCo   CNi Fe  NiNiNi   Co
 | Cr   .-CrCo-----CoNi----Ni-----.
 |   Cr/     CCre     NNi        /
 |    /Fer      Ni     CCoo     /
 |   /    Fe      Fe      Cr   /
 |Co/      Cr       Ni        /
 | / Fe                Ni    /r
 Co------------------------*

Positions:
   0 Co     0.000018    0.000014   10.692000    ( 0.0000,  0.0000,  2.1000)
   1 Co     0.000018    1.781950    1.781993    ( 0.0000,  0.0000,  2.1000)
   2 Fe     1.781961    0.000045    1.782014    ( 0.0000,  0.0000,  2.0000)
   3 Fe     1.781971    1.781971   10.691989    ( 0.0000,  0.0000,  2.0000)
   4 Cr     3.563986    0.000029   10.691979    ( 0.0000,  0.0000,  0.0000)
   5 Cr     3.563964    1.781971    1.782057    ( 0.0000,  0.0000,  0.0000)
   6 Co     5.346032   10.691989    1.782025    ( 0.0000,  0.0000,  2.1000)
   7 Cr     5.346053    1.781961   10.691957    ( 0.0000,  0.0000,  0.0000)
   8 Fe     7.128004    0.000024   10.691979    ( 0.0000,  0.0000,  2.0000)
   9 Ni     7.128014    1.781982    1.782014    ( 0.0000,  0.0000,  1.5000)
  10 Ni     8.910018    0.000033    1.782014    ( 0.0000,  0.0000,  1.5000)
  11 Co     8.909986    1.781993   10.691979    ( 0.0000,  0.0000,  2.1000)
  12 Cr    10.691989    3.564007    0.000004    ( 0.0000,  0.0000,  0.0000)
  13 Fe    10.692000    5.346043    1.781961    ( 0.0000,  0.0000,  2.0000)
  14 Cr     1.781982    3.563996    1.782025    ( 0.0000,  0.0000,  0.0000)
  15 Fe     1.782004    5.346032   10.691979    ( 0.0000,  0.0000,  2.0000)
  16 Ni     3.563986    3.564050   10.691979    ( 0.0000,  0.0000,  1.5000)
  17 Co     3.563986    5.346032    1.781993    ( 0.0000,  0.0000,  2.1000)
  18 Ni     5.346032    3.564007    1.782046    ( 0.0000,  0.0000,  1.5000)
  19 Cr     5.345947    5.346043   10.691957    ( 0.0000,  0.0000,  0.0000)
  20 Co     7.128014    3.563964   10.691989    ( 0.0000,  0.0000,  2.1000)
  21 Ni     7.128014    5.346011    1.782036    ( 0.0000,  0.0000,  1.5000)
  22 Co     8.909986    3.564007    1.782004    ( 0.0000,  0.0000,  2.1000)
  23 Cr     8.910050    5.345979    0.000025    ( 0.0000,  0.0000,  0.0000)
  24 Fe     0.000037    7.127971   10.691989    ( 0.0000,  0.0000,  2.0000)
  25 Co    10.691989    8.910018    1.782014    ( 0.0000,  0.0000,  2.1000)
  26 Cr     1.781993    7.127950    1.781982    ( 0.0000,  0.0000,  0.0000)
  27 Cr     1.781950    8.909996   10.691968    ( 0.0000,  0.0000,  0.0000)
  28 Fe     3.563996    7.127929   10.691968    ( 0.0000,  0.0000,  2.0000)
  29 Cr     3.564029    8.909986    1.782036    ( 0.0000,  0.0000,  0.0000)
  30 Co     5.346000    7.128004    1.782014    ( 0.0000,  0.0000,  2.1000)
  31 Co     5.346043    8.909996   10.691957    ( 0.0000,  0.0000,  2.1000)
  32 Cr     7.127950    7.128014   10.692000    ( 0.0000,  0.0000,  0.0000)
  33 Ni     7.127982    8.910018    1.782025    ( 0.0000,  0.0000,  1.5000)
  34 Ni     8.910018    7.127961    1.782025    ( 0.0000,  0.0000,  1.5000)
  35 Cr     8.910007    8.910039   10.691989    ( 0.0000,  0.0000,  0.0000)
  36 Fe     0.000016   10.691989    3.563986    ( 0.0000,  0.0000,  2.0000)
  37 Ni    10.691989    1.781971    5.345968    ( 0.0000,  0.0000,  1.5000)
  38 Cr     1.781961    0.000011    5.345925    ( 0.0000,  0.0000,  0.0000)
  39 Fe     1.782014    1.781961    3.563986    ( 0.0000,  0.0000,  2.0000)
  40 Fe     3.563996    0.000025    3.563986    ( 0.0000,  0.0000,  2.0000)
  41 Co     3.564007    1.782046    5.345936    ( 0.0000,  0.0000,  2.1000)
  42 Cr     5.346043    0.000027    5.345936    ( 0.0000,  0.0000,  0.0000)
  43 Fe     5.346011    1.781982    3.564029    ( 0.0000,  0.0000,  2.0000)
  44 Fe     7.127993    0.000011    3.563986    ( 0.0000,  0.0000,  2.0000)
  45 Fe     7.127993    1.782036    5.345979    ( 0.0000,  0.0000,  2.0000)
  46 Ni     8.909996    0.000022    5.345957    ( 0.0000,  0.0000,  1.5000)
  47 Co     8.909975    1.781971    3.564007    ( 0.0000,  0.0000,  2.1000)
  48 Cr     0.000011    3.563975    3.564018    ( 0.0000,  0.0000,  0.0000)
  49 Ni     0.000042    5.346021    5.345989    ( 0.0000,  0.0000,  1.5000)
  50 Fe     1.782025    3.564029    5.345968    ( 0.0000,  0.0000,  2.0000)
  51 Co     1.782025    5.346000    3.564029    ( 0.0000,  0.0000,  2.1000)
  52 Co     3.564007    3.563996    3.564061    ( 0.0000,  0.0000,  2.1000)
  53 Fe     3.563996    5.346000    5.345989    ( 0.0000,  0.0000,  2.0000)
  54 Fe     5.346021    3.564018    5.345979    ( 0.0000,  0.0000,  2.0000)
  55 Ni     5.345989    5.346011    3.564050    ( 0.0000,  0.0000,  1.5000)
  56 Ni     7.127982    3.563975    3.564039    ( 0.0000,  0.0000,  1.5000)
  57 Fe     7.127971    5.345989    5.345989    ( 0.0000,  0.0000,  2.0000)
  58 Co     8.909954    3.563996    5.345989    ( 0.0000,  0.0000,  2.1000)
  59 Ni     8.909986    5.346000    3.563996    ( 0.0000,  0.0000,  1.5000)
[...]
  93 Ni     7.127961    5.345989    8.909975    ( 0.0000,  0.0000,  1.5000)
  94 Ni     8.909964    3.563954    8.910007    ( 0.0000,  0.0000,  1.5000)
  95 Cr     8.909975    5.345968    7.127982    ( 0.0000,  0.0000,  0.0000)
  96 Ni     0.000062    7.128025    7.128014    ( 0.0000,  0.0000,  1.5000)
  97 Co     0.000008    8.910007    8.909996    ( 0.0000,  0.0000,  2.1000)
  98 Fe     1.782014    7.127961    8.910018    ( 0.0000,  0.0000,  2.0000)
  99 Cr     1.781961    8.909964    7.127993    ( 0.0000,  0.0000,  0.0000)
 100 Co     3.564007    7.127961    7.128004    ( 0.0000,  0.0000,  2.1000)
 101 Cr     3.564039    8.909954    8.909996    ( 0.0000,  0.0000,  0.0000)
 102 Fe     5.345957    7.128014    8.909996    ( 0.0000,  0.0000,  2.0000)
 103 Co     5.346032    8.909964    7.128036    ( 0.0000,  0.0000,  2.1000)
 104 Ni     7.127918    7.127993    7.127971    ( 0.0000,  0.0000,  1.5000)
 105 Co     7.127961    8.910050    8.909996    ( 0.0000,  0.0000,  2.1000)
 106 Cr     8.910039    7.128004    8.910018    ( 0.0000,  0.0000,  0.0000)
 107 Cr     8.910007    8.910029    7.127993    ( 0.0000,  0.0000,  0.0000)

Unit cell:
           periodic     x           y           z      points  spacing
  1. axis:    yes   10.692000    0.000000    0.000000    48     0.2228
  2. axis:    yes    0.000000   10.692000    0.000000    48     0.2228
  3. axis:    yes    0.000000    0.000000   10.692000    48     0.2228

  Lengths:  10.692000  10.692000  10.692000
  Angles:   90.000000  90.000000  90.000000

Effective grid spacing dv^(1/3) = 0.2227

     iter     time        total  log10-change:  magmom
                         energy  eigst   dens
iter:   1 02:31:21 -1092.227504                  +151.4726
iter:   2 02:32:30  -954.810619  -0.27  -1.20    +85.0302
iter:   3 02:33:39  -948.923921  -0.90  -1.24    +71.7073
iter:   4 02:34:49  -934.378291  -1.18  -1.29    +67.4183
iter:   5 02:36:00  -911.169698  -1.59  -1.29    +61.9019
iter:   6 02:37:08  -908.302846  -1.33  -1.38    +62.3340
iter:   7 02:38:17  -907.289678  -1.22  -1.47    +61.3358
iter:   8 02:39:22  -889.126725  -1.62  -1.55    +60.0608
iter:   9 02:40:30  -888.052283  -2.24  -1.82    +61.2678
iter:  10 02:41:37  -888.500437  -2.38  -1.85    +63.3618
iter:  11 02:42:42  -888.415620  -2.65  -1.89    +64.7916
iter:  12 02:43:46  -888.686721  -2.73  -1.91    +66.2266
iter:  13 02:44:50  -890.336614  -2.53  -1.96    +67.6772
iter:  14 02:45:56  -890.463895  -2.42  -1.99    +68.4347
iter:  15 02:47:03  -890.362031  -2.56  -2.03    +68.9399
iter:  16 02:48:03  -889.983029  -2.65  -2.10    +68.8596
iter:  17 02:49:06  -889.813534  -2.87  -2.16    +69.8106
iter:  18 02:50:11  -889.591031  -3.03  -2.21    +70.3803
iter:  19 02:51:16  -889.736098  -3.24  -2.27    +70.4124
iter:  20 02:52:23  -889.650396  -3.24  -2.29    +70.5854
iter:  21 02:53:29  -889.730616c -3.23  -2.37    +70.8388
iter:  22 02:54:35  -889.612914  -3.40  -2.34    +71.2628
iter:  23 02:55:40  -889.864235  -3.30  -2.44    +71.0570
iter:  24 02:56:45  -889.660769  -3.37  -2.39    +71.0825
iter:  25 02:57:51  -889.784492  -3.39  -2.50    +71.3569
iter:  26 02:58:57  -889.646592  -3.59  -2.47    +71.4567
iter:  27 03:00:02  -889.750984  -3.61  -2.59    +71.4681
iter:  28 03:01:08  -889.627941  -3.92  -2.54    +71.3008
iter:  29 03:02:12  -889.680503  -3.94  -2.67    +71.4112
iter:  30 03:03:18  -889.656103c -4.22  -2.64    +71.3181
iter:  31 03:04:23  -889.717742c -4.13  -2.71    +71.2117
iter:  32 03:05:29  -889.706825c -4.15  -2.68    +71.0808
iter:  33 03:06:33  -889.801773c -3.81  -2.74    +70.9909
iter:  34 03:07:38  -889.743551c -3.98  -2.65    +71.0393
iter:  35 03:08:43  -889.823476c -3.83  -2.77    +70.8468
iter:  36 03:09:46  -889.754019c -4.05  -2.68    +70.7698
iter:  37 03:10:53  -889.759277c -4.09  -2.81    +70.6615
iter:  38 03:11:58  -889.733049c -4.42  -2.81    +70.6863
iter:  39 03:13:03  -889.739123c -4.74  -2.90    +70.6402
iter:  40 03:14:08  -889.739139c -4.92  -2.92    +70.5083
iter:  41 03:15:12  -889.749254c -4.90  -2.94    +70.4635
iter:  42 03:16:17  -889.756912c -4.91  -2.95    +70.4053
iter:  43 03:17:21  -889.787874c -4.45  -2.97    +70.3575
iter:  44 03:18:26  -889.811458c -4.17  -2.93    +70.2564
iter:  45 03:19:30  -889.795792c -4.22  -2.86    +70.1736
iter:  46 03:20:35  -889.805401c -4.22  -2.97    +70.2498
iter:  47 03:21:39  -889.798425c -4.32  -2.94    +70.1660
iter:  48 03:22:43  -889.773406c -4.70  -2.99    +70.0758
iter:  49 03:23:48  -889.769621c -5.20  -3.17    +69.9674
iter:  50 03:24:53  -889.771318c -5.63  -3.24    +69.9472
iter:  51 03:25:58  -889.773723c -5.80  -3.27    +69.8933
iter:  52 03:27:02  -889.783050c -4.97  -3.31    +69.7377
iter:  53 03:28:08  -889.786469c -5.06  -3.36    +69.7638
iter:  54 03:29:12  -889.786401c -5.00  -3.32    +69.7044
iter:  55 03:30:16  -889.783498c -5.39  -3.49    +69.6815
iter:  56 03:31:21  -889.783310c -5.79  -3.77    +69.6556
iter:  57 03:32:26  -889.784521c -6.14  -3.87    +69.6475
iter:  58 03:33:29  -889.785044c -6.29  -3.95    +69.6222
iter:  59 03:34:34  -889.786758c -6.02  -4.03c   +69.5749
iter:  60 03:35:38  -889.792155c -5.10  -4.01c   +69.4040
iter:  61 03:36:42  -889.796168c -5.11  -3.82    +69.2596
iter:  62 03:37:45  -889.796922c -5.70  -3.69    +69.2207
iter:  63 03:38:49  -889.797164c -6.05  -3.69    +69.1845
iter:  64 03:39:54  -889.797797c -6.43  -3.70    +69.1845
iter:  65 03:41:01  -889.798306c -6.08  -3.67    +69.1718
iter:  66 03:42:06  -889.797323c -5.61  -3.61    +69.1664
iter:  67 03:43:10  -889.796585c -6.01  -3.61    +69.1423
iter:  68 03:44:14  -889.797745c -5.85  -3.68    +69.1174
iter:  69 03:45:18  -889.798420c -5.96  -3.68    +69.1105
iter:  70 03:46:22  -889.798615c -5.36  -3.66    +69.0755
iter:  71 03:47:27  -889.796633c -5.67  -3.61    +69.0631
iter:  72 03:48:33  -889.798455c -5.63  -3.82    +69.0590
iter:  73 03:49:38  -889.796849c -6.05  -3.70    +69.0615
iter:  74 03:50:43  -889.796981c -6.02  -4.01c   +69.0569
iter:  75 03:51:48  -889.796153c -6.33  -3.85    +69.0477
iter:  76 03:52:52  -889.796386c -6.87  -4.09c   +69.0469
iter:  77 03:53:57  -889.796529c -6.61  -4.21c   +69.0402
iter:  78 03:55:02  -889.796368c -6.98  -4.06c   +69.0393
iter:  79 03:56:07  -889.796381c -6.94  -4.24c   +69.0345
iter:  80 03:57:12  -889.796320c -7.21  -4.22c   +69.0329
iter:  81 03:58:16  -889.796604c -7.03  -4.36c   +69.0245
iter:  82 03:59:22  -889.796299c -7.15  -4.33c   +69.0229
iter:  83 04:00:19  -889.796485c -7.10  -4.32c   +69.0204
iter:  84 04:01:23  -889.796499c -7.25  -4.38c   +69.0156
iter:  85 04:02:29  -889.796516c -7.27  -4.39c   +69.0097
iter:  86 04:03:33  -889.796520c -7.55c -4.40c   +69.0062

Converged after 86 iterations.

Dipole moment: (-0.158640, 0.136020, -0.006590) |e|*Ang

Total magnetic moment: (0.000000, 0.000000, 69.006232)
Local magnetic moments:
   0 Co ( 0.000000,  0.000000,  1.366423)
   1 Co ( 0.000000,  0.000000,  1.032790)
   2 Fe ( 0.000000,  0.000000,  2.018018)
   3 Fe ( 0.000000,  0.000000,  1.753275)
   4 Cr ( 0.000000,  0.000000,  0.661282)
   5 Cr ( 0.000000,  0.000000, -1.288739)
   6 Co ( 0.000000,  0.000000,  0.838819)
   7 Cr ( 0.000000,  0.000000, -1.473877)
   8 Fe ( 0.000000,  0.000000,  2.399273)
   9 Ni ( 0.000000,  0.000000,  0.457477)
  10 Ni ( 0.000000,  0.000000,  0.547842)
  11 Co ( 0.000000,  0.000000,  1.617068)
  12 Cr ( 0.000000,  0.000000, -0.544091)
  13 Fe ( 0.000000,  0.000000,  1.861721)
  14 Cr ( 0.000000,  0.000000, -0.975553)
  15 Fe ( 0.000000,  0.000000,  1.719738)
  16 Ni ( 0.000000,  0.000000,  0.113723)
  17 Co ( 0.000000,  0.000000,  1.156722)
  18 Ni ( 0.000000,  0.000000,  0.307312)
  19 Cr ( 0.000000,  0.000000, -1.896602)
  20 Co ( 0.000000,  0.000000,  1.297224)
  21 Ni ( 0.000000,  0.000000,  0.288816)
  22 Co ( 0.000000,  0.000000,  1.310016)
  23 Cr ( 0.000000,  0.000000, -1.343265)
  24 Fe ( 0.000000,  0.000000,  1.847824)
  25 Co ( 0.000000,  0.000000,  1.221699)
  26 Cr ( 0.000000,  0.000000, -1.347312)
  27 Cr ( 0.000000,  0.000000, -0.963426)
  28 Fe ( 0.000000,  0.000000,  1.856066)
  29 Cr ( 0.000000,  0.000000, -1.358140)
  30 Co ( 0.000000,  0.000000,  1.275396)
  31 Co ( 0.000000,  0.000000,  0.765453)
  32 Cr ( 0.000000,  0.000000,  1.136576)
  33 Ni ( 0.000000,  0.000000,  0.425781)
  34 Ni ( 0.000000,  0.000000,  0.286231)
  35 Cr ( 0.000000,  0.000000, -1.790782)
  36 Fe ( 0.000000,  0.000000,  2.435252)
  37 Ni ( 0.000000,  0.000000,  0.288553)
  38 Cr ( 0.000000,  0.000000, -1.124007)
  39 Fe ( 0.000000,  0.000000,  1.838087)
  40 Fe ( 0.000000,  0.000000,  2.176118)
  41 Co ( 0.000000,  0.000000,  0.558899)
  42 Cr ( 0.000000,  0.000000, -1.527662)
  43 Fe ( 0.000000,  0.000000,  2.229070)
  44 Fe ( 0.000000,  0.000000,  2.553728)
  45 Fe ( 0.000000,  0.000000,  2.333402)
  46 Ni ( 0.000000,  0.000000,  0.492884)
  47 Co ( 0.000000,  0.000000,  1.560158)
  48 Cr ( 0.000000,  0.000000, -1.604745)
  49 Ni ( 0.000000,  0.000000,  0.194329)
  50 Fe ( 0.000000,  0.000000,  2.041449)
  51 Co ( 0.000000,  0.000000,  1.171354)
  52 Co ( 0.000000,  0.000000,  1.141247)
  53 Fe ( 0.000000,  0.000000,  2.361130)
  54 Fe ( 0.000000,  0.000000,  2.224945)
  55 Ni ( 0.000000,  0.000000,  0.545039)
  56 Ni ( 0.000000,  0.000000,  0.515533)
  57 Fe ( 0.000000,  0.000000,  2.345167)
  58 Co ( 0.000000,  0.000000,  1.249329)
  59 Ni ( 0.000000,  0.000000,  0.377256)
[...]
  93 Ni ( 0.000000,  0.000000,  0.211047)
  94 Ni ( 0.000000,  0.000000,  0.148450)
  95 Cr ( 0.000000,  0.000000, -1.424272)
  96 Ni ( 0.000000,  0.000000,  0.180548)
  97 Co ( 0.000000,  0.000000,  0.751720)
  98 Fe ( 0.000000,  0.000000,  1.907141)
  99 Cr ( 0.000000,  0.000000, -1.384646)
 100 Co ( 0.000000,  0.000000,  1.251102)
 101 Cr ( 0.000000,  0.000000, -1.138760)
 102 Fe ( 0.000000,  0.000000,  2.225594)
 103 Co ( 0.000000,  0.000000,  1.231438)
 104 Ni ( 0.000000,  0.000000,  0.222678)
 105 Co ( 0.000000,  0.000000,  1.030006)
 106 Cr ( 0.000000,  0.000000,  1.263886)
 107 Cr ( 0.000000,  0.000000, -1.553521)

Energy contributions relative to reference atoms: (reference = -3846758.590871)

Kinetic:        +41.044246
Potential:     -123.988657
External:        +0.000000
XC:            -844.280355
Entropy (-ST):   -4.701224
Local:          +39.778857
Free energy:   -892.147132
Extrapolated:  -889.796520

Spin contamination: 33.116870 electrons
Showing only first 2 kpts
                      Up                     Down
 Kpt  Band  Eigenvalues  Occupancy  Eigenvalues  Occupancy
  0   524      9.48429    0.99636     10.41604    0.02398
  0   525      9.49922    0.99577     10.42771    0.02140
  0   526      9.51779    0.99491     10.43933    0.01909
  0   527      9.52376    0.99460     10.45393    0.01654

  1   524      9.48030    0.99650     10.41265    0.02479
  1   525      9.48923    0.99617     10.42718    0.02151
  1   526      9.50297    0.99561     10.43425    0.02007
  1   527      9.51110    0.99524     10.45446    0.01646

Fermi level: 10.04542

No gap

Forces in eV/Ang:
  0 Co    0.01621   -0.12879   -0.08155
  1 Co   -0.20811    0.19818   -0.02573
  2 Fe   -0.25209   -0.04740   -0.09929
  3 Fe   -0.14306    0.16556    0.06763
  4 Cr    0.11148   -0.11664   -0.09105
  5 Cr    0.07276   -0.21045    0.35707
  6 Co   -0.02540   -0.11472   -0.05414
  7 Cr    0.06659   -0.00696   -0.20085
  8 Fe   -0.18488   -0.24510    0.22220
  9 Ni    0.12174    0.13192   -0.05713
 10 Ni    0.01798    0.14779   -0.05908
 11 Co    0.24390   -0.00327    0.16819
 12 Cr   -0.11414   -0.13270   -0.30196
 13 Fe    0.09521   -0.08127    0.11223
 14 Cr    0.16290    0.43431   -0.20840
 15 Fe    0.05569   -0.13669    0.21663
 16 Ni   -0.06975   -0.05883    0.02356
 17 Co   -0.03169   -0.07380    0.13894
 18 Ni    0.05969   -0.06199   -0.00712
 19 Cr   -0.00606    0.06721    0.21339
 20 Co    0.03561   -0.02808    0.03840
 21 Ni    0.17870   -0.04458    0.00399
 22 Co    0.07334   -0.24751   -0.22013
 23 Cr   -0.01042    0.06960   -0.06600
 24 Fe    0.17776    0.22338    0.12134
 25 Co    0.06634   -0.03171   -0.04608
 26 Cr   -0.15603   -0.52165   -0.04732
 27 Cr   -0.80195    0.35011   -0.09259
 28 Fe    0.11100    0.26713    0.40719
 29 Cr    0.64947    0.24074   -0.06769
 30 Co   -0.16060    0.06253   -0.09428
 31 Co   -0.17940   -0.14817    0.24139
 32 Cr   -0.04378    0.15803    0.47566
 33 Ni   -0.14923    0.04262    0.01150
 34 Ni   -0.01937    0.01797   -0.08803
 35 Cr    0.22204   -0.16690   -0.02022
 36 Fe   -0.22925    0.05533   -0.13042
 37 Ni   -0.07707   -0.01005   -0.01822
 38 Cr    0.13272    0.41134   -0.09590
 39 Fe    0.03388    0.36905    0.07384
 40 Fe    0.06496   -0.31870    0.04233
 41 Co    0.04525    0.18750   -0.06888
 42 Cr   -0.24902   -0.20072   -0.11264
 43 Fe   -0.09194    0.27037   -0.19214
 44 Fe    0.11511   -0.27805   -0.14906
 45 Fe    0.21654    0.30858    0.30501
 46 Ni    0.03427   -0.07278   -0.00070
 47 Co    0.05130    0.14746   -0.14921
 48 Cr   -0.19256   -0.14290    0.02407
 49 Ni   -0.04226    0.02004   -0.03607
 50 Fe   -0.08735   -0.08538   -0.07021
 51 Co    0.05900   -0.15973   -0.09107
 52 Co   -0.12507    0.00503   -0.23274
 53 Fe    0.19456   -0.01333    0.08913
 54 Fe   -0.24243   -0.02149    0.16965
 55 Ni   -0.13168    0.02868   -0.06541
 56 Ni    0.04813   -0.08586    0.08856
 57 Fe   -0.00268   -0.10652    0.12875
 58 Co   -0.07406    0.00182    0.00822
 59 Ni    0.06462   -0.00020    0.09392
[...]
 93 Ni   -0.03999   -0.25997   -0.10673
 94 Ni    0.08399    0.03625    0.11808
 95 Cr   -0.06957    0.05917    0.10753
 96 Ni   -0.17288    0.04824    0.10392
 97 Co    0.17243    0.15085   -0.10477
 98 Fe   -0.29020    0.18540   -0.17739
 99 Cr   -0.23831    0.10346    0.16312
100 Co    0.23593    0.27285    0.13063
101 Cr    0.81040   -0.25217    0.14280
102 Fe    0.05657    0.22699   -0.33709
103 Co    0.00610   -0.03155   -0.11843
104 Ni    0.06509    0.15822   -0.00443
105 Co   -0.14871    0.16655   -0.34459
106 Cr    0.03704   -0.04770   -0.50471
107 Cr   -0.03065    0.14150    0.30968

Date: Sat Apr  8 04:03:48 2023