User:   c.zeng@d0115
Date:   Thu Apr 13 20:00:04 2023
Arch:   x86_64
Pid:    184143
CWD:    /home/c.zeng/projects/hea-corrosion/hea-mlp/data-curation/bulk-md/dft-jobs/24
Python: 3.8.1
gpaw:   /home/c.zeng/usr/installs/gpaw/source/gpaw-22.8.0/gpaw
_gpaw:  /home/c.zeng/usr/installs/gpaw/source/gpaw-22.8.0/
        _gpaw.cpython-38-x86_64-linux-gnu.so
ase:    /home/c.zeng/.local/lib/python3.8/site-packages/ase-3.22.1-py3.8.egg/ase (version 3.22.1)
numpy:  /shared/centos7/python/3.8.1/lib/python3.8/site-packages/numpy (version 1.17.4)
scipy:  /shared/centos7/python/3.8.1/lib/python3.8/site-packages/scipy (version 1.4.1)
units:  Angstrom and eV
cores: 30
OpenMP: False
OMP_NUM_THREADS: 1

Input parameters:
  convergence: {energy: 0.0001}
  kpts: [2 2 2]
  maxiter: 666
  mode: {ecut: 350.0,
         name: pw}
  occupations: {fixmagmom: False,
                name: fermi-dirac,
                width: 0.1}
  spinpol: True
  xc: PBE

System changes: positions, numbers, cell, pbc, initial_charges, initial_magmoms

Initialize ...

species:
  Cr:
    name: Chromium
    id: 33f258bda2ca9f93018e70263a35547b
    Z: 24.0
    valence: 6
    core: 18
    charge: 0.0
    file: /home/c.zeng/usr/data/gpaw-setups-0.9.20000/Cr.PBE.gz
    compensation charges: {type: gauss,
                           rc: 0.35,
                           lmax: 2}
    cutoffs: {filter: 2.14,
              core: 3.04}
    valence states:
      #              energy  rcut
      - 4s(1.00)    -4.007   1.164
      - 4p(0.00)    -0.989   1.217
      - 3d(5.00)    -2.913   1.111
      -  s          23.205   1.164
      -  p          26.223   1.217
      -  d          24.299   1.111

    # Using partial waves for Cr as LCAO basis

  Al:
    name: Aluminium
    id: 0292cae29f5d6237e50f6abdd43a7bdd
    Z: 13.0
    valence: 3
    core: 10
    charge: 0.0
    file: /home/c.zeng/usr/data/gpaw-setups-0.9.20000/Al.PBE.gz
    compensation charges: {type: gauss,
                           rc: 0.34,
                           lmax: 2}
    cutoffs: {filter: 1.91,
              core: 2.36}
    valence states:
      #              energy  rcut
      - 3s(2.00)    -7.753   1.085
      - 3p(1.00)    -2.712   1.085
      -  s          19.459   1.085
      -  p          24.499   1.085
      -  d           0.000   1.085

[...]

  Co:
    name: Cobalt
    id: 339d20d5b0b93d2de9531a1bee871d91
    Z: 27.0
    valence: 9
    core: 18
    charge: 0.0
    file: /home/c.zeng/usr/data/gpaw-setups-0.9.20000/Co.PBE.gz
    compensation charges: {type: gauss,
                           rc: 0.32,
                           lmax: 2}
    cutoffs: {filter: 1.87,
              core: 2.55}
    valence states:
      #              energy  rcut
      - 4s(2.00)    -5.469   1.005
      - 4p(0.00)    -1.277   1.058
      - 3d(7.00)    -8.205   1.005
      -  s          21.742   1.005
      -  p          25.934   1.058
      -  d          19.007   1.005

[...]

  Fe:
    name: Iron
    id: 37abbd8d6c3c35915a9b583b742da910
    Z: 26.0
    valence: 8
    core: 18
    charge: 0.0
    file: /home/c.zeng/usr/data/gpaw-setups-0.9.20000/Fe.PBE.gz
    compensation charges: {type: gauss,
                           rc: 0.33,
                           lmax: 2}
    cutoffs: {filter: 2.06,
              core: 2.67}
    valence states:
      #              energy  rcut
      - 4s(2.00)    -5.291   1.164
      - 4p(0.00)    -1.326   1.058
      - 3d(6.00)    -7.505   1.058
      -  s          21.920   1.164
      -  p          25.885   1.058
      -  d          19.706   1.058

[...]

  Ni:
    name: Nickel
    id: 0d9f38a9d6e76a2886f07bb4381f212b
    Z: 28.0
    valence: 16
    core: 12
    charge: 0.0
    file: /home/c.zeng/usr/data/gpaw-setups-0.9.20000/Ni.PBE.gz
    compensation charges: {type: gauss,
                           rc: 0.36,
                           lmax: 2}
    cutoffs: {filter: 2.14,
              core: 1.98}
    valence states:
      #              energy  rcut
      - 4s(2.00)    -5.642   1.164
      - 3p(6.00)   -71.394   1.207
      - 4p(0.00)    -1.226   1.207
      - 3d(8.00)    -8.875   1.138
      -  s          21.570   1.164
      -  d          18.337   1.138

    # Using partial waves for Ni as LCAO basis

Reference energy: -3699400.456887  # eV

Spin-polarized calculation.
Magnetic moment: 143.500000

Convergence criteria:
 Maximum [total energy] change in last 3 cyles: 0.0001 eV / electron
 Maximum integral of absolute [dens]ity change: 0.0001 electrons / valence electron
 Maximum integral of absolute [eigenst]ate change: 4e-08 eV^2 / valence electron
 Maximum number of scf [iter]ations: 666
 (Square brackets indicate name in SCF output, whereas a 'c' in
 the SCF output indicates the quantity has converged.)

Symmetries present (total): 1

  ( 1  0  0)
  ( 0  1  0)
  ( 0  0  1)

8 k-points: 2 x 2 x 2 Monkhorst-Pack grid
4 k-points in the irreducible part of the Brillouin zone
       k-points in crystal coordinates                weights
   0:     0.25000000   -0.25000000   -0.25000000          2/8
   1:     0.25000000   -0.25000000    0.25000000          2/8
   2:     0.25000000    0.25000000   -0.25000000          2/8
   3:     0.25000000    0.25000000    0.25000000          2/8

Wave functions: Plane wave expansion
  Cutoff energy: 350.000 eV
  Number of coefficients (min, max): 18052, 18052
  Pulay-stress correction: 0.000000 eV/Ang^3 (de/decut=0.000000)
  Using FFTW library
  ScaLapack parameters: grid=1x1, blocksize=None
  Wavefunction extrapolation:
    Improved wavefunction reuse through dual PAW basis

Occupation numbers: Fermi-Dirac:
  width: 0.1000  # eV

Eigensolver
   Davidson(niter=2)

Densities:
  Coarse grid: 48*48*48 grid
  Fine grid: 96*96*96 grid
  Total Charge: 0.000000

Density mixing:
  Method: difference
  Backend: pulay
  Linear mixing parameter: 0.05
  old densities: 5
  Damping of long wavelength oscillations: 50

Hamiltonian:
  XC and Coulomb potentials evaluated on a 96*96*96 grid
  Using the PBE Exchange-Correlation functional
  External potential:
    NoExternalPotential

XC parameters: PBE with 2 nearest neighbor stencil

Total number of cores used: 30
Parallelization over k-points: 2
Domain decomposition: 5 x 3 x 1

Number of atoms: 108
Number of atomic orbitals: 1025
Number of bands in calculation: 703
Number of valence electrons: 1020
Bands to converge: occupied

... initialized

Initializing position-dependent things.

Density initialized from atomic densities
Creating initial wave functions:
  703 bands from LCAO basis set

        .----------------Cr-------.
       /|  Ni                     |
      / |   Fe              Cro   |
     /Cr|      Cr      Ale      Ni|
    /   |Fe       Cr      Cr      |
   /    | NiFeCo   Cr      Cr     |
  / Ni  |  Fer        Nio    Ni   |
 *      Co     NiNi  Ni ACo    Fe |
 |Fe   NiCoCr    NiCo     Cr      |
 |      FeFeCoAlCoNiNi     NiNi   |
 |     Cr  NiCo     FeFCr   FeFe  |
 |      NCr CrCoCo   NiNNi Cr NCr |
 |Co    |NNi   CoCrCo   CrFe    Ni|
 |      Cr--Cr----Co-CoFe--CrFe---.
 |     FeFe  Fe     CrNi      Co /
 |    / Fe    CAlCrFe   Nio     /
 |   /     Cr     Co           /
 |Al/              Co         /
 | /o                Fe      /
 |/    Co      Fe      Fe   /
 *-------Fe----------------*

Positions:
   0 Cr     0.057231   -0.062743   10.770809    ( 0.0000,  0.0000,  0.0000)
   1 Al    10.743660    1.730809    1.598748    ( 0.0000,  0.0000,  0.0000)
   2 Cr     1.713390   10.604999    1.591729    ( 0.0000,  0.0000,  0.0000)
   3 Co     1.841293    1.935283   10.674917    ( 0.0000,  0.0000,  2.1000)
   4 Fe     3.403737    0.044941    0.176054    ( 0.0000,  0.0000,  2.0000)
   5 Cr     3.430917    1.766998    1.960379    ( 0.0000,  0.0000,  0.0000)
   6 Ni     5.221975   10.662157    1.892591    ( 0.0000,  0.0000,  1.5000)
   7 Fe     5.302158    1.680661    0.174220    ( 0.0000,  0.0000,  2.0000)
   8 Cr     7.015565   -0.025684   -0.019940    ( 0.0000,  0.0000,  0.0000)
   9 Co     7.069229    1.680007    1.770846    ( 0.0000,  0.0000,  2.1000)
  10 Ni     9.001799   10.544930    1.673835    ( 0.0000,  0.0000,  1.5000)
  11 Fe     8.786395    1.628604   10.741305    ( 0.0000,  0.0000,  2.0000)
  12 Co     0.064233    3.562723   10.689873    ( 0.0000,  0.0000,  2.1000)
  13 Co    -0.183654    5.332253    1.950542    ( 0.0000,  0.0000,  2.1000)
  14 Fe     1.825109    3.617314    1.796393    ( 0.0000,  0.0000,  2.0000)
  15 Fe     1.941265    5.187313   -0.077588    ( 0.0000,  0.0000,  2.0000)
  16 Fe     3.597073    3.509909   -0.029645    ( 0.0000,  0.0000,  2.0000)
  17 Fe     3.462718    5.337869    1.913012    ( 0.0000,  0.0000,  2.0000)
  18 Cr     5.511442    3.759399    1.856956    ( 0.0000,  0.0000,  0.0000)
  19 Co     5.524775    5.476374    0.008547    ( 0.0000,  0.0000,  2.1000)
  20 Fe     7.174053    3.491413   10.728147    ( 0.0000,  0.0000,  2.0000)
  21 Ni     7.089024    5.383002    1.980324    ( 0.0000,  0.0000,  1.5000)
  22 Co     8.835592    3.695978    1.791479    ( 0.0000,  0.0000,  2.1000)
  23 Cr     8.941623    5.226092   -0.062504    ( 0.0000,  0.0000,  0.0000)
  24 Cr     0.088680    6.896867   -0.199074    ( 0.0000,  0.0000,  0.0000)
  25 Ni    -0.082708    8.668049    1.555094    ( 0.0000,  0.0000,  1.5000)
  26 Fe     1.549472    6.860061    1.442442    ( 0.0000,  0.0000,  2.0000)
  27 Ni     1.720048    8.797644   10.648185    ( 0.0000,  0.0000,  1.5000)
  28 Co     3.627777    6.983229    0.227293    ( 0.0000,  0.0000,  2.1000)
  29 Co     3.330193    8.945221    1.714764    ( 0.0000,  0.0000,  2.1000)
  30 Co     5.271610    7.051218    1.776762    ( 0.0000,  0.0000,  2.1000)
  31 Cr     5.297370    8.949511    0.014148    ( 0.0000,  0.0000,  0.0000)
  32 Al     7.255540    6.990953   10.497064    ( 0.0000,  0.0000,  0.0000)
  33 Cr     7.061515    8.653208    1.572533    ( 0.0000,  0.0000,  0.0000)
  34 Cr     8.875087    7.052712    1.739477    ( 0.0000,  0.0000,  0.0000)
  35 Cr     8.859934    8.664594   10.496148    ( 0.0000,  0.0000,  0.0000)
  36 Fe    10.678588   10.634698    3.469430    ( 0.0000,  0.0000,  2.0000)
  37 Co    10.778268    1.871789    5.376747    ( 0.0000,  0.0000,  2.1000)
  38 Cr     1.700889   10.649513    5.375356    ( 0.0000,  0.0000,  0.0000)
  39 Fe     1.760512    1.880997    3.567330    ( 0.0000,  0.0000,  2.0000)
  40 Co     3.365206   10.525371    3.468839    ( 0.0000,  0.0000,  2.1000)
  41 Ni     3.394052    1.739489    5.404709    ( 0.0000,  0.0000,  1.5000)
  42 Ni     5.371667   -0.097627    5.229695    ( 0.0000,  0.0000,  1.5000)
  43 Al     5.236579    1.587759    3.473468    ( 0.0000,  0.0000,  0.0000)
  44 Fe     7.146579   10.871891    3.647672    ( 0.0000,  0.0000,  2.0000)
  45 Co     7.088052    1.790318    5.262986    ( 0.0000,  0.0000,  2.1000)
  46 Fe     9.014605   10.945964    5.265846    ( 0.0000,  0.0000,  2.0000)
  47 Ni     8.967798    1.838272    3.227364    ( 0.0000,  0.0000,  1.5000)
  48 Fe    -0.041709    3.374989    3.593706    ( 0.0000,  0.0000,  2.0000)
  49 Fe    10.622059    5.449816    5.524631    ( 0.0000,  0.0000,  2.0000)
  50 Ni     1.841029    3.719003    5.411782    ( 0.0000,  0.0000,  1.5000)
  51 Ni     1.733741    5.577997    3.586343    ( 0.0000,  0.0000,  1.5000)
  52 Cr     3.382146    3.685988    3.629127    ( 0.0000,  0.0000,  0.0000)
  53 Co     3.603152    5.294103    5.570370    ( 0.0000,  0.0000,  2.1000)
  54 Fe     5.284861    3.547716    5.428505    ( 0.0000,  0.0000,  2.0000)
  55 Cr     5.334144    5.326002    3.697551    ( 0.0000,  0.0000,  0.0000)
  56 Co     7.142356    3.552865    3.683379    ( 0.0000,  0.0000,  2.1000)
  57 Fe     7.006274    5.425662    5.416722    ( 0.0000,  0.0000,  2.0000)
  58 Ni     8.737793    3.330022    5.319501    ( 0.0000,  0.0000,  1.5000)
  59 Fe     8.746114    5.186208    3.725243    ( 0.0000,  0.0000,  2.0000)
[...]
  93 Ni     7.087244    5.332310    8.911008    ( 0.0000,  0.0000,  1.5000)
  94 Co     8.953131    3.631773    8.938955    ( 0.0000,  0.0000,  2.1000)
  95 Cr     8.704212    5.281003    6.932086    ( 0.0000,  0.0000,  0.0000)
  96 Fe    -0.093274    7.079943    7.058335    ( 0.0000,  0.0000,  2.0000)
  97 Ni    -0.156564    8.901104    8.845884    ( 0.0000,  0.0000,  1.5000)
  98 Ni     1.702947    7.040306    8.769970    ( 0.0000,  0.0000,  1.5000)
  99 Fe     1.789554    8.783048    7.043513    ( 0.0000,  0.0000,  2.0000)
 100 Ni     3.748183    7.267130    6.999306    ( 0.0000,  0.0000,  1.5000)
 101 Cr     3.398213    9.237089    8.719450    ( 0.0000,  0.0000,  0.0000)
 102 Cr     5.211043    7.231209    8.920493    ( 0.0000,  0.0000,  0.0000)
 103 Cr     5.162454    8.987468    7.315174    ( 0.0000,  0.0000,  0.0000)
 104 Co     7.154015    7.214486    7.398294    ( 0.0000,  0.0000,  2.1000)
 105 Fe     7.117584    8.926236    8.941507    ( 0.0000,  0.0000,  2.0000)
 106 Cr     8.935016    7.018453    8.910470    ( 0.0000,  0.0000,  0.0000)
 107 Ni     9.124008    9.045191    6.976190    ( 0.0000,  0.0000,  1.5000)

Unit cell:
           periodic     x           y           z      points  spacing
  1. axis:    yes   10.671700    0.000000    0.000000    48     0.2223
  2. axis:    yes    0.000000   10.671700    0.000000    48     0.2223
  3. axis:    yes    0.000000    0.000000   10.671700    48     0.2223

  Lengths:  10.671700  10.671700  10.671700
  Angles:   90.000000  90.000000  90.000000

Effective grid spacing dv^(1/3) = 0.2223

     iter     time        total  log10-change:  magmom
                         energy  eigst   dens
iter:   1 20:03:53 -1030.390765                  +143.7777
iter:   2 20:05:22  -917.830923  -0.27  -1.21    +83.7767
iter:   3 20:06:50  -900.952623  -0.94  -1.24    +72.6060
iter:   4 20:08:19  -889.407172  -1.31  -1.31    +68.6353
iter:   5 20:09:48  -873.439611  -1.57  -1.31    +65.7750
iter:   6 20:11:17  -869.487416  -1.26  -1.39    +66.1833
iter:   7 20:12:46  -875.924961  -1.24  -1.51    +65.1086
iter:   8 20:14:15  -856.809757  -1.70  -1.54    +63.7747
iter:   9 20:15:44  -855.633589  -2.23  -1.77    +65.1957
iter:  10 20:17:13  -856.074155  -2.54  -1.83    +66.3810
iter:  11 20:18:42  -856.427075  -2.56  -1.85    +67.6813
iter:  12 20:20:11  -857.665097  -2.38  -1.88    +68.8622
iter:  13 20:21:40  -857.667581  -2.38  -1.92    +69.3490
iter:  14 20:23:09  -856.923497  -2.51  -1.97    +69.6176
iter:  15 20:24:37  -856.647071  -2.74  -2.07    +70.5311
iter:  16 20:26:06  -856.290114  -3.08  -2.13    +71.0577
iter:  17 20:27:35  -856.514345  -3.20  -2.22    +71.5769
iter:  18 20:29:04  -856.737944  -3.10  -2.25    +72.0195
iter:  19 20:30:33  -856.617204  -3.21  -2.22    +72.3881
iter:  20 20:32:01  -856.513417  -3.18  -2.29    +72.4428
iter:  21 20:33:30  -856.428978  -3.31  -2.37    +72.6096
iter:  22 20:34:59  -856.426464c -3.49  -2.45    +72.9713
iter:  23 20:36:28  -856.362602c -3.64  -2.49    +73.0255
iter:  24 20:37:56  -856.365919c -3.55  -2.58    +73.1885
iter:  25 20:39:25  -856.366375c -3.82  -2.62    +73.4351
iter:  26 20:40:54  -856.374235c -3.86  -2.66    +73.5347
iter:  27 20:42:23  -856.366767c -4.02  -2.67    +73.6237
iter:  28 20:43:52  -856.387037c -4.05  -2.72    +73.7651
iter:  29 20:45:21  -856.362068c -4.16  -2.74    +73.7859
iter:  30 20:46:50  -856.373121c -4.37  -2.81    +73.8277
iter:  31 20:48:19  -856.375931c -4.39  -2.84    +73.9369
iter:  32 20:49:47  -856.373884c -4.71  -2.87    +73.9362
iter:  33 20:51:16  -856.384432c -4.63  -2.93    +73.9425
iter:  34 20:52:44  -856.388475c -4.46  -2.96    +73.9758
iter:  35 20:54:13  -856.386154c -4.76  -3.00    +73.9511
iter:  36 20:55:41  -856.390514c -4.75  -3.07    +73.9440
iter:  37 20:57:09  -856.392231c -4.94  -3.10    +73.9640
iter:  38 20:58:38  -856.397970c -4.90  -3.15    +73.9766
iter:  39 21:00:06  -856.399086c -4.90  -3.16    +73.9622
iter:  40 21:01:35  -856.405188c -4.95  -3.23    +73.9848
iter:  41 21:03:03  -856.404200c -5.03  -3.23    +73.9645
iter:  42 21:04:32  -856.407685c -5.15  -3.32    +73.9611
iter:  43 21:06:00  -856.410757c -5.07  -3.34    +73.9799
iter:  44 21:07:29  -856.411083c -5.26  -3.36    +73.9827
iter:  45 21:08:57  -856.412325c -5.35  -3.42    +73.9632
iter:  46 21:10:25  -856.414522c -5.46  -3.49    +73.9715
iter:  47 21:11:54  -856.416335c -5.45  -3.53    +73.9415
iter:  48 21:13:22  -856.417229c -5.67  -3.54    +73.9469
iter:  49 21:14:51  -856.419084c -5.63  -3.59    +73.9339
iter:  50 21:16:19  -856.419324c -5.76  -3.57    +73.9428
iter:  51 21:17:48  -856.421047c -5.77  -3.65    +73.9300
iter:  52 21:19:16  -856.423655c -5.49  -3.69    +73.9297
iter:  53 21:20:44  -856.425814c -5.55  -3.70    +73.9085
iter:  54 21:22:13  -856.427395c -5.68  -3.73    +73.9009
iter:  55 21:23:41  -856.429044c -5.63  -3.76    +73.8730
iter:  56 21:25:10  -856.430027c -5.91  -3.75    +73.8777
iter:  57 21:26:38  -856.432765c -5.43  -3.78    +73.8590
iter:  58 21:28:06  -856.437693c -4.90  -3.76    +73.8371
iter:  59 21:29:35  -856.441744c -4.69  -3.65    +73.8358
iter:  60 21:31:03  -856.441561c -5.59  -3.58    +73.8489
iter:  61 21:32:32  -856.441025c -5.82  -3.62    +73.8537
iter:  62 21:34:00  -856.440825c -6.13  -3.66    +73.8560
iter:  63 21:35:29  -856.440366c -6.03  -3.69    +73.8556
iter:  64 21:36:57  -856.439665c -5.36  -3.63    +73.8545
iter:  65 21:38:25  -856.439340c -6.15  -3.74    +73.8370
iter:  66 21:39:54  -856.439107c -6.32  -3.80    +73.8246
iter:  67 21:41:22  -856.439793c -6.20  -3.82    +73.8180
iter:  68 21:42:50  -856.439218c -5.99  -3.84    +73.7949
iter:  69 21:44:19  -856.438662c -6.29  -4.02c   +73.7857
iter:  70 21:45:47  -856.438891c -6.34  -4.07c   +73.7786
iter:  71 21:47:16  -856.438652c -6.65  -4.14c   +73.7705
iter:  72 21:48:44  -856.438521c -6.84  -4.19c   +73.7642
iter:  73 21:50:12  -856.438526c -7.02  -4.23c   +73.7594
iter:  74 21:51:41  -856.438455c -7.10  -4.32c   +73.7545
iter:  75 21:53:09  -856.438357c -7.14  -4.38c   +73.7485
iter:  76 21:54:38  -856.438264c -7.26  -4.45c   +73.7456
iter:  77 21:56:06  -856.438286c -7.27  -4.44c   +73.7457
iter:  78 21:57:34  -856.438242c -7.59c -4.48c   +73.7428

Converged after 78 iterations.

Dipole moment: (18.393934, 1.853326, -9.522321) |e|*Ang

Total magnetic moment: (0.000000, 0.000000, 73.742782)
Local magnetic moments:
   0 Cr ( 0.000000,  0.000000,  0.396009)
   1 Al ( 0.000000,  0.000000, -0.039371)
   2 Cr ( 0.000000,  0.000000, -0.796688)
   3 Co ( 0.000000,  0.000000,  0.592320)
   4 Fe ( 0.000000,  0.000000,  1.179528)
   5 Cr ( 0.000000,  0.000000, -1.177122)
   6 Ni ( 0.000000,  0.000000,  0.328303)
   7 Fe ( 0.000000,  0.000000,  2.038901)
   8 Cr ( 0.000000,  0.000000, -0.908289)
   9 Co ( 0.000000,  0.000000,  1.179997)
  10 Ni ( 0.000000,  0.000000,  0.317955)
  11 Fe ( 0.000000,  0.000000,  2.277593)
  12 Co ( 0.000000,  0.000000,  1.281576)
  13 Co ( 0.000000,  0.000000,  1.162391)
  14 Fe ( 0.000000,  0.000000,  1.835401)
  15 Fe ( 0.000000,  0.000000,  2.224993)
  16 Fe ( 0.000000,  0.000000,  2.199455)
  17 Fe ( 0.000000,  0.000000,  1.832373)
  18 Cr ( 0.000000,  0.000000, -1.579170)
  19 Co ( 0.000000,  0.000000,  1.263157)
  20 Fe ( 0.000000,  0.000000,  2.322340)
  21 Ni ( 0.000000,  0.000000,  0.196541)
  22 Co ( 0.000000,  0.000000,  1.306648)
  23 Cr ( 0.000000,  0.000000, -0.654837)
  24 Cr ( 0.000000,  0.000000, -0.641657)
  25 Ni ( 0.000000,  0.000000,  0.136622)
  26 Fe ( 0.000000,  0.000000,  1.933098)
  27 Ni ( 0.000000,  0.000000,  0.215049)
  28 Co ( 0.000000,  0.000000,  1.335306)
  29 Co ( 0.000000,  0.000000,  1.141987)
  30 Co ( 0.000000,  0.000000,  1.241895)
  31 Cr ( 0.000000,  0.000000,  1.017268)
  32 Al ( 0.000000,  0.000000, -0.014960)
  33 Cr ( 0.000000,  0.000000, -1.131580)
  34 Cr ( 0.000000,  0.000000,  1.115050)
  35 Cr ( 0.000000,  0.000000,  0.301276)
  36 Fe ( 0.000000,  0.000000,  2.452958)
  37 Co ( 0.000000,  0.000000,  1.271536)
  38 Cr ( 0.000000,  0.000000, -1.389114)
  39 Fe ( 0.000000,  0.000000,  1.781604)
  40 Co ( 0.000000,  0.000000,  1.064520)
  41 Ni ( 0.000000,  0.000000,  0.134216)
  42 Ni ( 0.000000,  0.000000,  0.303974)
  43 Al ( 0.000000,  0.000000, -0.017326)
  44 Fe ( 0.000000,  0.000000,  2.351668)
  45 Co ( 0.000000,  0.000000,  1.116688)
  46 Fe ( 0.000000,  0.000000,  2.153899)
  47 Ni ( 0.000000,  0.000000,  0.555366)
  48 Fe ( 0.000000,  0.000000,  2.471818)
  49 Fe ( 0.000000,  0.000000,  2.009503)
  50 Ni ( 0.000000,  0.000000,  0.360379)
  51 Ni ( 0.000000,  0.000000,  0.368082)
  52 Cr ( 0.000000,  0.000000, -1.099047)
  53 Co ( 0.000000,  0.000000,  1.355320)
  54 Fe ( 0.000000,  0.000000,  2.187992)
  55 Cr ( 0.000000,  0.000000, -0.411946)
  56 Co ( 0.000000,  0.000000,  1.219360)
  57 Fe ( 0.000000,  0.000000,  2.079971)
  58 Ni ( 0.000000,  0.000000,  0.344603)
  59 Fe ( 0.000000,  0.000000,  2.338231)
[...]
  93 Ni ( 0.000000,  0.000000,  0.174819)
  94 Co ( 0.000000,  0.000000,  1.233571)
  95 Cr ( 0.000000,  0.000000, -1.906494)
  96 Fe ( 0.000000,  0.000000,  2.102928)
  97 Ni ( 0.000000,  0.000000,  0.169440)
  98 Ni ( 0.000000,  0.000000,  0.378332)
  99 Fe ( 0.000000,  0.000000,  1.879309)
 100 Ni ( 0.000000,  0.000000,  0.362699)
 101 Cr ( 0.000000,  0.000000, -0.620238)
 102 Cr ( 0.000000,  0.000000, -0.964418)
 103 Cr ( 0.000000,  0.000000,  0.845281)
 104 Co ( 0.000000,  0.000000,  1.003587)
 105 Fe ( 0.000000,  0.000000,  1.553989)
 106 Cr ( 0.000000,  0.000000,  0.048450)
 107 Ni ( 0.000000,  0.000000,  0.132347)

Energy contributions relative to reference atoms: (reference = -3699400.456887)

Kinetic:       +369.463741
Potential:     -375.942296
External:        +0.000000
XC:            -885.417571
Entropy (-ST):   -4.532596
Local:          +37.724182
Free energy:   -858.704540
Extrapolated:  -856.438242

Spin contamination: 22.397393 electrons
Showing only first 2 kpts
                      Up                     Down
 Kpt  Band  Eigenvalues  Occupancy  Eigenvalues  Occupancy
  0   508      9.60769    0.99674     10.61503    0.01274
  0   509      9.61811    0.99639     10.62795    0.01121
  0   510      9.63128    0.99588     10.63258    0.01071
  0   511      9.63619    0.99567     10.64310    0.00965

  1   508      9.61531    0.99648     10.61190    0.01314
  1   509      9.61790    0.99639     10.62340    0.01173
  1   510      9.63071    0.99590     10.63733    0.01022
  1   511      9.64288    0.99537     10.64156    0.00980

Fermi level: 10.18003

No gap

Forces in eV/Ang:
  0 Cr   -0.19373   -0.91397   -2.28484
  1 Al   -0.58079    1.92435    1.42141
  2 Cr   -0.25341   -0.64521    1.46547
  3 Co    0.01815   -0.77412   -0.25294
  4 Fe    0.72045   -0.11876   -0.62339
  5 Cr   -0.84510    0.66389   -2.05049
  6 Ni    0.40937   -0.68205   -1.39506
  7 Fe   -0.03099    1.06235   -0.25355
  8 Cr    1.06181    0.17834    0.99999
  9 Co    0.41317    0.44616    0.05041
 10 Ni   -1.42276   -0.43409    0.55668
 11 Fe    0.19973    0.99112   -0.92833
 12 Co   -0.49285    1.16274   -0.24032
 13 Co    0.80444   -0.35939   -0.21238
 14 Fe   -0.38378    0.39556    0.18600
 15 Fe   -1.03591    0.06923   -0.96225
 16 Fe    1.24519    0.73579    0.18925
 17 Fe    1.12592   -0.47549   -0.17441
 18 Cr   -1.65828   -1.51771   -0.50044
 19 Co   -1.79755   -1.62331    0.52061
 20 Fe   -0.66444    0.53083   -0.42095
 21 Ni    0.60185    0.42862   -0.99408
 22 Co   -0.13596   -0.81509   -0.35865
 23 Cr    0.75508   -0.25483    0.38405
 24 Cr   -0.50915   -0.06816    0.09803
 25 Ni    0.37856    0.43453    1.19231
 26 Fe    0.79260    0.90912    2.14431
 27 Ni    0.21635   -0.35662   -0.83154
 28 Co   -0.75060    0.70616   -1.36514
 29 Co    1.15432   -1.33397    0.51162
 30 Co    0.44383    0.08286    0.67828
 31 Cr   -0.52878   -0.86392    0.71905
 32 Al   -2.70504   -0.51849    1.22123
 33 Cr    0.52514    1.73001    1.59073
 34 Cr   -0.20997   -0.11427    0.91015
 35 Cr    0.98478    1.85567    0.79896
 36 Fe    0.40039   -0.06046   -0.04929
 37 Co   -0.13376   -0.56500    0.13032
 38 Cr   -0.09438   -0.03927   -0.71278
 39 Fe    0.30000   -1.08941    0.28737
 40 Co   -0.34436    0.15452    0.73056
 41 Ni    0.78655    0.63902   -1.09810
 42 Ni   -0.53610   -0.00223    0.34379
 43 Al    0.12058    2.09684    1.90354
 44 Fe    1.15278   -1.82062   -1.25448
 45 Co    0.28554   -0.37551   -0.59266
 46 Fe    0.03027   -0.79452    0.10033
 47 Ni   -0.41238   -1.04934    1.20022
 48 Fe    0.49020    2.10217    0.22159
 49 Fe    0.13777   -1.69691   -1.00758
 50 Ni   -0.66977   -0.96065    0.02573
 51 Ni   -0.36360   -1.52686   -0.10187
 52 Cr    0.70247   -0.16136    0.05659
 53 Co   -0.09321    0.26381   -1.81716
 54 Fe   -0.51645    0.27201   -1.38356
 55 Cr   -0.52550   -0.42396   -0.73249
 56 Co   -1.27709   -0.30521   -1.01979
 57 Fe   -0.13340    0.26271    0.01165
 58 Ni    1.95607    0.94054    0.23218
 59 Fe    0.97151    0.88380   -0.18641
[...]
 93 Ni    0.31176   -0.58795   -0.97195
 94 Co   -0.91511   -0.81139   -0.55975
 95 Cr    0.80053   -0.19044    0.89959
 96 Fe    0.11761    0.86381    0.38117
 97 Ni    1.78761   -0.26502    0.29118
 98 Ni    0.88755    0.45606    0.47722
 99 Fe   -0.53335    0.92652    0.34097
100 Ni   -2.67803    0.13455    0.71292
101 Cr   -0.53833   -2.21549    1.05098
102 Cr    0.49949    0.39454    0.03933
103 Cr    1.02970    0.27756   -1.08559
104 Co   -0.38309   -0.21066   -1.22826
105 Fe   -0.07556    0.63515   -0.72017
106 Cr    1.13219    0.03639   -1.81715
107 Ni   -1.98492   -0.71349    0.54910

Date: Thu Apr 13 21:57:54 2023