User:   c.zeng@d0046
Date:   Sat Apr 15 17:25:10 2023
Arch:   x86_64
Pid:    117196
CWD:    /home/c.zeng/projects/hea-corrosion/hea-mlp/data-curation/bulk-mcmc/dft-jobs/63
Python: 3.8.1
gpaw:   /home/c.zeng/usr/installs/gpaw/source/gpaw-22.8.0/gpaw
_gpaw:  /home/c.zeng/usr/installs/gpaw/source/gpaw-22.8.0/
        _gpaw.cpython-38-x86_64-linux-gnu.so
ase:    /home/c.zeng/.local/lib/python3.8/site-packages/ase-3.22.1-py3.8.egg/ase (version 3.22.1)
numpy:  /shared/centos7/python/3.8.1/lib/python3.8/site-packages/numpy (version 1.17.4)
scipy:  /shared/centos7/python/3.8.1/lib/python3.8/site-packages/scipy (version 1.4.1)
units:  Angstrom and eV
cores: 30
OpenMP: False
OMP_NUM_THREADS: 1

Input parameters:
  convergence: {energy: 0.0001}
  kpts: [2 2 2]
  maxiter: 666
  mode: {ecut: 350.0,
         name: pw}
  occupations: {fixmagmom: False,
                name: fermi-dirac,
                width: 0.1}
  spinpol: True
  xc: PBE

System changes: positions, numbers, cell, pbc, initial_charges, initial_magmoms

Initialize ...

species:
  Ni:
    name: Nickel
    id: 0d9f38a9d6e76a2886f07bb4381f212b
    Z: 28.0
    valence: 16
    core: 12
    charge: 0.0
    file: /home/c.zeng/usr/data/gpaw-setups-0.9.20000/Ni.PBE.gz
    compensation charges: {type: gauss,
                           rc: 0.36,
                           lmax: 2}
    cutoffs: {filter: 2.14,
              core: 1.98}
    valence states:
      #              energy  rcut
      - 4s(2.00)    -5.642   1.164
      - 3p(6.00)   -71.394   1.207
      - 4p(0.00)    -1.226   1.207
      - 3d(8.00)    -8.875   1.138
      -  s          21.570   1.164
      -  d          18.337   1.138

    # Using partial waves for Ni as LCAO basis

  Fe:
    name: Iron
    id: 37abbd8d6c3c35915a9b583b742da910
    Z: 26.0
    valence: 8
    core: 18
    charge: 0.0
    file: /home/c.zeng/usr/data/gpaw-setups-0.9.20000/Fe.PBE.gz
    compensation charges: {type: gauss,
                           rc: 0.33,
                           lmax: 2}
    cutoffs: {filter: 2.06,
              core: 2.67}
    valence states:
      #              energy  rcut
      - 4s(2.00)    -5.291   1.164
      - 4p(0.00)    -1.326   1.058
      - 3d(6.00)    -7.505   1.058
      -  s          21.920   1.164
      -  p          25.885   1.058
      -  d          19.706   1.058

[...]

  Cr:
    name: Chromium
    id: 33f258bda2ca9f93018e70263a35547b
    Z: 24.0
    valence: 6
    core: 18
    charge: 0.0
    file: /home/c.zeng/usr/data/gpaw-setups-0.9.20000/Cr.PBE.gz
    compensation charges: {type: gauss,
                           rc: 0.35,
                           lmax: 2}
    cutoffs: {filter: 2.14,
              core: 3.04}
    valence states:
      #              energy  rcut
      - 4s(1.00)    -4.007   1.164
      - 4p(0.00)    -0.989   1.217
      - 3d(5.00)    -2.913   1.111
      -  s          23.205   1.164
      -  p          26.223   1.217
      -  d          24.299   1.111

[...]

  Co:
    name: Cobalt
    id: 339d20d5b0b93d2de9531a1bee871d91
    Z: 27.0
    valence: 9
    core: 18
    charge: 0.0
    file: /home/c.zeng/usr/data/gpaw-setups-0.9.20000/Co.PBE.gz
    compensation charges: {type: gauss,
                           rc: 0.32,
                           lmax: 2}
    cutoffs: {filter: 1.87,
              core: 2.55}
    valence states:
      #              energy  rcut
      - 4s(2.00)    -5.469   1.005
      - 4p(0.00)    -1.277   1.058
      - 3d(7.00)    -8.205   1.005
      -  s          21.742   1.005
      -  p          25.934   1.058
      -  d          19.007   1.005

[...]

  Al:
    name: Aluminium
    id: 0292cae29f5d6237e50f6abdd43a7bdd
    Z: 13.0
    valence: 3
    core: 10
    charge: 0.0
    file: /home/c.zeng/usr/data/gpaw-setups-0.9.20000/Al.PBE.gz
    compensation charges: {type: gauss,
                           rc: 0.34,
                           lmax: 2}
    cutoffs: {filter: 1.91,
              core: 2.36}
    valence states:
      #              energy  rcut
      - 3s(2.00)    -7.753   1.085
      - 3p(1.00)    -2.712   1.085
      -  s          19.459   1.085
      -  p          24.499   1.085
      -  d           0.000   1.085

    # Using partial waves for Al as LCAO basis

Reference energy: -3699400.456887  # eV

Spin-polarized calculation.
Magnetic moment: 143.500000

Convergence criteria:
 Maximum [total energy] change in last 3 cyles: 0.0001 eV / electron
 Maximum integral of absolute [dens]ity change: 0.0001 electrons / valence electron
 Maximum integral of absolute [eigenst]ate change: 4e-08 eV^2 / valence electron
 Maximum number of scf [iter]ations: 666
 (Square brackets indicate name in SCF output, whereas a 'c' in
 the SCF output indicates the quantity has converged.)

Symmetries present (total): 1

  ( 1  0  0)
  ( 0  1  0)
  ( 0  0  1)

8 k-points: 2 x 2 x 2 Monkhorst-Pack grid
4 k-points in the irreducible part of the Brillouin zone
       k-points in crystal coordinates                weights
   0:     0.25000000   -0.25000000   -0.25000000          2/8
   1:     0.25000000   -0.25000000    0.25000000          2/8
   2:     0.25000000    0.25000000   -0.25000000          2/8
   3:     0.25000000    0.25000000    0.25000000          2/8

Wave functions: Plane wave expansion
  Cutoff energy: 350.000 eV
  Number of coefficients (min, max): 18052, 18052
  Pulay-stress correction: 0.000000 eV/Ang^3 (de/decut=0.000000)
  Using FFTW library
  ScaLapack parameters: grid=1x1, blocksize=None
  Wavefunction extrapolation:
    Improved wavefunction reuse through dual PAW basis

Occupation numbers: Fermi-Dirac:
  width: 0.1000  # eV

Eigensolver
   Davidson(niter=2)

Densities:
  Coarse grid: 48*48*48 grid
  Fine grid: 96*96*96 grid
  Total Charge: 0.000000

Density mixing:
  Method: difference
  Backend: pulay
  Linear mixing parameter: 0.05
  old densities: 5
  Damping of long wavelength oscillations: 50

Hamiltonian:
  XC and Coulomb potentials evaluated on a 96*96*96 grid
  Using the PBE Exchange-Correlation functional
  External potential:
    NoExternalPotential

XC parameters: PBE with 2 nearest neighbor stencil

Total number of cores used: 30
Parallelization over k-points: 2
Domain decomposition: 5 x 3 x 1

Number of atoms: 108
Number of atomic orbitals: 1025
Number of bands in calculation: 703
Number of valence electrons: 1020
Bands to converge: occupied

... initialized

Initializing position-dependent things.

Density initialized from atomic densities
Creating initial wave functions:
  703 bands from LCAO basis set

        Ni------------------------.
       /|  Co                Co   |
      Ni|   Cr         Cr         |
     / Fe      Fe       Al        |
    /   CCo      Ni       Fe      |
   /e   | CoNi     CoAl    CrNi   |
  /  FeCr  NiCo     CrCrCo        |
 *    FeFe  FeCoCr     CoAl       |
 |     CoFeCr  CoFe Ni  CrFeCr    |
 | Fe   CrNiNiCo NiNiNiFe  Ni     |
 |   CoCr  NiAlCr   CrNiCr   Fe   |
 |    FeCr  FeFeCoCr CoFeCr   Ni  |
 |     CrFeFe  Ni CrNi  CoFeFe    |
 |      .-CoCrCo-FeNiCrCo--CoNi---.
 |   NiCo    CoAl   CrCrFe       /
 |    / Cr    CrFe       Ni     /
 |   /            Ni           /
 |Ni/      Co       Co        /
 |/            Ni           /
 *----------------Ni-------*

Positions:
   0 Ni     0.005316   -0.016350   10.639749    ( 0.0000,  0.0000,  0.0000)
   1 Ni    10.672340    1.801276    1.786848    ( 0.0000,  0.0000,  0.0000)
   2 Fe     1.795727   10.625972    1.782259    ( 0.0000,  0.0000,  0.0000)
   3 Cr     1.780787    1.796175   10.644605    ( 0.0000,  0.0000,  2.1000)
   4 Fe     3.523539   -0.014558    0.017268    ( 0.0000,  0.0000,  2.0000)
   5 Co     3.522568    1.781672    1.746648    ( 0.0000,  0.0000,  0.0000)
   6 Co     5.320952   10.642342    1.763136    ( 0.0000,  0.0000,  1.5000)
   7 Ni     5.342082    1.828767    0.007462    ( 0.0000,  0.0000,  2.0000)
   8 Ni     7.144895    0.019195    0.012033    ( 0.0000,  0.0000,  0.0000)
   9 Co     7.143497    1.798064    1.764939    ( 0.0000,  0.0000,  2.1000)
  10 Ni     8.891362   10.651627    1.788353    ( 0.0000,  0.0000,  1.5000)
  11 Co     8.888779    1.804777   10.642609    ( 0.0000,  0.0000,  2.0000)
  12 Fe     0.008694    3.581540   10.650250    ( 0.0000,  0.0000,  2.1000)
  13 Ni     0.018979    5.332745    1.789751    ( 0.0000,  0.0000,  2.1000)
  14 Cr     1.778129    3.600941    1.760019    ( 0.0000,  0.0000,  2.0000)
  15 Co     1.790423    5.343267   -0.017766    ( 0.0000,  0.0000,  2.0000)
  16 Ni     3.542802    3.589864   -0.015614    ( 0.0000,  0.0000,  2.0000)
  17 Co     3.526837    5.358538    1.765793    ( 0.0000,  0.0000,  2.0000)
  18 Fe     5.336650    3.606501    1.755815    ( 0.0000,  0.0000,  0.0000)
  19 Ni     5.300399    5.323642   -0.012797    ( 0.0000,  0.0000,  2.1000)
  20 Al     7.122858    3.584816   10.659524    ( 0.0000,  0.0000,  2.0000)
  21 Cr     7.120500    5.315168    1.805502    ( 0.0000,  0.0000,  1.5000)
  22 Ni     8.892034    3.590952    1.773146    ( 0.0000,  0.0000,  2.1000)
  23 Fe     8.925340    5.301487   -0.003100    ( 0.0000,  0.0000,  0.0000)
  24 Ni     0.023055    7.096680   -0.007939    ( 0.0000,  0.0000,  0.0000)
  25 Cr     0.019141    8.871245    1.787510    ( 0.0000,  0.0000,  1.5000)
  26 Co     1.784372    7.104567    1.776443    ( 0.0000,  0.0000,  2.0000)
  27 Co     1.779944    8.867628   10.659406    ( 0.0000,  0.0000,  1.5000)
  28 Cr     3.547785    7.097897    0.009215    ( 0.0000,  0.0000,  2.1000)
  29 Ni     3.541137    8.858109    1.788225    ( 0.0000,  0.0000,  2.1000)
  30 Ni     5.295105    7.099391    1.787894    ( 0.0000,  0.0000,  2.1000)
  31 Cr     5.303685    8.873828    0.029898    ( 0.0000,  0.0000,  0.0000)
  32 Cr     7.106883    7.088719   10.645159    ( 0.0000,  0.0000,  0.0000)
  33 Co     7.111055    8.901137    1.809472    ( 0.0000,  0.0000,  0.0000)
  34 Co     8.939384    7.093404    1.799238    ( 0.0000,  0.0000,  0.0000)
  35 Co     8.919972    8.915853   10.664881    ( 0.0000,  0.0000,  0.0000)
  36 Cr    10.679704   10.658873    3.584517    ( 0.0000,  0.0000,  2.0000)
  37 Fe    10.670921    1.796367    5.340289    ( 0.0000,  0.0000,  2.1000)
  38 Fe     1.770350   10.649001    5.343491    ( 0.0000,  0.0000,  0.0000)
  39 Co     1.791800    1.784671    3.584891    ( 0.0000,  0.0000,  2.0000)
  40 Ni     3.529718   10.626388    3.565234    ( 0.0000,  0.0000,  2.1000)
  41 Fe     3.535716    1.793465    5.367289    ( 0.0000,  0.0000,  1.5000)
  42 Co     5.311497    0.001574    5.366254    ( 0.0000,  0.0000,  1.5000)
  43 Al     5.332627    1.768055    3.580793    ( 0.0000,  0.0000,  0.0000)
  44 Ni     7.136966   10.673941    3.563804    ( 0.0000,  0.0000,  2.0000)
  45 Ni     7.136774    1.794126    5.358944    ( 0.0000,  0.0000,  2.1000)
  46 Co     8.925938   10.673621    5.347589    ( 0.0000,  0.0000,  2.0000)
  47 Fe     8.883827    1.779111    3.582404    ( 0.0000,  0.0000,  1.5000)
  48 Ni    -0.010038    3.572341    3.580996    ( 0.0000,  0.0000,  2.0000)
  49 Co    10.685573    5.328935    5.338550    ( 0.0000,  0.0000,  2.0000)
  50 Cr     1.784180    3.582949    5.348357    ( 0.0000,  0.0000,  1.5000)
  51 Fe     1.766326    5.339510    3.565255    ( 0.0000,  0.0000,  1.5000)
[...]
iter:  25 18:07:23  -868.867667c -3.50  -2.49    +62.4008
iter:  26 18:08:59  -868.921004c -3.76  -2.55    +63.0861
iter:  27 18:10:34  -869.116399  -3.56  -2.62    +63.7897
iter:  28 18:12:10  -869.127739  -3.89  -2.61    +64.1088
iter:  29 18:13:45  -869.259199  -3.68  -2.65    +64.6171
iter:  30 18:15:21  -869.268647  -3.92  -2.65    +64.9787
iter:  31 18:16:56  -869.402106  -3.72  -2.74    +65.3628
iter:  32 18:18:31  -869.384561  -3.93  -2.71    +65.5112
iter:  33 18:20:07  -869.436683c -4.02  -2.78    +65.8391
iter:  34 18:21:42  -869.474035c -4.10  -2.80    +65.9930
iter:  35 18:23:18  -869.497884c -4.31  -2.82    +66.1934
iter:  36 18:24:53  -869.524167c -4.40  -2.84    +66.3408
iter:  37 18:26:29  -869.608623  -4.20  -2.85    +66.5581
iter:  38 18:28:04  -869.606178c -4.51  -2.76    +66.5841
iter:  39 18:29:40  -869.635170c -4.33  -2.77    +66.7194
iter:  40 18:31:15  -869.643614c -4.46  -2.77    +66.7085
iter:  41 18:32:51  -869.657311c -4.85  -2.78    +66.8092
iter:  42 18:34:27  -869.835203  -3.72  -2.77    +66.9345
iter:  43 18:36:02  -869.727314  -3.97  -2.58    +66.9132
iter:  44 18:37:38  -869.730144  -3.94  -2.72    +66.8840
iter:  45 18:39:14  -869.788746c -3.79  -2.74    +66.9003
iter:  46 18:40:50  -869.750091c -3.79  -2.69    +66.8193
iter:  47 18:42:25  -869.678894  -4.34  -2.73    +66.8658
iter:  48 18:44:01  -869.687151c -4.47  -2.91    +66.8967
iter:  49 18:45:37  -869.680976c -4.82  -2.92    +66.8925
iter:  50 18:47:12  -869.682080c -5.08  -2.97    +66.9387
iter:  51 18:48:48  -869.688390c -4.98  -2.99    +66.9720
iter:  52 18:50:23  -869.737978c -4.20  -3.01    +67.0011
iter:  53 18:51:58  -869.708375c -4.32  -2.87    +66.9670
iter:  54 18:53:33  -869.705284c -4.46  -2.98    +66.9655
iter:  55 18:55:09  -869.717742c -4.35  -3.07    +67.0272
iter:  56 18:56:44  -869.712331c -4.37  -3.00    +66.9882
iter:  57 18:58:19  -869.694546c -4.84  -3.07    +66.9790
iter:  58 18:59:55  -869.695272c -5.23  -3.26    +66.9753
iter:  59 19:01:31  -869.696843c -5.29  -3.33    +67.0240
iter:  60 19:03:07  -869.697171c -5.88  -3.34    +67.0272
iter:  61 19:04:44  -869.702848c -5.34  -3.40    +67.0263
iter:  62 19:06:20  -869.706161c -5.15  -3.42    +67.0289
iter:  63 19:07:57  -869.710236c -4.99  -3.38    +67.0294
iter:  64 19:09:33  -869.705717c -5.32  -3.35    +67.0236
iter:  65 19:11:10  -869.708010c -5.31  -3.59    +67.0096
iter:  66 19:12:46  -869.708812c -5.45  -3.56    +67.0419
iter:  67 19:14:23  -869.708661c -5.92  -3.59    +67.0795
iter:  68 19:15:59  -869.711579c -5.73  -3.78    +67.1062
iter:  69 19:17:36  -869.714743c -5.67  -3.77    +67.1382
iter:  70 19:19:12  -869.711857c -5.96  -3.70    +67.0975
iter:  71 19:20:49  -869.715810c -5.56  -3.73    +67.1407
iter:  72 19:22:26  -869.715942c -5.99  -3.64    +67.1601
iter:  73 19:24:02  -869.717397c -6.03  -3.69    +67.2034
iter:  74 19:25:39  -869.722438c -5.22  -3.71    +67.2880
iter:  75 19:27:16  -869.723119c -5.90  -3.60    +67.2877
iter:  76 19:28:52  -869.725141c -5.88  -3.63    +67.3101
iter:  77 19:30:29  -869.724265c -6.42  -3.56    +67.3046
iter:  78 19:32:05  -869.726903c -5.94  -3.58    +67.3553
iter:  79 19:33:42  -869.729056c -5.39  -3.53    +67.3515
iter:  80 19:35:19  -869.727786c -5.60  -3.44    +67.3759
iter:  81 19:36:56  -869.732048c -5.37  -3.60    +67.3962
iter:  82 19:38:33  -869.729842c -5.84  -3.47    +67.3963
iter:  83 19:40:10  -869.733113c -5.43  -3.63    +67.4185
iter:  84 19:41:46  -869.732073c -5.75  -3.53    +67.4424
iter:  85 19:43:23  -869.734059c -5.83  -3.65    +67.4654
iter:  86 19:45:00  -869.733821c -6.02  -3.67    +67.4578
iter:  87 19:46:37  -869.735988c -5.88  -3.66    +67.4864
iter:  88 19:48:14  -869.735201c -6.08  -3.69    +67.4760
iter:  89 19:49:50  -869.736581c -5.68  -3.68    +67.4926
iter:  90 19:51:27  -869.739390c -5.54  -3.86    +67.5138
iter:  91 19:53:04  -869.738444c -5.93  -3.63    +67.5395
iter:  92 19:54:40  -869.740608c -5.97  -4.04c   +67.5797
iter:  93 19:56:17  -869.739395c -6.68  -3.97    +67.5604
iter:  94 19:57:54  -869.738996c -6.27  -4.09c   +67.5514
iter:  95 19:59:31  -869.741669c -5.85  -4.04c   +67.6007
iter:  96 20:01:07  -869.741768c -6.51  -4.09c   +67.6150
iter:  97 20:02:44  -869.743617c -5.80  -4.12c   +67.6246
iter:  98 20:04:21  -869.743018c -5.71  -4.01c   +67.6562
iter:  99 20:05:58  -869.745995c -5.65  -4.04c   +67.6719
iter: 100 20:07:35  -869.742168c -5.17  -3.95    +67.6933
iter: 101 20:09:12  -869.745187c -5.98  -3.95    +67.7403
iter: 102 20:10:49  -869.747330c -5.96  -3.88    +67.7940
iter: 103 20:12:26  -869.746918c -6.37  -3.91    +67.7797
iter: 104 20:14:03  -869.749863c -5.78  -3.81    +67.8399
iter: 105 20:15:39  -869.752040c -5.71  -3.83    +67.8468
iter: 106 20:17:16  -869.752154c -5.78  -3.74    +67.8885
iter: 107 20:18:53  -869.755567c -5.43  -3.83    +67.9251
iter: 108 20:20:30  -869.755415c -6.20  -3.72    +67.9378
iter: 109 20:22:07  -869.758087c -5.90  -3.94    +67.9829
iter: 110 20:23:44  -869.758071c -6.76  -3.91    +67.9829
iter: 111 20:25:22  -869.761865c -5.79  -3.88    +68.0263
iter: 112 20:26:59  -869.753697c -5.10  -3.79    +67.9100
iter: 113 20:28:37  -869.759539c -5.51  -3.76    +67.9840
iter: 114 20:30:14  -869.756400c -6.06  -3.84    +67.9417
iter: 115 20:31:52  -869.754656c -5.84  -3.94    +67.9041
iter: 116 20:33:29  -869.757298c -6.04  -3.85    +67.9646
iter: 117 20:35:07  -869.757275c -6.37  -4.05c   +67.9596
iter: 118 20:36:44  -869.760160c -5.75  -3.96    +68.0044
iter: 119 20:38:22  -869.762983c -5.63  -3.93    +68.0555
iter: 120 20:39:59  -869.764388c -5.94  -3.89    +68.0696
iter: 121 20:41:37  -869.766573c -5.68  -3.97    +68.1023
iter: 122 20:43:14  -869.768594c -5.93  -3.99    +68.1321
iter: 123 20:44:52  -869.768919c -6.19  -3.98    +68.1230
iter: 124 20:46:29  -869.771363c -5.70  -3.80    +68.1666
iter: 125 20:48:06  -869.774461c -5.53  -3.84    +68.2285
iter: 126 20:49:44  -869.777075c -5.64  -3.85    +68.2507
iter: 127 20:51:22  -869.777572c -5.80  -3.71    +68.2564
iter: 128 20:52:59  -869.779575c -5.59  -3.76    +68.2729
iter: 129 20:54:37  -869.779270c -5.56  -3.53    +68.2885
iter: 130 20:56:14  -869.779567c -5.75  -3.84    +68.3049
iter: 131 20:57:52  -869.780590c -5.51  -3.74    +68.3411
iter: 132 20:59:30  -869.780200c -5.81  -3.64    +68.3358
iter: 133 21:01:07  -869.780203c -6.19  -3.84    +68.3272
iter: 134 21:02:45  -869.780761c -6.55  -3.99    +68.3336
iter: 135 21:04:23  -869.786134c -5.26  -3.99    +68.3704
iter: 136 21:06:00  -869.781098c -5.37  -3.73    +68.3320
iter: 137 21:07:38  -869.783788c -5.67  -3.84    +68.3648
iter: 138 21:09:16  -869.784531c -6.04  -3.81    +68.3671
iter: 139 21:10:53  -869.783788c -6.05  -3.71    +68.3689
iter: 140 21:12:31  -869.784758c -5.97  -3.85    +68.3668
iter: 141 21:14:09  -869.784776c -6.64  -3.77    +68.3601
iter: 142 21:15:46  -869.785908c -5.73  -3.84    +68.3524
iter: 143 21:17:24  -869.784719c -6.41  -3.66    +68.3576
iter: 144 21:19:01  -869.785051c -6.75  -3.89    +68.3560
iter: 145 21:20:39  -869.785611c -6.24  -3.90    +68.3602
iter: 146 21:22:16  -869.786613c -6.07  -3.90    +68.3569
iter: 147 21:23:54  -869.786809c -6.11  -3.77    +68.3592
iter: 148 21:25:31  -869.786388c -5.99  -3.82    +68.3587
iter: 149 21:27:09  -869.786523c -6.00  -3.82    +68.3505
iter: 150 21:28:46  -869.787480c -5.80  -3.87    +68.3556
iter: 151 21:30:23  -869.787322c -5.90  -3.73    +68.3507
iter: 152 21:32:01  -869.787071c -6.18  -3.85    +68.3445
iter: 153 21:33:38  -869.786548c -6.45  -3.94    +68.3326
iter: 154 21:35:16  -869.786953c -6.60  -4.09c   +68.3305
iter: 155 21:36:53  -869.786872c -7.19  -4.10c   +68.3324
iter: 156 21:38:31  -869.787135c -6.88  -4.24c   +68.3262
iter: 157 21:40:08  -869.787154c -6.75  -4.21c   +68.3257
iter: 158 21:41:46  -869.787288c -6.88  -4.13c   +68.3230
iter: 159 21:43:23  -869.787769c -6.52  -4.20c   +68.3207
iter: 160 21:45:01  -869.787384c -6.51  -4.08c   +68.3152
iter: 161 21:46:39  -869.787621c -6.53  -4.18c   +68.3060
iter: 162 21:48:16  -869.787609c -6.99  -4.22c   +68.3075
iter: 163 21:49:54  -869.787808c -6.99  -4.36c   +68.3010
iter: 164 21:51:32  -869.787815c -7.29  -4.40c   +68.2993
iter: 165 21:53:09  -869.787946c -7.24  -4.53c   +68.2944
iter: 166 21:54:47  -869.788496c -6.06  -4.50c   +68.2735
iter: 167 21:56:24  -869.788242c -6.84  -4.31c   +68.2870
iter: 168 21:58:02  -869.788523c -6.89  -4.42c   +68.2799
iter: 169 21:59:40  -869.789281c -6.04  -4.38c   +68.2643
iter: 170 22:01:17  -869.789350c -6.77  -4.24c   +68.2640
iter: 171 22:02:55  -869.789536c -7.00  -4.21c   +68.2631
iter: 172 22:04:32  -869.789285c -6.98  -4.15c   +68.2643
iter: 173 22:06:10  -869.789877c -6.61  -4.10c   +68.2625
iter: 174 22:07:48  -869.789583c -6.37  -4.08c   +68.2633
iter: 175 22:09:25  -869.789652c -6.84  -4.04c   +68.2527
iter: 176 22:11:03  -869.789768c -6.66  -4.16c   +68.2505
iter: 177 22:12:40  -869.789624c -6.89  -4.11c   +68.2457
iter: 178 22:14:18  -869.789673c -7.29  -4.29c   +68.2393
iter: 179 22:15:56  -869.789785c -7.01  -4.27c   +68.2333
iter: 180 22:17:33  -869.789929c -6.69  -4.26c   +68.2308
iter: 181 22:19:11  -869.789841c -6.75  -4.18c   +68.2297
iter: 182 22:20:48  -869.789939c -6.72  -4.22c   +68.2226
iter: 183 22:22:26  -869.790016c -6.70  -4.24c   +68.2231
iter: 184 22:24:03  -869.790031c -6.85  -4.19c   +68.2215
iter: 185 22:25:41  -869.789951c -7.22  -4.31c   +68.2184
iter: 186 22:27:19  -869.789977c -7.55c -4.51c   +68.2164

Converged after 186 iterations.

Dipole moment: (-10.420031, 7.853809, 8.470064) |e|*Ang

Total magnetic moment: (0.000000, 0.000000, 68.216449)
Local magnetic moments:
   0 Ni ( 0.000000,  0.000000,  0.307590)
   1 Ni ( 0.000000,  0.000000,  0.272915)
   2 Fe ( 0.000000,  0.000000,  2.290977)
   3 Cr ( 0.000000,  0.000000, -0.629701)
   4 Fe ( 0.000000,  0.000000,  2.114164)
   5 Co ( 0.000000,  0.000000,  1.014803)
   6 Co ( 0.000000,  0.000000,  1.191729)
   7 Ni ( 0.000000,  0.000000,  0.267575)
   8 Ni ( 0.000000,  0.000000,  0.396373)
   9 Co ( 0.000000,  0.000000,  1.220795)
  10 Ni ( 0.000000,  0.000000,  0.335800)
  11 Co ( 0.000000,  0.000000,  1.154325)
  12 Fe ( 0.000000,  0.000000,  2.002987)
  13 Ni ( 0.000000,  0.000000,  0.389507)
  14 Cr ( 0.000000,  0.000000, -1.496693)
  15 Co ( 0.000000,  0.000000,  1.252368)
  16 Ni ( 0.000000,  0.000000,  0.251175)
  17 Co ( 0.000000,  0.000000,  0.957524)
  18 Fe ( 0.000000,  0.000000,  1.991726)
  19 Ni ( 0.000000,  0.000000,  0.159167)
  20 Al ( 0.000000,  0.000000, -0.022038)
  21 Cr ( 0.000000,  0.000000, -1.331885)
  22 Ni ( 0.000000,  0.000000,  0.197686)
  23 Fe ( 0.000000,  0.000000,  1.933907)
  24 Ni ( 0.000000,  0.000000,  0.400170)
  25 Cr ( 0.000000,  0.000000, -1.729693)
  26 Co ( 0.000000,  0.000000,  1.323798)
  27 Co ( 0.000000,  0.000000,  1.185648)
  28 Cr ( 0.000000,  0.000000, -0.855717)
  29 Ni ( 0.000000,  0.000000,  0.283418)
  30 Ni ( 0.000000,  0.000000,  0.099951)
  31 Cr ( 0.000000,  0.000000, -1.538683)
  32 Cr ( 0.000000,  0.000000,  1.268590)
  33 Co ( 0.000000,  0.000000,  1.245295)
  34 Co ( 0.000000,  0.000000,  1.156630)
  35 Co ( 0.000000,  0.000000,  1.122377)
  36 Cr ( 0.000000,  0.000000, -1.776489)
  37 Fe ( 0.000000,  0.000000,  1.835339)
  38 Fe ( 0.000000,  0.000000,  2.183580)
  39 Co ( 0.000000,  0.000000,  1.210678)
  40 Ni ( 0.000000,  0.000000,  0.324250)
  41 Fe ( 0.000000,  0.000000,  1.764826)
  42 Co ( 0.000000,  0.000000,  0.822668)
  43 Al ( 0.000000,  0.000000, -0.031222)
  44 Ni ( 0.000000,  0.000000,  0.353429)
  45 Ni ( 0.000000,  0.000000,  0.093012)
  46 Co ( 0.000000,  0.000000,  1.056469)
  47 Fe ( 0.000000,  0.000000,  2.308124)
  48 Ni ( 0.000000,  0.000000,  0.339962)
  49 Co ( 0.000000,  0.000000,  1.223850)
  50 Cr ( 0.000000,  0.000000, -1.336197)
  51 Fe ( 0.000000,  0.000000,  1.989236)
  52 Cr ( 0.000000,  0.000000,  0.826571)
  53 Al ( 0.000000,  0.000000, -0.031977)
  54 Co ( 0.000000,  0.000000,  0.533232)
  55 Cr ( 0.000000,  0.000000,  0.283691)
  56 Cr ( 0.000000,  0.000000, -1.032114)
  57 Ni ( 0.000000,  0.000000,  0.244379)
  58 Cr ( 0.000000,  0.000000, -1.461615)
  59 Fe ( 0.000000,  0.000000,  2.133486)
[...]
  93 Cr ( 0.000000,  0.000000,  0.431783)
  94 Al ( 0.000000,  0.000000, -0.035248)
  95 Fe ( 0.000000,  0.000000,  2.033556)
  96 Fe ( 0.000000,  0.000000,  2.330246)
  97 Fe ( 0.000000,  0.000000,  2.269198)
  98 Co ( 0.000000,  0.000000,  1.448506)
  99 Ni ( 0.000000,  0.000000,  0.546517)
 100 Co ( 0.000000,  0.000000,  1.308952)
 101 Fe ( 0.000000,  0.000000,  2.147107)
 102 Co ( 0.000000,  0.000000,  0.350083)
 103 Cr ( 0.000000,  0.000000, -1.628382)
 104 Co ( 0.000000,  0.000000,  0.803564)
 105 Al ( 0.000000,  0.000000, -0.013968)
 106 Cr ( 0.000000,  0.000000, -1.773070)
 107 Ni ( 0.000000,  0.000000,  0.283674)

Energy contributions relative to reference atoms: (reference = -3699400.456887)

Kinetic:       +158.606196
Potential:     -206.160810
External:        +0.000000
XC:            -857.725687
Entropy (-ST):   -4.595721
Local:          +37.788184
Free energy:   -872.087838
Extrapolated:  -869.789977

Spin contamination: 27.123572 electrons
Showing only first 2 kpts
                      Up                     Down
 Kpt  Band  Eigenvalues  Occupancy  Eigenvalues  Occupancy
  0   508      9.63336    0.99433     10.54928    0.01811
  0   509      9.64001    0.99394     10.56203    0.01598
  0   510      9.65695    0.99283     10.58250    0.01306
  0   511      9.67161    0.99170     10.58678    0.01252

  1   508      9.63149    0.99443     10.55150    0.01772
  1   509      9.63524    0.99422     10.55670    0.01684
  1   510      9.65765    0.99278     10.57042    0.01471
  1   511      9.66681    0.99209     10.57493    0.01407

Fermi level: 10.14997

No gap

Forces in eV/Ang:
  0 Ni   -0.04953    0.26503    0.45145
  1 Ni    0.05567   -0.28844   -0.13153
  2 Fe   -0.25899    0.43071    0.09935
  3 Cr    0.15769   -0.06659    0.07617
  4 Fe    0.44145    0.00244    0.00855
  5 Co    0.03977   -0.02920    0.03277
  6 Co    0.16571    0.05140   -0.04297
  7 Ni   -0.27164   -0.36219    0.06114
  8 Ni   -0.31132   -0.12350   -0.03951
  9 Co   -0.18063   -0.14743    0.23411
 10 Ni    0.07335    0.15321   -0.04970
 11 Co    0.55157   -0.41936    0.55174
 12 Fe    0.22072   -0.13240    0.76760
 13 Ni   -0.07636    0.12462   -0.14024
 14 Cr   -0.00411   -0.11620    0.23606
 15 Co   -0.00367   -0.01482    0.11772
 16 Ni   -0.05107   -0.10423    0.21780
 17 Co    0.23051   -0.12079    0.07266
 18 Fe   -0.42742   -0.28852    0.11425
 19 Ni    0.18172    0.30927    0.10819
 20 Al   -0.25828   -0.91956    0.87552
 21 Cr   -0.18097    1.02273    0.26614
 22 Ni    0.13603   -0.41121    0.09042
 23 Fe    0.19135    0.70238    0.37722
 24 Ni   -0.28512    0.07321    0.17106
 25 Cr   -0.20766   -0.40512   -0.64958
 26 Co   -0.01488   -0.05531    0.02618
 27 Co    0.01495    0.05577    0.06845
 28 Cr   -0.13084   -0.10593   -0.31667
 29 Ni   -0.04404    0.23371   -0.33431
 30 Ni    0.34324    0.01014   -0.13300
 31 Cr   -0.11582    0.33748    0.20831
 32 Cr   -0.01072   -0.01312    0.71541
 33 Co    0.14360   -0.12245   -0.30779
 34 Co   -0.26299    0.28297   -0.36494
 35 Co   -0.13509   -0.31114    0.33434
 36 Cr    0.03534    0.49753    0.17323
 37 Fe    0.22397    0.05527    0.17798
 38 Fe    0.01774   -0.12252   -0.10600
 39 Co   -0.11605    0.10892   -0.34623
 40 Ni    0.20621    0.48575   -0.01265
 41 Fe   -0.10715   -0.14596    0.23427
 42 Co   -0.07711   -0.45831    0.13701
 43 Al   -0.06243   -0.68736   -0.14467
 44 Ni   -0.03147   -0.13135   -0.00542
 45 Ni   -0.19214   -0.11596    0.06439
 46 Co   -0.15773   -0.06599    0.10000
 47 Fe    0.00814   -0.09503   -0.32019
 48 Ni    0.29571   -0.14494   -0.18766
 49 Co    0.07122   -0.12651    0.13267
 50 Cr   -1.20550   -0.49147   -0.37988
 51 Fe   -0.33229   -0.02797   -0.33345
 52 Cr    0.32959   -0.35163   -0.35613
 53 Al    0.25086    0.48546    0.52203
 54 Co    0.26959   -0.33811   -0.34424
 55 Cr    0.35062   -0.37536   -0.45512
 56 Cr   -0.19520    0.58100   -0.16072
 57 Ni   -0.18385    0.09864    0.03002
 58 Cr    0.50241    0.14319    0.32897
 59 Fe   -0.12217   -0.16842   -0.12461
[...]
 93 Cr   -0.89986    1.20202   -0.17984
 94 Al    0.15743    0.06211   -0.41003
 95 Fe   -0.08827    0.00373   -0.42657
 96 Fe   -0.00641    0.04279   -0.29489
 97 Fe    0.30563    0.01841    0.32398
 98 Co    0.07138    0.10385    0.10454
 99 Ni   -0.08489    0.16281   -0.06768
100 Co    0.02585    0.35543    0.40559
101 Fe    0.32559    0.20922   -0.18382
102 Co    0.11592   -0.24582    0.22764
103 Cr   -0.36860    0.34121   -0.39716
104 Co   -0.03440   -0.06928   -0.22607
105 Al   -0.30133    0.05793    0.42839
106 Cr    0.51031   -0.75882    0.38068
107 Ni   -0.16873    0.19046   -0.48505

Date: Sat Apr 15 22:27:39 2023