User:   c.zeng@d0090
Date:   Sat Apr 15 11:26:04 2023
Arch:   x86_64
Pid:    133424
CWD:    /home/c.zeng/projects/hea-corrosion/hea-mlp/data-curation/bulk-mcmc/dft-jobs/29
Python: 3.8.1
gpaw:   /home/c.zeng/usr/installs/gpaw/source/gpaw-22.8.0/gpaw
_gpaw:  /home/c.zeng/usr/installs/gpaw/source/gpaw-22.8.0/
        _gpaw.cpython-38-x86_64-linux-gnu.so
ase:    /home/c.zeng/.local/lib/python3.8/site-packages/ase-3.22.1-py3.8.egg/ase (version 3.22.1)
numpy:  /shared/centos7/python/3.8.1/lib/python3.8/site-packages/numpy (version 1.17.4)
scipy:  /shared/centos7/python/3.8.1/lib/python3.8/site-packages/scipy (version 1.4.1)
units:  Angstrom and eV
cores: 30
OpenMP: False
OMP_NUM_THREADS: 1

Input parameters:
  convergence: {energy: 0.0001}
  kpts: [2 2 2]
  maxiter: 666
  mode: {ecut: 350.0,
         name: pw}
  occupations: {fixmagmom: False,
                name: fermi-dirac,
                width: 0.1}
  spinpol: True
  xc: PBE

System changes: positions, numbers, cell, pbc, initial_charges, initial_magmoms

Initialize ...

species:
  Co:
    name: Cobalt
    id: 339d20d5b0b93d2de9531a1bee871d91
    Z: 27.0
    valence: 9
    core: 18
    charge: 0.0
    file: /home/c.zeng/usr/data/gpaw-setups-0.9.20000/Co.PBE.gz
    compensation charges: {type: gauss,
                           rc: 0.32,
                           lmax: 2}
    cutoffs: {filter: 1.87,
              core: 2.55}
    valence states:
      #              energy  rcut
      - 4s(2.00)    -5.469   1.005
      - 4p(0.00)    -1.277   1.058
      - 3d(7.00)    -8.205   1.005
      -  s          21.742   1.005
      -  p          25.934   1.058
      -  d          19.007   1.005

    # Using partial waves for Co as LCAO basis

  Fe:
    name: Iron
    id: 37abbd8d6c3c35915a9b583b742da910
    Z: 26.0
    valence: 8
    core: 18
    charge: 0.0
    file: /home/c.zeng/usr/data/gpaw-setups-0.9.20000/Fe.PBE.gz
    compensation charges: {type: gauss,
                           rc: 0.33,
                           lmax: 2}
    cutoffs: {filter: 2.06,
              core: 2.67}
    valence states:
      #              energy  rcut
      - 4s(2.00)    -5.291   1.164
      - 4p(0.00)    -1.326   1.058
      - 3d(6.00)    -7.505   1.058
      -  s          21.920   1.164
      -  p          25.885   1.058
      -  d          19.706   1.058

[...]

  Ni:
    name: Nickel
    id: 0d9f38a9d6e76a2886f07bb4381f212b
    Z: 28.0
    valence: 16
    core: 12
    charge: 0.0
    file: /home/c.zeng/usr/data/gpaw-setups-0.9.20000/Ni.PBE.gz
    compensation charges: {type: gauss,
                           rc: 0.36,
                           lmax: 2}
    cutoffs: {filter: 2.14,
              core: 1.98}
    valence states:
      #              energy  rcut
      - 4s(2.00)    -5.642   1.164
      - 3p(6.00)   -71.394   1.207
      - 4p(0.00)    -1.226   1.207
      - 3d(8.00)    -8.875   1.138
      -  s          21.570   1.164
      -  d          18.337   1.138

[...]

  Cr:
    name: Chromium
    id: 33f258bda2ca9f93018e70263a35547b
    Z: 24.0
    valence: 6
    core: 18
    charge: 0.0
    file: /home/c.zeng/usr/data/gpaw-setups-0.9.20000/Cr.PBE.gz
    compensation charges: {type: gauss,
                           rc: 0.35,
                           lmax: 2}
    cutoffs: {filter: 2.14,
              core: 3.04}
    valence states:
      #              energy  rcut
      - 4s(1.00)    -4.007   1.164
      - 4p(0.00)    -0.989   1.217
      - 3d(5.00)    -2.913   1.111
      -  s          23.205   1.164
      -  p          26.223   1.217
      -  d          24.299   1.111

    # Using partial waves for Cr as LCAO basis

Reference energy: -3846758.590871  # eV

Spin-polarized calculation.
Magnetic moment: 151.200000

Convergence criteria:
 Maximum [total energy] change in last 3 cyles: 0.0001 eV / electron
 Maximum integral of absolute [dens]ity change: 0.0001 electrons / valence electron
 Maximum integral of absolute [eigenst]ate change: 4e-08 eV^2 / valence electron
 Maximum number of scf [iter]ations: 666
 (Square brackets indicate name in SCF output, whereas a 'c' in
 the SCF output indicates the quantity has converged.)

Symmetries present (total): 1

  ( 1  0  0)
  ( 0  1  0)
  ( 0  0  1)

8 k-points: 2 x 2 x 2 Monkhorst-Pack grid
4 k-points in the irreducible part of the Brillouin zone
       k-points in crystal coordinates                weights
   0:     0.25000000   -0.25000000   -0.25000000          2/8
   1:     0.25000000   -0.25000000    0.25000000          2/8
   2:     0.25000000    0.25000000   -0.25000000          2/8
   3:     0.25000000    0.25000000    0.25000000          2/8

Wave functions: Plane wave expansion
  Cutoff energy: 350.000 eV
  Number of coefficients (min, max): 17755, 17755
  Pulay-stress correction: 0.000000 eV/Ang^3 (de/decut=0.000000)
  Using FFTW library
  ScaLapack parameters: grid=1x1, blocksize=None
  Wavefunction extrapolation:
    Improved wavefunction reuse through dual PAW basis

Occupation numbers: Fermi-Dirac:
  width: 0.1000  # eV

Eigensolver
   Davidson(niter=2)

Densities:
  Coarse grid: 48*48*48 grid
  Fine grid: 96*96*96 grid
  Total Charge: 0.000000

Density mixing:
  Method: difference
  Backend: pulay
  Linear mixing parameter: 0.05
  old densities: 5
  Damping of long wavelength oscillations: 50

Hamiltonian:
  XC and Coulomb potentials evaluated on a 96*96*96 grid
  Using the PBE Exchange-Correlation functional
  External potential:
    NoExternalPotential

XC parameters: PBE with 2 nearest neighbor stencil

Total number of cores used: 30
Parallelization over k-points: 2
Domain decomposition: 5 x 3 x 1

Number of atoms: 108
Number of atomic orbitals: 1053
Number of bands in calculation: 727
Number of valence electrons: 1053
Bands to converge: occupied

... initialized

Initializing position-dependent things.

Density initialized from atomic densities
Creating initial wave functions:
  727 bands from LCAO basis set

       /|  Cr       Cr      Cr    |
      / |   CrFe     Ni           |
     /  |       Co      Fe       Fe
    /   |Cr      CFe       Co     Cr
   /    | Co       Ni       CFe   |
  /  CCo|  FeNi     CoNi          |
 *    NiNi    FeCr   FeNiCo       |
 |      |CoNi   FeFeCr  CoNiFe   Ni
 |      | NiCo     CoNiFeCrCrCr   |
 |    Co|  CoFeCr   CoCrFe   NiCo |
 |      Cr    CrNiNi NiCrCr     Ni|
 |      |FeFe  CoFeNi   FeNiFe   Cr
 |      .-FeCo-----NiCrFe--NiCr---Co
 |   Nio     Fe       Cr         /
 |    CrCo     Cor     CCre     /
 |   /    Co               Ni  /
 |  /      Fe       Fe    CrFe/
 | / Fe     Ni       NiCr    /
 |/            Co       Ni  /
 *--------Co------Co-------*

Positions:
   0 Co    -0.012479   -0.003723   10.616104    ( 0.0000,  0.0000,  2.1000)
   1 Fe    -0.011321    1.761305    1.763386    ( 0.0000,  0.0000,  2.1000)
   2 Fe     1.758365    0.001326    1.769011    ( 0.0000,  0.0000,  2.0000)
   3 Co     1.752686    1.779222   10.610436    ( 0.0000,  0.0000,  2.0000)
   4 Co     3.541196    0.004726   10.616104    ( 0.0000,  0.0000,  0.0000)
   5 Fe     3.534711    1.782438    1.778999    ( 0.0000,  0.0000,  0.0000)
   6 Ni     5.305717   10.600629    1.767950    ( 0.0000,  0.0000,  2.1000)
   7 Co     5.324780    1.765604   10.614618    ( 0.0000,  0.0000,  0.0000)
   8 Co     7.089121    0.014598   10.619926    ( 0.0000,  0.0000,  2.0000)
   9 Fe     7.085279    1.771219    1.773543    ( 0.0000,  0.0000,  1.5000)
  10 Cr     8.850554    0.011470    1.768756    ( 0.0000,  0.0000,  1.5000)
  11 Ni     8.842381    1.777333   10.615680    ( 0.0000,  0.0000,  2.1000)
  12 Fe    10.590535    3.538203   -0.001956    ( 0.0000,  0.0000,  0.0000)
  13 Ni    10.624277    5.310674    1.769786    ( 0.0000,  0.0000,  2.0000)
  14 Co     1.761379    3.535623    1.784572    ( 0.0000,  0.0000,  0.0000)
  15 Cr     1.770200    5.301408   10.611753    ( 0.0000,  0.0000,  2.0000)
  16 Ni     3.556003    3.551407   10.618333    ( 0.0000,  0.0000,  1.5000)
  17 Fe     3.539370    5.311290    1.775199    ( 0.0000,  0.0000,  2.1000)
  18 Cr     5.320142    3.545059    1.779678    ( 0.0000,  0.0000,  1.5000)
  19 Fe     5.306980    5.314654   10.602720    ( 0.0000,  0.0000,  0.0000)
  20 Ni     7.081585    3.529127   10.614725    ( 0.0000,  0.0000,  2.1000)
  21 Cr     7.069241    5.303361    1.781271    ( 0.0000,  0.0000,  1.5000)
  22 Fe     8.841447    3.542671    1.781600    ( 0.0000,  0.0000,  2.1000)
  23 Cr     8.850893    5.290379    0.000220    ( 0.0000,  0.0000,  0.0000)
  24 Cr     0.005868    7.083411   10.614937    ( 0.0000,  0.0000,  2.0000)
  25 Cr    10.601043    8.849694    1.772960    ( 0.0000,  0.0000,  2.1000)
  26 Fe     1.773713    7.072329    1.777184    ( 0.0000,  0.0000,  0.0000)
  27 Cr     1.755520    8.842943   10.608324    ( 0.0000,  0.0000,  0.0000)
  28 Fe     3.544009    7.063116   10.610489    ( 0.0000,  0.0000,  2.0000)
  29 Co     3.542225    8.826820    1.785580    ( 0.0000,  0.0000,  0.0000)
  30 Ni     5.309835    7.081776    1.776600    ( 0.0000,  0.0000,  2.1000)
  31 Cr     5.331945    8.840321   10.604673    ( 0.0000,  0.0000,  2.1000)
  32 Co     7.068434    7.069028   10.623110    ( 0.0000,  0.0000,  0.0000)
  33 Fe     7.083750    8.846796    1.774509    ( 0.0000,  0.0000,  1.5000)
  34 Ni     8.841404    7.058180    1.777173    ( 0.0000,  0.0000,  1.5000)
  35 Cr     8.835524    8.853600   10.611753    ( 0.0000,  0.0000,  0.0000)
  36 Ni    -0.009351   10.618864    3.531070    ( 0.0000,  0.0000,  2.0000)
  37 Fe    10.602508    1.764818    5.300452    ( 0.0000,  0.0000,  1.5000)
  38 Ni     1.756720    0.001379    5.295867    ( 0.0000,  0.0000,  0.0000)
  39 Co     1.766506    1.767154    3.539222    ( 0.0000,  0.0000,  2.0000)
  40 Co     3.539742    0.013881    3.542873    ( 0.0000,  0.0000,  2.0000)
  41 Fe     3.548944    1.788658    5.306237    ( 0.0000,  0.0000,  2.1000)
  42 Fe     5.320174   -0.004685    5.301386    ( 0.0000,  0.0000,  0.0000)
  43 Co     5.316862    1.765551    3.538935    ( 0.0000,  0.0000,  2.0000)
  44 Cr     7.081086   -0.000289    3.531325    ( 0.0000,  0.0000,  2.0000)
  45 Ni     7.072902    1.777407    5.300537    ( 0.0000,  0.0000,  2.0000)
  46 Fe     8.840544    0.012372    5.307851    ( 0.0000,  0.0000,  1.5000)
  47 Cr     8.833592    1.767928    3.534318    ( 0.0000,  0.0000,  2.1000)
  48 Cr    -0.004066    3.525285    3.545951    ( 0.0000,  0.0000,  0.0000)
  49 Co    -0.001689    5.317934    5.307787    ( 0.0000,  0.0000,  1.5000)
  50 Cr     1.769043    3.555101    5.297279    ( 0.0000,  0.0000,  2.0000)
  51 Fe     1.773692    5.305929    3.538266    ( 0.0000,  0.0000,  2.1000)
  52 Co     3.542746    3.537364    3.547575    ( 0.0000,  0.0000,  2.1000)
  53 Fe     3.548477    5.306927    5.301153    ( 0.0000,  0.0000,  2.0000)
  54 Ni     5.316246    3.553031    5.303637    ( 0.0000,  0.0000,  2.0000)
  55 Fe     5.303286    5.303531    3.542385    ( 0.0000,  0.0000,  1.5000)
  56 Cr     7.074962    3.533023    3.537215    ( 0.0000,  0.0000,  1.5000)
  57 Cr     7.066046    5.306046    5.300081    ( 0.0000,  0.0000,  2.0000)
  58 Cr     8.834526    3.538160    5.294530    ( 0.0000,  0.0000,  2.1000)
  59 Ni     8.846255    5.300452    3.537672    ( 0.0000,  0.0000,  1.5000)
[...]
[...]
  98 Co     1.777938    7.075503    8.840194    ( 0.0000,  0.0000,  2.0000)
  99 Fe     1.758800    8.840035    7.069803    ( 0.0000,  0.0000,  0.0000)
 100 Fe     3.549921    7.066194    7.070090    ( 0.0000,  0.0000,  2.1000)
 101 Co     3.553137    8.839111    8.836776    ( 0.0000,  0.0000,  0.0000)
 102 Ni     5.304189    7.079929    8.840215    ( 0.0000,  0.0000,  2.0000)
 103 Co     5.321946    8.832180    7.082997    ( 0.0000,  0.0000,  2.1000)
 104 Ni     7.057077    7.072149    7.064167    ( 0.0000,  0.0000,  1.5000)
 105 Fe     7.082402    8.855500    8.837487    ( 0.0000,  0.0000,  2.1000)
 106 Co     8.846786    7.077881    8.846732    ( 0.0000,  0.0000,  0.0000)
 107 Cr     8.839313    8.848272    7.075153    ( 0.0000,  0.0000,  0.0000)

Unit cell:
           periodic     x           y           z      points  spacing
  1. axis:    yes   10.614300    0.000000    0.000000    48     0.2211
  2. axis:    yes    0.000000   10.614300    0.000000    48     0.2211
  3. axis:    yes    0.000000    0.000000   10.614300    48     0.2211

  Lengths:  10.614300  10.614300  10.614300
  Angles:   90.000000  90.000000  90.000000

Effective grid spacing dv^(1/3) = 0.2211

     iter     time        total  log10-change:  magmom
                         energy  eigst   dens
iter:   1 11:30:41  -970.196412                  +151.1418
iter:   2 11:32:29  -961.722763  -0.54  -1.34    +115.2030
iter:   3 11:34:17  -925.631488  -0.90  -1.30    +86.8933
iter:   4 11:36:06  -897.546295  -1.35  -1.36    +71.8016
iter:   5 11:37:53  -891.574397  -1.92  -1.47    +64.4349
iter:   6 11:39:42  -895.749018  -1.95  -1.51    +60.1052
iter:   7 11:41:30  -899.192833  -1.66  -1.53    +58.1829
iter:   8 11:43:19  -887.607925  -1.69  -1.54    +56.4678
iter:   9 11:45:08  -895.262732  -1.78  -1.75    +55.5812
iter:  10 11:46:56  -890.827714  -1.95  -1.71    +54.8107
iter:  11 11:48:45  -886.721394  -2.36  -1.79    +54.2175
iter:  12 11:50:33  -886.626144  -2.66  -1.92    +55.1283
iter:  13 11:52:22  -887.503507  -2.69  -1.95    +55.6796
iter:  14 11:54:10  -886.976127  -2.74  -1.96    +56.2062
iter:  15 11:55:58  -887.689493  -2.87  -1.99    +56.8534
iter:  16 11:57:47  -890.090099  -2.53  -2.02    +57.6079
iter:  17 11:59:36  -889.059387  -2.51  -1.94    +58.0554
iter:  18 12:01:25  -889.192941  -2.55  -2.03    +58.4901
iter:  19 12:03:14  -889.242837  -2.67  -2.06    +58.7079
iter:  20 12:05:03  -888.906446  -2.63  -2.10    +59.1111
iter:  21 12:06:51  -888.350273  -3.04  -2.10    +59.8961
iter:  22 12:08:39  -888.189028  -3.18  -2.19    +60.4305
iter:  23 12:10:29  -888.192062  -3.44  -2.24    +60.9565
iter:  24 12:12:17  -888.361700  -3.51  -2.27    +61.6417
iter:  25 12:14:06  -888.598114  -3.48  -2.28    +62.2994
iter:  26 12:15:54  -889.441606  -2.97  -2.30    +62.7094
iter:  27 12:17:28  -889.345141  -3.06  -2.20    +62.8036
iter:  28 12:19:01  -889.581796  -2.97  -2.27    +63.4969
iter:  29 12:20:34  -889.596778  -2.97  -2.24    +63.8941
iter:  30 12:22:08  -889.138248  -3.18  -2.26    +64.1222
iter:  31 12:23:41  -888.930788  -3.65  -2.36    +63.9861
iter:  32 12:25:14  -888.922126  -4.01  -2.45    +64.2608
iter:  33 12:26:47  -888.962259c -4.27  -2.47    +64.6091
iter:  34 12:28:20  -889.186546  -3.78  -2.50    +64.9876
iter:  35 12:29:53  -889.620291  -3.31  -2.48    +64.9391
iter:  36 12:31:26  -889.382567  -3.36  -2.37    +65.0070
iter:  37 12:32:59  -889.616619  -3.23  -2.56    +65.2400
iter:  38 12:34:32  -889.454902  -3.36  -2.45    +65.1653
iter:  39 12:36:06  -889.310737  -3.60  -2.55    +64.8825
iter:  40 12:37:39  -889.201156  -4.02  -2.66    +65.0323
iter:  41 12:39:12  -889.193539  -4.36  -2.82    +65.0787
iter:  42 12:40:45  -889.193415c -4.99  -2.87    +65.1479
iter:  43 12:42:18  -889.257504c -4.30  -2.94    +65.2246
iter:  44 12:43:52  -889.238111c -4.47  -2.86    +65.2406
iter:  45 12:45:26  -889.284910c -4.21  -2.98    +65.3128
iter:  46 12:47:11  -889.298236c -4.14  -2.93    +65.2836
iter:  47 12:49:02  -889.291030c -4.23  -2.92    +65.3880
iter:  48 12:50:51  -889.276527c -4.44  -3.03    +65.4530
iter:  49 12:52:42  -889.282386c -4.86  -3.17    +65.5299
iter:  50 12:54:32  -889.290112c -5.02  -3.24    +65.5400
iter:  51 12:56:20  -889.306189c -5.03  -3.34    +65.6273
iter:  52 12:58:10  -889.365025c -3.99  -3.30    +65.9657
iter:  53 13:00:00  -889.397467c -4.27  -3.19    +66.1288
iter:  54 13:01:49  -889.395543c -5.22  -3.11    +66.1060
iter:  55 13:03:39  -889.405701c -5.07  -3.10    +66.1873
iter:  56 13:05:30  -889.431964c -4.69  -3.10    +66.3192
iter:  57 13:07:19  -889.420804c -4.77  -3.00    +66.2716
iter:  58 13:09:08  -889.483969c -4.08  -3.04    +66.3942
iter:  59 13:10:58  -889.470770c -4.02  -2.82    +66.3693
iter:  60 13:12:48  -889.469891c -3.97  -2.83    +66.3291
iter:  61 13:14:37  -889.421641c -4.33  -2.89    +66.2112
iter:  62 13:16:26  -889.438629c -4.42  -3.08    +66.3034
iter:  63 13:18:16  -889.418970c -4.87  -3.04    +66.3404
iter:  64 13:20:05  -889.426077c -5.09  -3.22    +66.3278
iter:  65 13:21:55  -889.424578c -5.89  -3.28    +66.3326
iter:  66 13:23:45  -889.438132c -5.19  -3.32    +66.3901
iter:  67 13:25:35  -889.389211c -4.07  -3.34    +66.1014
iter:  68 13:27:24  -889.383558c -4.29  -3.44    +65.9062
iter:  69 13:29:14  -889.387461c -4.99  -3.37    +65.8980
iter:  70 13:31:04  -889.383625c -5.30  -3.42    +65.8204
iter:  71 13:32:53  -889.383599c -5.47  -3.49    +65.7642
iter:  72 13:34:44  -889.383577c -5.79  -3.52    +65.7523
iter:  73 13:36:33  -889.385883c -5.63  -3.62    +65.7276
iter:  74 13:38:24  -889.386087c -5.57  -3.57    +65.7148
iter:  75 13:40:02  -889.387178c -5.63  -3.58    +65.7103
iter:  76 13:41:35  -889.389270c -5.59  -3.62    +65.7177
iter:  77 13:43:08  -889.389801c -5.64  -3.58    +65.6884
iter:  78 13:44:42  -889.391109c -5.67  -3.67    +65.7184
iter:  79 13:46:16  -889.391704c -6.15  -3.77    +65.7162
iter:  80 13:47:49  -889.394412c -5.87  -3.81    +65.7326
iter:  81 13:49:22  -889.392948c -6.30  -3.79    +65.7560
iter:  82 13:50:55  -889.396008c -5.95  -3.89    +65.7989
iter:  83 13:52:28  -889.392017c -5.72  -3.86    +65.7298
iter:  84 13:54:02  -889.389474c -5.41  -3.81    +65.6278
iter:  85 13:55:39  -889.392179c -5.87  -3.78    +65.6344
iter:  86 13:58:00  -889.390996c -6.52  -3.81    +65.6338
iter:  87 14:00:29  -889.394402c -5.93  -3.92    +65.6623
iter:  88 14:02:59  -889.382989c -4.72  -3.96    +65.5345
iter:  89 14:05:28  -889.382260c -5.48  -3.86    +65.4517
iter:  90 14:07:57  -889.382818c -5.99  -3.88    +65.3915
iter:  91 14:10:27  -889.383894c -5.88  -3.86    +65.3088
iter:  92 14:12:57  -889.385630c -5.89  -3.87    +65.2523
iter:  93 14:15:27  -889.387223c -5.76  -3.81    +65.2045
iter:  94 14:17:58  -889.386053c -6.13  -3.79    +65.2411
iter:  95 14:20:28  -889.387537c -5.99  -3.74    +65.2192
iter:  96 14:22:58  -889.386710c -6.12  -3.74    +65.2224
iter:  97 14:25:28  -889.387867c -5.65  -3.83    +65.2157
iter:  98 14:27:58  -889.387221c -6.03  -3.65    +65.2209
iter:  99 14:30:28  -889.387759c -6.07  -3.93    +65.2173
iter: 100 14:32:59  -889.388531c -6.09  -3.93    +65.2240
iter: 101 14:35:29  -889.388386c -6.34  -3.88    +65.2321
iter: 102 14:37:59  -889.389371c -6.22  -3.97    +65.2403
iter: 103 14:40:30  -889.389172c -6.77  -4.05c   +65.2342
iter: 104 14:43:00  -889.389665c -6.36  -4.05c   +65.2247
iter: 105 14:45:30  -889.389374c -6.94  -4.10c   +65.2284
iter: 106 14:48:00  -889.389953c -6.33  -4.12c   +65.2384
iter: 107 14:50:30  -889.391027c -6.26  -4.03c   +65.2549
iter: 108 14:53:00  -889.390167c -6.43  -4.09c   +65.2394
iter: 109 14:55:31  -889.391337c -6.33  -4.12c   +65.2574
iter: 110 14:58:01  -889.389349c -5.90  -4.18c   +65.2058
iter: 111 15:00:31  -889.386865c -5.23  -4.16c   +65.0617
iter: 112 15:03:00  -889.387080c -6.32  -4.04c   +65.0561
iter: 113 15:05:31  -889.387611c -6.62  -4.08c   +65.0497
iter: 114 15:08:01  -889.388548c -6.16  -4.12c   +65.0486
iter: 115 15:10:31  -889.388319c -6.46  -4.09c   +65.0553
iter: 116 15:13:01  -889.389473c -5.94  -3.92    +65.0525
iter: 117 15:15:31  -889.389067c -6.45  -3.94    +65.0796
iter: 118 15:18:01  -889.389515c -6.33  -4.15c   +65.0890
iter: 119 15:20:31  -889.389217c -6.57  -4.10c   +65.0876
iter: 120 15:23:01  -889.389800c -6.49  -4.16c   +65.0934
iter: 121 15:25:31  -889.389770c -6.92  -4.26c   +65.0855
iter: 122 15:28:01  -889.390087c -6.58  -4.23c   +65.0880
iter: 123 15:30:31  -889.389907c -7.13  -4.28c   +65.0920
iter: 124 15:33:02  -889.390647c -6.58  -4.38c   +65.1143
iter: 125 15:35:32  -889.388723c -5.68  -4.42c   +65.0440
iter: 126 15:38:02  -889.387935c -5.62  -4.31c   +64.9858
iter: 127 15:40:32  -889.388034c -6.35  -4.22c   +64.9566
iter: 128 15:43:02  -889.388440c -6.21  -4.18c   +64.9046
iter: 129 15:45:33  -889.388510c -7.06  -4.09c   +64.9120
iter: 130 15:48:03  -889.389084c -6.57  -4.18c   +64.9044
iter: 131 15:50:33  -889.388599c -6.82  -3.89    +64.9035
iter: 132 15:53:04  -889.390303c -5.98  -4.17c   +64.8994
iter: 133 15:55:34  -889.389439c -6.02  -3.78    +64.9012
iter: 134 15:58:05  -889.389272c -6.25  -3.95    +64.8930
iter: 135 16:00:35  -889.389044c -6.26  -4.05c   +64.8880
iter: 136 16:03:05  -889.389129c -6.74  -4.00c   +64.8968
iter: 137 16:05:36  -889.389338c -7.09  -4.44c   +64.9017
iter: 138 16:08:06  -889.389338c -7.25  -4.47c   +64.9022
iter: 139 16:10:36  -889.389442c -7.25  -4.41c   +64.9001
iter: 140 16:13:06  -889.389509c -7.43c -4.46c   +64.9018

Converged after 140 iterations.

Dipole moment: (6.853547, -2.046873, 0.848103) |e|*Ang

Total magnetic moment: (0.000000, 0.000000, 64.901793)
Local magnetic moments:
   0 Co ( 0.000000,  0.000000,  0.544204)
   1 Fe ( 0.000000,  0.000000,  1.994111)
   2 Fe ( 0.000000,  0.000000,  2.079573)
   3 Co ( 0.000000,  0.000000,  1.300481)
   4 Co ( 0.000000,  0.000000,  1.154851)
   5 Fe ( 0.000000,  0.000000,  2.385683)
   6 Ni ( 0.000000,  0.000000,  0.395617)
   7 Co ( 0.000000,  0.000000,  1.232094)
   8 Co ( 0.000000,  0.000000,  0.893560)
   9 Fe ( 0.000000,  0.000000,  1.804439)
  10 Cr ( 0.000000,  0.000000, -0.005955)
  11 Ni ( 0.000000,  0.000000,  0.257628)
  12 Fe ( 0.000000,  0.000000, -0.441562)
  13 Ni ( 0.000000,  0.000000,  0.150661)
  14 Co ( 0.000000,  0.000000,  1.153123)
  15 Cr ( 0.000000,  0.000000, -1.207952)
  16 Ni ( 0.000000,  0.000000,  0.314404)
  17 Fe ( 0.000000,  0.000000,  2.065022)
  18 Cr ( 0.000000,  0.000000, -1.455814)
  19 Fe ( 0.000000,  0.000000,  2.232374)
  20 Ni ( 0.000000,  0.000000,  0.215250)
  21 Cr ( 0.000000,  0.000000,  0.916641)
  22 Fe ( 0.000000,  0.000000,  1.541415)
  23 Cr ( 0.000000,  0.000000, -1.009385)
  24 Cr ( 0.000000,  0.000000,  0.690992)
  25 Cr ( 0.000000,  0.000000, -0.169535)
  26 Fe ( 0.000000,  0.000000,  1.851557)
  27 Cr ( 0.000000,  0.000000, -1.170440)
  28 Fe ( 0.000000,  0.000000,  2.058260)
  29 Co ( 0.000000,  0.000000,  1.272321)
  30 Ni ( 0.000000,  0.000000,  0.270717)
  31 Cr ( 0.000000,  0.000000, -1.812516)
  32 Co ( 0.000000,  0.000000,  0.969843)
  33 Fe ( 0.000000,  0.000000,  2.044037)
  34 Ni ( 0.000000,  0.000000,  0.164406)
  35 Cr ( 0.000000,  0.000000, -1.220487)
  36 Ni ( 0.000000,  0.000000,  0.293538)
  37 Fe ( 0.000000,  0.000000,  1.775372)
  38 Ni ( 0.000000,  0.000000,  0.464090)
  39 Co ( 0.000000,  0.000000,  1.186543)
  40 Co ( 0.000000,  0.000000,  1.532861)
  41 Fe ( 0.000000,  0.000000,  2.283616)
  42 Fe ( 0.000000,  0.000000,  2.271557)
  43 Co ( 0.000000,  0.000000,  1.104332)
  44 Cr ( 0.000000,  0.000000, -1.382487)
  45 Ni ( 0.000000,  0.000000,  0.183815)
  46 Fe ( 0.000000,  0.000000,  1.871299)
  47 Cr ( 0.000000,  0.000000, -0.150913)
  48 Cr ( 0.000000,  0.000000, -1.171639)
  49 Co ( 0.000000,  0.000000,  0.153107)
  50 Cr ( 0.000000,  0.000000, -1.325728)
  51 Fe ( 0.000000,  0.000000,  1.978399)
  52 Co ( 0.000000,  0.000000,  1.095771)
  53 Fe ( 0.000000,  0.000000,  2.083974)
  54 Ni ( 0.000000,  0.000000,  0.268450)
  55 Fe ( 0.000000,  0.000000,  1.690994)
  56 Cr ( 0.000000,  0.000000, -0.506620)
  57 Cr ( 0.000000,  0.000000, -0.918063)
  58 Cr ( 0.000000,  0.000000,  0.307670)
  59 Ni ( 0.000000,  0.000000,  0.031746)
[...]
  93 Ni ( 0.000000,  0.000000,  0.357508)
  94 Co ( 0.000000,  0.000000,  1.074699)
  95 Ni ( 0.000000,  0.000000,  0.168871)
  96 Ni ( 0.000000,  0.000000,  0.322245)
  97 Fe ( 0.000000,  0.000000,  1.523080)
  98 Co ( 0.000000,  0.000000,  0.987133)
  99 Fe ( 0.000000,  0.000000,  2.301970)
 100 Fe ( 0.000000,  0.000000,  2.365061)
 101 Co ( 0.000000,  0.000000,  1.150015)
 102 Ni ( 0.000000,  0.000000,  0.418823)
 103 Co ( 0.000000,  0.000000,  1.607081)
 104 Ni ( 0.000000,  0.000000,  0.302895)
 105 Fe ( 0.000000,  0.000000,  2.170902)
 106 Co ( 0.000000,  0.000000,  1.019224)
 107 Cr ( 0.000000,  0.000000, -1.623286)

Energy contributions relative to reference atoms: (reference = -3846758.590871)

Kinetic:       +120.593490
Potential:     -187.835292
External:        +0.000000
XC:            -859.809144
Entropy (-ST):   -4.769212
Local:          +40.046043
Free energy:   -891.774115
Extrapolated:  -889.389509

Spin contamination: 29.435244 electrons
Showing only first 2 kpts
                      Up                     Down
 Kpt  Band  Eigenvalues  Occupancy  Eigenvalues  Occupancy
  0   524      9.83713    0.99373     10.71154    0.02462
  0   525      9.84499    0.99322     10.72163    0.02231
  0   526      9.85898    0.99221     10.73793    0.01902
  0   527      9.86673    0.99158     10.75053    0.01681

  1   524      9.83269    0.99400     10.70785    0.02553
  1   525      9.84425    0.99327     10.72287    0.02204
  1   526      9.85722    0.99234     10.73710    0.01918
  1   527      9.87515    0.99085     10.74903    0.01706

Fermi level: 10.34363

No gap

Forces in eV/Ang:
  0 Co    0.13953   -0.03708   -0.15023
  1 Fe    0.32440    0.20606   -0.26846
  2 Fe    0.07533   -0.36498   -0.12756
  3 Co   -0.05440   -0.13849    0.08898
  4 Co   -0.11205   -0.06116   -0.16158
  5 Fe    0.06677    0.13880   -0.04387
  6 Ni   -0.00706    0.10114    0.05500
  7 Co   -0.09355    0.04411   -0.04915
  8 Co   -0.14060    0.01604    0.03222
  9 Fe   -0.30776   -0.00078   -0.39930
 10 Cr    0.13731    0.25238   -0.28578
 11 Ni    0.05457   -0.01019    0.04469
 12 Fe    0.05233    0.44641    0.05002
 13 Ni    0.03162   -0.18322   -0.22782
 14 Co   -0.06870    0.01172   -0.00823
 15 Cr   -0.47368    0.00631    0.08429
 16 Ni   -0.10220   -0.27239   -0.06620
 17 Fe    0.00276   -0.41705    0.00830
 18 Cr   -0.21159   -0.09891   -0.41250
 19 Fe    0.12224   -0.23893   -0.13391
 20 Ni   -0.08741    0.02400   -0.11676
 21 Cr   -0.07128    0.15932    0.18918
 22 Fe    0.41915   -0.26153    0.03324
 23 Cr    0.38419   -0.00109   -0.24409
 24 Cr   -0.06625    0.05736   -0.37537
 25 Cr    0.09443   -0.04722    0.31126
 26 Fe   -0.02493    0.35188    0.09490
 27 Cr    0.25142   -0.25744   -0.01371
 28 Fe   -0.20838    0.41588   -0.28097
 29 Co   -0.08795    0.31283    0.00695
 30 Ni   -0.05932    0.08856    0.01465
 31 Cr   -0.21210    0.14217    0.24730
 32 Co    0.31465   -0.14542   -0.23210
 33 Fe   -0.05798   -0.19391   -0.05605
 34 Ni   -0.06339    0.29967   -0.11007
 35 Cr    0.07587   -0.31862   -0.22469
 36 Ni    0.10952    0.04155    0.13214
 37 Fe    0.54418    0.03088    0.14103
 38 Ni    0.23421    0.14948    0.15137
 39 Co   -0.16334    0.16111    0.07087
 40 Co    0.02174   -0.33161   -0.07469
 41 Fe   -0.37159   -0.08969   -0.03520
 42 Fe    0.25309   -0.17334    0.06689
 43 Co   -0.02697    0.15529   -0.04711
 44 Cr   -0.16552    0.01440    0.16659
 45 Ni   -0.10166   -0.05039    0.23937
 46 Fe   -0.08784   -0.21174    0.10741
 47 Cr    0.36671   -0.15444    0.04150
 48 Cr   -0.10517    0.20144   -0.30635
 49 Co   -0.02603   -0.59898    0.15144
 50 Cr    0.28558   -0.11062    0.00341
 51 Fe   -0.27712   -0.18234    0.09161
 52 Co   -0.13100   -0.03539   -0.05311
 53 Fe   -0.04365   -0.22193   -0.03954
 54 Ni    0.04730   -0.20752    0.04963
 55 Fe    0.10894    0.14779    0.24208
 56 Cr    0.16644   -0.21811    0.32735
 57 Cr   -0.17652    0.21871    0.17935
 58 Cr    0.13125    0.19803   -0.10738
 59 Ni    0.02948   -0.14565    0.05431
[...]
 93 Ni    0.10591    0.06746    0.17500
 94 Co    0.19393    0.04166   -0.07128
 95 Ni    0.19144    0.17253   -0.09638
 96 Ni   -0.15280   -0.14779    0.16207
 97 Fe    0.06277   -0.00177    0.09923
 98 Co   -0.05415    0.03745    0.18039
 99 Fe   -0.11042    0.11282    0.08081
100 Fe   -0.11561    0.07536    0.46312
101 Co   -0.17102    0.03723    0.04926
102 Ni    0.08264   -0.02293    0.16682
103 Co   -0.17320    0.11292   -0.30630
104 Ni    0.19441    0.04535    0.16122
105 Fe    0.01639   -0.04172    0.13096
106 Co    0.06676    0.01524    0.08234
107 Cr   -0.28369   -0.26343    0.26982

Date: Sat Apr 15 16:13:29 2023