User:   c.zeng@d0139
Date:   Sat Apr  8 07:49:00 2023
Arch:   x86_64
Pid:    1872
CWD:    /home/c.zeng/projects/hea-corrosion/hea-mlp/data-curation/volume/dft-jobs/3
Python: 3.8.1
gpaw:   /home/c.zeng/usr/installs/gpaw/source/gpaw-22.8.0/gpaw
_gpaw:  /home/c.zeng/usr/installs/gpaw/source/gpaw-22.8.0/
        _gpaw.cpython-38-x86_64-linux-gnu.so
ase:    /home/c.zeng/.local/lib/python3.8/site-packages/ase-3.22.1-py3.8.egg/ase (version 3.22.1)
numpy:  /shared/centos7/python/3.8.1/lib/python3.8/site-packages/numpy (version 1.17.4)
scipy:  /shared/centos7/python/3.8.1/lib/python3.8/site-packages/scipy (version 1.4.1)
units:  Angstrom and eV
cores: 64
OpenMP: False
OMP_NUM_THREADS: 1

Input parameters:
  convergence: {energy: 0.0001}
  kpts: [2 2 2]
  maxiter: 666
  mode: {ecut: 350.0,
         name: pw}
  occupations: {fixmagmom: False,
                name: fermi-dirac,
                width: 0.1}
  spinpol: True
  xc: PBE

System changes: positions, numbers, cell, pbc, initial_charges, initial_magmoms

Initialize ...

species:
  Co:
    name: Cobalt
    id: 339d20d5b0b93d2de9531a1bee871d91
    Z: 27.0
    valence: 9
    core: 18
    charge: 0.0
    file: /home/c.zeng/usr/data/gpaw-setups-0.9.20000/Co.PBE.gz
    compensation charges: {type: gauss,
                           rc: 0.32,
                           lmax: 2}
    cutoffs: {filter: 1.87,
              core: 2.55}
    valence states:
      #              energy  rcut
      - 4s(2.00)    -5.469   1.005
      - 4p(0.00)    -1.277   1.058
      - 3d(7.00)    -8.205   1.005
      -  s          21.742   1.005
      -  p          25.934   1.058
      -  d          19.007   1.005

    # Using partial waves for Co as LCAO basis

  Fe:
    name: Iron
    id: 37abbd8d6c3c35915a9b583b742da910
    Z: 26.0
    valence: 8
    core: 18
    charge: 0.0
    file: /home/c.zeng/usr/data/gpaw-setups-0.9.20000/Fe.PBE.gz
    compensation charges: {type: gauss,
                           rc: 0.33,
                           lmax: 2}
    cutoffs: {filter: 2.06,
              core: 2.67}
    valence states:
      #              energy  rcut
      - 4s(2.00)    -5.291   1.164
      - 4p(0.00)    -1.326   1.058
      - 3d(6.00)    -7.505   1.058
      -  s          21.920   1.164
      -  p          25.885   1.058
      -  d          19.706   1.058

[...]

  Cr:
    name: Chromium
    id: 33f258bda2ca9f93018e70263a35547b
    Z: 24.0
    valence: 6
    core: 18
    charge: 0.0
    file: /home/c.zeng/usr/data/gpaw-setups-0.9.20000/Cr.PBE.gz
    compensation charges: {type: gauss,
                           rc: 0.35,
                           lmax: 2}
    cutoffs: {filter: 2.14,
              core: 3.04}
    valence states:
      #              energy  rcut
      - 4s(1.00)    -4.007   1.164
      - 4p(0.00)    -0.989   1.217
      - 3d(5.00)    -2.913   1.111
      -  s          23.205   1.164
      -  p          26.223   1.217
      -  d          24.299   1.111

[...]

  Ni:
    name: Nickel
    id: 0d9f38a9d6e76a2886f07bb4381f212b
    Z: 28.0
    valence: 16
    core: 12
    charge: 0.0
    file: /home/c.zeng/usr/data/gpaw-setups-0.9.20000/Ni.PBE.gz
    compensation charges: {type: gauss,
                           rc: 0.36,
                           lmax: 2}
    cutoffs: {filter: 2.14,
              core: 1.98}
    valence states:
      #              energy  rcut
      - 4s(2.00)    -5.642   1.164
      - 3p(6.00)   -71.394   1.207
      - 4p(0.00)    -1.226   1.207
      - 3d(8.00)    -8.875   1.138
      -  s          21.570   1.164
      -  d          18.337   1.138

    # Using partial waves for Ni as LCAO basis

Reference energy: -3846758.590871  # eV

Spin-polarized calculation.
Magnetic moment: 151.200000

Convergence criteria:
 Maximum [total energy] change in last 3 cyles: 0.0001 eV / electron
 Maximum integral of absolute [dens]ity change: 0.0001 electrons / valence electron
 Maximum integral of absolute [eigenst]ate change: 4e-08 eV^2 / valence electron
 Maximum number of scf [iter]ations: 666
 (Square brackets indicate name in SCF output, whereas a 'c' in
 the SCF output indicates the quantity has converged.)

Symmetries present (total): 1

  ( 1  0  0)
  ( 0  1  0)
  ( 0  0  1)

8 k-points: 2 x 2 x 2 Monkhorst-Pack grid
4 k-points in the irreducible part of the Brillouin zone
       k-points in crystal coordinates                weights
   0:     0.25000000   -0.25000000   -0.25000000          2/8
   1:     0.25000000   -0.25000000    0.25000000          2/8
   2:     0.25000000    0.25000000   -0.25000000          2/8
   3:     0.25000000    0.25000000    0.25000000          2/8

Wave functions: Plane wave expansion
  Cutoff energy: 350.000 eV
  Number of coefficients (min, max): 24387, 24387
  Pulay-stress correction: 0.000000 eV/Ang^3 (de/decut=0.000000)
  Using FFTW library
  ScaLapack parameters: grid=1x1, blocksize=None
  Wavefunction extrapolation:
    Improved wavefunction reuse through dual PAW basis

Occupation numbers: Fermi-Dirac:
  width: 0.1000  # eV

Eigensolver
   Davidson(niter=2)

Densities:
  Coarse grid: 54*54*54 grid
  Fine grid: 108*108*108 grid
  Total Charge: 0.000000

Density mixing:
  Method: difference
  Backend: pulay
  Linear mixing parameter: 0.05
  old densities: 5
  Damping of long wavelength oscillations: 50

Hamiltonian:
  XC and Coulomb potentials evaluated on a 108*108*108 grid
  Using the PBE Exchange-Correlation functional
  External potential:
    NoExternalPotential

XC parameters: PBE with 2 nearest neighbor stencil

Total number of cores used: 64
Parallelization over k-points: 4
Domain decomposition: 4 x 2 x 2

Number of atoms: 108
Number of atomic orbitals: 1053
Number of bands in calculation: 727
Number of valence electrons: 1053
Bands to converge: occupied

... initialized

Initializing position-dependent things.

Density initialized from atomic densities
Creating initial wave functions:
  727 bands from LCAO basis set

       /|   Cr       Co        Cr    |
      / |      Fe      Fe            |
     /  |Fe               Co         |
    /  Co        CrCr                |
   /    |  FeNi     Fe Co     Cr     Co
  /  CoFe   CrFe Cr  Co NiCo   Cr    |
 *    NiCr Cr  Co NiFe   NiNi        |
 |     FeNi Co  Ni Co Fe  Co CrCo    |
 |    FeFe FeCr     Co NiCo   CrCr   |
 |      |   Ni   Cr       Ni   Ni    |
 |   NiCr     Fe     Ni Fe           |
 |    NiFe Cr  Fe FeNi   FeCo        |
 |     CoCo Co   CrNi Fe  Ni NiNi    |
 | Cr Cr.-Cr-Co-Cr--Co-NiNi---Ni-----.
 |     Fe     Co Fe     NiCo      Fe/
 |    FeCr Fe     NiFe   CrCo      /
 |Co /      Cr        Ni     Cr   /
 | /r Fe        Co       Ni     /
 Co---------------------------*

Positions:
   0 Co     0.000004    0.000004    0.000000    ( 0.0000,  0.0000,  2.1000)
   1 Co     0.000004    1.964242    1.964254    ( 0.0000,  0.0000,  2.1000)
   2 Fe     1.964242    0.000006    1.964254    ( 0.0000,  0.0000,  2.0000)
   3 Fe     1.964254    1.964242   -0.000001    ( 0.0000,  0.0000,  2.0000)
   4 Cr     3.928496    0.000005   -0.000003    ( 0.0000,  0.0000,  0.0000)
   5 Cr     3.928496    1.964242    1.964254    ( 0.0000,  0.0000,  0.0000)
   6 Co     5.892750    0.000001    1.964254    ( 0.0000,  0.0000,  2.1000)
   7 Cr     5.892762    1.964242   -0.000006    ( 0.0000,  0.0000,  0.0000)
   8 Fe     7.856992    0.000001   -0.000003    ( 0.0000,  0.0000,  2.0000)
   9 Ni     7.857004    1.964242    1.964254    ( 0.0000,  0.0000,  1.5000)
  10 Ni     9.821246    0.000004    1.964254    ( 0.0000,  0.0000,  1.5000)
  11 Co     9.821246    1.964242   -0.000002    ( 0.0000,  0.0000,  2.1000)
  12 Cr     0.000001    3.928496    0.000002    ( 0.0000,  0.0000,  0.0000)
  13 Fe    -0.000001    5.892762    1.964242    ( 0.0000,  0.0000,  2.0000)
  14 Cr     1.964254    3.928496    1.964254    ( 0.0000,  0.0000,  0.0000)
  15 Fe     1.964254    5.892762   -0.000003    ( 0.0000,  0.0000,  2.0000)
  16 Ni     3.928496    3.928508   -0.000005    ( 0.0000,  0.0000,  1.5000)
  17 Co     3.928496    5.892750    1.964254    ( 0.0000,  0.0000,  2.1000)
  18 Ni     5.892750    3.928496    1.964254    ( 0.0000,  0.0000,  1.5000)
  19 Cr     5.892738    5.892750   -0.000004    ( 0.0000,  0.0000,  0.0000)
  20 Co     7.857004    3.928496   -0.000002    ( 0.0000,  0.0000,  2.1000)
  21 Ni     7.857004    5.892750    1.964254    ( 0.0000,  0.0000,  1.5000)
  22 Co     9.821246    3.928496    1.964254    ( 0.0000,  0.0000,  2.1000)
  23 Cr     9.821258    5.892750    0.000005    ( 0.0000,  0.0000,  0.0000)
  24 Fe     0.000006    7.856992    0.000000    ( 0.0000,  0.0000,  2.0000)
  25 Co     0.000000    9.821246    1.964254    ( 0.0000,  0.0000,  2.1000)
  26 Cr     1.964242    7.856992    1.964242    ( 0.0000,  0.0000,  0.0000)
  27 Cr     1.964242    9.821246   -0.000003    ( 0.0000,  0.0000,  0.0000)
  28 Fe     3.928496    7.856992   -0.000005    ( 0.0000,  0.0000,  2.0000)
  29 Cr     3.928508    9.821246    1.964254    ( 0.0000,  0.0000,  0.0000)
  30 Co     5.892750    7.857004    1.964254    ( 0.0000,  0.0000,  2.1000)
  31 Co     5.892750    9.821246   -0.000004    ( 0.0000,  0.0000,  2.1000)
  32 Cr     7.856992    7.857004    0.000000    ( 0.0000,  0.0000,  0.0000)
  33 Ni     7.856992    9.821258    1.964254    ( 0.0000,  0.0000,  1.5000)
  34 Ni     9.821258    7.856992    1.964254    ( 0.0000,  0.0000,  1.5000)
  35 Cr     9.821258    9.821258   -0.000001    ( 0.0000,  0.0000,  0.0000)
  36 Fe     0.000003   -0.000002    3.928496    ( 0.0000,  0.0000,  2.0000)
  37 Ni    -0.000000    1.964242    5.892750    ( 0.0000,  0.0000,  1.5000)
  38 Cr     1.964242    0.000001    5.892738    ( 0.0000,  0.0000,  0.0000)
  39 Fe     1.964254    1.964242    3.928496    ( 0.0000,  0.0000,  2.0000)
  40 Fe     3.928496    0.000003    3.928496    ( 0.0000,  0.0000,  2.0000)
  41 Co     3.928496    1.964254    5.892738    ( 0.0000,  0.0000,  2.1000)
  42 Cr     5.892750    0.000004    5.892738    ( 0.0000,  0.0000,  0.0000)
  43 Fe     5.892750    1.964254    3.928508    ( 0.0000,  0.0000,  2.0000)
  44 Fe     7.857004    0.000002    3.928496    ( 0.0000,  0.0000,  2.0000)
  45 Fe     7.857004    1.964254    5.892750    ( 0.0000,  0.0000,  2.0000)
  46 Ni     9.821246    0.000003    5.892750    ( 0.0000,  0.0000,  1.5000)
  47 Co     9.821246    1.964242    3.928496    ( 0.0000,  0.0000,  2.1000)
  48 Cr     0.000002    3.928496    3.928496    ( 0.0000,  0.0000,  0.0000)
  49 Ni     0.000008    5.892750    5.892750    ( 0.0000,  0.0000,  1.5000)
  50 Fe     1.964254    3.928508    5.892750    ( 0.0000,  0.0000,  2.0000)
  51 Co     1.964254    5.892750    3.928508    ( 0.0000,  0.0000,  2.1000)
  52 Co     3.928496    3.928496    3.928508    ( 0.0000,  0.0000,  2.1000)
  53 Fe     3.928496    5.892750    5.892750    ( 0.0000,  0.0000,  2.0000)
  54 Fe     5.892750    3.928496    5.892750    ( 0.0000,  0.0000,  2.0000)
  55 Ni     5.892750    5.892750    3.928508    ( 0.0000,  0.0000,  1.5000)
  56 Ni     7.856992    3.928496    3.928508    ( 0.0000,  0.0000,  1.5000)
  57 Fe     7.856992    5.892750    5.892750    ( 0.0000,  0.0000,  2.0000)
  58 Co     9.821246    3.928496    5.892750    ( 0.0000,  0.0000,  2.1000)
  59 Ni     9.821246    5.892750    3.928496    ( 0.0000,  0.0000,  1.5000)
[...]
  93 Ni     7.856992    5.892750    9.821246    ( 0.0000,  0.0000,  1.5000)
  94 Ni     9.821246    3.928496    9.821246    ( 0.0000,  0.0000,  1.5000)
  95 Cr     9.821246    5.892750    7.856992    ( 0.0000,  0.0000,  0.0000)
  96 Ni     0.000010    7.857004    7.857004    ( 0.0000,  0.0000,  1.5000)
  97 Co     0.000004    9.821246    9.821246    ( 0.0000,  0.0000,  2.1000)
  98 Fe     1.964254    7.856992    9.821258    ( 0.0000,  0.0000,  2.0000)
  99 Cr     1.964242    9.821246    7.857004    ( 0.0000,  0.0000,  0.0000)
 100 Co     3.928496    7.856992    7.857004    ( 0.0000,  0.0000,  2.1000)
 101 Cr     3.928508    9.821246    9.821246    ( 0.0000,  0.0000,  0.0000)
 102 Fe     5.892750    7.857004    9.821246    ( 0.0000,  0.0000,  2.0000)
 103 Co     5.892750    9.821246    7.857004    ( 0.0000,  0.0000,  2.1000)
 104 Ni     7.856992    7.857004    7.857004    ( 0.0000,  0.0000,  1.5000)
 105 Co     7.856992    9.821258    9.821246    ( 0.0000,  0.0000,  2.1000)
 106 Cr     9.821258    7.857004    9.821258    ( 0.0000,  0.0000,  0.0000)
 107 Cr     9.821246    9.821258    7.856992    ( 0.0000,  0.0000,  0.0000)

Unit cell:
           periodic     x           y           z      points  spacing
  1. axis:    yes   11.785500    0.000000    0.000000    54     0.2183
  2. axis:    yes    0.000000   11.785500    0.000000    54     0.2183
  3. axis:    yes    0.000000    0.000000   11.785500    54     0.2183

  Lengths:  11.785500  11.785500  11.785500
  Angles:   90.000000  90.000000  90.000000

Effective grid spacing dv^(1/3) = 0.2182

     iter     time        total  log10-change:  magmom
                         energy  eigst   dens
iter:   1 07:52:54 -1108.679745                  +151.4730
iter:   2 07:54:55  -911.276794  -0.04  -1.16    +83.1646
iter:   3 07:56:59  -944.286809  -0.55  -1.13    +87.7584
iter:   4 07:59:05  -866.011431  -1.01  -1.18    +81.6534
iter:   5 08:01:08  -847.690347  -1.64  -1.28    +81.9178
iter:   6 08:03:15  -856.710398  -1.61  -1.35    +92.7083
iter:   7 08:05:21  -851.338833  -1.33  -1.33    +97.9580
iter:   8 08:07:27  -851.418747  -1.35  -1.42    +103.3327
iter:   9 08:09:32  -845.262017  -1.37  -1.47    +103.5790
iter:  10 08:11:38  -841.226037  -1.71  -1.61    +103.3452
iter:  11 08:13:44  -839.182469  -1.89  -1.69    +103.8710
iter:  12 08:15:50  -837.594926  -2.07  -1.72    +102.5053
iter:  13 08:17:57  -837.136847  -2.46  -1.81    +99.2985
iter:  14 08:20:03  -838.116711  -2.47  -1.88    +97.3526
iter:  15 08:22:08  -839.589325  -2.57  -1.92    +95.3686
iter:  16 08:24:15  -841.112186  -2.56  -1.98    +91.7701
iter:  17 08:26:20  -842.611716  -2.56  -1.95    +89.5163
iter:  18 08:28:26  -842.896713  -2.67  -1.94    +87.8825
iter:  19 08:30:31  -843.547316  -2.75  -2.04    +85.6508
iter:  20 08:32:37  -844.859934  -2.66  -2.08    +83.2900
iter:  21 08:34:42  -844.677773  -2.90  -2.05    +82.8328
iter:  22 08:36:47  -845.475221  -2.96  -2.15    +81.3487
iter:  23 08:38:52  -845.566603  -3.16  -2.12    +80.6996
iter:  24 08:40:57  -846.029946  -3.10  -2.18    +80.0950
iter:  25 08:43:04  -846.166132  -3.37  -2.16    +80.0740
iter:  26 08:45:10  -846.180768  -3.28  -2.17    +79.8264
iter:  27 08:47:17  -846.652391  -3.02  -2.23    +79.9358
iter:  28 08:49:23  -846.285585  -2.81  -2.23    +79.7994
iter:  29 08:51:29  -846.558633  -3.08  -2.39    +80.1795
iter:  30 08:53:34  -846.557445  -3.46  -2.39    +80.5505
iter:  31 08:55:40  -846.625776c -3.67  -2.45    +80.9114
iter:  32 08:57:46  -846.740884  -3.86  -2.49    +81.3965
iter:  33 08:59:50  -846.835599  -3.80  -2.52    +81.7844
iter:  34 09:01:57  -846.815906c -3.98  -2.55    +81.8302
iter:  35 09:04:03  -846.845095c -3.92  -2.66    +81.9689
iter:  36 09:06:08  -846.941521  -3.66  -2.77    +81.9645
iter:  37 09:08:13  -846.831800  -3.96  -2.67    +81.9732
iter:  38 09:10:20  -846.843481  -4.34  -2.94    +82.0522
iter:  39 09:12:24  -846.839560c -4.64  -2.97    +82.0858
iter:  40 09:14:31  -846.841446c -4.85  -3.03    +82.1222
iter:  41 09:16:37  -846.843667c -4.76  -3.08    +82.1543
iter:  42 09:18:43  -846.846130c -4.66  -3.13    +82.1578
iter:  43 09:20:47  -846.842481c -4.81  -3.16    +82.1739
iter:  44 09:22:54  -846.844502c -5.04  -3.24    +82.2056
iter:  45 09:25:00  -846.843106c -5.26  -3.27    +82.2148
iter:  46 09:27:06  -846.843709c -5.32  -3.31    +82.2394
iter:  47 09:29:11  -846.843216c -5.42  -3.33    +82.2504
iter:  48 09:31:17  -846.843991c -5.41  -3.42    +82.2547
iter:  49 09:33:22  -846.843343c -5.74  -3.43    +82.2612
iter:  50 09:35:20  -846.843580c -5.82  -3.50    +82.2730
iter:  51 09:36:55  -846.844264c -5.73  -3.53    +82.2769
iter:  52 09:38:54  -846.844652c -5.62  -3.54    +82.2867
iter:  53 09:40:52  -846.843773c -5.67  -3.56    +82.2856
iter:  54 09:42:49  -846.844070c -5.96  -3.69    +82.2838
iter:  55 09:44:47  -846.843815c -6.03  -3.69    +82.2789
iter:  56 09:46:44  -846.843980c -6.19  -3.75    +82.2750
iter:  57 09:48:41  -846.843889c -6.17  -3.75    +82.2789
iter:  58 09:50:38  -846.843588c -6.19  -3.84    +82.2753
iter:  59 09:52:36  -846.843798c -6.40  -3.92    +82.2743
iter:  60 09:54:33  -846.843648c -6.50  -3.95    +82.2747
iter:  61 09:56:30  -846.843705c -6.60  -4.01c   +82.2744
iter:  62 09:58:27  -846.843718c -6.39  -4.06c   +82.2761
iter:  63 10:00:25  -846.843527c -6.63  -3.99    +82.2786
iter:  64 10:02:22  -846.843645c -6.86  -4.18c   +82.2798
iter:  65 10:04:19  -846.843403c -7.00  -4.22c   +82.2794
iter:  66 10:06:16  -846.843574c -6.97  -4.23c   +82.2820
iter:  67 10:08:13  -846.843479c -7.08  -4.21c   +82.2824
iter:  68 10:10:09  -846.843466c -7.12  -4.33c   +82.2810
iter:  69 10:12:07  -846.843456c -7.37  -4.36c   +82.2823
iter:  70 10:14:04  -846.843357c -7.50c -4.41c   +82.2824

Converged after 70 iterations.

Dipole moment: (-0.203597, 0.157688, -0.032735) |e|*Ang

Total magnetic moment: (0.000000, 0.000000, 82.282414)
Local magnetic moments:
   0 Co ( 0.000000,  0.000000,  1.849943)
   1 Co ( 0.000000,  0.000000,  1.690535)
   2 Fe ( 0.000000,  0.000000,  2.844902)
   3 Fe ( 0.000000,  0.000000,  2.819169)
   4 Cr ( 0.000000,  0.000000,  2.768810)
   5 Cr ( 0.000000,  0.000000, -3.071044)
   6 Co ( 0.000000,  0.000000,  1.655766)
   7 Cr ( 0.000000,  0.000000, -3.088813)
   8 Fe ( 0.000000,  0.000000,  2.972207)
   9 Ni ( 0.000000,  0.000000,  0.611118)
  10 Ni ( 0.000000,  0.000000,  0.693720)
  11 Co ( 0.000000,  0.000000,  1.922712)
  12 Cr ( 0.000000,  0.000000, -3.024186)
  13 Fe ( 0.000000,  0.000000,  2.796218)
  14 Cr ( 0.000000,  0.000000, -3.094650)
  15 Fe ( 0.000000,  0.000000,  2.839706)
  16 Ni ( 0.000000,  0.000000,  0.327511)
  17 Co ( 0.000000,  0.000000,  1.721446)
  18 Ni ( 0.000000,  0.000000,  0.506237)
  19 Cr ( 0.000000,  0.000000, -3.125444)
  20 Co ( 0.000000,  0.000000,  1.804843)
  21 Ni ( 0.000000,  0.000000,  0.557462)
  22 Co ( 0.000000,  0.000000,  1.777937)
  23 Cr ( 0.000000,  0.000000, -3.042620)
  24 Fe ( 0.000000,  0.000000,  2.855012)
  25 Co ( 0.000000,  0.000000,  1.735547)
  26 Cr ( 0.000000,  0.000000, -3.017261)
  27 Cr ( 0.000000,  0.000000, -2.994578)
  28 Fe ( 0.000000,  0.000000,  2.765649)
  29 Cr ( 0.000000,  0.000000, -2.985131)
  30 Co ( 0.000000,  0.000000,  1.774504)
  31 Co ( 0.000000,  0.000000,  1.647823)
  32 Cr ( 0.000000,  0.000000,  2.866221)
  33 Ni ( 0.000000,  0.000000,  0.618484)
  34 Ni ( 0.000000,  0.000000,  0.546504)
  35 Cr ( 0.000000,  0.000000, -3.102128)
  36 Fe ( 0.000000,  0.000000,  3.012652)
  37 Ni ( 0.000000,  0.000000,  0.493086)
  38 Cr ( 0.000000,  0.000000, -3.066475)
  39 Fe ( 0.000000,  0.000000,  2.790306)
  40 Fe ( 0.000000,  0.000000,  2.906736)
  41 Co ( 0.000000,  0.000000,  1.483993)
  42 Cr ( 0.000000,  0.000000, -3.082133)
  43 Fe ( 0.000000,  0.000000,  2.925379)
  44 Fe ( 0.000000,  0.000000,  3.032017)
  45 Fe ( 0.000000,  0.000000,  2.950809)
  46 Ni ( 0.000000,  0.000000,  0.615229)
  47 Co ( 0.000000,  0.000000,  1.922768)
  48 Cr ( 0.000000,  0.000000, -3.110802)
  49 Ni ( 0.000000,  0.000000,  0.395517)
  50 Fe ( 0.000000,  0.000000,  2.916731)
  51 Co ( 0.000000,  0.000000,  1.711603)
  52 Co ( 0.000000,  0.000000,  1.749448)
  53 Fe ( 0.000000,  0.000000,  2.966445)
  54 Fe ( 0.000000,  0.000000,  2.893647)
  55 Ni ( 0.000000,  0.000000,  0.737972)
  56 Ni ( 0.000000,  0.000000,  0.692244)
  57 Fe ( 0.000000,  0.000000,  2.970178)
  58 Co ( 0.000000,  0.000000,  1.787989)
  59 Ni ( 0.000000,  0.000000,  0.580065)
[...]
  93 Ni ( 0.000000,  0.000000,  0.358335)
  94 Ni ( 0.000000,  0.000000,  0.437126)
  95 Cr ( 0.000000,  0.000000, -3.074136)
  96 Ni ( 0.000000,  0.000000,  0.345704)
  97 Co ( 0.000000,  0.000000,  1.509307)
  98 Fe ( 0.000000,  0.000000,  2.843113)
  99 Cr ( 0.000000,  0.000000, -3.102385)
 100 Co ( 0.000000,  0.000000,  1.766140)
 101 Cr ( 0.000000,  0.000000, -3.038315)
 102 Fe ( 0.000000,  0.000000,  2.940330)
 103 Co ( 0.000000,  0.000000,  1.785988)
 104 Ni ( 0.000000,  0.000000,  0.392831)
 105 Co ( 0.000000,  0.000000,  1.704450)
 106 Cr ( 0.000000,  0.000000,  2.872203)
 107 Cr ( 0.000000,  0.000000, -3.108028)

Energy contributions relative to reference atoms: (reference = -3846758.590871)

Kinetic:       -372.335346
Potential:     +213.183193
External:        +0.000000
XC:            -720.124408
Entropy (-ST):   -5.064322
Local:          +34.965365
Free energy:   -849.375518
Extrapolated:  -846.843357

Spin contamination: 77.223239 electrons
Showing only first 2 kpts
                      Up                     Down
 Kpt  Band  Eigenvalues  Occupancy  Eigenvalues  Occupancy
  0   524      5.82293    0.99985      7.03717    0.03509
  0   525      5.82639    0.99985      7.04152    0.03365
  0   526      5.84063    0.99983      7.04734    0.03181
  0   527      5.85750    0.99979      7.05877    0.02847

  1   524      5.81911    0.99986      7.03686    0.03520
  1   525      5.83391    0.99984      7.04469    0.03263
  1   526      5.84126    0.99982      7.04599    0.03223
  1   527      5.86189    0.99978      7.06421    0.02700

Fermi level: 6.70577

No gap

Forces in eV/Ang:
  0 Co   -0.05673    0.07742    0.03041
  1 Co   -0.18445   -0.08338    0.03059
  2 Fe   -0.54896   -0.03730    0.13001
  3 Fe   -0.22544    0.01757    0.05830
  4 Cr    0.22951   -0.33455    0.14511
  5 Cr    0.11059   -0.28318    0.37792
  6 Co    0.24840   -0.11972    0.17454
  7 Cr    0.34167    0.18766   -0.30440
  8 Fe   -0.02380   -0.14036    0.25503
  9 Ni    0.14906    0.06508    0.03648
 10 Ni    0.05151    0.10185    0.02033
 11 Co    0.04353   -0.09837    0.07045
 12 Cr   -0.06729   -0.37882   -0.49782
 13 Fe   -0.14206    0.03956    0.28944
 14 Cr    0.42396    0.51426   -0.14742
 15 Fe    0.07751    0.13960    0.15565
 16 Ni   -0.15111   -0.03023   -0.08080
 17 Co    0.17714   -0.09787    0.19958
 18 Ni    0.01382    0.03305    0.11021
 19 Cr    0.12550   -0.19602    0.09163
 20 Co    0.17719   -0.10011    0.03414
 21 Ni    0.06063   -0.05635    0.19193
 22 Co   -0.12538   -0.29097   -0.01584
 23 Cr   -0.40480    0.32991   -0.10615
 24 Fe    0.13288    0.13958    0.16689
 25 Co   -0.05738    0.10612    0.19254
 26 Cr   -0.43623   -0.66293    0.44266
 27 Cr   -0.80354    0.37192   -0.20823
 28 Fe    0.05542    0.27165    0.38213
 29 Cr    0.80105    0.47144    0.26962
 30 Co   -0.18858    0.07061    0.15545
 31 Co    0.15847   -0.06462    0.15082
 32 Cr   -0.10856    0.02362    0.62466
 33 Ni   -0.11511    0.06674    0.14176
 34 Ni    0.11125    0.05708    0.10249
 35 Cr    0.11592   -0.06082    0.12922
 36 Fe   -0.33625    0.02014   -0.22521
 37 Ni   -0.14007   -0.07898   -0.02330
 38 Cr    0.08273    0.35611   -0.44061
 39 Fe    0.03235    0.13930    0.08636
 40 Fe    0.11261   -0.28610    0.08322
 41 Co    0.16886    0.38976   -0.53528
 42 Cr   -0.10740   -0.48054   -0.26372
 43 Fe    0.04095    0.35019   -0.11951
 44 Fe    0.18945   -0.24542   -0.35541
 45 Fe    0.40166    0.23994    0.12610
 46 Ni    0.03598   -0.02405   -0.08259
 47 Co   -0.10357    0.08463   -0.09142
 48 Cr   -0.48407    0.01828    0.38404
 49 Ni    0.09269   -0.00298   -0.02184
 50 Fe    0.02340    0.22173   -0.26485
 51 Co    0.22343   -0.02377    0.16583
 52 Co   -0.05532    0.12504    0.03882
 53 Fe    0.14475    0.14233   -0.03855
 54 Fe   -0.02036    0.10030   -0.08789
 55 Ni   -0.03183   -0.05955   -0.09733
 56 Ni    0.03086   -0.03832    0.06364
 57 Fe   -0.28197   -0.18230   -0.00400
 58 Co   -0.20209   -0.15393   -0.14615
 59 Ni   -0.08987   -0.02573   -0.04447
[...]
 93 Ni   -0.14799   -0.11477   -0.06532
 94 Ni   -0.05429   -0.09887    0.12118
 95 Cr   -0.29011   -0.01466    0.43620
 96 Ni    0.04937   -0.06099    0.00905
 97 Co    0.16560    0.20322   -0.01790
 98 Fe   -0.23530   -0.14607   -0.28199
 99 Cr   -0.37704   -0.34805    0.04068
100 Co    0.21405    0.04291   -0.05531
101 Cr    0.82543   -0.10492   -0.03420
102 Fe    0.07008    0.09054   -0.53371
103 Co    0.27567   -0.25930   -0.12480
104 Ni   -0.16564    0.15083   -0.09161
105 Co   -0.39786    0.37236   -0.27021
106 Cr    0.07253   -0.03923   -0.64953
107 Cr   -0.02749    0.42994    0.45832

Date: Sat Apr  8 10:14:33 2023