User:   c.zeng@d0005
Date:   Thu Apr 13 13:41:37 2023
Arch:   x86_64
Pid:    91653
CWD:    /home/c.zeng/projects/hea-corrosion/hea-mlp/data-curation/bulk-md/dft-jobs/13
Python: 3.8.1
gpaw:   /home/c.zeng/usr/installs/gpaw/source/gpaw-22.8.0/gpaw
_gpaw:  /home/c.zeng/usr/installs/gpaw/source/gpaw-22.8.0/
        _gpaw.cpython-38-x86_64-linux-gnu.so
ase:    /home/c.zeng/.local/lib/python3.8/site-packages/ase-3.22.1-py3.8.egg/ase (version 3.22.1)
numpy:  /shared/centos7/python/3.8.1/lib/python3.8/site-packages/numpy (version 1.17.4)
scipy:  /shared/centos7/python/3.8.1/lib/python3.8/site-packages/scipy (version 1.4.1)
units:  Angstrom and eV
cores: 28
OpenMP: False
OMP_NUM_THREADS: 1

Input parameters:
  convergence: {energy: 0.0001}
  kpts: [2 2 2]
  maxiter: 666
  mode: {ecut: 350.0,
         name: pw}
  occupations: {fixmagmom: False,
                name: fermi-dirac,
                width: 0.1}
  spinpol: True
  xc: PBE

System changes: positions, numbers, cell, pbc, initial_charges, initial_magmoms

Initialize ...

species:
  Co:
    name: Cobalt
    id: 339d20d5b0b93d2de9531a1bee871d91
    Z: 27.0
    valence: 9
    core: 18
    charge: 0.0
    file: /home/c.zeng/usr/data/gpaw-setups-0.9.20000/Co.PBE.gz
    compensation charges: {type: gauss,
                           rc: 0.32,
                           lmax: 2}
    cutoffs: {filter: 1.87,
              core: 2.55}
    valence states:
      #              energy  rcut
      - 4s(2.00)    -5.469   1.005
      - 4p(0.00)    -1.277   1.058
      - 3d(7.00)    -8.205   1.005
      -  s          21.742   1.005
      -  p          25.934   1.058
      -  d          19.007   1.005

    # Using partial waves for Co as LCAO basis

  Fe:
    name: Iron
    id: 37abbd8d6c3c35915a9b583b742da910
    Z: 26.0
    valence: 8
    core: 18
    charge: 0.0
    file: /home/c.zeng/usr/data/gpaw-setups-0.9.20000/Fe.PBE.gz
    compensation charges: {type: gauss,
                           rc: 0.33,
                           lmax: 2}
    cutoffs: {filter: 2.06,
              core: 2.67}
    valence states:
      #              energy  rcut
      - 4s(2.00)    -5.291   1.164
      - 4p(0.00)    -1.326   1.058
      - 3d(6.00)    -7.505   1.058
      -  s          21.920   1.164
      -  p          25.885   1.058
      -  d          19.706   1.058

[...]

  Cr:
    name: Chromium
    id: 33f258bda2ca9f93018e70263a35547b
    Z: 24.0
    valence: 6
    core: 18
    charge: 0.0
    file: /home/c.zeng/usr/data/gpaw-setups-0.9.20000/Cr.PBE.gz
    compensation charges: {type: gauss,
                           rc: 0.35,
                           lmax: 2}
    cutoffs: {filter: 2.14,
              core: 3.04}
    valence states:
      #              energy  rcut
      - 4s(1.00)    -4.007   1.164
      - 4p(0.00)    -0.989   1.217
      - 3d(5.00)    -2.913   1.111
      -  s          23.205   1.164
      -  p          26.223   1.217
      -  d          24.299   1.111

[...]

  Ni:
    name: Nickel
    id: 0d9f38a9d6e76a2886f07bb4381f212b
    Z: 28.0
    valence: 16
    core: 12
    charge: 0.0
    file: /home/c.zeng/usr/data/gpaw-setups-0.9.20000/Ni.PBE.gz
    compensation charges: {type: gauss,
                           rc: 0.36,
                           lmax: 2}
    cutoffs: {filter: 2.14,
              core: 1.98}
    valence states:
      #              energy  rcut
      - 4s(2.00)    -5.642   1.164
      - 3p(6.00)   -71.394   1.207
      - 4p(0.00)    -1.226   1.207
      - 3d(8.00)    -8.875   1.138
      -  s          21.570   1.164
      -  d          18.337   1.138

    # Using partial waves for Ni as LCAO basis

Reference energy: -3846758.590871  # eV

Spin-polarized calculation.
Magnetic moment: 151.200000

Convergence criteria:
 Maximum [total energy] change in last 3 cyles: 0.0001 eV / electron
 Maximum integral of absolute [dens]ity change: 0.0001 electrons / valence electron
 Maximum integral of absolute [eigenst]ate change: 4e-08 eV^2 / valence electron
 Maximum number of scf [iter]ations: 666
 (Square brackets indicate name in SCF output, whereas a 'c' in
 the SCF output indicates the quantity has converged.)

Symmetries present (total): 1

  ( 1  0  0)
  ( 0  1  0)
  ( 0  0  1)

8 k-points: 2 x 2 x 2 Monkhorst-Pack grid
4 k-points in the irreducible part of the Brillouin zone
       k-points in crystal coordinates                weights
   0:     0.25000000   -0.25000000   -0.25000000          2/8
   1:     0.25000000   -0.25000000    0.25000000          2/8
   2:     0.25000000    0.25000000   -0.25000000          2/8
   3:     0.25000000    0.25000000    0.25000000          2/8

Wave functions: Plane wave expansion
  Cutoff energy: 350.000 eV
  Number of coefficients (min, max): 17755, 17755
  Pulay-stress correction: 0.000000 eV/Ang^3 (de/decut=0.000000)
  Using FFTW library
  ScaLapack parameters: grid=1x1, blocksize=None
  Wavefunction extrapolation:
    Improved wavefunction reuse through dual PAW basis

Occupation numbers: Fermi-Dirac:
  width: 0.1000  # eV

Eigensolver
   Davidson(niter=2)

Densities:
  Coarse grid: 48*48*48 grid
  Fine grid: 96*96*96 grid
  Total Charge: 0.000000

Density mixing:
  Method: difference
  Backend: pulay
  Linear mixing parameter: 0.05
  old densities: 5
  Damping of long wavelength oscillations: 50

Hamiltonian:
  XC and Coulomb potentials evaluated on a 96*96*96 grid
  Using the PBE Exchange-Correlation functional
  External potential:
    NoExternalPotential

XC parameters: PBE with 2 nearest neighbor stencil

Total number of cores used: 28
Parallelization over k-points: 4
Domain decomposition: 7 x 1 x 1

Number of atoms: 108
Number of atomic orbitals: 1053
Number of bands in calculation: 727
Number of valence electrons: 1053
Bands to converge: occupied

... initialized

Initializing position-dependent things.

Density initialized from atomic densities
Creating initial wave functions:
  727 bands from LCAO basis set

        Co------------------------.
       /|          Co       Cr    |
      / |   FeFe                  |
     / Co               Co        |
    /   |      Crr         Cr     |
   /    | Fe       FeoNi     CCo  |
  /   Fer  CrFeCr       Co   Ni   |
 *      |      CoNiFe  NiNi    Ni |
 |      Ni Co  Ni CFe   CoCrCo   Fe
 |      | FeCrFeFe CNiCo FeCrCr  Fe
 |    Cr|  Ni FCr   NiFeNi   NNi  |
 |    NiFe    Fe  Ni   FeCoCo Ni  |
 |     CoCoCo   FeNi    NiNiNi    |
 |  CCr .--CCo--CrCoFe------Ni----.
 |    Fe    CrCre   Ni Ni        /
 |    Fe         Ni    CCoCo    /
 |   /  CreCr     Cr           /
 |CoCr       Ni    Ni     Cr  /
 | /  Fe      Co     Co      /

Positions:
   0 Co     0.074746   -0.048645   10.558173    ( 0.0000,  0.0000,  2.1000)
   1 Co     0.022267    1.773578    1.581913    ( 0.0000,  0.0000,  2.1000)
   2 Fe     1.883176    0.005516    1.731902    ( 0.0000,  0.0000,  2.0000)
   3 Fe     1.696217    1.816525   10.511539    ( 0.0000,  0.0000,  2.0000)
   4 Cr     3.509627   -0.181712   10.647623    ( 0.0000,  0.0000,  0.0000)
   5 Cr     3.665661    1.659076    2.102317    ( 0.0000,  0.0000,  0.0000)
   6 Co     5.379760   10.730678    1.658850    ( 0.0000,  0.0000,  2.1000)
   7 Cr     5.299392    1.872045   10.578402    ( 0.0000,  0.0000,  0.0000)
   8 Fe     7.184112    0.121630   10.475853    ( 0.0000,  0.0000,  2.0000)
   9 Ni     6.980323    1.869070    1.680645    ( 0.0000,  0.0000,  1.5000)
  10 Ni     8.893948   -0.027657    1.769445    ( 0.0000,  0.0000,  1.5000)
  11 Co     8.926772    1.707918   10.538747    ( 0.0000,  0.0000,  2.1000)
  12 Cr    10.742608    3.720375    0.313527    ( 0.0000,  0.0000,  0.0000)
  13 Fe    10.984305    5.456479    1.820693    ( 0.0000,  0.0000,  2.0000)
  14 Cr     2.074899    3.299257    1.548935    ( 0.0000,  0.0000,  0.0000)
  15 Fe     1.846288    5.461704   10.692897    ( 0.0000,  0.0000,  2.0000)
  16 Ni     3.780023    3.739142   10.907873    ( 0.0000,  0.0000,  1.5000)
  17 Co     3.662398    5.445680    2.074454    ( 0.0000,  0.0000,  2.1000)
  18 Ni     5.565648    3.746747    1.687790    ( 0.0000,  0.0000,  1.5000)
  19 Cr     5.281916    5.485515   10.812535    ( 0.0000,  0.0000,  0.0000)
  20 Co     7.192763    3.364341   10.752472    ( 0.0000,  0.0000,  2.1000)
  21 Ni     7.368450    5.243085    1.691733    ( 0.0000,  0.0000,  1.5000)
  22 Co     9.035783    3.620296    1.841183    ( 0.0000,  0.0000,  2.1000)
  23 Cr     8.799871    5.200879    0.003762    ( 0.0000,  0.0000,  0.0000)
  24 Fe     0.102318    7.175461   10.669432    ( 0.0000,  0.0000,  2.0000)
  25 Co    10.830399    8.871739    1.733308    ( 0.0000,  0.0000,  2.1000)
  26 Cr     2.025765    7.157734    1.830953    ( 0.0000,  0.0000,  0.0000)
  27 Cr     1.949762    8.825950   10.751932    ( 0.0000,  0.0000,  0.0000)
  28 Fe     3.481393    7.135622   10.459186    ( 0.0000,  0.0000,  2.0000)
  29 Cr     3.741232    8.950969    1.852506    ( 0.0000,  0.0000,  0.0000)
  30 Co     5.040252    7.172021    1.889192    ( 0.0000,  0.0000,  2.1000)
  31 Co     5.137564    8.632305   10.560726    ( 0.0000,  0.0000,  2.1000)
  32 Cr     7.249599    7.054966   10.696524    ( 0.0000,  0.0000,  0.0000)
  33 Ni     6.863489    8.739237    1.810258    ( 0.0000,  0.0000,  1.5000)
  34 Ni     8.939842    7.466771    1.808982    ( 0.0000,  0.0000,  1.5000)
  35 Cr     8.744975    8.786025   10.580528    ( 0.0000,  0.0000,  0.0000)
  36 Fe    -0.278343   10.503049    3.449520    ( 0.0000,  0.0000,  2.0000)
  37 Ni    10.513388    1.830867    5.167491    ( 0.0000,  0.0000,  1.5000)
  38 Cr     1.758029    0.101669    5.541066    ( 0.0000,  0.0000,  0.0000)
  39 Fe     1.627428    1.482664    3.549871    ( 0.0000,  0.0000,  2.0000)
  40 Fe     3.479501   -0.079254    3.715995    ( 0.0000,  0.0000,  2.0000)
  41 Co     3.571096    1.626352    5.410651    ( 0.0000,  0.0000,  2.1000)
  42 Cr     5.276772    0.042827    5.243569    ( 0.0000,  0.0000,  0.0000)
  43 Fe     5.373016    1.743126    3.652116    ( 0.0000,  0.0000,  2.0000)
  44 Fe     7.095533   -0.120020    3.343021    ( 0.0000,  0.0000,  2.0000)
  45 Fe     7.268886    1.625130    5.146491    ( 0.0000,  0.0000,  2.0000)
  46 Ni     8.765902   -0.030031    5.372548    ( 0.0000,  0.0000,  1.5000)
  47 Co     9.070625    1.904324    3.325273    ( 0.0000,  0.0000,  2.1000)
  48 Cr     0.283431    3.442876    3.478368    ( 0.0000,  0.0000,  0.0000)
  49 Ni    -0.137214    5.399390    5.264543    ( 0.0000,  0.0000,  1.5000)
  50 Fe     1.810879    3.519649    5.412825    ( 0.0000,  0.0000,  2.0000)
  51 Co     1.898802    5.173384    3.577832    ( 0.0000,  0.0000,  2.1000)
  52 Co     3.568291    3.613904    3.556763    ( 0.0000,  0.0000,  2.1000)
  53 Fe     3.808504    5.099385    5.350738    ( 0.0000,  0.0000,  2.0000)
  54 Fe     5.377990    3.266657    5.176294    ( 0.0000,  0.0000,  2.0000)
  55 Ni     5.647338    5.278134    3.708831    ( 0.0000,  0.0000,  1.5000)
  56 Ni     7.029425    3.365392    3.379044    ( 0.0000,  0.0000,  1.5000)
  57 Fe     7.020893    5.235260    5.364830    ( 0.0000,  0.0000,  2.0000)
  58 Co     8.658246    3.478967    5.088441    ( 0.0000,  0.0000,  2.1000)
  59 Ni     8.896440    5.526062    3.451946    ( 0.0000,  0.0000,  1.5000)
[...]
  93 Ni     7.120832    5.228784    9.067941    ( 0.0000,  0.0000,  1.5000)
  94 Ni     8.690601    3.568205    8.695166    ( 0.0000,  0.0000,  1.5000)
  95 Cr     8.591684    5.386631    7.019911    ( 0.0000,  0.0000,  0.0000)
  96 Ni    -0.143810    7.181607    7.017120    ( 0.0000,  0.0000,  1.5000)
  97 Co     0.319788    8.594112    8.869002    ( 0.0000,  0.0000,  2.1000)
  98 Fe     1.830890    6.922595    8.869612    ( 0.0000,  0.0000,  2.0000)
  99 Cr     1.650429    8.734914    7.036606    ( 0.0000,  0.0000,  0.0000)
 100 Co     3.673733    7.016233    6.944711    ( 0.0000,  0.0000,  2.1000)
 101 Cr     3.358283    8.705349    8.618116    ( 0.0000,  0.0000,  0.0000)
 102 Fe     5.524636    7.091656    8.719181    ( 0.0000,  0.0000,  2.0000)
 103 Co     5.372669    8.846296    7.115378    ( 0.0000,  0.0000,  2.1000)
 104 Ni     7.120852    7.007810    6.915553    ( 0.0000,  0.0000,  1.5000)
 105 Co     6.968492    8.886339    8.894684    ( 0.0000,  0.0000,  2.1000)
 106 Cr     8.609262    7.078502    8.919193    ( 0.0000,  0.0000,  0.0000)
 107 Cr     8.864521    8.990743    7.040385    ( 0.0000,  0.0000,  0.0000)

Unit cell:
           periodic     x           y           z      points  spacing
  1. axis:    yes   10.614300    0.000000    0.000000    48     0.2211
  2. axis:    yes    0.000000   10.614300    0.000000    48     0.2211
  3. axis:    yes    0.000000    0.000000   10.614300    48     0.2211

  Lengths:  10.614300  10.614300  10.614300
  Angles:   90.000000  90.000000  90.000000

Effective grid spacing dv^(1/3) = 0.2211

     iter     time        total  log10-change:  magmom
                         energy  eigst   dens
iter:   1 13:45:22 -1064.686876                  +151.4733
iter:   2 13:46:38  -936.706826  -0.29  -1.20    +85.8155
iter:   3 13:47:54  -930.103913  -0.92  -1.24    +69.4037
iter:   4 13:49:11  -915.941449  -1.21  -1.30    +65.2723
iter:   5 13:50:27  -893.681746  -1.62  -1.29    +59.0842
iter:   6 13:51:43  -896.162064  -1.35  -1.38    +58.8609
iter:   7 13:52:59  -890.777894  -1.23  -1.45    +57.4088
iter:   8 13:54:16  -872.803715  -1.59  -1.55    +55.6031
iter:   9 13:55:32  -873.622545  -2.13  -1.81    +57.4289
iter:  10 13:56:48  -872.152714  -2.35  -1.80    +58.8745
iter:  11 13:58:04  -872.358568  -2.66  -1.88    +60.7678
iter:  12 13:59:21  -873.536033  -2.55  -1.91    +62.4319
iter:  13 14:00:37  -873.621799  -2.52  -1.93    +63.5403
iter:  14 14:01:54  -874.601051  -2.39  -2.03    +64.5665
iter:  15 14:03:10  -874.210740  -2.58  -2.03    +65.2123
iter:  16 14:04:26  -873.457609  -2.79  -2.09    +65.5070
iter:  17 14:05:42  -873.340700  -3.03  -2.18    +66.1850
iter:  18 14:06:59  -873.383335  -3.02  -2.23    +67.1294
iter:  19 14:08:15  -873.438596c -3.22  -2.26    +67.4819
iter:  20 14:09:31  -873.366737c -3.12  -2.28    +67.6673
iter:  21 14:10:47  -873.718832  -3.05  -2.37    +68.0215
iter:  22 14:12:04  -873.339406  -3.20  -2.30    +68.6226
iter:  23 14:13:20  -873.517746  -3.23  -2.44    +68.7272
iter:  24 14:14:36  -873.256979  -3.34  -2.38    +68.6908
iter:  25 14:15:52  -873.421071  -3.29  -2.55    +68.9362
iter:  26 14:17:09  -873.183418  -3.64  -2.47    +69.1978
iter:  27 14:18:25  -873.286495  -3.64  -2.66    +69.2691
iter:  28 14:19:41  -873.186534c -3.81  -2.60    +69.2567
iter:  29 14:20:57  -873.250881c -3.77  -2.71    +69.4738
iter:  30 14:22:14  -873.174495c -4.10  -2.68    +69.6873
iter:  31 14:23:30  -873.265292c -3.95  -2.83    +69.7800
iter:  32 14:24:46  -873.184380c -4.16  -2.73    +69.7206
iter:  33 14:26:02  -873.204756c -4.29  -2.87    +69.8489
iter:  34 14:27:18  -873.196759c -4.46  -2.86    +69.9627
iter:  35 14:28:35  -873.212114c -4.37  -2.91    +69.9560
iter:  36 14:29:51  -873.191965c -4.66  -2.89    +69.9218
iter:  37 14:31:07  -873.205305c -4.60  -2.97    +69.9954
iter:  38 14:32:24  -873.204655c -4.68  -2.94    +70.0426
iter:  39 14:33:40  -873.203617c -4.80  -2.99    +70.0351
iter:  40 14:34:56  -873.207374c -4.77  -3.01    +69.9986
iter:  41 14:36:12  -873.212032c -4.70  -3.00    +70.0414
iter:  42 14:37:28  -873.210112c -4.67  -3.04    +70.1007
iter:  43 14:38:45  -873.222215c -4.75  -3.04    +70.0758
iter:  44 14:40:01  -873.214855c -4.61  -3.05    +70.0015
iter:  45 14:41:17  -873.212154c -4.82  -3.05    +70.0377
iter:  46 14:42:33  -873.212968c -4.85  -3.12    +70.1024
iter:  47 14:43:49  -873.211748c -5.06  -3.12    +70.0767
iter:  48 14:45:05  -873.213772c -4.84  -3.18    +70.0466
iter:  49 14:46:22  -873.211800c -5.18  -3.16    +70.0766
iter:  50 14:47:38  -873.222363c -4.85  -3.22    +70.1377
iter:  51 14:48:54  -873.215850c -4.97  -3.18    +70.1113
iter:  52 14:50:10  -873.218213c -4.93  -3.24    +70.0766
iter:  53 14:51:27  -873.213059c -5.23  -3.22    +70.1036
iter:  54 14:52:43  -873.214606c -5.10  -3.36    +70.1334
iter:  55 14:53:59  -873.213455c -5.59  -3.30    +70.1159
iter:  56 14:55:15  -873.212321c -5.49  -3.40    +70.0814
iter:  57 14:56:32  -873.213127c -5.65  -3.40    +70.0978
iter:  58 14:57:48  -873.214345c -5.61  -3.44    +70.1101
iter:  59 14:59:04  -873.213727c -5.77  -3.43    +70.0982
iter:  60 15:00:20  -873.218092c -5.33  -3.48    +70.0894
iter:  61 15:01:37  -873.214505c -5.48  -3.39    +70.1031
iter:  62 15:02:53  -873.217576c -5.53  -3.48    +70.1346
iter:  63 15:04:09  -873.215245c -5.61  -3.49    +70.1168
iter:  64 15:05:25  -873.215785c -5.81  -3.52    +70.1058
iter:  65 15:06:42  -873.214972c -5.99  -3.54    +70.1164
iter:  66 15:07:58  -873.215609c -6.25  -3.62    +70.1264
iter:  67 15:09:14  -873.216782c -5.98  -3.61    +70.1225
iter:  68 15:10:31  -873.216507c -5.85  -3.61    +70.1205
iter:  69 15:11:47  -873.219305c -5.53  -3.59    +70.1352
iter:  70 15:13:03  -873.218329c -5.62  -3.56    +70.1543
iter:  71 15:14:19  -873.218930c -5.44  -3.65    +70.1418
iter:  72 15:15:36  -873.218023c -5.84  -3.59    +70.1360
iter:  73 15:16:52  -873.217143c -5.82  -3.76    +70.1529
iter:  74 15:18:08  -873.217668c -6.21  -3.76    +70.1630
iter:  75 15:19:24  -873.217244c -6.44  -3.90    +70.1546
iter:  76 15:20:40  -873.217453c -6.85  -3.95    +70.1520
iter:  77 15:21:56  -873.218095c -6.15  -4.03c   +70.1552
iter:  78 15:23:13  -873.217735c -6.55  -3.87    +70.1578
iter:  79 15:24:29  -873.218837c -6.25  -4.07c   +70.1561
iter:  80 15:25:45  -873.217912c -6.23  -3.96    +70.1557
iter:  81 15:27:01  -873.218556c -6.34  -3.98    +70.1661
iter:  82 15:28:18  -873.218190c -6.66  -4.06c   +70.1772
iter:  83 15:29:34  -873.218368c -6.94  -4.27c   +70.1789
iter:  84 15:30:50  -873.218428c -7.30  -4.26c   +70.1795
iter:  85 15:32:07  -873.218682c -6.98  -4.35c   +70.1854
iter:  86 15:33:23  -873.219449c -5.77  -4.35c   +70.2171
iter:  87 15:34:39  -873.220085c -5.81  -4.25c   +70.2479
iter:  88 15:35:56  -873.219838c -6.81  -4.09c   +70.2403
iter:  89 15:37:12  -873.220165c -6.45  -4.10c   +70.2621
iter:  90 15:38:28  -873.220392c -6.61  -4.07c   +70.2793
iter:  91 15:39:44  -873.220576c -6.83  -4.03c   +70.2809
iter:  92 15:41:01  -873.221343c -6.10  -4.08c   +70.2887
iter:  93 15:42:17  -873.220950c -6.33  -3.87    +70.2829
iter:  94 15:43:33  -873.221026c -6.22  -4.06c   +70.2768
iter:  95 15:44:49  -873.220616c -6.59  -3.95    +70.2800
iter:  96 15:46:05  -873.220959c -6.74  -4.19c   +70.2783
iter:  97 15:47:22  -873.220646c -7.33  -4.17c   +70.2784
iter:  98 15:48:38  -873.220682c -7.58c -4.37c   +70.2783

Converged after 98 iterations.

Dipole moment: (-22.675513, -11.031740, -22.037004) |e|*Ang

Total magnetic moment: (0.000000, 0.000000, 70.278274)
Local magnetic moments:
   0 Co ( 0.000000,  0.000000,  1.347613)
   1 Co ( 0.000000,  0.000000,  1.013505)
   2 Fe ( 0.000000,  0.000000,  1.651251)
   3 Fe ( 0.000000,  0.000000,  1.384018)
   4 Cr ( 0.000000,  0.000000, -0.117831)
   5 Cr ( 0.000000,  0.000000, -0.992928)
   6 Co ( 0.000000,  0.000000,  0.604703)
   7 Cr ( 0.000000,  0.000000, -1.428190)
   8 Fe ( 0.000000,  0.000000,  2.346256)
   9 Ni ( 0.000000,  0.000000,  0.394642)
  10 Ni ( 0.000000,  0.000000,  0.572320)
  11 Co ( 0.000000,  0.000000,  1.650531)
  12 Cr ( 0.000000,  0.000000, -0.389538)
  13 Fe ( 0.000000,  0.000000,  1.780527)
  14 Cr ( 0.000000,  0.000000, -0.073723)
  15 Fe ( 0.000000,  0.000000,  1.190398)
  16 Ni ( 0.000000,  0.000000,  0.061839)
  17 Co ( 0.000000,  0.000000,  1.075168)
  18 Ni ( 0.000000,  0.000000,  0.294321)
  19 Cr ( 0.000000,  0.000000, -1.726549)
  20 Co ( 0.000000,  0.000000,  1.180335)
  21 Ni ( 0.000000,  0.000000,  0.158615)
  22 Co ( 0.000000,  0.000000,  1.070227)
  23 Cr ( 0.000000,  0.000000, -0.759974)
  24 Fe ( 0.000000,  0.000000,  1.918809)
  25 Co ( 0.000000,  0.000000,  1.106432)
  26 Cr ( 0.000000,  0.000000, -0.844998)
  27 Cr ( 0.000000,  0.000000, -0.312637)
  28 Fe ( 0.000000,  0.000000,  1.164492)
  29 Cr ( 0.000000,  0.000000, -0.525880)
  30 Co ( 0.000000,  0.000000,  0.978618)
  31 Co ( 0.000000,  0.000000,  0.993631)
  32 Cr ( 0.000000,  0.000000,  0.444990)
  33 Ni ( 0.000000,  0.000000,  0.466161)
  34 Ni ( 0.000000,  0.000000,  0.234967)
  35 Cr ( 0.000000,  0.000000, -1.353234)
  36 Fe ( 0.000000,  0.000000,  2.395158)
  37 Ni ( 0.000000,  0.000000,  0.282471)
  38 Cr ( 0.000000,  0.000000, -0.654777)
  39 Fe ( 0.000000,  0.000000,  1.891492)
  40 Fe ( 0.000000,  0.000000,  1.706137)
  41 Co ( 0.000000,  0.000000,  0.031046)
  42 Cr ( 0.000000,  0.000000, -0.689363)
  43 Fe ( 0.000000,  0.000000,  1.314444)
  44 Fe ( 0.000000,  0.000000,  2.601719)
  45 Fe ( 0.000000,  0.000000,  2.337511)
  46 Ni ( 0.000000,  0.000000,  0.404415)
  47 Co ( 0.000000,  0.000000,  1.408388)
  48 Cr ( 0.000000,  0.000000, -1.679175)
  49 Ni ( 0.000000,  0.000000,  0.061545)
  50 Fe ( 0.000000,  0.000000,  2.099792)
  51 Co ( 0.000000,  0.000000,  1.121989)
  52 Co ( 0.000000,  0.000000,  1.235697)
  53 Fe ( 0.000000,  0.000000,  2.310701)
  54 Fe ( 0.000000,  0.000000,  1.921218)
  55 Ni ( 0.000000,  0.000000,  0.651411)
  56 Ni ( 0.000000,  0.000000,  0.409450)
  57 Fe ( 0.000000,  0.000000,  2.064467)
  58 Co ( 0.000000,  0.000000,  1.381418)
  59 Ni ( 0.000000,  0.000000,  0.304246)
[...]
  93 Ni ( 0.000000,  0.000000,  0.133509)
  94 Ni ( 0.000000,  0.000000,  0.168777)
  95 Cr ( 0.000000,  0.000000,  0.024467)
  96 Ni ( 0.000000,  0.000000,  0.129407)
  97 Co ( 0.000000,  0.000000,  0.836485)
  98 Fe ( 0.000000,  0.000000,  1.262131)
  99 Cr ( 0.000000,  0.000000, -0.737642)
 100 Co ( 0.000000,  0.000000,  1.234825)
 101 Cr ( 0.000000,  0.000000, -0.102026)
 102 Fe ( 0.000000,  0.000000,  2.362340)
 103 Co ( 0.000000,  0.000000,  1.367703)
 104 Ni ( 0.000000,  0.000000,  0.176054)
 105 Co ( 0.000000,  0.000000,  1.101881)
 106 Cr ( 0.000000,  0.000000,  0.567304)
 107 Cr ( 0.000000,  0.000000, -1.752307)

Energy contributions relative to reference atoms: (reference = -3846758.590871)

Kinetic:       +368.080771
Potential:     -386.341991
External:        +0.000000
XC:            -892.337727
Entropy (-ST):   -4.702830
Local:          +39.729680
Free energy:   -875.572096
Extrapolated:  -873.220682

Spin contamination: 22.507264 electrons
Showing only first 2 kpts
                      Up                     Down
 Kpt  Band  Eigenvalues  Occupancy  Eigenvalues  Occupancy
  0   524      9.84319    0.99583     10.78603    0.01884
  0   525      9.84846    0.99561     10.80363    0.01585
  0   526      9.86247    0.99495     10.81151    0.01467
  0   527      9.87405    0.99433     10.81896    0.01363

  1   524      9.85244    0.99543     10.79224    0.01773
  1   525      9.85516    0.99530     10.80252    0.01602
  1   526      9.86472    0.99483     10.80991    0.01490
  1   527      9.86989    0.99456     10.82809    0.01245

Fermi level: 10.39076

No gap

Forces in eV/Ang:
  0 Co   -0.48678   -0.37525   -0.04290
  1 Co    0.28510   -0.65385    0.62969
  2 Fe   -0.85867    0.63554    0.32243
  3 Fe    0.49348   -0.73491    0.32222
  4 Cr   -0.08886    1.22654   -0.58417
  5 Cr   -0.19904    0.23045   -0.95749
  6 Co   -0.33535   -0.87605    0.02586
  7 Cr   -0.47500   -0.54277    0.14473
  8 Fe   -1.04280   -0.86448    1.16882
  9 Ni    1.40139   -2.34995    1.05497
 10 Ni   -0.81029    0.09139   -1.68273
 11 Co   -0.17043    0.66503    0.54337
 12 Cr   -0.59491   -0.22216   -1.40987
 13 Fe   -1.70214   -0.69289   -0.03274
 14 Cr   -1.52689    0.76338    1.75539
 15 Fe    0.71792   -0.80455   -0.10536
 16 Ni   -0.84707   -0.74177   -2.47035
 17 Co   -0.46671   -1.58781   -1.21993
 18 Ni   -1.90397   -0.64509    1.50564
 19 Cr    0.50637    0.71147   -1.13586
 20 Co    0.80049    1.73114   -2.35680
 21 Ni   -1.44160    1.07188    1.28821
 22 Co   -0.44084   -0.16963   -0.27153
 23 Cr    1.65888    0.80887   -0.30049
 24 Fe   -0.81433   -0.57426    0.36513
 25 Co   -0.82377    0.47316   -0.27534
 26 Cr    0.01524   -0.06558    0.18459
 27 Cr   -1.00409    0.57538   -1.10902
 28 Fe    0.80708   -0.89899    0.90301
 29 Cr   -0.60124    0.45110    0.22186
 30 Co    1.61364   -0.71447   -0.34323
 31 Co    1.39483    1.02075   -0.24366
 32 Cr   -0.89688    0.60578    0.42445
 33 Ni    0.68709    1.11889   -1.31965
 34 Ni   -0.09481   -2.38742   -0.17187
 35 Cr    0.77373    1.04422   -0.75204
 36 Fe    3.25412    1.99181    1.17288
 37 Ni    0.15287   -0.42613    1.63595
 38 Cr   -0.51532   -0.19418   -0.64597
 39 Fe    0.55625    1.08453   -0.02914
 40 Fe    0.49303    0.33120   -1.08282
 41 Co   -1.20114    1.17084   -0.84170
 42 Cr   -0.02945   -0.67699   -0.00147
 43 Fe   -0.81458   -1.26090   -1.61441
 44 Fe    0.13386    0.81696    0.74895
 45 Fe   -0.92255    0.68990    0.03953
 46 Ni    1.52642    0.38353   -0.83562
 47 Co   -1.54511   -1.00731    0.53338
 48 Cr   -0.55984    0.74852   -0.23633
 49 Ni    1.01115   -0.61752   -0.70485
 50 Fe   -0.32950    0.01518   -0.48446
 51 Co   -0.69057    0.72624    0.58346
 52 Co    0.42006   -1.28229   -0.21963
 53 Fe   -1.38285    0.39739    0.50757
 54 Fe    0.01871    1.07249    1.76899
 55 Ni   -2.25730   -0.29728   -2.60644
 56 Ni    1.44730    1.02929    1.30810
 57 Fe    1.21602   -0.16410   -0.47719
 58 Co    1.24157    1.01530    0.48570
 59 Ni    0.44721   -1.13027   -0.17058
[...]
 93 Ni   -1.03622   -0.09335   -1.12296
 94 Ni    1.59378    0.06109    1.41901
 95 Cr    1.55931   -1.21166    0.69965
 96 Ni   -0.27335   -1.49724    0.74371
 97 Co   -2.01773    1.91595    0.24547
 98 Fe   -0.51616    0.10794   -0.74285
 99 Cr    0.35739    0.21385   -0.43994
100 Co   -0.68709   -0.14366    0.70307
101 Cr    1.43682    0.23953    0.19740
102 Fe   -1.17173   -0.81676    0.33779
103 Co   -0.74208    0.24099   -0.55839
104 Ni   -0.69472    2.12617    0.47420
105 Co    0.35756    0.73334   -0.57180
106 Cr    1.25057    0.72647   -0.82959
107 Cr   -0.30483   -0.94410    0.96876

Date: Thu Apr 13 15:48:58 2023