User:   c.zeng@d0025
Date:   Sat Apr 15 08:49:46 2023
Arch:   x86_64
Pid:    217756
CWD:    /home/c.zeng/projects/hea-corrosion/hea-mlp/data-curation/bulk-mcmc/dft-jobs/240
Python: 3.8.1
gpaw:   /home/c.zeng/usr/installs/gpaw/source/gpaw-22.8.0/gpaw
_gpaw:  /home/c.zeng/usr/installs/gpaw/source/gpaw-22.8.0/
        _gpaw.cpython-38-x86_64-linux-gnu.so
ase:    /home/c.zeng/.local/lib/python3.8/site-packages/ase-3.22.1-py3.8.egg/ase (version 3.22.1)
numpy:  /shared/centos7/python/3.8.1/lib/python3.8/site-packages/numpy (version 1.17.4)
scipy:  /shared/centos7/python/3.8.1/lib/python3.8/site-packages/scipy (version 1.4.1)
units:  Angstrom and eV
cores: 30
OpenMP: False
OMP_NUM_THREADS: 1

Input parameters:
  convergence: {energy: 0.0001}
  kpts: [2 2 2]
  maxiter: 666
  mode: {ecut: 350.0,
         name: pw}
  occupations: {fixmagmom: False,
                name: fermi-dirac,
                width: 0.1}
  spinpol: True
  xc: PBE

System changes: positions, numbers, cell, pbc, initial_charges, initial_magmoms

Initialize ...

species:
  Cr:
    name: Chromium
    id: 33f258bda2ca9f93018e70263a35547b
    Z: 24.0
    valence: 6
    core: 18
    charge: 0.0
    file: /home/c.zeng/usr/data/gpaw-setups-0.9.20000/Cr.PBE.gz
    compensation charges: {type: gauss,
                           rc: 0.35,
                           lmax: 2}
    cutoffs: {filter: 2.14,
              core: 3.04}
    valence states:
      #              energy  rcut
      - 4s(1.00)    -4.007   1.164
      - 4p(0.00)    -0.989   1.217
      - 3d(5.00)    -2.913   1.111
      -  s          23.205   1.164
      -  p          26.223   1.217
      -  d          24.299   1.111

    # Using partial waves for Cr as LCAO basis

  Al:
    name: Aluminium
    id: 0292cae29f5d6237e50f6abdd43a7bdd
    Z: 13.0
    valence: 3
    core: 10
    charge: 0.0
    file: /home/c.zeng/usr/data/gpaw-setups-0.9.20000/Al.PBE.gz
    compensation charges: {type: gauss,
                           rc: 0.34,
                           lmax: 2}
    cutoffs: {filter: 1.91,
              core: 2.36}
    valence states:
      #              energy  rcut
      - 3s(2.00)    -7.753   1.085
      - 3p(1.00)    -2.712   1.085
      -  s          19.459   1.085
      -  p          24.499   1.085
      -  d           0.000   1.085

[...]

  Ni:
    name: Nickel
    id: 0d9f38a9d6e76a2886f07bb4381f212b
    Z: 28.0
    valence: 16
    core: 12
    charge: 0.0
    file: /home/c.zeng/usr/data/gpaw-setups-0.9.20000/Ni.PBE.gz
    compensation charges: {type: gauss,
                           rc: 0.36,
                           lmax: 2}
    cutoffs: {filter: 2.14,
              core: 1.98}
    valence states:
      #              energy  rcut
      - 4s(2.00)    -5.642   1.164
      - 3p(6.00)   -71.394   1.207
      - 4p(0.00)    -1.226   1.207
      - 3d(8.00)    -8.875   1.138
      -  s          21.570   1.164
      -  d          18.337   1.138

[...]

  Co:
    name: Cobalt
    id: 339d20d5b0b93d2de9531a1bee871d91
    Z: 27.0
    valence: 9
    core: 18
    charge: 0.0
    file: /home/c.zeng/usr/data/gpaw-setups-0.9.20000/Co.PBE.gz
    compensation charges: {type: gauss,
                           rc: 0.32,
                           lmax: 2}
    cutoffs: {filter: 1.87,
              core: 2.55}
    valence states:
      #              energy  rcut
      - 4s(2.00)    -5.469   1.005
      - 4p(0.00)    -1.277   1.058
      - 3d(7.00)    -8.205   1.005
      -  s          21.742   1.005
      -  p          25.934   1.058
      -  d          19.007   1.005

[...]

  Fe:
    name: Iron
    id: 37abbd8d6c3c35915a9b583b742da910
    Z: 26.0
    valence: 8
    core: 18
    charge: 0.0
    file: /home/c.zeng/usr/data/gpaw-setups-0.9.20000/Fe.PBE.gz
    compensation charges: {type: gauss,
                           rc: 0.33,
                           lmax: 2}
    cutoffs: {filter: 2.06,
              core: 2.67}
    valence states:
      #              energy  rcut
      - 4s(2.00)    -5.291   1.164
      - 4p(0.00)    -1.326   1.058
      - 3d(6.00)    -7.505   1.058
      -  s          21.920   1.164
      -  p          25.885   1.058
      -  d          19.706   1.058

    # Using partial waves for Fe as LCAO basis

Reference energy: -3235165.067515  # eV

Spin-polarized calculation.
Magnetic moment: 121.100000

Convergence criteria:
 Maximum [total energy] change in last 3 cyles: 0.0001 eV / electron
 Maximum integral of absolute [dens]ity change: 0.0001 electrons / valence electron
 Maximum integral of absolute [eigenst]ate change: 4e-08 eV^2 / valence electron
 Maximum number of scf [iter]ations: 666
 (Square brackets indicate name in SCF output, whereas a 'c' in
 the SCF output indicates the quantity has converged.)

Symmetries present (total): 1

  ( 1  0  0)
  ( 0  1  0)
  ( 0  0  1)

8 k-points: 2 x 2 x 2 Monkhorst-Pack grid
4 k-points in the irreducible part of the Brillouin zone
       k-points in crystal coordinates                weights
   0:     0.25000000   -0.25000000   -0.25000000          2/8
   1:     0.25000000   -0.25000000    0.25000000          2/8
   2:     0.25000000    0.25000000   -0.25000000          2/8
   3:     0.25000000    0.25000000    0.25000000          2/8

Wave functions: Plane wave expansion
  Cutoff energy: 350.000 eV
  Number of coefficients (min, max): 19084, 19084
  Pulay-stress correction: 0.000000 eV/Ang^3 (de/decut=0.000000)
  Using FFTW library
  ScaLapack parameters: grid=1x1, blocksize=None
  Wavefunction extrapolation:
    Improved wavefunction reuse through dual PAW basis

Occupation numbers: Fermi-Dirac:
  width: 0.1000  # eV

Eigensolver
   Davidson(niter=2)

Densities:
  Coarse grid: 48*48*48 grid
  Fine grid: 96*96*96 grid
  Total Charge: 0.000000

Density mixing:
  Method: difference
  Backend: pulay
  Linear mixing parameter: 0.05
  old densities: 5
  Damping of long wavelength oscillations: 50

Hamiltonian:
  XC and Coulomb potentials evaluated on a 96*96*96 grid
  Using the PBE Exchange-Correlation functional
  External potential:
    NoExternalPotential

XC parameters: PBE with 2 nearest neighbor stencil

Total number of cores used: 30
Parallelization over k-points: 2
Domain decomposition: 5 x 3 x 1

Number of atoms: 108
Number of atomic orbitals: 933
Number of bands in calculation: 624
Number of valence electrons: 912
Bands to converge: occupied

... initialized

Initializing position-dependent things.

Density initialized from atomic densities
Creating initial wave functions:
  624 bands from LCAO basis set

        .--------Al----------------.
       /|           Fe             |
      / |    FeFe     Ni           |
     / Ni       Ni       Al        |
    /   |Fe      CrCo       Fe     |
   /    | NiCr      ACo            |
  /    Co  FeiAlAl    Co Fe  CoAl  |
 *      Fe     AlCoAl   NiFe     Cr|
 |      |FeCr   NiFeFe   AlNiNi   Co
 |      | CoNi   AlCoCoAl NiCrFe   |
 |     Fe  Al CoCo  CrCr Cr  NiCr  |
 |      Cr  Ni CrNiCo CoNiCoAl   Fe|
 |      |CrCo   CoAlAl   CoNiFe   Fe
 |      .-FeNi-----NiCr-Al--CrFe---.
 |     Al  Cr CoCr    Al Co  Cr Cr/
 |    / Co              Ni       Cr
 |   /           Ali      NiFe  /
 |  /      Cr       Fe     NiAl/
 | /                   Fe     /r
 *--------------------------Cr

Positions:
   0 Cr    10.797848    0.093654    0.085777    ( 0.0000,  0.0000,  0.0000)
   1 Al    10.831824    1.844742    1.870716    ( 0.0000,  0.0000,  2.0000)
   2 Ni     1.786803   10.847372    1.827335    ( 0.0000,  0.0000,  0.0000)
   3 Co     1.769614    1.870531   -0.031264    ( 0.0000,  0.0000,  0.0000)
   4 Al     3.620857   10.822050   10.833629    ( 0.0000,  0.0000,  1.5000)
   5 Cr     3.571246    1.883176    1.708402    ( 0.0000,  0.0000,  0.0000)
   6 Co     5.521103   10.788063    1.666217    ( 0.0000,  0.0000,  0.0000)
   7 Al     5.520831    1.813973   10.830911    ( 0.0000,  0.0000,  1.5000)
   8 Al     7.330846    0.011025   10.815657    ( 0.0000,  0.0000,  2.0000)
   9 Fe     7.282018    1.809483    1.793250    ( 0.0000,  0.0000,  2.1000)
  10 Fe     9.029996    0.022005    1.811918    ( 0.0000,  0.0000,  1.5000)
  11 Fe     9.007196    1.868639   10.825714    ( 0.0000,  0.0000,  2.0000)
  12 Cr    10.861310    3.649723    0.014171    ( 0.0000,  0.0000,  2.0000)
  13 Cr    10.867442    5.463468    1.819235    ( 0.0000,  0.0000,  2.1000)
  14 Co     1.756088    3.650267    1.845949    ( 0.0000,  0.0000,  0.0000)
  15 Fe     1.790358    5.439092   10.869084    ( 0.0000,  0.0000,  2.1000)
  16 Cr     3.687842    3.622792   -0.049287    ( 0.0000,  0.0000,  2.0000)
  17 Co     3.667347    5.391145    1.745368    ( 0.0000,  0.0000,  0.0000)
  18 Al     5.497977    3.634415    1.792370    ( 0.0000,  0.0000,  2.0000)
  19 Ni     5.524908    5.448029    0.002551    ( 0.0000,  0.0000,  2.0000)
  20 Co     7.223340    3.611877   10.834270    ( 0.0000,  0.0000,  0.0000)
  21 Al     7.217762    5.474830    1.807776    ( 0.0000,  0.0000,  2.1000)
  22 Ni     9.073442    3.654344    1.775148    ( 0.0000,  0.0000,  0.0000)
  23 Ni     9.008740    5.418608    0.007692    ( 0.0000,  0.0000,  2.0000)
  24 Cr    10.859190    7.178720    0.014480    ( 0.0000,  0.0000,  1.5000)
  25 Fe    -0.018106    8.970948    1.875391    ( 0.0000,  0.0000,  0.0000)
  26 Fe     1.817615    7.224025    1.802546    ( 0.0000,  0.0000,  1.5000)
  27 Cr     1.880729    8.993464   10.874031    ( 0.0000,  0.0000,  0.0000)
  28 Fe     3.684428    7.260447   -0.001356    ( 0.0000,  0.0000,  2.0000)
  29 Co     3.612616    9.025636    1.761807    ( 0.0000,  0.0000,  1.5000)
  30 Ni     5.481440    7.275114    1.811211    ( 0.0000,  0.0000,  1.5000)
  31 Fe     5.461261    9.048153   10.833988    ( 0.0000,  0.0000,  1.5000)
  32 Ni     7.245704    7.257881    0.056891    ( 0.0000,  0.0000,  2.1000)
  33 Co     7.301969    9.004609    1.790315    ( 0.0000,  0.0000,  0.0000)
  34 Cr     9.029343    7.181775    1.815549    ( 0.0000,  0.0000,  2.0000)
  35 Cr     9.030561    9.042010    0.020232    ( 0.0000,  0.0000,  1.5000)
  36 Fe    -0.031046    0.001947    3.645701    ( 0.0000,  0.0000,  2.0000)
  37 Fe    10.825910    1.804351    5.434602    ( 0.0000,  0.0000,  2.1000)
  38 Ni     1.743552   10.849296    5.484376    ( 0.0000,  0.0000,  0.0000)
  39 Al     1.769755    1.791891    3.636068    ( 0.0000,  0.0000,  1.5000)
  40 Al     3.516667   10.719828    3.663227    ( 0.0000,  0.0000,  0.0000)
  41 Co     3.644244    1.785205    5.586728    ( 0.0000,  0.0000,  0.0000)
  42 Al     5.484778   10.815439    5.504022    ( 0.0000,  0.0000,  0.0000)
  43 Cr     5.457934    1.842230    3.658769    ( 0.0000,  0.0000,  0.0000)
  44 Ni     7.360615   10.815439    3.672229    ( 0.0000,  0.0000,  0.0000)
  45 Al     7.266884    1.811614    5.485528    ( 0.0000,  0.0000,  2.1000)
  46 Al     9.077986    0.023590    5.491921    ( 0.0000,  0.0000,  0.0000)
  47 Co     9.066788    1.824226    3.671175    ( 0.0000,  0.0000,  1.5000)
  48 Fe    -0.047135    3.649615    3.617291    ( 0.0000,  0.0000,  2.0000)
  49 Cr    10.809264    5.435993    5.379805    ( 0.0000,  0.0000,  2.0000)
  50 Cr     1.752316    3.624989    5.344676    ( 0.0000,  0.0000,  0.0000)
  51 Cr     1.805786    5.472046    3.619389    ( 0.0000,  0.0000,  2.1000)
  52 Ni     3.649408    3.633491    3.631251    ( 0.0000,  0.0000,  2.1000)
  53 Co     3.657628    5.433797    5.434015    ( 0.0000,  0.0000,  1.5000)
  54 Ni     5.413368    3.672642    5.480309    ( 0.0000,  0.0000,  1.5000)
  55 Al     5.413835    5.465588    3.639666    ( 0.0000,  0.0000,  2.1000)
  56 Cr     7.223449    3.731734    3.720829    ( 0.0000,  0.0000,  0.0000)
  57 Cr     7.220557    5.483180    5.485572    ( 0.0000,  0.0000,  0.0000)
  58 Co     9.069039    3.623673    5.469720    ( 0.0000,  0.0000,  1.5000)
  59 Ni     9.064766    5.503837    3.636731    ( 0.0000,  0.0000,  0.0000)
[...]
  93 Co     7.214631    5.385893    9.048577    ( 0.0000,  0.0000,  2.1000)
  94 Fe     8.994291    3.655975    9.039237    ( 0.0000,  0.0000,  1.5000)
  95 Ni     9.006577    5.423262    7.223296    ( 0.0000,  0.0000,  2.0000)
  96 Cr    -0.070637    7.291956    7.110419    ( 0.0000,  0.0000,  0.0000)
  97 Ni     0.073012    9.104570    9.068375    ( 0.0000,  0.0000,  0.0000)
  98 Ni     1.863247    7.257381    9.054785    ( 0.0000,  0.0000,  2.0000)
  99 Fe     1.858343    9.053708    7.225808    ( 0.0000,  0.0000,  2.1000)
 100 Al     3.683906    7.292456    7.235550    ( 0.0000,  0.0000,  2.0000)
 101 Ni     3.628218    9.069550    9.051262    ( 0.0000,  0.0000,  2.1000)
 102 Co     5.530605    7.331890    9.040129    ( 0.0000,  0.0000,  0.0000)
 103 Al     5.476232    9.097209    7.250467    ( 0.0000,  0.0000,  2.0000)
 104 Ni     7.256827    7.264242    7.208456    ( 0.0000,  0.0000,  2.1000)
 105 Al     7.272548    9.136437    9.056861    ( 0.0000,  0.0000,  1.5000)
 106 Fe     8.936493    7.190875    9.109767    ( 0.0000,  0.0000,  0.0000)
 107 Co     8.994682    9.112169    7.218480    ( 0.0000,  0.0000,  0.0000)

Unit cell:
           periodic     x           y           z      points  spacing
  1. axis:    yes   10.872400    0.000000    0.000000    48     0.2265
  2. axis:    yes    0.000000   10.872400    0.000000    48     0.2265
  3. axis:    yes    0.000000    0.000000   10.872400    48     0.2265

  Lengths:  10.872400  10.872400  10.872400
  Angles:   90.000000  90.000000  90.000000

Effective grid spacing dv^(1/3) = 0.2265

     iter     time        total  log10-change:  magmom
                         energy  eigst   dens
iter:   1 08:54:08  -915.651134                  +120.1134
iter:   2 08:56:14  -842.360341  -0.27  -1.26    +82.4986
iter:   3 08:58:20  -837.349099  -0.76  -1.27    +50.6335
iter:   4 09:00:25  -816.270068  -1.20  -1.29    +45.9586
iter:   5 09:02:31  -810.085145  -1.63  -1.37    +43.5728
iter:   6 09:04:37  -811.311704  -1.72  -1.42    +42.7086
iter:   7 09:06:44  -805.142626  -1.58  -1.44    +42.0467
iter:   8 09:08:50  -802.807897  -1.70  -1.54    +42.7135
iter:   9 09:10:56  -806.607800  -1.88  -1.68    +43.7959
iter:  10 09:13:02  -803.373518  -2.09  -1.65    +44.4462
iter:  11 09:15:07  -803.589992  -2.27  -1.75    +45.8202
iter:  12 09:17:12  -802.398744  -2.52  -1.78    +46.8563
iter:  13 09:19:18  -803.812231  -2.43  -1.86    +48.3887
iter:  14 09:21:24  -803.698161  -2.47  -1.88    +49.3162
iter:  15 09:23:29  -803.668663  -2.55  -1.91    +50.4246
iter:  16 09:25:35  -804.606998  -2.47  -1.98    +52.1079
iter:  17 09:27:40  -804.049216  -2.61  -1.96    +52.6606
iter:  18 09:29:46  -803.952001  -2.70  -2.04    +53.7108
iter:  19 09:31:52  -803.724554  -2.97  -2.07    +54.7255
iter:  20 09:33:58  -803.916889  -2.92  -2.15    +55.7631
iter:  21 09:36:02  -803.847496  -3.16  -2.15    +56.6057
iter:  22 09:38:08  -804.113809  -3.15  -2.22    +57.0403
iter:  23 09:40:14  -804.209801  -3.08  -2.22    +57.8881
iter:  24 09:42:20  -804.499345  -2.98  -2.24    +58.2773
iter:  25 09:44:26  -804.264871  -3.17  -2.22    +58.6705
iter:  26 09:46:31  -804.469581  -3.18  -2.31    +59.2183
iter:  27 09:48:37  -804.379347  -3.36  -2.32    +59.4457
iter:  28 09:50:42  -804.403011c -3.47  -2.35    +59.8121
iter:  29 09:52:47  -804.452769c -3.64  -2.41    +60.0565
iter:  30 09:54:52  -804.490754c -3.80  -2.42    +60.3892
iter:  31 09:56:57  -804.553950  -3.75  -2.44    +60.6389
iter:  32 09:59:02  -804.591615  -3.80  -2.45    +60.8663
iter:  33 10:01:07  -804.719801  -3.59  -2.47    +61.0899
iter:  34 10:03:12  -804.711595  -3.64  -2.45    +61.2013
iter:  35 10:05:17  -804.891631  -3.35  -2.51    +61.4202
iter:  36 10:07:22  -804.796157  -3.47  -2.43    +61.3451
iter:  37 10:09:27  -804.831403  -3.51  -2.53    +61.5037
iter:  38 10:11:32  -804.763266c -3.79  -2.51    +61.6521
iter:  39 10:13:38  -804.749485c -4.06  -2.62    +61.7684
iter:  40 10:15:43  -804.754857c -4.39  -2.65    +61.8023
iter:  41 10:17:48  -804.774292c -4.62  -2.69    +61.8637
iter:  42 10:19:54  -804.817184c -4.11  -2.70    +61.9876
iter:  43 10:21:59  -804.859570c -3.85  -2.73    +61.9054
iter:  44 10:24:05  -804.886927c -4.03  -2.83    +61.8654
iter:  45 10:26:09  -804.867292c -4.19  -2.84    +61.7537
iter:  46 10:28:14  -804.869892c -4.65  -3.06    +61.6583
iter:  47 10:30:20  -804.880448c -4.89  -3.16    +61.5928
iter:  48 10:32:24  -804.885741c -5.03  -3.20    +61.5248
iter:  49 10:34:30  -804.898157c -4.88  -3.23    +61.3655
iter:  50 10:36:34  -804.903937c -5.07  -3.29    +61.3088
iter:  51 10:38:36  -804.913962c -4.90  -3.35    +61.1669
iter:  52 10:40:40  -804.919360c -5.05  -3.34    +61.0897
iter:  53 10:42:45  -804.927291c -5.11  -3.40    +60.9845
iter:  54 10:44:50  -804.936041c -5.11  -3.45    +60.8656
iter:  55 10:46:54  -804.977406c -3.94  -3.44    +60.2752
iter:  56 10:48:59  -804.985881c -4.62  -3.26    +60.1392
iter:  57 10:51:04  -804.981143c -5.11  -3.26    +60.2285
iter:  58 10:53:09  -804.986845c -5.06  -3.33    +60.0844
iter:  59 10:55:14  -804.990746c -5.34  -3.35    +60.0202
iter:  60 10:57:19  -804.993636c -4.70  -3.34    +59.9929
iter:  61 10:59:24  -804.993636c -5.03  -3.19    +59.8781
iter:  62 11:01:29  -804.997692c -5.34  -3.40    +59.7811
iter:  63 11:03:35  -805.005378c -5.09  -3.42    +59.6890
iter:  64 11:05:40  -805.003915c -5.60  -3.33    +59.6441
iter:  65 11:07:45  -805.010794c -5.26  -3.46    +59.5108
iter:  66 11:09:48  -805.004259c -5.58  -3.45    +59.6160
iter:  67 11:11:48  -805.001010c -5.00  -3.55    +59.7156
iter:  68 11:13:53  -805.006193c -5.13  -3.49    +59.5607
iter:  69 11:15:58  -805.008715c -5.76  -3.68    +59.5211
iter:  70 11:18:03  -805.012109c -5.66  -3.69    +59.4423
iter:  71 11:20:08  -805.012603c -6.17  -3.73    +59.4475
iter:  72 11:22:12  -805.018733c -5.48  -3.70    +59.3328
iter:  73 11:24:17  -805.000108c -4.63  -3.66    +59.6960
iter:  74 11:26:22  -804.981537c -4.18  -3.81    +60.1880
iter:  75 11:28:27  -804.979447c -4.75  -3.68    +60.3238
iter:  76 11:30:32  -804.980600c -4.64  -3.65    +60.5060
iter:  77 11:32:37  -804.984571c -4.86  -3.58    +60.5623
iter:  78 11:34:42  -804.988291c -5.26  -3.55    +60.5365
iter:  79 11:36:47  -804.991371c -5.26  -3.53    +60.5153
iter:  80 11:38:52  -804.993365c -5.57  -3.53    +60.4843
iter:  81 11:40:56  -804.995537c -5.39  -3.55    +60.4547
iter:  82 11:43:00  -805.003354c -4.91  -3.52    +60.4547
iter:  83 11:45:05  -804.997282c -5.34  -3.34    +60.4235
iter:  84 11:47:09  -804.999247c -5.65  -3.61    +60.3480
iter:  85 11:49:14  -805.002594c -5.47  -3.64    +60.2958
iter:  86 11:51:19  -805.003698c -5.72  -3.58    +60.2493
iter:  87 11:53:24  -805.007775c -5.44  -3.59    +60.1876
iter:  88 11:55:29  -805.006117c -5.96  -3.49    +60.2205
iter:  89 11:57:34  -805.012062c -5.34  -3.46    +60.1404
iter:  90 11:59:39  -805.009210c -5.13  -3.39    +60.0920
iter:  91 12:01:43  -805.009302c -5.91  -3.45    +60.0788
iter:  92 12:03:48  -805.010011c -5.97  -3.48    +60.0549
iter:  93 12:05:53  -805.009948c -5.75  -3.46    +60.0388
iter:  94 12:07:58  -805.009280c -5.14  -3.48    +60.0470
iter:  95 12:10:02  -805.008727c -5.55  -3.37    +60.0460
iter:  96 12:12:05  -805.008220c -6.13  -3.53    +60.0395
iter:  97 12:14:11  -805.007778c -5.49  -3.59    +60.0452
iter:  98 12:16:15  -805.008439c -5.64  -3.54    +60.0447
iter:  99 12:18:20  -805.008177c -5.51  -3.59    +60.0605
iter: 100 12:20:24  -805.008603c -5.51  -3.58    +60.0593
iter: 101 12:22:29  -805.006677c -5.67  -3.64    +60.0550
iter: 102 12:24:33  -805.007109c -5.74  -3.71    +60.0641
iter: 103 12:26:38  -805.006952c -6.17  -3.75    +60.0639
iter: 104 12:28:43  -805.006418c -6.44  -3.95    +60.0737
iter: 105 12:30:48  -805.006456c -6.55  -3.97    +60.0747
iter: 106 12:32:54  -805.006507c -6.85  -3.98    +60.0807
iter: 107 12:34:59  -805.006806c -6.63  -4.08c   +60.0876
iter: 108 12:37:04  -805.006349c -6.30  -4.02c   +60.0913
iter: 109 12:39:09  -805.006265c -6.54  -3.95    +60.0954
iter: 110 12:41:14  -805.006945c -6.44  -4.13c   +60.1001
iter: 111 12:43:19  -805.006787c -6.51  -4.07c   +60.1054
iter: 112 12:45:24  -805.006492c -6.73  -4.12c   +60.1098
iter: 113 12:47:27  -805.006312c -7.15  -4.28c   +60.1139
iter: 114 12:49:32  -805.006532c -7.35  -4.29c   +60.1199
iter: 115 12:51:36  -805.006527c -7.48c -4.33c   +60.1259

Converged after 115 iterations.

Dipole moment: (30.161069, 16.366210, 7.920137) |e|*Ang

Total magnetic moment: (0.000000, 0.000000, 60.125911)
Local magnetic moments:
   0 Cr ( 0.000000,  0.000000, -2.005888)
   1 Al ( 0.000000,  0.000000, -0.030736)
   2 Ni ( 0.000000,  0.000000,  0.067474)
   3 Co ( 0.000000,  0.000000,  0.534481)
   4 Al ( 0.000000,  0.000000, -0.018626)
   5 Cr ( 0.000000,  0.000000, -2.197378)
   6 Co ( 0.000000,  0.000000,  1.035681)
   7 Al ( 0.000000,  0.000000, -0.018320)
   8 Al ( 0.000000,  0.000000, -0.049589)
   9 Fe ( 0.000000,  0.000000,  2.193336)
  10 Fe ( 0.000000,  0.000000,  2.162559)
  11 Fe ( 0.000000,  0.000000,  1.995608)
  12 Cr ( 0.000000,  0.000000,  0.812410)
  13 Cr ( 0.000000,  0.000000, -0.900977)
  14 Co ( 0.000000,  0.000000,  0.513014)
  15 Fe ( 0.000000,  0.000000,  1.925925)
  16 Cr ( 0.000000,  0.000000,  1.537971)
  17 Co ( 0.000000,  0.000000,  0.940245)
  18 Al ( 0.000000,  0.000000, -0.014460)
  19 Ni ( 0.000000,  0.000000,  0.370530)
  20 Co ( 0.000000,  0.000000,  1.340033)
  21 Al ( 0.000000,  0.000000, -0.004753)
  22 Ni ( 0.000000,  0.000000,  0.229927)
  23 Ni ( 0.000000,  0.000000,  0.220701)
  24 Cr ( 0.000000,  0.000000,  0.292015)
  25 Fe ( 0.000000,  0.000000,  2.010383)
  26 Fe ( 0.000000,  0.000000,  1.870406)
  27 Cr ( 0.000000,  0.000000, -1.940324)
  28 Fe ( 0.000000,  0.000000,  2.429265)
  29 Co ( 0.000000,  0.000000,  0.863384)
  30 Ni ( 0.000000,  0.000000,  0.204879)
  31 Fe ( 0.000000,  0.000000,  2.433752)
  32 Ni ( 0.000000,  0.000000,  0.308033)
  33 Co ( 0.000000,  0.000000,  1.307889)
  34 Cr ( 0.000000,  0.000000, -1.415094)
  35 Cr ( 0.000000,  0.000000,  1.314572)
  36 Fe ( 0.000000,  0.000000,  2.354574)
  37 Fe ( 0.000000,  0.000000,  1.828278)
  38 Ni ( 0.000000,  0.000000,  0.252402)
  39 Al ( 0.000000,  0.000000, -0.021125)
  40 Al ( 0.000000,  0.000000, -0.012194)
  41 Co ( 0.000000,  0.000000,  0.801187)
  42 Al ( 0.000000,  0.000000, -0.017284)
  43 Cr ( 0.000000,  0.000000,  2.204163)
  44 Ni ( 0.000000,  0.000000,  0.278105)
  45 Al ( 0.000000,  0.000000, -0.014668)
  46 Al ( 0.000000,  0.000000, -0.023097)
  47 Co ( 0.000000,  0.000000,  1.164917)
  48 Fe ( 0.000000,  0.000000,  1.974467)
  49 Cr ( 0.000000,  0.000000, -1.152749)
  50 Cr ( 0.000000,  0.000000, -1.984675)
  51 Cr ( 0.000000,  0.000000,  1.080798)
  52 Ni ( 0.000000,  0.000000,  0.120746)
  53 Co ( 0.000000,  0.000000,  1.145121)
  54 Ni ( 0.000000,  0.000000,  0.155960)
  55 Al ( 0.000000,  0.000000, -0.003849)
  56 Cr ( 0.000000,  0.000000, -1.661295)
  57 Cr ( 0.000000,  0.000000, -1.057320)
  58 Co ( 0.000000,  0.000000,  0.838587)
  59 Ni ( 0.000000,  0.000000,  0.059575)
[...]
  93 Co ( 0.000000,  0.000000,  1.591077)
  94 Fe ( 0.000000,  0.000000,  2.271547)
  95 Ni ( 0.000000,  0.000000,  0.277085)
  96 Cr ( 0.000000,  0.000000, -2.111054)
  97 Ni ( 0.000000,  0.000000,  0.166884)
  98 Ni ( 0.000000,  0.000000,  0.205809)
  99 Fe ( 0.000000,  0.000000,  2.247579)
 100 Al ( 0.000000,  0.000000, -0.040078)
 101 Ni ( 0.000000,  0.000000,  0.169389)
 102 Co ( 0.000000,  0.000000,  1.059999)
 103 Al ( 0.000000,  0.000000, -0.005209)
 104 Ni ( 0.000000,  0.000000,  0.183396)
 105 Al ( 0.000000,  0.000000, -0.024355)
 106 Fe ( 0.000000,  0.000000,  2.403044)
 107 Co ( 0.000000,  0.000000,  0.763029)

Energy contributions relative to reference atoms: (reference = -3235165.067515)

Kinetic:       +239.312185
Potential:     -231.351598
External:        +0.000000
XC:            -842.167743
Entropy (-ST):   -4.087215
Local:          +31.244236
Free energy:   -807.050135
Extrapolated:  -805.006527

Spin contamination: 25.024172 electrons
Showing only first 2 kpts
                      Up                     Down
 Kpt  Band  Eigenvalues  Occupancy  Eigenvalues  Occupancy
  0   454      8.98408    0.99554      9.92092    0.01869
  0   455      8.99809    0.99487      9.93245    0.01669
  0   456      9.01082    0.99418      9.93985    0.01552
  0   457      9.02643    0.99320      9.95947    0.01279

  1   454      8.97909    0.99575      9.91646    0.01953
  1   455      8.98220    0.99562      9.92224    0.01845
  1   456      9.00460    0.99453      9.94951    0.01411
  1   457      9.02582    0.99324      9.96062    0.01264

Fermi level: 9.52483

No gap

Forces in eV/Ang:
  0 Cr    0.23073   -0.78048   -0.61165
  1 Al   -0.32422    0.41842   -0.39389
  2 Ni   -0.01027    0.07845   -0.07303
  3 Co   -0.08974   -0.12699   -0.17315
  4 Al   -0.11866   -0.03630    0.33628
  5 Cr    0.21528    0.22504    0.23282
  6 Co   -0.21847    0.29597    1.06692
  7 Al   -0.09584   -0.07993   -0.17294
  8 Al   -0.81059    0.06512    1.72928
  9 Fe    0.50833   -0.13187    0.48664
 10 Fe    0.05191   -0.44716    0.51959
 11 Fe    0.43304    0.27127    0.17845
 12 Cr    0.30127   -0.39728    0.19277
 13 Cr   -0.19060   -0.16385    0.14319
 14 Co    0.35413    0.21925   -0.15961
 15 Fe    0.30411   -0.11037    0.34371
 16 Cr   -0.76150   -0.67841    0.80513
 17 Co   -0.59778    0.41754    0.17949
 18 Al   -0.55969   -0.00387   -0.00908
 19 Ni   -0.41136   -0.03017   -0.36208
 20 Co    0.40828    0.01224   -0.28280
 21 Al    0.89018    0.02602   -0.59921
 22 Ni   -0.43412   -0.08461    0.30407
 23 Ni   -0.06823   -0.03614   -0.10359
 24 Cr    0.03151    1.11757    0.21400
 25 Fe   -0.19461    0.28956   -0.69236
 26 Fe    0.16507   -0.00026   -0.08931
 27 Cr   -1.07800   -0.66241    0.22728
 28 Fe   -0.14373   -0.02647    0.40248
 29 Co    0.26929   -0.15264    0.36636
 30 Ni   -0.66923    0.15433    0.04544
 31 Fe    0.19198   -0.56465    0.64247
 32 Ni   -0.09013   -0.07246   -0.53444
 33 Co    0.04909    0.37917    0.46067
 34 Cr    0.96379    1.30540    0.18488
 35 Cr    1.17688   -0.50996    0.01822
 36 Fe   -0.36412   -0.38223   -0.23627
 37 Fe    0.00537    0.51792   -0.19047
 38 Ni    0.74980    0.10485   -0.22993
 39 Al    0.89290    0.17482    0.46407
 40 Al    1.22861    0.95666   -0.36406
 41 Co   -0.00384   -0.08997   -0.42685
 42 Al   -0.78780    1.34949   -0.75272
 43 Cr   -0.28045   -0.35031   -0.34591
 44 Ni   -0.88657    0.19147   -0.19832
 45 Al   -0.31543    0.84911   -0.49654
 46 Al   -0.21074   -0.98061   -1.29290
 47 Co   -0.35406    0.41082   -0.38014
 48 Fe   -0.45016    0.33449    0.31745
 49 Cr   -0.34233   -0.14575    0.08731
 50 Cr    0.85656    0.54665    1.15337
 51 Cr    0.81035   -0.38383    0.11217
 52 Ni   -0.37204   -0.24209   -0.02833
 53 Co   -0.60887    0.13413    0.26240
 54 Ni   -0.08997   -0.50134   -0.01159
 55 Al   -0.99079    0.63421    0.64511
 56 Cr    0.93328   -0.96681   -0.32455
 57 Cr    0.38299   -0.19512    0.77529
 58 Co   -0.00545    0.18958   -0.26234
 59 Ni   -0.23474   -0.68595   -0.23940
[...]
 93 Co   -0.07893    0.27850    0.04570
 94 Fe   -0.34465   -0.46288   -0.03766
 95 Ni    0.09519    0.01721    0.08205
 96 Cr    0.12162    0.70164    0.72879
 97 Ni   -0.44681   -0.39632    0.07615
 98 Ni   -0.30407   -0.01854   -0.08359
 99 Fe   -0.77599   -0.07510    0.04410
100 Al   -0.60393   -0.50885   -0.23316
101 Ni    0.24027   -0.24818   -0.02092
102 Co   -0.36285   -0.74979    0.31832
103 Al   -0.21129   -0.90324    1.10016
104 Ni    0.09655   -0.14978    0.54942
105 Al   -0.16526   -1.84395   -0.60049
106 Fe    0.69837    0.26090   -0.55630
107 Co    0.83276   -0.57048    0.30469

Date: Sat Apr 15 12:51:56 2023