User:   c.zeng@d0149
Date:   Sat Apr  8 14:13:01 2023
Arch:   x86_64
Pid:    56132
CWD:    /home/c.zeng/projects/hea-corrosion/hea-mlp/data-curation/volume/dft-jobs/79
Python: 3.8.1
gpaw:   /home/c.zeng/usr/installs/gpaw/source/gpaw-22.8.0/gpaw
_gpaw:  /home/c.zeng/usr/installs/gpaw/source/gpaw-22.8.0/
        _gpaw.cpython-38-x86_64-linux-gnu.so
ase:    /home/c.zeng/.local/lib/python3.8/site-packages/ase-3.22.1-py3.8.egg/ase (version 3.22.1)
numpy:  /shared/centos7/python/3.8.1/lib/python3.8/site-packages/numpy (version 1.17.4)
scipy:  /shared/centos7/python/3.8.1/lib/python3.8/site-packages/scipy (version 1.4.1)
units:  Angstrom and eV
cores: 64
OpenMP: False
OMP_NUM_THREADS: 1

Input parameters:
  convergence: {energy: 0.0001}
  kpts: [2 2 2]
  maxiter: 666
  mode: {ecut: 350.0,
         name: pw}
  occupations: {fixmagmom: False,
                name: fermi-dirac,
                width: 0.1}
  spinpol: True
  xc: PBE

System changes: positions, numbers, cell, pbc, initial_charges, initial_magmoms

Initialize ...

species:
  Co:
    name: Cobalt
    id: 339d20d5b0b93d2de9531a1bee871d91
    Z: 27.0
    valence: 9
    core: 18
    charge: 0.0
    file: /home/c.zeng/usr/data/gpaw-setups-0.9.20000/Co.PBE.gz
    compensation charges: {type: gauss,
                           rc: 0.32,
                           lmax: 2}
    cutoffs: {filter: 1.87,
              core: 2.55}
    valence states:
      #              energy  rcut
      - 4s(2.00)    -5.469   1.005
      - 4p(0.00)    -1.277   1.058
      - 3d(7.00)    -8.205   1.005
      -  s          21.742   1.005
      -  p          25.934   1.058
      -  d          19.007   1.005

    # Using partial waves for Co as LCAO basis

  Ni:
    name: Nickel
    id: 0d9f38a9d6e76a2886f07bb4381f212b
    Z: 28.0
    valence: 16
    core: 12
    charge: 0.0
    file: /home/c.zeng/usr/data/gpaw-setups-0.9.20000/Ni.PBE.gz
    compensation charges: {type: gauss,
                           rc: 0.36,
                           lmax: 2}
    cutoffs: {filter: 2.14,
              core: 1.98}
    valence states:
      #              energy  rcut
      - 4s(2.00)    -5.642   1.164
      - 3p(6.00)   -71.394   1.207
      - 4p(0.00)    -1.226   1.207
      - 3d(8.00)    -8.875   1.138
      -  s          21.570   1.164
      -  d          18.337   1.138

[...]

  Al:
    name: Aluminium
    id: 0292cae29f5d6237e50f6abdd43a7bdd
    Z: 13.0
    valence: 3
    core: 10
    charge: 0.0
    file: /home/c.zeng/usr/data/gpaw-setups-0.9.20000/Al.PBE.gz
    compensation charges: {type: gauss,
                           rc: 0.34,
                           lmax: 2}
    cutoffs: {filter: 1.91,
              core: 2.36}
    valence states:
      #              energy  rcut
      - 3s(2.00)    -7.753   1.085
      - 3p(1.00)    -2.712   1.085
      -  s          19.459   1.085
      -  p          24.499   1.085
      -  d           0.000   1.085

[...]

  Cr:
    name: Chromium
    id: 33f258bda2ca9f93018e70263a35547b
    Z: 24.0
    valence: 6
    core: 18
    charge: 0.0
    file: /home/c.zeng/usr/data/gpaw-setups-0.9.20000/Cr.PBE.gz
    compensation charges: {type: gauss,
                           rc: 0.35,
                           lmax: 2}
    cutoffs: {filter: 2.14,
              core: 3.04}
    valence states:
      #              energy  rcut
      - 4s(1.00)    -4.007   1.164
      - 4p(0.00)    -0.989   1.217
      - 3d(5.00)    -2.913   1.111
      -  s          23.205   1.164
      -  p          26.223   1.217
      -  d          24.299   1.111

[...]

  Fe:
    name: Iron
    id: 37abbd8d6c3c35915a9b583b742da910
    Z: 26.0
    valence: 8
    core: 18
    charge: 0.0
    file: /home/c.zeng/usr/data/gpaw-setups-0.9.20000/Fe.PBE.gz
    compensation charges: {type: gauss,
                           rc: 0.33,
                           lmax: 2}
    cutoffs: {filter: 2.06,
              core: 2.67}
    valence states:
      #              energy  rcut
      - 4s(2.00)    -5.291   1.164
      - 4p(0.00)    -1.326   1.058
      - 3d(6.00)    -7.505   1.058
      -  s          21.920   1.164
      -  p          25.885   1.058
      -  d          19.706   1.058

    # Using partial waves for Fe as LCAO basis

Reference energy: -3548577.034362  # eV

Spin-polarized calculation.
Magnetic moment: 136.400000

Convergence criteria:
 Maximum [total energy] change in last 3 cyles: 0.0001 eV / electron
 Maximum integral of absolute [dens]ity change: 0.0001 electrons / valence electron
 Maximum integral of absolute [eigenst]ate change: 4e-08 eV^2 / valence electron
 Maximum number of scf [iter]ations: 666
 (Square brackets indicate name in SCF output, whereas a 'c' in
 the SCF output indicates the quantity has converged.)

Symmetries present (total): 1

  ( 1  0  0)
  ( 0  1  0)
  ( 0  0  1)

8 k-points: 2 x 2 x 2 Monkhorst-Pack grid
4 k-points in the irreducible part of the Brillouin zone
       k-points in crystal coordinates                weights
   0:     0.25000000   -0.25000000   -0.25000000          2/8
   1:     0.25000000   -0.25000000    0.25000000          2/8
   2:     0.25000000    0.25000000   -0.25000000          2/8
   3:     0.25000000    0.25000000    0.25000000          2/8

Wave functions: Plane wave expansion
  Cutoff energy: 350.000 eV
  Number of coefficients (min, max): 18331, 18331
  Pulay-stress correction: 0.000000 eV/Ang^3 (de/decut=0.000000)
  Using FFTW library
  ScaLapack parameters: grid=1x1, blocksize=None
  Wavefunction extrapolation:
    Improved wavefunction reuse through dual PAW basis

Occupation numbers: Fermi-Dirac:
  width: 0.1000  # eV

Eigensolver
   Davidson(niter=2)

Densities:
  Coarse grid: 48*48*48 grid
  Fine grid: 96*96*96 grid
  Total Charge: 0.000000

Density mixing:
  Method: difference
  Backend: pulay
  Linear mixing parameter: 0.05
  old densities: 5
  Damping of long wavelength oscillations: 50

Hamiltonian:
  XC and Coulomb potentials evaluated on a 96*96*96 grid
  Using the PBE Exchange-Correlation functional
  External potential:
    NoExternalPotential

XC parameters: PBE with 2 nearest neighbor stencil

Total number of cores used: 64
Parallelization over k-points: 4
Domain decomposition: 4 x 2 x 2

Number of atoms: 108
Number of atomic orbitals: 994
Number of bands in calculation: 674
Number of valence electrons: 980
Bands to converge: occupied

... initialized

Initializing position-dependent things.

Density initialized from atomic densities
Creating initial wave functions:
  674 bands from LCAO basis set

        Co-------Cr---------------.
       /|  Cr       Fe            |
      / |   CoFe     FeFe     AlFe|
     / Ni       NCo     NiCr      |
    /   AAl      Fe      Ni       |
   /    | NiCr     Fe      FeCo   |
  /   Cr|  CoFeFe   CoNi    FeCo  |
 *      Ni  CoCoAl   CoCoCr   AlCo|
 |Co   NiFeFe   CoCCr   CrCr      |
 | Cr   | CrCo   CoCoFe    Fe     |
 |     Fe  NiNiCr   CrCoNi  NiFe  |
 |      Fe    CoCo   FeCrCr   FeNi|
 |Ni    |NiNi   NCrCo   CrFe     Al
 |      .-NiNi-----CoCr--CrFeCr---.
 |     Ni    CrNi     Cr    Cr Fe/
 |    / Al      Al      Nir     /
 Ni  /            Cr           /
 |  /      Fe      Fe       Ni/
 | / Al              Co      /
 |/                     Al  /

Positions:
   0 Co    10.733230   -0.010890   10.720288    ( 0.0000,  0.0000,  2.1000)
   1 Ni    10.705405    1.786245    1.816053    ( 0.0000,  0.0000,  1.5000)
   2 Al     1.827730    0.046779    1.820846    ( 0.0000,  0.0000,  0.0000)
   3 Cr     1.781259    1.795369   10.667962    ( 0.0000,  0.0000,  0.0000)
   4 Cr     3.605096   -0.024192   10.696838    ( 0.0000,  0.0000,  0.0000)
   5 Fe     3.626712    1.755900    1.827301    ( 0.0000,  0.0000,  2.0000)
   6 Fe     5.346907   -0.033010    1.798618    ( 0.0000,  0.0000,  2.0000)
   7 Fe     5.383717    1.754485   -0.004425    ( 0.0000,  0.0000,  2.0000)
   8 Cr     7.108394   -0.022878    0.050937    ( 0.0000,  0.0000,  0.0000)
   9 Fe     7.129656    1.781473    1.837669    ( 0.0000,  0.0000,  2.0000)
  10 Fe     8.928853   -0.005204    1.840446    ( 0.0000,  0.0000,  2.0000)
  11 Al     8.945537    1.851126    0.062547    ( 0.0000,  0.0000,  0.0000)
  12 Co    10.720063    3.615861   10.707775    ( 0.0000,  0.0000,  2.1000)
  13 Fe    10.713736    5.407660    1.815913    ( 0.0000,  0.0000,  2.0000)
  14 Al     1.786009    3.536483    1.884805    ( 0.0000,  0.0000,  0.0000)
  15 Al     1.774236    5.426071   10.657948    ( 0.0000,  0.0000,  0.0000)
  16 Cr     3.564994    3.564855   10.691123    ( 0.0000,  0.0000,  0.0000)
  17 Cr     3.571192    5.433662    1.814262    ( 0.0000,  0.0000,  0.0000)
  18 Al     5.351936    3.574183    1.808397    ( 0.0000,  0.0000,  0.0000)
  19 Co     5.346242    5.411649   10.704483    ( 0.0000,  0.0000,  2.1000)
  20 Co     7.158467    3.623957    0.002514    ( 0.0000,  0.0000,  2.1000)
  21 Cr     7.158371    5.381390    1.803486    ( 0.0000,  0.0000,  0.0000)
  22 Cr     8.944069    3.619475    1.842451    ( 0.0000,  0.0000,  0.0000)
  23 Cr     8.939597    5.371976   -0.004695    ( 0.0000,  0.0000,  0.0000)
  24 Fe    10.674846    7.138427   10.683735    ( 0.0000,  0.0000,  2.0000)
  25 Al    10.669271    8.869430    1.800398    ( 0.0000,  0.0000,  0.0000)
  26 Ni     1.808193    7.156966    1.807625    ( 0.0000,  0.0000,  1.5000)
  27 Cr     1.808590    8.894928   10.689118    ( 0.0000,  0.0000,  0.0000)
  28 Fe     3.612784    7.185037   10.699250    ( 0.0000,  0.0000,  2.0000)
  29 Ni     3.597848    8.905725    1.808697    ( 0.0000,  0.0000,  1.5000)
  30 Co     5.362326    7.150854    1.779404    ( 0.0000,  0.0000,  2.1000)
  31 Fe     5.366894    8.904878   10.708632    ( 0.0000,  0.0000,  2.0000)
  32 Fe     7.127608    7.126525   10.700944    ( 0.0000,  0.0000,  2.0000)
  33 Cr     7.139832    8.916158    1.783607    ( 0.0000,  0.0000,  0.0000)
  34 Fe     8.884441    7.109391    1.798522    ( 0.0000,  0.0000,  2.0000)
  35 Cr     8.896493    8.880849    0.005068    ( 0.0000,  0.0000,  0.0000)
  36 Ni    10.737840    0.006720    3.588251    ( 0.0000,  0.0000,  1.5000)
  37 Ni     0.009020    1.816857    5.359742    ( 0.0000,  0.0000,  1.5000)
  38 Co     1.833295   -0.009827    5.335413    ( 0.0000,  0.0000,  2.1000)
  39 Ni     1.813919    1.777613    3.664670    ( 0.0000,  0.0000,  1.5000)
  40 Co     3.607755   -0.027295    3.616312    ( 0.0000,  0.0000,  2.1000)
  41 Ni     3.597151    1.775115    5.367955    ( 0.0000,  0.0000,  1.5000)
  42 Co     5.354413   -0.018348    5.366336    ( 0.0000,  0.0000,  2.1000)
  43 Ni     5.354520    1.762119    3.609439    ( 0.0000,  0.0000,  1.5000)
  44 Cr     7.096695    0.004490    3.554711    ( 0.0000,  0.0000,  0.0000)
  45 Co     7.124284    1.817736    5.355431    ( 0.0000,  0.0000,  2.1000)
  46 Al     8.889105   10.712278    5.291108    ( 0.0000,  0.0000,  0.0000)
  47 Ni     8.931491    1.814284    3.558936    ( 0.0000,  0.0000,  1.5000)
  48 Cr    10.699143    3.599199    3.631001    ( 0.0000,  0.0000,  0.0000)
  49 Fe    -0.008002    5.381841    5.387073    ( 0.0000,  0.0000,  2.0000)
  50 Fe     1.794554    3.594084    5.364267    ( 0.0000,  0.0000,  2.0000)
  51 Ni     1.781870    5.398203    3.627795    ( 0.0000,  0.0000,  1.5000)
[...]
  57 Co     7.149471    5.367022    5.368663    ( 0.0000,  0.0000,  2.1000)
  58 Cr     8.930290    3.577003    5.375203    ( 0.0000,  0.0000,  0.0000)
  59 Fe     8.940091    5.382366    3.618488    ( 0.0000,  0.0000,  2.0000)
[...]
  93 Ni     7.158264    5.391920    8.906604    ( 0.0000,  0.0000,  1.5000)
  94 Cr     8.930312    3.598459    8.885589    ( 0.0000,  0.0000,  0.0000)
  95 Cr     8.935501    5.388778    7.127630    ( 0.0000,  0.0000,  0.0000)
  96 Co    10.718443    7.163968    7.144089    ( 0.0000,  0.0000,  2.1000)
  97 Ni    10.740521    8.898027    8.942621    ( 0.0000,  0.0000,  1.5000)
  98 Ni     1.794115    7.182046    8.888902    ( 0.0000,  0.0000,  1.5000)
  99 Co     1.836736    8.903935    7.122901    ( 0.0000,  0.0000,  2.1000)
 100 Co     3.587372    7.156162    7.133441    ( 0.0000,  0.0000,  2.1000)
 101 Ni     3.595242    8.923171    8.904857    ( 0.0000,  0.0000,  1.5000)
 102 Fe     5.369092    7.149503    8.921423    ( 0.0000,  0.0000,  2.0000)
 103 Co     5.342779    8.916201    7.142855    ( 0.0000,  0.0000,  2.1000)
 104 Co     7.139767    7.140357    7.139317    ( 0.0000,  0.0000,  2.1000)
 105 Ni     7.106238    8.889920    8.907934    ( 0.0000,  0.0000,  1.5000)
 106 Fe     8.907687    7.146898    8.906808    ( 0.0000,  0.0000,  2.0000)
 107 Fe     8.923321    8.891186    7.114688    ( 0.0000,  0.0000,  2.0000)

Unit cell:
           periodic     x           y           z      points  spacing
  1. axis:    yes   10.722400    0.000000    0.000000    48     0.2234
  2. axis:    yes    0.000000   10.722400    0.000000    48     0.2234
  3. axis:    yes    0.000000    0.000000   10.722400    48     0.2234

  Lengths:  10.722400  10.722400  10.722400
  Angles:   90.000000  90.000000  90.000000

Effective grid spacing dv^(1/3) = 0.2234

     iter     time        total  log10-change:  magmom
                         energy  eigst   dens
iter:   1 14:14:58 -1035.941046                  +136.6828
iter:   2 14:15:46  -917.089054  -0.22  -1.18    +75.1412
iter:   3 14:16:33  -913.516355  -0.79  -1.20    +63.0797
iter:   4 14:17:22  -886.150582  -1.18  -1.26    +58.7403
iter:   5 14:18:10  -872.328356  -1.57  -1.29    +55.4468
iter:   6 14:18:58  -877.642666  -1.25  -1.36    +55.8285
iter:   7 14:19:46  -860.253519  -1.29  -1.41    +54.0082
iter:   8 14:20:35  -853.711460  -1.63  -1.58    +53.4792
iter:   9 14:21:23  -853.412670  -2.05  -1.74    +54.4828
iter:  10 14:22:11  -852.219326  -2.33  -1.76    +55.6880
iter:  11 14:22:59  -852.879239  -2.53  -1.84    +56.5578
iter:  12 14:23:46  -852.690895  -2.52  -1.83    +58.1349
iter:  13 14:24:35  -854.644299  -2.38  -1.90    +59.3862
iter:  14 14:25:23  -853.238323  -2.37  -1.88    +59.5212
iter:  15 14:26:12  -854.929244  -2.40  -2.01    +60.4923
iter:  16 14:26:59  -853.219795  -2.56  -1.95    +60.7794
iter:  17 14:27:48  -853.475839  -2.74  -2.07    +61.9401
iter:  18 14:28:35  -853.242314  -2.77  -2.09    +61.8962
iter:  19 14:29:23  -853.183358  -2.92  -2.13    +62.3233
iter:  20 14:30:11  -852.777359  -3.19  -2.16    +63.1203
iter:  21 14:30:59  -853.050206  -3.18  -2.26    +63.3903
iter:  22 14:31:46  -852.994967  -3.15  -2.25    +63.6384
iter:  23 14:32:34  -853.009775c -3.22  -2.27    +63.6080
iter:  24 14:33:22  -853.063876c -3.23  -2.29    +63.9749
iter:  25 14:34:11  -853.102812c -3.21  -2.31    +64.0157
iter:  26 14:34:58  -852.911535  -3.42  -2.33    +63.8930
iter:  27 14:35:46  -852.961065  -3.59  -2.41    +64.1768
iter:  28 14:36:32  -852.974954c -3.58  -2.42    +64.1257
iter:  29 14:37:19  -852.965524c -3.63  -2.44    +64.2128
iter:  30 14:38:08  -852.966551c -3.80  -2.45    +64.1345
iter:  31 14:38:57  -853.009848c -3.71  -2.49    +64.1746
iter:  32 14:39:45  -853.031691c -3.74  -2.49    +64.1308
iter:  33 14:40:33  -853.021801c -3.77  -2.50    +63.8991
iter:  34 14:41:19  -853.062174c -3.77  -2.53    +63.9313
iter:  35 14:42:08  -853.080855c -3.62  -2.54    +63.8566
iter:  36 14:42:55  -853.059795c -3.87  -2.53    +63.8502
iter:  37 14:43:45  -853.062938c -3.86  -2.59    +63.6827
iter:  38 14:44:33  -853.037274c -3.94  -2.61    +63.6091
iter:  39 14:45:21  -853.025697c -4.23  -2.63    +63.7403
iter:  40 14:46:10  -853.040394c -4.37  -2.68    +63.6236
iter:  41 14:46:58  -853.076657c -4.08  -2.70    +63.5788
iter:  42 14:47:46  -853.062530c -4.17  -2.66    +63.4762
iter:  43 14:48:33  -853.084272c -4.14  -2.70    +63.4650
iter:  44 14:49:22  -853.109075c -3.99  -2.71    +63.4049
iter:  45 14:50:11  -853.087695c -4.12  -2.70    +63.2218
iter:  46 14:50:59  -853.076681c -4.35  -2.74    +63.2352
iter:  47 14:51:48  -853.090006c -4.27  -2.79    +63.1949
iter:  48 14:52:35  -853.078514c -4.46  -2.78    +63.1894
iter:  49 14:53:24  -853.082615c -4.73  -2.83    +63.0734
iter:  50 14:54:13  -853.090267c -4.55  -2.86    +63.0117
iter:  51 14:55:01  -853.100800c -4.52  -2.85    +63.0135
iter:  52 14:55:48  -853.105291c -4.54  -2.85    +62.9147
iter:  53 14:56:36  -853.127743c -4.37  -2.87    +62.8436
iter:  54 14:57:24  -853.127529c -4.20  -2.84    +62.7574
iter:  55 14:58:13  -853.117011c -4.44  -2.85    +62.7626
iter:  56 14:59:02  -853.124936c -4.48  -2.92    +62.7456
iter:  57 14:59:50  -853.119228c -4.67  -2.93    +62.6679
iter:  58 15:00:41  -853.116325c -4.84  -2.98    +62.6929
iter:  59 15:01:30  -853.122688c -5.17  -3.02    +62.6745
iter:  60 15:02:18  -853.133994c -4.72  -3.04    +62.6607
iter:  61 15:03:08  -853.138447c -4.76  -2.99    +62.5959
iter:  62 15:03:56  -853.144512c -4.61  -3.03    +62.5529
iter:  63 15:04:42  -853.151799c -4.58  -3.01    +62.5778
iter:  64 15:05:30  -853.155097c -4.48  -3.04    +62.4970
iter:  65 15:06:19  -853.148452c -4.82  -3.03    +62.4575
iter:  66 15:07:09  -853.153799c -4.73  -3.13    +62.3880
iter:  67 15:08:00  -853.148455c -5.08  -3.13    +62.4227
iter:  68 15:08:50  -853.153470c -5.34  -3.21    +62.4115
iter:  69 15:09:39  -853.156664c -5.37  -3.25    +62.3845
iter:  70 15:10:28  -853.163655c -5.02  -3.26    +62.3864
iter:  71 15:11:18  -853.164407c -5.33  -3.22    +62.3773
iter:  72 15:12:05  -853.173156c -4.87  -3.30    +62.3688
iter:  73 15:12:54  -853.182337c -4.70  -3.23    +62.3283
iter:  74 15:13:42  -853.174044c -4.83  -3.17    +62.3294
iter:  75 15:14:30  -853.176513c -5.04  -3.30    +62.3802
iter:  76 15:15:19  -853.177620c -5.27  -3.37    +62.3407
iter:  77 15:16:08  -853.178046c -5.56  -3.43    +62.3326
iter:  78 15:16:57  -853.182135c -5.51  -3.53    +62.3112
iter:  79 15:17:45  -853.181240c -6.50  -3.49    +62.3172
iter:  80 15:18:35  -853.187544c -5.41  -3.49    +62.2850
iter:  81 15:19:24  -853.173838c -4.79  -3.44    +62.3235
iter:  82 15:20:12  -853.185903c -5.10  -3.54    +62.2942
iter:  83 15:21:01  -853.176820c -5.31  -3.47    +62.3270
iter:  84 15:21:48  -853.180514c -5.81  -3.54    +62.2895
iter:  85 15:22:37  -853.181970c -5.73  -3.59    +62.2908
iter:  86 15:23:25  -853.187038c -5.35  -3.51    +62.3035
iter:  87 15:24:15  -853.187009c -5.61  -3.49    +62.3039
[...]
iter: 113 15:44:25  -853.227850c -5.45  -3.62    +62.4441
iter: 114 15:45:09  -853.228350c -5.73  -3.54    +62.4609
iter: 115 15:45:54  -853.227929c -5.67  -3.62    +62.4938
iter: 116 15:46:39  -853.229292c -5.65  -3.67    +62.4867
iter: 117 15:47:25  -853.231169c -5.70  -3.66    +62.4974
iter: 118 15:48:11  -853.230415c -5.85  -3.63    +62.4983
iter: 119 15:48:55  -853.231374c -5.73  -3.76    +62.5225
iter: 120 15:49:40  -853.230559c -5.89  -3.69    +62.5132
iter: 121 15:50:25  -853.231444c -6.18  -3.78    +62.4969
iter: 122 15:51:09  -853.232165c -5.87  -3.90    +62.5013
iter: 123 15:51:55  -853.231721c -6.28  -3.80    +62.4975
iter: 124 15:52:40  -853.232609c -6.12  -3.90    +62.5045
iter: 125 15:53:25  -853.233210c -6.19  -3.92    +62.4914
iter: 126 15:54:10  -853.234450c -5.95  -3.89    +62.4959
iter: 127 15:54:55  -853.233205c -6.23  -3.86    +62.5006
iter: 128 15:55:40  -853.233819c -6.28  -4.02c   +62.4858
iter: 129 15:56:25  -853.234281c -6.41  -4.01c   +62.4803
iter: 130 15:57:09  -853.234277c -6.38  -4.08c   +62.4682
iter: 131 15:57:53  -853.234557c -6.70  -4.09c   +62.4699
iter: 132 15:58:37  -853.236370c -5.45  -4.15c   +62.4676
iter: 133 15:59:21  -853.236767c -5.89  -4.11c   +62.4587
iter: 134 16:00:08  -853.237548c -5.74  -4.18c   +62.4382
iter: 135 16:00:52  -853.239164c -5.21  -4.15c   +62.3871
iter: 136 16:01:36  -853.239821c -5.76  -3.94    +62.3550
iter: 137 16:02:21  -853.239810c -6.15  -3.83    +62.3450
iter: 138 16:03:05  -853.239566c -6.43  -3.93    +62.3441
iter: 139 16:03:49  -853.239587c -6.59  -3.97    +62.3305
iter: 140 16:04:33  -853.239565c -6.39  -4.00c   +62.3222
iter: 141 16:05:17  -853.238898c -5.93  -3.97    +62.3240
iter: 142 16:06:01  -853.239638c -6.32  -3.88    +62.3294
iter: 143 16:06:45  -853.239330c -6.70  -4.07c   +62.3278
iter: 144 16:07:29  -853.239404c -6.97  -4.14c   +62.3132
iter: 145 16:08:14  -853.239431c -7.13  -4.19c   +62.3063
iter: 146 16:08:59  -853.239325c -7.04  -4.21c   +62.3005
iter: 147 16:09:43  -853.239555c -7.03  -4.24c   +62.2978
iter: 148 16:10:27  -853.239037c -6.67  -4.22c   +62.2899
iter: 149 16:11:11  -853.239624c -6.74  -4.18c   +62.2834
iter: 150 16:11:56  -853.239298c -6.83  -4.27c   +62.2857
iter: 151 16:12:41  -853.239293c -6.97  -4.34c   +62.2818
iter: 152 16:13:25  -853.239399c -7.07  -4.36c   +62.2737
iter: 153 16:14:09  -853.239244c -7.37  -4.40c   +62.2704
iter: 154 16:14:53  -853.239372c -7.61c -4.51c   +62.2703

Converged after 154 iterations.

Dipole moment: (-1.383380, 14.275032, 12.670698) |e|*Ang

Total magnetic moment: (0.000000, 0.000000, 62.270271)
Local magnetic moments:
   0 Co ( 0.000000,  0.000000,  0.490594)
   1 Ni ( 0.000000,  0.000000,  0.144688)
   2 Al ( 0.000000,  0.000000, -0.010023)
   3 Cr ( 0.000000,  0.000000,  1.207224)
   4 Cr ( 0.000000,  0.000000, -1.385748)
   5 Fe ( 0.000000,  0.000000,  2.095782)
   6 Fe ( 0.000000,  0.000000,  1.721025)
   7 Fe ( 0.000000,  0.000000,  1.752437)
   8 Cr ( 0.000000,  0.000000, -1.164426)
   9 Fe ( 0.000000,  0.000000,  1.762390)
  10 Fe ( 0.000000,  0.000000,  2.126331)
  11 Al ( 0.000000,  0.000000, -0.020910)
  12 Co ( 0.000000,  0.000000, -0.487469)
  13 Fe ( 0.000000,  0.000000,  1.987991)
  14 Al ( 0.000000,  0.000000, -0.010953)
  15 Al ( 0.000000,  0.000000, -0.028611)
  16 Cr ( 0.000000,  0.000000, -1.698323)
  17 Cr ( 0.000000,  0.000000,  1.242419)
  18 Al ( 0.000000,  0.000000, -0.014930)
  19 Co ( 0.000000,  0.000000,  1.047945)
  20 Co ( 0.000000,  0.000000,  0.927703)
  21 Cr ( 0.000000,  0.000000, -0.598694)
  22 Cr ( 0.000000,  0.000000,  0.878493)
  23 Cr ( 0.000000,  0.000000, -1.420077)
  24 Fe ( 0.000000,  0.000000,  1.922804)
  25 Al ( 0.000000,  0.000000, -0.015980)
  26 Ni ( 0.000000,  0.000000,  0.230681)
  27 Cr ( 0.000000,  0.000000, -1.729611)
  28 Fe ( 0.000000,  0.000000,  2.107280)
  29 Ni ( 0.000000,  0.000000,  0.192123)
  30 Co ( 0.000000,  0.000000,  0.805328)
  31 Fe ( 0.000000,  0.000000,  1.906116)
  32 Fe ( 0.000000,  0.000000,  1.625612)
  33 Cr ( 0.000000,  0.000000,  0.089734)
  34 Fe ( 0.000000,  0.000000,  1.558769)
  35 Cr ( 0.000000,  0.000000, -1.218775)
  36 Ni ( 0.000000,  0.000000,  0.329187)
  37 Ni ( 0.000000,  0.000000,  0.150110)
  38 Co ( 0.000000,  0.000000,  1.505433)
  39 Ni ( 0.000000,  0.000000,  0.369312)
  40 Co ( 0.000000,  0.000000,  1.430804)
  41 Ni ( 0.000000,  0.000000,  0.423291)
  42 Co ( 0.000000,  0.000000,  1.305429)
  43 Ni ( 0.000000,  0.000000,  0.223613)
  44 Cr ( 0.000000,  0.000000, -0.838081)
  45 Co ( 0.000000,  0.000000,  0.918599)
  46 Al ( 0.000000,  0.000000, -0.008667)
  47 Ni ( 0.000000,  0.000000,  0.036555)
  48 Cr ( 0.000000,  0.000000, -1.437513)
  49 Fe ( 0.000000,  0.000000,  1.933620)
  50 Fe ( 0.000000,  0.000000,  2.419848)
  51 Ni ( 0.000000,  0.000000,  0.299084)
  52 Ni ( 0.000000,  0.000000,  0.334144)
  53 Ni ( 0.000000,  0.000000,  0.388740)
  54 Co ( 0.000000,  0.000000,  1.340111)
  55 Cr ( 0.000000,  0.000000, -0.729502)
  56 Cr ( 0.000000,  0.000000, -0.878157)
  57 Co ( 0.000000,  0.000000,  0.780248)
  58 Cr ( 0.000000,  0.000000,  0.894788)
  59 Fe ( 0.000000,  0.000000, -1.428528)
[...]
  93 Ni ( 0.000000,  0.000000,  0.316380)
  94 Cr ( 0.000000,  0.000000,  0.864777)
  95 Cr ( 0.000000,  0.000000, -1.399556)
  96 Co ( 0.000000,  0.000000,  1.223859)
  97 Ni ( 0.000000,  0.000000,  0.231892)
  98 Ni ( 0.000000,  0.000000,  0.408826)
  99 Co ( 0.000000,  0.000000,  1.529305)
 100 Co ( 0.000000,  0.000000,  1.563362)
 101 Ni ( 0.000000,  0.000000,  0.425634)
 102 Fe ( 0.000000,  0.000000,  2.317317)
 103 Co ( 0.000000,  0.000000,  1.439127)
 104 Co ( 0.000000,  0.000000,  1.249806)
 105 Ni ( 0.000000,  0.000000,  0.331644)
 106 Fe ( 0.000000,  0.000000,  2.023809)
 107 Fe ( 0.000000,  0.000000,  2.159909)

Energy contributions relative to reference atoms: (reference = -3548577.034362)

Kinetic:       +166.961522
Potential:     -203.020036
External:        +0.000000
XC:            -851.067690
Entropy (-ST):   -4.390532
Local:          +36.082099
Free energy:   -855.434637
Extrapolated:  -853.239372

Spin contamination: 27.250713 electrons
Showing only first 2 kpts
                      Up                     Down
 Kpt  Band  Eigenvalues  Occupancy  Eigenvalues  Occupancy
  0   488      9.48956    0.99413     10.36882    0.02507
  0   489      9.50135    0.99340     10.38005    0.02247
  0   490      9.51765    0.99224     10.38770    0.02085
  0   491      9.52381    0.99175     10.39688    0.01905

  1   488      9.48772    0.99424     10.36716    0.02548
  1   489      9.50083    0.99343     10.38065    0.02233
  1   490      9.53069    0.99117     10.38642    0.02111
  1   491      9.54070    0.99025     10.39789    0.01887

Fermi level: 10.00275

No gap

Forces in eV/Ang:
  0 Co    0.15734   -0.52212   -0.02609
  1 Ni    0.22675    0.12602   -0.00708
  2 Al   -0.30378   -0.18059    0.63560
  3 Cr   -0.37674    0.04789   -0.62755
  4 Cr    0.55413    0.26989   -0.42465
  5 Fe    0.16822   -0.05135   -0.03209
  6 Fe   -0.03999    0.19100    0.15571
  7 Fe   -0.37076    0.26365    0.09687
  8 Cr   -0.55444   -0.38002   -0.07947
  9 Fe    0.08166   -0.17500   -0.13411
 10 Fe   -0.10245    0.29647   -0.12586
 11 Al    0.58453   -0.23686   -0.23203
 12 Co    0.02116   -0.26817   -0.10633
 13 Fe   -0.09708    0.24527    0.24286
 14 Al    0.00773   -0.08716   -0.09818
 15 Al   -0.52929   -0.08019   -0.21453
 16 Cr   -0.40394   -0.45177    0.12119
 17 Cr    0.48857    0.01427   -0.03329
 18 Al    0.09794   -0.30750   -0.00049
 19 Co    0.03175   -0.17485    0.23263
 20 Co   -0.08990   -0.08382   -0.07246
 21 Cr   -0.22879    0.71094   -0.10406
 22 Cr    0.01564    0.54844    0.36378
 23 Cr    0.33506    0.25669   -0.30096
 24 Fe   -0.08747    0.22763   -0.15254
 25 Al    0.31268    0.04552    0.96489
 26 Ni   -0.07220   -0.11882   -0.10320
 27 Cr   -0.14489   -0.12123   -0.62077
 28 Fe   -0.18096    0.23596    0.09961
 29 Ni   -0.07535    0.12482   -0.14772
 30 Co    0.12707   -0.03524   -0.05030
 31 Fe   -0.05594    0.40084    0.28735
 32 Fe    0.17619    0.04150    0.33655
 33 Cr   -0.03608   -0.37942    0.41562
 34 Fe   -0.22720   -0.42366   -0.30095
 35 Cr   -0.20292   -0.50568   -0.05308
 36 Ni    0.05677   -0.16595   -0.08071
 37 Ni    0.09787   -0.35505   -0.07321
 38 Co    0.21550   -0.18461   -0.04435
 39 Ni   -0.12730    0.06694   -0.29436
 40 Co    0.13950    0.03556    0.41404
 41 Ni   -0.10194   -0.00309   -0.09688
 42 Co    0.07673   -0.07488   -0.02505
 43 Ni    0.05328    0.07759    0.02191
 44 Cr   -0.33839    0.01574   -0.59628
 45 Co   -0.06972    0.04987    0.03958
 46 Al    0.55570    0.51728    0.26821
 47 Ni    0.03683   -0.04556    0.16144
 48 Cr   -0.61614   -0.07124    0.60762
 49 Fe    0.17064    0.32266   -0.18144
 50 Fe    0.00979   -0.01727   -0.20393
 51 Ni    0.20467   -0.11374   -0.32160
 52 Ni    0.07832    0.09376   -0.38281
 53 Ni    0.11733   -0.01544    0.03680
 54 Co    0.23993    0.07501    0.07986
 55 Cr   -0.10959    0.35326    0.25588
 56 Cr    0.28178   -0.14282    0.60076
 57 Co   -0.24396    0.25409   -0.09756
 58 Cr   -0.14310   -0.30711   -0.27332
 59 Fe   -0.09421    0.00561   -0.02020
[...]
 93 Ni   -0.09524   -0.10284    0.13641
 94 Cr    0.25448    0.26753   -0.11203
 95 Cr   -0.13767    0.29176    0.30455
 96 Co    0.03053    0.10667    0.11849
 97 Ni   -0.07923    0.34820   -0.13960
 98 Ni   -0.08032   -0.14986    0.10778
 99 Co    0.04273   -0.12318   -0.06982
100 Co   -0.02379    0.18977   -0.10090
101 Ni   -0.35124   -0.01247    0.11849
102 Fe    0.28164   -0.03993   -0.11746
103 Co    0.17661    0.20977   -0.26101
104 Co   -0.08175   -0.11241   -0.09673
105 Ni    0.17769    0.32919    0.16204
106 Fe    0.10275   -0.16705    0.12037
107 Fe   -0.02165   -0.31583   -0.19834

Date: Sat Apr  8 16:15:05 2023