User:   c.zeng@d0139
Date:   Sat Apr 15 07:42:30 2023
Arch:   x86_64
Pid:    40606
CWD:    /home/c.zeng/projects/hea-corrosion/hea-mlp/data-curation/bulk-mcmc/dft-jobs/226
Python: 3.8.1
gpaw:   /home/c.zeng/usr/installs/gpaw/source/gpaw-22.8.0/gpaw
_gpaw:  /home/c.zeng/usr/installs/gpaw/source/gpaw-22.8.0/
        _gpaw.cpython-38-x86_64-linux-gnu.so
ase:    /home/c.zeng/.local/lib/python3.8/site-packages/ase-3.22.1-py3.8.egg/ase (version 3.22.1)
numpy:  /shared/centos7/python/3.8.1/lib/python3.8/site-packages/numpy (version 1.17.4)
scipy:  /shared/centos7/python/3.8.1/lib/python3.8/site-packages/scipy (version 1.4.1)
units:  Angstrom and eV
cores: 30
OpenMP: False
OMP_NUM_THREADS: 1

Input parameters:
  convergence: {energy: 0.0001}
  kpts: [2 2 2]
  maxiter: 666
  mode: {ecut: 350.0,
         name: pw}
  occupations: {fixmagmom: False,
                name: fermi-dirac,
                width: 0.1}
  spinpol: True
  xc: PBE

System changes: positions, numbers, cell, pbc, initial_charges, initial_magmoms

Initialize ...

species:
  Cr:
    name: Chromium
    id: 33f258bda2ca9f93018e70263a35547b
    Z: 24.0
    valence: 6
    core: 18
    charge: 0.0
    file: /home/c.zeng/usr/data/gpaw-setups-0.9.20000/Cr.PBE.gz
    compensation charges: {type: gauss,
                           rc: 0.35,
                           lmax: 2}
    cutoffs: {filter: 2.14,
              core: 3.04}
    valence states:
      #              energy  rcut
      - 4s(1.00)    -4.007   1.164
      - 4p(0.00)    -0.989   1.217
      - 3d(5.00)    -2.913   1.111
      -  s          23.205   1.164
      -  p          26.223   1.217
      -  d          24.299   1.111

    # Using partial waves for Cr as LCAO basis

  Al:
    name: Aluminium
    id: 0292cae29f5d6237e50f6abdd43a7bdd
    Z: 13.0
    valence: 3
    core: 10
    charge: 0.0
    file: /home/c.zeng/usr/data/gpaw-setups-0.9.20000/Al.PBE.gz
    compensation charges: {type: gauss,
                           rc: 0.34,
                           lmax: 2}
    cutoffs: {filter: 1.91,
              core: 2.36}
    valence states:
      #              energy  rcut
      - 3s(2.00)    -7.753   1.085
      - 3p(1.00)    -2.712   1.085
      -  s          19.459   1.085
      -  p          24.499   1.085
      -  d           0.000   1.085

[...]

  Ni:
    name: Nickel
    id: 0d9f38a9d6e76a2886f07bb4381f212b
    Z: 28.0
    valence: 16
    core: 12
    charge: 0.0
    file: /home/c.zeng/usr/data/gpaw-setups-0.9.20000/Ni.PBE.gz
    compensation charges: {type: gauss,
                           rc: 0.36,
                           lmax: 2}
    cutoffs: {filter: 2.14,
              core: 1.98}
    valence states:
      #              energy  rcut
      - 4s(2.00)    -5.642   1.164
      - 3p(6.00)   -71.394   1.207
      - 4p(0.00)    -1.226   1.207
      - 3d(8.00)    -8.875   1.138
      -  s          21.570   1.164
      -  d          18.337   1.138

[...]

  Co:
    name: Cobalt
    id: 339d20d5b0b93d2de9531a1bee871d91
    Z: 27.0
    valence: 9
    core: 18
    charge: 0.0
    file: /home/c.zeng/usr/data/gpaw-setups-0.9.20000/Co.PBE.gz
    compensation charges: {type: gauss,
                           rc: 0.32,
                           lmax: 2}
    cutoffs: {filter: 1.87,
              core: 2.55}
    valence states:
      #              energy  rcut
      - 4s(2.00)    -5.469   1.005
      - 4p(0.00)    -1.277   1.058
      - 3d(7.00)    -8.205   1.005
      -  s          21.742   1.005
      -  p          25.934   1.058
      -  d          19.007   1.005

[...]

  Fe:
    name: Iron
    id: 37abbd8d6c3c35915a9b583b742da910
    Z: 26.0
    valence: 8
    core: 18
    charge: 0.0
    file: /home/c.zeng/usr/data/gpaw-setups-0.9.20000/Fe.PBE.gz
    compensation charges: {type: gauss,
                           rc: 0.33,
                           lmax: 2}
    cutoffs: {filter: 2.06,
              core: 2.67}
    valence states:
      #              energy  rcut
      - 4s(2.00)    -5.291   1.164
      - 4p(0.00)    -1.326   1.058
      - 3d(6.00)    -7.505   1.058
      -  s          21.920   1.164
      -  p          25.885   1.058
      -  d          19.706   1.058

    # Using partial waves for Fe as LCAO basis

Reference energy: -3235165.067515  # eV

Spin-polarized calculation.
Magnetic moment: 121.100000

Convergence criteria:
 Maximum [total energy] change in last 3 cyles: 0.0001 eV / electron
 Maximum integral of absolute [dens]ity change: 0.0001 electrons / valence electron
 Maximum integral of absolute [eigenst]ate change: 4e-08 eV^2 / valence electron
 Maximum number of scf [iter]ations: 666
 (Square brackets indicate name in SCF output, whereas a 'c' in
 the SCF output indicates the quantity has converged.)

Symmetries present (total): 1

  ( 1  0  0)
  ( 0  1  0)
  ( 0  0  1)

8 k-points: 2 x 2 x 2 Monkhorst-Pack grid
4 k-points in the irreducible part of the Brillouin zone
       k-points in crystal coordinates                weights
   0:     0.25000000   -0.25000000   -0.25000000          2/8
   1:     0.25000000   -0.25000000    0.25000000          2/8
   2:     0.25000000    0.25000000   -0.25000000          2/8
   3:     0.25000000    0.25000000    0.25000000          2/8

Wave functions: Plane wave expansion
  Cutoff energy: 350.000 eV
  Number of coefficients (min, max): 19084, 19084
  Pulay-stress correction: 0.000000 eV/Ang^3 (de/decut=0.000000)
  Using FFTW library
  ScaLapack parameters: grid=1x1, blocksize=None
  Wavefunction extrapolation:
    Improved wavefunction reuse through dual PAW basis

Occupation numbers: Fermi-Dirac:
  width: 0.1000  # eV

Eigensolver
   Davidson(niter=2)

Densities:
  Coarse grid: 48*48*48 grid
  Fine grid: 96*96*96 grid
  Total Charge: 0.000000

Density mixing:
  Method: difference
  Backend: pulay
  Linear mixing parameter: 0.05
  old densities: 5
  Damping of long wavelength oscillations: 50

Hamiltonian:
  XC and Coulomb potentials evaluated on a 96*96*96 grid
  Using the PBE Exchange-Correlation functional
  External potential:
    NoExternalPotential

XC parameters: PBE with 2 nearest neighbor stencil

Total number of cores used: 30
Parallelization over k-points: 2
Domain decomposition: 5 x 3 x 1

Number of atoms: 108
Number of atomic orbitals: 933
Number of bands in calculation: 624
Number of valence electrons: 912
Bands to converge: occupied

... initialized

Initializing position-dependent things.

Density initialized from atomic densities
Creating initial wave functions:
  624 bands from LCAO basis set

        .--------Al----------------.
       /|           Fe             |
      / |    FeFe     Ni           |
     / Ni       Cr       Al        |
    /   |Fe      NiCo       Fe     |
   /    | NiNi      ACo            |
  /    Co  FeiAlAl    Co Fe  CoAl  |
 *      Fe     AlCoAl   NiFe     Cr|
 |      |FeCr   NiFeFe   AlCrCr   Co
 |      | CoNi   AlCoCoAl CrCrFe   |
 |     Fe  Al CoCo  NiNi Cr  CrNi  |
 |      Cr  Ni CrNiCo CoNiCoAl   Fe|
 |      |CrCo   CoAlAl   CoCrFe   Fe
 |      .-FeNi-----NiCr-Al--CrFe---.
 |     Al  Cr CoCr    Al Co  Cr Ni/
 |    / Co              Ni       Ni
 |   /           Alr      NiFe  /
 |  /      Cr       Fe     NiAl/
 | /                   Fe     /r
 *--------------------------Cr

Positions:
   0 Cr    10.797848    0.093654    0.085777    ( 0.0000,  0.0000,  0.0000)
   1 Al    10.831824    1.844742    1.870716    ( 0.0000,  0.0000,  2.0000)
   2 Ni     1.786803   10.847372    1.827335    ( 0.0000,  0.0000,  0.0000)
   3 Co     1.769614    1.870531   -0.031264    ( 0.0000,  0.0000,  0.0000)
   4 Al     3.620857   10.822050   10.833629    ( 0.0000,  0.0000,  1.5000)
   5 Cr     3.571246    1.883176    1.708402    ( 0.0000,  0.0000,  0.0000)
   6 Co     5.521103   10.788063    1.666217    ( 0.0000,  0.0000,  0.0000)
   7 Al     5.520831    1.813973   10.830911    ( 0.0000,  0.0000,  1.5000)
   8 Al     7.330846    0.011025   10.815657    ( 0.0000,  0.0000,  2.0000)
   9 Fe     7.282018    1.809483    1.793250    ( 0.0000,  0.0000,  2.1000)
  10 Fe     9.029996    0.022005    1.811918    ( 0.0000,  0.0000,  1.5000)
  11 Fe     9.007196    1.868639   10.825714    ( 0.0000,  0.0000,  2.0000)
  12 Cr    10.861310    3.649723    0.014171    ( 0.0000,  0.0000,  2.0000)
  13 Ni    10.867442    5.463468    1.819235    ( 0.0000,  0.0000,  2.1000)
  14 Co     1.756088    3.650267    1.845949    ( 0.0000,  0.0000,  0.0000)
  15 Fe     1.790358    5.439092   10.869084    ( 0.0000,  0.0000,  2.1000)
  16 Ni     3.687842    3.622792   -0.049287    ( 0.0000,  0.0000,  2.0000)
  17 Co     3.667347    5.391145    1.745368    ( 0.0000,  0.0000,  0.0000)
  18 Al     5.497977    3.634415    1.792370    ( 0.0000,  0.0000,  2.0000)
  19 Cr     5.524908    5.448029    0.002551    ( 0.0000,  0.0000,  2.0000)
  20 Co     7.223340    3.611877   10.834270    ( 0.0000,  0.0000,  0.0000)
  21 Al     7.217762    5.474830    1.807776    ( 0.0000,  0.0000,  2.1000)
  22 Ni     9.073442    3.654344    1.775148    ( 0.0000,  0.0000,  0.0000)
  23 Ni     9.008740    5.418608    0.007692    ( 0.0000,  0.0000,  2.0000)
  24 Ni    10.859190    7.178720    0.014480    ( 0.0000,  0.0000,  1.5000)
  25 Fe    -0.018106    8.970948    1.875391    ( 0.0000,  0.0000,  0.0000)
  26 Fe     1.817615    7.224025    1.802546    ( 0.0000,  0.0000,  1.5000)
  27 Cr     1.880729    8.993464   10.874031    ( 0.0000,  0.0000,  0.0000)
  28 Fe     3.684428    7.260447   -0.001356    ( 0.0000,  0.0000,  2.0000)
  29 Co     3.612616    9.025636    1.761807    ( 0.0000,  0.0000,  1.5000)
  30 Ni     5.481440    7.275114    1.811211    ( 0.0000,  0.0000,  1.5000)
  31 Fe     5.461261    9.048153   10.833988    ( 0.0000,  0.0000,  1.5000)
  32 Ni     7.245704    7.257881    0.056891    ( 0.0000,  0.0000,  2.1000)
  33 Co     7.301969    9.004609    1.790315    ( 0.0000,  0.0000,  0.0000)
  34 Cr     9.029343    7.181775    1.815549    ( 0.0000,  0.0000,  2.0000)
  35 Cr     9.030561    9.042010    0.020232    ( 0.0000,  0.0000,  1.5000)
  36 Fe    -0.031046    0.001947    3.645701    ( 0.0000,  0.0000,  2.0000)
  37 Fe    10.825910    1.804351    5.434602    ( 0.0000,  0.0000,  2.1000)
  38 Ni     1.743552   10.849296    5.484376    ( 0.0000,  0.0000,  0.0000)
  39 Al     1.769755    1.791891    3.636068    ( 0.0000,  0.0000,  1.5000)
  40 Al     3.516667   10.719828    3.663227    ( 0.0000,  0.0000,  0.0000)
  41 Co     3.644244    1.785205    5.586728    ( 0.0000,  0.0000,  0.0000)
  42 Al     5.484778   10.815439    5.504022    ( 0.0000,  0.0000,  0.0000)
  43 Cr     5.457934    1.842230    3.658769    ( 0.0000,  0.0000,  0.0000)
  44 Cr     7.360615   10.815439    3.672229    ( 0.0000,  0.0000,  0.0000)
  45 Al     7.266884    1.811614    5.485528    ( 0.0000,  0.0000,  2.1000)
  46 Al     9.077986    0.023590    5.491921    ( 0.0000,  0.0000,  0.0000)
  47 Co     9.066788    1.824226    3.671175    ( 0.0000,  0.0000,  1.5000)
  48 Fe    -0.047135    3.649615    3.617291    ( 0.0000,  0.0000,  2.0000)
  49 Ni    10.809264    5.435993    5.379805    ( 0.0000,  0.0000,  2.0000)
  50 Cr     1.752316    3.624989    5.344676    ( 0.0000,  0.0000,  0.0000)
  51 Cr     1.805786    5.472046    3.619389    ( 0.0000,  0.0000,  2.1000)
  52 Ni     3.649408    3.633491    3.631251    ( 0.0000,  0.0000,  2.1000)
  53 Co     3.657628    5.433797    5.434015    ( 0.0000,  0.0000,  1.5000)
  54 Ni     5.413368    3.672642    5.480309    ( 0.0000,  0.0000,  1.5000)
  55 Al     5.413835    5.465588    3.639666    ( 0.0000,  0.0000,  2.1000)
  56 Cr     7.223449    3.731734    3.720829    ( 0.0000,  0.0000,  0.0000)
  57 Ni     7.220557    5.483180    5.485572    ( 0.0000,  0.0000,  0.0000)
  58 Co     9.069039    3.623673    5.469720    ( 0.0000,  0.0000,  1.5000)
  59 Cr     9.064766    5.503837    3.636731    ( 0.0000,  0.0000,  0.0000)
[...]
  93 Co     7.214631    5.385893    9.048577    ( 0.0000,  0.0000,  2.1000)
  94 Fe     8.994291    3.655975    9.039237    ( 0.0000,  0.0000,  1.5000)
  95 Cr     9.006577    5.423262    7.223296    ( 0.0000,  0.0000,  2.0000)
  96 Cr    -0.070637    7.291956    7.110419    ( 0.0000,  0.0000,  0.0000)
  97 Ni     0.073012    9.104570    9.068375    ( 0.0000,  0.0000,  0.0000)
  98 Ni     1.863247    7.257381    9.054785    ( 0.0000,  0.0000,  2.0000)
  99 Fe     1.858343    9.053708    7.225808    ( 0.0000,  0.0000,  2.1000)
 100 Al     3.683906    7.292456    7.235550    ( 0.0000,  0.0000,  2.0000)
 101 Cr     3.628218    9.069550    9.051262    ( 0.0000,  0.0000,  2.1000)
 102 Co     5.530605    7.331890    9.040129    ( 0.0000,  0.0000,  0.0000)
 103 Al     5.476232    9.097209    7.250467    ( 0.0000,  0.0000,  2.0000)
 104 Ni     7.256827    7.264242    7.208456    ( 0.0000,  0.0000,  2.1000)
 105 Al     7.272548    9.136437    9.056861    ( 0.0000,  0.0000,  1.5000)
 106 Fe     8.936493    7.190875    9.109767    ( 0.0000,  0.0000,  0.0000)
 107 Co     8.994682    9.112169    7.218480    ( 0.0000,  0.0000,  0.0000)

Unit cell:
           periodic     x           y           z      points  spacing
  1. axis:    yes   10.872400    0.000000    0.000000    48     0.2265
  2. axis:    yes    0.000000   10.872400    0.000000    48     0.2265
  3. axis:    yes    0.000000    0.000000   10.872400    48     0.2265

  Lengths:  10.872400  10.872400  10.872400
  Angles:   90.000000  90.000000  90.000000

Effective grid spacing dv^(1/3) = 0.2265

     iter     time        total  log10-change:  magmom
                         energy  eigst   dens
iter:   1 07:46:04  -931.909078                  +120.1315
iter:   2 07:47:35  -847.132814  -0.26  -1.24    +79.8703
iter:   3 07:49:07  -844.160494  -0.74  -1.25    +47.1680
iter:   4 07:50:39  -815.885674  -1.15  -1.27    +43.5657
iter:   5 07:52:11  -811.928349  -1.60  -1.36    +40.3653
iter:   6 07:53:43  -811.982138  -1.68  -1.39    +39.8397
iter:   7 07:55:14  -805.301563  -1.48  -1.43    +39.0361
iter:   8 07:56:46  -805.322962  -1.72  -1.53    +39.6447
iter:   9 07:58:18  -807.514554  -1.79  -1.60    +40.4571
iter:  10 07:59:51  -803.907278  -1.99  -1.60    +40.9552
iter:  11 08:01:23  -803.363001  -2.14  -1.71    +42.0423
iter:  12 08:02:56  -802.417341  -2.41  -1.75    +43.1953
iter:  13 08:04:28  -803.759509  -2.32  -1.82    +44.8392
iter:  14 08:05:58  -803.170374  -2.37  -1.80    +46.0097
iter:  15 08:07:30  -804.125124  -2.41  -1.87    +47.0501
iter:  16 08:09:02  -804.233401  -2.31  -1.87    +48.1774
iter:  17 08:10:34  -803.907311  -2.43  -1.90    +48.9879
iter:  18 08:12:07  -803.104864  -2.64  -1.94    +49.9864
iter:  19 08:13:39  -802.959206  -2.84  -1.99    +51.0179
iter:  20 08:15:12  -802.857280  -2.96  -2.05    +51.8766
iter:  21 08:16:44  -802.994719  -3.10  -2.08    +52.8393
iter:  22 08:18:16  -803.144553  -3.16  -2.11    +53.4561
iter:  23 08:19:48  -803.450601  -3.05  -2.11    +54.3267
iter:  24 08:21:21  -803.912892  -2.86  -2.13    +54.8016
iter:  25 08:22:53  -803.742509  -2.91  -2.10    +55.3462
iter:  26 08:24:24  -804.029644  -2.93  -2.18    +55.9865
iter:  27 08:25:57  -803.896057  -3.05  -2.16    +56.2688
iter:  28 08:27:29  -804.041394  -3.11  -2.20    +56.9953
iter:  29 08:29:02  -803.911104  -3.32  -2.24    +57.2673
iter:  30 08:30:34  -803.986589  -3.56  -2.28    +57.8094
iter:  31 08:32:06  -804.079002  -3.70  -2.31    +58.2312
iter:  32 08:33:38  -804.226082  -3.54  -2.34    +58.5475
iter:  33 08:35:10  -804.386555  -3.44  -2.33    +58.7773
iter:  34 08:36:42  -804.608734  -3.26  -2.36    +58.8031
iter:  35 08:38:14  -804.752195  -3.06  -2.34    +58.8454
iter:  36 08:39:46  -804.808967  -3.11  -2.36    +58.8788
iter:  37 08:41:19  -804.595482  -3.23  -2.37    +58.9490
iter:  38 08:42:52  -804.602925  -3.48  -2.50    +58.9699
iter:  39 08:44:25  -804.495465  -3.81  -2.52    +58.9634
iter:  40 08:45:58  -804.510957  -4.24  -2.63    +59.0403
iter:  41 08:47:31  -804.545070c -4.30  -2.69    +59.0600
iter:  42 08:49:03  -804.585628c -4.20  -2.70    +59.0568
iter:  43 08:50:36  -804.641600  -3.87  -2.72    +58.9488
iter:  44 08:52:09  -804.684385  -4.01  -2.74    +58.8112
iter:  45 08:53:41  -804.692943c -4.22  -2.75    +58.7986
iter:  46 08:55:12  -804.733492c -3.89  -2.75    +58.7154
iter:  47 08:56:45  -804.706945c -4.01  -2.78    +58.6568
iter:  48 08:58:17  -804.692199c -4.53  -2.92    +58.5664
iter:  49 08:59:50  -804.700832c -4.83  -3.17    +58.5554
iter:  50 09:01:23  -804.703444c -4.91  -3.18    +58.5322
iter:  51 09:02:56  -804.710535c -4.99  -3.23    +58.4970
iter:  52 09:04:28  -804.713353c -5.11  -3.27    +58.4726
iter:  53 09:06:01  -804.724752c -4.83  -3.38    +58.4399
iter:  54 09:07:34  -804.724242c -5.25  -3.33    +58.4258
iter:  55 09:09:06  -804.729793c -5.26  -3.46    +58.4073
iter:  56 09:10:39  -804.736109c -5.07  -3.49    +58.4007
iter:  57 09:12:12  -804.749981c -4.55  -3.48    +58.3833
iter:  58 09:13:45  -804.780736c -3.75  -3.40    +58.3842
iter:  59 09:15:19  -804.779325c -5.03  -3.13    +58.4389
iter:  60 09:16:51  -804.783874c -5.05  -3.14    +58.4629
iter:  61 09:18:20  -804.791070c -4.75  -3.10    +58.5487
iter:  62 09:19:53  -804.784342c -4.86  -3.05    +58.6029
iter:  63 09:21:25  -804.785937c -4.52  -3.13    +58.6121
iter:  64 09:22:58  -804.779816c -4.89  -3.04    +58.6341
iter:  65 09:24:30  -804.778039c -4.80  -3.12    +58.6056
iter:  66 09:26:04  -804.771376c -4.35  -3.13    +58.6012
iter:  67 09:27:36  -804.768969c -4.76  -3.14    +58.6136
iter:  68 09:29:10  -804.765181c -5.35  -3.30    +58.5832
iter:  69 09:30:42  -804.766135c -5.30  -3.44    +58.5639
iter:  70 09:32:15  -804.765550c -5.26  -3.40    +58.5509
iter:  71 09:33:48  -804.767209c -5.30  -3.44    +58.5652
iter:  72 09:35:20  -804.766476c -5.27  -3.48    +58.5580
iter:  73 09:36:53  -804.765071c -5.52  -3.53    +58.5409
iter:  74 09:38:27  -804.765207c -5.63  -3.62    +58.5400
iter:  75 09:39:59  -804.764717c -5.81  -3.64    +58.5413
iter:  76 09:41:31  -804.764658c -6.05  -3.72    +58.5435
iter:  77 09:43:04  -804.764129c -6.15  -3.81    +58.5303
iter:  78 09:44:37  -804.764453c -6.33  -3.82    +58.5353
iter:  79 09:46:10  -804.764379c -6.24  -3.87    +58.5405
iter:  80 09:47:43  -804.763903c -6.09  -3.84    +58.5414
iter:  81 09:49:15  -804.764107c -6.20  -3.83    +58.5382
iter:  82 09:50:47  -804.763879c -6.27  -3.90    +58.5345
iter:  83 09:52:20  -804.764339c -6.24  -3.94    +58.5419
iter:  84 09:53:53  -804.763660c -6.55  -3.93    +58.5383
iter:  85 09:55:26  -804.763587c -6.58  -4.06c   +58.5344
iter:  86 09:57:01  -804.763794c -6.90  -4.07c   +58.5346
iter:  87 09:58:35  -804.763578c -6.93  -4.12c   +58.5383
iter:  88 10:00:11  -804.763509c -6.87  -4.16c   +58.5380
iter:  89 10:01:48  -804.763302c -6.83  -4.15c   +58.5345
iter:  90 10:03:22  -804.763540c -6.88  -4.18c   +58.5352
iter:  91 10:04:59  -804.763634c -6.70  -4.23c   +58.5354
iter:  92 10:06:34  -804.763244c -6.76  -4.14c   +58.5312
iter:  93 10:08:09  -804.763329c -6.95  -4.24c   +58.5266
iter:  94 10:09:44  -804.763329c -7.00  -4.34c   +58.5240
iter:  95 10:11:19  -804.763354c -7.32  -4.32c   +58.5264
iter:  96 10:12:54  -804.763142c -7.26  -4.46c   +58.5246
iter:  97 10:14:29  -804.763135c -7.63c -4.45c   +58.5239

Converged after 97 iterations.

Dipole moment: (29.830431, 16.263950, 7.472261) |e|*Ang

Total magnetic moment: (0.000000, 0.000000, 58.523909)
Local magnetic moments:
   0 Cr ( 0.000000,  0.000000, -1.688791)
   1 Al ( 0.000000,  0.000000, -0.031350)
   2 Ni ( 0.000000,  0.000000,  0.148651)
   3 Co ( 0.000000,  0.000000, -0.077312)
   4 Al ( 0.000000,  0.000000, -0.017532)
   5 Cr ( 0.000000,  0.000000,  2.191068)
   6 Co ( 0.000000,  0.000000,  1.048758)
   7 Al ( 0.000000,  0.000000, -0.028999)
   8 Al ( 0.000000,  0.000000, -0.034810)
   9 Fe ( 0.000000,  0.000000,  2.111586)
  10 Fe ( 0.000000,  0.000000,  1.861105)
  11 Fe ( 0.000000,  0.000000,  1.952629)
  12 Cr ( 0.000000,  0.000000,  0.873370)
  13 Ni ( 0.000000,  0.000000,  0.213293)
  14 Co ( 0.000000,  0.000000,  0.626508)
  15 Fe ( 0.000000,  0.000000,  2.424977)
  16 Ni ( 0.000000,  0.000000,  0.251000)
  17 Co ( 0.000000,  0.000000,  0.934581)
  18 Al ( 0.000000,  0.000000, -0.021730)
  19 Cr ( 0.000000,  0.000000,  1.528097)
  20 Co ( 0.000000,  0.000000,  1.013705)
  21 Al ( 0.000000,  0.000000, -0.009630)
  22 Ni ( 0.000000,  0.000000,  0.258676)
  23 Ni ( 0.000000,  0.000000,  0.351138)
  24 Ni ( 0.000000,  0.000000,  0.294192)
  25 Fe ( 0.000000,  0.000000,  1.865057)
  26 Fe ( 0.000000,  0.000000,  2.098971)
  27 Cr ( 0.000000,  0.000000, -1.781373)
  28 Fe ( 0.000000,  0.000000,  2.108444)
  29 Co ( 0.000000,  0.000000,  0.927185)
  30 Ni ( 0.000000,  0.000000,  0.116613)
  31 Fe ( 0.000000,  0.000000,  2.248552)
  32 Ni ( 0.000000,  0.000000,  0.223820)
  33 Co ( 0.000000,  0.000000,  0.830967)
  34 Cr ( 0.000000,  0.000000,  1.536125)
  35 Cr ( 0.000000,  0.000000, -1.804628)
  36 Fe ( 0.000000,  0.000000,  2.211577)
  37 Fe ( 0.000000,  0.000000,  1.725776)
  38 Ni ( 0.000000,  0.000000,  0.280451)
  39 Al ( 0.000000,  0.000000, -0.029054)
  40 Al ( 0.000000,  0.000000, -0.011046)
  41 Co ( 0.000000,  0.000000,  1.156863)
  42 Al ( 0.000000,  0.000000, -0.012885)
  43 Cr ( 0.000000,  0.000000, -2.264624)
  44 Cr ( 0.000000,  0.000000,  1.384902)
  45 Al ( 0.000000,  0.000000, -0.012211)
  46 Al ( 0.000000,  0.000000, -0.015569)
  47 Co ( 0.000000,  0.000000,  1.073186)
  48 Fe ( 0.000000,  0.000000,  2.131214)
  49 Ni ( 0.000000,  0.000000,  0.222484)
  50 Cr ( 0.000000,  0.000000, -2.067373)
  51 Cr ( 0.000000,  0.000000,  1.262713)
  52 Ni ( 0.000000,  0.000000,  0.131899)
  53 Co ( 0.000000,  0.000000,  1.068570)
  54 Ni ( 0.000000,  0.000000,  0.282031)
  55 Al ( 0.000000,  0.000000, -0.013919)
  56 Cr ( 0.000000,  0.000000,  1.885181)
  57 Ni ( 0.000000,  0.000000,  0.184335)
  58 Co ( 0.000000,  0.000000,  0.876463)
  59 Cr ( 0.000000,  0.000000, -1.836818)
[...]
  93 Co ( 0.000000,  0.000000,  1.306209)
  94 Fe ( 0.000000,  0.000000,  2.043217)
  95 Cr ( 0.000000,  0.000000, -1.632599)
  96 Cr ( 0.000000,  0.000000, -1.863458)
  97 Ni ( 0.000000,  0.000000,  0.136177)
  98 Ni ( 0.000000,  0.000000,  0.273001)
  99 Fe ( 0.000000,  0.000000,  2.354523)
 100 Al ( 0.000000,  0.000000, -0.039899)
 101 Cr ( 0.000000,  0.000000,  0.856885)
 102 Co ( 0.000000,  0.000000,  0.816978)
 103 Al ( 0.000000,  0.000000, -0.001320)
 104 Ni ( 0.000000,  0.000000,  0.176632)
 105 Al ( 0.000000,  0.000000, -0.016870)
 106 Fe ( 0.000000,  0.000000,  2.419535)
 107 Co ( 0.000000,  0.000000,  0.841381)

Energy contributions relative to reference atoms: (reference = -3235165.067515)

Kinetic:       +258.501760
Potential:     -246.382908
External:        +0.000000
XC:            -845.948007
Entropy (-ST):   -4.124620
Local:          +31.128329
Free energy:   -806.825445
Extrapolated:  -804.763135

Spin contamination: 27.460052 electrons
Showing only first 2 kpts
                      Up                     Down
 Kpt  Band  Eigenvalues  Occupancy  Eigenvalues  Occupancy
  0   454      8.99234    0.99540      9.90367    0.02327
  0   455      8.99878    0.99509      9.91831    0.02016
  0   456      9.02414    0.99368      9.93665    0.01684
  0   457      9.03757    0.99278      9.94432    0.01562

  1   454      8.97614    0.99608      9.90466    0.02304
  1   455      9.00401    0.99483      9.91742    0.02034
  1   456      9.02381    0.99370      9.92414    0.01904
  1   457      9.04026    0.99259      9.94904    0.01491

Fermi level: 9.52996

No gap

Forces in eV/Ang:
  0 Cr    0.62529   -0.43812   -0.58168
  1 Al   -0.37589    0.27898   -0.48291
  2 Ni   -0.01420    0.03724   -0.14407
  3 Co   -0.17695   -0.24625   -0.08884
  4 Al   -0.04950    0.30143    0.81477
  5 Cr   -0.04948   -0.22001    0.73596
  6 Co   -0.20993    0.23047    0.93090
  7 Al   -0.31508    0.23099   -0.21240
  8 Al   -0.86262    0.10049    1.73871
  9 Fe    0.37294   -0.16658    0.49108
 10 Fe    0.17617   -0.41636    0.10464
 11 Fe    0.52842    0.08976    0.08961
 12 Cr    0.10164   -0.55765    0.35934
 13 Ni   -0.00329   -0.18041    0.01937
 14 Co    0.43586    0.20826   -0.26462
 15 Fe    0.64459   -0.18288    0.55086
 16 Ni   -0.34518   -0.10479    0.24616
 17 Co   -0.37157    0.47854    0.04087
 18 Al   -0.86413   -0.30714   -0.03893
 19 Cr   -0.56433    0.26774   -0.73913
 20 Co    0.40872    0.27674   -0.05169
 21 Al    1.09265    0.03160   -0.44961
 22 Ni   -0.38551   -0.11333    0.26434
 23 Ni    0.01229   -0.06193   -0.18342
 24 Ni    0.03462    0.62433   -0.15958
 25 Fe   -0.19936    0.55766   -0.79805
 26 Fe   -0.00586   -0.02300   -0.09043
 27 Cr   -0.87260   -0.60115   -0.05925
 28 Fe   -0.16154    0.10864    0.41551
 29 Co    0.32974   -0.24132    0.30590
 30 Ni   -0.60730    0.06714   -0.06190
 31 Fe   -0.04172   -0.74619    0.33861
 32 Ni   -0.19811   -0.08691   -0.54492
 33 Co   -0.16084    0.31218    0.46909
 34 Cr    0.78887    0.79309   -0.03453
 35 Cr    1.00128   -0.84089    0.71967
 36 Fe   -0.41515   -0.20396   -0.19291
 37 Fe   -0.06166    0.53461   -0.13875
 38 Ni    0.76682    0.16608   -0.16895
 39 Al    0.88652    0.18485    0.41647
 40 Al    1.57243    0.65297   -0.48334
 41 Co    0.00773    0.22643   -0.68212
 42 Al   -1.29417    1.04972   -0.62635
 43 Cr   -0.20925   -0.25875   -0.55258
 44 Cr   -0.66309    0.27271   -1.78857
 45 Al   -0.25767    1.07405   -0.21686
 46 Al    0.11196   -0.76909   -0.71974
 47 Co   -0.34853    0.10103   -0.28892
 48 Fe   -0.34326    0.23579    0.20954
 49 Ni    0.40661   -0.05514    0.56196
 50 Cr    0.62382    0.76591    1.23662
 51 Cr    0.41283   -0.29255    0.09298
 52 Ni   -0.30025   -0.14553    0.08131
 53 Co   -0.53721    0.21084    0.34503
 54 Ni   -0.15147   -0.52349   -0.05959
 55 Al   -0.76051    0.48569    0.91125
 56 Cr    0.86489   -0.93062   -0.02945
 57 Ni    0.17594   -0.30430   -0.10422
 58 Co    0.01379    0.28783    0.17965
 59 Cr    0.41027   -0.28412    0.02793
[...]
 93 Co    0.10871    0.34059   -0.09254
 94 Fe   -0.40923   -0.15579   -0.10475
 95 Cr   -0.31530   -0.50238   -0.33682
 96 Cr    0.28305    0.48997    0.48536
 97 Ni   -0.48845   -0.32883    0.11725
 98 Ni   -0.28356   -0.10480   -0.13648
 99 Fe   -0.60617   -0.05021    0.13125
100 Al   -0.56007   -0.82116   -0.53849
101 Cr   -0.19470   -0.37461    0.61960
102 Co   -0.56337   -0.56970    0.18392
103 Al   -0.49641   -0.54345    0.95292
104 Ni    0.04772   -0.15909    0.62595
105 Al   -0.33351   -1.81095   -0.62686
106 Fe    0.61833    0.35232   -0.42893
107 Co    0.86611   -0.72927    0.45421

Date: Sat Apr 15 10:14:51 2023