User:   c.zeng@d0117
Date:   Sat Apr 15 23:13:23 2023
Arch:   x86_64
Pid:    252315
CWD:    /home/c.zeng/projects/hea-corrosion/hea-mlp/data-curation/bulk-mcmc/dft-jobs/91
Python: 3.8.1
gpaw:   /home/c.zeng/usr/installs/gpaw/source/gpaw-22.8.0/gpaw
_gpaw:  /home/c.zeng/usr/installs/gpaw/source/gpaw-22.8.0/
        _gpaw.cpython-38-x86_64-linux-gnu.so
ase:    /home/c.zeng/.local/lib/python3.8/site-packages/ase-3.22.1-py3.8.egg/ase (version 3.22.1)
numpy:  /home/c.zeng/.local/lib/python3.8/site-packages/numpy (version 1.24.2)
scipy:  /home/c.zeng/.local/lib/python3.8/site-packages/scipy (version 1.10.1)
units:  Angstrom and eV
cores: 30
OpenMP: False
OMP_NUM_THREADS: 1

Input parameters:
  convergence: {energy: 0.0001}
  kpts: [2 2 2]
  maxiter: 666
  mode: {ecut: 350.0,
         name: pw}
  occupations: {fixmagmom: False,
                name: fermi-dirac,
                width: 0.1}
  spinpol: True
  xc: PBE

System changes: positions, numbers, cell, pbc, initial_charges, initial_magmoms

Initialize ...

species:
  Cr:
    name: Chromium
    id: 33f258bda2ca9f93018e70263a35547b
    Z: 24.0
    valence: 6
    core: 18
    charge: 0.0
    file: /home/c.zeng/usr/data/gpaw-setups-0.9.20000/Cr.PBE.gz
    compensation charges: {type: gauss,
                           rc: 0.35,
                           lmax: 2}
    cutoffs: {filter: 2.14,
              core: 3.04}
    valence states:
      #              energy  rcut
      - 4s(1.00)    -4.007   1.164
      - 4p(0.00)    -0.989   1.217
      - 3d(5.00)    -2.913   1.111
      -  s          23.205   1.164
      -  p          26.223   1.217
      -  d          24.299   1.111

    # Using partial waves for Cr as LCAO basis

  Fe:
    name: Iron
    id: 37abbd8d6c3c35915a9b583b742da910
    Z: 26.0
    valence: 8
    core: 18
    charge: 0.0
    file: /home/c.zeng/usr/data/gpaw-setups-0.9.20000/Fe.PBE.gz
    compensation charges: {type: gauss,
                           rc: 0.33,
                           lmax: 2}
    cutoffs: {filter: 2.06,
              core: 2.67}
    valence states:
      #              energy  rcut
      - 4s(2.00)    -5.291   1.164
      - 4p(0.00)    -1.326   1.058
      - 3d(6.00)    -7.505   1.058
      -  s          21.920   1.164
      -  p          25.885   1.058
      -  d          19.706   1.058

[...]

  Co:
    name: Cobalt
    id: 339d20d5b0b93d2de9531a1bee871d91
    Z: 27.0
    valence: 9
    core: 18
    charge: 0.0
    file: /home/c.zeng/usr/data/gpaw-setups-0.9.20000/Co.PBE.gz
    compensation charges: {type: gauss,
                           rc: 0.32,
                           lmax: 2}
    cutoffs: {filter: 1.87,
              core: 2.55}
    valence states:
      #              energy  rcut
      - 4s(2.00)    -5.469   1.005
      - 4p(0.00)    -1.277   1.058
      - 3d(7.00)    -8.205   1.005
      -  s          21.742   1.005
      -  p          25.934   1.058
      -  d          19.007   1.005

[...]

  Ni:
    name: Nickel
    id: 0d9f38a9d6e76a2886f07bb4381f212b
    Z: 28.0
    valence: 16
    core: 12
    charge: 0.0
    file: /home/c.zeng/usr/data/gpaw-setups-0.9.20000/Ni.PBE.gz
    compensation charges: {type: gauss,
                           rc: 0.36,
                           lmax: 2}
    cutoffs: {filter: 2.14,
              core: 1.98}
    valence states:
      #              energy  rcut
      - 4s(2.00)    -5.642   1.164
      - 3p(6.00)   -71.394   1.207
      - 4p(0.00)    -1.226   1.207
      - 3d(8.00)    -8.875   1.138
      -  s          21.570   1.164
      -  d          18.337   1.138

[...]

  Al:
    name: Aluminium
    id: 0292cae29f5d6237e50f6abdd43a7bdd
    Z: 13.0
    valence: 3
    core: 10
    charge: 0.0
    file: /home/c.zeng/usr/data/gpaw-setups-0.9.20000/Al.PBE.gz
    compensation charges: {type: gauss,
                           rc: 0.34,
                           lmax: 2}
    cutoffs: {filter: 1.91,
              core: 2.36}
    valence states:
      #              energy  rcut
      - 3s(2.00)    -7.753   1.085
      - 3p(1.00)    -2.712   1.085
      -  s          19.459   1.085
      -  p          24.499   1.085
      -  d           0.000   1.085

    # Using partial waves for Al as LCAO basis

Reference energy: -3699400.456887  # eV

Spin-polarized calculation.
Magnetic moment: 143.500000

Convergence criteria:
 Maximum [total energy] change in last 3 cyles: 0.0001 eV / electron
 Maximum integral of absolute [dens]ity change: 0.0001 electrons / valence electron
 Maximum integral of absolute [eigenst]ate change: 4e-08 eV^2 / valence electron
 Maximum number of scf [iter]ations: 666
 (Square brackets indicate name in SCF output, whereas a 'c' in
 the SCF output indicates the quantity has converged.)

Symmetries present (total): 1

  ( 1  0  0)
  ( 0  1  0)
  ( 0  0  1)

8 k-points: 2 x 2 x 2 Monkhorst-Pack grid
4 k-points in the irreducible part of the Brillouin zone
       k-points in crystal coordinates                weights
   0:     0.25000000   -0.25000000   -0.25000000          2/8
   1:     0.25000000   -0.25000000    0.25000000          2/8
   2:     0.25000000    0.25000000   -0.25000000          2/8
   3:     0.25000000    0.25000000    0.25000000          2/8

Wave functions: Plane wave expansion
  Cutoff energy: 350.000 eV
  Number of coefficients (min, max): 18052, 18052
  Pulay-stress correction: 0.000000 eV/Ang^3 (de/decut=0.000000)
  Using FFTW library
  ScaLapack parameters: grid=1x1, blocksize=None
  Wavefunction extrapolation:
    Improved wavefunction reuse through dual PAW basis

Occupation numbers: Fermi-Dirac:
  width: 0.1000  # eV

Eigensolver
   Davidson(niter=2)

Densities:
  Coarse grid: 48*48*48 grid
  Fine grid: 96*96*96 grid
  Total Charge: 0.000000

Density mixing:
  Method: difference
  Backend: pulay
  Linear mixing parameter: 0.05
  old densities: 5
  Damping of long wavelength oscillations: 50

Hamiltonian:
  XC and Coulomb potentials evaluated on a 96*96*96 grid
  Using the PBE Exchange-Correlation functional
  External potential:
    NoExternalPotential

XC parameters: PBE with 2 nearest neighbor stencil

Total number of cores used: 30
Parallelization over k-points: 2
Domain decomposition: 5 x 3 x 1

Number of atoms: 108
Number of atomic orbitals: 1025
Number of bands in calculation: 703
Number of valence electrons: 1020
Bands to converge: occupied

... initialized

Initializing position-dependent things.

Density initialized from atomic densities
Creating initial wave functions:
  703 bands from LCAO basis set

        Cr------------------------.
       /|  Co                Co   |
      Ni|   Cr         Cr         |
     / Fe      Fe       Al        |
    /   CCo      Ni       Fe      |
   /e   | CoCr     CoAl    NiNi   |
  /  FeCr  CrCo     NiNiCo        |
 *    FeFe  FeCoCr     CoAl       |
 |     CoFeCr  CoFe Ni  CrFeNi    |
 | Fe   CrNiNiCo NiNiCrFe  Cr     |
 |   CoNi  NiAlCr   CrCrCr   Fe   |
 |    FeNi  FeFeCoNi CoFeNi   Ni  |
 |     CrFeFe  Cr CrCr  CoFeFe    |
 |      .-CoCrCo-FeCrNiCo--CoNi---.
 |   CrCo    CoAl   NiNiFe       /
 |    / Ni    CrFe       Ni     /
 |   /            Ni           /
 |Cr/      Co       Co        /
 |/            Ni           /
 *----------------Cr-------*

Positions:
   0 Cr     0.005316   -0.016350   10.639749    ( 0.0000,  0.0000,  0.0000)
   1 Cr    10.672340    1.801276    1.786848    ( 0.0000,  0.0000,  0.0000)
   2 Fe     1.795727   10.625972    1.782259    ( 0.0000,  0.0000,  0.0000)
   3 Cr     1.780787    1.796175   10.644605    ( 0.0000,  0.0000,  2.1000)
   4 Fe     3.523539   -0.014558    0.017268    ( 0.0000,  0.0000,  2.0000)
   5 Co     3.522568    1.781672    1.746648    ( 0.0000,  0.0000,  0.0000)
   6 Co     5.320952   10.642342    1.763136    ( 0.0000,  0.0000,  1.5000)
   7 Ni     5.342082    1.828767    0.007462    ( 0.0000,  0.0000,  2.0000)
   8 Cr     7.144895    0.019195    0.012033    ( 0.0000,  0.0000,  0.0000)
   9 Co     7.143497    1.798064    1.764939    ( 0.0000,  0.0000,  2.1000)
  10 Ni     8.891362   10.651627    1.788353    ( 0.0000,  0.0000,  1.5000)
  11 Co     8.888779    1.804777   10.642609    ( 0.0000,  0.0000,  2.0000)
  12 Fe     0.008694    3.581540   10.650250    ( 0.0000,  0.0000,  2.1000)
  13 Cr     0.018979    5.332745    1.789751    ( 0.0000,  0.0000,  2.1000)
  14 Ni     1.778129    3.600941    1.760019    ( 0.0000,  0.0000,  2.0000)
  15 Co     1.790423    5.343267   -0.017766    ( 0.0000,  0.0000,  2.0000)
  16 Cr     3.542802    3.589864   -0.015614    ( 0.0000,  0.0000,  2.0000)
  17 Co     3.526837    5.358538    1.765793    ( 0.0000,  0.0000,  2.0000)
  18 Fe     5.336650    3.606501    1.755815    ( 0.0000,  0.0000,  0.0000)
  19 Ni     5.300399    5.323642   -0.012797    ( 0.0000,  0.0000,  2.1000)
  20 Al     7.122858    3.584816   10.659524    ( 0.0000,  0.0000,  2.0000)
  21 Ni     7.120500    5.315168    1.805502    ( 0.0000,  0.0000,  1.5000)
  22 Ni     8.892034    3.590952    1.773146    ( 0.0000,  0.0000,  2.1000)
  23 Fe     8.925340    5.301487   -0.003100    ( 0.0000,  0.0000,  0.0000)
  24 Ni     0.023055    7.096680   -0.007939    ( 0.0000,  0.0000,  0.0000)
  25 Cr     0.019141    8.871245    1.787510    ( 0.0000,  0.0000,  1.5000)
  26 Co     1.784372    7.104567    1.776443    ( 0.0000,  0.0000,  2.0000)
  27 Co     1.779944    8.867628   10.659406    ( 0.0000,  0.0000,  1.5000)
  28 Cr     3.547785    7.097897    0.009215    ( 0.0000,  0.0000,  2.1000)
  29 Cr     3.541137    8.858109    1.788225    ( 0.0000,  0.0000,  2.1000)
  30 Cr     5.295105    7.099391    1.787894    ( 0.0000,  0.0000,  2.1000)
  31 Ni     5.303685    8.873828    0.029898    ( 0.0000,  0.0000,  0.0000)
  32 Cr     7.106883    7.088719   10.645159    ( 0.0000,  0.0000,  0.0000)
  33 Co     7.111055    8.901137    1.809472    ( 0.0000,  0.0000,  0.0000)
  34 Co     8.939384    7.093404    1.799238    ( 0.0000,  0.0000,  0.0000)
  35 Co     8.919972    8.915853   10.664881    ( 0.0000,  0.0000,  0.0000)
  36 Cr    10.679704   10.658873    3.584517    ( 0.0000,  0.0000,  2.0000)
  37 Fe    10.670921    1.796367    5.340289    ( 0.0000,  0.0000,  2.1000)
  38 Fe     1.770350   10.649001    5.343491    ( 0.0000,  0.0000,  0.0000)
  39 Co     1.791800    1.784671    3.584891    ( 0.0000,  0.0000,  2.0000)
  40 Ni     3.529718   10.626388    3.565234    ( 0.0000,  0.0000,  2.1000)
  41 Fe     3.535716    1.793465    5.367289    ( 0.0000,  0.0000,  1.5000)
  42 Co     5.311497    0.001574    5.366254    ( 0.0000,  0.0000,  1.5000)
  43 Al     5.332627    1.768055    3.580793    ( 0.0000,  0.0000,  0.0000)
  44 Ni     7.136966   10.673941    3.563804    ( 0.0000,  0.0000,  2.0000)
  45 Cr     7.136774    1.794126    5.358944    ( 0.0000,  0.0000,  2.1000)
  46 Co     8.925938   10.673621    5.347589    ( 0.0000,  0.0000,  2.0000)
  47 Fe     8.883827    1.779111    3.582404    ( 0.0000,  0.0000,  1.5000)
  48 Ni    -0.010038    3.572341    3.580996    ( 0.0000,  0.0000,  2.0000)
  49 Co    10.685573    5.328935    5.338550    ( 0.0000,  0.0000,  2.0000)
  50 Ni     1.784180    3.582949    5.348357    ( 0.0000,  0.0000,  1.5000)
  51 Fe     1.766326    5.339510    3.565255    ( 0.0000,  0.0000,  1.5000)
  52 Cr     3.522387    3.605007    3.574059    ( 0.0000,  0.0000,  0.0000)
  53 Al     3.543581    5.347343    5.347962    ( 0.0000,  0.0000,  2.1000)
  54 Co     5.333950    3.591678    5.360630    ( 0.0000,  0.0000,  2.0000)
  55 Cr     5.336458    5.346308    3.560132    ( 0.0000,  0.0000,  0.0000)
  56 Ni     7.143102    3.570089    3.572138    ( 0.0000,  0.0000,  2.1000)
  57 Cr     7.120265    5.347471    5.345689    ( 0.0000,  0.0000,  2.0000)
  58 Ni     8.888299    3.570665    5.342018    ( 0.0000,  0.0000,  1.5000)
  59 Fe     8.904573    5.339084    3.577453    ( 0.0000,  0.0000,  2.0000)
[...]
  93 Ni     7.108740    5.307762    8.854395    ( 0.0000,  0.0000,  1.5000)
  94 Al     8.907593    3.561296    8.890348    ( 0.0000,  0.0000,  2.1000)
  95 Fe     8.917806    5.336309    7.100224    ( 0.0000,  0.0000,  0.0000)
  96 Fe     0.016270    7.102027    7.111664    ( 0.0000,  0.0000,  2.0000)
  97 Fe     0.000822    8.895150    8.883817    ( 0.0000,  0.0000,  1.5000)
  98 Co     1.771182    7.105090    8.888608    ( 0.0000,  0.0000,  1.5000)
  99 Cr     1.775184    8.850318    7.108494    ( 0.0000,  0.0000,  2.0000)
 100 Co     3.530401    7.086478    7.104972    ( 0.0000,  0.0000,  1.5000)
 101 Fe     3.524841    8.851001    8.894798    ( 0.0000,  0.0000,  0.0000)
 102 Co     5.310654    7.102827    8.871128    ( 0.0000,  0.0000,  0.0000)
 103 Ni     5.290613    8.850286    7.104876    ( 0.0000,  0.0000,  0.0000)
 104 Co     7.129016    7.083330    7.142750    ( 0.0000,  0.0000,  2.1000)
 105 Al     7.143241    8.903186    8.854384    ( 0.0000,  0.0000,  2.0000)
 106 Ni     8.926504    7.115858    8.862313    ( 0.0000,  0.0000,  0.0000)
 107 Ni     8.932896    8.877648    7.127479    ( 0.0000,  0.0000,  1.5000)

Unit cell:
           periodic     x           y           z      points  spacing
  1. axis:    yes   10.671700    0.000000    0.000000    48     0.2223
  2. axis:    yes    0.000000   10.671700    0.000000    48     0.2223
  3. axis:    yes    0.000000    0.000000   10.671700    48     0.2223

  Lengths:  10.671700  10.671700  10.671700
  Angles:   90.000000  90.000000  90.000000

Effective grid spacing dv^(1/3) = 0.2223

     iter     time        total  log10-change:  magmom
                         energy  eigst   dens
iter:   1 23:19:05  -961.053917                  +143.1802
iter:   2 23:22:11  -913.208433  -0.51  -1.33    +105.9507
iter:   3 23:25:13  -913.195165  -0.84  -1.34    +72.7168
iter:   4 23:27:48  -877.911076  -1.29  -1.33    +62.8641
iter:   5 23:30:22  -873.166404  -1.92  -1.46    +57.6545
iter:   6 23:32:56  -877.068005  -1.86  -1.50    +54.6819
iter:   7 23:35:30  -878.051681  -1.58  -1.52    +53.2554
iter:   8 23:38:03  -867.515343  -1.76  -1.56    +52.6085
iter:   9 23:40:37  -870.619579  -2.01  -1.80    +52.5786
iter:  10 23:43:51  -868.677341  -2.28  -1.80    +52.5861
iter:  11 23:46:46  -868.318695  -2.63  -1.88    +52.9614
iter:  12 23:49:20  -868.480030  -2.76  -1.93    +53.7282
iter:  13 23:51:53  -869.746022  -2.68  -1.99    +54.3463
iter:  14 23:54:27  -869.862051  -2.64  -2.01    +54.6876
iter:  15 23:57:00  -870.028044  -2.75  -2.05    +55.5447
iter:  16 23:59:34  -870.166565  -2.84  -2.10    +55.9696
iter:  17 00:02:21  -869.656558  -3.10  -2.13    +56.2334
iter:  18 00:05:42  -870.099980  -3.07  -2.23    +56.8834
iter:  19 00:08:15  -869.883923  -3.21  -2.22    +57.2718
iter:  20 00:10:50  -870.223554  -3.16  -2.31    +57.8543
iter:  21 00:13:24  -870.064149  -3.18  -2.30    +58.0546
iter:  22 00:15:58  -870.247376  -3.30  -2.39    +58.6274
iter:  23 00:18:32  -870.284677  -3.35  -2.39    +59.1008
iter:  24 00:21:05  -870.285103c -3.54  -2.43    +59.4437
iter:  25 00:24:10  -870.401182  -3.53  -2.48    +59.8552
iter:  26 00:27:14  -870.464639  -3.66  -2.50    +60.1792
iter:  27 00:29:48  -870.501651c -3.76  -2.52    +60.6382
iter:  28 00:32:23  -870.601053  -3.82  -2.57    +61.0095
iter:  29 00:34:57  -870.684273  -3.86  -2.58    +61.3084
iter:  30 00:37:30  -870.703625  -4.06  -2.57    +61.5609
iter:  31 00:40:04  -870.798488  -3.93  -2.62    +61.9414
iter:  32 00:42:45  -870.876046  -3.99  -2.62    +62.2081
iter:  33 00:46:11  -870.956401  -4.05  -2.62    +62.4021
iter:  34 00:48:44  -871.283465  -3.10  -2.60    +62.9672
iter:  35 00:51:18  -871.312416  -3.95  -2.48    +62.7701
iter:  36 00:53:52  -871.433924  -3.74  -2.47    +62.9422
iter:  37 00:56:26  -871.472674  -4.38  -2.43    +62.8837
iter:  38 00:59:00  -871.276976  -3.85  -2.41    +62.8942
iter:  39 01:01:34  -871.141633  -3.47  -2.49    +62.8265
iter:  40 01:04:45  -871.185525  -3.70  -2.62    +62.7208
iter:  41 01:07:42  -871.273530  -3.52  -2.62    +62.5704
iter:  42 01:10:17  -871.083992  -3.96  -2.58    +62.5113
iter:  43 01:12:51  -871.089906  -4.36  -2.87    +62.4126
iter:  44 01:15:24  -871.086853c -4.59  -2.93    +62.3337
iter:  45 01:17:57  -871.091746c -4.74  -3.02    +62.2656
iter:  46 01:20:31  -871.092318c -4.96  -3.04    +62.2328
iter:  47 01:23:19  -871.094823c -5.02  -3.10    +62.1982
iter:  48 01:26:39  -871.094890c -5.04  -3.13    +62.1581
iter:  49 01:29:13  -871.096639c -5.09  -3.18    +62.1340
iter:  50 01:31:48  -871.094812c -5.14  -3.23    +62.1221
iter:  51 01:34:21  -871.097307c -5.15  -3.29    +62.0832
iter:  52 01:36:56  -871.096136c -5.45  -3.31    +62.0712
iter:  53 01:39:29  -871.097736c -5.40  -3.37    +62.0553
iter:  54 01:42:02  -871.097676c -5.61  -3.40    +62.0432
iter:  55 01:45:23  -871.098847c -5.53  -3.44    +62.0167
iter:  56 01:48:10  -871.100197c -5.52  -3.49    +62.0093
iter:  57 01:50:44  -871.100247c -5.73  -3.49    +61.9957
iter:  58 01:53:19  -871.101006c -5.76  -3.57    +61.9738
iter:  59 01:55:53  -871.102262c -5.93  -3.59    +61.9673
iter:  60 01:58:27  -871.102261c -5.99  -3.61    +61.9604
iter:  61 02:01:00  -871.103247c -6.01  -3.67    +61.9379
iter:  62 02:04:04  -871.103784c -6.12  -3.73    +61.9318
iter:  63 02:07:10  -871.104498c -6.25  -3.73    +61.9275
iter:  64 02:09:44  -871.104999c -6.18  -3.78    +61.9156
iter:  65 02:12:18  -871.105614c -6.23  -3.82    +61.9106
iter:  66 02:14:51  -871.105949c -6.36  -3.86    +61.9088
iter:  67 02:17:25  -871.106722c -6.23  -3.89    +61.8962
iter:  68 02:19:58  -871.106867c -6.33  -3.92    +61.8937
iter:  69 02:22:31  -871.107499c -6.38  -3.95    +61.8948
iter:  70 02:26:00  -871.107646c -6.44  -3.99    +61.8884
iter:  71 02:27:47  -871.108022c -6.51  -4.03c   +61.8843
iter:  72 02:30:30  -871.108200c -6.63  -4.07c   +61.8849
iter:  73 02:33:18  -871.108659c -6.52  -4.11c   +61.8790
iter:  74 02:36:07  -871.108798c -6.61  -4.13c   +61.8762
iter:  75 02:38:56  -871.109051c -6.67  -4.15c   +61.8767
iter:  76 02:41:44  -871.109164c -6.84  -4.22c   +61.8744
iter:  77 02:44:34  -871.109358c -6.87  -4.27c   +61.8710
iter:  78 02:47:23  -871.109457c -6.89  -4.28c   +61.8709
iter:  79 02:50:11  -871.109700c -6.86  -4.31c   +61.8687
iter:  80 02:53:02  -871.109800c -6.81  -4.35c   +61.8642
iter:  81 02:55:50  -871.110077c -6.60  -4.36c   +61.8605
iter:  82 02:58:39  -871.110201c -6.85  -4.39c   +61.8590
iter:  83 03:01:27  -871.110423c -6.60  -4.42c   +61.8538
iter:  84 03:04:15  -871.110621c -6.50  -4.42c   +61.8489
iter:  85 03:07:05  -871.110842c -6.44  -4.41c   +61.8450
iter:  86 03:09:53  -871.111676c -5.45  -4.34c   +61.8329
iter:  87 03:12:41  -871.111458c -6.64  -4.17c   +61.8374
iter:  88 03:15:31  -871.111555c -6.99  -4.24c   +61.8380
iter:  89 03:18:19  -871.111557c -7.25  -4.22c   +61.8387
iter:  90 03:21:07  -871.111723c -6.93  -4.21c   +61.8392
iter:  91 03:23:57  -871.111508c -6.87  -4.09c   +61.8395
iter:  92 03:26:46  -871.111422c -7.00  -4.31c   +61.8377
iter:  93 03:29:35  -871.111366c -7.08  -4.30c   +61.8364
iter:  94 03:32:24  -871.111451c -7.39  -4.33c   +61.8332
iter:  95 03:35:12  -871.111396c -7.55c -4.40c   +61.8311

Converged after 95 iterations.

Dipole moment: (-10.607949, 7.934348, 9.051443) |e|*Ang

Total magnetic moment: (0.000000, 0.000000, 61.831069)
Local magnetic moments:
   0 Cr ( 0.000000,  0.000000, -0.392965)
   1 Cr ( 0.000000,  0.000000, -1.211231)
   2 Fe ( 0.000000,  0.000000,  1.819006)
   3 Cr ( 0.000000,  0.000000, -0.330229)
   4 Fe ( 0.000000,  0.000000,  2.062540)
   5 Co ( 0.000000,  0.000000,  0.974271)
   6 Co ( 0.000000,  0.000000,  1.038258)
   7 Ni ( 0.000000,  0.000000,  0.199060)
   8 Cr ( 0.000000,  0.000000, -1.683200)
   9 Co ( 0.000000,  0.000000,  1.286733)
  10 Ni ( 0.000000,  0.000000,  0.082888)
  11 Co ( 0.000000,  0.000000,  0.895180)
  12 Fe ( 0.000000,  0.000000,  2.102479)
  13 Cr ( 0.000000,  0.000000, -1.871683)
  14 Ni ( 0.000000,  0.000000,  0.217695)
  15 Co ( 0.000000,  0.000000,  1.149703)
  16 Cr ( 0.000000,  0.000000, -1.323660)
  17 Co ( 0.000000,  0.000000,  0.645760)
  18 Fe ( 0.000000,  0.000000,  2.081173)
  19 Ni ( 0.000000,  0.000000,  0.100090)
  20 Al ( 0.000000,  0.000000, -0.026713)
  21 Ni ( 0.000000,  0.000000,  0.251793)
  22 Ni ( 0.000000,  0.000000,  0.266334)
  23 Fe ( 0.000000,  0.000000,  2.227792)
  24 Ni ( 0.000000,  0.000000,  0.353942)
  25 Cr ( 0.000000,  0.000000, -0.984900)
  26 Co ( 0.000000,  0.000000,  0.814381)
  27 Co ( 0.000000,  0.000000,  0.553676)
  28 Cr ( 0.000000,  0.000000, -1.269602)
  29 Cr ( 0.000000,  0.000000, -0.859247)
  30 Cr ( 0.000000,  0.000000,  0.917357)
  31 Ni ( 0.000000,  0.000000,  0.126533)
  32 Cr ( 0.000000,  0.000000, -1.994748)
  33 Co ( 0.000000,  0.000000,  0.983515)
  34 Co ( 0.000000,  0.000000,  1.011167)
  35 Co ( 0.000000,  0.000000,  0.892339)
  36 Cr ( 0.000000,  0.000000, -1.360063)
  37 Fe ( 0.000000,  0.000000,  2.382048)
  38 Fe ( 0.000000,  0.000000,  2.172445)
  39 Co ( 0.000000,  0.000000,  1.241741)
  40 Ni ( 0.000000,  0.000000,  0.276244)
  41 Fe ( 0.000000,  0.000000,  2.257549)
  42 Co ( 0.000000,  0.000000,  0.902416)
  43 Al ( 0.000000,  0.000000, -0.028445)
  44 Ni ( 0.000000,  0.000000,  0.243717)
  45 Cr ( 0.000000,  0.000000,  0.810340)
  46 Co ( 0.000000,  0.000000,  1.115876)
  47 Fe ( 0.000000,  0.000000,  2.147709)
  48 Ni ( 0.000000,  0.000000,  0.397307)
  49 Co ( 0.000000,  0.000000,  1.225977)
  50 Ni ( 0.000000,  0.000000,  0.355079)
  51 Fe ( 0.000000,  0.000000,  2.163497)
  52 Cr ( 0.000000,  0.000000, -1.650629)
  53 Al ( 0.000000,  0.000000, -0.030805)
  54 Co ( 0.000000,  0.000000,  0.389127)
  55 Cr ( 0.000000,  0.000000,  0.438861)
  56 Ni ( 0.000000,  0.000000,  0.262345)
  57 Cr ( 0.000000,  0.000000, -1.144562)
  58 Ni ( 0.000000,  0.000000,  0.282326)
  59 Fe ( 0.000000,  0.000000,  2.188092)
[...]
  93 Ni ( 0.000000,  0.000000,  0.224313)
  94 Al ( 0.000000,  0.000000, -0.037525)
  95 Fe ( 0.000000,  0.000000,  1.803948)
  96 Fe ( 0.000000,  0.000000,  2.231421)
  97 Fe ( 0.000000,  0.000000,  2.104834)
  98 Co ( 0.000000,  0.000000,  1.240639)
  99 Cr ( 0.000000,  0.000000, -1.789048)
 100 Co ( 0.000000,  0.000000,  1.359737)
 101 Fe ( 0.000000,  0.000000,  2.185878)
 102 Co ( 0.000000,  0.000000,  1.172738)
 103 Ni ( 0.000000,  0.000000,  0.383419)
 104 Co ( 0.000000,  0.000000,  0.804516)
 105 Al ( 0.000000,  0.000000, -0.016598)
 106 Ni ( 0.000000,  0.000000,  0.290985)
 107 Ni ( 0.000000,  0.000000,  0.291151)

Energy contributions relative to reference atoms: (reference = -3699400.456887)

Kinetic:       +135.926377
Potential:     -187.799344
External:        +0.000000
XC:            -854.653020
Entropy (-ST):   -4.563612
Local:          +37.696398
Free energy:   -873.393202
Extrapolated:  -871.111396

Spin contamination: 28.728059 electrons
Showing only first 2 kpts
                      Up                     Down
 Kpt  Band  Eigenvalues  Occupancy  Eigenvalues  Occupancy
  0   508      9.65723    0.99356     10.52414    0.02582
  0   509      9.66242    0.99322     10.53982    0.02215
  0   510      9.67983    0.99194     10.54454    0.02115
  0   511      9.68480    0.99153     10.55954    0.01826

  1   508      9.64299    0.99441     10.50986    0.02966
  1   509      9.65158    0.99391     10.52773    0.02493
  1   510      9.66801    0.99283     10.53739    0.02268
  1   511      9.68785    0.99127     10.56250    0.01774

Fermi level: 10.16107

No gap

Forces in eV/Ang:
  0 Cr   -0.15453    0.35800    0.11812
  1 Cr   -0.08133    0.23198   -0.23065
  2 Fe   -0.27463    0.31280    0.16640
  3 Cr    0.01532   -0.17385    0.31898
  4 Fe    0.48941    0.14072   -0.20896
  5 Co    0.06543    0.07537    0.14432
  6 Co    0.03878   -0.10025   -0.08947
  7 Ni   -0.20500   -0.53135    0.00805
  8 Cr   -0.15847    0.30014    0.51832
  9 Co   -0.07489   -0.25520   -0.01942
 10 Ni    0.29654    0.30034   -0.20859
 11 Co    0.41321   -0.63210    0.65674
 12 Fe    0.41054   -0.41372    0.63002
 13 Cr   -0.05355    0.19706   -0.26095
 14 Ni    0.01411   -0.51231    0.16016
 15 Co    0.05783   -0.06679    0.13009
 16 Cr   -0.21755    0.13265    0.32795
 17 Co    0.22413   -0.16024   -0.06700
 18 Fe   -0.50769   -0.32032    0.41730
 19 Ni    0.17943    0.34843   -0.06213
 20 Al   -0.31939   -0.24456    0.93263
 21 Ni   -0.04966    0.47368   -0.27127
 22 Ni    0.23519   -0.42818    0.27351
 23 Fe    0.04837    1.21450    0.17026
 24 Ni   -0.22765    0.12167    0.15682
 25 Cr    0.09897   -0.36895   -0.52506
 26 Co    0.09713    0.11007   -0.07738
 27 Co    0.03945    0.11043    0.29430
 28 Cr   -0.23040   -0.27165   -0.31271
 29 Cr   -0.04571    0.24166    0.10135
 30 Cr    0.26949   -0.00643   -0.12302
 31 Ni    0.30946    0.26205   -0.19915
 32 Cr    0.22019   -0.31633    0.99501
 33 Co   -0.12416   -0.26740   -0.33408
 34 Co   -0.47192    0.30686   -0.23885
 35 Co   -0.19076   -0.34150    0.38526
 36 Cr    0.03768    0.01414    0.19315
 37 Fe    0.14232   -0.13681   -0.03993
 38 Fe    0.05170   -0.05037   -0.28470
 39 Co   -0.02934    0.00860   -0.46621
 40 Ni    0.12615    0.25618    0.11011
 41 Fe   -0.12563    0.03525    0.11092
 42 Co    0.08271   -0.41590    0.01542
 43 Al    0.03591   -0.38958   -0.57189
 44 Ni   -0.18758   -0.14972    0.10768
 45 Cr    0.22313   -0.04343    0.76129
 46 Co   -0.27619   -0.21776    0.04334
 47 Fe    0.22200   -0.10558   -0.41682
 48 Ni    0.11594   -0.21680   -0.17763
 49 Co   -0.04683    0.02227    0.12426
 50 Ni   -0.21517   -0.20892   -0.17903
 51 Fe    0.02887   -0.09497   -0.38431
 52 Cr   -0.11530   -0.44659   -0.98732
 53 Al   -0.13708    0.19560    0.53774
 54 Co    0.17637   -0.08917   -0.30496
 55 Cr    0.27178   -0.10961   -0.44661
 56 Ni   -0.23744    0.02267    0.11797
 57 Cr   -0.36692   -0.22020    0.19352
 58 Ni    0.15473    0.06930   -0.21262
 59 Fe   -0.20647   -0.01511   -0.08040
[...]
 93 Ni    0.11135    0.28684    0.34586
 94 Al    0.43120    0.05748   -0.04660
 95 Fe   -0.27638    0.34950   -0.17913
 96 Fe   -0.11131    0.17779   -0.28420
 97 Fe    0.12841   -0.12968    0.28999
 98 Co    0.05353    0.02589    0.21854
 99 Cr    0.03016   -0.06891   -0.12972
100 Co    0.09916    0.46782    0.32822
101 Fe    0.43319    0.09697   -0.03814
102 Co   -0.06911   -0.20142    0.20812
103 Ni    0.17769    0.29024   -0.01439
104 Co   -0.08179   -0.16237   -0.90907
105 Al   -0.48741   -0.13898   -0.55626
106 Ni   -0.07232   -0.23183    0.43910
107 Ni   -0.03147    0.20201   -0.56925

Date: Sun Apr 16 03:35:35 2023