User:   c.zeng@d0135
Date:   Sat Apr  8 08:33:07 2023
Arch:   x86_64
Pid:    125511
CWD:    /home/c.zeng/projects/hea-corrosion/hea-mlp/data-curation/volume/dft-jobs/36
Python: 3.8.1
gpaw:   /home/c.zeng/usr/installs/gpaw/source/gpaw-22.8.0/gpaw
_gpaw:  /home/c.zeng/usr/installs/gpaw/source/gpaw-22.8.0/
        _gpaw.cpython-38-x86_64-linux-gnu.so
ase:    /home/c.zeng/.local/lib/python3.8/site-packages/ase-3.22.1-py3.8.egg/ase (version 3.22.1)
numpy:  /shared/centos7/python/3.8.1/lib/python3.8/site-packages/numpy (version 1.17.4)
scipy:  /shared/centos7/python/3.8.1/lib/python3.8/site-packages/scipy (version 1.4.1)
units:  Angstrom and eV
cores: 64
OpenMP: False
OMP_NUM_THREADS: 1

Input parameters:
  convergence: {energy: 0.0001}
  kpts: [2 2 2]
  maxiter: 666
  mode: {ecut: 350.0,
         name: pw}
  occupations: {fixmagmom: False,
                name: fermi-dirac,
                width: 0.1}
  spinpol: True
  xc: PBE

System changes: positions, numbers, cell, pbc, initial_charges, initial_magmoms

Initialize ...

species:
  Cr:
    name: Chromium
    id: 33f258bda2ca9f93018e70263a35547b
    Z: 24.0
    valence: 6
    core: 18
    charge: 0.0
    file: /home/c.zeng/usr/data/gpaw-setups-0.9.20000/Cr.PBE.gz
    compensation charges: {type: gauss,
                           rc: 0.35,
                           lmax: 2}
    cutoffs: {filter: 2.14,
              core: 3.04}
    valence states:
      #              energy  rcut
      - 4s(1.00)    -4.007   1.164
      - 4p(0.00)    -0.989   1.217
      - 3d(5.00)    -2.913   1.111
      -  s          23.205   1.164
      -  p          26.223   1.217
      -  d          24.299   1.111

    # Using partial waves for Cr as LCAO basis

  Al:
    name: Aluminium
    id: 0292cae29f5d6237e50f6abdd43a7bdd
    Z: 13.0
    valence: 3
    core: 10
    charge: 0.0
    file: /home/c.zeng/usr/data/gpaw-setups-0.9.20000/Al.PBE.gz
    compensation charges: {type: gauss,
                           rc: 0.34,
                           lmax: 2}
    cutoffs: {filter: 1.91,
              core: 2.36}
    valence states:
      #              energy  rcut
      - 3s(2.00)    -7.753   1.085
      - 3p(1.00)    -2.712   1.085
      -  s          19.459   1.085
      -  p          24.499   1.085
      -  d           0.000   1.085

[...]

  Co:
    name: Cobalt
    id: 339d20d5b0b93d2de9531a1bee871d91
    Z: 27.0
    valence: 9
    core: 18
    charge: 0.0
    file: /home/c.zeng/usr/data/gpaw-setups-0.9.20000/Co.PBE.gz
    compensation charges: {type: gauss,
                           rc: 0.32,
                           lmax: 2}
    cutoffs: {filter: 1.87,
              core: 2.55}
    valence states:
      #              energy  rcut
      - 4s(2.00)    -5.469   1.005
      - 4p(0.00)    -1.277   1.058
      - 3d(7.00)    -8.205   1.005
      -  s          21.742   1.005
      -  p          25.934   1.058
      -  d          19.007   1.005

[...]

  Fe:
    name: Iron
    id: 37abbd8d6c3c35915a9b583b742da910
    Z: 26.0
    valence: 8
    core: 18
    charge: 0.0
    file: /home/c.zeng/usr/data/gpaw-setups-0.9.20000/Fe.PBE.gz
    compensation charges: {type: gauss,
                           rc: 0.33,
                           lmax: 2}
    cutoffs: {filter: 2.06,
              core: 2.67}
    valence states:
      #              energy  rcut
      - 4s(2.00)    -5.291   1.164
      - 4p(0.00)    -1.326   1.058
      - 3d(6.00)    -7.505   1.058
      -  s          21.920   1.164
      -  p          25.885   1.058
      -  d          19.706   1.058

[...]

  Ni:
    name: Nickel
    id: 0d9f38a9d6e76a2886f07bb4381f212b
    Z: 28.0
    valence: 16
    core: 12
    charge: 0.0
    file: /home/c.zeng/usr/data/gpaw-setups-0.9.20000/Ni.PBE.gz
    compensation charges: {type: gauss,
                           rc: 0.36,
                           lmax: 2}
    cutoffs: {filter: 2.14,
              core: 1.98}
    valence states:
      #              energy  rcut
      - 4s(2.00)    -5.642   1.164
      - 3p(6.00)   -71.394   1.207
      - 4p(0.00)    -1.226   1.207
      - 3d(8.00)    -8.875   1.138
      -  s          21.570   1.164
      -  d          18.337   1.138

    # Using partial waves for Ni as LCAO basis

Reference energy: -3699400.456887  # eV

Spin-polarized calculation.
Magnetic moment: 143.500000

Convergence criteria:
 Maximum [total energy] change in last 3 cyles: 0.0001 eV / electron
 Maximum integral of absolute [dens]ity change: 0.0001 electrons / valence electron
 Maximum integral of absolute [eigenst]ate change: 4e-08 eV^2 / valence electron
 Maximum number of scf [iter]ations: 666
 (Square brackets indicate name in SCF output, whereas a 'c' in
 the SCF output indicates the quantity has converged.)

Symmetries present (total): 1

  ( 1  0  0)
  ( 0  1  0)
  ( 0  0  1)

8 k-points: 2 x 2 x 2 Monkhorst-Pack grid
4 k-points in the irreducible part of the Brillouin zone
       k-points in crystal coordinates                weights
   0:     0.25000000   -0.25000000   -0.25000000          2/8
   1:     0.25000000   -0.25000000    0.25000000          2/8
   2:     0.25000000    0.25000000   -0.25000000          2/8
   3:     0.25000000    0.25000000    0.25000000          2/8

Wave functions: Plane wave expansion
  Cutoff energy: 350.000 eV
  Number of coefficients (min, max): 18805, 18805
  Pulay-stress correction: 0.000000 eV/Ang^3 (de/decut=0.000000)
  Using FFTW library
  ScaLapack parameters: grid=1x1, blocksize=None
  Wavefunction extrapolation:
    Improved wavefunction reuse through dual PAW basis

Occupation numbers: Fermi-Dirac:
  width: 0.1000  # eV

Eigensolver
   Davidson(niter=2)

Densities:
  Coarse grid: 48*48*48 grid
  Fine grid: 96*96*96 grid
  Total Charge: 0.000000

Density mixing:
  Method: difference
  Backend: pulay
  Linear mixing parameter: 0.05
  old densities: 5
  Damping of long wavelength oscillations: 50

Hamiltonian:
  XC and Coulomb potentials evaluated on a 96*96*96 grid
  Using the PBE Exchange-Correlation functional
  External potential:
    NoExternalPotential

XC parameters: PBE with 2 nearest neighbor stencil

Total number of cores used: 64
Parallelization over k-points: 4
Domain decomposition: 4 x 2 x 2

Number of atoms: 108
Number of atomic orbitals: 1025
Number of bands in calculation: 703
Number of valence electrons: 1020
Bands to converge: occupied

... initialized

Initializing position-dependent things.

Density initialized from atomic densities
Creating initial wave functions:
  703 bands from LCAO basis set

       /|  Ni                Cr    |
      / |   Fe          Al         |
     / Ni       Cr       Fe        |
    /   Cr       Cr                |
   /o   | Ni       CrFe     Cri    |
  /  NiCo  FeCo     CrNi Fe        |
 Cr   FeCo  Cr NiNi     CoCo       |
 |     NiCoCr   CoNiCo   AlCrFe    |
 | Ni   | FeCo AlCoNiNi CoFeNi     Fe
 |   FeCr  NiCo Co  FeFe Cr  Fe    |
 |    CrNi   CrCoFeCrNi NiNi  Ni   |
 |     NiNiNi   CoCrCo   CrFeCo    |
 |      .-FeCr-----CoCo-----CrFe---.
 |   CoFe    FNiAl  CrNiFei       /
 |    CrFe     Co         Co     /
 |   /   Fe      Cr             /
 |  /      Cr     CoCo     CrAl/
 | /        Fe                /
 |/             Fe           /
 *--------Fe-------Cr-------*

Positions:
   0 Cr     0.000017    0.000005   10.813424    ( 0.0000,  0.0000,  0.0000)
   1 Al    10.813489    1.802318    1.802286    ( 0.0000,  0.0000,  0.0000)
   2 Cr     1.802308   10.813457    1.802254    ( 0.0000,  0.0000,  0.0000)
   3 Co     1.802286    1.802275   10.813446    ( 0.0000,  0.0000,  2.1000)
   4 Fe     3.604475    0.000009    0.000016    ( 0.0000,  0.0000,  2.0000)
   5 Cr     3.604453    1.802254    1.802178    ( 0.0000,  0.0000,  0.0000)
   6 Ni     5.406739   10.813457    1.802243    ( 0.0000,  0.0000,  1.5000)
   7 Fe     5.406772    1.802297    0.000001    ( 0.0000,  0.0000,  2.0000)
   8 Cr     7.209036    0.000066    0.000009    ( 0.0000,  0.0000,  0.0000)
   9 Co     7.209047    1.802264    1.802210    ( 0.0000,  0.0000,  2.1000)
  10 Ni     9.011214   10.813478    1.802308    ( 0.0000,  0.0000,  1.5000)
  11 Fe     9.011203    1.802286   10.813435    ( 0.0000,  0.0000,  2.0000)
  12 Co     0.000012    3.604518   10.813468    ( 0.0000,  0.0000,  2.1000)
  13 Co     0.000048    5.406718    1.802275    ( 0.0000,  0.0000,  2.1000)
  14 Fe     1.802264    3.604583    1.802221    ( 0.0000,  0.0000,  2.0000)
  15 Fe     1.802297    5.406739    0.000027    ( 0.0000,  0.0000,  2.0000)
  16 Fe     3.604496    3.604540    0.000005    ( 0.0000,  0.0000,  2.0000)
  17 Fe     3.604442    5.406793    1.802200    ( 0.0000,  0.0000,  2.0000)
  18 Cr     5.406772    3.604550    1.802156    ( 0.0000,  0.0000,  0.0000)
  19 Co     5.406685    5.406696    0.000003    ( 0.0000,  0.0000,  2.1000)
  20 Fe     7.208993    3.604486   10.813489    ( 0.0000,  0.0000,  2.0000)
  21 Ni     7.209004    5.406696    1.802286    ( 0.0000,  0.0000,  1.5000)
  22 Co     9.011236    3.604529    1.802243    ( 0.0000,  0.0000,  2.1000)
  23 Cr     9.011268    5.406642    0.000018    ( 0.0000,  0.0000,  0.0000)
  24 Cr     0.000075    7.208982    0.000002    ( 0.0000,  0.0000,  0.0000)
  25 Ni     0.000011    9.011236    1.802297    ( 0.0000,  0.0000,  1.5000)
  26 Fe     1.802297    7.208971    1.802232    ( 0.0000,  0.0000,  2.0000)
  27 Ni     1.802286    9.011236   10.813489    ( 0.0000,  0.0000,  1.5000)
  28 Co     3.604475    7.208960    0.000052    ( 0.0000,  0.0000,  2.1000)
  29 Co     3.604496    9.011214    1.802264    ( 0.0000,  0.0000,  2.1000)
  30 Co     5.406674    7.209004    1.802275    ( 0.0000,  0.0000,  2.1000)
  31 Cr     5.406685    9.011257    0.000055    ( 0.0000,  0.0000,  0.0000)
  32 Al     7.208939    7.208960   10.813457    ( 0.0000,  0.0000,  0.0000)
  33 Cr     7.208993    9.011300    1.802340    ( 0.0000,  0.0000,  0.0000)
  34 Cr     9.011290    7.208993    1.802329    ( 0.0000,  0.0000,  0.0000)
  35 Cr     9.011268    9.011311   10.813478    ( 0.0000,  0.0000,  0.0000)
  36 Fe    10.813457   10.813489    3.604540    ( 0.0000,  0.0000,  2.0000)
  37 Co    10.813489    1.802264    5.406696    ( 0.0000,  0.0000,  2.1000)
  38 Cr     1.802232   10.813478    5.406728    ( 0.0000,  0.0000,  0.0000)
  39 Fe     1.802232    1.802254    3.604529    ( 0.0000,  0.0000,  2.0000)
  40 Co     3.604486   10.813435    3.604496    ( 0.0000,  0.0000,  2.1000)
  41 Ni     3.604507    1.802275    5.406772    ( 0.0000,  0.0000,  1.5000)
  42 Ni     5.406739    0.000011    5.406718    ( 0.0000,  0.0000,  1.5000)
  43 Al     5.406793    1.802178    3.604561    ( 0.0000,  0.0000,  0.0000)
  44 Fe     7.209047   10.813478    3.604507    ( 0.0000,  0.0000,  2.0000)
  45 Co     7.209014    1.802264    5.406750    ( 0.0000,  0.0000,  2.1000)
  46 Fe     9.011279   10.813500    5.406696    ( 0.0000,  0.0000,  2.0000)
  47 Ni     9.011236    1.802210    3.604540    ( 0.0000,  0.0000,  1.5000)
  48 Fe    -0.000003    3.604518    3.604529    ( 0.0000,  0.0000,  2.0000)
  49 Fe    10.813500    5.406750    5.406750    ( 0.0000,  0.0000,  2.0000)
  50 Ni     1.802232    3.604529    5.406739    ( 0.0000,  0.0000,  1.5000)
  51 Ni     1.802221    5.406750    3.604486    ( 0.0000,  0.0000,  1.5000)
[...]
  96 Fe     0.000054    7.208993    7.208982    ( 0.0000,  0.0000,  2.0000)
  97 Ni     0.000019    9.011268    9.011203    ( 0.0000,  0.0000,  1.5000)
  98 Ni     1.802232    7.209004    9.011225    ( 0.0000,  0.0000,  1.5000)
  99 Fe     1.802232    9.011192    7.209004    ( 0.0000,  0.0000,  2.0000)
 100 Ni     3.604432    7.208982    7.208960    ( 0.0000,  0.0000,  1.5000)
 101 Cr     3.604421    9.011236    9.011257    ( 0.0000,  0.0000,  0.0000)
 102 Cr     5.406750    7.208971    9.011236    ( 0.0000,  0.0000,  0.0000)
 103 Cr     5.406718    9.011203    7.208982    ( 0.0000,  0.0000,  0.0000)
 104 Co     7.209014    7.208960    7.209025    ( 0.0000,  0.0000,  2.1000)
 105 Fe     7.209047    9.011257    9.011203    ( 0.0000,  0.0000,  2.0000)
 106 Cr     9.011268    7.209036    9.011182    ( 0.0000,  0.0000,  0.0000)
 107 Ni     9.011290    9.011236    7.209025    ( 0.0000,  0.0000,  1.5000)

Unit cell:
           periodic     x           y           z      points  spacing
  1. axis:    yes   10.813500    0.000000    0.000000    48     0.2253
  2. axis:    yes    0.000000   10.813500    0.000000    48     0.2253
  3. axis:    yes    0.000000    0.000000   10.813500    48     0.2253

  Lengths:  10.813500  10.813500  10.813500
  Angles:   90.000000  90.000000  90.000000

Effective grid spacing dv^(1/3) = 0.2253

     iter     time        total  log10-change:  magmom
                         energy  eigst   dens
iter:   1 08:35:59 -1062.177523                  +143.7770
iter:   2 08:37:05  -938.586065  -0.21  -1.20    +82.3906
iter:   3 08:38:06  -922.824785  -0.86  -1.21    +73.8462
iter:   4 08:39:09  -900.316037  -1.27  -1.28    +69.7310
iter:   5 08:40:11  -886.016758  -1.61  -1.32    +67.6953
iter:   6 08:41:20  -886.113579  -1.28  -1.39    +69.4140
iter:   7 08:42:24  -880.566325  -1.27  -1.46    +69.2192
iter:   8 08:43:25  -870.151340  -1.70  -1.56    +69.5027
iter:   9 08:44:27  -867.544416  -2.08  -1.73    +71.1124
iter:  10 08:45:31  -867.687946  -2.59  -1.84    +72.4494
iter:  11 08:46:32  -868.532734  -2.53  -1.86    +74.3904
iter:  12 08:47:35  -869.193654  -2.57  -1.90    +75.3390
iter:  13 08:48:37  -869.728062  -2.46  -1.94    +76.1458
iter:  14 08:49:40  -869.515247  -2.56  -1.99    +76.8293
iter:  15 08:50:43  -869.337166  -2.86  -2.05    +77.0329
iter:  16 08:51:44  -869.257460  -2.96  -2.11    +77.0383
iter:  17 08:52:44  -869.101334  -3.22  -2.18    +77.5090
iter:  18 08:53:46  -869.126054  -3.17  -2.23    +77.6281
iter:  19 08:54:47  -869.299132  -3.17  -2.32    +77.7093
iter:  20 08:55:49  -869.105263  -3.34  -2.32    +77.6809
iter:  21 08:56:50  -869.273456  -3.38  -2.45    +77.7432
iter:  22 08:57:51  -869.139400  -3.46  -2.42    +77.6980
iter:  23 08:58:53  -869.134477  -3.54  -2.53    +77.5794
iter:  24 08:59:54  -869.154141c -3.65  -2.60    +77.5177
iter:  25 09:00:55  -869.164928c -3.86  -2.63    +77.3943
iter:  26 09:01:56  -869.218139c -3.89  -2.68    +77.3079
iter:  27 09:02:58  -869.189575c -3.99  -2.65    +77.2144
iter:  28 09:03:59  -869.205824c -4.12  -2.72    +77.0595
iter:  29 09:05:01  -869.224364c -4.24  -2.77    +76.8674
iter:  30 09:06:03  -869.239949c -4.44  -2.80    +76.7956
iter:  31 09:07:04  -869.250008c -4.47  -2.83    +76.6733
iter:  32 09:08:06  -869.285612c -4.31  -2.88    +76.5755
iter:  33 09:09:07  -869.270210c -4.52  -2.85    +76.4954
iter:  34 09:10:10  -869.287958c -4.61  -2.97    +76.3920
iter:  35 09:11:13  -869.292139c -4.82  -3.00    +76.3434
iter:  36 09:12:15  -869.306753c -4.69  -3.04    +76.2236
iter:  37 09:13:17  -869.318117c -4.67  -3.08    +76.1355
iter:  38 09:14:22  -869.331670c -4.67  -3.12    +76.0343
iter:  39 09:15:24  -869.336840c -4.81  -3.14    +75.9544
iter:  40 09:16:26  -869.347546c -4.83  -3.19    +75.8836
iter:  41 09:17:28  -869.351133c -4.89  -3.18    +75.8159
iter:  42 09:18:29  -869.361123c -4.96  -3.26    +75.7338
iter:  43 09:19:32  -869.362615c -5.07  -3.26    +75.6936
iter:  44 09:20:34  -869.372178c -5.02  -3.36    +75.5801
iter:  45 09:21:38  -869.379503c -5.04  -3.39    +75.5030
iter:  46 09:22:40  -869.388633c -4.94  -3.42    +75.3745
iter:  47 09:23:43  -869.394067c -5.14  -3.45    +75.3112
iter:  48 09:24:44  -869.404032c -4.93  -3.48    +75.1706
iter:  49 09:25:47  -869.412396c -4.90  -3.48    +75.0657
iter:  50 09:26:50  -869.439135c -4.10  -3.46    +74.7450
iter:  51 09:27:52  -869.454123c -4.39  -3.31    +74.6566
iter:  52 09:28:56  -869.452607c -5.31  -3.21    +74.7184
iter:  53 09:29:59  -869.459918c -4.83  -3.22    +74.5654
iter:  54 09:31:01  -869.462702c -4.97  -3.19    +74.5787
iter:  55 09:32:06  -869.458592c -5.09  -3.19    +74.5905
iter:  56 09:33:09  -869.464367c -4.85  -3.23    +74.5730
iter:  57 09:34:11  -869.461845c -5.06  -3.13    +74.5603
iter:  58 09:35:14  -869.462533c -4.64  -3.19    +74.5313
iter:  59 09:36:18  -869.453982c -5.18  -3.11    +74.5134
iter:  60 09:37:23  -869.454657c -5.40  -3.28    +74.4569
iter:  61 09:38:25  -869.454235c -5.63  -3.29    +74.4229
iter:  62 09:39:27  -869.454450c -5.18  -3.33    +74.3994
iter:  63 09:40:30  -869.455972c -5.15  -3.30    +74.4080
iter:  64 09:41:34  -869.458173c -4.97  -3.36    +74.3932
iter:  65 09:42:42  -869.455314c -5.16  -3.34    +74.4046
iter:  66 09:43:46  -869.454117c -5.46  -3.36    +74.4332
iter:  67 09:44:51  -869.454051c -5.62  -3.48    +74.4350
iter:  68 09:45:53  -869.454989c -5.80  -3.49    +74.4501
iter:  69 09:46:57  -869.453934c -5.97  -3.53    +74.4583
iter:  70 09:48:02  -869.454249c -6.02  -3.55    +74.4821
iter:  71 09:49:06  -869.455914c -5.88  -3.58    +74.4869
iter:  72 09:50:10  -869.455253c -5.89  -3.56    +74.4914
iter:  73 09:51:13  -869.455982c -5.79  -3.58    +74.5170
iter:  74 09:52:19  -869.455090c -5.81  -3.58    +74.5237
iter:  75 09:53:23  -869.456651c -5.82  -3.62    +74.5431
iter:  76 09:54:25  -869.456437c -6.05  -3.65    +74.5438
iter:  77 09:55:31  -869.456217c -6.26  -3.67    +74.5666
iter:  78 09:56:38  -869.456859c -6.30  -3.70    +74.5869
iter:  79 09:57:47  -869.456973c -6.80  -3.72    +74.5945
iter:  80 09:58:56  -869.457736c -6.43  -3.74    +74.6213
iter:  81 09:59:59  -869.457503c -6.11  -3.77    +74.6313
iter:  82 10:01:01  -869.458628c -5.85  -3.76    +74.6517
iter:  83 10:01:57  -869.459698c -5.91  -3.84    +74.6535
iter:  84 10:02:56  -869.458570c -6.05  -3.80    +74.6652
iter:  85 10:03:58  -869.459281c -6.40  -4.22c   +74.6849
iter:  86 10:05:01  -869.459083c -7.06  -4.28c   +74.6792
iter:  87 10:06:04  -869.459649c -6.78  -4.31c   +74.6935
iter:  88 10:07:08  -869.459430c -7.30  -4.34c   +74.6907
iter:  89 10:08:10  -869.460092c -6.75  -4.35c   +74.7186
iter:  90 10:09:13  -869.459518c -7.04  -4.33c   +74.6976
iter:  91 10:10:15  -869.457626c -5.69  -4.41c   +74.6123
iter:  92 10:11:17  -869.458443c -6.91  -4.19c   +74.6495
iter:  93 10:12:20  -869.457525c -6.63  -4.29c   +74.6163
iter:  94 10:13:24  -869.457276c -6.88  -4.24c   +74.6048
iter:  95 10:14:27  -869.457839c -6.86  -4.24c   +74.6241
iter:  96 10:15:32  -869.457536c -7.05  -4.23c   +74.6192
iter:  97 10:16:34  -869.458396c -6.53  -4.39c   +74.6539
iter:  98 10:17:37  -869.456197c -5.76  -4.46c   +74.5624
iter:  99 10:18:41  -869.456356c -6.84  -4.22c   +74.5690
iter: 100 10:19:45  -869.457012c -6.68  -4.20c   +74.6041
iter: 101 10:20:47  -869.457841c -6.40  -4.27c   +74.6399
iter: 102 10:21:49  -869.457381c -7.33  -4.39c   +74.6217
iter: 103 10:22:51  -869.458059c -6.76  -4.41c   +74.6403
iter: 104 10:23:53  -869.456846c -6.45  -4.47c   +74.6094
iter: 105 10:24:56  -869.456488c -6.74  -4.30c   +74.5943
iter: 106 10:26:00  -869.457187c -6.61  -4.28c   +74.6214
iter: 107 10:27:03  -869.456404c -6.46  -4.29c   +74.5866
iter: 108 10:28:07  -869.455355c -6.00  -4.22c   +74.5381
iter: 109 10:29:10  -869.456277c -6.62  -4.04c   +74.5595
iter: 110 10:30:14  -869.455795c -7.16  -4.09c   +74.5532
iter: 111 10:31:17  -869.456045c -7.10  -4.09c   +74.5627
iter: 112 10:32:20  -869.456442c -6.88  -4.13c   +74.5756
iter: 113 10:33:22  -869.457180c -6.43  -4.21c   +74.5910
iter: 114 10:34:25  -869.456506c -6.71  -4.18c   +74.5806
iter: 115 10:35:29  -869.457252c -6.37  -4.21c   +74.6052
iter: 116 10:36:33  -869.458167c -6.44  -4.28c   +74.6232
iter: 117 10:37:37  -869.457855c -6.95  -4.26c   +74.6251
iter: 118 10:38:40  -869.458603c -6.53  -4.49c   +74.6442
iter: 119 10:39:43  -869.458884c -7.00  -4.56c   +74.6549
iter: 120 10:40:45  -869.459819c -6.38  -4.65c   +74.6882
iter: 121 10:41:47  -869.454640c -4.94  -4.43c   +74.4766
iter: 122 10:42:49  -869.452705c -5.04  -4.11c   +74.3235
iter: 123 10:43:53  -869.453129c -6.19  -3.88    +74.3317
iter: 124 10:44:57  -869.454041c -6.10  -3.93    +74.3492
iter: 125 10:46:00  -869.456094c -5.38  -4.02c   +74.3883
iter: 126 10:47:05  -869.457143c -5.74  -4.06c   +74.4110
iter: 127 10:48:08  -869.455846c -5.96  -3.92    +74.3917
iter: 128 10:49:11  -869.456641c -6.06  -3.91    +74.4166
iter: 129 10:50:14  -869.457166c -6.41  -4.14c   +74.4307
iter: 130 10:51:17  -869.456816c -6.70  -4.09c   +74.4371
iter: 131 10:52:19  -869.457412c -6.57  -4.23c   +74.4576
iter: 132 10:53:22  -869.457330c -6.86  -4.26c   +74.4601
iter: 133 10:54:25  -869.457791c -6.69  -4.34c   +74.4787
iter: 134 10:55:29  -869.457766c -6.80  -4.39c   +74.4884
iter: 135 10:56:32  -869.458101c -6.87  -4.37c   +74.4993
iter: 136 10:57:35  -869.458498c -6.91  -4.47c   +74.5152
iter: 137 10:58:38  -869.458410c -7.62c -4.48c   +74.5189

Converged after 137 iterations.

Dipole moment: (0.146704, -0.094887, -0.024179) |e|*Ang

Total magnetic moment: (0.000000, 0.000000, 74.518895)
Local magnetic moments:
   0 Cr ( 0.000000,  0.000000, -1.379533)
   1 Al ( 0.000000,  0.000000, -0.041417)
   2 Cr ( 0.000000,  0.000000, -1.423283)
   3 Co ( 0.000000,  0.000000,  0.849377)
   4 Fe ( 0.000000,  0.000000,  1.942148)
   5 Cr ( 0.000000,  0.000000, -0.540919)
   6 Ni ( 0.000000,  0.000000,  0.214490)
   7 Fe ( 0.000000,  0.000000,  2.157282)
   8 Cr ( 0.000000,  0.000000, -1.323974)
   9 Co ( 0.000000,  0.000000,  1.278572)
  10 Ni ( 0.000000,  0.000000,  0.210397)
  11 Fe ( 0.000000,  0.000000,  2.389171)
  12 Co ( 0.000000,  0.000000,  1.492489)
  13 Co ( 0.000000,  0.000000,  1.172872)
  14 Fe ( 0.000000,  0.000000,  2.200067)
  15 Fe ( 0.000000,  0.000000,  2.511398)
  16 Fe ( 0.000000,  0.000000,  2.284022)
  17 Fe ( 0.000000,  0.000000,  2.188502)
  18 Cr ( 0.000000,  0.000000, -1.289534)
  19 Co ( 0.000000,  0.000000,  1.385599)
  20 Fe ( 0.000000,  0.000000,  2.466807)
  21 Ni ( 0.000000,  0.000000,  0.273709)
  22 Co ( 0.000000,  0.000000,  1.425865)
  23 Cr ( 0.000000,  0.000000, -1.350289)
  24 Cr ( 0.000000,  0.000000, -1.389668)
  25 Ni ( 0.000000,  0.000000,  0.179361)
  26 Fe ( 0.000000,  0.000000,  2.472647)
  27 Ni ( 0.000000,  0.000000,  0.265046)
  28 Co ( 0.000000,  0.000000,  1.345575)
  29 Co ( 0.000000,  0.000000,  1.355173)
  30 Co ( 0.000000,  0.000000,  1.284808)
  31 Cr ( 0.000000,  0.000000,  1.232969)
  32 Al ( 0.000000,  0.000000, -0.013153)
  33 Cr ( 0.000000,  0.000000, -1.629252)
  34 Cr ( 0.000000,  0.000000,  1.264971)
  35 Cr ( 0.000000,  0.000000,  1.214571)
  36 Fe ( 0.000000,  0.000000,  2.391475)
  37 Co ( 0.000000,  0.000000,  1.143091)
  38 Cr ( 0.000000,  0.000000, -1.605282)
  39 Fe ( 0.000000,  0.000000,  2.122948)
  40 Co ( 0.000000,  0.000000,  1.213511)
  41 Ni ( 0.000000,  0.000000,  0.162574)
  42 Ni ( 0.000000,  0.000000,  0.283448)
  43 Al ( 0.000000,  0.000000, -0.024157)
  44 Fe ( 0.000000,  0.000000,  2.409303)
  45 Co ( 0.000000,  0.000000,  1.278539)
  46 Fe ( 0.000000,  0.000000,  2.125083)
  47 Ni ( 0.000000,  0.000000,  0.535564)
  48 Fe ( 0.000000,  0.000000,  2.510658)
  49 Fe ( 0.000000,  0.000000,  2.450406)
  50 Ni ( 0.000000,  0.000000,  0.438103)
  51 Ni ( 0.000000,  0.000000,  0.443543)
  52 Cr ( 0.000000,  0.000000, -0.862701)
  53 Co ( 0.000000,  0.000000,  1.501556)
  54 Fe ( 0.000000,  0.000000,  2.335035)
  55 Cr ( 0.000000,  0.000000, -1.782241)
  56 Co ( 0.000000,  0.000000,  1.387812)
  57 Fe ( 0.000000,  0.000000,  2.478058)
  58 Ni ( 0.000000,  0.000000,  0.404188)
  59 Fe ( 0.000000,  0.000000,  2.400516)
[...]
  93 Ni ( 0.000000,  0.000000,  0.114667)
  94 Co ( 0.000000,  0.000000,  1.349367)
  95 Cr ( 0.000000,  0.000000, -2.144550)
  96 Fe ( 0.000000,  0.000000,  2.434178)
  97 Ni ( 0.000000,  0.000000,  0.225352)
  98 Ni ( 0.000000,  0.000000,  0.438324)
  99 Fe ( 0.000000,  0.000000,  2.071718)
 100 Ni ( 0.000000,  0.000000,  0.430318)
 101 Cr ( 0.000000,  0.000000, -1.476979)
 102 Cr ( 0.000000,  0.000000, -1.477186)
 103 Cr ( 0.000000,  0.000000,  1.281073)
 104 Co ( 0.000000,  0.000000,  1.053582)
 105 Fe ( 0.000000,  0.000000,  1.656068)
 106 Cr ( 0.000000,  0.000000,  0.104303)
 107 Ni ( 0.000000,  0.000000,  0.189851)

Energy contributions relative to reference atoms: (reference = -3699400.456887)

Kinetic:        +28.285058
Potential:     -101.978368
External:        +0.000000
XC:            -830.769691
Entropy (-ST):   -4.593903
Local:          +37.301543
Free energy:   -871.755361
Extrapolated:  -869.458410

Spin contamination: 33.481898 electrons
Showing only first 2 kpts
                      Up                     Down
 Kpt  Band  Eigenvalues  Occupancy  Eigenvalues  Occupancy
  0   508      9.01707    0.99786     10.04264    0.01612
  0   509      9.03318    0.99749     10.05981    0.01361
  0   510      9.04266    0.99724     10.07330    0.01191
  0   511      9.06125    0.99667     10.07965    0.01119

  1   508      9.01685    0.99786     10.03622    0.01717
  1   509      9.02758    0.99762     10.04478    0.01578
  1   510      9.04345    0.99721     10.06176    0.01335
  1   511      9.05968    0.99672     10.06801    0.01255

Fermi level: 9.63149

No gap

Forces in eV/Ang:
  0 Cr   -0.00032   -0.42400   -0.92169
  1 Al   -0.40003    0.50973    0.12938
  2 Cr    0.74017   -0.62148    0.06131
  3 Co    0.36411    0.01842   -0.14245
  4 Fe   -0.36231    0.18851    0.30877
  5 Cr   -0.40245    0.11650   -0.51328
  6 Ni   -0.13212    0.07416   -0.11609
  7 Fe    0.14228   -0.08280    0.19724
  8 Cr    0.51177    0.15262    0.15714
  9 Co    0.28331    0.00942   -0.09285
 10 Ni   -0.18420   -0.06752    0.02670
 11 Fe   -0.34081   -0.17574   -0.13735
 12 Co   -0.07170    0.32500   -0.28765
 13 Co    0.09046   -0.19458    0.03991
 14 Fe    0.17079    0.26912   -0.11559
 15 Fe   -0.18524    0.07616   -0.43480
 16 Fe    0.19007    0.03972   -0.35609
 17 Fe    0.27580    0.11128    0.30988
 18 Cr    0.01771    0.23960   -0.42189
 19 Co   -0.55673   -0.11026    0.04827
 20 Fe   -0.06261    0.32604   -0.02372
 21 Ni   -0.00266   -0.09740    0.22309
 22 Co   -0.18457    0.23584    0.01883
 23 Cr    0.67498   -0.77341   -0.07955
 24 Cr    0.10423    0.16404   -0.01405
 25 Ni    0.06168    0.13643   -0.05194
 26 Fe   -0.04584    0.08927    0.25184
 27 Ni   -0.02358    0.07330    0.02651
 28 Co    0.12724   -0.21630    0.03172
 29 Co   -0.17286    0.10042    0.11550
 30 Co   -0.18342   -0.13424    0.19324
 31 Cr   -0.40825    0.08116    0.59454
 32 Al   -0.49620   -0.75204    0.12466
 33 Cr   -0.01928    0.22131    0.82741
 34 Cr    0.19552   -0.37065    0.13321
 35 Cr    0.47929    0.66097   -0.08053
 36 Fe    0.13919   -0.17334    0.36747
 37 Co   -0.05622    0.16810    0.06091
 38 Cr    0.02124   -0.22137   -0.17882
 39 Fe    0.43630   -0.09973    0.39514
 40 Co   -0.32742   -0.25949   -0.07262
 41 Ni   -0.08253    0.13860    0.11070
 42 Ni   -0.08238    0.08536    0.14813
 43 Al    0.39409   -0.68457    0.45811
 44 Fe    0.41302    0.26093   -0.36228
 45 Co    0.15394    0.14943    0.08573
 46 Fe    0.10845    0.24828    0.16195
 47 Ni   -0.21143   -0.00833    0.07151
 48 Fe   -0.12125    0.12114    0.34843
 49 Fe    0.06751   -0.23461    0.19978
 50 Ni    0.15133    0.07474    0.11007
 51 Ni    0.26978   -0.09142   -0.01900
 52 Cr   -0.78507    0.26699   -0.10082
 53 Co   -0.03045   -0.07252   -0.08080
 54 Fe   -0.11577    0.02608    0.33050
 55 Cr    0.02647    0.24803   -0.00437
 56 Co    0.18882    0.10161    0.00696
 57 Fe    0.00296    0.21388    0.20081
 58 Ni   -0.07128   -0.12164   -0.02094
 59 Fe   -0.07708   -0.10574   -0.14348
[...]
 93 Ni    0.01521    0.11312   -0.03893
 94 Co    0.07286   -0.15477    0.01091
 95 Cr   -0.04298   -0.11249    0.08934
 96 Fe   -0.05566    0.04449    0.04952
 97 Ni    0.04353    0.14553   -0.03015
 98 Ni    0.10282   -0.11110   -0.05191
 99 Fe    0.32826    0.01112    0.12163
100 Ni   -0.00367   -0.03258    0.03563
101 Cr   -0.93362   -0.24304    0.04470
102 Cr   -0.07704   -0.20034   -0.63994
103 Cr   -0.59453   -0.29550   -0.07060
104 Co   -0.15397   -0.29685    0.49015
105 Fe    0.50188   -0.03007   -0.52431
106 Cr    0.20281    0.08868   -0.41771
107 Ni    0.08492    0.10844    0.20587

Date: Sat Apr  8 10:58:54 2023