User:   c.zeng@d0080
Date:   Fri Apr 14 22:38:49 2023
Arch:   x86_64
Pid:    269622
CWD:    /home/c.zeng/projects/hea-corrosion/hea-mlp/data-curation/bulk-mcmc/dft-jobs/175
Python: 3.8.1
gpaw:   /home/c.zeng/usr/installs/gpaw/source/gpaw-22.8.0/gpaw
_gpaw:  /home/c.zeng/usr/installs/gpaw/source/gpaw-22.8.0/
        _gpaw.cpython-38-x86_64-linux-gnu.so
ase:    /home/c.zeng/.local/lib/python3.8/site-packages/ase-3.22.1-py3.8.egg/ase (version 3.22.1)
numpy:  /shared/centos7/python/3.8.1/lib/python3.8/site-packages/numpy (version 1.17.4)
scipy:  /shared/centos7/python/3.8.1/lib/python3.8/site-packages/scipy (version 1.4.1)
units:  Angstrom and eV
cores: 30
OpenMP: False
OMP_NUM_THREADS: 1

Input parameters:
  convergence: {energy: 0.0001}
  kpts: [2 2 2]
  maxiter: 666
  mode: {ecut: 350.0,
         name: pw}
  occupations: {fixmagmom: False,
                name: fermi-dirac,
                width: 0.1}
  spinpol: True
  xc: PBE

System changes: positions, numbers, cell, pbc, initial_charges, initial_magmoms

Initialize ...

species:
  Co:
    name: Cobalt
    id: 339d20d5b0b93d2de9531a1bee871d91
    Z: 27.0
    valence: 9
    core: 18
    charge: 0.0
    file: /home/c.zeng/usr/data/gpaw-setups-0.9.20000/Co.PBE.gz
    compensation charges: {type: gauss,
                           rc: 0.32,
                           lmax: 2}
    cutoffs: {filter: 1.87,
              core: 2.55}
    valence states:
      #              energy  rcut
      - 4s(2.00)    -5.469   1.005
      - 4p(0.00)    -1.277   1.058
      - 3d(7.00)    -8.205   1.005
      -  s          21.742   1.005
      -  p          25.934   1.058
      -  d          19.007   1.005

    # Using partial waves for Co as LCAO basis

  Fe:
    name: Iron
    id: 37abbd8d6c3c35915a9b583b742da910
    Z: 26.0
    valence: 8
    core: 18
    charge: 0.0
    file: /home/c.zeng/usr/data/gpaw-setups-0.9.20000/Fe.PBE.gz
    compensation charges: {type: gauss,
                           rc: 0.33,
                           lmax: 2}
    cutoffs: {filter: 2.06,
              core: 2.67}
    valence states:
      #              energy  rcut
      - 4s(2.00)    -5.291   1.164
      - 4p(0.00)    -1.326   1.058
      - 3d(6.00)    -7.505   1.058
      -  s          21.920   1.164
      -  p          25.885   1.058
      -  d          19.706   1.058

[...]

  Al:
    name: Aluminium
    id: 0292cae29f5d6237e50f6abdd43a7bdd
    Z: 13.0
    valence: 3
    core: 10
    charge: 0.0
    file: /home/c.zeng/usr/data/gpaw-setups-0.9.20000/Al.PBE.gz
    compensation charges: {type: gauss,
                           rc: 0.34,
                           lmax: 2}
    cutoffs: {filter: 1.91,
              core: 2.36}
    valence states:
      #              energy  rcut
      - 3s(2.00)    -7.753   1.085
      - 3p(1.00)    -2.712   1.085
      -  s          19.459   1.085
      -  p          24.499   1.085
      -  d           0.000   1.085

[...]

  Cr:
    name: Chromium
    id: 33f258bda2ca9f93018e70263a35547b
    Z: 24.0
    valence: 6
    core: 18
    charge: 0.0
    file: /home/c.zeng/usr/data/gpaw-setups-0.9.20000/Cr.PBE.gz
    compensation charges: {type: gauss,
                           rc: 0.35,
                           lmax: 2}
    cutoffs: {filter: 2.14,
              core: 3.04}
    valence states:
      #              energy  rcut
      - 4s(1.00)    -4.007   1.164
      - 4p(0.00)    -0.989   1.217
      - 3d(5.00)    -2.913   1.111
      -  s          23.205   1.164
      -  p          26.223   1.217
      -  d          24.299   1.111

[...]

  Ni:
    name: Nickel
    id: 0d9f38a9d6e76a2886f07bb4381f212b
    Z: 28.0
    valence: 16
    core: 12
    charge: 0.0
    file: /home/c.zeng/usr/data/gpaw-setups-0.9.20000/Ni.PBE.gz
    compensation charges: {type: gauss,
                           rc: 0.36,
                           lmax: 2}
    cutoffs: {filter: 2.14,
              core: 1.98}
    valence states:
      #              energy  rcut
      - 4s(2.00)    -5.642   1.164
      - 3p(6.00)   -71.394   1.207
      - 4p(0.00)    -1.226   1.207
      - 3d(8.00)    -8.875   1.138
      -  s          21.570   1.164
      -  d          18.337   1.138

    # Using partial waves for Ni as LCAO basis

Reference energy: -3382523.201499  # eV

Spin-polarized calculation.
Magnetic moment: 128.800000

Convergence criteria:
 Maximum [total energy] change in last 3 cyles: 0.0001 eV / electron
 Maximum integral of absolute [dens]ity change: 0.0001 electrons / valence electron
 Maximum integral of absolute [eigenst]ate change: 4e-08 eV^2 / valence electron
 Maximum number of scf [iter]ations: 666
 (Square brackets indicate name in SCF output, whereas a 'c' in
 the SCF output indicates the quantity has converged.)

Symmetries present (total): 1

  ( 1  0  0)
  ( 0  1  0)
  ( 0  0  1)

8 k-points: 2 x 2 x 2 Monkhorst-Pack grid
4 k-points in the irreducible part of the Brillouin zone
       k-points in crystal coordinates                weights
   0:     0.25000000   -0.25000000   -0.25000000          2/8
   1:     0.25000000   -0.25000000    0.25000000          2/8
   2:     0.25000000    0.25000000   -0.25000000          2/8
   3:     0.25000000    0.25000000    0.25000000          2/8

Wave functions: Plane wave expansion
  Cutoff energy: 350.000 eV
  Number of coefficients (min, max): 18865, 18865
  Pulay-stress correction: 0.000000 eV/Ang^3 (de/decut=0.000000)
  Using FFTW library
  ScaLapack parameters: grid=1x1, blocksize=None
  Wavefunction extrapolation:
    Improved wavefunction reuse through dual PAW basis

Occupation numbers: Fermi-Dirac:
  width: 0.1000  # eV

Eigensolver
   Davidson(niter=2)

Densities:
  Coarse grid: 48*48*48 grid
  Fine grid: 96*96*96 grid
  Total Charge: 0.000000

Density mixing:
  Method: difference
  Backend: pulay
  Linear mixing parameter: 0.05
  old densities: 5
  Damping of long wavelength oscillations: 50

Hamiltonian:
  XC and Coulomb potentials evaluated on a 96*96*96 grid
  Using the PBE Exchange-Correlation functional
  External potential:
    NoExternalPotential

XC parameters: PBE with 2 nearest neighbor stencil

Total number of cores used: 30
Parallelization over k-points: 2
Domain decomposition: 5 x 3 x 1

Number of atoms: 108
Number of atomic orbitals: 961
Number of bands in calculation: 649
Number of valence electrons: 945
Bands to converge: occupied

... initialized

Initializing position-dependent things.

Density initialized from atomic densities
Creating initial wave functions:
  649 bands from LCAO basis set

       /|                     Co   |
      / |            Fe Co     CrCo|
     /  |       Cr       Ni       Cr
    /   |Fe       Fel     FFer     |
   /i   | Feo        Co      Co    |
  /  CrAl   NCr       Ni           |
 *      Ni     FeFe   AlCoCrCo   Cr|
 |      |FeNi   CrNiAl   NiAlNi   Co
 | CrCo | AlNi   AlAlCo     Ni     |
 |     Fe  FeCr Cr  Fe FeNi  CrNi  |
 |      CoNi   AlCr   FeCoFeNi  Co |
 |Al    |FeCr   AlCrFe   CrCo     Co
 |      .-CrCo-----NiCr-CoFeCrNi---.
 |     /   Ni Co    Cr CoNi    Al /
 |    Fe       AFei       Al     /
 |   /  Co         Al       Cr  /
 |  /      Fe       Al       Fe/
 | / Fe     Co       Ni Ni    /
 |/             Cr       Ni  /
 *--------Co----------------*

Positions:
   0 Co    10.764147   10.861293   10.805330    ( 0.0000,  0.0000,  2.0000)
   1 Fe    10.786221    1.792513    1.813624    ( 0.0000,  0.0000,  0.0000)
   2 Fe     1.744156    0.036560    1.851269    ( 0.0000,  0.0000,  1.5000)
   3 Al     1.736571    1.831142   10.798805    ( 0.0000,  0.0000,  0.0000)
   4 Co     3.575126    0.057318    0.061759    ( 0.0000,  0.0000,  0.0000)
   5 Fe     3.594289    1.817617    1.845577    ( 0.0000,  0.0000,  2.0000)
   6 Fe     5.429813   10.817005    1.865054    ( 0.0000,  0.0000,  1.5000)
   7 Cr     5.429608    1.929425    0.057134    ( 0.0000,  0.0000,  0.0000)
   8 Fe     7.316909   10.723332    0.087382    ( 0.0000,  0.0000,  0.0000)
   9 Al     7.263142    1.825786    1.869404    ( 0.0000,  0.0000,  2.1000)
  10 Ni     9.063554    0.025226    1.863474    ( 0.0000,  0.0000,  1.5000)
  11 Ni     9.049217    1.829703    0.033106    ( 0.0000,  0.0000,  2.1000)
  12 Ni     0.004792    3.558981   10.794801    ( 0.0000,  0.0000,  1.5000)
  13 Al    10.759710    5.390697    1.778165    ( 0.0000,  0.0000,  0.0000)
  14 Co     1.733585    3.561849    1.761112    ( 0.0000,  0.0000,  2.0000)
  15 Fe     1.776899    5.391834   10.795505    ( 0.0000,  0.0000,  0.0000)
  16 Co     3.565452    3.619360   10.832619    ( 0.0000,  0.0000,  2.1000)
  17 Co     3.633221    5.394614    1.719551    ( 0.0000,  0.0000,  0.0000)
  18 Ni     5.471624    3.659114    1.836033    ( 0.0000,  0.0000,  2.1000)
  19 Fe     5.440212    5.373060   -0.002773    ( 0.0000,  0.0000,  2.0000)
  20 Ni     7.258997    3.609080    0.031294    ( 0.0000,  0.0000,  0.0000)
  21 Co     7.268941    5.378362    1.785274    ( 0.0000,  0.0000,  2.0000)
  22 Al     9.030724    3.577636    1.833728    ( 0.0000,  0.0000,  2.1000)
  23 Fe     9.040420    5.372281   10.801110    ( 0.0000,  0.0000,  0.0000)
  24 Co    10.791663    7.196206   10.792486    ( 0.0000,  0.0000,  1.5000)
  25 Co    10.758434    9.040387    1.848239    ( 0.0000,  0.0000,  0.0000)
  26 Cr     1.690487    7.202493    1.786032    ( 0.0000,  0.0000,  0.0000)
  27 Ni     1.652691    8.981047    0.027217    ( 0.0000,  0.0000,  0.0000)
  28 Al     3.631241    7.164437    0.034633    ( 0.0000,  0.0000,  0.0000)
  29 Al     3.625452    9.063759    1.801678    ( 0.0000,  0.0000,  0.0000)
  30 Ni     5.490852    7.187095    1.746342    ( 0.0000,  0.0000,  2.0000)
  31 Cr     5.426935    8.989152    0.009861    ( 0.0000,  0.0000,  2.0000)
  32 Co     7.229122    7.237075   -0.008698    ( 0.0000,  0.0000,  1.5000)
  33 Cr     7.249194    8.995850    1.810713    ( 0.0000,  0.0000,  0.0000)
  34 Cr     9.052073    7.204300    1.764218    ( 0.0000,  0.0000,  2.1000)
  35 Co     9.092553    8.989639   10.808760    ( 0.0000,  0.0000,  1.5000)
  36 Cr    -0.000975   10.826235    3.639789    ( 0.0000,  0.0000,  1.5000)
  37 Al    10.822772    1.771770    5.422044    ( 0.0000,  0.0000,  2.1000)
  38 Ni     1.754263   10.802084    5.428872    ( 0.0000,  0.0000,  2.1000)
  39 Fe     1.741873    1.774270    3.610801    ( 0.0000,  0.0000,  0.0000)
  40 Al     3.591183   10.794152    3.612143    ( 0.0000,  0.0000,  2.0000)
  41 Cr     3.593088    1.736744    5.455177    ( 0.0000,  0.0000,  0.0000)
  42 Al     5.437150   10.794563    5.400804    ( 0.0000,  0.0000,  2.0000)
  43 Fe     5.451931    1.783251    3.601387    ( 0.0000,  0.0000,  1.5000)
  44 Al     7.226222    0.007781    3.626209    ( 0.0000,  0.0000,  0.0000)
  45 Fe     7.236069    1.766512    5.381392    ( 0.0000,  0.0000,  2.1000)
  46 Co     9.034587   10.848850    5.403844    ( 0.0000,  0.0000,  2.1000)
  47 Ni     9.031558    1.804946    3.616730    ( 0.0000,  0.0000,  1.5000)
  48 Ni    10.773885    3.543973    3.617867    ( 0.0000,  0.0000,  1.5000)
  49 Ni    10.772186    5.358409    5.454917    ( 0.0000,  0.0000,  0.0000)
  50 Co     1.757531    3.575678    5.428937    ( 0.0000,  0.0000,  2.1000)
  51 Fe     1.621766    5.386986    3.572550    ( 0.0000,  0.0000,  0.0000)
[...]
iter: 185 02:55:00  -825.574712c -5.62  -3.83    +58.8042
iter: 186 02:56:23  -825.572008c -4.77  -3.77    +58.8783
iter: 187 02:57:47  -825.569960c -4.66  -3.57    +58.9457
iter: 188 02:59:10  -825.572647c -4.85  -3.44    +58.8571
iter: 189 03:00:34  -825.570078c -4.94  -3.57    +58.9358
iter: 190 03:01:58  -825.570601c -6.01  -3.45    +58.9239
iter: 191 03:03:21  -825.570950c -5.52  -3.46    +58.9068
iter: 192 03:04:45  -825.572624c -5.22  -3.40    +58.9117
iter: 193 03:06:08  -825.569864c -5.46  -3.32    +58.8982
iter: 194 03:07:32  -825.576083c -4.71  -3.53    +58.8803
iter: 195 03:08:55  -825.567487c -5.13  -3.27    +58.8810
iter: 196 03:10:19  -825.568893c -5.25  -3.61    +58.8839
iter: 197 03:11:42  -825.567669c -5.63  -3.51    +58.8815
iter: 198 03:13:06  -825.568605c -5.66  -3.75    +58.8459
iter: 199 03:14:29  -825.569562c -5.81  -3.88    +58.8442
iter: 200 03:15:53  -825.570942c -5.67  -3.88    +58.8212
iter: 201 03:17:16  -825.571428c -5.96  -3.88    +58.8144
iter: 202 03:18:39  -825.571933c -5.96  -3.96    +58.8055
iter: 203 03:20:02  -825.572529c -5.97  -3.94    +58.8013
iter: 204 03:21:25  -825.572783c -6.39  -4.01c   +58.8000
iter: 205 03:22:49  -825.573651c -6.14  -4.21c   +58.7787
iter: 206 03:24:12  -825.574183c -6.32  -4.24c   +58.7738
iter: 207 03:25:36  -825.575170c -5.99  -4.25c   +58.7563
iter: 208 03:26:59  -825.576330c -5.81  -4.23c   +58.7360
iter: 209 03:28:21  -825.576397c -6.60  -4.23c   +58.7350
iter: 210 03:29:44  -825.577007c -6.35  -4.24c   +58.7275
iter: 211 03:31:07  -825.577463c -6.40  -4.15c   +58.7116
iter: 212 03:32:30  -825.577610c -6.79  -4.13c   +58.7073
iter: 213 03:33:52  -825.578673c -5.95  -4.16c   +58.6775
iter: 214 03:35:15  -825.578460c -6.73  -4.06c   +58.6866
iter: 215 03:36:37  -825.579105c -6.17  -4.07c   +58.6778
iter: 216 03:38:00  -825.579327c -6.57  -3.98    +58.6706
iter: 217 03:39:22  -825.580069c -6.14  -4.08c   +58.6475
iter: 218 03:40:45  -825.579952c -6.53  -4.09c   +58.6535
iter: 219 03:42:07  -825.580622c -6.17  -4.04c   +58.6316
iter: 220 03:43:30  -825.581506c -6.05  -4.11c   +58.6099
iter: 221 03:44:52  -825.580810c -6.47  -3.98    +58.6262
iter: 222 03:46:15  -825.581168c -6.51  -4.02c   +58.6157
iter: 223 03:47:37  -825.581398c -6.70  -3.96    +58.6110
iter: 224 03:48:59  -825.582005c -6.27  -4.01c   +58.5987
iter: 225 03:50:21  -825.582010c -6.69  -3.95    +58.5990
iter: 226 03:51:43  -825.582844c -5.99  -3.98    +58.5827
iter: 227 03:53:06  -825.582650c -6.44  -3.90    +58.5817
iter: 228 03:54:28  -825.582986c -6.22  -3.97    +58.5548
iter: 229 03:55:51  -825.583245c -6.67  -4.06c   +58.5489
iter: 230 03:57:13  -825.584221c -6.00  -4.08c   +58.5236
iter: 231 03:58:35  -825.584097c -6.37  -3.98    +58.5255
iter: 232 03:59:58  -825.584726c -6.05  -4.06c   +58.5060
iter: 233 04:01:20  -825.584817c -6.32  -4.01c   +58.5029
iter: 234 04:02:43  -825.585475c -6.20  -4.23c   +58.4887
iter: 235 04:04:05  -825.585752c -6.34  -4.17c   +58.4737
iter: 236 04:05:27  -825.586106c -6.50  -4.32c   +58.4651
iter: 237 04:06:50  -825.586320c -6.77  -4.22c   +58.4586
iter: 238 04:08:13  -825.587230c -6.08  -4.33c   +58.4359
iter: 239 04:09:35  -825.581502c -4.54  -4.22c   +58.5998
iter: 240 04:10:58  -825.576464c -4.20  -4.18c   +58.7922
iter: 241 04:12:20  -825.578860c -5.28  -3.76    +58.7014
iter: 242 04:13:42  -825.579774c -5.54  -3.89    +58.6618
iter: 243 04:15:00  -825.580316c -5.94  -3.98    +58.6433
iter: 244 04:16:48  -825.579546c -6.15  -4.03c   +58.6691
iter: 245 04:18:44  -825.579402c -6.47  -3.95    +58.6753
iter: 246 04:20:40  -825.579716c -6.42  -3.93    +58.6610
iter: 247 04:22:35  -825.579750c -6.53  -3.99    +58.6520
iter: 248 04:24:31  -825.580240c -6.16  -3.99    +58.6470
iter: 249 04:26:27  -825.580597c -5.78  -3.87    +58.6407
iter: 250 04:28:22  -825.580274c -6.36  -3.84    +58.6316
iter: 251 04:30:18  -825.580727c -6.09  -4.31c   +58.6116
iter: 252 04:32:14  -825.580577c -6.80  -4.13c   +58.6140
iter: 253 04:34:10  -825.581183c -6.48  -4.42c   +58.5987
iter: 254 04:36:06  -825.581193c -6.80  -4.39c   +58.5998
iter: 255 04:38:02  -825.581648c -6.41  -4.37c   +58.5840
iter: 256 04:39:58  -825.581793c -6.82  -4.47c   +58.5805
iter: 257 04:41:54  -825.582183c -6.69  -4.73c   +58.5713
iter: 258 04:43:50  -825.582561c -6.63  -4.80c   +58.5618
iter: 259 04:45:46  -825.576584c -4.42  -4.67c   +58.7273
iter: 260 04:47:42  -825.573894c -4.54  -3.93    +58.8297
iter: 261 04:49:39  -825.575919c -5.33  -3.70    +58.7562
iter: 262 04:51:35  -825.576450c -5.92  -3.85    +58.7378
iter: 263 04:53:31  -825.577410c -5.71  -3.89    +58.7086
iter: 264 04:55:28  -825.577151c -6.99  -3.98    +58.7112
iter: 265 04:57:24  -825.577807c -6.22  -3.98    +58.6898
iter: 266 04:59:20  -825.578119c -6.11  -4.00    +58.6830
iter: 267 05:01:16  -825.577948c -6.85  -4.03c   +58.6874
iter: 268 05:03:12  -825.578578c -5.80  -4.05c   +58.6829
iter: 269 05:05:08  -825.577882c -6.23  -3.83    +58.6797
iter: 270 05:07:04  -825.578158c -6.15  -4.07c   +58.6719
iter: 271 05:09:00  -825.578466c -6.66  -4.12c   +58.6652
iter: 272 05:10:56  -825.579139c -6.21  -4.40c   +58.6488
iter: 273 05:12:53  -825.579714c -6.29  -4.37c   +58.6402
iter: 274 05:14:49  -825.580343c -6.22  -4.54c   +58.6209
iter: 275 05:16:45  -825.580059c -7.25  -4.62c   +58.6281
iter: 276 05:18:41  -825.580020c -7.33  -4.87c   +58.6333
iter: 277 05:20:37  -825.580674c -6.22  -4.79c   +58.6054
iter: 278 05:22:33  -825.580587c -6.92  -4.63c   +58.6192
iter: 279 05:24:29  -825.581247c -6.30  -4.91c   +58.5945
iter: 280 05:26:25  -825.577609c -4.65  -4.57c   +58.7719
iter: 281 05:28:21  -825.575755c -4.40  -3.93    +58.9676
iter: 282 05:30:16  -825.575806c -5.01  -3.58    +59.0205
iter: 283 05:32:12  -825.577058c -4.41  -3.52    +59.2388
iter: 284 05:34:09  -825.577358c -5.37  -3.35    +59.2392
iter: 285 05:36:05  -825.577453c -5.94  -3.35    +59.2305
iter: 286 05:38:00  -825.577308c -5.92  -3.35    +59.2150
iter: 287 05:39:56  -825.577413c -6.33  -3.36    +59.2184
iter: 288 05:41:52  -825.579669c -4.56  -3.35    +59.2142
iter: 289 05:43:48  -825.579130c -4.28  -3.09    +59.2213
iter: 290 05:45:44  -825.574832c -4.46  -3.14    +59.1421
iter: 291 05:47:40  -825.565664c -4.92  -3.21    +59.1218
iter: 292 05:49:36  -825.569816c -5.11  -3.67    +59.0509
iter: 293 05:51:32  -825.572806c -5.02  -3.65    +58.9537
iter: 294 05:53:29  -825.575074c -5.17  -3.72    +58.8927
iter: 295 05:55:25  -825.578594c -5.15  -3.67    +58.8284
iter: 296 05:57:20  -825.574553c -5.46  -3.56    +58.8943
iter: 297 05:59:16  -825.573792c -5.75  -3.62    +58.8844
iter: 298 06:01:12  -825.573734c -5.81  -3.74    +58.8586
iter: 299 06:03:08  -825.573669c -5.72  -3.74    +58.8388
iter: 300 06:05:03  -825.573461c -6.08  -3.81    +58.8285
iter: 301 06:06:58  -825.573786c -5.75  -3.93    +58.8111
iter: 302 06:08:54  -825.574205c -6.12  -4.04c   +58.8079
iter: 303 06:10:50  -825.574360c -6.14  -3.93    +58.7906
iter: 304 06:12:46  -825.575016c -6.11  -4.22c   +58.7736
iter: 305 06:14:41  -825.575784c -6.01  -4.26c   +58.7508
iter: 306 06:16:37  -825.576415c -6.06  -4.25c   +58.7311
iter: 307 06:18:33  -825.576532c -6.67  -4.27c   +58.7262
iter: 308 06:20:29  -825.577063c -6.33  -4.24c   +58.7105
iter: 309 06:22:24  -825.576137c -6.19  -4.20c   +58.7415
iter: 310 06:24:21  -825.573546c -5.10  -4.25c   +58.8346
iter: 311 06:26:16  -825.574359c -6.45  -4.23c   +58.8048
iter: 312 06:28:12  -825.574614c -6.80  -4.32c   +58.7953
iter: 313 06:30:07  -825.574861c -6.96  -4.42c   +58.7885
iter: 314 06:32:03  -825.575061c -6.76  -4.37c   +58.7798
iter: 315 06:33:59  -825.575468c -6.51  -4.46c   +58.7659
iter: 316 06:35:55  -825.575758c -6.70  -4.44c   +58.7561
iter: 317 06:37:51  -825.576402c -6.20  -4.55c   +58.7324
iter: 318 06:39:47  -825.573999c -5.20  -4.48c   +58.8235
iter: 319 06:41:43  -825.571467c -4.88  -4.41c   +58.9336
iter: 320 06:43:39  -825.571846c -6.11  -4.07c   +58.9253
iter: 321 06:45:35  -825.573491c -5.47  -4.11c   +58.8716
iter: 322 06:47:31  -825.575389c -5.21  -4.28c   +58.8116
iter: 323 06:49:27  -825.569856c -4.50  -4.38c   +58.9866
iter: 324 06:51:23  -825.575552c -4.54  -3.90    +58.8021
iter: 325 06:53:19  -825.571527c -4.90  -4.29c   +58.9306
iter: 326 06:55:15  -825.570606c -5.47  -4.07c   +58.9650
iter: 327 06:57:10  -825.571996c -5.75  -4.01c   +58.9144
iter: 328 06:59:06  -825.573199c -5.60  -4.17c   +58.8705
iter: 329 07:01:02  -825.573749c -5.98  -4.33c   +58.8477
iter: 330 07:02:57  -825.573736c -6.98  -4.44c   +58.8477
iter: 331 07:04:53  -825.574115c -6.52  -4.50c   +58.8321
iter: 332 07:06:49  -825.572391c -5.36  -4.58c   +58.9071
iter: 333 07:08:44  -825.571051c -5.18  -4.19c   +58.9840
iter: 334 07:10:40  -825.572844c -5.34  -3.95    +58.8914
iter: 335 07:12:36  -825.571966c -5.96  -4.20c   +58.9422
iter: 336 07:14:32  -825.572732c -5.94  -4.04c   +58.8984
iter: 337 07:16:28  -825.572957c -6.68  -4.27c   +58.8953
iter: 338 07:18:24  -825.573047c -6.81  -4.16c   +58.8869
iter: 339 07:20:20  -825.573759c -6.14  -4.32c   +58.8747
iter: 340 07:22:16  -825.573231c -6.64  -4.00    +58.8843
iter: 341 07:24:11  -825.573352c -6.70  -4.32c   +58.8753
iter: 342 07:26:07  -825.573577c -6.92  -4.44c   +58.8667
iter: 343 07:28:02  -825.573762c -6.60  -4.43c   +58.8539
iter: 344 07:29:58  -825.574060c -6.89  -4.58c   +58.8461
iter: 345 07:31:54  -825.574480c -6.45  -4.60c   +58.8252
iter: 346 07:33:50  -825.574431c -7.47c -4.66c   +58.8271

Converged after 346 iterations.

Dipole moment: (29.524590, -4.455963, -10.110567) |e|*Ang

Total magnetic moment: (0.000000, 0.000000, 58.827123)
Local magnetic moments:
   0 Co ( 0.000000,  0.000000,  1.212054)
   1 Fe ( 0.000000,  0.000000,  2.393296)
   2 Fe ( 0.000000,  0.000000,  2.273340)
   3 Al ( 0.000000,  0.000000, -0.042734)
   4 Co ( 0.000000,  0.000000,  1.354299)
   5 Fe ( 0.000000,  0.000000,  2.429626)
   6 Fe ( 0.000000,  0.000000,  1.948593)
   7 Cr ( 0.000000,  0.000000, -2.389573)
   8 Fe ( 0.000000,  0.000000,  2.150183)
   9 Al ( 0.000000,  0.000000, -0.012597)
  10 Ni ( 0.000000,  0.000000,  0.188015)
  11 Ni ( 0.000000,  0.000000,  0.161682)
  12 Ni ( 0.000000,  0.000000,  0.214672)
  13 Al ( 0.000000,  0.000000, -0.030456)
  14 Co ( 0.000000,  0.000000,  1.216008)
  15 Fe ( 0.000000,  0.000000,  2.064089)
  16 Co ( 0.000000,  0.000000,  1.244062)
  17 Co ( 0.000000,  0.000000,  1.071409)
  18 Ni ( 0.000000,  0.000000,  0.244097)
  19 Fe ( 0.000000,  0.000000,  2.300286)
  20 Ni ( 0.000000,  0.000000,  0.118590)
  21 Co ( 0.000000,  0.000000,  1.191077)
  22 Al ( 0.000000,  0.000000, -0.022526)
  23 Fe ( 0.000000,  0.000000,  2.074555)
  24 Co ( 0.000000,  0.000000,  0.241781)
  25 Co ( 0.000000,  0.000000,  0.978596)
  26 Cr ( 0.000000,  0.000000, -1.879437)
  27 Ni ( 0.000000,  0.000000,  0.096743)
  28 Al ( 0.000000,  0.000000, -0.017652)
  29 Al ( 0.000000,  0.000000, -0.022146)
  30 Ni ( 0.000000,  0.000000,  0.357435)
  31 Cr ( 0.000000,  0.000000,  1.640831)
  32 Co ( 0.000000,  0.000000,  0.968552)
  33 Cr ( 0.000000,  0.000000, -1.520995)
  34 Cr ( 0.000000,  0.000000,  0.322876)
  35 Co ( 0.000000,  0.000000,  1.003111)
  36 Cr ( 0.000000,  0.000000, -1.555723)
  37 Al ( 0.000000,  0.000000, -0.028083)
  38 Ni ( 0.000000,  0.000000,  0.121534)
  39 Fe ( 0.000000,  0.000000,  2.257867)
  40 Al ( 0.000000,  0.000000, -0.043074)
  41 Cr ( 0.000000,  0.000000, -1.963174)
  42 Al ( 0.000000,  0.000000, -0.029162)
  43 Fe ( 0.000000,  0.000000,  1.826908)
  44 Al ( 0.000000,  0.000000, -0.031263)
  45 Fe ( 0.000000,  0.000000,  1.807178)
  46 Co ( 0.000000,  0.000000,  0.966239)
  47 Ni ( 0.000000,  0.000000,  0.127298)
  48 Ni ( 0.000000,  0.000000,  0.357862)
  49 Ni ( 0.000000,  0.000000,  0.330921)
  50 Co ( 0.000000,  0.000000,  1.189597)
  51 Fe ( 0.000000,  0.000000,  2.412355)
  52 Co ( 0.000000,  0.000000,  1.068343)
  53 Cr ( 0.000000,  0.000000, -1.743708)
  54 Cr ( 0.000000,  0.000000, -1.212581)
  55 Cr ( 0.000000,  0.000000,  1.469699)
  56 Cr ( 0.000000,  0.000000, -1.664667)
  57 Fe ( 0.000000,  0.000000,  2.288624)
  58 Fe ( 0.000000,  0.000000,  2.175834)
  59 Co ( 0.000000,  0.000000,  1.111443)
[...]
  93 Ni ( 0.000000,  0.000000,  0.307877)
  94 Cr ( 0.000000,  0.000000,  1.469694)
  95 Al ( 0.000000,  0.000000, -0.010320)
  96 Cr ( 0.000000,  0.000000,  0.765201)
  97 Cr ( 0.000000,  0.000000, -0.579455)
  98 Fe ( 0.000000,  0.000000,  1.745394)
  99 Co ( 0.000000,  0.000000,  0.889628)
 100 Fe ( 0.000000,  0.000000, -1.421932)
 101 Cr ( 0.000000,  0.000000, -2.113782)
 102 Al ( 0.000000,  0.000000, -0.003787)
 103 Co ( 0.000000,  0.000000,  1.091003)
 104 Co ( 0.000000,  0.000000,  1.387733)
 105 Ni ( 0.000000,  0.000000,  0.201853)
 106 Cr ( 0.000000,  0.000000, -1.050954)
 107 Co ( 0.000000,  0.000000,  1.036870)

Energy contributions relative to reference atoms: (reference = -3382523.201499)

Kinetic:       +216.845784
Potential:     -225.908737
External:        +0.000000
XC:            -847.704272
Entropy (-ST):   -4.196260
Local:          +33.290925
Free energy:   -827.672560
Extrapolated:  -825.574431

Spin contamination: 29.308100 electrons
Showing only first 2 kpts
                      Up                     Down
 Kpt  Band  Eigenvalues  Occupancy  Eigenvalues  Occupancy
  0   470      9.14414    0.99543     10.04384    0.02624
  0   471      9.15702    0.99480     10.05840    0.02276
  0   472      9.16882    0.99415     10.06689    0.02095
  0   473      9.18903    0.99285     10.07189    0.01995

  1   470      9.15436    0.99494     10.04675    0.02550
  1   471      9.16323    0.99447     10.04968    0.02479
  1   472      9.17248    0.99394     10.07542    0.01927
  1   473      9.19328    0.99255     10.08139    0.01817

Fermi level: 9.68244

No gap

Forces in eV/Ang:
  0 Co    0.12857   -0.57856    0.12499
  1 Fe    0.31312   -0.25215    0.04482
  2 Fe   -0.14515   -0.35301   -0.81392
  3 Al    0.43210   -0.19122   -0.33256
  4 Co    0.11709   -0.26757   -0.48892
  5 Fe    0.14570    0.62399   -0.40046
  6 Fe    0.22673    0.37702   -0.87097
  7 Cr   -1.06623   -1.02892   -0.80482
  8 Fe   -0.38683    0.49475   -0.44859
  9 Al   -0.22422   -0.51093   -1.22211
 10 Ni   -0.19780   -0.26718   -0.44070
 11 Ni   -0.20224   -0.38776   -0.42583
 12 Ni   -0.32666    0.53104    0.09547
 13 Al    0.65772   -0.21308   -0.13688
 14 Co    0.65246    0.32049    0.65279
 15 Fe   -0.09985   -0.15083    0.11621
 16 Co    0.38249    0.13658    0.30602
 17 Co   -0.41782   -0.59964    0.63344
 18 Ni   -0.46045   -0.17229   -0.03524
 19 Fe    0.28264   -0.55836    0.52523
 20 Ni   -0.12677   -0.06044   -0.37348
 21 Co    0.12679    0.63306    0.12973
 22 Al    0.27598    0.14206   -0.48192
 23 Fe   -0.50146    0.79167   -0.54086
 24 Co    0.11427   -0.00739   -0.04650
 25 Co    0.24107   -0.13430   -0.35890
 26 Cr   -0.65102    0.22655    0.07803
 27 Ni    0.76903    0.50203   -0.26165
 28 Al   -0.90074    0.10942    0.36300
 29 Al   -0.55449    0.44650   -1.08983
 30 Ni   -0.07428    0.08052    0.40957
 31 Cr    0.54029    1.05393   -0.43677
 32 Co    0.50868   -0.18615    0.14924
 33 Cr    0.20613   -0.28968   -0.55222
 34 Cr   -0.65706    0.53922   -0.01241
 35 Co   -0.11988    0.00107    0.04284
 36 Cr    0.00659   -0.70788   -0.73015
 37 Al   -0.20326   -0.03989   -0.08349
 38 Ni    0.24326   -0.05719    0.11071
 39 Fe    0.56430    0.68465    0.00333
 40 Al   -0.45137    0.72410   -0.15681
 41 Cr   -0.54025    1.41126    0.05626
 42 Al    0.16626   -0.28885    0.97504
 43 Fe   -0.55420    0.64439    0.17018
 44 Al    1.01769   -0.25046    0.10045
 45 Fe    0.16320    0.71102    0.56514
 46 Co   -0.11191   -0.31756    0.05260
 47 Ni   -0.04058   -0.21898    0.06060
 48 Ni    0.58213    0.38259   -0.03296
 49 Ni    0.29852    0.29996   -0.42321
 50 Co    0.64709    0.24180   -0.27821
 51 Fe    1.33241   -0.34476    0.23583
 52 Co   -0.34782   -0.03087    0.30792
 53 Cr   -0.28061   -0.73902   -0.08394
 54 Cr    0.06927    0.18167    0.35192
 55 Cr   -0.30140   -0.64382   -0.17293
 56 Cr   -0.68810    0.63903    1.05355
 57 Fe    0.31069    0.11078    0.29096
 58 Fe   -0.63543    0.28459    0.16314
 59 Co   -0.40842    0.64051    0.38190
[...]
 93 Ni    0.37777   -0.12825   -0.26704
 94 Cr    0.19499    0.21110    0.40954
 95 Al   -1.49028    0.05491   -0.74588
 96 Cr   -0.13705    0.51868    0.71183
 97 Cr    0.26629    0.17050    0.51963
 98 Fe    0.10810    0.28513   -0.26358
 99 Co    0.20004   -0.20762    0.41605
100 Fe   -0.37257    0.83493   -0.18789
101 Cr   -0.46431    1.02254    0.17437
102 Al    1.33739    0.23374   -1.57133
103 Co   -0.07296   -0.37025    0.32347
104 Co   -0.01992   -0.03359   -0.50286
105 Ni    0.15777    0.08181    0.09568
106 Cr   -0.77636    0.62697    0.30760
107 Co   -0.43558   -0.25852   -0.07917

Date: Sat Apr 15 07:34:10 2023