User:   c.zeng@d0062
Date:   Fri Apr 14 20:11:07 2023
Arch:   x86_64
Pid:    24178
CWD:    /home/c.zeng/projects/hea-corrosion/hea-mlp/data-curation/bulk-mcmc/dft-jobs/167
Python: 3.8.1
gpaw:   /home/c.zeng/usr/installs/gpaw/source/gpaw-22.8.0/gpaw
_gpaw:  /home/c.zeng/usr/installs/gpaw/source/gpaw-22.8.0/
        _gpaw.cpython-38-x86_64-linux-gnu.so
ase:    /home/c.zeng/.local/lib/python3.8/site-packages/ase-3.22.1-py3.8.egg/ase (version 3.22.1)
numpy:  /shared/centos7/python/3.8.1/lib/python3.8/site-packages/numpy (version 1.17.4)
scipy:  /shared/centos7/python/3.8.1/lib/python3.8/site-packages/scipy (version 1.4.1)
units:  Angstrom and eV
cores: 30
OpenMP: False
OMP_NUM_THREADS: 1

Input parameters:
  convergence: {energy: 0.0001}
  kpts: [2 2 2]
  maxiter: 666
  mode: {ecut: 350.0,
         name: pw}
  occupations: {fixmagmom: False,
                name: fermi-dirac,
                width: 0.1}
  spinpol: True
  xc: PBE

System changes: positions, numbers, cell, pbc, initial_charges, initial_magmoms

Initialize ...

species:
  Fe:
    name: Iron
    id: 37abbd8d6c3c35915a9b583b742da910
    Z: 26.0
    valence: 8
    core: 18
    charge: 0.0
    file: /home/c.zeng/usr/data/gpaw-setups-0.9.20000/Fe.PBE.gz
    compensation charges: {type: gauss,
                           rc: 0.33,
                           lmax: 2}
    cutoffs: {filter: 2.06,
              core: 2.67}
    valence states:
      #              energy  rcut
      - 4s(2.00)    -5.291   1.164
      - 4p(0.00)    -1.326   1.058
      - 3d(6.00)    -7.505   1.058
      -  s          21.920   1.164
      -  p          25.885   1.058
      -  d          19.706   1.058

    # Using partial waves for Fe as LCAO basis

  Co:
    name: Cobalt
    id: 339d20d5b0b93d2de9531a1bee871d91
    Z: 27.0
    valence: 9
    core: 18
    charge: 0.0
    file: /home/c.zeng/usr/data/gpaw-setups-0.9.20000/Co.PBE.gz
    compensation charges: {type: gauss,
                           rc: 0.32,
                           lmax: 2}
    cutoffs: {filter: 1.87,
              core: 2.55}
    valence states:
      #              energy  rcut
      - 4s(2.00)    -5.469   1.005
      - 4p(0.00)    -1.277   1.058
      - 3d(7.00)    -8.205   1.005
      -  s          21.742   1.005
      -  p          25.934   1.058
      -  d          19.007   1.005

[...]

  Al:
    name: Aluminium
    id: 0292cae29f5d6237e50f6abdd43a7bdd
    Z: 13.0
    valence: 3
    core: 10
    charge: 0.0
    file: /home/c.zeng/usr/data/gpaw-setups-0.9.20000/Al.PBE.gz
    compensation charges: {type: gauss,
                           rc: 0.34,
                           lmax: 2}
    cutoffs: {filter: 1.91,
              core: 2.36}
    valence states:
      #              energy  rcut
      - 3s(2.00)    -7.753   1.085
      - 3p(1.00)    -2.712   1.085
      -  s          19.459   1.085
      -  p          24.499   1.085
      -  d           0.000   1.085

[...]

  Cr:
    name: Chromium
    id: 33f258bda2ca9f93018e70263a35547b
    Z: 24.0
    valence: 6
    core: 18
    charge: 0.0
    file: /home/c.zeng/usr/data/gpaw-setups-0.9.20000/Cr.PBE.gz
    compensation charges: {type: gauss,
                           rc: 0.35,
                           lmax: 2}
    cutoffs: {filter: 2.14,
              core: 3.04}
    valence states:
      #              energy  rcut
      - 4s(1.00)    -4.007   1.164
      - 4p(0.00)    -0.989   1.217
      - 3d(5.00)    -2.913   1.111
      -  s          23.205   1.164
      -  p          26.223   1.217
      -  d          24.299   1.111

[...]

  Ni:
    name: Nickel
    id: 0d9f38a9d6e76a2886f07bb4381f212b
    Z: 28.0
    valence: 16
    core: 12
    charge: 0.0
    file: /home/c.zeng/usr/data/gpaw-setups-0.9.20000/Ni.PBE.gz
    compensation charges: {type: gauss,
                           rc: 0.36,
                           lmax: 2}
    cutoffs: {filter: 2.14,
              core: 1.98}
    valence states:
      #              energy  rcut
      - 4s(2.00)    -5.642   1.164
      - 3p(6.00)   -71.394   1.207
      - 4p(0.00)    -1.226   1.207
      - 3d(8.00)    -8.875   1.138
      -  s          21.570   1.164
      -  d          18.337   1.138

    # Using partial waves for Ni as LCAO basis

Reference energy: -3382523.201499  # eV

Spin-polarized calculation.
Magnetic moment: 128.800000

Convergence criteria:
 Maximum [total energy] change in last 3 cyles: 0.0001 eV / electron
 Maximum integral of absolute [dens]ity change: 0.0001 electrons / valence electron
 Maximum integral of absolute [eigenst]ate change: 4e-08 eV^2 / valence electron
 Maximum number of scf [iter]ations: 666
 (Square brackets indicate name in SCF output, whereas a 'c' in
 the SCF output indicates the quantity has converged.)

Symmetries present (total): 1

  ( 1  0  0)
  ( 0  1  0)
  ( 0  0  1)

8 k-points: 2 x 2 x 2 Monkhorst-Pack grid
4 k-points in the irreducible part of the Brillouin zone
       k-points in crystal coordinates                weights
   0:     0.25000000   -0.25000000   -0.25000000          2/8
   1:     0.25000000   -0.25000000    0.25000000          2/8
   2:     0.25000000    0.25000000   -0.25000000          2/8
   3:     0.25000000    0.25000000    0.25000000          2/8

Wave functions: Plane wave expansion
  Cutoff energy: 350.000 eV
  Number of coefficients (min, max): 18865, 18865
  Pulay-stress correction: 0.000000 eV/Ang^3 (de/decut=0.000000)
  Using FFTW library
  ScaLapack parameters: grid=1x1, blocksize=None
  Wavefunction extrapolation:
    Improved wavefunction reuse through dual PAW basis

Occupation numbers: Fermi-Dirac:
  width: 0.1000  # eV

Eigensolver
   Davidson(niter=2)

Densities:
  Coarse grid: 48*48*48 grid
  Fine grid: 96*96*96 grid
  Total Charge: 0.000000

Density mixing:
  Method: difference
  Backend: pulay
  Linear mixing parameter: 0.05
  old densities: 5
  Damping of long wavelength oscillations: 50

Hamiltonian:
  XC and Coulomb potentials evaluated on a 96*96*96 grid
  Using the PBE Exchange-Correlation functional
  External potential:
    NoExternalPotential

XC parameters: PBE with 2 nearest neighbor stencil

Total number of cores used: 30
Parallelization over k-points: 2
Domain decomposition: 5 x 3 x 1

Number of atoms: 108
Number of atomic orbitals: 961
Number of bands in calculation: 649
Number of valence electrons: 945
Bands to converge: occupied

... initialized

Initializing position-dependent things.

Density initialized from atomic densities
Creating initial wave functions:
  649 bands from LCAO basis set

       /|                     Co   |
      / |            Fe Co     CrCo|
     /  |       Cr       Ni       Cr
    /   |Fe       Fel     FFer     |
   /i   | Coo        Fe      Co    |
  /  CrAl   NCr       Ni           |
 *      Ni     CoFe   AlFeCrFe   Cr|
 |      |FeNi   CrNiAl   NiAlNi   Fe
 | CrCo | AlNi   AlAlFe     Ni     |
 |     Fe  FeCr Cr  Fe CoNi  CrNi  |
 |      CoNi   AlCr   FeFeCoNi  Co |
 |Al    |FeCr   AlCrCo   CrCo     Co
 |      .-CrCo-----NiCr-CoFeCrNi---.
 |     /   Ni Co    Cr CoNi    Al /
 |    Co       ACoi       Al     /
 |   /  Fe         Al       Cr  /
 |  /      Fe       Al       Co/
 | / Fe     Fe       Ni Ni    /
 |/             Cr       Ni  /
 *--------Co----------------*

Positions:
   0 Fe    10.764147   10.861293   10.805330    ( 0.0000,  0.0000,  2.0000)
   1 Co    10.786221    1.792513    1.813624    ( 0.0000,  0.0000,  0.0000)
   2 Fe     1.744156    0.036560    1.851269    ( 0.0000,  0.0000,  1.5000)
   3 Al     1.736571    1.831142   10.798805    ( 0.0000,  0.0000,  0.0000)
   4 Co     3.575126    0.057318    0.061759    ( 0.0000,  0.0000,  0.0000)
   5 Fe     3.594289    1.817617    1.845577    ( 0.0000,  0.0000,  2.0000)
   6 Fe     5.429813   10.817005    1.865054    ( 0.0000,  0.0000,  1.5000)
   7 Cr     5.429608    1.929425    0.057134    ( 0.0000,  0.0000,  0.0000)
   8 Fe     7.316909   10.723332    0.087382    ( 0.0000,  0.0000,  0.0000)
   9 Al     7.263142    1.825786    1.869404    ( 0.0000,  0.0000,  2.1000)
  10 Ni     9.063554    0.025226    1.863474    ( 0.0000,  0.0000,  1.5000)
  11 Ni     9.049217    1.829703    0.033106    ( 0.0000,  0.0000,  2.1000)
  12 Ni     0.004792    3.558981   10.794801    ( 0.0000,  0.0000,  1.5000)
  13 Al    10.759710    5.390697    1.778165    ( 0.0000,  0.0000,  0.0000)
  14 Fe     1.733585    3.561849    1.761112    ( 0.0000,  0.0000,  2.0000)
  15 Fe     1.776899    5.391834   10.795505    ( 0.0000,  0.0000,  0.0000)
  16 Fe     3.565452    3.619360   10.832619    ( 0.0000,  0.0000,  2.1000)
  17 Co     3.633221    5.394614    1.719551    ( 0.0000,  0.0000,  0.0000)
  18 Ni     5.471624    3.659114    1.836033    ( 0.0000,  0.0000,  2.1000)
  19 Fe     5.440212    5.373060   -0.002773    ( 0.0000,  0.0000,  2.0000)
  20 Ni     7.258997    3.609080    0.031294    ( 0.0000,  0.0000,  0.0000)
  21 Co     7.268941    5.378362    1.785274    ( 0.0000,  0.0000,  2.0000)
  22 Al     9.030724    3.577636    1.833728    ( 0.0000,  0.0000,  2.1000)
  23 Fe     9.040420    5.372281   10.801110    ( 0.0000,  0.0000,  0.0000)
  24 Co    10.791663    7.196206   10.792486    ( 0.0000,  0.0000,  1.5000)
  25 Co    10.758434    9.040387    1.848239    ( 0.0000,  0.0000,  0.0000)
  26 Cr     1.690487    7.202493    1.786032    ( 0.0000,  0.0000,  0.0000)
  27 Ni     1.652691    8.981047    0.027217    ( 0.0000,  0.0000,  0.0000)
  28 Al     3.631241    7.164437    0.034633    ( 0.0000,  0.0000,  0.0000)
  29 Al     3.625452    9.063759    1.801678    ( 0.0000,  0.0000,  0.0000)
  30 Ni     5.490852    7.187095    1.746342    ( 0.0000,  0.0000,  2.0000)
  31 Cr     5.426935    8.989152    0.009861    ( 0.0000,  0.0000,  2.0000)
  32 Co     7.229122    7.237075   -0.008698    ( 0.0000,  0.0000,  1.5000)
  33 Cr     7.249194    8.995850    1.810713    ( 0.0000,  0.0000,  0.0000)
  34 Cr     9.052073    7.204300    1.764218    ( 0.0000,  0.0000,  2.1000)
  35 Co     9.092553    8.989639   10.808760    ( 0.0000,  0.0000,  1.5000)
  36 Cr    -0.000975   10.826235    3.639789    ( 0.0000,  0.0000,  1.5000)
  37 Al    10.822772    1.771770    5.422044    ( 0.0000,  0.0000,  2.1000)
  38 Ni     1.754263   10.802084    5.428872    ( 0.0000,  0.0000,  2.1000)
  39 Co     1.741873    1.774270    3.610801    ( 0.0000,  0.0000,  0.0000)
  40 Al     3.591183   10.794152    3.612143    ( 0.0000,  0.0000,  2.0000)
  41 Cr     3.593088    1.736744    5.455177    ( 0.0000,  0.0000,  0.0000)
  42 Al     5.437150   10.794563    5.400804    ( 0.0000,  0.0000,  2.0000)
  43 Co     5.451931    1.783251    3.601387    ( 0.0000,  0.0000,  1.5000)
  44 Al     7.226222    0.007781    3.626209    ( 0.0000,  0.0000,  0.0000)
  45 Co     7.236069    1.766512    5.381392    ( 0.0000,  0.0000,  2.1000)
  46 Co     9.034587   10.848850    5.403844    ( 0.0000,  0.0000,  2.1000)
  47 Ni     9.031558    1.804946    3.616730    ( 0.0000,  0.0000,  1.5000)
  48 Ni    10.773885    3.543973    3.617867    ( 0.0000,  0.0000,  1.5000)
  49 Ni    10.772186    5.358409    5.454917    ( 0.0000,  0.0000,  0.0000)
  50 Co     1.757531    3.575678    5.428937    ( 0.0000,  0.0000,  2.1000)
  51 Fe     1.621766    5.386986    3.572550    ( 0.0000,  0.0000,  0.0000)
  52 Co     3.634303    3.633188    3.540792    ( 0.0000,  0.0000,  0.0000)
  53 Cr     3.550606    5.397969    5.404753    ( 0.0000,  0.0000,  2.0000)
  54 Cr     5.402221    3.610887    5.370193    ( 0.0000,  0.0000,  2.0000)
  55 Cr     5.460241    5.433590    3.575613    ( 0.0000,  0.0000,  2.0000)
  56 Cr     7.250157    3.615183    3.623169    ( 0.0000,  0.0000,  1.5000)
  57 Co     7.248707    5.410715    5.362099    ( 0.0000,  0.0000,  1.5000)
  58 Co     9.058230    3.565236    5.380082    ( 0.0000,  0.0000,  2.1000)
  59 Co     9.074071    5.365323    3.589008    ( 0.0000,  0.0000,  2.1000)
[...]
  93 Ni     7.211073    5.388295    9.040181    ( 0.0000,  0.0000,  0.0000)
  94 Cr     9.095052    3.598119    8.980636    ( 0.0000,  0.0000,  2.0000)
  95 Al     9.078205    5.402416    7.227759    ( 0.0000,  0.0000,  0.0000)
  96 Cr    10.763411    7.244682    7.260285    ( 0.0000,  0.0000,  1.5000)
  97 Cr    10.795093    9.034566    8.977574    ( 0.0000,  0.0000,  2.0000)
  98 Co     1.740045    7.178947    8.984662    ( 0.0000,  0.0000,  2.1000)
  99 Co     1.734429    9.080207    7.236696    ( 0.0000,  0.0000,  1.5000)
 100 Co     3.580482    7.154277    7.248285    ( 0.0000,  0.0000,  0.0000)
 101 Cr     3.612835    8.970898    8.958086    ( 0.0000,  0.0000,  0.0000)
 102 Al     5.410943    7.155878    9.067049    ( 0.0000,  0.0000,  0.0000)
 103 Fe     5.466441    9.064062    7.220963    ( 0.0000,  0.0000,  2.1000)
 104 Fe     7.307203    7.271549    7.289738    ( 0.0000,  0.0000,  0.0000)
 105 Ni     7.271073    9.044683    9.027879    ( 0.0000,  0.0000,  1.5000)
 106 Cr     9.081743    7.219805    9.041166    ( 0.0000,  0.0000,  2.1000)
 107 Co     9.063684    9.083009    7.213865    ( 0.0000,  0.0000,  2.0000)

Unit cell:
           periodic     x           y           z      points  spacing
  1. axis:    yes   10.820500    0.000000    0.000000    48     0.2254
  2. axis:    yes    0.000000   10.820500    0.000000    48     0.2254
  3. axis:    yes    0.000000    0.000000   10.820500    48     0.2254

  Lengths:  10.820500  10.820500  10.820500
  Angles:   90.000000  90.000000  90.000000

Effective grid spacing dv^(1/3) = 0.2254

     iter     time        total  log10-change:  magmom
                         energy  eigst   dens
iter:   1 20:14:30  -894.698089                  +128.4417
iter:   2 20:15:50  -857.815455  -0.41  -1.31    +95.6098
iter:   3 20:17:10  -843.109842  -0.96  -1.31    +66.7868
iter:   4 20:18:30  -833.191461  -1.26  -1.38    +58.0884
iter:   5 20:19:50  -825.940833  -1.88  -1.40    +53.1763
iter:   6 20:21:10  -826.297333  -1.99  -1.47    +51.2083
iter:   7 20:22:30  -826.406170  -1.60  -1.50    +49.9101
iter:   8 20:23:50  -823.025248  -1.80  -1.56    +49.9323
iter:   9 20:25:10  -824.599947  -2.03  -1.72    +50.5278
iter:  10 20:26:30  -823.585273  -2.11  -1.75    +50.5211
iter:  11 20:27:50  -823.098159  -2.42  -1.80    +51.3098
iter:  12 20:29:10  -823.148070  -2.49  -1.86    +52.2173
iter:  13 20:30:30  -823.396971  -2.65  -1.91    +53.1500
iter:  14 20:31:50  -824.074172  -2.55  -1.96    +54.1333
iter:  15 20:33:10  -823.889756  -2.70  -1.97    +55.0729
iter:  16 20:34:30  -824.869215  -2.55  -2.05    +56.3340
iter:  17 20:35:50  -824.016882  -2.84  -2.04    +56.6639
iter:  18 20:37:10  -824.386113  -2.91  -2.17    +57.6496
iter:  19 20:38:30  -824.363653  -3.10  -2.19    +58.2910
iter:  20 20:39:50  -824.451704c -3.16  -2.23    +59.1066
iter:  21 20:41:10  -824.611192  -3.18  -2.30    +59.7438
iter:  22 20:42:29  -824.750250  -3.18  -2.32    +60.1867
iter:  23 20:43:49  -824.893434  -3.19  -2.37    +60.7452
iter:  24 20:45:09  -824.888202  -3.28  -2.36    +60.9078
iter:  25 20:46:29  -824.892877c -3.34  -2.41    +61.2062
iter:  26 20:47:49  -824.931519c -3.49  -2.48    +61.4183
iter:  27 20:49:09  -824.891573c -3.78  -2.47    +61.6180
iter:  28 20:50:29  -824.943541c -3.83  -2.57    +61.8389
iter:  29 20:51:49  -824.960397c -3.99  -2.59    +61.8960
iter:  30 20:53:09  -824.984819c -4.16  -2.60    +62.0724
iter:  31 20:54:29  -825.042905c -3.95  -2.65    +62.1421
iter:  32 20:55:49  -825.193808  -3.59  -2.65    +62.1586
iter:  33 20:57:09  -825.042278  -3.90  -2.59    +62.1490
iter:  34 20:58:30  -825.119270  -3.90  -2.89    +62.1223
iter:  35 20:59:49  -825.081880c -4.17  -2.78    +62.1493
iter:  36 21:01:09  -825.104361c -4.26  -3.00    +62.0967
iter:  37 21:02:29  -825.115315c -4.61  -2.96    +62.0980
iter:  38 21:03:49  -825.134571c -4.70  -3.07    +62.0795
iter:  39 21:05:09  -825.172620c -4.42  -3.08    +62.0280
iter:  40 21:06:29  -825.124213c -4.34  -3.03    +62.0878
iter:  41 21:07:49  -825.305101  -3.32  -3.10    +61.8562
iter:  42 21:09:09  -825.347529  -4.07  -2.91    +61.8874
iter:  43 21:10:28  -825.340390c -4.66  -2.90    +61.8846
iter:  44 21:11:46  -825.355556c -4.37  -2.90    +61.8793
iter:  45 21:13:04  -825.379002c -4.69  -2.82    +61.8428
iter:  46 21:14:21  -825.400038c -3.70  -2.79    +61.7217
iter:  47 21:15:39  -825.417279c -3.75  -2.72    +61.6301
iter:  48 21:16:57  -825.342293c -4.11  -2.69    +61.4584
iter:  49 21:18:15  -825.351554c -4.36  -2.91    +61.2232
iter:  50 21:19:33  -825.345041c -4.27  -2.90    +61.1556
iter:  51 21:20:51  -825.336277c -4.67  -2.94    +61.0131
iter:  52 21:22:09  -825.348099c -4.66  -3.01    +60.8072
iter:  53 21:23:26  -825.352765c -4.66  -3.02    +60.7718
iter:  54 21:24:45  -825.354515c -4.63  -3.03    +60.6842
iter:  55 21:26:03  -825.367264c -4.51  -3.05    +60.6270
iter:  56 21:27:20  -825.361850c -4.45  -3.03    +60.5465
iter:  57 21:28:38  -825.372170c -4.51  -3.18    +60.4697
iter:  58 21:29:56  -825.361963c -4.80  -3.09    +60.4374
iter:  59 21:31:15  -825.366535c -4.92  -3.26    +60.3723
iter:  60 21:32:33  -825.369713c -5.11  -3.29    +60.3344
iter:  61 21:33:50  -825.372191c -5.26  -3.30    +60.2866
iter:  62 21:35:08  -825.376809c -5.40  -3.36    +60.2342
iter:  63 21:36:26  -825.382503c -5.27  -3.39    +60.1775
iter:  64 21:37:44  -825.383753c -5.79  -3.37    +60.1689
iter:  65 21:39:02  -825.390171c -5.25  -3.36    +60.1179
iter:  66 21:40:20  -825.388648c -5.69  -3.36    +60.1366
iter:  67 21:41:38  -825.394445c -5.26  -3.36    +60.0990
iter:  68 21:42:57  -825.402536c -4.89  -3.37    +60.0785
iter:  69 21:44:15  -825.400120c -5.01  -3.31    +60.0253
iter:  70 21:45:33  -825.404501c -5.35  -3.42    +59.9930
iter:  71 21:46:51  -825.410395c -5.22  -3.49    +59.9640
iter:  72 21:48:09  -825.414469c -5.30  -3.45    +59.9285
iter:  73 21:49:27  -825.416648c -5.82  -3.47    +59.9104
iter:  74 21:50:45  -825.428189c -5.06  -3.49    +59.8579
iter:  75 21:52:03  -825.424590c -5.71  -3.33    +59.8720
iter:  76 21:53:21  -825.433599c -5.06  -3.35    +59.8179
iter:  77 21:54:39  -825.436425c -5.39  -3.33    +59.7935
iter:  78 21:55:57  -825.451183c -4.92  -3.37    +59.7314
iter:  79 21:57:15  -825.463764c -4.60  -3.23    +59.6766
iter:  80 21:58:33  -825.462664c -5.25  -3.18    +59.6745
iter:  81 21:59:51  -825.461989c -5.19  -3.21    +59.6562
iter:  82 22:01:09  -825.459383c -4.79  -3.29    +59.6425
iter:  83 22:02:27  -825.467425c -4.57  -3.46    +59.5990
iter:  84 22:03:46  -825.459531c -5.15  -3.23    +59.5961
iter:  85 22:05:04  -825.459483c -5.57  -3.66    +59.5941
iter:  86 22:06:22  -825.460359c -5.93  -3.78    +59.5879
iter:  87 22:07:40  -825.461729c -5.77  -3.80    +59.5843
iter:  88 22:08:58  -825.463177c -5.77  -3.82    +59.5883
iter:  89 22:10:16  -825.464345c -5.74  -3.84    +59.5995
iter:  90 22:11:34  -825.464515c -5.99  -3.79    +59.5995
iter:  91 22:12:52  -825.465827c -6.02  -3.82    +59.6008
iter:  92 22:14:10  -825.466002c -6.04  -3.85    +59.6120
iter:  93 22:15:29  -825.467175c -5.95  -3.98    +59.6153
iter:  94 22:16:46  -825.466673c -6.34  -3.89    +59.6146
iter:  95 22:18:05  -825.467525c -6.19  -4.00    +59.6206
iter:  96 22:19:23  -825.467801c -6.53  -4.00c   +59.6225
iter:  97 22:20:41  -825.468316c -6.24  -4.06c   +59.6284
iter:  98 22:21:59  -825.468780c -6.68  -4.07c   +59.6290
iter:  99 22:23:17  -825.469454c -6.50  -4.10c   +59.6325
iter: 100 22:24:35  -825.468597c -6.54  -4.08c   +59.6305
iter: 101 22:25:53  -825.471191c -5.57  -4.10c   +59.6423
iter: 102 22:27:11  -825.466394c -5.12  -3.92    +59.6164
iter: 103 22:28:29  -825.463149c -5.00  -4.19c   +59.5948
iter: 104 22:29:47  -825.463662c -6.25  -4.02c   +59.5934
iter: 105 22:31:06  -825.464240c -6.73  -4.18c   +59.5957
iter: 106 22:32:24  -825.464826c -6.37  -4.18c   +59.6059
iter: 107 22:33:42  -825.465380c -6.36  -4.28c   +59.6082
iter: 108 22:35:00  -825.465485c -6.78  -4.07c   +59.6119
iter: 109 22:36:18  -825.466486c -6.15  -4.45c   +59.6239
iter: 110 22:37:36  -825.466585c -6.98  -4.46c   +59.6187
iter: 111 22:38:54  -825.467319c -6.47  -4.57c   +59.6229
iter: 112 22:40:13  -825.467012c -7.44c -4.49c   +59.6183

Converged after 112 iterations.

Dipole moment: (29.079082, -3.989172, -10.202075) |e|*Ang

Total magnetic moment: (0.000000, 0.000000, 59.618320)
Local magnetic moments:
   0 Fe ( 0.000000,  0.000000,  2.276922)
   1 Co ( 0.000000,  0.000000,  1.314361)
   2 Fe ( 0.000000,  0.000000,  2.322099)
   3 Al ( 0.000000,  0.000000, -0.049261)
   4 Co ( 0.000000,  0.000000,  1.366631)
   5 Fe ( 0.000000,  0.000000,  2.387048)
   6 Fe ( 0.000000,  0.000000,  1.948391)
   7 Cr ( 0.000000,  0.000000, -2.428447)
   8 Fe ( 0.000000,  0.000000,  2.208467)
   9 Al ( 0.000000,  0.000000, -0.014429)
  10 Ni ( 0.000000,  0.000000,  0.180405)
  11 Ni ( 0.000000,  0.000000,  0.104606)
  12 Ni ( 0.000000,  0.000000,  0.155456)
  13 Al ( 0.000000,  0.000000, -0.027090)
  14 Fe ( 0.000000,  0.000000,  2.264418)
  15 Fe ( 0.000000,  0.000000, -1.502978)
  16 Fe ( 0.000000,  0.000000,  2.196920)
  17 Co ( 0.000000,  0.000000,  1.005649)
  18 Ni ( 0.000000,  0.000000,  0.223504)
  19 Fe ( 0.000000,  0.000000,  2.279689)
  20 Ni ( 0.000000,  0.000000,  0.121564)
  21 Co ( 0.000000,  0.000000,  1.169181)
  22 Al ( 0.000000,  0.000000, -0.026777)
  23 Fe ( 0.000000,  0.000000,  2.094671)
  24 Co ( 0.000000,  0.000000,  0.125277)
  25 Co ( 0.000000,  0.000000,  0.873370)
  26 Cr ( 0.000000,  0.000000,  0.997109)
  27 Ni ( 0.000000,  0.000000,  0.101517)
  28 Al ( 0.000000,  0.000000, -0.001137)
  29 Al ( 0.000000,  0.000000, -0.030348)
  30 Ni ( 0.000000,  0.000000,  0.309807)
  31 Cr ( 0.000000,  0.000000,  1.703242)
  32 Co ( 0.000000,  0.000000,  0.933475)
  33 Cr ( 0.000000,  0.000000, -1.193628)
  34 Cr ( 0.000000,  0.000000, -1.593076)
  35 Co ( 0.000000,  0.000000,  0.996586)
  36 Cr ( 0.000000,  0.000000, -1.480005)
  37 Al ( 0.000000,  0.000000, -0.023548)
  38 Ni ( 0.000000,  0.000000,  0.132143)
  39 Co ( 0.000000,  0.000000,  1.192054)
  40 Al ( 0.000000,  0.000000, -0.038290)
  41 Cr ( 0.000000,  0.000000, -1.935156)
  42 Al ( 0.000000,  0.000000, -0.026293)
  43 Co ( 0.000000,  0.000000,  0.683624)
  44 Al ( 0.000000,  0.000000, -0.019096)
  45 Co ( 0.000000,  0.000000,  0.778705)
  46 Co ( 0.000000,  0.000000,  0.854211)
  47 Ni ( 0.000000,  0.000000,  0.232421)
  48 Ni ( 0.000000,  0.000000,  0.384975)
  49 Ni ( 0.000000,  0.000000,  0.317443)
  50 Co ( 0.000000,  0.000000,  1.222713)
  51 Fe ( 0.000000,  0.000000,  2.313031)
  52 Co ( 0.000000,  0.000000,  1.268874)
  53 Cr ( 0.000000,  0.000000, -1.908787)
  54 Cr ( 0.000000,  0.000000, -0.832461)
  55 Cr ( 0.000000,  0.000000,  1.146895)
  56 Cr ( 0.000000,  0.000000,  0.925753)
  57 Co ( 0.000000,  0.000000,  1.223316)
  58 Co ( 0.000000,  0.000000,  1.121397)
  59 Co ( 0.000000,  0.000000,  1.123882)
[...]
  93 Ni ( 0.000000,  0.000000,  0.314877)
  94 Cr ( 0.000000,  0.000000,  0.952381)
  95 Al ( 0.000000,  0.000000, -0.013533)
  96 Cr ( 0.000000,  0.000000,  0.824588)
  97 Cr ( 0.000000,  0.000000,  0.207503)
  98 Co ( 0.000000,  0.000000, -0.152206)
  99 Co ( 0.000000,  0.000000,  1.006062)
 100 Co ( 0.000000,  0.000000,  0.349132)
 101 Cr ( 0.000000,  0.000000, -2.252591)
 102 Al ( 0.000000,  0.000000, -0.022478)
 103 Fe ( 0.000000,  0.000000,  2.089846)
 104 Fe ( 0.000000,  0.000000,  2.451277)
 105 Ni ( 0.000000,  0.000000,  0.280918)
 106 Cr ( 0.000000,  0.000000, -1.317674)
 107 Co ( 0.000000,  0.000000,  1.001466)

Energy contributions relative to reference atoms: (reference = -3382523.201499)

Kinetic:       +200.969681
Potential:     -213.235477
External:        +0.000000
XC:            -844.361842
Entropy (-ST):   -4.331603
Local:          +33.326427
Free energy:   -827.632813
Extrapolated:  -825.467012

Spin contamination: 26.066948 electrons
Showing only first 2 kpts
                      Up                     Down
 Kpt  Band  Eigenvalues  Occupancy  Eigenvalues  Occupancy
  0   470      9.15347    0.99456     10.04130    0.02483
  0   471      9.15918    0.99424     10.04495    0.02397
  0   472      9.17471    0.99328     10.06411    0.01987
  0   473      9.18991    0.99218     10.07285    0.01824

  1   470      9.14321    0.99509     10.03818    0.02560
  1   471      9.15712    0.99436     10.05742    0.02122
  1   472      9.17258    0.99342     10.06507    0.01969
  1   473      9.18696    0.99241     10.08250    0.01659

Fermi level: 9.67427

No gap

Forces in eV/Ang:
  0 Fe   -0.06205   -0.56678    0.18432
  1 Co    0.54209   -0.33057    0.13338
  2 Fe   -0.19230   -0.14266   -0.53549
  3 Al    0.28092   -0.34572   -0.36928
  4 Co    0.07248   -0.23061   -0.54264
  5 Fe    0.23979    0.40429   -0.03544
  6 Fe    0.18225    0.28957   -0.89382
  7 Cr   -1.02566   -1.07069   -0.87285
  8 Fe   -0.36302    0.50762   -0.40288
  9 Al   -0.38577   -0.43815   -1.04625
 10 Ni   -0.20386   -0.21714   -0.27274
 11 Ni   -0.24620   -0.24365   -0.43142
 12 Ni   -0.34645    0.55568    0.04351
 13 Al    0.80543   -0.04637   -0.18147
 14 Fe    0.61661    0.29580    0.84307
 15 Fe   -0.25729    0.26575   -0.05908
 16 Fe    0.31635    0.27178    0.14113
 17 Co   -0.34034   -0.45114    0.66725
 18 Ni   -0.36959   -0.17525    0.10114
 19 Fe    0.45304   -0.32891    0.51290
 20 Ni   -0.11080   -0.01414   -0.37897
 21 Co    0.06176    0.49516    0.04404
 22 Al    0.41828   -0.03299   -0.45315
 23 Fe   -0.56092    0.73910   -0.57421
 24 Co    0.37523    0.04838   -0.18099
 25 Co    0.24288   -0.25052   -0.12055
 26 Cr   -0.59236    0.15958   -0.34864
 27 Ni    0.80080    0.34544   -0.27389
 28 Al   -1.13735   -0.05069    0.31336
 29 Al   -0.58854    0.37942   -1.07164
 30 Ni   -0.17117    0.03296    0.39964
 31 Cr    0.46560    0.98162   -0.44386
 32 Co    0.46619   -0.23393    0.22819
 33 Cr    0.10599    0.00891   -0.51201
 34 Cr   -0.46102    0.42666   -0.17246
 35 Co   -0.21936   -0.04984    0.20535
 36 Cr    0.01005   -0.72916   -0.92070
 37 Al   -0.19774    0.11198   -0.24079
 38 Ni    0.31230   -0.03547    0.09694
 39 Co    0.35246    0.54576   -0.14750
 40 Al   -0.50172    0.93892   -0.11628
 41 Cr   -0.43349    1.51312    0.12052
 42 Al    0.20184    0.15286    0.61216
 43 Co   -0.38854    0.41253    0.20868
 44 Al    0.86384    0.00743    0.24717
 45 Co    0.09301    0.61002    0.59649
 46 Co   -0.11907   -0.38512   -0.07470
 47 Ni   -0.15531   -0.15104    0.09832
 48 Ni    0.58496    0.33743   -0.04705
 49 Ni    0.26195    0.21160   -0.42188
 50 Co    0.63525    0.24844   -0.36216
 51 Fe    1.19775   -0.21654    0.53849
 52 Co   -0.22938   -0.04666    0.30818
 53 Cr   -0.22340   -0.82670   -0.11224
 54 Cr    0.32830    0.00522    0.02124
 55 Cr   -0.23302   -0.61064   -0.01120
 56 Cr   -0.86261    0.60955    1.32309
 57 Co    0.20649    0.14990    0.12894
 58 Co   -0.64595    0.22005    0.19973
 59 Co   -0.38369    0.46565    0.65142
[...]
 93 Ni    0.39218   -0.14928   -0.21333
 94 Cr    0.33578    0.22399    0.50268
 95 Al   -1.27980   -0.09237   -0.97945
 96 Cr    0.06281    0.45471    0.88811
 97 Cr    0.44453   -0.21717    0.41597
 98 Co    0.11041    0.18898   -0.13683
 99 Co    0.22783   -0.23457    0.26822
100 Co   -0.40386    0.57563    0.02704
101 Cr   -0.58583    1.03281    0.16690
102 Al    1.17930    0.07973   -1.37706
103 Fe   -0.22086   -0.50032    0.52642
104 Fe    0.05151   -0.15294   -0.64588
105 Ni    0.10973    0.05588    0.06010
106 Cr   -0.63293    0.53885    0.44285
107 Co   -0.38573   -0.25226   -0.16972

Date: Fri Apr 14 22:40:29 2023