User:   c.zeng@d0109
Date:   Sat Apr 15 14:52:48 2023
Arch:   x86_64
Pid:    1994
CWD:    /home/c.zeng/projects/hea-corrosion/hea-mlp/data-curation/bulk-mcmc/dft-jobs/5
Python: 3.8.1
gpaw:   /home/c.zeng/usr/installs/gpaw/source/gpaw-22.8.0/gpaw
_gpaw:  /home/c.zeng/usr/installs/gpaw/source/gpaw-22.8.0/
        _gpaw.cpython-38-x86_64-linux-gnu.so
ase:    /home/c.zeng/.local/lib/python3.8/site-packages/ase-3.22.1-py3.8.egg/ase (version 3.22.1)
numpy:  /shared/centos7/python/3.8.1/lib/python3.8/site-packages/numpy (version 1.17.4)
scipy:  /shared/centos7/python/3.8.1/lib/python3.8/site-packages/scipy (version 1.4.1)
units:  Angstrom and eV
cores: 30
OpenMP: False
OMP_NUM_THREADS: 1

Input parameters:
  convergence: {energy: 0.0001}
  kpts: [2 2 2]
  maxiter: 666
  mode: {ecut: 350.0,
         name: pw}
  occupations: {fixmagmom: False,
                name: fermi-dirac,
                width: 0.1}
  spinpol: True
  xc: PBE

System changes: positions, numbers, cell, pbc, initial_charges, initial_magmoms

Initialize ...

species:
  Co:
    name: Cobalt
    id: 339d20d5b0b93d2de9531a1bee871d91
    Z: 27.0
    valence: 9
    core: 18
    charge: 0.0
    file: /home/c.zeng/usr/data/gpaw-setups-0.9.20000/Co.PBE.gz
    compensation charges: {type: gauss,
                           rc: 0.32,
                           lmax: 2}
    cutoffs: {filter: 1.87,
              core: 2.55}
    valence states:
      #              energy  rcut
      - 4s(2.00)    -5.469   1.005
      - 4p(0.00)    -1.277   1.058
      - 3d(7.00)    -8.205   1.005
      -  s          21.742   1.005
      -  p          25.934   1.058
      -  d          19.007   1.005

    # Using partial waves for Co as LCAO basis

  Fe:
    name: Iron
    id: 37abbd8d6c3c35915a9b583b742da910
    Z: 26.0
    valence: 8
    core: 18
    charge: 0.0
    file: /home/c.zeng/usr/data/gpaw-setups-0.9.20000/Fe.PBE.gz
    compensation charges: {type: gauss,
                           rc: 0.33,
                           lmax: 2}
    cutoffs: {filter: 2.06,
              core: 2.67}
    valence states:
      #              energy  rcut
      - 4s(2.00)    -5.291   1.164
      - 4p(0.00)    -1.326   1.058
      - 3d(6.00)    -7.505   1.058
      -  s          21.920   1.164
      -  p          25.885   1.058
      -  d          19.706   1.058

[...]

  Cr:
    name: Chromium
    id: 33f258bda2ca9f93018e70263a35547b
    Z: 24.0
    valence: 6
    core: 18
    charge: 0.0
    file: /home/c.zeng/usr/data/gpaw-setups-0.9.20000/Cr.PBE.gz
    compensation charges: {type: gauss,
                           rc: 0.35,
                           lmax: 2}
    cutoffs: {filter: 2.14,
              core: 3.04}
    valence states:
      #              energy  rcut
      - 4s(1.00)    -4.007   1.164
      - 4p(0.00)    -0.989   1.217
      - 3d(5.00)    -2.913   1.111
      -  s          23.205   1.164
      -  p          26.223   1.217
      -  d          24.299   1.111

[...]

  Ni:
    name: Nickel
    id: 0d9f38a9d6e76a2886f07bb4381f212b
    Z: 28.0
    valence: 16
    core: 12
    charge: 0.0
    file: /home/c.zeng/usr/data/gpaw-setups-0.9.20000/Ni.PBE.gz
    compensation charges: {type: gauss,
                           rc: 0.36,
                           lmax: 2}
    cutoffs: {filter: 2.14,
              core: 1.98}
    valence states:
      #              energy  rcut
      - 4s(2.00)    -5.642   1.164
      - 3p(6.00)   -71.394   1.207
      - 4p(0.00)    -1.226   1.207
      - 3d(8.00)    -8.875   1.138
      -  s          21.570   1.164
      -  d          18.337   1.138

    # Using partial waves for Ni as LCAO basis

Reference energy: -3846758.590871  # eV

Spin-polarized calculation.
Magnetic moment: 151.200000

Convergence criteria:
 Maximum [total energy] change in last 3 cyles: 0.0001 eV / electron
 Maximum integral of absolute [dens]ity change: 0.0001 electrons / valence electron
 Maximum integral of absolute [eigenst]ate change: 4e-08 eV^2 / valence electron
 Maximum number of scf [iter]ations: 666
 (Square brackets indicate name in SCF output, whereas a 'c' in
 the SCF output indicates the quantity has converged.)

Symmetries present (total): 1

  ( 1  0  0)
  ( 0  1  0)
  ( 0  0  1)

8 k-points: 2 x 2 x 2 Monkhorst-Pack grid
4 k-points in the irreducible part of the Brillouin zone
       k-points in crystal coordinates                weights
   0:     0.25000000   -0.25000000   -0.25000000          2/8
   1:     0.25000000   -0.25000000    0.25000000          2/8
   2:     0.25000000    0.25000000   -0.25000000          2/8
   3:     0.25000000    0.25000000    0.25000000          2/8

Wave functions: Plane wave expansion
  Cutoff energy: 350.000 eV
  Number of coefficients (min, max): 17755, 17755
  Pulay-stress correction: 0.000000 eV/Ang^3 (de/decut=0.000000)
  Using FFTW library
  ScaLapack parameters: grid=1x1, blocksize=None
  Wavefunction extrapolation:
    Improved wavefunction reuse through dual PAW basis

Occupation numbers: Fermi-Dirac:
  width: 0.1000  # eV

Eigensolver
   Davidson(niter=2)

Densities:
  Coarse grid: 48*48*48 grid
  Fine grid: 96*96*96 grid
  Total Charge: 0.000000

Density mixing:
  Method: difference
  Backend: pulay
  Linear mixing parameter: 0.05
  old densities: 5
  Damping of long wavelength oscillations: 50

Hamiltonian:
  XC and Coulomb potentials evaluated on a 96*96*96 grid
  Using the PBE Exchange-Correlation functional
  External potential:
    NoExternalPotential

XC parameters: PBE with 2 nearest neighbor stencil

Total number of cores used: 30
Parallelization over k-points: 2
Domain decomposition: 5 x 3 x 1

Number of atoms: 108
Number of atomic orbitals: 1053
Number of bands in calculation: 727
Number of valence electrons: 1053
Bands to converge: occupied

... initialized

Initializing position-dependent things.

Density initialized from atomic densities
Creating initial wave functions:
  727 bands from LCAO basis set

       /|  Cr       Ni      Cr    |
      / |   CrFe     Cr           |
     /  |       Co      Fe       Fe
    /   |Cr      CFe       Co     Ni
   /    | Co       Cr       CFe   |
  /  CCo|  FeNi     CoNi          |
 *    CrCr    FeNi   FeNiCo       |
 |      |CoNi   FeFeNi  CoCrFe   Ni
 |      | CrCo     CoCrFeNiNiNi   |
 |    Co|  CoFeNi   CoCrFe   CrCo |
 |      Cr    CrNiNi CrCrNi     Ni|
 |      |FeFe  CoFeCr   FeCrFe   Ni
 |      .-FeCo-----NiNiFe--CrNi---Co
 |   Nio     Fe       Cr         /
 |    NiCo     Cor     CNie     /
 |   /    Co               Ni  /
 |  /      Fe       Fe    NiFe/
 | / Fe     Cr       NiCr    /
 |/            Co       Cr  /
 *--------Co------Co-------*

Positions:
   0 Co    -0.012479   -0.003723   10.616104    ( 0.0000,  0.0000,  2.1000)
   1 Fe    -0.011321    1.761305    1.763386    ( 0.0000,  0.0000,  2.1000)
   2 Fe     1.758365    0.001326    1.769011    ( 0.0000,  0.0000,  2.0000)
   3 Co     1.752686    1.779222   10.610436    ( 0.0000,  0.0000,  2.0000)
   4 Co     3.541196    0.004726   10.616104    ( 0.0000,  0.0000,  0.0000)
   5 Fe     3.534711    1.782438    1.778999    ( 0.0000,  0.0000,  0.0000)
   6 Cr     5.305717   10.600629    1.767950    ( 0.0000,  0.0000,  2.1000)
   7 Co     5.324780    1.765604   10.614618    ( 0.0000,  0.0000,  0.0000)
   8 Co     7.089121    0.014598   10.619926    ( 0.0000,  0.0000,  2.0000)
   9 Fe     7.085279    1.771219    1.773543    ( 0.0000,  0.0000,  1.5000)
  10 Cr     8.850554    0.011470    1.768756    ( 0.0000,  0.0000,  1.5000)
  11 Cr     8.842381    1.777333   10.615680    ( 0.0000,  0.0000,  2.1000)
  12 Fe    10.590535    3.538203   -0.001956    ( 0.0000,  0.0000,  0.0000)
  13 Cr    10.624277    5.310674    1.769786    ( 0.0000,  0.0000,  2.0000)
  14 Co     1.761379    3.535623    1.784572    ( 0.0000,  0.0000,  0.0000)
  15 Cr     1.770200    5.301408   10.611753    ( 0.0000,  0.0000,  2.0000)
  16 Cr     3.556003    3.551407   10.618333    ( 0.0000,  0.0000,  1.5000)
  17 Fe     3.539370    5.311290    1.775199    ( 0.0000,  0.0000,  2.1000)
  18 Cr     5.320142    3.545059    1.779678    ( 0.0000,  0.0000,  1.5000)
  19 Fe     5.306980    5.314654   10.602720    ( 0.0000,  0.0000,  0.0000)
  20 Ni     7.081585    3.529127   10.614725    ( 0.0000,  0.0000,  2.1000)
  21 Cr     7.069241    5.303361    1.781271    ( 0.0000,  0.0000,  1.5000)
  22 Fe     8.841447    3.542671    1.781600    ( 0.0000,  0.0000,  2.1000)
  23 Ni     8.850893    5.290379    0.000220    ( 0.0000,  0.0000,  0.0000)
  24 Ni     0.005868    7.083411   10.614937    ( 0.0000,  0.0000,  2.0000)
  25 Ni    10.601043    8.849694    1.772960    ( 0.0000,  0.0000,  2.1000)
  26 Fe     1.773713    7.072329    1.777184    ( 0.0000,  0.0000,  0.0000)
  27 Cr     1.755520    8.842943   10.608324    ( 0.0000,  0.0000,  0.0000)
  28 Fe     3.544009    7.063116   10.610489    ( 0.0000,  0.0000,  2.0000)
  29 Co     3.542225    8.826820    1.785580    ( 0.0000,  0.0000,  0.0000)
  30 Ni     5.309835    7.081776    1.776600    ( 0.0000,  0.0000,  2.1000)
  31 Ni     5.331945    8.840321   10.604673    ( 0.0000,  0.0000,  2.1000)
  32 Co     7.068434    7.069028   10.623110    ( 0.0000,  0.0000,  0.0000)
  33 Fe     7.083750    8.846796    1.774509    ( 0.0000,  0.0000,  1.5000)
  34 Cr     8.841404    7.058180    1.777173    ( 0.0000,  0.0000,  1.5000)
  35 Cr     8.835524    8.853600   10.611753    ( 0.0000,  0.0000,  0.0000)
  36 Ni    -0.009351   10.618864    3.531070    ( 0.0000,  0.0000,  2.0000)
  37 Fe    10.602508    1.764818    5.300452    ( 0.0000,  0.0000,  1.5000)
  38 Ni     1.756720    0.001379    5.295867    ( 0.0000,  0.0000,  0.0000)
  39 Co     1.766506    1.767154    3.539222    ( 0.0000,  0.0000,  2.0000)
  40 Co     3.539742    0.013881    3.542873    ( 0.0000,  0.0000,  2.0000)
  41 Fe     3.548944    1.788658    5.306237    ( 0.0000,  0.0000,  2.1000)
  42 Fe     5.320174   -0.004685    5.301386    ( 0.0000,  0.0000,  0.0000)
  43 Co     5.316862    1.765551    3.538935    ( 0.0000,  0.0000,  2.0000)
  44 Ni     7.081086   -0.000289    3.531325    ( 0.0000,  0.0000,  2.0000)
  45 Cr     7.072902    1.777407    5.300537    ( 0.0000,  0.0000,  2.0000)
  46 Fe     8.840544    0.012372    5.307851    ( 0.0000,  0.0000,  1.5000)
  47 Ni     8.833592    1.767928    3.534318    ( 0.0000,  0.0000,  2.1000)
  48 Ni    -0.004066    3.525285    3.545951    ( 0.0000,  0.0000,  0.0000)
  49 Co    -0.001689    5.317934    5.307787    ( 0.0000,  0.0000,  1.5000)
  50 Cr     1.769043    3.555101    5.297279    ( 0.0000,  0.0000,  2.0000)
  51 Fe     1.773692    5.305929    3.538266    ( 0.0000,  0.0000,  2.1000)
  52 Co     3.542746    3.537364    3.547575    ( 0.0000,  0.0000,  2.1000)
  53 Fe     3.548477    5.306927    5.301153    ( 0.0000,  0.0000,  2.0000)
  54 Ni     5.316246    3.553031    5.303637    ( 0.0000,  0.0000,  2.0000)
  55 Fe     5.303286    5.303531    3.542385    ( 0.0000,  0.0000,  1.5000)
  56 Ni     7.074962    3.533023    3.537215    ( 0.0000,  0.0000,  1.5000)
  57 Cr     7.066046    5.306046    5.300081    ( 0.0000,  0.0000,  2.0000)
  58 Ni     8.834526    3.538160    5.294530    ( 0.0000,  0.0000,  2.1000)
  59 Cr     8.846255    5.300452    3.537672    ( 0.0000,  0.0000,  1.5000)
[...]
  93 Ni     7.071130    5.304220    8.839313    ( 0.0000,  0.0000,  1.5000)
  94 Co     8.837997    3.524669    8.843389    ( 0.0000,  0.0000,  1.5000)
  95 Cr     8.833772    5.299051    7.076862    ( 0.0000,  0.0000,  0.0000)
  96 Cr     0.012168    7.080333    7.083835    ( 0.0000,  0.0000,  1.5000)
  97 Fe    -0.017034    8.848707    8.843941    ( 0.0000,  0.0000,  2.1000)
  98 Co     1.777938    7.075503    8.840194    ( 0.0000,  0.0000,  2.0000)
  99 Fe     1.758800    8.840035    7.069803    ( 0.0000,  0.0000,  0.0000)
 100 Fe     3.549921    7.066194    7.070090    ( 0.0000,  0.0000,  2.1000)
 101 Co     3.553137    8.839111    8.836776    ( 0.0000,  0.0000,  0.0000)
 102 Cr     5.304189    7.079929    8.840215    ( 0.0000,  0.0000,  2.0000)
 103 Co     5.321946    8.832180    7.082997    ( 0.0000,  0.0000,  2.1000)
 104 Ni     7.057077    7.072149    7.064167    ( 0.0000,  0.0000,  1.5000)
 105 Fe     7.082402    8.855500    8.837487    ( 0.0000,  0.0000,  2.1000)
 106 Co     8.846786    7.077881    8.846732    ( 0.0000,  0.0000,  0.0000)
 107 Cr     8.839313    8.848272    7.075153    ( 0.0000,  0.0000,  0.0000)

Unit cell:
           periodic     x           y           z      points  spacing
  1. axis:    yes   10.614300    0.000000    0.000000    48     0.2211
  2. axis:    yes    0.000000   10.614300    0.000000    48     0.2211
  3. axis:    yes    0.000000    0.000000   10.614300    48     0.2211

  Lengths:  10.614300  10.614300  10.614300
  Angles:   90.000000  90.000000  90.000000

Effective grid spacing dv^(1/3) = 0.2211

     iter     time        total  log10-change:  magmom
                         energy  eigst   dens
iter:   1 14:59:23  -942.403572                  +151.0826
iter:   2 15:02:26  -969.361555  -0.56  -1.38    +113.9003
iter:   3 15:05:30  -911.566875  -0.98  -1.28    +85.7089
iter:   4 15:08:33  -893.686224  -1.49  -1.42    +70.3816
iter:   5 15:11:36  -892.136440  -1.92  -1.51    +62.3535
iter:   6 15:14:38  -894.414423  -2.03  -1.53    +58.7172
iter:   7 15:17:42  -891.406378  -1.88  -1.54    +56.8708
iter:   8 15:20:45  -887.587012  -1.82  -1.60    +55.7577
iter:   9 15:23:49  -892.406134  -1.84  -1.78    +55.5669
iter:  10 15:26:52  -889.672483  -2.19  -1.79    +54.9481
iter:  11 15:29:51  -889.427526  -2.36  -1.86    +55.2135
iter:  12 15:32:54  -888.286536  -2.68  -1.89    +55.8009
iter:  13 15:35:58  -888.461477  -2.76  -1.95    +56.3587
iter:  14 15:39:01  -888.023967  -2.98  -1.97    +56.7795
iter:  15 15:42:05  -890.228377  -2.72  -2.03    +57.5545
iter:  16 15:45:08  -890.621862  -2.50  -1.97    +58.1139
iter:  17 15:48:11  -891.820445  -2.47  -1.98    +58.2874
iter:  18 15:51:15  -890.096092  -2.60  -1.97    +58.6205
iter:  19 15:54:18  -890.381276  -2.68  -2.06    +59.0708
iter:  20 15:57:21  -889.218457  -2.92  -2.06    +59.7344
iter:  21 16:00:25  -889.527470  -3.33  -2.17    +60.3263
iter:  22 16:03:28  -889.629608  -3.19  -2.19    +60.8334
iter:  23 16:06:32  -890.042657  -3.26  -2.20    +61.4036
iter:  24 16:09:36  -890.157621  -3.14  -2.19    +61.8246
iter:  25 16:12:39  -890.703687  -2.98  -2.23    +62.1936
iter:  26 16:15:43  -890.756895  -2.88  -2.20    +62.3878
iter:  27 16:18:46  -891.003459  -2.92  -2.24    +62.7247
iter:  28 16:21:50  -890.860819  -2.94  -2.23    +63.1450
iter:  29 16:24:53  -890.470918  -3.22  -2.25    +63.2854
iter:  30 16:27:55  -890.362435  -3.55  -2.37    +63.6193
iter:  31 16:30:59  -890.319955  -3.98  -2.41    +63.7999
iter:  32 16:34:01  -890.416692c -4.07  -2.45    +64.1423
iter:  33 16:37:02  -890.573272  -3.84  -2.46    +64.3299
iter:  34 16:40:06  -890.924977  -3.35  -2.46    +64.4390
iter:  35 16:43:10  -890.939207  -3.25  -2.41    +64.5431
iter:  36 16:46:13  -891.164508  -3.22  -2.45    +64.6447
iter:  37 16:49:17  -890.976980  -3.22  -2.43    +64.7425
iter:  38 16:52:21  -890.925855  -3.42  -2.49    +64.8334
iter:  39 16:55:24  -890.723753  -3.78  -2.53    +64.6889
iter:  40 16:58:27  -890.710992  -4.44  -2.71    +64.8346
iter:  41 17:01:30  -890.740661c -4.62  -2.79    +64.9409
iter:  42 17:04:33  -890.775172c -4.46  -2.80    +65.0419
iter:  43 17:07:34  -890.853989  -4.07  -2.82    +64.9574
iter:  44 17:10:36  -890.865036c -4.05  -2.81    +65.0090
iter:  45 17:13:40  -890.864236c -4.10  -2.89    +64.9992
iter:  46 17:16:43  -890.850667c -4.19  -2.93    +64.8820
iter:  47 17:19:47  -890.845851c -4.39  -2.99    +64.8664
iter:  48 17:22:51  -890.842492c -4.57  -3.09    +64.8334
iter:  49 17:25:54  -890.838934c -4.88  -3.19    +64.8450
iter:  50 17:28:57  -890.840426c -5.27  -3.27    +64.7780
iter:  51 17:32:01  -890.844899c -5.31  -3.37    +64.7218
iter:  52 17:35:03  -890.848318c -5.47  -3.39    +64.6876
iter:  53 17:38:04  -890.852555c -5.31  -3.41    +64.6080
iter:  54 17:41:05  -890.858287c -5.20  -3.48    +64.5018
iter:  55 17:44:08  -890.860096c -5.58  -3.47    +64.4820
iter:  56 17:47:12  -890.866307c -5.09  -3.53    +64.3984
iter:  57 17:50:14  -890.863239c -5.40  -3.45    +64.4182
iter:  58 17:53:17  -890.864160c -5.54  -3.62    +64.3968
iter:  59 17:56:20  -890.864695c -5.87  -3.78    +64.3593
iter:  60 17:59:23  -890.866223c -5.95  -3.83    +64.3337
iter:  61 18:02:26  -890.867674c -5.95  -3.83    +64.2944
iter:  62 18:05:30  -890.872816c -5.05  -3.83    +64.1671
iter:  63 18:08:33  -890.875651c -5.09  -3.67    +64.0915
iter:  64 18:11:34  -890.876573c -5.46  -3.64    +64.0668
iter:  65 18:14:36  -890.877234c -5.76  -3.66    +64.0519
iter:  66 18:17:39  -890.878288c -5.87  -3.65    +64.0387
iter:  67 18:20:41  -890.880265c -5.53  -3.59    +64.0468
iter:  68 18:23:44  -890.879399c -5.55  -3.47    +64.0414
iter:  69 18:26:48  -890.878090c -5.97  -3.60    +64.0416
iter:  70 18:29:51  -890.878920c -5.79  -3.72    +64.0340
iter:  71 18:32:54  -890.878946c -5.63  -3.67    +64.0257
iter:  72 18:35:58  -890.878159c -5.98  -3.72    +64.0105
iter:  73 18:39:00  -890.878301c -6.34  -3.83    +64.0057
iter:  74 18:42:04  -890.878155c -6.37  -3.93    +64.0001
iter:  75 18:45:07  -890.878357c -6.43  -3.90    +63.9864
iter:  76 18:48:10  -890.878249c -6.52  -3.96    +63.9821
iter:  77 18:51:13  -890.878344c -6.62  -3.97    +63.9795
iter:  78 18:54:16  -890.878688c -6.51  -4.01c   +63.9754
iter:  79 18:57:20  -890.878276c -6.45  -3.96    +63.9695
iter:  80 19:00:22  -890.878546c -6.53  -4.00c   +63.9646
iter:  81 19:03:25  -890.878389c -6.55  -4.02c   +63.9691
iter:  82 19:06:27  -890.878714c -6.51  -4.05c   +63.9638
iter:  83 19:09:22  -890.878570c -6.84  -4.04c   +63.9575
iter:  84 19:12:06  -890.878464c -6.96  -4.10c   +63.9523
iter:  85 19:14:50  -890.878704c -6.96  -4.16c   +63.9536
iter:  86 19:17:35  -890.878656c -7.50c -4.15c   +63.9507

Converged after 86 iterations.

Dipole moment: (6.198469, -1.913020, 0.645995) |e|*Ang

Total magnetic moment: (0.000000, 0.000000, 63.950726)
Local magnetic moments:
   0 Co ( 0.000000,  0.000000,  0.473414)
   1 Fe ( 0.000000,  0.000000,  2.132563)
   2 Fe ( 0.000000,  0.000000,  2.428154)
   3 Co ( 0.000000,  0.000000,  1.015841)
   4 Co ( 0.000000,  0.000000,  0.998974)
   5 Fe ( 0.000000,  0.000000,  2.115438)
   6 Cr ( 0.000000,  0.000000, -1.590964)
   7 Co ( 0.000000,  0.000000,  0.908572)
   8 Co ( 0.000000,  0.000000,  0.717378)
   9 Fe ( 0.000000,  0.000000,  2.011708)
  10 Cr ( 0.000000,  0.000000, -0.150704)
  11 Cr ( 0.000000,  0.000000, -1.450569)
  12 Fe ( 0.000000,  0.000000,  1.880949)
  13 Cr ( 0.000000,  0.000000, -0.601802)
  14 Co ( 0.000000,  0.000000,  1.140453)
  15 Cr ( 0.000000,  0.000000, -0.513159)
  16 Cr ( 0.000000,  0.000000, -0.400042)
  17 Fe ( 0.000000,  0.000000,  1.801240)
  18 Cr ( 0.000000,  0.000000, -1.335109)
  19 Fe ( 0.000000,  0.000000,  2.012700)
  20 Ni ( 0.000000,  0.000000,  0.238464)
  21 Cr ( 0.000000,  0.000000,  0.098901)
  22 Fe ( 0.000000,  0.000000,  1.940139)
  23 Ni ( 0.000000,  0.000000,  0.280296)
  24 Ni ( 0.000000,  0.000000,  0.187764)
  25 Ni ( 0.000000,  0.000000,  0.184855)
  26 Fe ( 0.000000,  0.000000,  2.062652)
  27 Cr ( 0.000000,  0.000000, -1.524690)
  28 Fe ( 0.000000,  0.000000,  2.134189)
  29 Co ( 0.000000,  0.000000,  1.333742)
  30 Ni ( 0.000000,  0.000000,  0.250265)
  31 Ni ( 0.000000,  0.000000,  0.276424)
  32 Co ( 0.000000,  0.000000,  1.008203)
  33 Fe ( 0.000000,  0.000000,  1.901734)
  34 Cr ( 0.000000,  0.000000,  0.696324)
  35 Cr ( 0.000000,  0.000000, -1.227235)
  36 Ni ( 0.000000,  0.000000,  0.349280)
  37 Fe ( 0.000000,  0.000000,  2.422794)
  38 Ni ( 0.000000,  0.000000,  0.597580)
  39 Co ( 0.000000,  0.000000,  1.389225)
  40 Co ( 0.000000,  0.000000,  1.358519)
  41 Fe ( 0.000000,  0.000000,  2.437490)
  42 Fe ( 0.000000,  0.000000,  2.446031)
  43 Co ( 0.000000,  0.000000,  1.155898)
  44 Ni ( 0.000000,  0.000000,  0.221118)
  45 Cr ( 0.000000,  0.000000, -1.416364)
  46 Fe ( 0.000000,  0.000000,  2.262843)
  47 Ni ( 0.000000,  0.000000,  0.298290)
  48 Ni ( 0.000000,  0.000000,  0.303301)
  49 Co ( 0.000000,  0.000000,  0.828235)
  50 Cr ( 0.000000,  0.000000, -1.876950)
  51 Fe ( 0.000000,  0.000000,  1.972877)
  52 Co ( 0.000000,  0.000000,  1.023774)
  53 Fe ( 0.000000,  0.000000,  1.934026)
  54 Ni ( 0.000000,  0.000000,  0.285697)
  55 Fe ( 0.000000,  0.000000,  1.754321)
  56 Ni ( 0.000000,  0.000000,  0.188859)
  57 Cr ( 0.000000,  0.000000,  0.234614)
  58 Ni ( 0.000000,  0.000000,  0.237045)
  59 Cr ( 0.000000,  0.000000, -0.328208)
[...]
  93 Ni ( 0.000000,  0.000000,  0.226694)
  94 Co ( 0.000000,  0.000000,  1.219154)
  95 Cr ( 0.000000,  0.000000,  0.828796)
  96 Cr ( 0.000000,  0.000000, -0.665337)
  97 Fe ( 0.000000,  0.000000,  1.717347)
  98 Co ( 0.000000,  0.000000,  1.012079)
  99 Fe ( 0.000000,  0.000000,  2.140741)
 100 Fe ( 0.000000,  0.000000,  1.995673)
 101 Co ( 0.000000,  0.000000,  0.837844)
 102 Cr ( 0.000000,  0.000000, -1.877707)
 103 Co ( 0.000000,  0.000000,  1.269340)
 104 Ni ( 0.000000,  0.000000,  0.280173)
 105 Fe ( 0.000000,  0.000000,  2.119094)
 106 Co ( 0.000000,  0.000000,  0.996588)
 107 Cr ( 0.000000,  0.000000, -1.602151)

Energy contributions relative to reference atoms: (reference = -3846758.590871)

Kinetic:       +123.250808
Potential:     -189.451539
External:        +0.000000
XC:            -862.121143
Entropy (-ST):   -4.554429
Local:          +39.720432
Free energy:   -893.155870
Extrapolated:  -890.878656

Spin contamination: 31.441664 electrons
Showing only first 2 kpts
                      Up                     Down
 Kpt  Band  Eigenvalues  Occupancy  Eigenvalues  Occupancy
  0   524      9.82972    0.99490     10.72160    0.02544
  0   525      9.83941    0.99438     10.72985    0.02348
  0   526      9.85320    0.99356     10.74048    0.02116
  0   527      9.85840    0.99322     10.75361    0.01861

  1   524      9.83486    0.99463     10.71004    0.02847
  1   525      9.84381    0.99413     10.72631    0.02430
  1   526      9.85565    0.99340     10.73658    0.02198
  1   527      9.86274    0.99292     10.74769    0.01972

Fermi level: 10.35705

No gap

Forces in eV/Ang:
  0 Co   -0.00298   -0.11991    0.00796
  1 Fe    0.27108    0.19090    0.04501
  2 Fe    0.20365   -0.29155   -0.05592
  3 Co    0.25924    0.02690   -0.15486
  4 Co    0.01742   -0.01000   -0.14524
  5 Fe    0.10233    0.08708   -0.05132
  6 Cr    0.04267    0.28297   -0.00127
  7 Co   -0.15462    0.01053    0.09722
  8 Co   -0.05913   -0.14290    0.10947
  9 Fe   -0.44444   -0.22458   -0.16454
 10 Cr   -0.06339   -0.20830    0.05099
 11 Cr   -0.19755   -0.15904   -0.07880
 12 Fe    0.46399    0.18976   -0.04531
 13 Cr   -0.06828   -0.32287    0.14965
 14 Co    0.06194    0.02470   -0.06297
 15 Cr    0.10696    0.30527    0.03800
 16 Cr   -0.41178   -0.28428   -0.11239
 17 Fe    0.05901   -0.35776    0.09887
 18 Cr   -0.14451   -0.13737    0.23083
 19 Fe   -0.12598   -0.18897    0.02415
 20 Ni   -0.02523    0.10297   -0.06447
 21 Cr    0.28981    0.28402   -0.40658
 22 Fe   -0.08951    0.14618   -0.02239
 23 Ni   -0.11144    0.19506   -0.00594
 24 Ni   -0.05763   -0.13396   -0.31332
 25 Ni   -0.03891   -0.10422   -0.00682
 26 Fe   -0.40992    0.38199    0.01139
 27 Cr    0.27656   -0.41617    0.06170
 28 Fe   -0.12750    0.26633   -0.06894
 29 Co   -0.05101    0.36236    0.02298
 30 Ni    0.04853   -0.05843    0.06228
 31 Ni   -0.21284    0.13942    0.08005
 32 Co    0.15944    0.02348    0.04420
 33 Fe   -0.21196    0.06354   -0.28123
 34 Cr    0.19311   -0.12355   -0.12502
 35 Cr    0.08442    0.16452   -0.25377
 36 Ni    0.08196   -0.01703    0.03987
 37 Fe    0.46284   -0.03191    0.07894
 38 Ni    0.17037    0.03339    0.08938
 39 Co    0.13115    0.20653   -0.05897
 40 Co   -0.05954   -0.26331   -0.04821
 41 Fe   -0.34008   -0.14153    0.01897
 42 Fe    0.17312   -0.15501    0.09140
 43 Co   -0.17342    0.14407   -0.10919
 44 Ni   -0.03218    0.05648   -0.01913
 45 Cr   -0.04160   -0.29064   -0.09380
 46 Fe   -0.31312   -0.24038   -0.07460
 47 Ni    0.04078   -0.01395   -0.09526
 48 Ni   -0.02038    0.02248   -0.12103
 49 Co    0.08435    0.04143   -0.03711
 50 Cr   -0.12079    0.15985    0.20054
 51 Fe   -0.17859   -0.33763    0.02082
 52 Co   -0.01648   -0.06902   -0.25562
 53 Fe   -0.10565   -0.15160    0.13518
 54 Ni    0.05863   -0.13651   -0.20258
 55 Fe    0.10662   -0.01415    0.10442
 56 Ni    0.08468   -0.07222    0.21552
 57 Cr    0.04402    0.10138   -0.32615
 58 Ni    0.12308    0.04452    0.00206
 59 Cr    0.27182   -0.04342    0.11507
[...]
 93 Ni    0.08825    0.02437    0.00570
 94 Co    0.18307    0.08998   -0.01318
 95 Cr    0.16098   -0.02090   -0.11686
 96 Cr    0.15842   -0.43738    0.18077
 97 Fe    0.17471   -0.10128    0.14758
 98 Co   -0.13207    0.02988   -0.01833
 99 Fe    0.23265    0.09538    0.18430
100 Fe   -0.35467    0.17375    0.29472
101 Co   -0.20638    0.20938   -0.05170
102 Cr    0.16165    0.12992   -0.03263
103 Co   -0.28299    0.13458   -0.11439
104 Ni    0.40866    0.03989    0.00613
105 Fe   -0.03728   -0.08170    0.16581
106 Co   -0.14290   -0.04021    0.09985
107 Cr   -0.19245   -0.01467    0.22334

Date: Sat Apr 15 19:17:59 2023