User:   c.zeng@d0054
Date:   Sat Apr 15 12:03:26 2023
Arch:   x86_64
Pid:    260242
CWD:    /home/c.zeng/projects/hea-corrosion/hea-mlp/data-curation/bulk-mcmc/dft-jobs/33
Python: 3.8.1
gpaw:   /home/c.zeng/usr/installs/gpaw/source/gpaw-22.8.0/gpaw
_gpaw:  /home/c.zeng/usr/installs/gpaw/source/gpaw-22.8.0/
        _gpaw.cpython-38-x86_64-linux-gnu.so
ase:    /home/c.zeng/.local/lib/python3.8/site-packages/ase-3.22.1-py3.8.egg/ase (version 3.22.1)
numpy:  /shared/centos7/python/3.8.1/lib/python3.8/site-packages/numpy (version 1.17.4)
scipy:  /shared/centos7/python/3.8.1/lib/python3.8/site-packages/scipy (version 1.4.1)
units:  Angstrom and eV
cores: 30
OpenMP: False
OMP_NUM_THREADS: 1

Input parameters:
  convergence: {energy: 0.0001}
  kpts: [2 2 2]
  maxiter: 666
  mode: {ecut: 350.0,
         name: pw}
  occupations: {fixmagmom: False,
                name: fermi-dirac,
                width: 0.1}
  spinpol: True
  xc: PBE

System changes: positions, numbers, cell, pbc, initial_charges, initial_magmoms

Initialize ...

species:
  Co:
    name: Cobalt
    id: 339d20d5b0b93d2de9531a1bee871d91
    Z: 27.0
    valence: 9
    core: 18
    charge: 0.0
    file: /home/c.zeng/usr/data/gpaw-setups-0.9.20000/Co.PBE.gz
    compensation charges: {type: gauss,
                           rc: 0.32,
                           lmax: 2}
    cutoffs: {filter: 1.87,
              core: 2.55}
    valence states:
      #              energy  rcut
      - 4s(2.00)    -5.469   1.005
      - 4p(0.00)    -1.277   1.058
      - 3d(7.00)    -8.205   1.005
      -  s          21.742   1.005
      -  p          25.934   1.058
      -  d          19.007   1.005

    # Using partial waves for Co as LCAO basis

  Fe:
    name: Iron
    id: 37abbd8d6c3c35915a9b583b742da910
    Z: 26.0
    valence: 8
    core: 18
    charge: 0.0
    file: /home/c.zeng/usr/data/gpaw-setups-0.9.20000/Fe.PBE.gz
    compensation charges: {type: gauss,
                           rc: 0.33,
                           lmax: 2}
    cutoffs: {filter: 2.06,
              core: 2.67}
    valence states:
      #              energy  rcut
      - 4s(2.00)    -5.291   1.164
      - 4p(0.00)    -1.326   1.058
      - 3d(6.00)    -7.505   1.058
      -  s          21.920   1.164
      -  p          25.885   1.058
      -  d          19.706   1.058

[...]

  Ni:
    name: Nickel
    id: 0d9f38a9d6e76a2886f07bb4381f212b
    Z: 28.0
    valence: 16
    core: 12
    charge: 0.0
    file: /home/c.zeng/usr/data/gpaw-setups-0.9.20000/Ni.PBE.gz
    compensation charges: {type: gauss,
                           rc: 0.36,
                           lmax: 2}
    cutoffs: {filter: 2.14,
              core: 1.98}
    valence states:
      #              energy  rcut
      - 4s(2.00)    -5.642   1.164
      - 3p(6.00)   -71.394   1.207
      - 4p(0.00)    -1.226   1.207
      - 3d(8.00)    -8.875   1.138
      -  s          21.570   1.164
      -  d          18.337   1.138

[...]

  Cr:
    name: Chromium
    id: 33f258bda2ca9f93018e70263a35547b
    Z: 24.0
    valence: 6
    core: 18
    charge: 0.0
    file: /home/c.zeng/usr/data/gpaw-setups-0.9.20000/Cr.PBE.gz
    compensation charges: {type: gauss,
                           rc: 0.35,
                           lmax: 2}
    cutoffs: {filter: 2.14,
              core: 3.04}
    valence states:
      #              energy  rcut
      - 4s(1.00)    -4.007   1.164
      - 4p(0.00)    -0.989   1.217
      - 3d(5.00)    -2.913   1.111
      -  s          23.205   1.164
      -  p          26.223   1.217
      -  d          24.299   1.111

    # Using partial waves for Cr as LCAO basis

Reference energy: -3846758.590871  # eV

Spin-polarized calculation.
Magnetic moment: 151.200000

Convergence criteria:
 Maximum [total energy] change in last 3 cyles: 0.0001 eV / electron
 Maximum integral of absolute [dens]ity change: 0.0001 electrons / valence electron
 Maximum integral of absolute [eigenst]ate change: 4e-08 eV^2 / valence electron
 Maximum number of scf [iter]ations: 666
 (Square brackets indicate name in SCF output, whereas a 'c' in
 the SCF output indicates the quantity has converged.)

Symmetries present (total): 1

  ( 1  0  0)
  ( 0  1  0)
  ( 0  0  1)

8 k-points: 2 x 2 x 2 Monkhorst-Pack grid
4 k-points in the irreducible part of the Brillouin zone
       k-points in crystal coordinates                weights
   0:     0.25000000   -0.25000000   -0.25000000          2/8
   1:     0.25000000   -0.25000000    0.25000000          2/8
   2:     0.25000000    0.25000000   -0.25000000          2/8
   3:     0.25000000    0.25000000    0.25000000          2/8

Wave functions: Plane wave expansion
  Cutoff energy: 350.000 eV
  Number of coefficients (min, max): 17755, 17755
  Pulay-stress correction: 0.000000 eV/Ang^3 (de/decut=0.000000)
  Using FFTW library
  ScaLapack parameters: grid=1x1, blocksize=None
  Wavefunction extrapolation:
    Improved wavefunction reuse through dual PAW basis

Occupation numbers: Fermi-Dirac:
  width: 0.1000  # eV

Eigensolver
   Davidson(niter=2)

Densities:
  Coarse grid: 48*48*48 grid
  Fine grid: 96*96*96 grid
  Total Charge: 0.000000

Density mixing:
  Method: difference
  Backend: pulay
  Linear mixing parameter: 0.05
  old densities: 5
  Damping of long wavelength oscillations: 50

Hamiltonian:
  XC and Coulomb potentials evaluated on a 96*96*96 grid
  Using the PBE Exchange-Correlation functional
  External potential:
    NoExternalPotential

XC parameters: PBE with 2 nearest neighbor stencil

Total number of cores used: 30
Parallelization over k-points: 2
Domain decomposition: 5 x 3 x 1

Number of atoms: 108
Number of atomic orbitals: 1053
Number of bands in calculation: 727
Number of valence electrons: 1053
Bands to converge: occupied

... initialized

Initializing position-dependent things.

Density initialized from atomic densities
Creating initial wave functions:
  727 bands from LCAO basis set

       /|  Cr       Cr      Ni    |
      / |   CrFe     Ni           |
     /  |       Co      Fe       Fe
    /   |Ni      CFe       Co     Ni
   /    | Co       Cr       NFe   |
  /  CCo|  FeNi     CoNi          |
 *    CrNi    FeNi   FeCrCo       |
 |      |CoNi   FeFeNi  CoNiFe   Cr
 |      | CrCo     CoCrFeNiCrCr   |
 |    Co|  CoFeNi   CoCrFe   NiCo |
 |      Cr    CrCrNi NiNiNi     Cr|
 |      |FeFe  CoFeCr   FeCrFe   Ni
 |      .-FeCo-----NiCrFe--NiNi---Co
 |   Cro     Fe       Ni         /
 |    NiCo     Coi     CNie     /
 |   /    Co               Cr  /
 |  /      Fe       Fe    CrFe/
 | / Fe     Cr       CrCr    /
 |/            Co       Cr  /
 *--------Co------Co-------*

Positions:
   0 Co    -0.012479   -0.003723   10.616104    ( 0.0000,  0.0000,  2.1000)
   1 Fe    -0.011321    1.761305    1.763386    ( 0.0000,  0.0000,  2.1000)
   2 Fe     1.758365    0.001326    1.769011    ( 0.0000,  0.0000,  2.0000)
   3 Co     1.752686    1.779222   10.610436    ( 0.0000,  0.0000,  2.0000)
   4 Co     3.541196    0.004726   10.616104    ( 0.0000,  0.0000,  0.0000)
   5 Fe     3.534711    1.782438    1.778999    ( 0.0000,  0.0000,  0.0000)
   6 Ni     5.305717   10.600629    1.767950    ( 0.0000,  0.0000,  2.1000)
   7 Co     5.324780    1.765604   10.614618    ( 0.0000,  0.0000,  0.0000)
   8 Co     7.089121    0.014598   10.619926    ( 0.0000,  0.0000,  2.0000)
   9 Fe     7.085279    1.771219    1.773543    ( 0.0000,  0.0000,  1.5000)
  10 Cr     8.850554    0.011470    1.768756    ( 0.0000,  0.0000,  1.5000)
  11 Cr     8.842381    1.777333   10.615680    ( 0.0000,  0.0000,  2.1000)
  12 Fe    10.590535    3.538203   -0.001956    ( 0.0000,  0.0000,  0.0000)
  13 Cr    10.624277    5.310674    1.769786    ( 0.0000,  0.0000,  2.0000)
  14 Co     1.761379    3.535623    1.784572    ( 0.0000,  0.0000,  0.0000)
  15 Ni     1.770200    5.301408   10.611753    ( 0.0000,  0.0000,  2.0000)
  16 Cr     3.556003    3.551407   10.618333    ( 0.0000,  0.0000,  1.5000)
  17 Fe     3.539370    5.311290    1.775199    ( 0.0000,  0.0000,  2.1000)
  18 Ni     5.320142    3.545059    1.779678    ( 0.0000,  0.0000,  1.5000)
  19 Fe     5.306980    5.314654   10.602720    ( 0.0000,  0.0000,  0.0000)
  20 Cr     7.081585    3.529127   10.614725    ( 0.0000,  0.0000,  2.1000)
  21 Ni     7.069241    5.303361    1.781271    ( 0.0000,  0.0000,  1.5000)
  22 Fe     8.841447    3.542671    1.781600    ( 0.0000,  0.0000,  2.1000)
  23 Cr     8.850893    5.290379    0.000220    ( 0.0000,  0.0000,  0.0000)
  24 Ni     0.005868    7.083411   10.614937    ( 0.0000,  0.0000,  2.0000)
  25 Ni    10.601043    8.849694    1.772960    ( 0.0000,  0.0000,  2.1000)
  26 Fe     1.773713    7.072329    1.777184    ( 0.0000,  0.0000,  0.0000)
  27 Cr     1.755520    8.842943   10.608324    ( 0.0000,  0.0000,  0.0000)
  28 Fe     3.544009    7.063116   10.610489    ( 0.0000,  0.0000,  2.0000)
  29 Co     3.542225    8.826820    1.785580    ( 0.0000,  0.0000,  0.0000)
  30 Ni     5.309835    7.081776    1.776600    ( 0.0000,  0.0000,  2.1000)
  31 Cr     5.331945    8.840321   10.604673    ( 0.0000,  0.0000,  2.1000)
  32 Co     7.068434    7.069028   10.623110    ( 0.0000,  0.0000,  0.0000)
  33 Fe     7.083750    8.846796    1.774509    ( 0.0000,  0.0000,  1.5000)
  34 Ni     8.841404    7.058180    1.777173    ( 0.0000,  0.0000,  1.5000)
  35 Ni     8.835524    8.853600   10.611753    ( 0.0000,  0.0000,  0.0000)
  36 Cr    -0.009351   10.618864    3.531070    ( 0.0000,  0.0000,  2.0000)
  37 Fe    10.602508    1.764818    5.300452    ( 0.0000,  0.0000,  1.5000)
  38 Cr     1.756720    0.001379    5.295867    ( 0.0000,  0.0000,  0.0000)
  39 Co     1.766506    1.767154    3.539222    ( 0.0000,  0.0000,  2.0000)
  40 Co     3.539742    0.013881    3.542873    ( 0.0000,  0.0000,  2.0000)
  41 Fe     3.548944    1.788658    5.306237    ( 0.0000,  0.0000,  2.1000)
  42 Fe     5.320174   -0.004685    5.301386    ( 0.0000,  0.0000,  0.0000)
  43 Co     5.316862    1.765551    3.538935    ( 0.0000,  0.0000,  2.0000)
  44 Ni     7.081086   -0.000289    3.531325    ( 0.0000,  0.0000,  2.0000)
  45 Cr     7.072902    1.777407    5.300537    ( 0.0000,  0.0000,  2.0000)
  46 Fe     8.840544    0.012372    5.307851    ( 0.0000,  0.0000,  1.5000)
  47 Ni     8.833592    1.767928    3.534318    ( 0.0000,  0.0000,  2.1000)
  48 Ni    -0.004066    3.525285    3.545951    ( 0.0000,  0.0000,  0.0000)
  49 Co    -0.001689    5.317934    5.307787    ( 0.0000,  0.0000,  1.5000)
  50 Cr     1.769043    3.555101    5.297279    ( 0.0000,  0.0000,  2.0000)
  51 Fe     1.773692    5.305929    3.538266    ( 0.0000,  0.0000,  2.1000)
  52 Co     3.542746    3.537364    3.547575    ( 0.0000,  0.0000,  2.1000)
  53 Fe     3.548477    5.306927    5.301153    ( 0.0000,  0.0000,  2.0000)
  54 Cr     5.316246    3.553031    5.303637    ( 0.0000,  0.0000,  2.0000)
  55 Fe     5.303286    5.303531    3.542385    ( 0.0000,  0.0000,  1.5000)
  56 Cr     7.074962    3.533023    3.537215    ( 0.0000,  0.0000,  1.5000)
  57 Cr     7.066046    5.306046    5.300081    ( 0.0000,  0.0000,  2.0000)
  58 Ni     8.834526    3.538160    5.294530    ( 0.0000,  0.0000,  2.1000)
  59 Cr     8.846255    5.300452    3.537672    ( 0.0000,  0.0000,  1.5000)
[...]
  93 Ni     7.071130    5.304220    8.839313    ( 0.0000,  0.0000,  1.5000)
  94 Co     8.837997    3.524669    8.843389    ( 0.0000,  0.0000,  1.5000)
  95 Ni     8.833772    5.299051    7.076862    ( 0.0000,  0.0000,  0.0000)
  96 Cr     0.012168    7.080333    7.083835    ( 0.0000,  0.0000,  1.5000)
  97 Fe    -0.017034    8.848707    8.843941    ( 0.0000,  0.0000,  2.1000)
  98 Co     1.777938    7.075503    8.840194    ( 0.0000,  0.0000,  2.0000)
  99 Fe     1.758800    8.840035    7.069803    ( 0.0000,  0.0000,  0.0000)
 100 Fe     3.549921    7.066194    7.070090    ( 0.0000,  0.0000,  2.1000)
 101 Co     3.553137    8.839111    8.836776    ( 0.0000,  0.0000,  0.0000)
 102 Cr     5.304189    7.079929    8.840215    ( 0.0000,  0.0000,  2.0000)
 103 Co     5.321946    8.832180    7.082997    ( 0.0000,  0.0000,  2.1000)
 104 Cr     7.057077    7.072149    7.064167    ( 0.0000,  0.0000,  1.5000)
 105 Fe     7.082402    8.855500    8.837487    ( 0.0000,  0.0000,  2.1000)
 106 Co     8.846786    7.077881    8.846732    ( 0.0000,  0.0000,  0.0000)
 107 Ni     8.839313    8.848272    7.075153    ( 0.0000,  0.0000,  0.0000)

Unit cell:
           periodic     x           y           z      points  spacing
  1. axis:    yes   10.614300    0.000000    0.000000    48     0.2211
  2. axis:    yes    0.000000   10.614300    0.000000    48     0.2211
  3. axis:    yes    0.000000    0.000000   10.614300    48     0.2211

  Lengths:  10.614300  10.614300  10.614300
  Angles:   90.000000  90.000000  90.000000

Effective grid spacing dv^(1/3) = 0.2211

     iter     time        total  log10-change:  magmom
                         energy  eigst   dens
iter:   1 12:09:50  -943.319773                  +151.0884
iter:   2 12:12:49  -955.171405  -0.59  -1.36    +115.7712
iter:   3 12:15:49  -914.299230  -0.96  -1.32    +87.8109
iter:   4 12:18:49  -893.697289  -1.49  -1.40    +73.4828
iter:   5 12:21:49  -890.109100  -1.98  -1.50    +65.3648
iter:   6 12:24:43  -891.042781  -2.12  -1.53    +60.9717
iter:   7 12:27:42  -897.645853  -1.75  -1.57    +58.6888
iter:   8 12:30:42  -887.996745  -1.77  -1.56    +57.5613
iter:   9 12:33:42  -889.152849  -1.87  -1.76    +57.0520
iter:  10 12:36:41  -887.481527  -2.27  -1.86    +56.5411
iter:  11 12:39:41  -887.516802  -2.53  -1.92    +56.5785
iter:  12 12:42:39  -886.892326  -2.85  -1.94    +57.2209
iter:  13 12:45:35  -887.722869  -2.85  -2.01    +57.7769
iter:  14 12:48:35  -889.263032  -2.70  -2.04    +58.3435
iter:  15 12:51:35  -889.481016  -2.59  -2.06    +58.7590
iter:  16 12:54:33  -889.771689  -2.75  -2.06    +59.3552
iter:  17 12:57:33  -889.363090  -2.75  -2.09    +59.4364
iter:  18 13:00:32  -889.010532  -2.97  -2.18    +59.7157
iter:  19 13:03:29  -889.046763  -3.05  -2.24    +60.4156
iter:  20 13:06:27  -889.014952c -3.32  -2.30    +60.8238
iter:  21 13:09:27  -889.491586  -3.03  -2.37    +61.2282
iter:  22 13:12:27  -889.448079  -3.14  -2.35    +61.3348
iter:  23 13:15:26  -889.342949  -3.23  -2.37    +62.1779
iter:  24 13:18:25  -889.501073  -3.34  -2.48    +62.4113
iter:  25 13:21:24  -889.354387  -3.60  -2.47    +62.5102
iter:  26 13:24:23  -889.459786  -3.76  -2.61    +62.6765
iter:  27 13:27:20  -889.474999  -4.09  -2.62    +62.9477
iter:  28 13:29:51  -889.575957  -3.88  -2.65    +63.1431
iter:  29 13:32:55  -889.730340  -3.67  -2.67    +63.3540
iter:  30 13:35:58  -889.658551  -4.00  -2.61    +63.5183
iter:  31 13:39:01  -889.709159c -3.76  -2.76    +63.6997
iter:  32 13:42:05  -889.725177c -3.88  -2.78    +63.7172
iter:  33 13:45:08  -889.686833c -4.05  -2.80    +63.6119
iter:  34 13:48:11  -889.705510c -4.39  -2.97    +63.6461
iter:  35 13:51:14  -889.709372c -4.59  -2.97    +63.6966
iter:  36 13:54:17  -889.719400c -4.73  -3.03    +63.6345
iter:  37 13:57:20  -889.726322c -4.91  -3.03    +63.6145
iter:  38 14:00:23  -889.733693c -4.78  -3.07    +63.6296
iter:  39 14:03:26  -889.751199c -4.59  -3.11    +63.6185
iter:  40 14:06:30  -889.750032c -4.61  -3.08    +63.5294
iter:  41 14:09:33  -889.754524c -4.76  -3.19    +63.4581
iter:  42 14:12:35  -889.757449c -4.80  -3.18    +63.5164
iter:  43 14:15:38  -889.762413c -4.94  -3.30    +63.5014
iter:  44 14:18:41  -889.764542c -5.27  -3.29    +63.4632
iter:  45 14:21:46  -889.772056c -5.38  -3.37    +63.4333
iter:  46 14:24:49  -889.780092c -5.45  -3.38    +63.4334
iter:  47 14:27:52  -889.766219c -5.29  -3.35    +63.4051
iter:  48 14:30:55  -889.774936c -5.42  -3.39    +63.4124
iter:  49 14:33:58  -889.777395c -5.57  -3.35    +63.4150
iter:  50 14:37:01  -889.790102c -5.23  -3.36    +63.3957
iter:  51 14:40:03  -889.791430c -5.58  -3.28    +63.4012
iter:  52 14:43:07  -889.798191c -5.30  -3.29    +63.4137
iter:  53 14:46:10  -889.813276c -5.02  -3.32    +63.3830
iter:  54 14:49:13  -889.819283c -5.10  -3.28    +63.3887
iter:  55 14:52:16  -889.828027c -4.88  -3.23    +63.3676
iter:  56 14:55:19  -889.828370c -5.25  -3.19    +63.3666
iter:  57 14:58:22  -889.835248c -5.33  -3.25    +63.3847
iter:  58 15:01:25  -889.865083c -4.60  -3.26    +63.4282
iter:  59 15:04:28  -889.852009c -4.84  -3.14    +63.3876
iter:  60 15:07:30  -889.861118c -4.56  -3.13    +63.4340
iter:  61 15:10:33  -889.854264c -5.07  -3.13    +63.4199
iter:  62 15:13:35  -889.858276c -5.23  -3.22    +63.4484
iter:  63 15:16:38  -889.867542c -4.91  -3.22    +63.4551
iter:  64 15:19:40  -889.865100c -4.97  -3.19    +63.4437
iter:  65 15:22:44  -889.869893c -5.04  -3.23    +63.4014
iter:  66 15:25:47  -889.867536c -5.29  -3.23    +63.4096
iter:  67 15:28:50  -889.870369c -5.32  -3.27    +63.4337
iter:  68 15:31:53  -889.876106c -4.96  -3.29    +63.4102
iter:  69 15:34:56  -889.873319c -5.06  -3.22    +63.3751
iter:  70 15:37:58  -889.880218c -4.88  -3.30    +63.3858
iter:  71 15:41:01  -889.876558c -5.00  -3.25    +63.4175
iter:  72 15:44:03  -889.876026c -5.01  -3.31    +63.3831
iter:  73 15:47:06  -889.871716c -5.51  -3.34    +63.3420
iter:  74 15:50:08  -889.872661c -5.58  -3.48    +63.3599
iter:  75 15:53:11  -889.872240c -6.13  -3.47    +63.3730
iter:  76 15:56:13  -889.872859c -5.64  -3.57    +63.3679
iter:  77 15:59:15  -889.873536c -5.85  -3.50    +63.3621
iter:  78 16:02:18  -889.877051c -5.28  -3.58    +63.3757
iter:  79 16:05:21  -889.875693c -5.40  -3.42    +63.3842
iter:  80 16:08:25  -889.876302c -5.35  -3.52    +63.3514
iter:  81 16:11:28  -889.873081c -5.62  -3.51    +63.3190
iter:  82 16:14:31  -889.874087c -5.87  -3.72    +63.3261
iter:  83 16:17:33  -889.873272c -6.57  -3.74    +63.3435
iter:  84 16:20:36  -889.873875c -6.52  -3.87    +63.3419
iter:  85 16:23:40  -889.873670c -6.57  -3.86    +63.3438
iter:  86 16:26:42  -889.874168c -6.52  -3.88    +63.3535
iter:  87 16:29:45  -889.875560c -5.89  -3.93    +63.3566
iter:  88 16:32:47  -889.874076c -6.06  -3.74    +63.3479
iter:  89 16:35:51  -889.874522c -6.21  -4.00c   +63.3286
iter:  90 16:38:54  -889.874291c -6.57  -4.02c   +63.3390
iter:  91 16:41:57  -889.874528c -6.73  -4.13c   +63.3447
iter:  92 16:45:00  -889.874384c -7.32  -4.19c   +63.3408
iter:  93 16:48:04  -889.874468c -7.49c -4.38c   +63.3393

Converged after 93 iterations.

Dipole moment: (6.577268, -2.228736, 0.757491) |e|*Ang

Total magnetic moment: (0.000000, 0.000000, 63.339338)
Local magnetic moments:
   0 Co ( 0.000000,  0.000000,  0.839644)
   1 Fe ( 0.000000,  0.000000,  1.916388)
   2 Fe ( 0.000000,  0.000000,  2.164130)
   3 Co ( 0.000000,  0.000000,  1.270256)
   4 Co ( 0.000000,  0.000000,  1.246581)
   5 Fe ( 0.000000,  0.000000,  2.402767)
   6 Ni ( 0.000000,  0.000000,  0.462888)
   7 Co ( 0.000000,  0.000000,  1.247435)
   8 Co ( 0.000000,  0.000000,  1.196323)
   9 Fe ( 0.000000,  0.000000,  2.035074)
  10 Cr ( 0.000000,  0.000000, -0.998251)
  11 Cr ( 0.000000,  0.000000, -1.050567)
  12 Fe ( 0.000000,  0.000000,  2.031821)
  13 Cr ( 0.000000,  0.000000,  0.081187)
  14 Co ( 0.000000,  0.000000,  1.285726)
  15 Ni ( 0.000000,  0.000000,  0.377960)
  16 Cr ( 0.000000,  0.000000, -2.052951)
  17 Fe ( 0.000000,  0.000000,  2.033587)
  18 Ni ( 0.000000,  0.000000,  0.290075)
  19 Fe ( 0.000000,  0.000000,  2.186930)
  20 Cr ( 0.000000,  0.000000, -1.169969)
  21 Ni ( 0.000000,  0.000000,  0.132010)
  22 Fe ( 0.000000,  0.000000,  1.392710)
  23 Cr ( 0.000000,  0.000000, -1.026238)
  24 Ni ( 0.000000,  0.000000,  0.327021)
  25 Ni ( 0.000000,  0.000000,  0.179515)
  26 Fe ( 0.000000,  0.000000,  1.976578)
  27 Cr ( 0.000000,  0.000000, -1.642230)
  28 Fe ( 0.000000,  0.000000,  2.133390)
  29 Co ( 0.000000,  0.000000,  1.299456)
  30 Ni ( 0.000000,  0.000000,  0.353384)
  31 Cr ( 0.000000,  0.000000, -1.717709)
  32 Co ( 0.000000,  0.000000,  1.077838)
  33 Fe ( 0.000000,  0.000000,  2.413410)
  34 Ni ( 0.000000,  0.000000,  0.123364)
  35 Ni ( 0.000000,  0.000000,  0.401674)
  36 Cr ( 0.000000,  0.000000, -1.048967)
  37 Fe ( 0.000000,  0.000000,  2.007540)
  38 Cr ( 0.000000,  0.000000, -1.351917)
  39 Co ( 0.000000,  0.000000,  1.097245)
  40 Co ( 0.000000,  0.000000,  1.362244)
  41 Fe ( 0.000000,  0.000000,  2.173859)
  42 Fe ( 0.000000,  0.000000,  2.400807)
  43 Co ( 0.000000,  0.000000,  1.108436)
  44 Ni ( 0.000000,  0.000000,  0.422885)
  45 Cr ( 0.000000,  0.000000,  0.446541)
  46 Fe ( 0.000000,  0.000000,  2.067718)
  47 Ni ( 0.000000,  0.000000,  0.169644)
  48 Ni ( 0.000000,  0.000000,  0.300242)
  49 Co ( 0.000000,  0.000000,  0.480902)
  50 Cr ( 0.000000,  0.000000, -1.617469)
  51 Fe ( 0.000000,  0.000000,  1.653422)
  52 Co ( 0.000000,  0.000000,  1.047098)
  53 Fe ( 0.000000,  0.000000,  1.725939)
  54 Cr ( 0.000000,  0.000000, -1.141414)
  55 Fe ( 0.000000,  0.000000,  1.853399)
  56 Cr ( 0.000000,  0.000000, -1.067540)
  57 Cr ( 0.000000,  0.000000,  0.474844)
  58 Ni ( 0.000000,  0.000000,  0.105825)
  59 Cr ( 0.000000,  0.000000, -0.111711)
[...]
  93 Ni ( 0.000000,  0.000000,  0.099309)
  94 Co ( 0.000000,  0.000000,  0.570072)
  95 Ni ( 0.000000,  0.000000,  0.016485)
  96 Cr ( 0.000000,  0.000000, -0.940544)
  97 Fe ( 0.000000,  0.000000,  2.080189)
  98 Co ( 0.000000,  0.000000,  1.243090)
  99 Fe ( 0.000000,  0.000000,  1.689355)
 100 Fe ( 0.000000,  0.000000,  1.922876)
 101 Co ( 0.000000,  0.000000,  0.869454)
 102 Cr ( 0.000000,  0.000000, -1.258250)
 103 Co ( 0.000000,  0.000000,  1.084339)
 104 Cr ( 0.000000,  0.000000, -1.095381)
 105 Fe ( 0.000000,  0.000000,  2.126441)
 106 Co ( 0.000000,  0.000000,  1.148608)
 107 Ni ( 0.000000,  0.000000,  0.347906)

Energy contributions relative to reference atoms: (reference = -3846758.590871)

Kinetic:       +122.968910
Potential:     -189.601891
External:        +0.000000
XC:            -860.835687
Entropy (-ST):   -4.715038
Local:          +39.951719
Free energy:   -892.231987
Extrapolated:  -889.874468

Spin contamination: 30.852761 electrons
Showing only first 2 kpts
                      Up                     Down
 Kpt  Band  Eigenvalues  Occupancy  Eigenvalues  Occupancy
  0   524      9.83363    0.99433     10.70278    0.02864
  0   525      9.84966    0.99336     10.71321    0.02588
  0   526      9.86133    0.99254     10.72398    0.02330
  0   527      9.87066    0.99182     10.73210    0.02152

  1   524      9.83448    0.99429     10.70851    0.02709
  1   525      9.84430    0.99370     10.72341    0.02343
  1   526      9.85723    0.99284     10.72971    0.02203
  1   527      9.87279    0.99164     10.74910    0.01822

Fermi level: 10.35040

No gap

Forces in eV/Ang:
  0 Co   -0.03110    0.01793    0.03019
  1 Fe    0.20816    0.22800    0.11547
  2 Fe    0.06144   -0.31828   -0.07304
  3 Co    0.03441   -0.07335   -0.01437
  4 Co   -0.04904   -0.16498   -0.06104
  5 Fe    0.20907    0.09756   -0.01869
  6 Ni   -0.00542    0.09471   -0.01719
  7 Co   -0.02811    0.07090    0.02109
  8 Co    0.00125   -0.13032    0.04627
  9 Fe   -0.32869   -0.14636    0.03810
 10 Cr   -0.11731   -0.00893   -0.08145
 11 Cr    0.11010    0.23268   -0.38464
 12 Fe    0.23813    0.17795   -0.09079
 13 Cr    0.16245   -0.41594    0.10762
 14 Co   -0.07106    0.05670   -0.07440
 15 Ni   -0.19187    0.04643    0.03622
 16 Cr   -0.27599   -0.18429    0.15857
 17 Fe   -0.09126   -0.43605    0.11226
 18 Ni   -0.14403   -0.08783    0.05565
 19 Fe    0.24247   -0.06261   -0.01838
 20 Cr   -0.13764   -0.07872    0.07635
 21 Ni    0.13301    0.09220   -0.12116
 22 Fe   -0.10892    0.03301   -0.20388
 23 Cr    0.11006    0.12404   -0.09409
 24 Ni   -0.11511   -0.19315   -0.05325
 25 Ni    0.16715   -0.01319    0.14172
 26 Fe   -0.03407    0.38756   -0.06752
 27 Cr    0.34631   -0.22081    0.30309
 28 Fe    0.04489    0.38835   -0.04008
 29 Co   -0.02293    0.26056   -0.01932
 30 Ni   -0.03316   -0.02651   -0.15330
 31 Cr   -0.32517    0.40919    0.31400
 32 Co    0.08282    0.17601   -0.14831
 33 Fe   -0.13677   -0.05985   -0.32771
 34 Ni   -0.08370   -0.04426   -0.01005
 35 Ni    0.04359   -0.00583   -0.07120
 36 Cr    0.08872   -0.25409   -0.08447
 37 Fe    0.34077   -0.07316    0.10656
 38 Cr    0.26543   -0.09948    0.16503
 39 Co    0.04982    0.23806    0.00697
 40 Co   -0.03880   -0.28067   -0.08441
 41 Fe   -0.21978    0.01771    0.04502
 42 Fe   -0.06995   -0.14602    0.03624
 43 Co   -0.09137    0.11987    0.06597
 44 Ni    0.03204    0.10724    0.01987
 45 Cr   -0.06580    0.36305   -0.01911
 46 Fe   -0.14161   -0.24559   -0.05329
 47 Ni    0.03714   -0.00675    0.01376
 48 Ni    0.06755    0.10320   -0.14862
 49 Co    0.14817    0.02201   -0.00234
 50 Cr    0.52284   -0.01722   -0.29055
 51 Fe   -0.30984   -0.27135    0.20661
 52 Co    0.05625   -0.00254   -0.04748
 53 Fe   -0.04514   -0.20942    0.18133
 54 Cr   -0.53524   -0.34299    0.07710
 55 Fe    0.04480   -0.03483   -0.05458
 56 Cr   -0.00481   -0.15105   -0.44698
 57 Cr    0.01314    0.07229   -0.03658
 58 Ni    0.02876    0.06474    0.23934
 59 Cr    0.32840    0.05158   -0.10748
[...]
 93 Ni    0.09218    0.02558    0.06813
 94 Co   -0.02709    0.11110    0.20249
 95 Ni    0.23316    0.08343    0.09421
 96 Cr    0.00861   -0.28344   -0.03204
 97 Fe    0.19232   -0.09841    0.03777
 98 Co   -0.08027    0.02060   -0.02171
 99 Fe    0.44082    0.22428    0.29353
100 Fe   -0.08310    0.17325    0.26666
101 Co   -0.12868    0.10149   -0.02260
102 Cr   -0.04211   -0.36467   -0.18134
103 Co   -0.16945   -0.01816   -0.10121
104 Cr    0.47510    0.23708   -0.08121
105 Fe   -0.05490   -0.26260    0.30217
106 Co   -0.15426   -0.17469   -0.21342
107 Ni   -0.01697    0.07963   -0.10643

Date: Sat Apr 15 16:48:26 2023