User:   c.zeng@d0036
Date:   Mon Apr 17 04:23:32 2023
Arch:   x86_64
Pid:    188182
CWD:    /home/c.zeng/projects/hea-corrosion/hea-mlp/data-curation/bulk-mcmc/dft-jobs/209
Python: 3.8.1
gpaw:   /home/c.zeng/usr/installs/gpaw/source/gpaw-22.8.0/gpaw
_gpaw:  /home/c.zeng/usr/installs/gpaw/source/gpaw-22.8.0/
        _gpaw.cpython-38-x86_64-linux-gnu.so
ase:    /home/c.zeng/.local/lib/python3.8/site-packages/ase-3.22.1-py3.8.egg/ase (version 3.22.1)
numpy:  /home/c.zeng/.local/lib/python3.8/site-packages/numpy (version 1.24.2)
scipy:  /home/c.zeng/.local/lib/python3.8/site-packages/scipy (version 1.10.1)
units:  Angstrom and eV
cores: 30
OpenMP: False
OMP_NUM_THREADS: 1

Input parameters:
  convergence: {energy: 0.0001}
  kpts: [2 2 2]
  maxiter: 666
  mode: {ecut: 350.0,
         name: pw}
  occupations: {fixmagmom: False,
                name: fermi-dirac,
                width: 0.1}
  spinpol: True
  xc: PBE

System changes: positions, numbers, cell, pbc, initial_charges, initial_magmoms

Initialize ...

species:
  Cr:
    name: Chromium
    id: 33f258bda2ca9f93018e70263a35547b
    Z: 24.0
    valence: 6
    core: 18
    charge: 0.0
    file: /home/c.zeng/usr/data/gpaw-setups-0.9.20000/Cr.PBE.gz
    compensation charges: {type: gauss,
                           rc: 0.35,
                           lmax: 2}
    cutoffs: {filter: 2.14,
              core: 3.04}
    valence states:
      #              energy  rcut
      - 4s(1.00)    -4.007   1.164
      - 4p(0.00)    -0.989   1.217
      - 3d(5.00)    -2.913   1.111
      -  s          23.205   1.164
      -  p          26.223   1.217
      -  d          24.299   1.111

    # Using partial waves for Cr as LCAO basis

  Al:
    name: Aluminium
    id: 0292cae29f5d6237e50f6abdd43a7bdd
    Z: 13.0
    valence: 3
    core: 10
    charge: 0.0
    file: /home/c.zeng/usr/data/gpaw-setups-0.9.20000/Al.PBE.gz
    compensation charges: {type: gauss,
                           rc: 0.34,
                           lmax: 2}
    cutoffs: {filter: 1.91,
              core: 2.36}
    valence states:
      #              energy  rcut
      - 3s(2.00)    -7.753   1.085
      - 3p(1.00)    -2.712   1.085
      -  s          19.459   1.085
      -  p          24.499   1.085
      -  d           0.000   1.085

[...]

  Ni:
    name: Nickel
    id: 0d9f38a9d6e76a2886f07bb4381f212b
    Z: 28.0
    valence: 16
    core: 12
    charge: 0.0
    file: /home/c.zeng/usr/data/gpaw-setups-0.9.20000/Ni.PBE.gz
    compensation charges: {type: gauss,
                           rc: 0.36,
                           lmax: 2}
    cutoffs: {filter: 2.14,
              core: 1.98}
    valence states:
      #              energy  rcut
      - 4s(2.00)    -5.642   1.164
      - 3p(6.00)   -71.394   1.207
      - 4p(0.00)    -1.226   1.207
      - 3d(8.00)    -8.875   1.138
      -  s          21.570   1.164
      -  d          18.337   1.138

[...]

  Co:
    name: Cobalt
    id: 339d20d5b0b93d2de9531a1bee871d91
    Z: 27.0
    valence: 9
    core: 18
    charge: 0.0
    file: /home/c.zeng/usr/data/gpaw-setups-0.9.20000/Co.PBE.gz
    compensation charges: {type: gauss,
                           rc: 0.32,
                           lmax: 2}
    cutoffs: {filter: 1.87,
              core: 2.55}
    valence states:
      #              energy  rcut
      - 4s(2.00)    -5.469   1.005
      - 4p(0.00)    -1.277   1.058
      - 3d(7.00)    -8.205   1.005
      -  s          21.742   1.005
      -  p          25.934   1.058
      -  d          19.007   1.005

[...]

  Fe:
    name: Iron
    id: 37abbd8d6c3c35915a9b583b742da910
    Z: 26.0
    valence: 8
    core: 18
    charge: 0.0
    file: /home/c.zeng/usr/data/gpaw-setups-0.9.20000/Fe.PBE.gz
    compensation charges: {type: gauss,
                           rc: 0.33,
                           lmax: 2}
    cutoffs: {filter: 2.06,
              core: 2.67}
    valence states:
      #              energy  rcut
      - 4s(2.00)    -5.291   1.164
      - 4p(0.00)    -1.326   1.058
      - 3d(6.00)    -7.505   1.058
      -  s          21.920   1.164
      -  p          25.885   1.058
      -  d          19.706   1.058

    # Using partial waves for Fe as LCAO basis

Reference energy: -3235165.067515  # eV

Spin-polarized calculation.
Magnetic moment: 121.100000

Convergence criteria:
 Maximum [total energy] change in last 3 cyles: 0.0001 eV / electron
 Maximum integral of absolute [dens]ity change: 0.0001 electrons / valence electron
 Maximum integral of absolute [eigenst]ate change: 4e-08 eV^2 / valence electron
 Maximum number of scf [iter]ations: 666
 (Square brackets indicate name in SCF output, whereas a 'c' in
 the SCF output indicates the quantity has converged.)

Symmetries present (total): 1

  ( 1  0  0)
  ( 0  1  0)
  ( 0  0  1)

8 k-points: 2 x 2 x 2 Monkhorst-Pack grid
4 k-points in the irreducible part of the Brillouin zone
       k-points in crystal coordinates                weights
   0:     0.25000000   -0.25000000   -0.25000000          2/8
   1:     0.25000000   -0.25000000    0.25000000          2/8
   2:     0.25000000    0.25000000   -0.25000000          2/8
   3:     0.25000000    0.25000000    0.25000000          2/8

Wave functions: Plane wave expansion
  Cutoff energy: 350.000 eV
  Number of coefficients (min, max): 19084, 19084
  Pulay-stress correction: 0.000000 eV/Ang^3 (de/decut=0.000000)
  Using FFTW library
  ScaLapack parameters: grid=1x1, blocksize=None
  Wavefunction extrapolation:
    Improved wavefunction reuse through dual PAW basis

Occupation numbers: Fermi-Dirac:
  width: 0.1000  # eV

Eigensolver
   Davidson(niter=2)

Densities:
  Coarse grid: 48*48*48 grid
  Fine grid: 96*96*96 grid
  Total Charge: 0.000000

Density mixing:
  Method: difference
  Backend: pulay
  Linear mixing parameter: 0.05
  old densities: 5
  Damping of long wavelength oscillations: 50

Hamiltonian:
  XC and Coulomb potentials evaluated on a 96*96*96 grid
  Using the PBE Exchange-Correlation functional
  External potential:
    NoExternalPotential

XC parameters: PBE with 2 nearest neighbor stencil

Total number of cores used: 30
Parallelization over k-points: 2
Domain decomposition: 5 x 3 x 1

Number of atoms: 108
Number of atomic orbitals: 933
Number of bands in calculation: 624
Number of valence electrons: 912
Bands to converge: occupied

... initialized

Initializing position-dependent things.

Density initialized from atomic densities
Creating initial wave functions:
  624 bands from LCAO basis set

        .--------Al----------------.
       /|           Fe             |
      / |    FeFe     Cr           |
     / Cr       Ni       Al        |
    /   |Fe      NiCo       Fe     |
   /    | NiNi      ACo            |
  /    Co  FeiAlAl    Co Fe  CoAl  |
 *      Fe     AlCoAl   NiFe     Cr|
 |      |FeCr   NiFeFe   AlCrNi   Co
 |      | CoNi   AlCoCoAl NiCrFe   |
 |     Fe  Al CoCo  NiNi Ni  CrNi  |
 |      Cr  Ni CrCrCo CoNiCoAl   Fe|
 |      |CrCo   CoAlAl   CoNiFe   Fe
 |      .-FeCr-----CrCr-Al--NiFe---.
 |     Al  Cr CoCr    Al Co  Cr Ni/
 |    / Co              Cr       Cr
 |   /           Ali      CrFe  /
 |  /      Cr       Fe     NiAl/
 | /                   Fe     /i
 *--------------------------Cr

Positions:
   0 Cr    10.797848    0.093654    0.085777    ( 0.0000,  0.0000,  0.0000)
   1 Al    10.831824    1.844742    1.870716    ( 0.0000,  0.0000,  2.0000)
   2 Ni     1.786803   10.847372    1.827335    ( 0.0000,  0.0000,  0.0000)
   3 Co     1.769614    1.870531   -0.031264    ( 0.0000,  0.0000,  0.0000)
   4 Al     3.620857   10.822050   10.833629    ( 0.0000,  0.0000,  1.5000)
   5 Cr     3.571246    1.883176    1.708402    ( 0.0000,  0.0000,  0.0000)
   6 Co     5.521103   10.788063    1.666217    ( 0.0000,  0.0000,  0.0000)
   7 Al     5.520831    1.813973   10.830911    ( 0.0000,  0.0000,  1.5000)
   8 Al     7.330846    0.011025   10.815657    ( 0.0000,  0.0000,  2.0000)
   9 Fe     7.282018    1.809483    1.793250    ( 0.0000,  0.0000,  2.1000)
  10 Fe     9.029996    0.022005    1.811918    ( 0.0000,  0.0000,  1.5000)
  11 Fe     9.007196    1.868639   10.825714    ( 0.0000,  0.0000,  2.0000)
  12 Ni    10.861310    3.649723    0.014171    ( 0.0000,  0.0000,  2.0000)
  13 Ni    10.867442    5.463468    1.819235    ( 0.0000,  0.0000,  2.1000)
  14 Co     1.756088    3.650267    1.845949    ( 0.0000,  0.0000,  0.0000)
  15 Fe     1.790358    5.439092   10.869084    ( 0.0000,  0.0000,  2.1000)
  16 Ni     3.687842    3.622792   -0.049287    ( 0.0000,  0.0000,  2.0000)
  17 Co     3.667347    5.391145    1.745368    ( 0.0000,  0.0000,  0.0000)
  18 Al     5.497977    3.634415    1.792370    ( 0.0000,  0.0000,  2.0000)
  19 Ni     5.524908    5.448029    0.002551    ( 0.0000,  0.0000,  2.0000)
  20 Co     7.223340    3.611877   10.834270    ( 0.0000,  0.0000,  0.0000)
  21 Al     7.217762    5.474830    1.807776    ( 0.0000,  0.0000,  2.1000)
  22 Cr     9.073442    3.654344    1.775148    ( 0.0000,  0.0000,  0.0000)
  23 Ni     9.008740    5.418608    0.007692    ( 0.0000,  0.0000,  2.0000)
  24 Cr    10.859190    7.178720    0.014480    ( 0.0000,  0.0000,  1.5000)
  25 Fe    -0.018106    8.970948    1.875391    ( 0.0000,  0.0000,  0.0000)
  26 Fe     1.817615    7.224025    1.802546    ( 0.0000,  0.0000,  1.5000)
  27 Cr     1.880729    8.993464   10.874031    ( 0.0000,  0.0000,  0.0000)
  28 Fe     3.684428    7.260447   -0.001356    ( 0.0000,  0.0000,  2.0000)
  29 Co     3.612616    9.025636    1.761807    ( 0.0000,  0.0000,  1.5000)
  30 Cr     5.481440    7.275114    1.811211    ( 0.0000,  0.0000,  1.5000)
  31 Fe     5.461261    9.048153   10.833988    ( 0.0000,  0.0000,  1.5000)
  32 Cr     7.245704    7.257881    0.056891    ( 0.0000,  0.0000,  2.1000)
  33 Co     7.301969    9.004609    1.790315    ( 0.0000,  0.0000,  0.0000)
  34 Ni     9.029343    7.181775    1.815549    ( 0.0000,  0.0000,  2.0000)
  35 Cr     9.030561    9.042010    0.020232    ( 0.0000,  0.0000,  1.5000)
  36 Fe    -0.031046    0.001947    3.645701    ( 0.0000,  0.0000,  2.0000)
  37 Fe    10.825910    1.804351    5.434602    ( 0.0000,  0.0000,  2.1000)
  38 Ni     1.743552   10.849296    5.484376    ( 0.0000,  0.0000,  0.0000)
  39 Al     1.769755    1.791891    3.636068    ( 0.0000,  0.0000,  1.5000)
  40 Al     3.516667   10.719828    3.663227    ( 0.0000,  0.0000,  0.0000)
  41 Co     3.644244    1.785205    5.586728    ( 0.0000,  0.0000,  0.0000)
  42 Al     5.484778   10.815439    5.504022    ( 0.0000,  0.0000,  0.0000)
  43 Cr     5.457934    1.842230    3.658769    ( 0.0000,  0.0000,  0.0000)
  44 Ni     7.360615   10.815439    3.672229    ( 0.0000,  0.0000,  0.0000)
  45 Al     7.266884    1.811614    5.485528    ( 0.0000,  0.0000,  2.1000)
  46 Al     9.077986    0.023590    5.491921    ( 0.0000,  0.0000,  0.0000)
  47 Co     9.066788    1.824226    3.671175    ( 0.0000,  0.0000,  1.5000)
  48 Fe    -0.047135    3.649615    3.617291    ( 0.0000,  0.0000,  2.0000)
  49 Ni    10.809264    5.435993    5.379805    ( 0.0000,  0.0000,  2.0000)
  50 Cr     1.752316    3.624989    5.344676    ( 0.0000,  0.0000,  0.0000)
  51 Cr     1.805786    5.472046    3.619389    ( 0.0000,  0.0000,  2.1000)
  52 Cr     3.649408    3.633491    3.631251    ( 0.0000,  0.0000,  2.1000)
  53 Co     3.657628    5.433797    5.434015    ( 0.0000,  0.0000,  1.5000)
  54 Cr     5.413368    3.672642    5.480309    ( 0.0000,  0.0000,  1.5000)
  55 Al     5.413835    5.465588    3.639666    ( 0.0000,  0.0000,  2.1000)
  56 Cr     7.223449    3.731734    3.720829    ( 0.0000,  0.0000,  0.0000)
  57 Ni     7.220557    5.483180    5.485572    ( 0.0000,  0.0000,  0.0000)
  58 Co     9.069039    3.623673    5.469720    ( 0.0000,  0.0000,  1.5000)
  59 Ni     9.064766    5.503837    3.636731    ( 0.0000,  0.0000,  0.0000)
[...]
  93 Co     7.214631    5.385893    9.048577    ( 0.0000,  0.0000,  2.1000)
  94 Fe     8.994291    3.655975    9.039237    ( 0.0000,  0.0000,  1.5000)
  95 Cr     9.006577    5.423262    7.223296    ( 0.0000,  0.0000,  2.0000)
  96 Cr    -0.070637    7.291956    7.110419    ( 0.0000,  0.0000,  0.0000)
  97 Cr     0.073012    9.104570    9.068375    ( 0.0000,  0.0000,  0.0000)
  98 Ni     1.863247    7.257381    9.054785    ( 0.0000,  0.0000,  2.0000)
  99 Fe     1.858343    9.053708    7.225808    ( 0.0000,  0.0000,  2.1000)
 100 Al     3.683906    7.292456    7.235550    ( 0.0000,  0.0000,  2.0000)
 101 Ni     3.628218    9.069550    9.051262    ( 0.0000,  0.0000,  2.1000)
 102 Co     5.530605    7.331890    9.040129    ( 0.0000,  0.0000,  0.0000)
 103 Al     5.476232    9.097209    7.250467    ( 0.0000,  0.0000,  2.0000)
 104 Ni     7.256827    7.264242    7.208456    ( 0.0000,  0.0000,  2.1000)
 105 Al     7.272548    9.136437    9.056861    ( 0.0000,  0.0000,  1.5000)
 106 Fe     8.936493    7.190875    9.109767    ( 0.0000,  0.0000,  0.0000)
 107 Co     8.994682    9.112169    7.218480    ( 0.0000,  0.0000,  0.0000)

Unit cell:
           periodic     x           y           z      points  spacing
  1. axis:    yes   10.872400    0.000000    0.000000    48     0.2265
  2. axis:    yes    0.000000   10.872400    0.000000    48     0.2265
  3. axis:    yes    0.000000    0.000000   10.872400    48     0.2265

  Lengths:  10.872400  10.872400  10.872400
  Angles:   90.000000  90.000000  90.000000

Effective grid spacing dv^(1/3) = 0.2265

     iter     time        total  log10-change:  magmom
                         energy  eigst   dens
iter:   1 04:26:35  -924.924740                  +120.1322
iter:   2 04:27:46  -862.565336  -0.28  -1.23    +80.3501
iter:   3 04:28:57  -848.373884  -0.70  -1.23    +48.8184
iter:   4 04:30:08  -816.120976  -1.17  -1.26    +43.1302
iter:   5 04:31:19  -809.094461  -1.66  -1.36    +40.3414
iter:   6 04:32:31  -811.005908  -1.73  -1.41    +39.5888
iter:   7 04:33:44  -806.877860  -1.55  -1.43    +38.9956
iter:   8 04:34:58  -805.642697  -1.71  -1.50    +39.5968
iter:   9 04:36:11  -810.239043  -1.68  -1.58    +40.2466
iter:  10 04:37:25  -802.757236  -1.85  -1.56    +40.2846
iter:  11 04:38:38  -803.933219  -2.11  -1.74    +41.4984
iter:  12 04:39:52  -801.990860  -2.42  -1.74    +42.8793
iter:  13 04:41:06  -803.374636  -2.43  -1.85    +44.9173
iter:  14 04:42:19  -803.113680  -2.42  -1.84    +45.9880
iter:  15 04:43:33  -803.772749  -2.43  -1.91    +47.4118
iter:  16 04:44:47  -804.858687  -2.38  -1.94    +48.7404
iter:  17 04:46:01  -804.245389  -2.46  -1.93    +49.8881
iter:  18 04:47:14  -803.583651  -2.74  -2.00    +50.8176
iter:  19 04:48:28  -804.121312  -2.72  -2.10    +52.0048
iter:  20 04:49:42  -803.716817  -2.94  -2.08    +52.6879
iter:  21 04:50:55  -803.887649  -3.00  -2.17    +53.8649
iter:  22 04:52:09  -804.091650  -3.15  -2.19    +54.7610
iter:  23 04:53:22  -804.284070  -3.06  -2.21    +55.8023
iter:  24 04:54:36  -804.256397  -3.21  -2.23    +56.2835
iter:  25 04:55:50  -804.539394  -3.15  -2.29    +57.0684
iter:  26 04:57:03  -804.503502  -3.18  -2.26    +57.5825
iter:  27 04:58:17  -804.700110  -3.16  -2.34    +58.1221
iter:  28 04:59:30  -804.627510  -3.34  -2.32    +58.4785
iter:  29 05:00:44  -804.821881  -3.22  -2.40    +58.9258
iter:  30 05:01:58  -804.673765  -3.55  -2.35    +59.2987
iter:  31 05:03:11  -804.767122  -3.65  -2.45    +59.7514
iter:  32 05:04:25  -804.807804  -3.78  -2.47    +60.0669
iter:  33 05:05:39  -804.866954  -3.69  -2.49    +60.2869
iter:  34 05:06:53  -804.871430c -3.91  -2.49    +60.4886
iter:  35 05:08:06  -805.039326  -3.52  -2.54    +60.7492
iter:  36 05:09:20  -804.993481  -3.66  -2.48    +60.7470
iter:  37 05:10:34  -805.053058c -3.62  -2.56    +60.8475
iter:  38 05:11:48  -805.074275c -3.61  -2.56    +60.8837
iter:  39 05:13:02  -805.087929c -3.63  -2.57    +60.9453
iter:  40 05:14:15  -805.044003c -3.91  -2.63    +60.9548
iter:  41 05:15:29  -805.064562c -4.13  -2.69    +60.9623
iter:  42 05:16:43  -805.068828c -4.43  -2.72    +61.0062
iter:  43 05:17:56  -805.098846c -4.42  -2.76    +60.9968
iter:  44 05:19:10  -805.125352c -4.49  -2.77    +60.9999
iter:  45 05:20:23  -805.145206c -4.44  -2.79    +60.9624
iter:  46 05:21:37  -805.177895c -4.20  -2.85    +60.8701
iter:  47 05:22:50  -805.190041c -4.26  -2.95    +60.8644
iter:  48 05:24:04  -805.196686c -4.42  -2.99    +60.8429
iter:  49 05:25:18  -805.215059c -4.60  -3.27    +60.7738
iter:  50 05:26:29  -805.228287c -4.85  -3.30    +60.7653
iter:  51 05:27:41  -805.259038c -4.48  -3.32    +60.7549
iter:  52 05:28:54  -805.296054c -4.29  -3.29    +60.7522
iter:  53 05:30:08  -805.379860  -3.61  -3.20    +60.7867
iter:  54 05:31:22  -805.459084  -3.28  -3.07    +60.8730
iter:  55 05:32:35  -805.470868c -4.01  -2.90    +60.8864
iter:  56 05:33:49  -805.498152c -4.10  -2.88    +60.8985
iter:  57 05:35:03  -805.508775c -4.61  -2.81    +60.8771
iter:  58 05:36:16  -805.510437c -5.09  -2.79    +60.8794
iter:  59 05:37:30  -805.498437c -4.36  -2.79    +60.8445
iter:  60 05:38:44  -805.498558c -4.82  -2.79    +60.8240
iter:  61 05:39:58  -805.547547c -3.58  -2.80    +60.7191
iter:  62 05:41:12  -805.474220c -3.86  -2.67    +60.6534
iter:  63 05:42:26  -805.443926  -4.46  -2.81    +60.5146
iter:  64 05:43:40  -805.454307c -4.39  -2.96    +60.3444
iter:  65 05:44:54  -805.441746c -4.28  -2.94    +60.2839
iter:  66 05:46:07  -805.444759c -4.53  -3.07    +60.2157
iter:  67 05:47:21  -805.439876c -4.42  -3.05    +60.1484
iter:  68 05:48:35  -805.436529c -5.09  -3.16    +60.0682
iter:  69 05:49:49  -805.438517c -5.30  -3.27    +59.9898
iter:  70 05:51:02  -805.441085c -5.35  -3.29    +59.9256
iter:  71 05:52:16  -805.441524c -5.28  -3.29    +59.8814
iter:  72 05:53:30  -805.443716c -5.25  -3.35    +59.8034
iter:  73 05:54:44  -805.444741c -5.34  -3.42    +59.7715
iter:  74 05:55:58  -805.446357c -5.36  -3.48    +59.6970
iter:  75 05:57:12  -805.447804c -5.71  -3.56    +59.6603
iter:  76 05:58:26  -805.450908c -5.53  -3.57    +59.5778
iter:  77 05:59:39  -805.444651c -5.29  -3.62    +59.7402
iter:  78 06:00:53  -805.434687c -4.44  -3.66    +60.0918
iter:  79 06:02:07  -805.432941c -4.74  -3.59    +60.2627
iter:  80 06:03:21  -805.434784c -4.82  -3.52    +60.3748
iter:  81 06:04:34  -805.434748c -5.49  -3.45    +60.3458
iter:  82 06:05:48  -805.435078c -5.99  -3.44    +60.3189
iter:  83 06:07:02  -805.434749c -5.59  -3.44    +60.2511
iter:  84 06:08:16  -805.432438c -5.15  -3.44    +60.1350
iter:  85 06:09:29  -805.435671c -4.93  -3.42    +60.1682
iter:  86 06:10:43  -805.435450c -4.76  -3.28    +60.1057
iter:  87 06:11:57  -805.431549c -5.17  -3.30    +60.1126
iter:  88 06:13:11  -805.430280c -5.59  -3.48    +60.0728
iter:  89 06:14:25  -805.430846c -5.67  -3.59    +60.0592
iter:  90 06:15:39  -805.430719c -5.61  -3.63    +60.0370
iter:  91 06:16:53  -805.430793c -6.18  -3.69    +60.0286
iter:  92 06:18:07  -805.431461c -5.60  -3.70    +60.0198
iter:  93 06:19:21  -805.431551c -5.64  -3.61    +60.0039
iter:  94 06:20:34  -805.431313c -5.87  -3.74    +59.9874
iter:  95 06:21:48  -805.430851c -5.96  -3.82    +59.9724
iter:  96 06:23:02  -805.430980c -6.28  -3.83    +59.9543
iter:  97 06:24:16  -805.431371c -6.18  -4.10c   +59.9209
iter:  98 06:25:30  -805.430891c -6.56  -4.05c   +59.9544
iter:  99 06:26:44  -805.430151c -5.54  -4.18c   +60.0377
iter: 100 06:27:57  -805.429933c -6.00  -4.16c   +60.0714
iter: 101 06:29:11  -805.430158c -6.83  -4.12c   +60.0530
iter: 102 06:30:25  -805.430173c -7.14  -4.19c   +60.0433
iter: 103 06:31:39  -805.430172c -7.71c -4.22c   +60.0461

Converged after 103 iterations.

Dipole moment: (28.587304, 15.847775, 6.817800) |e|*Ang

Total magnetic moment: (0.000000, 0.000000, 60.046093)
Local magnetic moments:
   0 Cr ( 0.000000,  0.000000, -1.997434)
   1 Al ( 0.000000,  0.000000, -0.029334)
   2 Ni ( 0.000000,  0.000000,  0.107948)
   3 Co ( 0.000000,  0.000000,  1.014464)
   4 Al ( 0.000000,  0.000000, -0.021161)
   5 Cr ( 0.000000,  0.000000,  1.923805)
   6 Co ( 0.000000,  0.000000,  1.351442)
   7 Al ( 0.000000,  0.000000, -0.028920)
   8 Al ( 0.000000,  0.000000, -0.050039)
   9 Fe ( 0.000000,  0.000000,  2.114493)
  10 Fe ( 0.000000,  0.000000,  2.097995)
  11 Fe ( 0.000000,  0.000000,  2.133457)
  12 Ni ( 0.000000,  0.000000,  0.316523)
  13 Ni ( 0.000000,  0.000000,  0.349608)
  14 Co ( 0.000000,  0.000000,  1.001024)
  15 Fe ( 0.000000,  0.000000,  2.318465)
  16 Ni ( 0.000000,  0.000000,  0.312196)
  17 Co ( 0.000000,  0.000000,  0.896559)
  18 Al ( 0.000000,  0.000000, -0.034400)
  19 Ni ( 0.000000,  0.000000,  0.271125)
  20 Co ( 0.000000,  0.000000,  1.120051)
  21 Al ( 0.000000,  0.000000, -0.002840)
  22 Cr ( 0.000000,  0.000000, -2.260513)
  23 Ni ( 0.000000,  0.000000,  0.181316)
  24 Cr ( 0.000000,  0.000000, -1.637125)
  25 Fe ( 0.000000,  0.000000,  1.988313)
  26 Fe ( 0.000000,  0.000000,  2.106514)
  27 Cr ( 0.000000,  0.000000, -1.766466)
  28 Fe ( 0.000000,  0.000000,  2.216955)
  29 Co ( 0.000000,  0.000000,  0.833669)
  30 Cr ( 0.000000,  0.000000,  1.547823)
  31 Fe ( 0.000000,  0.000000,  2.031724)
  32 Cr ( 0.000000,  0.000000, -1.737086)
  33 Co ( 0.000000,  0.000000,  0.996279)
  34 Ni ( 0.000000,  0.000000,  0.139130)
  35 Cr ( 0.000000,  0.000000,  1.173196)
  36 Fe ( 0.000000,  0.000000,  2.236849)
  37 Fe ( 0.000000,  0.000000,  1.967051)
  38 Ni ( 0.000000,  0.000000,  0.288059)
  39 Al ( 0.000000,  0.000000, -0.032903)
  40 Al ( 0.000000,  0.000000, -0.013589)
  41 Co ( 0.000000,  0.000000,  1.151671)
  42 Al ( 0.000000,  0.000000, -0.010395)
  43 Cr ( 0.000000,  0.000000, -0.009409)
  44 Ni ( 0.000000,  0.000000,  0.077687)
  45 Al ( 0.000000,  0.000000, -0.016254)
  46 Al ( 0.000000,  0.000000, -0.024614)
  47 Co ( 0.000000,  0.000000,  1.109808)
  48 Fe ( 0.000000,  0.000000,  2.140028)
  49 Ni ( 0.000000,  0.000000,  0.256046)
  50 Cr ( 0.000000,  0.000000, -1.998051)
  51 Cr ( 0.000000,  0.000000, -1.436112)
  52 Cr ( 0.000000,  0.000000,  1.455673)
  53 Co ( 0.000000,  0.000000,  0.802113)
  54 Cr ( 0.000000,  0.000000, -1.407306)
  55 Al ( 0.000000,  0.000000, -0.011302)
  56 Cr ( 0.000000,  0.000000,  1.446056)
  57 Ni ( 0.000000,  0.000000,  0.199836)
  58 Co ( 0.000000,  0.000000,  1.250567)
  59 Ni ( 0.000000,  0.000000,  0.183077)
[...]
  93 Co ( 0.000000,  0.000000,  1.335030)
  94 Fe ( 0.000000,  0.000000,  2.392127)
  95 Cr ( 0.000000,  0.000000, -1.620540)
  96 Cr ( 0.000000,  0.000000, -1.922209)
  97 Cr ( 0.000000,  0.000000,  1.608550)
  98 Ni ( 0.000000,  0.000000,  0.235443)
  99 Fe ( 0.000000,  0.000000,  2.365441)
 100 Al ( 0.000000,  0.000000, -0.037688)
 101 Ni ( 0.000000,  0.000000,  0.170793)
 102 Co ( 0.000000,  0.000000,  0.975306)
 103 Al ( 0.000000,  0.000000, -0.009305)
 104 Ni ( 0.000000,  0.000000,  0.206823)
 105 Al ( 0.000000,  0.000000, -0.021996)
 106 Fe ( 0.000000,  0.000000,  2.215757)
 107 Co ( 0.000000,  0.000000,  0.675273)

Energy contributions relative to reference atoms: (reference = -3235165.067515)

Kinetic:       +270.853091
Potential:     -256.332177
External:        +0.000000
XC:            -848.972984
Entropy (-ST):   -3.988367
Local:          +31.016081
Free energy:   -807.424356
Extrapolated:  -805.430172

Spin contamination: 28.942161 electrons
Showing only first 2 kpts
                      Up                     Down
 Kpt  Band  Eigenvalues  Occupancy  Eigenvalues  Occupancy
  0   454      8.96375    0.99697      9.92669    0.02118
  0   455      8.98159    0.99638      9.93610    0.01932
  0   456      8.99334    0.99593      9.94348    0.01797
  0   457      9.01730    0.99483      9.95867    0.01547

  1   454      8.95510    0.99722      9.91224    0.02439
  1   455      8.97977    0.99645      9.92712    0.02109
  1   456      8.98723    0.99617      9.94593    0.01754
  1   457      8.99941    0.99568      9.96333    0.01478

Fermi level: 9.54337

No gap

Forces in eV/Ang:
  0 Cr    0.34783   -0.92370   -0.74232
  1 Al    0.12754    0.11061   -0.64385
  2 Ni   -0.05130    0.16582   -0.14696
  3 Co    0.06622   -0.27420   -0.15174
  4 Al   -0.36643    0.02613    0.69096
  5 Cr   -0.07425   -0.41195    0.55246
  6 Co   -0.17437    0.23218    0.96230
  7 Al   -0.23771    0.44396   -0.02099
  8 Al   -0.57329    0.06020    1.92750
  9 Fe    0.12983   -0.23518    0.88357
 10 Fe   -0.01265   -0.38120    0.45950
 11 Fe    0.59478    0.23183    0.19217
 12 Ni    0.03920   -0.28394   -0.11347
 13 Ni   -0.04630   -0.14385    0.04848
 14 Co    0.42581    0.09391   -0.17474
 15 Fe    0.32678   -0.09395    0.57363
 16 Ni   -0.28972   -0.13232    0.31167
 17 Co   -0.48308    0.46746    0.34796
 18 Al   -0.60730   -0.09015   -0.57376
 19 Ni   -0.34291   -0.00199   -0.23933
 20 Co    0.39358    0.08684   -0.25712
 21 Al    1.57073    0.02489   -0.14026
 22 Cr   -0.66865   -0.06348    0.25790
 23 Ni    0.04721   -0.02363   -0.11453
 24 Cr   -0.43073    0.98740    0.23090
 25 Fe   -0.19644    0.41968   -0.81915
 26 Fe    0.34845   -0.19863    0.07670
 27 Cr   -0.70273   -0.44172    0.15244
 28 Fe   -0.21872    0.24648   -0.02922
 29 Co    0.28424   -0.11966    0.32044
 30 Cr   -1.02880    0.73522   -0.18374
 31 Fe    0.15803   -0.41748    0.34584
 32 Cr   -0.13393    0.28808   -0.98967
 33 Co   -0.02841    0.42400    0.59125
 34 Ni    0.31512    0.57285    0.07188
 35 Cr    0.81831   -0.46117    0.72666
 36 Fe   -0.25927   -0.20765   -0.14265
 37 Fe    0.11183    0.59219   -0.27285
 38 Ni    0.69473    0.10526   -0.21520
 39 Al    0.69639   -0.03608    0.40900
 40 Al    1.66965    0.77409   -0.46411
 41 Co    0.06645    0.03575   -0.55543
 42 Al   -1.12753    1.26556   -0.73822
 43 Cr   -0.29531   -0.07926   -0.76727
 44 Ni   -0.70804    0.39169   -0.10150
 45 Al    0.35591    0.55651    0.00722
 46 Al   -0.25698   -0.36206   -0.67299
 47 Co   -0.29143    0.05231   -0.44187
 48 Fe   -0.27530    0.44879    0.33165
 49 Ni    0.34390   -0.09623    0.39473
 50 Cr    0.71258    0.36596    1.41325
 51 Cr    0.16949   -0.15020   -0.31068
 52 Cr   -0.61168   -0.18648    0.43822
 53 Co   -0.42997    0.13583    0.09137
 54 Cr   -0.41476   -0.65214    0.17088
 55 Al   -0.42626    0.88759    0.93915
 56 Cr    0.53200   -0.91065    0.18732
 57 Ni    0.35697   -0.24441   -0.15298
 58 Co    0.04532    0.49733   -0.23025
 59 Ni   -0.10360   -0.57269    0.16788
[...]
 93 Co   -0.02427    0.33762   -0.06436
 94 Fe   -0.25836   -0.24729    0.08732
 95 Cr   -0.46010   -0.23751   -0.20056
 96 Cr    0.34222    0.40933    0.42526
 97 Cr   -0.45546   -1.07935    0.65601
 98 Ni   -0.28979   -0.14645   -0.07817
 99 Fe   -0.54194    0.03366   -0.05895
100 Al   -0.64135   -0.65086   -0.25424
101 Ni    0.14169   -0.29496    0.12194
102 Co   -0.24715   -0.58690    0.43773
103 Al   -0.63091   -0.78591    0.78707
104 Ni    0.12601   -0.21339    0.53293
105 Al    0.26925   -1.98176   -0.82408
106 Fe    0.67092    0.14523   -0.74017
107 Co    0.86777   -0.59400    0.44452

Date: Mon Apr 17 06:31:56 2023