User:   c.zeng@d0143
Date:   Sat Apr  8 02:47:27 2023
Arch:   x86_64
Pid:    32316
CWD:    /home/c.zeng/projects/hea-corrosion/hea-mlp/data-curation/volume/dft-jobs/124
Python: 3.8.1
gpaw:   /home/c.zeng/usr/installs/gpaw/source/gpaw-22.8.0/gpaw
_gpaw:  /home/c.zeng/usr/installs/gpaw/source/gpaw-22.8.0/
        _gpaw.cpython-38-x86_64-linux-gnu.so
ase:    /home/c.zeng/.local/lib/python3.8/site-packages/ase-3.22.1-py3.8.egg/ase (version 3.22.1)
numpy:  /shared/centos7/python/3.8.1/lib/python3.8/site-packages/numpy (version 1.17.4)
scipy:  /shared/centos7/python/3.8.1/lib/python3.8/site-packages/scipy (version 1.4.1)
units:  Angstrom and eV
cores: 64
OpenMP: False
OMP_NUM_THREADS: 1

Input parameters:
  convergence: {energy: 0.0001}
  kpts: [2 2 2]
  maxiter: 666
  mode: {ecut: 350.0,
         name: pw}
  occupations: {fixmagmom: False,
                name: fermi-dirac,
                width: 0.1}
  spinpol: True
  xc: PBE

System changes: positions, numbers, cell, pbc, initial_charges, initial_magmoms

Initialize ...

species:
  Al:
    name: Aluminium
    id: 0292cae29f5d6237e50f6abdd43a7bdd
    Z: 13.0
    valence: 3
    core: 10
    charge: 0.0
    file: /home/c.zeng/usr/data/gpaw-setups-0.9.20000/Al.PBE.gz
    compensation charges: {type: gauss,
                           rc: 0.34,
                           lmax: 2}
    cutoffs: {filter: 1.91,
              core: 2.36}
    valence states:
      #              energy  rcut
      - 3s(2.00)    -7.753   1.085
      - 3p(1.00)    -2.712   1.085
      -  s          19.459   1.085
      -  p          24.499   1.085
      -  d           0.000   1.085

    # Using partial waves for Al as LCAO basis

  Fe:
    name: Iron
    id: 37abbd8d6c3c35915a9b583b742da910
    Z: 26.0
    valence: 8
    core: 18
    charge: 0.0
    file: /home/c.zeng/usr/data/gpaw-setups-0.9.20000/Fe.PBE.gz
    compensation charges: {type: gauss,
                           rc: 0.33,
                           lmax: 2}
    cutoffs: {filter: 2.06,
              core: 2.67}
    valence states:
      #              energy  rcut
      - 4s(2.00)    -5.291   1.164
      - 4p(0.00)    -1.326   1.058
      - 3d(6.00)    -7.505   1.058
      -  s          21.920   1.164
      -  p          25.885   1.058
      -  d          19.706   1.058

[...]

  Cr:
    name: Chromium
    id: 33f258bda2ca9f93018e70263a35547b
    Z: 24.0
    valence: 6
    core: 18
    charge: 0.0
    file: /home/c.zeng/usr/data/gpaw-setups-0.9.20000/Cr.PBE.gz
    compensation charges: {type: gauss,
                           rc: 0.35,
                           lmax: 2}
    cutoffs: {filter: 2.14,
              core: 3.04}
    valence states:
      #              energy  rcut
      - 4s(1.00)    -4.007   1.164
      - 4p(0.00)    -0.989   1.217
      - 3d(5.00)    -2.913   1.111
      -  s          23.205   1.164
      -  p          26.223   1.217
      -  d          24.299   1.111

[...]

  Ni:
    name: Nickel
    id: 0d9f38a9d6e76a2886f07bb4381f212b
    Z: 28.0
    valence: 16
    core: 12
    charge: 0.0
    file: /home/c.zeng/usr/data/gpaw-setups-0.9.20000/Ni.PBE.gz
    compensation charges: {type: gauss,
                           rc: 0.36,
                           lmax: 2}
    cutoffs: {filter: 2.14,
              core: 1.98}
    valence states:
      #              energy  rcut
      - 4s(2.00)    -5.642   1.164
      - 3p(6.00)   -71.394   1.207
      - 4p(0.00)    -1.226   1.207
      - 3d(8.00)    -8.875   1.138
      -  s          21.570   1.164
      -  d          18.337   1.138

[...]

  Co:
    name: Cobalt
    id: 339d20d5b0b93d2de9531a1bee871d91
    Z: 27.0
    valence: 9
    core: 18
    charge: 0.0
    file: /home/c.zeng/usr/data/gpaw-setups-0.9.20000/Co.PBE.gz
    compensation charges: {type: gauss,
                           rc: 0.32,
                           lmax: 2}
    cutoffs: {filter: 1.87,
              core: 2.55}
    valence states:
      #              energy  rcut
      - 4s(2.00)    -5.469   1.005
      - 4p(0.00)    -1.277   1.058
      - 3d(7.00)    -8.205   1.005
      -  s          21.742   1.005
      -  p          25.934   1.058
      -  d          19.007   1.005

    # Using partial waves for Co as LCAO basis

Reference energy: -3235165.067515  # eV

Spin-polarized calculation.
Magnetic moment: 121.100000

Convergence criteria:
 Maximum [total energy] change in last 3 cyles: 0.0001 eV / electron
 Maximum integral of absolute [dens]ity change: 0.0001 electrons / valence electron
 Maximum integral of absolute [eigenst]ate change: 4e-08 eV^2 / valence electron
 Maximum number of scf [iter]ations: 666
 (Square brackets indicate name in SCF output, whereas a 'c' in
 the SCF output indicates the quantity has converged.)

Symmetries present (total): 1

  ( 1  0  0)
  ( 0  1  0)
  ( 0  0  1)

8 k-points: 2 x 2 x 2 Monkhorst-Pack grid
4 k-points in the irreducible part of the Brillouin zone
       k-points in crystal coordinates                weights
   0:     0.25000000   -0.25000000   -0.25000000          2/8
   1:     0.25000000   -0.25000000    0.25000000          2/8
   2:     0.25000000    0.25000000   -0.25000000          2/8
   3:     0.25000000    0.25000000    0.25000000          2/8

Wave functions: Plane wave expansion
  Cutoff energy: 350.000 eV
  Number of coefficients (min, max): 19468, 19468
  Pulay-stress correction: 0.000000 eV/Ang^3 (de/decut=0.000000)
  Using FFTW library
  ScaLapack parameters: grid=1x1, blocksize=None
  Wavefunction extrapolation:
    Improved wavefunction reuse through dual PAW basis

Occupation numbers: Fermi-Dirac:
  width: 0.1000  # eV

Eigensolver
   Davidson(niter=2)

Densities:
  Coarse grid: 48*48*48 grid
  Fine grid: 96*96*96 grid
  Total Charge: 0.000000

Density mixing:
  Method: difference
  Backend: pulay
  Linear mixing parameter: 0.05
  old densities: 5
  Damping of long wavelength oscillations: 50

Hamiltonian:
  XC and Coulomb potentials evaluated on a 96*96*96 grid
  Using the PBE Exchange-Correlation functional
  External potential:
    NoExternalPotential

XC parameters: PBE with 2 nearest neighbor stencil

Total number of cores used: 64
Parallelization over k-points: 4
Domain decomposition: 4 x 2 x 2

Number of atoms: 108
Number of atomic orbitals: 933
Number of bands in calculation: 624
Number of valence electrons: 912
Bands to converge: occupied

... initialized

Initializing position-dependent things.

Density initialized from atomic densities
Creating initial wave functions:
  624 bands from LCAO basis set

        .--------Ni----------------.
       /|  Cr       Ni             |
      / |    Cr       Co           |
     / Al       Co       Ni        |
    /   | Fe     CoAl       Al     |
   /    |            Cr            |
  /     |  Co AlNi  FeCo Fe  CrCr  |
 *    AlCr  Cr FeCoFe   CoNi       |
 |     CrAlAl   NiNiFe   NiFeAl    |
 |      | FeCr   AlCoCrNi AlFeCr   |
 |     Co  Fe NiCr  Cr CrFe  CrFe  |
 |    CoAl  Cr AlNiNi AlNiNiCo     |
 |     AlCoAl   NiCoCo   CrCrCo    |
 | Fe   .-NiCo-----NiAl-Cr--Fe-----.
 |     /      AlAl    Co Ni  NiCo /
 |    NNi      Fe       Co       /
 Fe  /  Cro      Fee      Ale   /
 |  /      Al       Co       Fe/
 | /        Fe         Ni     /e
 |/    Cr                    /
 *--------------------------Al

Positions:
   0 Al    10.934858    0.000244    0.000208    ( 0.0000,  0.0000,  0.0000)
   1 Fe    10.934967    1.822504    1.822536    ( 0.0000,  0.0000,  2.0000)
   2 Cr     1.822471   10.934989    1.822569    ( 0.0000,  0.0000,  0.0000)
   3 Cr     1.822460    1.822591    0.000049    ( 0.0000,  0.0000,  0.0000)
   4 Ni     3.645040   10.934902   10.934945    ( 0.0000,  0.0000,  1.5000)
   5 Al     3.644767    1.822799    1.822219    ( 0.0000,  0.0000,  0.0000)
   6 Al     5.467675   10.934759    1.821990    ( 0.0000,  0.0000,  0.0000)
   7 Ni     5.467609    1.822536   10.934945    ( 0.0000,  0.0000,  1.5000)
   8 Fe     7.290047    0.000023   10.934956    ( 0.0000,  0.0000,  2.0000)
   9 Co     7.290058    1.822482    1.822372    ( 0.0000,  0.0000,  2.1000)
  10 Ni     9.112474    0.000078    1.822449    ( 0.0000,  0.0000,  1.5000)
  11 Fe     9.112453    1.822504   10.934945    ( 0.0000,  0.0000,  2.0000)
  12 Fe    10.934989    3.645007    0.000070    ( 0.0000,  0.0000,  2.0000)
  13 Co    10.934989    5.467522    1.822482    ( 0.0000,  0.0000,  2.1000)
  14 Cr     1.822394    3.644996    1.822493    ( 0.0000,  0.0000,  0.0000)
  15 Co     1.822449    5.467522   10.935000    ( 0.0000,  0.0000,  2.1000)
  16 Fe     3.645040    3.645040    0.000012    ( 0.0000,  0.0000,  2.0000)
  17 Al     3.645095    5.467336    1.822296    ( 0.0000,  0.0000,  0.0000)
  18 Fe     5.467500    3.645051    1.822449    ( 0.0000,  0.0000,  2.0000)
  19 Fe     5.467544    5.467478    0.000050    ( 0.0000,  0.0000,  2.0000)
  20 Cr     7.289949    3.644996   10.934934    ( 0.0000,  0.0000,  0.0000)
  21 Co     7.289960    5.467598    1.822416    ( 0.0000,  0.0000,  2.1000)
  22 Al     9.112737    3.644974    1.822263    ( 0.0000,  0.0000,  0.0000)
  23 Fe     9.112496    5.467511    0.000010    ( 0.0000,  0.0000,  2.0000)
  24 Ni    10.935000    7.289861    0.000086    ( 0.0000,  0.0000,  1.5000)
  25 Al     0.000007    9.112365    1.822744    ( 0.0000,  0.0000,  0.0000)
  26 Ni     1.822449    7.290015    1.822482    ( 0.0000,  0.0000,  1.5000)
  27 Cr     1.822679    9.112387   10.934989    ( 0.0000,  0.0000,  0.0000)
  28 Fe     3.644996    7.290026    0.000014    ( 0.0000,  0.0000,  2.0000)
  29 Ni     3.644964    9.112464    1.822416    ( 0.0000,  0.0000,  1.5000)
  30 Ni     5.467598    7.289982    1.822427    ( 0.0000,  0.0000,  1.5000)
  31 Ni     5.467489    9.112496   10.934967    ( 0.0000,  0.0000,  1.5000)
  32 Co     7.290015    7.289982    0.000085    ( 0.0000,  0.0000,  2.1000)
  33 Cr     7.290047    9.112409    1.822394    ( 0.0000,  0.0000,  0.0000)
  34 Fe     9.112474    7.289927    1.822471    ( 0.0000,  0.0000,  2.0000)
  35 Ni     9.112354    9.112485    0.000055    ( 0.0000,  0.0000,  1.5000)
  36 Fe     0.000025    0.000061    3.644996    ( 0.0000,  0.0000,  2.0000)
  37 Co    10.934945    1.822482    5.467478    ( 0.0000,  0.0000,  2.1000)
  38 Cr     1.822405   10.934934    5.467533    ( 0.0000,  0.0000,  0.0000)
  39 Ni     1.822329    1.822504    3.644996    ( 0.0000,  0.0000,  1.5000)
  40 Al     3.644614   10.934584    3.645128    ( 0.0000,  0.0000,  0.0000)
  41 Al     3.644985    1.822536    5.467784    ( 0.0000,  0.0000,  0.0000)
  42 Cr     5.467555   10.934880    5.467686    ( 0.0000,  0.0000,  0.0000)
  43 Al     5.467642    1.822886    3.645128    ( 0.0000,  0.0000,  0.0000)
  44 Al     7.290321   10.934880    3.645106    ( 0.0000,  0.0000,  0.0000)
  45 Co     7.290069    1.822493    5.467620    ( 0.0000,  0.0000,  2.1000)
  46 Cr     9.112540    0.000064    5.467566    ( 0.0000,  0.0000,  0.0000)
  47 Ni     9.112639    1.822449    3.645040    ( 0.0000,  0.0000,  1.5000)
  48 Fe     0.000012    3.644964    3.644996    ( 0.0000,  0.0000,  2.0000)
  49 Fe    10.934923    5.467511    5.467413    ( 0.0000,  0.0000,  2.0000)
  50 Al     1.822329    3.645040    5.467281    ( 0.0000,  0.0000,  0.0000)
  51 Co     1.822405    5.467533    3.645051    ( 0.0000,  0.0000,  2.1000)
  52 Co     3.645029    3.645062    3.644985    ( 0.0000,  0.0000,  2.1000)
  53 Ni     3.645062    5.467533    5.467478    ( 0.0000,  0.0000,  1.5000)
  54 Ni     5.467478    3.645073    5.467522    ( 0.0000,  0.0000,  1.5000)
  55 Co     5.467511    5.467489    3.645007    ( 0.0000,  0.0000,  2.1000)
  56 Al     7.289861    3.645117    3.645128    ( 0.0000,  0.0000,  0.0000)
  57 Cr     7.290026    5.467598    5.467577    ( 0.0000,  0.0000,  0.0000)
  58 Ni     9.112584    3.644985    5.467577    ( 0.0000,  0.0000,  1.5000)
  59 Cr     9.112617    5.467642    3.645051    ( 0.0000,  0.0000,  0.0000)
[...]
  93 Co     7.290004    5.467445    9.112529    ( 0.0000,  0.0000,  2.1000)
  94 Ni     9.112431    3.644985    9.112518    ( 0.0000,  0.0000,  1.5000)
  95 Fe     9.112474    5.467478    7.289949    ( 0.0000,  0.0000,  2.0000)
  96 Al     0.000023    7.289982    7.289599    ( 0.0000,  0.0000,  0.0000)
  97 Al     0.000222    9.112617    9.112464    ( 0.0000,  0.0000,  0.0000)
  98 Fe     1.822602    7.290047    9.112529    ( 0.0000,  0.0000,  2.0000)
  99 Co     1.822624    9.112485    7.289960    ( 0.0000,  0.0000,  2.1000)
 100 Fe     3.645007    7.290124    7.289927    ( 0.0000,  0.0000,  2.0000)
 101 Co     3.644985    9.112507    9.112474    ( 0.0000,  0.0000,  2.1000)
 102 Al     5.467566    7.290179    9.112474    ( 0.0000,  0.0000,  0.0000)
 103 Fe     5.467489    9.112518    7.289960    ( 0.0000,  0.0000,  2.0000)
 104 Co     7.289993    7.290015    7.289894    ( 0.0000,  0.0000,  2.1000)
 105 Ni     7.289938    9.112617    9.112507    ( 0.0000,  0.0000,  1.5000)
 106 Al     9.112179    7.289785    9.112671    ( 0.0000,  0.0000,  0.0000)
 107 Cr     9.112376    9.112562    7.289905    ( 0.0000,  0.0000,  0.0000)

Unit cell:
           periodic     x           y           z      points  spacing
  1. axis:    yes   10.935000    0.000000    0.000000    48     0.2278
  2. axis:    yes    0.000000   10.935000    0.000000    48     0.2278
  3. axis:    yes    0.000000    0.000000   10.935000    48     0.2278

  Lengths:  10.935000  10.935000  10.935000
  Angles:   90.000000  90.000000  90.000000

Effective grid spacing dv^(1/3) = 0.2278

     iter     time        total  log10-change:  magmom
                         energy  eigst   dens
iter:   1 02:49:20  -973.831021                  +121.3857
iter:   2 02:50:07  -856.843287  -0.17  -1.17    +66.3945
iter:   3 02:50:55  -844.098907  -0.82  -1.20    +58.9764
iter:   4 02:51:43  -828.061114  -1.21  -1.25    +55.1219
iter:   5 02:52:32  -816.184849  -1.53  -1.29    +53.5893
iter:   6 02:53:22  -812.150326  -1.35  -1.36    +54.7464
iter:   7 02:54:11  -813.405464  -1.35  -1.46    +54.6173
iter:   8 02:55:00  -806.991065  -1.68  -1.51    +55.3259
iter:   9 02:55:48  -804.360954  -2.06  -1.64    +56.7607
iter:  10 02:56:38  -804.642445  -2.42  -1.75    +57.8946
iter:  11 02:57:28  -805.009860  -2.47  -1.77    +59.0841
iter:  12 02:58:17  -805.944867  -2.34  -1.81    +60.5753
iter:  13 02:59:07  -805.383321  -2.44  -1.83    +60.8449
iter:  14 02:59:55  -805.098698  -2.65  -1.92    +61.1590
iter:  15 03:00:44  -805.431899  -2.82  -2.00    +61.6770
iter:  16 03:01:32  -805.314935  -2.97  -2.01    +61.7121
iter:  17 03:02:22  -805.360998  -2.97  -2.08    +61.8670
iter:  18 03:03:11  -805.456099  -3.04  -2.14    +61.8738
iter:  19 03:04:01  -805.388739  -3.13  -2.19    +61.6465
iter:  20 03:04:50  -805.421513c -3.25  -2.26    +61.5645
iter:  21 03:05:39  -805.502218  -3.32  -2.31    +61.2847
iter:  22 03:06:27  -805.467383c -3.38  -2.34    +60.9868
iter:  23 03:07:15  -805.517712c -3.54  -2.41    +60.7201
iter:  24 03:08:03  -805.596178  -3.58  -2.45    +60.2798
iter:  25 03:08:51  -805.612894  -3.74  -2.47    +59.9812
iter:  26 03:09:39  -805.693117  -3.70  -2.51    +59.6154
iter:  27 03:10:31  -805.726972  -3.78  -2.52    +59.2664
iter:  28 03:11:20  -805.752601c -3.94  -2.56    +58.9613
iter:  29 03:12:08  -805.798662c -3.91  -2.60    +58.6241
iter:  30 03:12:57  -805.828472c -4.12  -2.63    +58.3743
iter:  31 03:13:44  -805.867877c -4.08  -2.66    +58.0353
iter:  32 03:14:32  -805.912250c -4.11  -2.70    +57.7853
iter:  33 03:15:21  -805.935944c -4.20  -2.71    +57.5859
iter:  34 03:16:09  -805.959162c -4.30  -2.76    +57.4215
iter:  35 03:16:57  -805.984768c -4.29  -2.78    +57.2499
iter:  36 03:17:44  -806.003829c -4.39  -2.82    +57.1734
iter:  37 03:18:31  -806.024584c -4.40  -2.85    +57.0459
iter:  38 03:19:20  -806.042120c -4.48  -2.87    +56.9384
iter:  39 03:20:07  -806.063427c -4.53  -2.91    +56.8637
iter:  40 03:20:55  -806.073548c -4.68  -2.93    +56.8285
iter:  41 03:21:42  -806.094617c -4.55  -2.96    +56.7450
iter:  42 03:22:29  -806.106344c -4.67  -2.99    +56.7381
iter:  43 03:23:17  -806.117359c -4.67  -3.02    +56.7136
iter:  44 03:24:04  -806.131723c -4.66  -3.06    +56.6907
iter:  45 03:24:51  -806.142511c -4.84  -3.09    +56.6926
iter:  46 03:25:39  -806.151309c -4.84  -3.12    +56.7141
iter:  47 03:26:27  -806.164455c -4.80  -3.14    +56.7140
iter:  48 03:27:14  -806.169735c -5.00  -3.18    +56.7295
iter:  49 03:28:02  -806.183262c -4.84  -3.23    +56.7777
iter:  50 03:28:50  -806.190979c -5.06  -3.26    +56.8047
iter:  51 03:29:37  -806.201857c -4.94  -3.28    +56.8550
iter:  52 03:30:24  -806.208789c -5.09  -3.32    +56.8981
iter:  53 03:31:12  -806.219284c -5.00  -3.33    +56.9439
iter:  54 03:31:59  -806.228206c -5.02  -3.38    +57.0002
iter:  55 03:32:46  -806.242593c -4.84  -3.41    +57.0958
iter:  56 03:33:33  -806.257524c -4.80  -3.42    +57.2038
iter:  57 03:34:22  -806.310841c -3.83  -3.42    +57.6371
iter:  58 03:35:09  -806.337387c -3.63  -3.23    +58.1884
iter:  59 03:35:57  -806.334395c -4.80  -3.08    +58.0029
iter:  60 03:36:44  -806.331896c -5.15  -3.14    +58.0655
iter:  61 03:37:32  -806.329305c -5.31  -3.15    +58.0608
iter:  62 03:38:19  -806.339494c -4.89  -3.19    +58.0533
iter:  63 03:39:06  -806.320567c -4.75  -3.07    +58.0539
iter:  64 03:39:54  -806.318211c -4.75  -3.23    +58.0168
iter:  65 03:40:41  -806.313935c -5.25  -3.20    +57.9686
iter:  66 03:41:30  -806.320925c -4.91  -3.27    +57.8538
iter:  67 03:42:17  -806.315923c -5.17  -3.21    +57.8362
iter:  68 03:43:05  -806.315402c -5.01  -3.32    +57.7691
iter:  69 03:43:52  -806.311808c -5.18  -3.32    +57.7575
iter:  70 03:44:40  -806.312264c -5.48  -3.56    +57.7316
iter:  71 03:45:28  -806.312217c -5.75  -3.57    +57.7013
iter:  72 03:46:16  -806.311044c -5.89  -3.62    +57.6802
iter:  73 03:47:04  -806.311499c -5.91  -3.68    +57.6602
iter:  74 03:47:50  -806.310722c -6.11  -3.66    +57.6478
iter:  75 03:48:38  -806.310180c -6.23  -3.79    +57.6316
iter:  76 03:49:27  -806.310308c -6.19  -3.87    +57.6209
iter:  77 03:50:15  -806.309949c -6.12  -3.88    +57.6096
iter:  78 03:51:03  -806.309566c -6.38  -3.90    +57.6051
iter:  79 03:51:51  -806.309457c -6.53  -3.99    +57.5956
iter:  80 03:52:39  -806.309374c -6.68  -4.04c   +57.5916
iter:  81 03:53:27  -806.309143c -6.81  -4.10c   +57.5855
iter:  82 03:54:14  -806.309357c -6.64  -4.15c   +57.5808
iter:  83 03:55:03  -806.309164c -6.85  -4.14c   +57.5777
iter:  84 03:55:51  -806.309051c -6.91  -4.22c   +57.5749
iter:  85 03:56:39  -806.309056c -7.14  -4.23c   +57.5706
iter:  86 03:57:27  -806.309029c -7.31  -4.29c   +57.5675
iter:  87 03:58:16  -806.308944c -7.39  -4.33c   +57.5650
iter:  88 03:59:04  -806.308940c -7.64c -4.38c   +57.5631

Converged after 88 iterations.

Dipole moment: (0.136072, -0.443649, 0.041786) |e|*Ang

Total magnetic moment: (0.000000, 0.000000, 57.563073)
Local magnetic moments:
   0 Al ( 0.000000,  0.000000, -0.013442)
   1 Fe ( 0.000000,  0.000000,  2.131005)
   2 Cr ( 0.000000,  0.000000, -2.178068)
   3 Cr ( 0.000000,  0.000000,  1.641570)
   4 Ni ( 0.000000,  0.000000,  0.129074)
   5 Al ( 0.000000,  0.000000, -0.008882)
   6 Al ( 0.000000,  0.000000, -0.013797)
   7 Ni ( 0.000000,  0.000000,  0.319488)
   8 Fe ( 0.000000,  0.000000,  2.508687)
   9 Co ( 0.000000,  0.000000,  0.847170)
  10 Ni ( 0.000000,  0.000000,  0.253432)
  11 Fe ( 0.000000,  0.000000,  2.183072)
  12 Fe ( 0.000000,  0.000000,  2.173227)
  13 Co ( 0.000000,  0.000000,  1.406682)
  14 Cr ( 0.000000,  0.000000, -2.140729)
  15 Co ( 0.000000,  0.000000,  1.050153)
  16 Fe ( 0.000000,  0.000000,  2.135207)
  17 Al ( 0.000000,  0.000000, -0.037598)
  18 Fe ( 0.000000,  0.000000,  2.306461)
  19 Fe ( 0.000000,  0.000000,  2.310630)
  20 Cr ( 0.000000,  0.000000, -2.273132)
  21 Co ( 0.000000,  0.000000,  1.125847)
  22 Al ( 0.000000,  0.000000, -0.033736)
  23 Fe ( 0.000000,  0.000000,  2.339723)
  24 Ni ( 0.000000,  0.000000,  0.185137)
  25 Al ( 0.000000,  0.000000, -0.028281)
  26 Ni ( 0.000000,  0.000000,  0.373203)
  27 Cr ( 0.000000,  0.000000,  1.687308)
  28 Fe ( 0.000000,  0.000000,  2.373989)
  29 Ni ( 0.000000,  0.000000,  0.281831)
  30 Ni ( 0.000000,  0.000000,  0.336011)
  31 Ni ( 0.000000,  0.000000,  0.325706)
  32 Co ( 0.000000,  0.000000,  1.404625)
  33 Cr ( 0.000000,  0.000000, -2.259086)
  34 Fe ( 0.000000,  0.000000,  2.350994)
  35 Ni ( 0.000000,  0.000000,  0.194705)
  36 Fe ( 0.000000,  0.000000,  2.014118)
  37 Co ( 0.000000,  0.000000,  1.037809)
  38 Cr ( 0.000000,  0.000000, -2.119813)
  39 Ni ( 0.000000,  0.000000, -0.007877)
  40 Al ( 0.000000,  0.000000,  0.007127)
  41 Al ( 0.000000,  0.000000, -0.001806)
  42 Cr ( 0.000000,  0.000000, -1.942682)
  43 Al ( 0.000000,  0.000000, -0.001671)
  44 Al ( 0.000000,  0.000000, -0.003805)
  45 Co ( 0.000000,  0.000000,  0.178221)
  46 Cr ( 0.000000,  0.000000, -1.972261)
  47 Ni ( 0.000000,  0.000000,  0.224588)
  48 Fe ( 0.000000,  0.000000,  2.362959)
  49 Fe ( 0.000000,  0.000000,  2.106147)
  50 Al ( 0.000000,  0.000000, -0.028642)
  51 Co ( 0.000000,  0.000000,  1.260340)
  52 Co ( 0.000000,  0.000000,  0.998024)
  53 Ni ( 0.000000,  0.000000,  0.389864)
  54 Ni ( 0.000000,  0.000000,  0.126343)
  55 Co ( 0.000000,  0.000000,  1.222573)
  56 Al ( 0.000000,  0.000000, -0.007721)
  57 Cr ( 0.000000,  0.000000, -1.958032)
  58 Ni ( 0.000000,  0.000000,  0.087577)
  59 Cr ( 0.000000,  0.000000, -1.901551)
[...]
  93 Co ( 0.000000,  0.000000,  1.421877)
  94 Ni ( 0.000000,  0.000000,  0.247741)
  95 Fe ( 0.000000,  0.000000,  2.143217)
  96 Al ( 0.000000,  0.000000, -0.032438)
  97 Al ( 0.000000,  0.000000, -0.025880)
  98 Fe ( 0.000000,  0.000000,  1.956334)
  99 Co ( 0.000000,  0.000000,  1.148140)
 100 Fe ( 0.000000,  0.000000,  2.350838)
 101 Co ( 0.000000,  0.000000,  1.399320)
 102 Al ( 0.000000,  0.000000, -0.049455)
 103 Fe ( 0.000000,  0.000000,  2.561774)
 104 Co ( 0.000000,  0.000000,  1.302091)
 105 Ni ( 0.000000,  0.000000,  0.385723)
 106 Al ( 0.000000,  0.000000, -0.029485)
 107 Cr ( 0.000000,  0.000000,  1.663648)

Energy contributions relative to reference atoms: (reference = -3235165.067515)

Kinetic:       +213.499288
Potential:     -212.135239
External:        +0.000000
XC:            -836.559794
Entropy (-ST):   -3.993499
Local:          +30.883555
Free energy:   -808.305689
Extrapolated:  -806.308940

Spin contamination: 34.596609 electrons
Showing only first 2 kpts
                      Up                     Down
 Kpt  Band  Eigenvalues  Occupancy  Eigenvalues  Occupancy
  0   454      8.73653    0.99722      9.68868    0.02561
  0   455      8.75512    0.99665      9.69689    0.02364
  0   456      8.77776    0.99581      9.71061    0.02067
  0   457      8.79021    0.99526      9.71982    0.01889

  1   454      8.75117    0.99678      9.68371    0.02688
  1   455      8.76160    0.99643      9.69091    0.02506
  1   456      8.76601    0.99627      9.71845    0.01914
  1   457      8.78806    0.99536      9.72502    0.01795

Fermi level: 9.32480

No gap

Forces in eV/Ang:
  0 Al   -1.12655    0.29449    0.43166
  1 Fe    0.04940    0.08091    0.47918
  2 Cr   -0.20097   -0.12312   -0.24235
  3 Cr   -0.03838   -0.00865   -0.24378
  4 Ni   -0.01359   -0.27895   -0.24533
  5 Al   -0.34841    0.95686   -0.79351
  6 Al    0.01284   -0.57880   -1.93325
  7 Ni    0.18563    0.09465   -0.07136
  8 Fe    0.40671   -0.03959   -0.27233
  9 Co   -0.02297   -0.07602   -0.13488
 10 Ni   -0.14808    0.10286   -0.02282
 11 Fe   -0.46325    0.22421    0.13956
 12 Fe    0.03331    0.43957    0.03391
 13 Co    0.59525    0.18008   -0.06360
 14 Cr   -0.98477   -0.05132   -0.04902
 15 Co   -0.31749    0.01804   -0.05932
 16 Fe    0.20867    0.41065    0.03917
 17 Al    0.11393   -0.07992   -0.22238
 18 Fe    0.21367    0.26106   -0.13210
 19 Fe    0.53049   -0.08652    0.06427
 20 Cr   -0.52687   -0.02836   -0.42515
 21 Co   -0.24235    0.37413    0.07162
 22 Al    0.51829   -0.30738   -0.29353
 23 Fe   -0.24885   -0.05347   -0.11539
 24 Ni    0.28858   -0.18438   -0.00992
 25 Al   -0.45372   -0.92642    0.32170
 26 Ni   -0.10125   -0.27610    0.00452
 27 Cr    0.80631    0.23059   -0.05395
 28 Fe   -0.20142    0.32411   -0.06741
 29 Ni    0.03896   -0.13283   -0.07668
 30 Ni    0.15954   -0.22998   -0.22532
 31 Ni   -0.08519    0.04097   -0.04414
 32 Co   -0.05334   -0.12411    0.52459
 33 Cr    0.33369   -0.66091   -0.46803
 34 Fe   -0.41625   -0.64058   -0.20689
 35 Ni    0.05797    0.11702   -0.02003
 36 Fe    0.17451    0.68532    0.45229
 37 Co   -0.03111   -0.36970    0.11751
 38 Cr   -0.98698   -0.22948    0.77935
 39 Ni   -0.16557   -0.12840    0.03199
 40 Al   -0.81244   -1.23646    0.37916
 41 Al   -0.28117    0.34533    0.50960
 42 Cr    0.41374   -0.54358    0.93224
 43 Al    0.68649    1.37208    0.61072
 44 Al    1.20617    0.37471    0.29927
 45 Co   -0.01294   -0.26981    0.26398
 46 Cr    0.19702    0.33025    0.43928
 47 Ni    0.35161   -0.05577   -0.12343
 48 Fe   -0.07441    0.10869    0.02773
 49 Fe   -0.27104   -0.19314   -0.36191
 50 Al   -0.22006   -0.13671   -1.15539
 51 Co   -0.42223    0.01671    0.12910
 52 Co    0.15457    0.40932   -0.09956
 53 Ni    0.24571   -0.14479    0.02350
 54 Ni    0.04430    0.18083   -0.01167
 55 Co    0.06514   -0.09352    0.01890
 56 Al   -0.11602   -0.10221    0.42422
 57 Cr   -0.51379    1.01525    0.34403
 58 Ni   -0.02204    0.02637    0.22464
 59 Cr    0.82070    1.09125    0.18479
[...]
 93 Co    0.05859   -0.47746   -0.04909
 94 Ni   -0.08644    0.20847   -0.13126
 95 Fe   -0.25893   -0.49355   -0.11906
 96 Al    0.23652   -0.10633   -0.77105
 97 Al    0.05327    0.38112   -0.08895
 98 Fe    0.14119   -0.12735    0.17601
 99 Co    0.29515    0.02119   -0.17488
100 Fe   -0.07778    0.42083   -0.42877
101 Co   -0.06544    0.45297   -0.12461
102 Al    0.98526    0.57696    0.04153
103 Fe    0.13073    0.45636   -0.36069
104 Co   -0.11588   -0.07376   -0.66878
105 Ni   -0.16325    0.23043    0.05430
106 Al   -1.39396   -0.09453    0.85882
107 Cr   -0.51416    0.76555   -0.71608

Date: Sat Apr  8 03:59:19 2023