User:   c.zeng@d0090
Date:   Sat Apr 15 01:09:23 2023
Arch:   x86_64
Pid:    93653
CWD:    /home/c.zeng/projects/hea-corrosion/hea-mlp/data-curation/bulk-mcmc/dft-jobs/195
Python: 3.8.1
gpaw:   /home/c.zeng/usr/installs/gpaw/source/gpaw-22.8.0/gpaw
_gpaw:  /home/c.zeng/usr/installs/gpaw/source/gpaw-22.8.0/
        _gpaw.cpython-38-x86_64-linux-gnu.so
ase:    /home/c.zeng/.local/lib/python3.8/site-packages/ase-3.22.1-py3.8.egg/ase (version 3.22.1)
numpy:  /shared/centos7/python/3.8.1/lib/python3.8/site-packages/numpy (version 1.17.4)
scipy:  /shared/centos7/python/3.8.1/lib/python3.8/site-packages/scipy (version 1.4.1)
units:  Angstrom and eV
cores: 30
OpenMP: False
OMP_NUM_THREADS: 1

Input parameters:
  convergence: {energy: 0.0001}
  kpts: [2 2 2]
  maxiter: 666
  mode: {ecut: 350.0,
         name: pw}
  occupations: {fixmagmom: False,
                name: fermi-dirac,
                width: 0.1}
  spinpol: True
  xc: PBE

System changes: positions, numbers, cell, pbc, initial_charges, initial_magmoms

Initialize ...

species:
  Co:
    name: Cobalt
    id: 339d20d5b0b93d2de9531a1bee871d91
    Z: 27.0
    valence: 9
    core: 18
    charge: 0.0
    file: /home/c.zeng/usr/data/gpaw-setups-0.9.20000/Co.PBE.gz
    compensation charges: {type: gauss,
                           rc: 0.32,
                           lmax: 2}
    cutoffs: {filter: 1.87,
              core: 2.55}
    valence states:
      #              energy  rcut
      - 4s(2.00)    -5.469   1.005
      - 4p(0.00)    -1.277   1.058
      - 3d(7.00)    -8.205   1.005
      -  s          21.742   1.005
      -  p          25.934   1.058
      -  d          19.007   1.005

    # Using partial waves for Co as LCAO basis

  Fe:
    name: Iron
    id: 37abbd8d6c3c35915a9b583b742da910
    Z: 26.0
    valence: 8
    core: 18
    charge: 0.0
    file: /home/c.zeng/usr/data/gpaw-setups-0.9.20000/Fe.PBE.gz
    compensation charges: {type: gauss,
                           rc: 0.33,
                           lmax: 2}
    cutoffs: {filter: 2.06,
              core: 2.67}
    valence states:
      #              energy  rcut
      - 4s(2.00)    -5.291   1.164
      - 4p(0.00)    -1.326   1.058
      - 3d(6.00)    -7.505   1.058
      -  s          21.920   1.164
      -  p          25.885   1.058
      -  d          19.706   1.058

[...]

  Al:
    name: Aluminium
    id: 0292cae29f5d6237e50f6abdd43a7bdd
    Z: 13.0
    valence: 3
    core: 10
    charge: 0.0
    file: /home/c.zeng/usr/data/gpaw-setups-0.9.20000/Al.PBE.gz
    compensation charges: {type: gauss,
                           rc: 0.34,
                           lmax: 2}
    cutoffs: {filter: 1.91,
              core: 2.36}
    valence states:
      #              energy  rcut
      - 3s(2.00)    -7.753   1.085
      - 3p(1.00)    -2.712   1.085
      -  s          19.459   1.085
      -  p          24.499   1.085
      -  d           0.000   1.085

[...]

  Cr:
    name: Chromium
    id: 33f258bda2ca9f93018e70263a35547b
    Z: 24.0
    valence: 6
    core: 18
    charge: 0.0
    file: /home/c.zeng/usr/data/gpaw-setups-0.9.20000/Cr.PBE.gz
    compensation charges: {type: gauss,
                           rc: 0.35,
                           lmax: 2}
    cutoffs: {filter: 2.14,
              core: 3.04}
    valence states:
      #              energy  rcut
      - 4s(1.00)    -4.007   1.164
      - 4p(0.00)    -0.989   1.217
      - 3d(5.00)    -2.913   1.111
      -  s          23.205   1.164
      -  p          26.223   1.217
      -  d          24.299   1.111

[...]

  Ni:
    name: Nickel
    id: 0d9f38a9d6e76a2886f07bb4381f212b
    Z: 28.0
    valence: 16
    core: 12
    charge: 0.0
    file: /home/c.zeng/usr/data/gpaw-setups-0.9.20000/Ni.PBE.gz
    compensation charges: {type: gauss,
                           rc: 0.36,
                           lmax: 2}
    cutoffs: {filter: 2.14,
              core: 1.98}
    valence states:
      #              energy  rcut
      - 4s(2.00)    -5.642   1.164
      - 3p(6.00)   -71.394   1.207
      - 4p(0.00)    -1.226   1.207
      - 3d(8.00)    -8.875   1.138
      -  s          21.570   1.164
      -  d          18.337   1.138

    # Using partial waves for Ni as LCAO basis

Reference energy: -3382523.201499  # eV

Spin-polarized calculation.
Magnetic moment: 128.800000

Convergence criteria:
 Maximum [total energy] change in last 3 cyles: 0.0001 eV / electron
 Maximum integral of absolute [dens]ity change: 0.0001 electrons / valence electron
 Maximum integral of absolute [eigenst]ate change: 4e-08 eV^2 / valence electron
 Maximum number of scf [iter]ations: 666
 (Square brackets indicate name in SCF output, whereas a 'c' in
 the SCF output indicates the quantity has converged.)

Symmetries present (total): 1

  ( 1  0  0)
  ( 0  1  0)
  ( 0  0  1)

8 k-points: 2 x 2 x 2 Monkhorst-Pack grid
4 k-points in the irreducible part of the Brillouin zone
       k-points in crystal coordinates                weights
   0:     0.25000000   -0.25000000   -0.25000000          2/8
   1:     0.25000000   -0.25000000    0.25000000          2/8
   2:     0.25000000    0.25000000   -0.25000000          2/8
   3:     0.25000000    0.25000000    0.25000000          2/8

Wave functions: Plane wave expansion
  Cutoff energy: 350.000 eV
  Number of coefficients (min, max): 18865, 18865
  Pulay-stress correction: 0.000000 eV/Ang^3 (de/decut=0.000000)
  Using FFTW library
  ScaLapack parameters: grid=1x1, blocksize=None
  Wavefunction extrapolation:
    Improved wavefunction reuse through dual PAW basis

Occupation numbers: Fermi-Dirac:
  width: 0.1000  # eV

Eigensolver
   Davidson(niter=2)

Densities:
  Coarse grid: 48*48*48 grid
  Fine grid: 96*96*96 grid
  Total Charge: 0.000000

Density mixing:
  Method: difference
  Backend: pulay
  Linear mixing parameter: 0.05
  old densities: 5
  Damping of long wavelength oscillations: 50

Hamiltonian:
  XC and Coulomb potentials evaluated on a 96*96*96 grid
  Using the PBE Exchange-Correlation functional
  External potential:
    NoExternalPotential

XC parameters: PBE with 2 nearest neighbor stencil

Total number of cores used: 30
Parallelization over k-points: 2
Domain decomposition: 5 x 3 x 1

Number of atoms: 108
Number of atomic orbitals: 961
Number of bands in calculation: 649
Number of valence electrons: 945
Bands to converge: occupied

... initialized

Initializing position-dependent things.

Density initialized from atomic densities
Creating initial wave functions:
  649 bands from LCAO basis set

       /|                     Co   |
      / |            Co Co     CrCo|
     /  |       Cr       Ni       Cr
    /   |Co       Fel     FCor     |
   /i   | Feo        Fe      Co    |
  /  CrAl   NCr       Ni           |
 *      Ni     FeFe   AlCoCrCo   Cr|
 |      |CoNi   CrNiAl   NiAlNi   Fe
 | CrFe | AlNi   AlAlCo     Ni     |
 |     Co  FeCr Cr  Fe FeNi  CrNi  |
 |      CoNi   AlCr   FeCoFeNi  Fe |
 |Al    |FeCr   AlCrFe   CrCo     Fe
 |      .-CrCo-----NiCr-FeCoCrNi---.
 |     /   Ni Fe    Cr CoNi    Al /
 |    Fe       AFei       Al     /
 |   /  Co         Al       Cr  /
 |  /      Fe       Al       Co/
 | / Fe     Co       Ni Ni    /
 |/             Cr       Ni  /
 *--------Co----------------*

Positions:
   0 Co    10.764147   10.861293   10.805330    ( 0.0000,  0.0000,  2.0000)
   1 Co    10.786221    1.792513    1.813624    ( 0.0000,  0.0000,  0.0000)
   2 Fe     1.744156    0.036560    1.851269    ( 0.0000,  0.0000,  1.5000)
   3 Al     1.736571    1.831142   10.798805    ( 0.0000,  0.0000,  0.0000)
   4 Co     3.575126    0.057318    0.061759    ( 0.0000,  0.0000,  0.0000)
   5 Fe     3.594289    1.817617    1.845577    ( 0.0000,  0.0000,  2.0000)
   6 Fe     5.429813   10.817005    1.865054    ( 0.0000,  0.0000,  1.5000)
   7 Cr     5.429608    1.929425    0.057134    ( 0.0000,  0.0000,  0.0000)
   8 Co     7.316909   10.723332    0.087382    ( 0.0000,  0.0000,  0.0000)
   9 Al     7.263142    1.825786    1.869404    ( 0.0000,  0.0000,  2.1000)
  10 Ni     9.063554    0.025226    1.863474    ( 0.0000,  0.0000,  1.5000)
  11 Ni     9.049217    1.829703    0.033106    ( 0.0000,  0.0000,  2.1000)
  12 Ni     0.004792    3.558981   10.794801    ( 0.0000,  0.0000,  1.5000)
  13 Al    10.759710    5.390697    1.778165    ( 0.0000,  0.0000,  0.0000)
  14 Co     1.733585    3.561849    1.761112    ( 0.0000,  0.0000,  2.0000)
  15 Co     1.776899    5.391834   10.795505    ( 0.0000,  0.0000,  0.0000)
  16 Co     3.565452    3.619360   10.832619    ( 0.0000,  0.0000,  2.1000)
  17 Fe     3.633221    5.394614    1.719551    ( 0.0000,  0.0000,  0.0000)
  18 Ni     5.471624    3.659114    1.836033    ( 0.0000,  0.0000,  2.1000)
  19 Fe     5.440212    5.373060   -0.002773    ( 0.0000,  0.0000,  2.0000)
  20 Ni     7.258997    3.609080    0.031294    ( 0.0000,  0.0000,  0.0000)
  21 Co     7.268941    5.378362    1.785274    ( 0.0000,  0.0000,  2.0000)
  22 Al     9.030724    3.577636    1.833728    ( 0.0000,  0.0000,  2.1000)
  23 Co     9.040420    5.372281   10.801110    ( 0.0000,  0.0000,  0.0000)
  24 Co    10.791663    7.196206   10.792486    ( 0.0000,  0.0000,  1.5000)
  25 Fe    10.758434    9.040387    1.848239    ( 0.0000,  0.0000,  0.0000)
  26 Cr     1.690487    7.202493    1.786032    ( 0.0000,  0.0000,  0.0000)
  27 Ni     1.652691    8.981047    0.027217    ( 0.0000,  0.0000,  0.0000)
  28 Al     3.631241    7.164437    0.034633    ( 0.0000,  0.0000,  0.0000)
  29 Al     3.625452    9.063759    1.801678    ( 0.0000,  0.0000,  0.0000)
  30 Ni     5.490852    7.187095    1.746342    ( 0.0000,  0.0000,  2.0000)
  31 Cr     5.426935    8.989152    0.009861    ( 0.0000,  0.0000,  2.0000)
  32 Co     7.229122    7.237075   -0.008698    ( 0.0000,  0.0000,  1.5000)
  33 Cr     7.249194    8.995850    1.810713    ( 0.0000,  0.0000,  0.0000)
  34 Cr     9.052073    7.204300    1.764218    ( 0.0000,  0.0000,  2.1000)
  35 Co     9.092553    8.989639   10.808760    ( 0.0000,  0.0000,  1.5000)
  36 Cr    -0.000975   10.826235    3.639789    ( 0.0000,  0.0000,  1.5000)
  37 Al    10.822772    1.771770    5.422044    ( 0.0000,  0.0000,  2.1000)
  38 Ni     1.754263   10.802084    5.428872    ( 0.0000,  0.0000,  2.1000)
  39 Fe     1.741873    1.774270    3.610801    ( 0.0000,  0.0000,  0.0000)
  40 Al     3.591183   10.794152    3.612143    ( 0.0000,  0.0000,  2.0000)
  41 Cr     3.593088    1.736744    5.455177    ( 0.0000,  0.0000,  0.0000)
  42 Al     5.437150   10.794563    5.400804    ( 0.0000,  0.0000,  2.0000)
  43 Fe     5.451931    1.783251    3.601387    ( 0.0000,  0.0000,  1.5000)
  44 Al     7.226222    0.007781    3.626209    ( 0.0000,  0.0000,  0.0000)
  45 Fe     7.236069    1.766512    5.381392    ( 0.0000,  0.0000,  2.1000)
  46 Fe     9.034587   10.848850    5.403844    ( 0.0000,  0.0000,  2.1000)
  47 Ni     9.031558    1.804946    3.616730    ( 0.0000,  0.0000,  1.5000)
  48 Ni    10.773885    3.543973    3.617867    ( 0.0000,  0.0000,  1.5000)
  49 Ni    10.772186    5.358409    5.454917    ( 0.0000,  0.0000,  0.0000)
  50 Co     1.757531    3.575678    5.428937    ( 0.0000,  0.0000,  2.1000)
  51 Fe     1.621766    5.386986    3.572550    ( 0.0000,  0.0000,  0.0000)
[...]
  Angles:   90.000000  90.000000  90.000000

Effective grid spacing dv^(1/3) = 0.2254

     iter     time        total  log10-change:  magmom
                         energy  eigst   dens
iter:   1 01:12:48  -895.466106                  +128.4417
iter:   2 01:14:09  -862.712021  -0.40  -1.31    +97.2127
iter:   3 01:15:30  -845.874300  -0.94  -1.29    +69.2196
iter:   4 01:16:51  -833.236644  -1.26  -1.37    +58.4625
iter:   5 01:18:12  -826.404585  -1.84  -1.40    +53.9692
iter:   6 01:19:34  -828.829625  -1.92  -1.47    +51.8361
iter:   7 01:20:55  -826.043500  -1.65  -1.49    +50.5514
iter:   8 01:22:16  -826.574048  -1.72  -1.56    +50.4439
iter:   9 01:23:37  -828.926499  -1.80  -1.64    +51.0599
iter:  10 01:24:58  -823.099055  -2.03  -1.66    +50.7094
iter:  11 01:26:19  -824.681943  -2.28  -1.83    +51.5710
iter:  12 01:27:41  -823.438500  -2.41  -1.81    +52.3917
iter:  13 01:29:02  -824.137116  -2.55  -1.89    +53.4629
iter:  14 01:30:23  -824.157696  -2.53  -1.92    +54.1850
iter:  15 01:31:44  -825.137737  -2.48  -1.97    +54.9944
iter:  16 01:33:05  -824.639779  -2.52  -1.96    +55.9639
iter:  17 01:34:26  -824.636154  -2.72  -2.03    +56.3434
iter:  18 01:35:47  -825.019172  -2.67  -2.10    +56.8393
iter:  19 01:37:09  -824.718991  -2.79  -2.10    +57.2779
iter:  20 01:38:30  -824.406014  -3.13  -2.15    +57.9107
iter:  21 01:39:51  -824.661249  -3.23  -2.25    +58.1120
iter:  22 01:41:12  -824.616790  -3.33  -2.25    +58.2087
iter:  23 01:42:33  -824.630582c -3.41  -2.26    +58.5980
iter:  24 01:43:55  -824.689393c -3.56  -2.31    +58.7733
iter:  25 01:45:16  -824.867036  -3.40  -2.34    +58.8145
iter:  26 01:46:37  -824.905482  -3.34  -2.34    +58.6508
iter:  27 01:47:58  -825.056122  -3.23  -2.36    +58.7588
iter:  28 01:49:20  -825.025377  -3.21  -2.35    +58.8121
iter:  29 01:50:41  -825.199234  -3.15  -2.43    +58.5791
iter:  30 01:52:02  -824.920621  -3.47  -2.36    +58.5014
iter:  31 01:53:23  -824.952449  -3.62  -2.53    +58.4298
iter:  32 01:54:44  -824.897361c -3.97  -2.53    +58.5128
iter:  33 01:56:06  -824.923920c -4.08  -2.62    +58.3526
iter:  34 01:57:27  -824.923102c -4.49  -2.63    +58.2898
iter:  35 01:58:48  -825.045620  -3.85  -2.67    +58.2528
iter:  36 02:00:09  -824.991405  -4.05  -2.59    +58.2518
iter:  37 02:01:31  -825.097044  -3.80  -2.71    +58.1710
iter:  38 02:02:52  -825.059125  -3.82  -2.67    +58.0200
iter:  39 02:04:14  -825.158660  -3.70  -2.74    +58.0522
iter:  40 02:05:35  -825.063147  -3.92  -2.67    +58.1705
iter:  41 02:06:56  -825.096978  -4.08  -2.84    +58.0812
iter:  42 02:08:17  -825.067080c -4.50  -2.82    +58.0591
iter:  43 02:09:38  -825.089765c -4.70  -2.95    +58.0384
iter:  44 02:11:00  -825.119486c -4.54  -2.97    +58.0323
iter:  45 02:12:21  -825.281909  -3.23  -2.96    +57.9874
iter:  46 02:13:42  -825.290871  -4.39  -2.79    +57.9479
iter:  47 02:15:03  -825.306882c -4.62  -2.77    +57.9410
iter:  48 02:16:24  -825.321928c -4.71  -2.75    +57.9044
iter:  49 02:17:46  -825.328965c -4.60  -2.74    +57.9254
iter:  50 02:19:07  -825.451985  -3.65  -2.74    +57.8937
iter:  51 02:20:29  -825.300051  -3.93  -2.56    +57.9077
iter:  52 02:21:50  -825.425568  -3.58  -2.78    +57.8391
iter:  53 02:23:11  -825.355105  -3.56  -2.58    +57.8509
iter:  54 02:24:32  -825.263539  -4.01  -2.70    +57.6436
iter:  55 02:25:54  -825.285021c -4.10  -2.93    +57.5254
iter:  56 02:27:15  -825.242983c -4.65  -2.84    +57.5141
iter:  57 02:28:36  -825.254575c -4.68  -3.10    +57.4679
iter:  58 02:29:57  -825.258326c -4.60  -3.04    +57.4400
iter:  59 02:31:18  -825.257814c -4.55  -3.05    +57.3471
iter:  60 02:32:40  -825.260629c -4.48  -3.08    +57.3595
iter:  61 02:34:01  -825.265290c -4.45  -3.07    +57.3132
iter:  62 02:35:22  -825.250958c -4.65  -3.07    +57.2285
iter:  63 02:36:43  -825.251516c -5.11  -3.25    +57.1883
iter:  64 02:38:05  -825.249746c -5.30  -3.29    +57.1671
iter:  65 02:39:26  -825.251242c -5.53  -3.36    +57.1351
iter:  66 02:40:47  -825.252904c -5.53  -3.40    +57.0998
iter:  67 02:42:09  -825.253447c -5.58  -3.41    +57.0715
iter:  68 02:43:30  -825.261038c -4.94  -3.48    +57.0425
iter:  69 02:44:51  -825.256690c -5.16  -3.31    +57.0307
iter:  70 02:46:12  -825.258224c -5.31  -3.48    +56.9710
iter:  71 02:47:33  -825.258573c -5.40  -3.58    +56.9513
iter:  72 02:48:55  -825.258807c -5.54  -3.56    +56.9417
iter:  73 02:50:16  -825.259869c -5.94  -3.64    +56.9151
iter:  74 02:51:37  -825.262050c -5.93  -3.76    +56.8748
iter:  75 02:52:58  -825.247651c -4.44  -3.72    +57.1606
iter:  76 02:54:19  -825.246955c -5.54  -3.82    +57.1674
iter:  77 02:55:41  -825.248828c -6.14  -3.92    +57.1271
iter:  78 02:57:02  -825.247744c -6.39  -3.94    +57.1458
iter:  79 02:58:23  -825.249668c -6.01  -3.96    +57.1043
iter:  80 02:59:44  -825.249295c -6.37  -3.96    +57.1122
iter:  81 03:01:06  -825.250626c -6.08  -3.99    +57.0784
iter:  82 03:02:27  -825.250216c -6.57  -4.07c   +57.0906
iter:  83 03:03:48  -825.252001c -5.97  -4.12c   +57.0481
iter:  84 03:05:10  -825.252659c -6.44  -4.09c   +57.0363
iter:  85 03:06:31  -825.253427c -6.59  -4.26c   +57.0227
iter:  86 03:07:52  -825.254162c -6.56  -4.20c   +57.0049
iter:  87 03:09:13  -825.253358c -6.54  -4.10c   +57.0308
iter:  88 03:10:34  -825.253933c -6.31  -4.09c   +57.0184
iter:  89 03:11:56  -825.255160c -6.23  -4.09c   +56.9897
iter:  90 03:13:17  -825.254755c -6.29  -4.14c   +57.0003
iter:  91 03:14:38  -825.257654c -5.65  -4.12c   +56.9496
iter:  92 03:15:59  -825.257121c -6.34  -3.96    +56.9494
iter:  93 03:17:21  -825.259552c -5.95  -4.12c   +56.9105
iter:  94 03:18:42  -825.257914c -6.48  -3.96    +56.9344
iter:  95 03:20:03  -825.257120c -6.48  -4.01c   +56.9548
iter:  96 03:21:24  -825.260345c -5.83  -3.99    +56.9074
iter:  97 03:22:46  -825.260589c -6.56  -3.92    +56.9008
iter:  98 03:24:07  -825.262403c -6.16  -3.97    +56.8689
iter:  99 03:25:28  -825.262936c -6.16  -3.93    +56.8643
iter: 100 03:26:49  -825.264951c -6.02  -3.80    +56.8273
iter: 101 03:28:10  -825.267075c -5.71  -3.84    +56.7889
iter: 102 03:29:30  -825.268981c -5.91  -3.84    +56.7766
iter: 103 03:30:50  -825.270685c -5.88  -3.79    +56.7567
iter: 104 03:32:10  -825.272968c -5.59  -3.84    +56.7360
iter: 105 03:33:30  -825.273583c -5.81  -3.66    +56.7207
iter: 106 03:34:49  -825.275440c -5.92  -3.76    +56.6916
iter: 107 03:36:09  -825.280883c -5.10  -3.74    +56.5890
iter: 108 03:37:29  -825.282170c -5.64  -3.66    +56.5911
iter: 109 03:38:49  -825.284564c -5.62  -3.64    +56.5792
iter: 110 03:40:09  -825.285092c -5.83  -3.56    +56.5783
iter: 111 03:41:28  -825.286379c -5.94  -3.53    +56.5718
iter: 112 03:42:48  -825.289927c -5.36  -3.53    +56.5781
iter: 113 03:44:07  -825.287761c -5.65  -3.46    +56.5714
iter: 114 03:45:27  -825.291912c -5.05  -3.54    +56.5665
iter: 115 03:46:46  -825.287839c -5.52  -3.37    +56.5582
iter: 116 03:48:06  -825.288068c -5.93  -3.59    +56.5333
iter: 117 03:49:25  -825.288793c -6.08  -3.68    +56.5262
iter: 118 03:50:45  -825.288942c -6.04  -3.68    +56.5128
iter: 119 03:52:04  -825.289260c -6.17  -3.70    +56.5133
iter: 120 03:53:23  -825.289534c -5.90  -3.72    +56.5194
iter: 121 03:54:43  -825.290795c -5.42  -3.65    +56.5140
iter: 122 03:56:03  -825.289636c -5.53  -3.66    +56.5179
iter: 123 03:57:23  -825.289613c -6.14  -3.86    +56.5344
iter: 124 03:58:43  -825.289775c -6.52  -4.04c   +56.5352
iter: 125 04:00:02  -825.290235c -6.49  -4.10c   +56.5387
iter: 126 04:01:22  -825.290342c -6.57  -4.07c   +56.5405
iter: 127 04:02:41  -825.290465c -6.49  -4.10c   +56.5473
iter: 128 04:04:01  -825.290681c -6.58  -4.17c   +56.5488
iter: 129 04:05:21  -825.290935c -6.64  -4.30c   +56.5519
iter: 130 04:06:40  -825.291182c -6.63  -4.30c   +56.5551
iter: 131 04:08:00  -825.291340c -6.93  -4.32c   +56.5567
iter: 132 04:09:20  -825.291590c -6.87  -4.33c   +56.5598
iter: 133 04:10:40  -825.291948c -6.77  -4.41c   +56.5647
iter: 134 04:12:00  -825.292483c -6.45  -4.41c   +56.5738
iter: 135 04:13:19  -825.292176c -7.05  -4.35c   +56.5688
iter: 136 04:14:40  -825.293172c -6.15  -4.23c   +56.5857
iter: 137 04:16:00  -825.293251c -6.95  -4.21c   +56.5829
iter: 138 04:17:21  -825.293360c -7.23  -4.20c   +56.5905
iter: 139 04:18:42  -825.293591c -6.68  -4.18c   +56.5878
iter: 140 04:20:03  -825.293840c -6.79  -4.15c   +56.5949
iter: 141 04:21:24  -825.293887c -6.74  -4.19c   +56.5962
iter: 142 04:22:45  -825.294431c -6.42  -4.12c   +56.5992
iter: 143 04:24:06  -825.294436c -6.45  -4.05c   +56.6028
iter: 144 04:25:27  -825.294530c -6.88  -4.10c   +56.6049
iter: 145 04:26:48  -825.294894c -6.67  -4.27c   +56.6080
iter: 146 04:28:09  -825.295125c -6.64  -4.28c   +56.6112
iter: 147 04:29:30  -825.295143c -7.07  -4.20c   +56.6111
iter: 148 04:30:51  -825.295345c -6.56  -4.37c   +56.6159
iter: 149 04:32:12  -825.295481c -7.08  -4.33c   +56.6146
iter: 150 04:33:33  -825.295689c -6.84  -4.46c   +56.6151
iter: 151 04:34:54  -825.295875c -7.03  -4.56c   +56.6178
iter: 152 04:36:14  -825.295637c -7.20  -4.53c   +56.6169
iter: 153 04:37:35  -825.295202c -6.61  -4.58c   +56.6183
iter: 154 04:38:56  -825.295914c -6.44  -4.63c   +56.6201
iter: 155 04:40:17  -825.295175c -6.36  -4.48c   +56.6207
iter: 156 04:41:38  -825.295435c -7.21  -4.63c   +56.6205
iter: 157 04:42:59  -825.295431c -7.38  -4.57c   +56.6201
iter: 158 04:44:20  -825.295606c -7.05  -4.56c   +56.6228
iter: 159 04:45:41  -825.295513c -7.94c -4.57c   +56.6227

Converged after 159 iterations.

Dipole moment: (28.396936, -3.167890, -10.454444) |e|*Ang

Total magnetic moment: (0.000000, 0.000000, 56.622662)
Local magnetic moments:
   0 Co ( 0.000000,  0.000000,  1.080564)
   1 Co ( 0.000000,  0.000000,  1.387584)
   2 Fe ( 0.000000,  0.000000,  2.296387)
   3 Al ( 0.000000,  0.000000, -0.041748)
   4 Co ( 0.000000,  0.000000,  1.336265)
   5 Fe ( 0.000000,  0.000000,  2.435072)
   6 Fe ( 0.000000,  0.000000,  1.962956)
   7 Cr ( 0.000000,  0.000000, -2.410926)
   8 Co ( 0.000000,  0.000000,  0.843817)
   9 Al ( 0.000000,  0.000000, -0.009583)
  10 Ni ( 0.000000,  0.000000,  0.123735)
  11 Ni ( 0.000000,  0.000000,  0.141275)
  12 Ni ( 0.000000,  0.000000,  0.173700)
  13 Al ( 0.000000,  0.000000, -0.023160)
  14 Co ( 0.000000,  0.000000,  1.279936)
  15 Co ( 0.000000,  0.000000,  0.845001)
  16 Co ( 0.000000,  0.000000,  1.238063)
  17 Fe ( 0.000000,  0.000000,  2.239509)
  18 Ni ( 0.000000,  0.000000,  0.259854)
  19 Fe ( 0.000000,  0.000000,  2.222233)
  20 Ni ( 0.000000,  0.000000,  0.102341)
  21 Co ( 0.000000,  0.000000,  1.303104)
  22 Al ( 0.000000,  0.000000, -0.016905)
  23 Co ( 0.000000,  0.000000,  0.815641)
  24 Co ( 0.000000,  0.000000,  0.352593)
  25 Fe ( 0.000000,  0.000000,  1.975930)
  26 Cr ( 0.000000,  0.000000, -1.807343)
  27 Ni ( 0.000000,  0.000000,  0.109692)
  28 Al ( 0.000000,  0.000000, -0.017598)
  29 Al ( 0.000000,  0.000000, -0.019956)
  30 Ni ( 0.000000,  0.000000,  0.305684)
  31 Cr ( 0.000000,  0.000000,  1.747735)
  32 Co ( 0.000000,  0.000000,  0.899351)
  33 Cr ( 0.000000,  0.000000, -0.436812)
  34 Cr ( 0.000000,  0.000000, -1.478930)
  35 Co ( 0.000000,  0.000000,  0.848515)
  36 Cr ( 0.000000,  0.000000, -1.488878)
  37 Al ( 0.000000,  0.000000, -0.027081)
  38 Ni ( 0.000000,  0.000000,  0.078356)
  39 Fe ( 0.000000,  0.000000,  2.220872)
  40 Al ( 0.000000,  0.000000, -0.042239)
  41 Cr ( 0.000000,  0.000000, -1.927926)
  42 Al ( 0.000000,  0.000000, -0.034029)
  43 Fe ( 0.000000,  0.000000,  1.812347)
  44 Al ( 0.000000,  0.000000, -0.033026)
  45 Fe ( 0.000000,  0.000000,  1.752082)
  46 Fe ( 0.000000,  0.000000,  1.922750)
  47 Ni ( 0.000000,  0.000000,  0.143046)
  48 Ni ( 0.000000,  0.000000,  0.335909)
  49 Ni ( 0.000000,  0.000000,  0.286671)
  50 Co ( 0.000000,  0.000000,  1.077848)
  51 Fe ( 0.000000,  0.000000,  2.310539)
  52 Co ( 0.000000,  0.000000,  1.123592)
  53 Cr ( 0.000000,  0.000000,  0.957283)
  54 Cr ( 0.000000,  0.000000, -1.471362)
  55 Cr ( 0.000000,  0.000000,  0.904354)
  56 Cr ( 0.000000,  0.000000, -1.448803)
  57 Fe ( 0.000000,  0.000000,  2.293295)
  58 Fe ( 0.000000,  0.000000,  2.183564)
  59 Co ( 0.000000,  0.000000,  1.063258)
[...]
  93 Ni ( 0.000000,  0.000000,  0.266826)
  94 Cr ( 0.000000,  0.000000,  1.586725)
  95 Al ( 0.000000,  0.000000, -0.017912)
  96 Cr ( 0.000000,  0.000000,  0.555180)
  97 Cr ( 0.000000,  0.000000, -0.930884)
  98 Fe ( 0.000000,  0.000000,  1.897703)
  99 Co ( 0.000000,  0.000000,  0.629225)
 100 Fe ( 0.000000,  0.000000, -1.693399)
 101 Cr ( 0.000000,  0.000000, -2.140812)
 102 Al ( 0.000000,  0.000000, -0.006070)
 103 Fe ( 0.000000,  0.000000,  2.169218)
 104 Co ( 0.000000,  0.000000,  1.319310)
 105 Ni ( 0.000000,  0.000000,  0.233393)
 106 Cr ( 0.000000,  0.000000, -0.670362)
 107 Co ( 0.000000,  0.000000,  0.901446)

Energy contributions relative to reference atoms: (reference = -3382523.201499)

Kinetic:       +194.219611
Potential:     -207.848051
External:        +0.000000
XC:            -842.888324
Entropy (-ST):   -4.246637
Local:          +33.344571
Free energy:   -827.418831
Extrapolated:  -825.295513

Spin contamination: 27.516350 electrons
Showing only first 2 kpts
                      Up                     Down
 Kpt  Band  Eigenvalues  Occupancy  Eigenvalues  Occupancy
  0   470      9.15714    0.99418     10.02148    0.02923
  0   471      9.16876    0.99347     10.03937    0.02456
  0   472      9.18010    0.99269     10.05359    0.02138
  0   473      9.19253    0.99173     10.06165    0.01975

  1   470      9.16392    0.99377     10.02572    0.02805
  1   471      9.17124    0.99330     10.04213    0.02391
  1   472      9.18301    0.99247     10.05530    0.02102
  1   473      9.19582    0.99145     10.06457    0.01919

Fermi level: 9.67120

No gap

Forces in eV/Ang:
  0 Co    0.07424   -0.44222    0.21394
  1 Co    0.52490   -0.25496    0.08940
  2 Fe   -0.18740   -0.19342   -0.81980
  3 Al    0.25699   -0.05241   -0.05617
  4 Co    0.18982   -0.24530   -0.45182
  5 Fe    0.17481    0.68891   -0.32715
  6 Fe    0.37641    0.23830   -0.84797
  7 Cr   -1.07741   -1.01022   -0.79203
  8 Co   -0.59670    0.32291   -0.44881
  9 Al   -0.22243   -0.61740   -1.38192
 10 Ni   -0.22296   -0.32618   -0.39119
 11 Ni   -0.12792   -0.36809   -0.46735
 12 Ni   -0.25589    0.61202    0.07212
 13 Al    0.67639   -0.35509   -0.53694
 14 Co    0.49476    0.13930    0.54530
 15 Co   -0.08549   -0.05503    0.03845
 16 Co    0.29447    0.25940    0.23771
 17 Fe   -0.59427   -0.89295    0.74966
 18 Ni   -0.43856   -0.21034   -0.04345
 19 Fe    0.31905   -0.47408    0.36228
 20 Ni   -0.09972   -0.02614   -0.38275
 21 Co    0.04925    0.69958    0.24316
 22 Al    0.47516    0.10328   -0.63001
 23 Co   -0.29063    0.59542   -0.47597
 24 Co    0.28393   -0.08794   -0.18179
 25 Fe    0.05524   -0.06238   -0.52130
 26 Cr   -0.55781    0.08556    0.02007
 27 Ni    0.76619    0.49432   -0.23919
 28 Al   -1.07567    0.15414    0.10141
 29 Al   -0.56746    0.41234   -1.07975
 30 Ni   -0.07513    0.06034    0.44166
 31 Cr    0.81106    1.34936   -0.54056
 32 Co    0.51843   -0.26110    0.18416
 33 Cr    0.42564    0.00796   -0.57257
 34 Cr   -0.78416    0.40981   -0.19296
 35 Co   -0.30386    0.11037    0.09045
 36 Cr    0.01183   -0.41312   -0.74323
 37 Al    0.23079    0.14967    0.06807
 38 Ni    0.37132    0.03386    0.18723
 39 Fe    0.36646    0.81589   -0.14729
 40 Al   -0.50696    0.72805   -0.13700
 41 Cr   -0.66076    1.44222    0.20677
 42 Al    0.19682   -0.10204    0.79881
 43 Fe   -0.57157    0.62813    0.17418
 44 Al    0.87840   -0.27139   -0.04954
 45 Fe    0.16517    0.78080    0.53011
 46 Fe   -0.14412   -0.43443    0.06610
 47 Ni    0.02128   -0.26381   -0.00617
 48 Ni    0.60457    0.32980   -0.06436
 49 Ni    0.34582    0.22400   -0.36537
 50 Co    0.66847    0.24136   -0.30645
 51 Fe    1.20090   -0.28865    0.37351
 52 Co   -0.36376    0.01794    0.38554
 53 Cr   -0.12001   -0.94806   -0.11767
 54 Cr   -0.09746    0.31225    0.36803
 55 Cr   -0.00574   -0.62092   -0.09888
 56 Cr   -0.80612    0.70366    1.02832
 57 Fe    0.17721    0.08929    0.13210
 58 Fe   -0.61886    0.22514    0.21172
 59 Co   -0.45587    0.60379    0.41194
[...]
 93 Ni    0.44138   -0.09895   -0.21804
 94 Cr    0.17293    0.41122    0.60692
 95 Al   -1.51071    0.07549   -0.75176
 96 Cr   -0.03771    0.32473    0.78012
 97 Cr    0.11975    0.02587    0.53265
 98 Fe   -0.00408    0.24322   -0.12163
 99 Co    0.29858   -0.32060    0.28747
100 Fe   -0.54731    0.28197   -0.40061
101 Cr   -0.35939    1.05821    0.27562
102 Al    1.36919    0.05857   -1.43136
103 Fe   -0.03578   -0.38532    0.68693
104 Co   -0.07709   -0.08677   -0.47172
105 Ni    0.07984    0.20478    0.12890
106 Cr   -0.61397    0.46447    0.36741
107 Co   -0.44851   -0.24922   -0.02944

Date: Sat Apr 15 04:45:58 2023