User:   c.zeng@d0090
Date:   Sat Apr 15 08:49:46 2023
Arch:   x86_64
Pid:    122422
CWD:    /home/c.zeng/projects/hea-corrosion/hea-mlp/data-curation/bulk-mcmc/dft-jobs/239
Python: 3.8.1
gpaw:   /home/c.zeng/usr/installs/gpaw/source/gpaw-22.8.0/gpaw
_gpaw:  /home/c.zeng/usr/installs/gpaw/source/gpaw-22.8.0/
        _gpaw.cpython-38-x86_64-linux-gnu.so
ase:    /home/c.zeng/.local/lib/python3.8/site-packages/ase-3.22.1-py3.8.egg/ase (version 3.22.1)
numpy:  /shared/centos7/python/3.8.1/lib/python3.8/site-packages/numpy (version 1.17.4)
scipy:  /shared/centos7/python/3.8.1/lib/python3.8/site-packages/scipy (version 1.4.1)
units:  Angstrom and eV
cores: 30
OpenMP: False
OMP_NUM_THREADS: 1

Input parameters:
  convergence: {energy: 0.0001}
  kpts: [2 2 2]
  maxiter: 666
  mode: {ecut: 350.0,
         name: pw}
  occupations: {fixmagmom: False,
                name: fermi-dirac,
                width: 0.1}
  spinpol: True
  xc: PBE

System changes: positions, numbers, cell, pbc, initial_charges, initial_magmoms

Initialize ...

species:
  Cr:
    name: Chromium
    id: 33f258bda2ca9f93018e70263a35547b
    Z: 24.0
    valence: 6
    core: 18
    charge: 0.0
    file: /home/c.zeng/usr/data/gpaw-setups-0.9.20000/Cr.PBE.gz
    compensation charges: {type: gauss,
                           rc: 0.35,
                           lmax: 2}
    cutoffs: {filter: 2.14,
              core: 3.04}
    valence states:
      #              energy  rcut
      - 4s(1.00)    -4.007   1.164
      - 4p(0.00)    -0.989   1.217
      - 3d(5.00)    -2.913   1.111
      -  s          23.205   1.164
      -  p          26.223   1.217
      -  d          24.299   1.111

    # Using partial waves for Cr as LCAO basis

  Al:
    name: Aluminium
    id: 0292cae29f5d6237e50f6abdd43a7bdd
    Z: 13.0
    valence: 3
    core: 10
    charge: 0.0
    file: /home/c.zeng/usr/data/gpaw-setups-0.9.20000/Al.PBE.gz
    compensation charges: {type: gauss,
                           rc: 0.34,
                           lmax: 2}
    cutoffs: {filter: 1.91,
              core: 2.36}
    valence states:
      #              energy  rcut
      - 3s(2.00)    -7.753   1.085
      - 3p(1.00)    -2.712   1.085
      -  s          19.459   1.085
      -  p          24.499   1.085
      -  d           0.000   1.085

[...]

  Co:
    name: Cobalt
    id: 339d20d5b0b93d2de9531a1bee871d91
    Z: 27.0
    valence: 9
    core: 18
    charge: 0.0
    file: /home/c.zeng/usr/data/gpaw-setups-0.9.20000/Co.PBE.gz
    compensation charges: {type: gauss,
                           rc: 0.32,
                           lmax: 2}
    cutoffs: {filter: 1.87,
              core: 2.55}
    valence states:
      #              energy  rcut
      - 4s(2.00)    -5.469   1.005
      - 4p(0.00)    -1.277   1.058
      - 3d(7.00)    -8.205   1.005
      -  s          21.742   1.005
      -  p          25.934   1.058
      -  d          19.007   1.005

[...]

  Ni:
    name: Nickel
    id: 0d9f38a9d6e76a2886f07bb4381f212b
    Z: 28.0
    valence: 16
    core: 12
    charge: 0.0
    file: /home/c.zeng/usr/data/gpaw-setups-0.9.20000/Ni.PBE.gz
    compensation charges: {type: gauss,
                           rc: 0.36,
                           lmax: 2}
    cutoffs: {filter: 2.14,
              core: 1.98}
    valence states:
      #              energy  rcut
      - 4s(2.00)    -5.642   1.164
      - 3p(6.00)   -71.394   1.207
      - 4p(0.00)    -1.226   1.207
      - 3d(8.00)    -8.875   1.138
      -  s          21.570   1.164
      -  d          18.337   1.138

[...]

  Fe:
    name: Iron
    id: 37abbd8d6c3c35915a9b583b742da910
    Z: 26.0
    valence: 8
    core: 18
    charge: 0.0
    file: /home/c.zeng/usr/data/gpaw-setups-0.9.20000/Fe.PBE.gz
    compensation charges: {type: gauss,
                           rc: 0.33,
                           lmax: 2}
    cutoffs: {filter: 2.06,
              core: 2.67}
    valence states:
      #              energy  rcut
      - 4s(2.00)    -5.291   1.164
      - 4p(0.00)    -1.326   1.058
      - 3d(6.00)    -7.505   1.058
      -  s          21.920   1.164
      -  p          25.885   1.058
      -  d          19.706   1.058

    # Using partial waves for Fe as LCAO basis

Reference energy: -3235165.067515  # eV

Spin-polarized calculation.
Magnetic moment: 121.100000

Convergence criteria:
 Maximum [total energy] change in last 3 cyles: 0.0001 eV / electron
 Maximum integral of absolute [dens]ity change: 0.0001 electrons / valence electron
 Maximum integral of absolute [eigenst]ate change: 4e-08 eV^2 / valence electron
 Maximum number of scf [iter]ations: 666
 (Square brackets indicate name in SCF output, whereas a 'c' in
 the SCF output indicates the quantity has converged.)

Symmetries present (total): 1

  ( 1  0  0)
  ( 0  1  0)
  ( 0  0  1)

8 k-points: 2 x 2 x 2 Monkhorst-Pack grid
4 k-points in the irreducible part of the Brillouin zone
       k-points in crystal coordinates                weights
   0:     0.25000000   -0.25000000   -0.25000000          2/8
   1:     0.25000000   -0.25000000    0.25000000          2/8
   2:     0.25000000    0.25000000   -0.25000000          2/8
   3:     0.25000000    0.25000000    0.25000000          2/8

Wave functions: Plane wave expansion
  Cutoff energy: 350.000 eV
  Number of coefficients (min, max): 19084, 19084
  Pulay-stress correction: 0.000000 eV/Ang^3 (de/decut=0.000000)
  Using FFTW library
  ScaLapack parameters: grid=1x1, blocksize=None
  Wavefunction extrapolation:
    Improved wavefunction reuse through dual PAW basis

Occupation numbers: Fermi-Dirac:
  width: 0.1000  # eV

Eigensolver
   Davidson(niter=2)

Densities:
  Coarse grid: 48*48*48 grid
  Fine grid: 96*96*96 grid
  Total Charge: 0.000000

Density mixing:
  Method: difference
  Backend: pulay
  Linear mixing parameter: 0.05
  old densities: 5
  Damping of long wavelength oscillations: 50

Hamiltonian:
  XC and Coulomb potentials evaluated on a 96*96*96 grid
  Using the PBE Exchange-Correlation functional
  External potential:
    NoExternalPotential

XC parameters: PBE with 2 nearest neighbor stencil

Total number of cores used: 30
Parallelization over k-points: 2
Domain decomposition: 5 x 3 x 1

Number of atoms: 108
Number of atomic orbitals: 933
Number of bands in calculation: 624
Number of valence electrons: 912
Bands to converge: occupied

... initialized

Initializing position-dependent things.

Density initialized from atomic densities
Creating initial wave functions:
  624 bands from LCAO basis set

        .--------Al----------------.
       /|           Fe             |
      / |    FeFe     Cr           |
     / Cr       Ni       Al        |
    /   |Fe      NiCo       Fe     |
   /    | CrCr      ACo            |
  /    Co  FeiAlAl    Co Fe  CoAl  |
 *      Fe     AlCoAl   NiFe     Cr|
 |      |FeNi   NiFeFe   AlNiCr   Co
 |      | CoNi   AlCoCoAl CrNiFe   |
 |     Fe  Al CoCo  CrCr Cr  NiCr  |
 |      Cr  Cr CrCrCo CoNiCoAl   Fe|
 |      |NiCo   CoAlAl   CoNiFe   Fe
 |      .-FeCr-----CrNi-Al--CrFe---.
 |     Al  Cr CoNi    Al Co  Ni Cr/
 |    / Co              Ni       Cr
 |   /           Ali      NiFe  /
 |  /      Ni       Fe     NiAl/
 | /                   Fe     /i
 *--------------------------Cr

Positions:
   0 Cr    10.797848    0.093654    0.085777    ( 0.0000,  0.0000,  0.0000)
   1 Al    10.831824    1.844742    1.870716    ( 0.0000,  0.0000,  2.0000)
   2 Cr     1.786803   10.847372    1.827335    ( 0.0000,  0.0000,  0.0000)
   3 Co     1.769614    1.870531   -0.031264    ( 0.0000,  0.0000,  0.0000)
   4 Al     3.620857   10.822050   10.833629    ( 0.0000,  0.0000,  1.5000)
   5 Ni     3.571246    1.883176    1.708402    ( 0.0000,  0.0000,  0.0000)
   6 Co     5.521103   10.788063    1.666217    ( 0.0000,  0.0000,  0.0000)
   7 Al     5.520831    1.813973   10.830911    ( 0.0000,  0.0000,  1.5000)
   8 Al     7.330846    0.011025   10.815657    ( 0.0000,  0.0000,  2.0000)
   9 Fe     7.282018    1.809483    1.793250    ( 0.0000,  0.0000,  2.1000)
  10 Fe     9.029996    0.022005    1.811918    ( 0.0000,  0.0000,  1.5000)
  11 Fe     9.007196    1.868639   10.825714    ( 0.0000,  0.0000,  2.0000)
  12 Ni    10.861310    3.649723    0.014171    ( 0.0000,  0.0000,  2.0000)
  13 Cr    10.867442    5.463468    1.819235    ( 0.0000,  0.0000,  2.1000)
  14 Co     1.756088    3.650267    1.845949    ( 0.0000,  0.0000,  0.0000)
  15 Fe     1.790358    5.439092   10.869084    ( 0.0000,  0.0000,  2.1000)
  16 Cr     3.687842    3.622792   -0.049287    ( 0.0000,  0.0000,  2.0000)
  17 Co     3.667347    5.391145    1.745368    ( 0.0000,  0.0000,  0.0000)
  18 Al     5.497977    3.634415    1.792370    ( 0.0000,  0.0000,  2.0000)
  19 Ni     5.524908    5.448029    0.002551    ( 0.0000,  0.0000,  2.0000)
  20 Co     7.223340    3.611877   10.834270    ( 0.0000,  0.0000,  0.0000)
  21 Al     7.217762    5.474830    1.807776    ( 0.0000,  0.0000,  2.1000)
  22 Ni     9.073442    3.654344    1.775148    ( 0.0000,  0.0000,  0.0000)
  23 Ni     9.008740    5.418608    0.007692    ( 0.0000,  0.0000,  2.0000)
  24 Cr    10.859190    7.178720    0.014480    ( 0.0000,  0.0000,  1.5000)
  25 Fe    -0.018106    8.970948    1.875391    ( 0.0000,  0.0000,  0.0000)
  26 Fe     1.817615    7.224025    1.802546    ( 0.0000,  0.0000,  1.5000)
  27 Cr     1.880729    8.993464   10.874031    ( 0.0000,  0.0000,  0.0000)
  28 Fe     3.684428    7.260447   -0.001356    ( 0.0000,  0.0000,  2.0000)
  29 Co     3.612616    9.025636    1.761807    ( 0.0000,  0.0000,  1.5000)
  30 Cr     5.481440    7.275114    1.811211    ( 0.0000,  0.0000,  1.5000)
  31 Fe     5.461261    9.048153   10.833988    ( 0.0000,  0.0000,  1.5000)
  32 Ni     7.245704    7.257881    0.056891    ( 0.0000,  0.0000,  2.1000)
  33 Co     7.301969    9.004609    1.790315    ( 0.0000,  0.0000,  0.0000)
  34 Cr     9.029343    7.181775    1.815549    ( 0.0000,  0.0000,  2.0000)
  35 Ni     9.030561    9.042010    0.020232    ( 0.0000,  0.0000,  1.5000)
  36 Fe    -0.031046    0.001947    3.645701    ( 0.0000,  0.0000,  2.0000)
  37 Fe    10.825910    1.804351    5.434602    ( 0.0000,  0.0000,  2.1000)
  38 Ni     1.743552   10.849296    5.484376    ( 0.0000,  0.0000,  0.0000)
  39 Al     1.769755    1.791891    3.636068    ( 0.0000,  0.0000,  1.5000)
  40 Al     3.516667   10.719828    3.663227    ( 0.0000,  0.0000,  0.0000)
  41 Co     3.644244    1.785205    5.586728    ( 0.0000,  0.0000,  0.0000)
  42 Al     5.484778   10.815439    5.504022    ( 0.0000,  0.0000,  0.0000)
  43 Ni     5.457934    1.842230    3.658769    ( 0.0000,  0.0000,  0.0000)
  44 Cr     7.360615   10.815439    3.672229    ( 0.0000,  0.0000,  0.0000)
  45 Al     7.266884    1.811614    5.485528    ( 0.0000,  0.0000,  2.1000)
  46 Al     9.077986    0.023590    5.491921    ( 0.0000,  0.0000,  0.0000)
  47 Co     9.066788    1.824226    3.671175    ( 0.0000,  0.0000,  1.5000)
  48 Fe    -0.047135    3.649615    3.617291    ( 0.0000,  0.0000,  2.0000)
  49 Cr    10.809264    5.435993    5.379805    ( 0.0000,  0.0000,  2.0000)
  50 Cr     1.752316    3.624989    5.344676    ( 0.0000,  0.0000,  0.0000)
  51 Ni     1.805786    5.472046    3.619389    ( 0.0000,  0.0000,  2.1000)
  52 Cr     3.649408    3.633491    3.631251    ( 0.0000,  0.0000,  2.1000)
  53 Co     3.657628    5.433797    5.434015    ( 0.0000,  0.0000,  1.5000)
  54 Cr     5.413368    3.672642    5.480309    ( 0.0000,  0.0000,  1.5000)
  55 Al     5.413835    5.465588    3.639666    ( 0.0000,  0.0000,  2.1000)
  56 Ni     7.223449    3.731734    3.720829    ( 0.0000,  0.0000,  0.0000)
  57 Cr     7.220557    5.483180    5.485572    ( 0.0000,  0.0000,  0.0000)
  58 Co     9.069039    3.623673    5.469720    ( 0.0000,  0.0000,  1.5000)
  59 Ni     9.064766    5.503837    3.636731    ( 0.0000,  0.0000,  0.0000)
[...]
  93 Co     7.214631    5.385893    9.048577    ( 0.0000,  0.0000,  2.1000)
  94 Fe     8.994291    3.655975    9.039237    ( 0.0000,  0.0000,  1.5000)
  95 Ni     9.006577    5.423262    7.223296    ( 0.0000,  0.0000,  2.0000)
  96 Cr    -0.070637    7.291956    7.110419    ( 0.0000,  0.0000,  0.0000)
  97 Cr     0.073012    9.104570    9.068375    ( 0.0000,  0.0000,  0.0000)
  98 Cr     1.863247    7.257381    9.054785    ( 0.0000,  0.0000,  2.0000)
  99 Fe     1.858343    9.053708    7.225808    ( 0.0000,  0.0000,  2.1000)
 100 Al     3.683906    7.292456    7.235550    ( 0.0000,  0.0000,  2.0000)
 101 Ni     3.628218    9.069550    9.051262    ( 0.0000,  0.0000,  2.1000)
 102 Co     5.530605    7.331890    9.040129    ( 0.0000,  0.0000,  0.0000)
 103 Al     5.476232    9.097209    7.250467    ( 0.0000,  0.0000,  2.0000)
 104 Ni     7.256827    7.264242    7.208456    ( 0.0000,  0.0000,  2.1000)
 105 Al     7.272548    9.136437    9.056861    ( 0.0000,  0.0000,  1.5000)
 106 Fe     8.936493    7.190875    9.109767    ( 0.0000,  0.0000,  0.0000)
 107 Co     8.994682    9.112169    7.218480    ( 0.0000,  0.0000,  0.0000)

Unit cell:
           periodic     x           y           z      points  spacing
  1. axis:    yes   10.872400    0.000000    0.000000    48     0.2265
  2. axis:    yes    0.000000   10.872400    0.000000    48     0.2265
  3. axis:    yes    0.000000    0.000000   10.872400    48     0.2265

  Lengths:  10.872400  10.872400  10.872400
  Angles:   90.000000  90.000000  90.000000

Effective grid spacing dv^(1/3) = 0.2265

     iter     time        total  log10-change:  magmom
                         energy  eigst   dens
iter:   1 08:52:53  -910.083270                  +120.1136
iter:   2 08:54:06  -838.285144  -0.27  -1.26    +82.3465
iter:   3 08:55:20  -832.257156  -0.83  -1.26    +49.0437
iter:   4 08:56:33  -815.873036  -1.24  -1.31    +44.7220
iter:   5 08:57:46  -807.947249  -1.78  -1.36    +41.7557
iter:   6 08:59:00  -808.356535  -1.75  -1.42    +41.1745
iter:   7 09:00:13  -810.484338  -1.48  -1.46    +41.2469
iter:   8 09:01:26  -806.373376  -1.60  -1.51    +41.5144
iter:   9 09:02:39  -805.570699  -1.86  -1.62    +41.9793
iter:  10 09:03:52  -802.217367  -1.98  -1.65    +42.7387
iter:  11 09:05:05  -802.007398  -2.32  -1.77    +43.8260
iter:  12 09:06:17  -802.087911  -2.48  -1.82    +45.4893
iter:  13 09:07:30  -803.570981  -2.48  -1.87    +47.5557
iter:  14 09:08:43  -803.357971  -2.40  -1.88    +48.4967
iter:  15 09:09:55  -802.970846  -2.62  -1.93    +50.1745
iter:  16 09:11:08  -803.298692  -2.66  -2.02    +51.7074
iter:  17 09:12:20  -803.169210  -2.84  -2.05    +52.7344
iter:  18 09:13:33  -803.240631  -2.89  -2.09    +54.3353
iter:  19 09:14:46  -803.335017  -3.03  -2.18    +55.2617
iter:  20 09:15:58  -803.788927  -2.88  -2.23    +56.6170
iter:  21 09:17:11  -803.687165  -2.98  -2.22    +57.2728
iter:  22 09:18:24  -803.519562  -3.29  -2.29    +58.0808
iter:  23 09:19:36  -803.711650  -3.21  -2.43    +59.2400
iter:  24 09:20:49  -803.779228  -3.55  -2.45    +59.9223
iter:  25 09:22:01  -803.861343  -3.58  -2.49    +60.5291
iter:  26 09:23:14  -803.987107  -3.54  -2.54    +61.2141
iter:  27 09:24:27  -804.039511  -3.68  -2.55    +61.3671
iter:  28 09:25:38  -804.048163c -3.76  -2.56    +61.5293
iter:  29 09:26:47  -804.107818c -3.89  -2.65    +61.6749
iter:  30 09:27:56  -804.131584c -3.98  -2.67    +61.7463
iter:  31 09:29:05  -804.160103c -4.11  -2.69    +61.8458
iter:  32 09:30:14  -804.205187c -4.08  -2.75    +61.9182
iter:  33 09:31:23  -804.234117c -4.27  -2.79    +61.8997
iter:  34 09:32:32  -804.273831c -4.17  -2.81    +61.8878
iter:  35 09:33:41  -804.316974c -4.11  -2.84    +61.8801
iter:  36 09:34:50  -804.421312  -3.44  -2.83    +61.6969
iter:  37 09:36:00  -804.479595  -3.72  -2.73    +61.5763
iter:  38 09:37:09  -804.444514c -4.49  -2.69    +61.6006
iter:  39 09:38:18  -804.461156c -4.74  -2.78    +61.5558
iter:  40 09:39:27  -804.488290c -4.46  -2.76    +61.4656
iter:  41 09:40:36  -804.499037c -4.30  -2.69    +61.4452
iter:  42 09:41:50  -804.464410c -4.31  -2.65    +61.3728
iter:  43 09:43:09  -804.458231c -4.61  -2.77    +61.2628
iter:  44 09:44:28  -804.488712c -3.89  -2.80    +61.1641
iter:  45 09:45:48  -804.457777c -4.04  -2.76    +61.1123
iter:  46 09:47:07  -804.460771c -4.35  -2.90    +60.9763
iter:  47 09:48:26  -804.451542c -4.75  -2.88    +60.8381
iter:  48 09:49:45  -804.460526c -4.70  -2.98    +60.6968
iter:  49 09:51:04  -804.464096c -4.81  -2.99    +60.6443
iter:  50 09:52:23  -804.469566c -4.71  -3.01    +60.5852
iter:  51 09:53:41  -804.469726c -4.71  -3.03    +60.5051
iter:  52 09:54:59  -804.482206c -4.47  -3.05    +60.4247
iter:  53 09:56:18  -804.479527c -4.68  -3.06    +60.3949
iter:  54 09:57:37  -804.482628c -4.82  -3.12    +60.3408
iter:  55 09:58:55  -804.485648c -4.90  -3.15    +60.2742
iter:  56 10:00:14  -804.489159c -5.01  -3.18    +60.1929
iter:  57 10:01:33  -804.495375c -5.13  -3.22    +60.1474
iter:  58 10:02:52  -804.497925c -5.33  -3.24    +60.1076
iter:  59 10:04:11  -804.508488c -4.95  -3.28    +60.0211
iter:  60 10:05:30  -804.507555c -5.39  -3.23    +60.0187
iter:  61 10:06:48  -804.514275c -4.99  -3.29    +59.9461
iter:  62 10:08:07  -804.522293c -4.88  -3.37    +59.8892
iter:  63 10:09:25  -804.522332c -5.01  -3.32    +59.8331
iter:  64 10:10:44  -804.532532c -5.01  -3.49    +59.7655
iter:  65 10:12:04  -804.533878c -5.33  -3.45    +59.7426
iter:  66 10:13:23  -804.540682c -5.17  -3.51    +59.6580
iter:  67 10:14:41  -804.549115c -5.17  -3.58    +59.5774
iter:  68 10:16:00  -804.535057c -5.00  -3.49    +59.7203
iter:  69 10:17:19  -804.557128c -4.59  -3.52    +59.4962
iter:  70 10:18:38  -804.559960c -5.36  -3.48    +59.4901
iter:  71 10:19:57  -804.566980c -5.19  -3.49    +59.4254
iter:  72 10:21:15  -804.581615c -4.70  -3.49    +59.3011
iter:  73 10:22:34  -804.587604c -5.11  -3.32    +59.2220
iter:  74 10:23:52  -804.594145c -4.88  -3.31    +59.1279
iter:  75 10:25:11  -804.606671c -4.67  -3.36    +58.9842
iter:  76 10:26:29  -804.616322c -4.76  -3.26    +58.8675
iter:  77 10:27:48  -804.635442c -4.27  -3.21    +58.6437
iter:  78 10:29:06  -804.638903c -4.93  -3.08    +58.6338
iter:  79 10:30:25  -804.640034c -5.16  -3.06    +58.6108
iter:  80 10:31:44  -804.640814c -5.11  -3.05    +58.6187
iter:  81 10:33:03  -804.639697c -5.13  -3.03    +58.6228
iter:  82 10:34:21  -804.655543c -4.50  -3.02    +58.6299
iter:  83 10:35:40  -804.662469c -4.07  -2.92    +58.6381
iter:  84 10:36:58  -804.638544c -4.33  -2.88    +58.6712
iter:  85 10:38:16  -804.628792c -4.57  -3.00    +58.5399
iter:  86 10:39:35  -804.627292c -4.95  -3.12    +58.5446
iter:  87 10:40:53  -804.625940c -4.88  -3.17    +58.5347
iter:  88 10:42:12  -804.622050c -4.75  -3.16    +58.5073
iter:  89 10:43:31  -804.624058c -4.91  -3.30    +58.5119
iter:  90 10:44:49  -804.627736c -4.66  -3.24    +58.5212
iter:  91 10:46:08  -804.622111c -4.93  -3.20    +58.5301
iter:  92 10:47:27  -804.618839c -5.19  -3.32    +58.4994
iter:  93 10:48:45  -804.620381c -5.37  -3.42    +58.5075
iter:  94 10:50:04  -804.618295c -5.54  -3.42    +58.5291
iter:  95 10:51:22  -804.618883c -5.53  -3.51    +58.5418
iter:  96 10:52:41  -804.618376c -5.58  -3.52    +58.5432
iter:  97 10:54:00  -804.619401c -5.52  -3.55    +58.5445
iter:  98 10:55:19  -804.619191c -5.48  -3.52    +58.5584
iter:  99 10:56:37  -804.617795c -5.55  -3.56    +58.5699
iter: 100 10:57:56  -804.617952c -5.72  -3.60    +58.5589
iter: 101 10:59:15  -804.617614c -5.85  -3.68    +58.5680
iter: 102 11:00:33  -804.617667c -6.16  -3.72    +58.5748
iter: 103 11:01:51  -804.617051c -6.15  -3.76    +58.5819
iter: 104 11:03:10  -804.616966c -6.28  -3.83    +58.5792
iter: 105 11:04:29  -804.617238c -6.36  -3.83    +58.5826
iter: 106 11:05:48  -804.617016c -6.15  -3.86    +58.5899
iter: 107 11:07:06  -804.617175c -6.00  -3.83    +58.5878
iter: 108 11:08:25  -804.616636c -6.09  -3.82    +58.5850
iter: 109 11:09:44  -804.617123c -6.15  -3.89    +58.5846
iter: 110 11:11:03  -804.616991c -6.39  -3.92    +58.5905
iter: 111 11:12:22  -804.616632c -6.69  -3.99    +58.5921
iter: 112 11:13:40  -804.616695c -6.86  -4.09c   +58.5896
iter: 113 11:14:59  -804.616642c -7.16  -4.11c   +58.5922
iter: 114 11:16:18  -804.616786c -7.02  -4.15c   +58.5945
iter: 115 11:17:36  -804.616501c -6.55  -4.14c   +58.5955
iter: 116 11:18:55  -804.616546c -6.58  -4.05c   +58.5944
iter: 117 11:20:14  -804.616707c -6.63  -4.14c   +58.5948
iter: 118 11:21:33  -804.616682c -6.60  -4.19c   +58.5984
iter: 119 11:22:52  -804.616633c -6.89  -4.15c   +58.5958
iter: 120 11:24:11  -804.616434c -7.06  -4.31c   +58.5940
iter: 121 11:25:30  -804.616579c -7.41c -4.40c   +58.5935

Converged after 121 iterations.

Dipole moment: (29.677073, 16.873011, 8.319195) |e|*Ang

Total magnetic moment: (0.000000, 0.000000, 58.593469)
Local magnetic moments:
   0 Cr ( 0.000000,  0.000000, -1.961532)
   1 Al ( 0.000000,  0.000000, -0.036125)
   2 Cr ( 0.000000,  0.000000,  1.576994)
   3 Co ( 0.000000,  0.000000,  1.030463)
   4 Al ( 0.000000,  0.000000, -0.024852)
   5 Ni ( 0.000000,  0.000000,  0.139220)
   6 Co ( 0.000000,  0.000000,  1.219165)
   7 Al ( 0.000000,  0.000000, -0.030625)
   8 Al ( 0.000000,  0.000000, -0.049383)
   9 Fe ( 0.000000,  0.000000,  2.400245)
  10 Fe ( 0.000000,  0.000000,  2.162702)
  11 Fe ( 0.000000,  0.000000,  1.960019)
  12 Ni ( 0.000000,  0.000000,  0.335569)
  13 Cr ( 0.000000,  0.000000, -1.638245)
  14 Co ( 0.000000,  0.000000,  1.147151)
  15 Fe ( 0.000000,  0.000000,  1.776598)
  16 Cr ( 0.000000,  0.000000,  1.561240)
  17 Co ( 0.000000,  0.000000,  0.446863)
  18 Al ( 0.000000,  0.000000, -0.026364)
  19 Ni ( 0.000000,  0.000000,  0.285466)
  20 Co ( 0.000000,  0.000000,  1.262387)
  21 Al ( 0.000000,  0.000000, -0.005402)
  22 Ni ( 0.000000,  0.000000,  0.306661)
  23 Ni ( 0.000000,  0.000000,  0.286928)
  24 Cr ( 0.000000,  0.000000, -1.586705)
  25 Fe ( 0.000000,  0.000000,  1.994542)
  26 Fe ( 0.000000,  0.000000,  2.096214)
  27 Cr ( 0.000000,  0.000000, -1.563290)
  28 Fe ( 0.000000,  0.000000,  2.061710)
  29 Co ( 0.000000,  0.000000,  0.674937)
  30 Cr ( 0.000000,  0.000000, -1.719806)
  31 Fe ( 0.000000,  0.000000,  2.171358)
  32 Ni ( 0.000000,  0.000000,  0.301278)
  33 Co ( 0.000000,  0.000000,  1.083046)
  34 Cr ( 0.000000,  0.000000,  1.476104)
  35 Ni ( 0.000000,  0.000000,  0.089867)
  36 Fe ( 0.000000,  0.000000,  2.171947)
  37 Fe ( 0.000000,  0.000000,  1.923249)
  38 Ni ( 0.000000,  0.000000,  0.343504)
  39 Al ( 0.000000,  0.000000, -0.033518)
  40 Al ( 0.000000,  0.000000, -0.018230)
  41 Co ( 0.000000,  0.000000,  0.984023)
  42 Al ( 0.000000,  0.000000, -0.012085)
  43 Ni ( 0.000000,  0.000000,  0.027259)
  44 Cr ( 0.000000,  0.000000, -2.213012)
  45 Al ( 0.000000,  0.000000, -0.011065)
  46 Al ( 0.000000,  0.000000, -0.025746)
  47 Co ( 0.000000,  0.000000,  1.039261)
  48 Fe ( 0.000000,  0.000000,  2.081396)
  49 Cr ( 0.000000,  0.000000, -1.651314)
  50 Cr ( 0.000000,  0.000000, -2.008118)
  51 Ni ( 0.000000,  0.000000,  0.196976)
  52 Cr ( 0.000000,  0.000000,  1.910417)
  53 Co ( 0.000000,  0.000000,  0.978164)
  54 Cr ( 0.000000,  0.000000, -1.632422)
  55 Al ( 0.000000,  0.000000,  0.003566)
  56 Ni ( 0.000000,  0.000000, -0.035142)
  57 Cr ( 0.000000,  0.000000, -1.589218)
  58 Co ( 0.000000,  0.000000,  0.880168)
  59 Ni ( 0.000000,  0.000000,  0.099127)
[...]
  93 Co ( 0.000000,  0.000000,  1.634132)
  94 Fe ( 0.000000,  0.000000,  2.313024)
  95 Ni ( 0.000000,  0.000000,  0.282140)
  96 Cr ( 0.000000,  0.000000, -1.956747)
  97 Cr ( 0.000000,  0.000000,  1.458199)
  98 Cr ( 0.000000,  0.000000,  1.155922)
  99 Fe ( 0.000000,  0.000000,  2.190223)
 100 Al ( 0.000000,  0.000000, -0.037606)
 101 Ni ( 0.000000,  0.000000,  0.147581)
 102 Co ( 0.000000,  0.000000,  1.137048)
 103 Al ( 0.000000,  0.000000, -0.007142)
 104 Ni ( 0.000000,  0.000000,  0.237199)
 105 Al ( 0.000000,  0.000000, -0.029284)
 106 Fe ( 0.000000,  0.000000,  2.481908)
 107 Co ( 0.000000,  0.000000,  0.930282)

Energy contributions relative to reference atoms: (reference = -3235165.067515)

Kinetic:       +266.372048
Potential:     -253.218179
External:        +0.000000
XC:            -846.973492
Entropy (-ST):   -4.105224
Local:          +31.255657
Free energy:   -806.669191
Extrapolated:  -804.616579

Spin contamination: 28.418666 electrons
Showing only first 2 kpts
                      Up                     Down
 Kpt  Band  Eigenvalues  Occupancy  Eigenvalues  Occupancy
  0   454      8.98314    0.99564      9.89576    0.02424
  0   455      8.99742    0.99497      9.91058    0.02097
  0   456      9.01603    0.99395      9.92790    0.01770
  0   457      9.03836    0.99245      9.94892    0.01439

  1   454      8.99027    0.99532      9.90403    0.02236
  1   455      9.00160    0.99476      9.91661    0.01977
  1   456      9.01425    0.99406      9.92640    0.01796
  1   457      9.03840    0.99245      9.94202    0.01540

Fermi level: 9.52625

No gap

Forces in eV/Ang:
  0 Cr    0.33332   -1.26723   -0.29585
  1 Al   -0.67774    0.82192   -0.66541
  2 Cr   -0.57849   -0.18768   -1.33120
  3 Co    0.15449   -0.07239   -0.13549
  4 Al   -0.21760    0.66259    0.41002
  5 Ni    0.51807   -0.44673    0.59623
  6 Co   -0.15533    0.27439    0.75116
  7 Al   -0.53918    0.17053   -0.10948
  8 Al   -0.42302   -0.18118    2.11853
  9 Fe    0.46169   -0.11161    0.91557
 10 Fe    0.17386   -0.64070    0.36661
 11 Fe    0.52352    0.33842    0.11858
 12 Ni   -0.10391   -0.26118   -0.13525
 13 Cr    0.02904   -0.30751    0.25025
 14 Co    0.30774    0.09804   -0.36960
 15 Fe    0.46991   -0.10340    0.46855
 16 Cr   -1.01677   -0.35401    0.58867
 17 Co   -0.10921    0.35505    0.26255
 18 Al   -0.50239   -0.75538    0.27054
 19 Ni   -0.34566    0.05376   -0.18710
 20 Co    0.30931    0.02971   -0.09280
 21 Al    1.68729   -0.60714   -0.41654
 22 Ni   -0.41856   -0.13919    0.34654
 23 Ni    0.02401   -0.18451   -0.14499
 24 Cr   -0.37309    1.22321   -0.20009
 25 Fe   -0.44672    0.20115   -0.84768
 26 Fe    0.29061   -0.25568   -0.24488
 27 Cr   -0.59693   -0.26474   -0.02752
 28 Fe    0.04823    0.01180    0.28208
 29 Co    0.25069   -0.15454    0.53507
 30 Cr   -0.99382    1.15560   -0.76002
 31 Fe    0.06628   -0.56129    0.64059
 32 Ni    0.15592   -0.12241   -0.48630
 33 Co   -0.14214    0.29216    0.49067
 34 Cr    0.89116    1.10771   -0.14045
 35 Ni    0.27659    0.08959   -0.24209
 36 Fe   -0.26863   -0.25623   -0.17020
 37 Fe    0.03941    0.54719   -0.09853
 38 Ni    0.71154    0.12682   -0.27851
 39 Al    0.80219    0.12153    0.43392
 40 Al    1.77514    1.27371   -0.29511
 41 Co   -0.06698    0.21872   -0.32625
 42 Al   -1.40644    1.73853   -0.51479
 43 Ni   -0.08230   -0.54532   -0.14466
 44 Cr   -0.95038    0.11837   -2.05888
 45 Al   -0.42220    1.19136   -0.79455
 46 Al    0.24730   -0.84207   -0.82897
 47 Co   -0.30933    0.39636   -0.08798
 48 Fe   -0.14285    0.64663    0.57921
 49 Cr   -0.21070   -0.09008    0.13280
 50 Cr    0.87179    0.21222    1.05549
 51 Ni    0.26766   -0.18001    0.03008
 52 Cr   -0.71740   -0.17923    0.32022
 53 Co   -0.37430    0.04356    0.21819
 54 Cr   -0.97656   -0.63168    0.23952
 55 Al   -0.32044    0.66320    0.74682
 56 Ni    0.14926   -0.36291   -0.55895
 57 Cr    0.67640    0.24458    0.62181
 58 Co    0.01567    0.14690   -0.22681
 59 Ni   -0.27562   -0.62156   -0.03010
[...]
 93 Co   -0.15423    0.28581    0.05494
 94 Fe   -0.22984   -0.23671    0.14686
 95 Ni    0.23451    0.09936    0.01872
 96 Cr   -0.03035    0.56014    0.61662
 97 Cr   -0.68164   -0.81929    0.74653
 98 Cr   -0.99792    0.22400    0.59722
 99 Fe   -0.52197   -0.10032   -0.14309
100 Al   -0.38233   -0.64978   -0.52190
101 Ni    0.20794   -0.21879    0.05132
102 Co   -0.28520   -0.65382    0.21494
103 Al   -0.62590   -0.92254    0.81257
104 Ni    0.15924   -0.20324    0.51662
105 Al    0.32072   -2.28154   -0.27849
106 Fe    0.72700    0.09656   -0.41706
107 Co    1.04749   -0.73882    0.46249

Date: Sat Apr 15 11:25:48 2023