User:   c.zeng@d0143
Date:   Sat Apr  8 00:27:32 2023
Arch:   x86_64
Pid:    3330
CWD:    /home/c.zeng/projects/hea-corrosion/hea-mlp/data-curation/volume/dft-jobs/11
Python: 3.8.1
gpaw:   /home/c.zeng/usr/installs/gpaw/source/gpaw-22.8.0/gpaw
_gpaw:  /home/c.zeng/usr/installs/gpaw/source/gpaw-22.8.0/
        _gpaw.cpython-38-x86_64-linux-gnu.so
ase:    /home/c.zeng/.local/lib/python3.8/site-packages/ase-3.22.1-py3.8.egg/ase (version 3.22.1)
numpy:  /shared/centos7/python/3.8.1/lib/python3.8/site-packages/numpy (version 1.17.4)
scipy:  /shared/centos7/python/3.8.1/lib/python3.8/site-packages/scipy (version 1.4.1)
units:  Angstrom and eV
cores: 64
OpenMP: False
OMP_NUM_THREADS: 1

Input parameters:
  convergence: {energy: 0.0001}
  kpts: [2 2 2]
  maxiter: 666
  mode: {ecut: 350.0,
         name: pw}
  occupations: {fixmagmom: False,
                name: fermi-dirac,
                width: 0.1}
  spinpol: True
  xc: PBE

System changes: positions, numbers, cell, pbc, initial_charges, initial_magmoms

Initialize ...

species:
  Co:
    name: Cobalt
    id: 339d20d5b0b93d2de9531a1bee871d91
    Z: 27.0
    valence: 9
    core: 18
    charge: 0.0
    file: /home/c.zeng/usr/data/gpaw-setups-0.9.20000/Co.PBE.gz
    compensation charges: {type: gauss,
                           rc: 0.32,
                           lmax: 2}
    cutoffs: {filter: 1.87,
              core: 2.55}
    valence states:
      #              energy  rcut
      - 4s(2.00)    -5.469   1.005
      - 4p(0.00)    -1.277   1.058
      - 3d(7.00)    -8.205   1.005
      -  s          21.742   1.005
      -  p          25.934   1.058
      -  d          19.007   1.005

    # Using partial waves for Co as LCAO basis

  Fe:
    name: Iron
    id: 37abbd8d6c3c35915a9b583b742da910
    Z: 26.0
    valence: 8
    core: 18
    charge: 0.0
    file: /home/c.zeng/usr/data/gpaw-setups-0.9.20000/Fe.PBE.gz
    compensation charges: {type: gauss,
                           rc: 0.33,
                           lmax: 2}
    cutoffs: {filter: 2.06,
              core: 2.67}
    valence states:
      #              energy  rcut
      - 4s(2.00)    -5.291   1.164
      - 4p(0.00)    -1.326   1.058
      - 3d(6.00)    -7.505   1.058
      -  s          21.920   1.164
      -  p          25.885   1.058
      -  d          19.706   1.058

[...]

  Cr:
    name: Chromium
    id: 33f258bda2ca9f93018e70263a35547b
    Z: 24.0
    valence: 6
    core: 18
    charge: 0.0
    file: /home/c.zeng/usr/data/gpaw-setups-0.9.20000/Cr.PBE.gz
    compensation charges: {type: gauss,
                           rc: 0.35,
                           lmax: 2}
    cutoffs: {filter: 2.14,
              core: 3.04}
    valence states:
      #              energy  rcut
      - 4s(1.00)    -4.007   1.164
      - 4p(0.00)    -0.989   1.217
      - 3d(5.00)    -2.913   1.111
      -  s          23.205   1.164
      -  p          26.223   1.217
      -  d          24.299   1.111

[...]

  Ni:
    name: Nickel
    id: 0d9f38a9d6e76a2886f07bb4381f212b
    Z: 28.0
    valence: 16
    core: 12
    charge: 0.0
    file: /home/c.zeng/usr/data/gpaw-setups-0.9.20000/Ni.PBE.gz
    compensation charges: {type: gauss,
                           rc: 0.36,
                           lmax: 2}
    cutoffs: {filter: 2.14,
              core: 1.98}
    valence states:
      #              energy  rcut
      - 4s(2.00)    -5.642   1.164
      - 3p(6.00)   -71.394   1.207
      - 4p(0.00)    -1.226   1.207
      - 3d(8.00)    -8.875   1.138
      -  s          21.570   1.164
      -  d          18.337   1.138

    # Using partial waves for Ni as LCAO basis

Reference energy: -3846758.590871  # eV

Spin-polarized calculation.
Magnetic moment: 151.200000

Convergence criteria:
 Maximum [total energy] change in last 3 cyles: 0.0001 eV / electron
 Maximum integral of absolute [dens]ity change: 0.0001 electrons / valence electron
 Maximum integral of absolute [eigenst]ate change: 4e-08 eV^2 / valence electron
 Maximum number of scf [iter]ations: 666
 (Square brackets indicate name in SCF output, whereas a 'c' in
 the SCF output indicates the quantity has converged.)

Symmetries present (total): 1

  ( 1  0  0)
  ( 0  1  0)
  ( 0  0  1)

8 k-points: 2 x 2 x 2 Monkhorst-Pack grid
4 k-points in the irreducible part of the Brillouin zone
       k-points in crystal coordinates                weights
   0:     0.25000000   -0.25000000   -0.25000000          2/8
   1:     0.25000000   -0.25000000    0.25000000          2/8
   2:     0.25000000    0.25000000   -0.25000000          2/8
   3:     0.25000000    0.25000000    0.25000000          2/8

Wave functions: Plane wave expansion
  Cutoff energy: 350.000 eV
  Number of coefficients (min, max): 18805, 18805
  Pulay-stress correction: 0.000000 eV/Ang^3 (de/decut=0.000000)
  Using FFTW library
  ScaLapack parameters: grid=1x1, blocksize=None
  Wavefunction extrapolation:
    Improved wavefunction reuse through dual PAW basis

Occupation numbers: Fermi-Dirac:
  width: 0.1000  # eV

Eigensolver
   Davidson(niter=2)

Densities:
  Coarse grid: 48*48*48 grid
  Fine grid: 96*96*96 grid
  Total Charge: 0.000000

Density mixing:
  Method: difference
  Backend: pulay
  Linear mixing parameter: 0.05
  old densities: 5
  Damping of long wavelength oscillations: 50

Hamiltonian:
  XC and Coulomb potentials evaluated on a 96*96*96 grid
  Using the PBE Exchange-Correlation functional
  External potential:
    NoExternalPotential

XC parameters: PBE with 2 nearest neighbor stencil

Total number of cores used: 64
Parallelization over k-points: 4
Domain decomposition: 4 x 2 x 2

Number of atoms: 108
Number of atomic orbitals: 1053
Number of bands in calculation: 727
Number of valence electrons: 1053
Bands to converge: occupied

... initialized

Initializing position-dependent things.

Density initialized from atomic densities
Creating initial wave functions:
  727 bands from LCAO basis set

       /|  Cr       Co       Cr    |
      / |      Fe     Fe           |
     / Co       Cr       Co        |
    /   CFee      Cre       Cr     |
   /    |   Ni      CCo      Cr    |
  /  CoFe  Cr FeCr    Ni Co        |
 *    NiCrCr   CoNiFe   NiNi       |
 |Co   FeNiCo   NiCoFe   CoCr      |
 |   Fe FeFeCr     CoNiCo   CrCr   |
 |   NiCr  NiFe Cr  NiFe Ni  Ni    |
 |    NiFeCr   FeFeNi   FeCo       |
 |Ni    |CoCo   CrNiFe   NiNi     Co
 | Cr   .-CrCo-----CoNi-----Ni-----.
 |   Cr/     CoCre     NNi        /
 |    FFer       Ni     CCoo     /
 |   /    Fe       Fe      Cr   /
 |Co/      Cr       Ni         /
 | /rFe        Co       Ni    /
 Co-------------------------*

Positions:
   0 Co     0.000018    0.000014   10.813500    ( 0.0000,  0.0000,  2.1000)
   1 Co     0.000019    1.802210    1.802254    ( 0.0000,  0.0000,  2.1000)
   2 Fe     1.802221    0.000038    1.802264    ( 0.0000,  0.0000,  2.0000)
   3 Fe     1.802232    1.802221   10.813489    ( 0.0000,  0.0000,  2.0000)
   4 Cr     3.604486    0.000026   10.813478    ( 0.0000,  0.0000,  0.0000)
   5 Cr     3.604464    1.802221    1.802308    ( 0.0000,  0.0000,  0.0000)
   6 Co     5.406772   10.813500    1.802275    ( 0.0000,  0.0000,  2.1000)
   7 Cr     5.406793    1.802221   10.813468    ( 0.0000,  0.0000,  0.0000)
   8 Fe     7.208993    0.000017   10.813478    ( 0.0000,  0.0000,  2.0000)
   9 Ni     7.209014    1.802232    1.802264    ( 0.0000,  0.0000,  1.5000)
  10 Ni     9.011257    0.000026    1.802264    ( 0.0000,  0.0000,  1.5000)
  11 Co     9.011236    1.802243   10.813489    ( 0.0000,  0.0000,  2.1000)
  12 Cr    10.813500    3.604507    0.000005    ( 0.0000,  0.0000,  0.0000)
  13 Fe    10.813500    5.406782    1.802221    ( 0.0000,  0.0000,  2.0000)
  14 Cr     1.802243    3.604496    1.802264    ( 0.0000,  0.0000,  0.0000)
  15 Fe     1.802254    5.406782   10.813478    ( 0.0000,  0.0000,  2.0000)
  16 Ni     3.604486    3.604540   10.813478    ( 0.0000,  0.0000,  1.5000)
  17 Co     3.604486    5.406772    1.802243    ( 0.0000,  0.0000,  2.1000)
  18 Ni     5.406772    3.604507    1.802286    ( 0.0000,  0.0000,  1.5000)
  19 Cr     5.406707    5.406782   10.813468    ( 0.0000,  0.0000,  0.0000)
  20 Co     7.209014    3.604464   10.813489    ( 0.0000,  0.0000,  2.1000)
  21 Ni     7.209014    5.406761    1.802286    ( 0.0000,  0.0000,  1.5000)
  22 Co     9.011236    3.604507    1.802254    ( 0.0000,  0.0000,  2.1000)
  23 Cr     9.011290    5.406739    0.000022    ( 0.0000,  0.0000,  0.0000)
  24 Fe     0.000030    7.208971   10.813500    ( 0.0000,  0.0000,  2.0000)
  25 Co    10.813489    9.011257    1.802264    ( 0.0000,  0.0000,  2.1000)
  26 Cr     1.802243    7.208950    1.802232    ( 0.0000,  0.0000,  0.0000)
  27 Cr     1.802210    9.011246   10.813478    ( 0.0000,  0.0000,  0.0000)
  28 Fe     3.604496    7.208950   10.813478    ( 0.0000,  0.0000,  2.0000)
  29 Cr     3.604518    9.011246    1.802286    ( 0.0000,  0.0000,  0.0000)
  30 Co     5.406750    7.209004    1.802264    ( 0.0000,  0.0000,  2.1000)
  31 Co     5.406782    9.011246   10.813468    ( 0.0000,  0.0000,  2.1000)
  32 Cr     7.208960    7.209014   10.813500    ( 0.0000,  0.0000,  0.0000)
  33 Ni     7.208982    9.011257    1.802275    ( 0.0000,  0.0000,  1.5000)
  34 Ni     9.011268    7.208971    1.802275    ( 0.0000,  0.0000,  1.5000)
  35 Cr     9.011257    9.011279   10.813489    ( 0.0000,  0.0000,  0.0000)
  36 Fe     0.000015   10.813489    3.604486    ( 0.0000,  0.0000,  2.0000)
  37 Ni    10.813500    1.802232    5.406718    ( 0.0000,  0.0000,  1.5000)
  38 Cr     1.802221    0.000010    5.406685    ( 0.0000,  0.0000,  0.0000)
  39 Fe     1.802254    1.802221    3.604496    ( 0.0000,  0.0000,  2.0000)
  40 Fe     3.604496    0.000016    3.604486    ( 0.0000,  0.0000,  2.0000)
  41 Co     3.604507    1.802286    5.406696    ( 0.0000,  0.0000,  2.1000)
  42 Cr     5.406782    0.000026    5.406696    ( 0.0000,  0.0000,  0.0000)
  43 Fe     5.406761    1.802232    3.604518    ( 0.0000,  0.0000,  2.0000)
  44 Fe     7.208993    0.000010    3.604486    ( 0.0000,  0.0000,  2.0000)
  45 Fe     7.208993    1.802275    5.406739    ( 0.0000,  0.0000,  2.0000)
  46 Ni     9.011246    0.000017    5.406718    ( 0.0000,  0.0000,  1.5000)
  47 Co     9.011236    1.802232    3.604507    ( 0.0000,  0.0000,  2.1000)
  48 Cr     0.000010    3.604486    3.604507    ( 0.0000,  0.0000,  0.0000)
  49 Ni     0.000038    5.406772    5.406739    ( 0.0000,  0.0000,  1.5000)
  50 Fe     1.802275    3.604529    5.406728    ( 0.0000,  0.0000,  2.0000)
  51 Co     1.802264    5.406750    3.604529    ( 0.0000,  0.0000,  2.1000)
  52 Co     3.604507    3.604496    3.604550    ( 0.0000,  0.0000,  2.1000)
  53 Fe     3.604496    5.406750    5.406739    ( 0.0000,  0.0000,  2.0000)
  54 Fe     5.406772    3.604518    5.406728    ( 0.0000,  0.0000,  2.0000)
  55 Ni     5.406739    5.406761    3.604540    ( 0.0000,  0.0000,  1.5000)
  56 Ni     7.208982    3.604475    3.604540    ( 0.0000,  0.0000,  1.5000)
  57 Fe     7.208982    5.406739    5.406739    ( 0.0000,  0.0000,  2.0000)
  58 Co     9.011214    3.604496    5.406739    ( 0.0000,  0.0000,  2.1000)
  59 Ni     9.011236    5.406750    3.604496    ( 0.0000,  0.0000,  1.5000)
[...]
  93 Ni     7.208971    5.406739    9.011225    ( 0.0000,  0.0000,  1.5000)
  94 Ni     9.011214    3.604464    9.011257    ( 0.0000,  0.0000,  1.5000)
  95 Cr     9.011225    5.406728    7.208982    ( 0.0000,  0.0000,  0.0000)
  96 Ni     0.000052    7.209014    7.209014    ( 0.0000,  0.0000,  1.5000)
  97 Co     0.000011    9.011257    9.011246    ( 0.0000,  0.0000,  2.1000)
  98 Fe     1.802264    7.208971    9.011268    ( 0.0000,  0.0000,  2.0000)
  99 Cr     1.802210    9.011214    7.208993    ( 0.0000,  0.0000,  0.0000)
 100 Co     3.604507    7.208971    7.209004    ( 0.0000,  0.0000,  2.1000)
 101 Cr     3.604529    9.011214    9.011246    ( 0.0000,  0.0000,  0.0000)
 102 Fe     5.406718    7.209014    9.011246    ( 0.0000,  0.0000,  2.0000)
 103 Co     5.406772    9.011225    7.209036    ( 0.0000,  0.0000,  2.1000)
 104 Ni     7.208939    7.208993    7.208982    ( 0.0000,  0.0000,  1.5000)
 105 Co     7.208960    9.011290    9.011246    ( 0.0000,  0.0000,  2.1000)
 106 Cr     9.011279    7.208993    9.011268    ( 0.0000,  0.0000,  0.0000)
 107 Cr     9.011257    9.011279    7.208993    ( 0.0000,  0.0000,  0.0000)

Unit cell:
           periodic     x           y           z      points  spacing
  1. axis:    yes   10.813500    0.000000    0.000000    48     0.2253
  2. axis:    yes    0.000000   10.813500    0.000000    48     0.2253
  3. axis:    yes    0.000000    0.000000   10.813500    48     0.2253

  Lengths:  10.813500  10.813500  10.813500
  Angles:   90.000000  90.000000  90.000000

Effective grid spacing dv^(1/3) = 0.2253

     iter     time        total  log10-change:  magmom
                         energy  eigst   dens
iter:   1 00:30:14 -1099.149536                  +151.4725
iter:   2 00:31:20  -954.402168  -0.24  -1.19    +84.9966
iter:   3 00:32:27  -951.107305  -0.86  -1.23    +74.1785
iter:   4 00:33:33  -931.358741  -1.16  -1.28    +69.7160
iter:   5 00:34:38  -909.183460  -1.60  -1.28    +65.0403
iter:   6 00:35:46  -907.706647  -1.35  -1.37    +66.5073
iter:   7 00:36:56  -902.508350  -1.23  -1.45    +66.0741
iter:   8 00:38:00  -888.256956  -1.58  -1.55    +65.5338
iter:   9 00:39:08  -886.614135  -2.16  -1.80    +66.9493
iter:  10 00:40:15  -886.825551  -2.33  -1.83    +69.4613
iter:  11 00:41:21  -886.746951  -2.60  -1.88    +71.1336
iter:  12 00:42:26  -887.012389  -2.73  -1.90    +72.6575
iter:  13 00:43:34  -888.182494  -2.60  -1.95    +74.1506
iter:  14 00:44:40  -888.746181  -2.44  -1.98    +75.0485
iter:  15 00:45:47  -888.930316  -2.55  -2.03    +75.3927
iter:  16 00:46:53  -888.769249  -2.58  -2.08    +74.9281
iter:  17 00:47:59  -888.358259  -2.81  -2.12    +75.9163
iter:  18 00:49:04  -888.177277  -3.02  -2.20    +76.2222
iter:  19 00:50:10  -888.305048  -3.26  -2.27    +75.9982
iter:  20 00:51:19  -888.241898  -3.28  -2.29    +75.8912
iter:  21 00:52:23  -888.327240c -3.30  -2.37    +75.9694
iter:  22 00:53:33  -888.305308c -3.42  -2.35    +76.1807
iter:  23 00:54:41  -888.565489  -3.29  -2.43    +75.6935
iter:  24 00:55:48  -888.373812  -3.36  -2.38    +75.6070
iter:  25 00:56:56  -888.526305  -3.36  -2.48    +75.6209
iter:  26 00:58:01  -888.394054  -3.54  -2.46    +75.6048
iter:  27 00:59:08  -888.501462  -3.61  -2.57    +75.4244
iter:  28 01:00:01  -888.400844  -3.88  -2.54    +75.1266
iter:  29 01:01:02  -888.459087c -3.92  -2.64    +75.0922
iter:  30 01:02:07  -888.444482c -4.29  -2.62    +74.8474
iter:  31 01:03:14  -888.496224c -4.26  -2.68    +74.5763
iter:  32 01:04:21  -888.508200c -4.26  -2.67    +74.2928
iter:  33 01:05:29  -888.595804c -3.87  -2.71    +74.1021
iter:  34 01:06:40  -888.575253c -3.91  -2.65    +74.0546
iter:  35 01:07:52  -888.718933  -3.64  -2.76    +73.7155
iter:  36 01:09:01  -888.595222  -3.84  -2.62    +73.6175
iter:  37 01:10:09  -888.638632  -3.88  -2.82    +73.5054
iter:  38 01:11:17  -888.589178c -4.12  -2.76    +73.5162
iter:  39 01:12:25  -888.590695c -4.45  -2.90    +73.4094
iter:  40 01:13:32  -888.586020c -4.87  -2.95    +73.2057
iter:  41 01:14:40  -888.598782c -5.02  -3.01    +73.0897
iter:  42 01:15:50  -888.629787c -4.49  -3.02    +72.7661
iter:  43 01:16:56  -888.638950c -4.85  -2.98    +72.5867
iter:  44 01:18:03  -888.644620c -5.24  -2.97    +72.5074
iter:  45 01:19:10  -888.666142c -4.97  -2.98    +72.3173
iter:  46 01:20:17  -888.657177c -5.63  -2.93    +72.4306
iter:  47 01:21:23  -888.682043c -4.50  -2.94    +72.2001
iter:  48 01:22:30  -888.661126c -5.13  -2.91    +72.2356
iter:  49 01:23:38  -888.666716c -5.18  -2.98    +72.0790
iter:  50 01:24:47  -888.663520c -4.62  -2.99    +72.0443
iter:  51 01:25:57  -888.685055c -4.33  -3.14    +71.9539
iter:  52 01:27:03  -888.667227c -4.70  -3.09    +71.9062
iter:  53 01:28:10  -888.667631c -5.15  -3.26    +71.8621
iter:  54 01:29:16  -888.667966c -5.50  -3.37    +71.7869
iter:  55 01:30:22  -888.669676c -5.48  -3.43    +71.7632
iter:  56 01:31:28  -888.672869c -5.39  -3.45    +71.7237
iter:  57 01:32:34  -888.671808c -5.45  -3.42    +71.6748
iter:  58 01:33:43  -888.674237c -5.38  -3.63    +71.6329
iter:  59 01:34:50  -888.673908c -5.52  -3.57    +71.6076
iter:  60 01:35:56  -888.675622c -5.68  -3.64    +71.5604
iter:  61 01:37:04  -888.677188c -5.99  -3.79    +71.4953
iter:  62 01:38:11  -888.678478c -6.17  -3.82    +71.4560
iter:  63 01:39:17  -888.680450c -6.12  -3.79    +71.4174
iter:  64 01:40:24  -888.682065c -6.03  -3.75    +71.3856
iter:  65 01:41:30  -888.683333c -5.91  -3.71    +71.3466
iter:  66 01:42:36  -888.684686c -6.00  -3.66    +71.3236
iter:  67 01:43:42  -888.686114c -6.03  -3.68    +71.2742
iter:  68 01:44:48  -888.691237c -5.42  -3.69    +71.2072
iter:  69 01:45:53  -888.692002c -5.34  -3.47    +71.2029
iter:  70 01:46:59  -888.692113c -5.42  -3.49    +71.1309
iter:  71 01:48:05  -888.690700c -5.84  -3.53    +71.1084
iter:  72 01:49:11  -888.691696c -5.72  -3.64    +71.0776
iter:  73 01:50:18  -888.693364c -6.06  -3.69    +71.0454
iter:  74 01:51:24  -888.694136c -5.53  -3.57    +71.0252
iter:  75 01:52:32  -888.695633c -5.41  -3.50    +70.9810
iter:  76 01:53:39  -888.694283c -5.84  -3.53    +70.9472
iter:  77 01:54:45  -888.695096c -5.72  -3.65    +70.9184
iter:  78 01:55:50  -888.694688c -6.30  -3.58    +70.9160
iter:  79 01:56:56  -888.695873c -6.22  -3.70    +70.8903
iter:  80 01:58:01  -888.696939c -5.70  -3.70    +70.8771
iter:  81 01:59:06  -888.697698c -5.69  -3.53    +70.8568
iter:  82 02:00:11  -888.697598c -6.04  -3.59    +70.8337
iter:  83 02:01:17  -888.697260c -5.90  -3.62    +70.8199
iter:  84 02:02:24  -888.697592c -5.62  -3.66    +70.7955
iter:  85 02:03:29  -888.697199c -6.02  -3.54    +70.7988
iter:  86 02:04:35  -888.696433c -5.85  -3.67    +70.7872
iter:  87 02:05:41  -888.697206c -6.22  -3.67    +70.7774
iter:  88 02:06:46  -888.696760c -6.19  -3.70    +70.7744
iter:  89 02:07:51  -888.697077c -6.23  -3.72    +70.7677
iter:  90 02:08:59  -888.697935c -5.91  -3.70    +70.7590
iter:  91 02:10:06  -888.696853c -6.17  -3.72    +70.7410
iter:  92 02:11:13  -888.698538c -5.85  -3.82    +70.7384
iter:  93 02:12:19  -888.697619c -5.99  -3.69    +70.7395
iter:  94 02:13:25  -888.697209c -6.35  -3.89    +70.7364
iter:  95 02:14:30  -888.697350c -6.49  -3.93    +70.7294
iter:  96 02:15:37  -888.697060c -6.48  -3.93    +70.7206
iter:  97 02:16:42  -888.697389c -6.88  -3.99    +70.7229
iter:  98 02:17:51  -888.697231c -6.74  -4.02c   +70.7174
iter:  99 02:18:57  -888.697308c -6.58  -4.01c   +70.7132
iter: 100 02:20:05  -888.697834c -6.36  -4.02c   +70.7090
iter: 101 02:21:11  -888.697543c -6.60  -3.98    +70.7082
iter: 102 02:22:16  -888.697890c -6.42  -4.13c   +70.7080
iter: 103 02:23:22  -888.697299c -6.49  -4.04c   +70.6991
iter: 104 02:24:30  -888.697568c -6.89  -4.10c   +70.6968
iter: 105 02:25:38  -888.697609c -6.99  -4.29c   +70.6939
iter: 106 02:26:45  -888.697546c -7.24  -4.32c   +70.6917
iter: 107 02:27:52  -888.697619c -7.76c -4.35c   +70.6874

Converged after 107 iterations.

Dipole moment: (-0.143837, 0.133053, -0.012737) |e|*Ang

Total magnetic moment: (0.000000, 0.000000, 70.687408)
Local magnetic moments:
   0 Co ( 0.000000,  0.000000,  1.458457)
   1 Co ( 0.000000,  0.000000,  1.147555)
   2 Fe ( 0.000000,  0.000000,  2.178069)
   3 Fe ( 0.000000,  0.000000,  1.926252)
   4 Cr ( 0.000000,  0.000000,  0.979054)
   5 Cr ( 0.000000,  0.000000, -1.608692)
   6 Co ( 0.000000,  0.000000,  1.005525)
   7 Cr ( 0.000000,  0.000000, -1.775841)
   8 Fe ( 0.000000,  0.000000,  2.505873)
   9 Ni ( 0.000000,  0.000000,  0.480713)
  10 Ni ( 0.000000,  0.000000,  0.570249)
  11 Co ( 0.000000,  0.000000,  1.671755)
  12 Cr ( 0.000000,  0.000000, -0.830677)
  13 Fe ( 0.000000,  0.000000,  2.039841)
  14 Cr ( 0.000000,  0.000000, -1.374381)
  15 Fe ( 0.000000,  0.000000,  1.952912)
  16 Ni ( 0.000000,  0.000000,  0.125507)
  17 Co ( 0.000000,  0.000000,  1.253953)
  18 Ni ( 0.000000,  0.000000,  0.317766)
  19 Cr ( 0.000000,  0.000000, -2.111431)
  20 Co ( 0.000000,  0.000000,  1.389498)
  21 Ni ( 0.000000,  0.000000,  0.324020)
  22 Co ( 0.000000,  0.000000,  1.397059)
  23 Cr ( 0.000000,  0.000000, -1.642559)
  24 Fe ( 0.000000,  0.000000,  2.061447)
  25 Co ( 0.000000,  0.000000,  1.310235)
  26 Cr ( 0.000000,  0.000000, -1.632533)
  27 Cr ( 0.000000,  0.000000, -1.295484)
  28 Fe ( 0.000000,  0.000000,  2.050195)
  29 Cr ( 0.000000,  0.000000, -1.584564)
  30 Co ( 0.000000,  0.000000,  1.361770)
  31 Co ( 0.000000,  0.000000,  0.926764)
  32 Cr ( 0.000000,  0.000000,  1.445843)
  33 Ni ( 0.000000,  0.000000,  0.459379)
  34 Ni ( 0.000000,  0.000000,  0.316487)
  35 Cr ( 0.000000,  0.000000, -2.033377)
  36 Fe ( 0.000000,  0.000000,  2.545660)
  37 Ni ( 0.000000,  0.000000,  0.313526)
  38 Cr ( 0.000000,  0.000000, -1.488259)
  39 Fe ( 0.000000,  0.000000,  2.038474)
  40 Fe ( 0.000000,  0.000000,  2.323328)
  41 Co ( 0.000000,  0.000000,  0.715366)
  42 Cr ( 0.000000,  0.000000, -1.813808)
  43 Fe ( 0.000000,  0.000000,  2.370104)
  44 Fe ( 0.000000,  0.000000,  2.636128)
  45 Fe ( 0.000000,  0.000000,  2.441285)
  46 Ni ( 0.000000,  0.000000,  0.507925)
  47 Co ( 0.000000,  0.000000,  1.621661)
  48 Cr ( 0.000000,  0.000000, -1.868439)
  49 Ni ( 0.000000,  0.000000,  0.202803)
  50 Fe ( 0.000000,  0.000000,  2.204454)
  51 Co ( 0.000000,  0.000000,  1.254482)
  52 Co ( 0.000000,  0.000000,  1.242188)
  53 Fe ( 0.000000,  0.000000,  2.478721)
  54 Fe ( 0.000000,  0.000000,  2.344127)
  55 Ni ( 0.000000,  0.000000,  0.576452)
  56 Ni ( 0.000000,  0.000000,  0.542421)
  57 Fe ( 0.000000,  0.000000,  2.457358)
  58 Co ( 0.000000,  0.000000,  1.326883)
  59 Ni ( 0.000000,  0.000000,  0.388564)
[...]
  93 Ni ( 0.000000,  0.000000,  0.229409)
  94 Ni ( 0.000000,  0.000000,  0.163784)
  95 Cr ( 0.000000,  0.000000, -1.778892)
  96 Ni ( 0.000000,  0.000000,  0.178979)
  97 Co ( 0.000000,  0.000000,  0.868149)
  98 Fe ( 0.000000,  0.000000,  2.086715)
  99 Cr ( 0.000000,  0.000000, -1.674120)
 100 Co ( 0.000000,  0.000000,  1.345527)
 101 Cr ( 0.000000,  0.000000, -1.480148)
 102 Fe ( 0.000000,  0.000000,  2.366545)
 103 Co ( 0.000000,  0.000000,  1.320300)
 104 Ni ( 0.000000,  0.000000,  0.229432)
 105 Co ( 0.000000,  0.000000,  1.163935)
 106 Cr ( 0.000000,  0.000000,  1.564655)
 107 Cr ( 0.000000,  0.000000, -1.883248)

Energy contributions relative to reference atoms: (reference = -3846758.590871)

Kinetic:        -60.513679
Potential:      -41.597322
External:        +0.000000
XC:            -823.416180
Entropy (-ST):   -4.681521
Local:          +39.170322
Free energy:   -891.038380
Extrapolated:  -888.697619

Spin contamination: 40.774664 electrons
Showing only first 2 kpts
                      Up                     Down
 Kpt  Band  Eigenvalues  Occupancy  Eigenvalues  Occupancy
  0   524      8.99128    0.99785      9.97800    0.02353
  0   525      9.01131    0.99738      9.98234    0.02256
  0   526      9.02908    0.99687      9.99379    0.02017
  0   527      9.04357    0.99638     10.00946    0.01729

  1   524      8.98674    0.99795      9.96528    0.02664
  1   525      9.00104    0.99763      9.98051    0.02296
  1   526      9.01048    0.99740      9.99285    0.02035
  1   527      9.02828    0.99690     10.00163    0.01867

Fermi level: 9.60545

No gap

Forces in eV/Ang:
  0 Co    0.00196   -0.12114   -0.07020
  1 Co   -0.21457    0.19514   -0.02548
  2 Fe   -0.29141   -0.08058   -0.09809
  3 Fe   -0.14439    0.24149    0.11186
  4 Cr    0.11784   -0.22543   -0.02683
  5 Cr    0.08363   -0.21930    0.34331
  6 Co    0.03233   -0.13225   -0.02002
  7 Cr    0.13196    0.04599   -0.23508
  8 Fe   -0.16269   -0.23396    0.25890
  9 Ni    0.13212    0.12805   -0.03906
 10 Ni    0.02271    0.13870   -0.04698
 11 Co    0.23433   -0.00987    0.16244
 12 Cr   -0.10229   -0.16157   -0.36802
 13 Fe    0.05141   -0.10393    0.15474
 14 Cr    0.18677    0.44310   -0.26750
 15 Fe    0.06488   -0.17099    0.24008
 16 Ni   -0.09131   -0.07687    0.02814
 17 Co    0.01116   -0.09914    0.16414
 18 Ni    0.04732   -0.05088    0.00798
 19 Cr    0.03370    0.00133    0.19823
 20 Co    0.05231   -0.04455    0.03990
 21 Ni    0.16190   -0.04153    0.03689
 22 Co    0.05336   -0.26006   -0.21393
 23 Cr   -0.08176    0.09336   -0.10046
 24 Fe    0.19696    0.26188    0.18204
 25 Co    0.04432   -0.01806   -0.00247
 26 Cr   -0.21725   -0.50890    0.05014
 27 Cr   -0.82089    0.37057   -0.06079
 28 Fe    0.11541    0.31506    0.45841
 29 Cr    0.66340    0.29722   -0.03687
 30 Co   -0.18910    0.07455   -0.04429
 31 Co   -0.12610   -0.12998    0.25716
 32 Cr   -0.05305    0.12837    0.55830
 33 Ni   -0.15619    0.05032    0.03850
 34 Ni   -0.00956    0.03064   -0.05193
 35 Cr    0.21198   -0.15363    0.02697
 36 Fe   -0.26022    0.03810   -0.15702
 37 Ni   -0.07383   -0.03033    0.00558
 38 Cr    0.15144    0.43472   -0.14860
 39 Fe    0.02780    0.39087    0.06195
 40 Fe    0.08482   -0.36663    0.05417
 41 Co    0.06185    0.22713   -0.07856
 42 Cr   -0.23084   -0.29786   -0.13654
 43 Fe   -0.06094    0.31737   -0.20421
 44 Fe    0.13959   -0.30845   -0.20209
 45 Fe    0.25489    0.30232    0.30386
 46 Ni    0.03511   -0.06169   -0.00847
 47 Co    0.01964    0.15256   -0.14877
 48 Cr   -0.27503   -0.10329    0.11746
 49 Ni   -0.03543   -0.00311    0.00531
 50 Fe   -0.10182   -0.04292   -0.04564
 51 Co    0.09713   -0.16625   -0.05588
 52 Co   -0.11465    0.03653   -0.21786
 53 Fe    0.19658    0.01802    0.07759
 54 Fe   -0.23146   -0.01338    0.14030
 55 Ni   -0.11283    0.00675   -0.08662
 56 Ni    0.04855   -0.07672    0.08276
 57 Fe   -0.04840   -0.13308    0.12161
 58 Co   -0.09344   -0.03233   -0.01438
 59 Ni    0.03075   -0.02048    0.05982
[...]
 93 Ni   -0.06136   -0.23855   -0.09518
 94 Ni    0.08114    0.03479    0.13497
 95 Cr   -0.10097   -0.03943    0.28773
 96 Ni   -0.12912    0.00781    0.09548
 97 Co    0.19709    0.17154   -0.09174
 98 Fe   -0.30307    0.18819   -0.25122
 99 Cr   -0.24827    0.03012    0.14017
100 Co    0.23265    0.27656    0.10338
101 Cr    0.84853   -0.22586    0.07848
102 Fe    0.04720    0.22591   -0.42850
103 Co    0.04950   -0.06085   -0.12836
104 Ni    0.04398    0.16542   -0.03153
105 Co   -0.19665    0.20876   -0.36701
106 Cr    0.02414   -0.04478   -0.59204
107 Cr   -0.03519    0.31801    0.47558

Date: Sat Apr  8 02:28:07 2023