User:   c.zeng@d0018
Date:   Sat Apr 15 14:36:41 2023
Arch:   x86_64
Pid:    67858
CWD:    /home/c.zeng/projects/hea-corrosion/hea-mlp/data-curation/bulk-mcmc/dft-jobs/47
Python: 3.8.1
gpaw:   /home/c.zeng/usr/installs/gpaw/source/gpaw-22.8.0/gpaw
_gpaw:  /home/c.zeng/usr/installs/gpaw/source/gpaw-22.8.0/
        _gpaw.cpython-38-x86_64-linux-gnu.so
ase:    /home/c.zeng/.local/lib/python3.8/site-packages/ase-3.22.1-py3.8.egg/ase (version 3.22.1)
numpy:  /shared/centos7/python/3.8.1/lib/python3.8/site-packages/numpy (version 1.17.4)
scipy:  /shared/centos7/python/3.8.1/lib/python3.8/site-packages/scipy (version 1.4.1)
units:  Angstrom and eV
cores: 30
OpenMP: False
OMP_NUM_THREADS: 1

Input parameters:
  convergence: {energy: 0.0001}
  kpts: [2 2 2]
  maxiter: 666
  mode: {ecut: 350.0,
         name: pw}
  occupations: {fixmagmom: False,
                name: fermi-dirac,
                width: 0.1}
  spinpol: True
  xc: PBE

System changes: positions, numbers, cell, pbc, initial_charges, initial_magmoms

Initialize ...

species:
  Co:
    name: Cobalt
    id: 339d20d5b0b93d2de9531a1bee871d91
    Z: 27.0
    valence: 9
    core: 18
    charge: 0.0
    file: /home/c.zeng/usr/data/gpaw-setups-0.9.20000/Co.PBE.gz
    compensation charges: {type: gauss,
                           rc: 0.32,
                           lmax: 2}
    cutoffs: {filter: 1.87,
              core: 2.55}
    valence states:
      #              energy  rcut
      - 4s(2.00)    -5.469   1.005
      - 4p(0.00)    -1.277   1.058
      - 3d(7.00)    -8.205   1.005
      -  s          21.742   1.005
      -  p          25.934   1.058
      -  d          19.007   1.005

    # Using partial waves for Co as LCAO basis

  Fe:
    name: Iron
    id: 37abbd8d6c3c35915a9b583b742da910
    Z: 26.0
    valence: 8
    core: 18
    charge: 0.0
    file: /home/c.zeng/usr/data/gpaw-setups-0.9.20000/Fe.PBE.gz
    compensation charges: {type: gauss,
                           rc: 0.33,
                           lmax: 2}
    cutoffs: {filter: 2.06,
              core: 2.67}
    valence states:
      #              energy  rcut
      - 4s(2.00)    -5.291   1.164
      - 4p(0.00)    -1.326   1.058
      - 3d(6.00)    -7.505   1.058
      -  s          21.920   1.164
      -  p          25.885   1.058
      -  d          19.706   1.058

[...]

  Cr:
    name: Chromium
    id: 33f258bda2ca9f93018e70263a35547b
    Z: 24.0
    valence: 6
    core: 18
    charge: 0.0
    file: /home/c.zeng/usr/data/gpaw-setups-0.9.20000/Cr.PBE.gz
    compensation charges: {type: gauss,
                           rc: 0.35,
                           lmax: 2}
    cutoffs: {filter: 2.14,
              core: 3.04}
    valence states:
      #              energy  rcut
      - 4s(1.00)    -4.007   1.164
      - 4p(0.00)    -0.989   1.217
      - 3d(5.00)    -2.913   1.111
      -  s          23.205   1.164
      -  p          26.223   1.217
      -  d          24.299   1.111

[...]

  Ni:
    name: Nickel
    id: 0d9f38a9d6e76a2886f07bb4381f212b
    Z: 28.0
    valence: 16
    core: 12
    charge: 0.0
    file: /home/c.zeng/usr/data/gpaw-setups-0.9.20000/Ni.PBE.gz
    compensation charges: {type: gauss,
                           rc: 0.36,
                           lmax: 2}
    cutoffs: {filter: 2.14,
              core: 1.98}
    valence states:
      #              energy  rcut
      - 4s(2.00)    -5.642   1.164
      - 3p(6.00)   -71.394   1.207
      - 4p(0.00)    -1.226   1.207
      - 3d(8.00)    -8.875   1.138
      -  s          21.570   1.164
      -  d          18.337   1.138

    # Using partial waves for Ni as LCAO basis

Reference energy: -3846758.590871  # eV

Spin-polarized calculation.
Magnetic moment: 151.200000

Convergence criteria:
 Maximum [total energy] change in last 3 cyles: 0.0001 eV / electron
 Maximum integral of absolute [dens]ity change: 0.0001 electrons / valence electron
 Maximum integral of absolute [eigenst]ate change: 4e-08 eV^2 / valence electron
 Maximum number of scf [iter]ations: 666
 (Square brackets indicate name in SCF output, whereas a 'c' in
 the SCF output indicates the quantity has converged.)

Symmetries present (total): 1

  ( 1  0  0)
  ( 0  1  0)
  ( 0  0  1)

8 k-points: 2 x 2 x 2 Monkhorst-Pack grid
4 k-points in the irreducible part of the Brillouin zone
       k-points in crystal coordinates                weights
   0:     0.25000000   -0.25000000   -0.25000000          2/8
   1:     0.25000000   -0.25000000    0.25000000          2/8
   2:     0.25000000    0.25000000   -0.25000000          2/8
   3:     0.25000000    0.25000000    0.25000000          2/8

Wave functions: Plane wave expansion
  Cutoff energy: 350.000 eV
  Number of coefficients (min, max): 17755, 17755
  Pulay-stress correction: 0.000000 eV/Ang^3 (de/decut=0.000000)
  Using FFTW library
  ScaLapack parameters: grid=1x1, blocksize=None
  Wavefunction extrapolation:
    Improved wavefunction reuse through dual PAW basis

Occupation numbers: Fermi-Dirac:
  width: 0.1000  # eV

Eigensolver
   Davidson(niter=2)

Densities:
  Coarse grid: 48*48*48 grid
  Fine grid: 96*96*96 grid
  Total Charge: 0.000000

Density mixing:
  Method: difference
  Backend: pulay
  Linear mixing parameter: 0.05
  old densities: 5
  Damping of long wavelength oscillations: 50

Hamiltonian:
  XC and Coulomb potentials evaluated on a 96*96*96 grid
  Using the PBE Exchange-Correlation functional
  External potential:
    NoExternalPotential

XC parameters: PBE with 2 nearest neighbor stencil

Total number of cores used: 30
Parallelization over k-points: 2
Domain decomposition: 5 x 3 x 1

Number of atoms: 108
Number of atomic orbitals: 1053
Number of bands in calculation: 727
Number of valence electrons: 1053
Bands to converge: occupied

... initialized

Initializing position-dependent things.

Density initialized from atomic densities
Creating initial wave functions:
  727 bands from LCAO basis set

       /|  Ni       Cr      Cr    |
      / |   CrFe     Ni           |
     /  |       Co      Fe       Fe
    /   |Cr      CFe       Co     Cr
   /    | Co       Ni       NFe   |
  /  CCo|  FeNi     CoCr          |
 *    NiNi    FeCr   FeNiCo       |
 |      |CoCr   FeFeCr  CoNiFe   Cr
 |      | CrCo     CoCrFeNiNiCr   |
 |    Co|  CoFeCr   CoCrFe   NiCo |
 |      Cr    NiNiCr CrCrNi     Ni|
 |      |FeFe  CoFeCr   FeNiFe   Ni
 |      .-FeCo-----NiNiFe--CrNi---Co
 |   Nio     Fe       Cr         /
 |    NiCo     Cor     CNie     /
 |   /    Co               Cr  /
 |  /      Fe       Fe    CrFe/
 | / Fe     Ni       NiCr    /
 |/            Co       Cr  /
 *--------Co------Co-------*

Positions:
   0 Co    -0.012479   -0.003723   10.616104    ( 0.0000,  0.0000,  2.1000)
   1 Fe    -0.011321    1.761305    1.763386    ( 0.0000,  0.0000,  2.1000)
   2 Fe     1.758365    0.001326    1.769011    ( 0.0000,  0.0000,  2.0000)
   3 Co     1.752686    1.779222   10.610436    ( 0.0000,  0.0000,  2.0000)
   4 Co     3.541196    0.004726   10.616104    ( 0.0000,  0.0000,  0.0000)
   5 Fe     3.534711    1.782438    1.778999    ( 0.0000,  0.0000,  0.0000)
   6 Cr     5.305717   10.600629    1.767950    ( 0.0000,  0.0000,  2.1000)
   7 Co     5.324780    1.765604   10.614618    ( 0.0000,  0.0000,  0.0000)
   8 Co     7.089121    0.014598   10.619926    ( 0.0000,  0.0000,  2.0000)
   9 Fe     7.085279    1.771219    1.773543    ( 0.0000,  0.0000,  1.5000)
  10 Cr     8.850554    0.011470    1.768756    ( 0.0000,  0.0000,  1.5000)
  11 Cr     8.842381    1.777333   10.615680    ( 0.0000,  0.0000,  2.1000)
  12 Fe    10.590535    3.538203   -0.001956    ( 0.0000,  0.0000,  0.0000)
  13 Ni    10.624277    5.310674    1.769786    ( 0.0000,  0.0000,  2.0000)
  14 Co     1.761379    3.535623    1.784572    ( 0.0000,  0.0000,  0.0000)
  15 Cr     1.770200    5.301408   10.611753    ( 0.0000,  0.0000,  2.0000)
  16 Ni     3.556003    3.551407   10.618333    ( 0.0000,  0.0000,  1.5000)
  17 Fe     3.539370    5.311290    1.775199    ( 0.0000,  0.0000,  2.1000)
  18 Cr     5.320142    3.545059    1.779678    ( 0.0000,  0.0000,  1.5000)
  19 Fe     5.306980    5.314654   10.602720    ( 0.0000,  0.0000,  0.0000)
  20 Ni     7.081585    3.529127   10.614725    ( 0.0000,  0.0000,  2.1000)
  21 Cr     7.069241    5.303361    1.781271    ( 0.0000,  0.0000,  1.5000)
  22 Fe     8.841447    3.542671    1.781600    ( 0.0000,  0.0000,  2.1000)
  23 Cr     8.850893    5.290379    0.000220    ( 0.0000,  0.0000,  0.0000)
  24 Ni     0.005868    7.083411   10.614937    ( 0.0000,  0.0000,  2.0000)
  25 Ni    10.601043    8.849694    1.772960    ( 0.0000,  0.0000,  2.1000)
  26 Fe     1.773713    7.072329    1.777184    ( 0.0000,  0.0000,  0.0000)
  27 Ni     1.755520    8.842943   10.608324    ( 0.0000,  0.0000,  0.0000)
  28 Fe     3.544009    7.063116   10.610489    ( 0.0000,  0.0000,  2.0000)
  29 Co     3.542225    8.826820    1.785580    ( 0.0000,  0.0000,  0.0000)
  30 Ni     5.309835    7.081776    1.776600    ( 0.0000,  0.0000,  2.1000)
  31 Cr     5.331945    8.840321   10.604673    ( 0.0000,  0.0000,  2.1000)
  32 Co     7.068434    7.069028   10.623110    ( 0.0000,  0.0000,  0.0000)
  33 Fe     7.083750    8.846796    1.774509    ( 0.0000,  0.0000,  1.5000)
  34 Cr     8.841404    7.058180    1.777173    ( 0.0000,  0.0000,  1.5000)
  35 Cr     8.835524    8.853600   10.611753    ( 0.0000,  0.0000,  0.0000)
  36 Cr    -0.009351   10.618864    3.531070    ( 0.0000,  0.0000,  2.0000)
  37 Fe    10.602508    1.764818    5.300452    ( 0.0000,  0.0000,  1.5000)
  38 Ni     1.756720    0.001379    5.295867    ( 0.0000,  0.0000,  0.0000)
  39 Co     1.766506    1.767154    3.539222    ( 0.0000,  0.0000,  2.0000)
  40 Co     3.539742    0.013881    3.542873    ( 0.0000,  0.0000,  2.0000)
  41 Fe     3.548944    1.788658    5.306237    ( 0.0000,  0.0000,  2.1000)
  42 Fe     5.320174   -0.004685    5.301386    ( 0.0000,  0.0000,  0.0000)
  43 Co     5.316862    1.765551    3.538935    ( 0.0000,  0.0000,  2.0000)
  44 Ni     7.081086   -0.000289    3.531325    ( 0.0000,  0.0000,  2.0000)
  45 Cr     7.072902    1.777407    5.300537    ( 0.0000,  0.0000,  2.0000)
  46 Fe     8.840544    0.012372    5.307851    ( 0.0000,  0.0000,  1.5000)
  47 Ni     8.833592    1.767928    3.534318    ( 0.0000,  0.0000,  2.1000)
  48 Ni    -0.004066    3.525285    3.545951    ( 0.0000,  0.0000,  0.0000)
  49 Co    -0.001689    5.317934    5.307787    ( 0.0000,  0.0000,  1.5000)
  50 Cr     1.769043    3.555101    5.297279    ( 0.0000,  0.0000,  2.0000)
  51 Fe     1.773692    5.305929    3.538266    ( 0.0000,  0.0000,  2.1000)
  52 Co     3.542746    3.537364    3.547575    ( 0.0000,  0.0000,  2.1000)
  53 Fe     3.548477    5.306927    5.301153    ( 0.0000,  0.0000,  2.0000)
  54 Ni     5.316246    3.553031    5.303637    ( 0.0000,  0.0000,  2.0000)
  55 Fe     5.303286    5.303531    3.542385    ( 0.0000,  0.0000,  1.5000)
  56 Ni     7.074962    3.533023    3.537215    ( 0.0000,  0.0000,  1.5000)
  57 Cr     7.066046    5.306046    5.300081    ( 0.0000,  0.0000,  2.0000)
  58 Ni     8.834526    3.538160    5.294530    ( 0.0000,  0.0000,  2.1000)
  59 Ni     8.846255    5.300452    3.537672    ( 0.0000,  0.0000,  1.5000)
[...]
  93 Cr     7.071130    5.304220    8.839313    ( 0.0000,  0.0000,  1.5000)
  94 Co     8.837997    3.524669    8.843389    ( 0.0000,  0.0000,  1.5000)
  95 Ni     8.833772    5.299051    7.076862    ( 0.0000,  0.0000,  0.0000)
  96 Ni     0.012168    7.080333    7.083835    ( 0.0000,  0.0000,  1.5000)
  97 Fe    -0.017034    8.848707    8.843941    ( 0.0000,  0.0000,  2.1000)
  98 Co     1.777938    7.075503    8.840194    ( 0.0000,  0.0000,  2.0000)
  99 Fe     1.758800    8.840035    7.069803    ( 0.0000,  0.0000,  0.0000)
 100 Fe     3.549921    7.066194    7.070090    ( 0.0000,  0.0000,  2.1000)
 101 Co     3.553137    8.839111    8.836776    ( 0.0000,  0.0000,  0.0000)
 102 Ni     5.304189    7.079929    8.840215    ( 0.0000,  0.0000,  2.0000)
 103 Co     5.321946    8.832180    7.082997    ( 0.0000,  0.0000,  2.1000)
 104 Ni     7.057077    7.072149    7.064167    ( 0.0000,  0.0000,  1.5000)
 105 Fe     7.082402    8.855500    8.837487    ( 0.0000,  0.0000,  2.1000)
 106 Co     8.846786    7.077881    8.846732    ( 0.0000,  0.0000,  0.0000)
 107 Ni     8.839313    8.848272    7.075153    ( 0.0000,  0.0000,  0.0000)

Unit cell:
           periodic     x           y           z      points  spacing
  1. axis:    yes   10.614300    0.000000    0.000000    48     0.2211
  2. axis:    yes    0.000000   10.614300    0.000000    48     0.2211
  3. axis:    yes    0.000000    0.000000   10.614300    48     0.2211

  Lengths:  10.614300  10.614300  10.614300
  Angles:   90.000000  90.000000  90.000000

Effective grid spacing dv^(1/3) = 0.2211

     iter     time        total  log10-change:  magmom
                         energy  eigst   dens
iter:   1 14:41:01  -930.536304                  +151.0869
iter:   2 14:42:40  -965.986863  -0.59  -1.37    +116.3377
iter:   3 14:44:21  -913.021044  -0.96  -1.30    +90.7432
iter:   4 14:46:01  -891.702174  -1.56  -1.40    +73.8841
iter:   5 14:47:42  -890.624670  -2.02  -1.51    +65.7645
iter:   6 14:49:23  -890.684034  -2.17  -1.53    +60.3640
iter:   7 14:51:03  -899.328250  -1.73  -1.57    +58.8249
iter:   8 14:52:44  -887.526692  -1.85  -1.57    +57.7100
iter:   9 14:54:24  -890.629096  -1.82  -1.78    +57.2081
iter:  10 14:56:05  -888.622311  -2.23  -1.82    +57.0457
iter:  11 14:57:46  -887.704970  -2.47  -1.89    +57.0634
iter:  12 14:59:26  -887.372602  -2.80  -1.96    +57.7428
iter:  13 15:01:07  -888.256826  -2.83  -2.00    +58.1495
iter:  14 15:02:48  -889.387904  -2.71  -2.02    +58.6210
iter:  15 15:04:29  -889.101756  -2.73  -2.01    +59.0062
iter:  16 15:06:10  -891.470862  -2.49  -2.09    +59.5974
iter:  17 15:07:50  -890.117004  -2.51  -2.00    +59.5598
iter:  18 15:09:31  -889.943314  -2.71  -2.11    +59.6721
iter:  19 15:11:12  -889.622683  -2.86  -2.20    +60.3734
iter:  20 15:12:53  -889.526817  -3.08  -2.24    +60.7869
iter:  21 15:14:34  -889.401404  -3.31  -2.29    +61.3524
iter:  22 15:16:14  -889.489550  -3.69  -2.36    +61.7412
iter:  23 15:17:54  -889.707234  -3.68  -2.41    +62.3974
iter:  24 15:19:35  -890.006938  -3.33  -2.41    +63.0527
iter:  25 15:21:15  -890.326104  -3.23  -2.44    +63.6419
iter:  26 15:22:55  -890.323804  -3.11  -2.42    +63.8543
iter:  27 15:24:36  -890.253752c -3.44  -2.52    +64.1782
iter:  28 15:26:16  -890.380548  -3.66  -2.66    +64.6500
iter:  29 15:27:56  -890.358018  -3.85  -2.63    +64.7495
iter:  30 15:29:37  -890.414970c -4.13  -2.73    +65.0981
iter:  31 15:31:18  -890.513212  -3.93  -2.76    +65.6170
iter:  32 15:32:58  -890.567157  -4.06  -2.77    +66.0096
iter:  33 15:34:39  -890.583691c -4.23  -2.79    +66.1455
iter:  34 15:36:20  -890.594360c -4.31  -2.83    +66.2609
iter:  35 15:38:00  -890.619692c -4.20  -2.93    +66.4705
iter:  36 15:39:41  -890.615291c -4.38  -3.01    +66.4851
iter:  37 15:41:22  -890.623433c -4.53  -3.14    +66.6077
iter:  38 15:43:02  -890.634776c -4.77  -3.22    +66.7082
iter:  39 15:44:43  -890.645252c -4.90  -3.24    +66.8141
iter:  40 15:46:23  -890.661467c -4.84  -3.25    +66.9291
iter:  41 15:48:03  -890.711906c -4.11  -3.23    +67.2383
iter:  42 15:49:42  -890.710903c -5.11  -3.07    +67.2615
iter:  43 15:51:23  -890.715535c -4.89  -3.10    +67.3907
iter:  44 15:53:02  -890.709764c -5.01  -3.11    +67.3879
iter:  45 15:54:42  -890.711460c -5.14  -3.23    +67.4299
iter:  46 15:56:22  -890.708408c -4.48  -3.25    +67.4363
iter:  47 15:58:02  -890.709586c -4.96  -3.26    +67.4764
iter:  48 15:59:42  -890.703852c -5.55  -3.34    +67.4403
iter:  49 16:01:22  -890.704143c -6.10  -3.47    +67.4523
iter:  50 16:03:02  -890.706268c -5.43  -3.49    +67.4753
iter:  51 16:04:41  -890.705360c -6.30  -3.44    +67.4922
iter:  52 16:06:21  -890.709486c -5.51  -3.47    +67.5132
iter:  53 16:08:00  -890.705181c -5.43  -3.40    +67.5081
iter:  54 16:09:40  -890.706186c -5.70  -3.55    +67.5353
iter:  55 16:11:20  -890.705743c -5.39  -3.60    +67.5497
iter:  56 16:13:00  -890.706100c -5.68  -3.64    +67.5595
iter:  57 16:14:40  -890.705765c -5.96  -3.65    +67.5724
iter:  58 16:16:20  -890.705396c -6.50  -3.78    +67.5733
iter:  59 16:17:59  -890.705336c -6.40  -3.84    +67.5835
iter:  60 16:19:38  -890.705816c -6.45  -3.88    +67.5853
iter:  61 16:21:18  -890.705383c -6.54  -3.96    +67.5832
iter:  62 16:22:57  -890.705580c -6.73  -3.96    +67.5890
iter:  63 16:24:36  -890.705855c -6.73  -4.06c   +67.5925
iter:  64 16:26:15  -890.705667c -6.82  -4.04c   +67.5912
iter:  65 16:27:55  -890.705949c -6.87  -4.12c   +67.5975
iter:  66 16:29:34  -890.705880c -6.94  -4.18c   +67.5980
iter:  67 16:31:13  -890.706150c -6.97  -4.20c   +67.5996
iter:  68 16:32:53  -890.706030c -7.05  -4.23c   +67.5998
iter:  69 16:34:32  -890.706512c -6.97  -4.27c   +67.6018
iter:  70 16:36:11  -890.706315c -7.17  -4.25c   +67.6007
iter:  71 16:37:51  -890.706444c -7.22  -4.35c   +67.6016
iter:  72 16:39:30  -890.706516c -7.43c -4.37c   +67.6016

Converged after 72 iterations.

Dipole moment: (6.840681, -2.099381, 0.714308) |e|*Ang

Total magnetic moment: (0.000000, 0.000000, 67.601603)
Local magnetic moments:
   0 Co ( 0.000000,  0.000000,  0.679156)
   1 Fe ( 0.000000,  0.000000,  2.057071)
   2 Fe ( 0.000000,  0.000000,  2.421407)
   3 Co ( 0.000000,  0.000000,  1.235861)
   4 Co ( 0.000000,  0.000000,  1.010259)
   5 Fe ( 0.000000,  0.000000,  2.329922)
   6 Cr ( 0.000000,  0.000000, -1.533263)
   7 Co ( 0.000000,  0.000000,  0.851692)
   8 Co ( 0.000000,  0.000000,  0.045134)
   9 Fe ( 0.000000,  0.000000,  2.120039)
  10 Cr ( 0.000000,  0.000000, -0.354324)
  11 Cr ( 0.000000,  0.000000, -1.389404)
  12 Fe ( 0.000000,  0.000000,  1.969930)
  13 Ni ( 0.000000,  0.000000,  0.223481)
  14 Co ( 0.000000,  0.000000,  1.458176)
  15 Cr ( 0.000000,  0.000000, -1.889983)
  16 Ni ( 0.000000,  0.000000,  0.255682)
  17 Fe ( 0.000000,  0.000000,  2.243956)
  18 Cr ( 0.000000,  0.000000, -1.637816)
  19 Fe ( 0.000000,  0.000000,  1.781064)
  20 Ni ( 0.000000,  0.000000,  0.080448)
  21 Cr ( 0.000000,  0.000000,  0.043483)
  22 Fe ( 0.000000,  0.000000,  2.065217)
  23 Cr ( 0.000000,  0.000000, -1.196008)
  24 Ni ( 0.000000,  0.000000,  0.266632)
  25 Ni ( 0.000000,  0.000000,  0.213394)
  26 Fe ( 0.000000,  0.000000,  2.483014)
  27 Ni ( 0.000000,  0.000000,  0.429625)
  28 Fe ( 0.000000,  0.000000,  2.168468)
  29 Co ( 0.000000,  0.000000,  1.371860)
  30 Ni ( 0.000000,  0.000000,  0.328482)
  31 Cr ( 0.000000,  0.000000, -1.632283)
  32 Co ( 0.000000,  0.000000,  0.489565)
  33 Fe ( 0.000000,  0.000000,  1.916434)
  34 Cr ( 0.000000,  0.000000,  0.864267)
  35 Cr ( 0.000000,  0.000000, -1.275916)
  36 Cr ( 0.000000,  0.000000, -1.688309)
  37 Fe ( 0.000000,  0.000000,  2.154724)
  38 Ni ( 0.000000,  0.000000,  0.344425)
  39 Co ( 0.000000,  0.000000,  1.323967)
  40 Co ( 0.000000,  0.000000,  1.335608)
  41 Fe ( 0.000000,  0.000000,  2.309052)
  42 Fe ( 0.000000,  0.000000,  2.162257)
  43 Co ( 0.000000,  0.000000,  1.091405)
  44 Ni ( 0.000000,  0.000000,  0.284552)
  45 Cr ( 0.000000,  0.000000,  0.557358)
  46 Fe ( 0.000000,  0.000000,  1.656662)
  47 Ni ( 0.000000,  0.000000,  0.192572)
  48 Ni ( 0.000000,  0.000000,  0.417958)
  49 Co ( 0.000000,  0.000000,  1.216526)
  50 Cr ( 0.000000,  0.000000, -1.802074)
  51 Fe ( 0.000000,  0.000000,  2.190395)
  52 Co ( 0.000000,  0.000000,  1.126512)
  53 Fe ( 0.000000,  0.000000,  2.191626)
  54 Ni ( 0.000000,  0.000000,  0.269513)
  55 Fe ( 0.000000,  0.000000,  1.919845)
  56 Ni ( 0.000000,  0.000000,  0.159624)
  57 Cr ( 0.000000,  0.000000,  0.278941)
  58 Ni ( 0.000000,  0.000000,  0.154614)
  59 Ni ( 0.000000,  0.000000,  0.160154)
[...]
  93 Cr ( 0.000000,  0.000000,  0.166593)
  94 Co ( 0.000000,  0.000000,  0.495206)
  95 Ni ( 0.000000,  0.000000,  0.198461)
  96 Ni ( 0.000000,  0.000000,  0.338585)
  97 Fe ( 0.000000,  0.000000,  2.129135)
  98 Co ( 0.000000,  0.000000,  1.310728)
  99 Fe ( 0.000000,  0.000000,  2.049804)
 100 Fe ( 0.000000,  0.000000,  2.273009)
 101 Co ( 0.000000,  0.000000,  1.400807)
 102 Ni ( 0.000000,  0.000000,  0.326711)
 103 Co ( 0.000000,  0.000000,  1.416162)
 104 Ni ( 0.000000,  0.000000,  0.361142)
 105 Fe ( 0.000000,  0.000000,  2.236024)
 106 Co ( 0.000000,  0.000000,  1.043781)
 107 Ni ( 0.000000,  0.000000,  0.287135)

Energy contributions relative to reference atoms: (reference = -3846758.590871)

Kinetic:       +141.214168
Potential:     -204.394882
External:        +0.000000
XC:            -865.450285
Entropy (-ST):   -4.516770
Local:          +40.182867
Free energy:   -892.964901
Extrapolated:  -890.706516

Spin contamination: 30.442892 electrons
Showing only first 2 kpts
                      Up                     Down
 Kpt  Band  Eigenvalues  Occupancy  Eigenvalues  Occupancy
  0   524      9.81626    0.99538     10.75631    0.01752
  0   525      9.82746    0.99484     10.77986    0.01389
  0   526      9.83809    0.99426     10.78501    0.01320
  0   527      9.84804    0.99367     10.79057    0.01250

  1   524      9.80943    0.99569     10.75446    0.01784
  1   525      9.82118    0.99515     10.77079    0.01519
  1   526      9.83322    0.99454     10.78849    0.01276
  1   527      9.84037    0.99413     10.80359    0.01099

Fermi level: 10.35362

No gap

Forces in eV/Ang:
  0 Co   -0.06593    0.00644    0.18581
  1 Fe    0.23929    0.11743   -0.03151
  2 Fe    0.18028   -0.30370   -0.22679
  3 Co   -0.00231   -0.04575    0.09577
  4 Co    0.07439   -0.21386    0.04604
  5 Fe    0.03187    0.15683   -0.16293
  6 Cr    0.08402    0.43257    0.38779
  7 Co   -0.15603   -0.00729   -0.06982
  8 Co   -0.20417   -0.07366    0.07942
  9 Fe   -0.27210   -0.27985   -0.11320
 10 Cr   -0.49541   -0.28325   -0.05176
 11 Cr    0.15134    0.15121   -0.30875
 12 Fe    0.33425    0.34508   -0.10352
 13 Ni   -0.04113   -0.08139   -0.09126
 14 Co    0.03409   -0.11556    0.03606
 15 Cr   -0.11314   -0.02151   -0.00531
 16 Ni   -0.16125   -0.21278    0.05186
 17 Fe    0.19879   -0.36299    0.04832
 18 Cr   -0.15398   -0.15792   -0.31395
 19 Fe    0.20235   -0.16711    0.03138
 20 Ni   -0.10261    0.22599   -0.14921
 21 Cr    0.09872    0.40040   -0.27698
 22 Fe    0.07449    0.14834    0.03211
 23 Cr    0.18657    0.06574   -0.35513
 24 Ni   -0.10755   -0.23364   -0.07107
 25 Ni    0.07686   -0.00481   -0.03856
 26 Fe   -0.24921    0.33422    0.08184
 27 Ni    0.30084    0.09002   -0.00929
 28 Fe    0.01330    0.32280   -0.36490
 29 Co   -0.03108    0.37342    0.08931
 30 Ni    0.09537    0.00088   -0.09582
 31 Cr   -0.03237   -0.20049   -0.13016
 32 Co   -0.00185   -0.22124    0.06886
 33 Fe   -0.27446    0.00641   -0.27419
 34 Cr   -0.00346   -0.20159   -0.20563
 35 Cr   -0.16193   -0.06057   -0.22502
 36 Cr    0.34536    0.03187    0.22543
 37 Fe    0.15882    0.01042    0.16998
 38 Ni    0.18301    0.07311    0.17725
 39 Co    0.05144    0.24250   -0.01137
 40 Co   -0.10129   -0.26100   -0.05315
 41 Fe   -0.21649   -0.11702    0.06807
 42 Fe    0.06478   -0.37367   -0.07870
 43 Co   -0.02871    0.11750    0.00681
 44 Ni    0.02101   -0.00570    0.00325
 45 Cr    0.06738    0.03778    0.42047
 46 Fe   -0.19614   -0.03995    0.17631
 47 Ni   -0.02784   -0.00009    0.04731
 48 Ni    0.10994    0.14160   -0.12015
 49 Co    0.42653   -0.06202   -0.00618
 50 Cr    0.31134    0.01723   -0.29941
 51 Fe   -0.37141   -0.26005    0.25575
 52 Co   -0.02042   -0.02111   -0.04547
 53 Fe   -0.00970   -0.11297    0.04637
 54 Ni   -0.10127   -0.10490   -0.02871
 55 Fe    0.06687   -0.02617    0.11210
 56 Ni    0.00370    0.18895    0.05900
 57 Cr   -0.07118   -0.15028    0.04193
 58 Ni    0.05392    0.03306    0.19871
 59 Ni   -0.06615    0.01527    0.17125
[...]
 93 Cr    0.10666    0.16127    0.03679
 94 Co    0.04405    0.18426   -0.03186
 95 Ni   -0.00869    0.15740   -0.06712
 96 Ni   -0.08556   -0.16353    0.05765
 97 Fe    0.18355    0.00667    0.07644
 98 Co   -0.09561    0.03956   -0.07741
 99 Fe    0.44165    0.11160    0.36971
100 Fe   -0.06844   -0.01082    0.57172
101 Co   -0.36797    0.14230   -0.07299
102 Ni    0.21589   -0.04383    0.09750
103 Co   -0.17988    0.15529   -0.16140
104 Ni    0.27090   -0.08071    0.06651
105 Fe   -0.03274   -0.17175    0.32280
106 Co   -0.22501   -0.21821    0.10958
107 Ni    0.01794   -0.24551   -0.13683

Date: Sat Apr 15 16:39:49 2023