User:   c.zeng@d0135
Date:   Sat Apr  8 08:13:05 2023
Arch:   x86_64
Pid:    123521
CWD:    /home/c.zeng/projects/hea-corrosion/hea-mlp/data-curation/volume/dft-jobs/34
Python: 3.8.1
gpaw:   /home/c.zeng/usr/installs/gpaw/source/gpaw-22.8.0/gpaw
_gpaw:  /home/c.zeng/usr/installs/gpaw/source/gpaw-22.8.0/
        _gpaw.cpython-38-x86_64-linux-gnu.so
ase:    /home/c.zeng/.local/lib/python3.8/site-packages/ase-3.22.1-py3.8.egg/ase (version 3.22.1)
numpy:  /shared/centos7/python/3.8.1/lib/python3.8/site-packages/numpy (version 1.17.4)
scipy:  /shared/centos7/python/3.8.1/lib/python3.8/site-packages/scipy (version 1.4.1)
units:  Angstrom and eV
cores: 64
OpenMP: False
OMP_NUM_THREADS: 1

Input parameters:
  convergence: {energy: 0.0001}
  kpts: [2 2 2]
  maxiter: 666
  mode: {ecut: 350.0,
         name: pw}
  occupations: {fixmagmom: False,
                name: fermi-dirac,
                width: 0.1}
  spinpol: True
  xc: PBE

System changes: positions, numbers, cell, pbc, initial_charges, initial_magmoms

Initialize ...

species:
  Cr:
    name: Chromium
    id: 33f258bda2ca9f93018e70263a35547b
    Z: 24.0
    valence: 6
    core: 18
    charge: 0.0
    file: /home/c.zeng/usr/data/gpaw-setups-0.9.20000/Cr.PBE.gz
    compensation charges: {type: gauss,
                           rc: 0.35,
                           lmax: 2}
    cutoffs: {filter: 2.14,
              core: 3.04}
    valence states:
      #              energy  rcut
      - 4s(1.00)    -4.007   1.164
      - 4p(0.00)    -0.989   1.217
      - 3d(5.00)    -2.913   1.111
      -  s          23.205   1.164
      -  p          26.223   1.217
      -  d          24.299   1.111

    # Using partial waves for Cr as LCAO basis

  Al:
    name: Aluminium
    id: 0292cae29f5d6237e50f6abdd43a7bdd
    Z: 13.0
    valence: 3
    core: 10
    charge: 0.0
    file: /home/c.zeng/usr/data/gpaw-setups-0.9.20000/Al.PBE.gz
    compensation charges: {type: gauss,
                           rc: 0.34,
                           lmax: 2}
    cutoffs: {filter: 1.91,
              core: 2.36}
    valence states:
      #              energy  rcut
      - 3s(2.00)    -7.753   1.085
      - 3p(1.00)    -2.712   1.085
      -  s          19.459   1.085
      -  p          24.499   1.085
      -  d           0.000   1.085

[...]

  Co:
    name: Cobalt
    id: 339d20d5b0b93d2de9531a1bee871d91
    Z: 27.0
    valence: 9
    core: 18
    charge: 0.0
    file: /home/c.zeng/usr/data/gpaw-setups-0.9.20000/Co.PBE.gz
    compensation charges: {type: gauss,
                           rc: 0.32,
                           lmax: 2}
    cutoffs: {filter: 1.87,
              core: 2.55}
    valence states:
      #              energy  rcut
      - 4s(2.00)    -5.469   1.005
      - 4p(0.00)    -1.277   1.058
      - 3d(7.00)    -8.205   1.005
      -  s          21.742   1.005
      -  p          25.934   1.058
      -  d          19.007   1.005

[...]

  Fe:
    name: Iron
    id: 37abbd8d6c3c35915a9b583b742da910
    Z: 26.0
    valence: 8
    core: 18
    charge: 0.0
    file: /home/c.zeng/usr/data/gpaw-setups-0.9.20000/Fe.PBE.gz
    compensation charges: {type: gauss,
                           rc: 0.33,
                           lmax: 2}
    cutoffs: {filter: 2.06,
              core: 2.67}
    valence states:
      #              energy  rcut
      - 4s(2.00)    -5.291   1.164
      - 4p(0.00)    -1.326   1.058
      - 3d(6.00)    -7.505   1.058
      -  s          21.920   1.164
      -  p          25.885   1.058
      -  d          19.706   1.058

[...]

  Ni:
    name: Nickel
    id: 0d9f38a9d6e76a2886f07bb4381f212b
    Z: 28.0
    valence: 16
    core: 12
    charge: 0.0
    file: /home/c.zeng/usr/data/gpaw-setups-0.9.20000/Ni.PBE.gz
    compensation charges: {type: gauss,
                           rc: 0.36,
                           lmax: 2}
    cutoffs: {filter: 2.14,
              core: 1.98}
    valence states:
      #              energy  rcut
      - 4s(2.00)    -5.642   1.164
      - 3p(6.00)   -71.394   1.207
      - 4p(0.00)    -1.226   1.207
      - 3d(8.00)    -8.875   1.138
      -  s          21.570   1.164
      -  d          18.337   1.138

    # Using partial waves for Ni as LCAO basis

Reference energy: -3699400.456887  # eV

Spin-polarized calculation.
Magnetic moment: 143.500000

Convergence criteria:
 Maximum [total energy] change in last 3 cyles: 0.0001 eV / electron
 Maximum integral of absolute [dens]ity change: 0.0001 electrons / valence electron
 Maximum integral of absolute [eigenst]ate change: 4e-08 eV^2 / valence electron
 Maximum number of scf [iter]ations: 666
 (Square brackets indicate name in SCF output, whereas a 'c' in
 the SCF output indicates the quantity has converged.)

Symmetries present (total): 1

  ( 1  0  0)
  ( 0  1  0)
  ( 0  0  1)

8 k-points: 2 x 2 x 2 Monkhorst-Pack grid
4 k-points in the irreducible part of the Brillouin zone
       k-points in crystal coordinates                weights
   0:     0.25000000   -0.25000000   -0.25000000          2/8
   1:     0.25000000   -0.25000000    0.25000000          2/8
   2:     0.25000000    0.25000000   -0.25000000          2/8
   3:     0.25000000    0.25000000    0.25000000          2/8

Wave functions: Plane wave expansion
  Cutoff energy: 350.000 eV
  Number of coefficients (min, max): 20098, 20098
  Pulay-stress correction: 0.000000 eV/Ang^3 (de/decut=0.000000)
  Using FFTW library
  ScaLapack parameters: grid=1x1, blocksize=None
  Wavefunction extrapolation:
    Improved wavefunction reuse through dual PAW basis

Occupation numbers: Fermi-Dirac:
  width: 0.1000  # eV

Eigensolver
   Davidson(niter=2)

Densities:
  Coarse grid: 48*48*48 grid
  Fine grid: 96*96*96 grid
  Total Charge: 0.000000

Density mixing:
  Method: difference
  Backend: pulay
  Linear mixing parameter: 0.05
  old densities: 5
  Damping of long wavelength oscillations: 50

Hamiltonian:
  XC and Coulomb potentials evaluated on a 96*96*96 grid
  Using the PBE Exchange-Correlation functional
  External potential:
    NoExternalPotential

XC parameters: PBE with 2 nearest neighbor stencil

Total number of cores used: 64
Parallelization over k-points: 4
Domain decomposition: 4 x 2 x 2

Number of atoms: 108
Number of atomic orbitals: 1025
Number of bands in calculation: 703
Number of valence electrons: 1020
Bands to converge: occupied

... initialized

Initializing position-dependent things.

Density initialized from atomic densities
Creating initial wave functions:
  703 bands from LCAO basis set

       /|  Ni                Cr    |
      / |   Fe          Al         |
     /  |       Cr                 |
    /  Ni                Fe        |
   /o   CrNi     CrCrFe     Cr     |
  /  NiCo  FeCo     CrNi Fe  Ni    |
 Cr   FeCo  Cr NiNi     CoCo       |
 |     NiCoCr   CoNiCo   AlCrFe    |
 | Ni   | FeCo AlCoNiNi CoFeNi     |
 |     Cr  NiCo     Fe   Cr  Fe    |
 |      |       Co     Fe      Fe  |
 |    CrNi   CrCoFeCrNi NiNi  Ni   |
 |     NiNiNi   CoCrCo   CrFeCo    |
 | Fe   .-FeCr-Ni--CoCo-Fe--Cr-----.
 |   CoFe    Fe Al  CrNi Ni       /
 |    CrFe     CoCr       CoFe   /
 |   /   Fe                  Al /
 |  /      Cr     CoCo     Cr  /
 | /        Fe                /
 |/             Fe           /
 *--------Fe-------Cr-------*

Positions:
   0 Cr     0.000014    0.000010   11.056445    ( 0.0000,  0.0000,  0.0000)
   1 Al    -0.000005    1.842798    1.842776    ( 0.0000,  0.0000,  0.0000)
   2 Cr     1.842787   11.056478    1.842754    ( 0.0000,  0.0000,  0.0000)
   3 Co     1.842776    1.842765   11.056467    ( 0.0000,  0.0000,  2.1000)
   4 Fe     3.685485    0.000011    0.000004    ( 0.0000,  0.0000,  2.0000)
   5 Cr     3.685474    1.842754    1.842698    ( 0.0000,  0.0000,  0.0000)
   6 Ni     5.528239   11.056478    1.842754    ( 0.0000,  0.0000,  1.5000)
   7 Fe     5.528261    1.842776    0.000003    ( 0.0000,  0.0000,  2.0000)
   8 Cr     7.371015    0.000048   11.056500    ( 0.0000,  0.0000,  0.0000)
   9 Co     7.371026    1.842754    1.842721    ( 0.0000,  0.0000,  2.1000)
  10 Ni     9.213735   11.056489    1.842798    ( 0.0000,  0.0000,  1.5000)
  11 Fe     9.213724    1.842776   11.056467    ( 0.0000,  0.0000,  2.0000)
  12 Co     0.000011    3.685507   11.056478    ( 0.0000,  0.0000,  2.1000)
  13 Co     0.000035    5.528228    1.842765    ( 0.0000,  0.0000,  2.1000)
  14 Fe     1.842754    3.685541    1.842743    ( 0.0000,  0.0000,  2.0000)
  15 Fe     1.842776    5.528239    0.000022    ( 0.0000,  0.0000,  2.0000)
  16 Fe     3.685496    3.685518    0.000007    ( 0.0000,  0.0000,  2.0000)
  17 Fe     3.685463    5.528272    1.842721    ( 0.0000,  0.0000,  2.0000)
  18 Cr     5.528261    3.685529    1.842676    ( 0.0000,  0.0000,  0.0000)
  19 Co     5.528217    5.528217    0.000004    ( 0.0000,  0.0000,  2.1000)
  20 Fe     7.370993    3.685496   11.056489    ( 0.0000,  0.0000,  2.0000)
  21 Ni     7.371004    5.528217    1.842776    ( 0.0000,  0.0000,  1.5000)
  22 Co     9.213746    3.685518    1.842743    ( 0.0000,  0.0000,  2.1000)
  23 Cr     9.213757    5.528173    0.000012    ( 0.0000,  0.0000,  0.0000)
  24 Cr     0.000053    7.370982    0.000003    ( 0.0000,  0.0000,  0.0000)
  25 Ni     0.000006    9.213746    1.842787    ( 0.0000,  0.0000,  1.5000)
  26 Fe     1.842776    7.370982    1.842743    ( 0.0000,  0.0000,  2.0000)
  27 Ni     1.842776    9.213746   11.056489    ( 0.0000,  0.0000,  1.5000)
  28 Co     3.685485    7.370971    0.000034    ( 0.0000,  0.0000,  2.1000)
  29 Co     3.685496    9.213724    1.842765    ( 0.0000,  0.0000,  2.1000)
  30 Co     5.528206    7.371004    1.842765    ( 0.0000,  0.0000,  2.1000)
  31 Cr     5.528206    9.213757    0.000032    ( 0.0000,  0.0000,  0.0000)
  32 Al     7.370959    7.370982   11.056467    ( 0.0000,  0.0000,  0.0000)
  33 Cr     7.370993    9.213779    1.842809    ( 0.0000,  0.0000,  0.0000)
  34 Cr     9.213768    7.370993    1.842809    ( 0.0000,  0.0000,  0.0000)
  35 Cr     9.213757    9.213791   11.056478    ( 0.0000,  0.0000,  0.0000)
  36 Fe    11.056467   11.056500    3.685529    ( 0.0000,  0.0000,  2.0000)
  37 Co    11.056489    1.842754    5.528206    ( 0.0000,  0.0000,  2.1000)
  38 Cr     1.842732   11.056489    5.528228    ( 0.0000,  0.0000,  0.0000)
  39 Fe     1.842732    1.842754    3.685518    ( 0.0000,  0.0000,  2.0000)
  40 Co     3.685496   11.056467    3.685496    ( 0.0000,  0.0000,  2.1000)
  41 Ni     3.685507    1.842765    5.528261    ( 0.0000,  0.0000,  1.5000)
  42 Ni     5.528250    0.000005    5.528217    ( 0.0000,  0.0000,  1.5000)
  43 Al     5.528283    1.842698    3.685541    ( 0.0000,  0.0000,  0.0000)
  44 Fe     7.371026   11.056478    3.685507    ( 0.0000,  0.0000,  2.0000)
  45 Co     7.371004    1.842754    5.528250    ( 0.0000,  0.0000,  2.1000)
  46 Fe     9.213757   11.056500    5.528206    ( 0.0000,  0.0000,  2.0000)
  47 Ni     9.213746    1.842721    3.685529    ( 0.0000,  0.0000,  1.5000)
  48 Fe     0.000003    3.685507    3.685518    ( 0.0000,  0.0000,  2.0000)
  49 Fe    -0.000001    5.528250    5.528250    ( 0.0000,  0.0000,  2.0000)
  50 Ni     1.842732    3.685518    5.528239    ( 0.0000,  0.0000,  1.5000)
  51 Ni     1.842732    5.528250    3.685485    ( 0.0000,  0.0000,  1.5000)
  52 Cr     3.685452    3.685529    3.685507    ( 0.0000,  0.0000,  0.0000)
  53 Co     3.685496    5.528261    5.528261    ( 0.0000,  0.0000,  2.1000)
  54 Fe     5.528261    3.685518    5.528283    ( 0.0000,  0.0000,  2.0000)
  55 Cr     5.528272    5.528272    3.685529    ( 0.0000,  0.0000,  0.0000)
  56 Co     7.371037    3.685529    3.685518    ( 0.0000,  0.0000,  2.1000)
  57 Fe     7.371004    5.528239    5.528250    ( 0.0000,  0.0000,  2.0000)
  58 Ni     9.213746    3.685529    5.528217    ( 0.0000,  0.0000,  1.5000)
  59 Fe     9.213746    5.528239    3.685518    ( 0.0000,  0.0000,  2.0000)
[...]
  93 Ni     7.370993    5.528217    9.213735    ( 0.0000,  0.0000,  1.5000)
  94 Co     9.213757    3.685463    9.213779    ( 0.0000,  0.0000,  2.1000)
  95 Cr     9.213757    5.528272    7.370959    ( 0.0000,  0.0000,  0.0000)
  96 Fe     0.000038    7.370993    7.370982    ( 0.0000,  0.0000,  2.0000)
  97 Ni     0.000018    9.213768    9.213713    ( 0.0000,  0.0000,  1.5000)
  98 Ni     1.842743    7.371004    9.213724    ( 0.0000,  0.0000,  1.5000)
  99 Fe     1.842743    9.213713    7.371004    ( 0.0000,  0.0000,  2.0000)
 100 Ni     3.685452    7.370993    7.370971    ( 0.0000,  0.0000,  1.5000)
 101 Cr     3.685441    9.213746    9.213757    ( 0.0000,  0.0000,  0.0000)
 102 Cr     5.528261    7.370982    9.213735    ( 0.0000,  0.0000,  0.0000)
 103 Cr     5.528239    9.213713    7.370993    ( 0.0000,  0.0000,  0.0000)
 104 Co     7.371004    7.370982    7.371015    ( 0.0000,  0.0000,  2.1000)
 105 Fe     7.371026    9.213746    9.213724    ( 0.0000,  0.0000,  2.0000)
 106 Cr     9.213757    7.371026    9.213702    ( 0.0000,  0.0000,  0.0000)
 107 Ni     9.213779    9.213735    7.371015    ( 0.0000,  0.0000,  1.5000)

Unit cell:
           periodic     x           y           z      points  spacing
  1. axis:    yes   11.056500    0.000000    0.000000    48     0.2303
  2. axis:    yes    0.000000   11.056500    0.000000    48     0.2303
  3. axis:    yes    0.000000    0.000000   11.056500    48     0.2303

  Lengths:  11.056500  11.056500  11.056500
  Angles:   90.000000  90.000000  90.000000

Effective grid spacing dv^(1/3) = 0.2303

     iter     time        total  log10-change:  magmom
                         energy  eigst   dens
iter:   1 08:15:35 -1071.684749                  +143.7770
iter:   2 08:16:48  -938.226404  -0.16  -1.19    +81.7057
iter:   3 08:17:58  -925.687518  -0.78  -1.18    +77.7676
iter:   4 08:19:05  -891.300860  -1.23  -1.26    +73.4021
iter:   5 08:20:15  -878.983704  -1.67  -1.32    +73.1488
iter:   6 08:21:26  -883.179856  -1.32  -1.38    +76.7726
iter:   7 08:22:39  -873.543077  -1.25  -1.40    +78.0405
iter:   8 08:23:48  -866.544018  -1.61  -1.53    +79.4185
iter:   9 08:24:57  -861.702506  -1.79  -1.66    +80.6993
iter:  10 08:26:09  -862.017240  -2.39  -1.81    +81.6635
iter:  11 08:27:15  -861.914144  -2.55  -1.82    +83.6705
iter:  12 08:28:31  -863.345580  -2.54  -1.87    +85.1279
iter:  13 08:29:40  -863.961107  -2.43  -1.87    +85.2247
iter:  14 08:30:51  -862.977217  -2.44  -1.89    +85.6737
iter:  15 08:32:02  -863.603733  -2.60  -2.07    +85.8649
iter:  16 08:33:01  -863.000477  -2.89  -2.06    +85.4142
iter:  17 08:34:14  -863.280740  -3.16  -2.20    +85.5892
iter:  18 08:35:30  -863.332623  -3.20  -2.22    +85.0802
iter:  19 08:36:43  -863.425249  -3.39  -2.29    +84.8578
iter:  20 08:37:46  -863.516619  -3.28  -2.32    +84.3529
iter:  21 08:38:49  -863.631335  -3.32  -2.40    +83.9625
iter:  22 08:39:54  -863.623767  -3.39  -2.43    +83.5062
iter:  23 08:41:05  -863.664661c -3.54  -2.52    +83.0553
iter:  24 08:42:10  -863.735210  -3.67  -2.57    +82.6295
iter:  25 08:43:14  -863.809906  -3.83  -2.63    +82.2796
iter:  26 08:44:17  -863.885711  -3.85  -2.62    +81.6343
iter:  27 08:45:22  -863.962865  -3.96  -2.66    +81.2556
iter:  28 08:46:27  -864.054995  -3.95  -2.66    +80.6794
iter:  29 08:47:33  -864.132120  -4.09  -2.65    +80.2054
iter:  30 08:48:37  -864.307147  -3.81  -2.64    +79.6062
iter:  31 08:49:43  -864.211410  -4.36  -2.56    +80.0014
iter:  32 08:50:48  -864.447195  -3.60  -2.57    +79.1545
iter:  33 08:51:51  -864.427674  -3.86  -2.52    +79.3086
iter:  34 08:52:53  -864.401416c -3.83  -2.58    +79.0827
iter:  35 08:53:56  -864.380919c -3.67  -2.69    +78.8467
iter:  36 08:54:59  -864.413481c -3.89  -2.93    +78.4200
iter:  37 08:56:03  -864.431774c -4.25  -3.00    +78.3113
iter:  38 08:57:06  -864.432164c -4.50  -2.98    +78.1763
iter:  39 08:58:10  -864.457309c -4.49  -3.11    +77.9399
iter:  40 08:59:14  -864.482856c -4.48  -3.11    +77.7596
iter:  41 09:00:17  -864.539365c -4.02  -3.08    +77.4011
iter:  42 09:01:20  -864.531053c -5.11  -2.94    +77.5289
iter:  43 09:02:23  -864.572486c -4.23  -2.97    +77.2089
iter:  44 09:03:26  -864.558706c -4.54  -2.91    +77.3039
iter:  45 09:04:30  -864.558271c -4.62  -3.02    +77.2717
iter:  46 09:05:35  -864.564264c -4.29  -3.14    +77.2797
iter:  47 09:06:38  -864.569456c -4.83  -3.10    +77.2195
iter:  48 09:07:42  -864.573730c -4.72  -3.19    +77.1879
iter:  49 09:08:46  -864.578660c -5.19  -3.26    +77.1840
iter:  50 09:09:51  -864.593879c -4.84  -3.34    +77.1451
iter:  51 09:10:56  -864.609694c -4.80  -3.36    +77.1573
iter:  52 09:12:00  -864.618104c -5.06  -3.40    +77.1429
iter:  53 09:13:04  -864.637520c -4.65  -3.39    +77.1130
iter:  54 09:14:11  -864.674879c -4.21  -3.29    +76.9859
iter:  55 09:15:15  -864.662216c -5.16  -3.10    +76.9936
iter:  56 09:16:19  -864.670732c -5.15  -3.18    +76.9511
iter:  57 09:17:23  -864.691654c -4.28  -3.14    +76.7649
iter:  58 09:18:27  -864.692915c -4.73  -3.04    +76.7121
iter:  59 09:19:33  -864.699890c -5.16  -2.96    +76.6757
iter:  60 09:20:39  -864.704497c -5.32  -2.99    +76.5501
iter:  61 09:21:43  -864.715436c -4.60  -2.97    +76.4220
iter:  62 09:22:47  -864.704237c -4.32  -2.90    +76.4236
iter:  63 09:23:51  -864.699165c -4.78  -2.90    +76.2747
iter:  64 09:24:55  -864.706956c -4.67  -2.96    +76.1981
iter:  65 09:26:00  -864.702664c -4.17  -2.94    +76.1260
iter:  66 09:27:05  -864.701002c -4.35  -2.99    +76.0027
iter:  67 09:28:12  -864.691308c -4.60  -2.99    +75.8726
iter:  68 09:29:17  -864.692844c -4.94  -3.09    +75.8388
iter:  69 09:30:21  -864.693010c -4.90  -3.15    +75.7507
iter:  70 09:31:28  -864.704707c -4.53  -3.15    +75.6867
iter:  71 09:32:34  -864.703740c -4.53  -3.06    +75.6671
iter:  72 09:33:38  -864.701629c -4.58  -3.07    +75.6846
iter:  73 09:34:45  -864.725298c -4.30  -3.13    +75.6566
iter:  74 09:35:50  -864.694304c -4.50  -3.01    +75.6085
iter:  75 09:36:55  -864.694105c -4.80  -3.19    +75.5448
iter:  76 09:38:00  -864.690575c -5.19  -3.27    +75.5773
iter:  77 09:39:05  -864.689147c -5.36  -3.35    +75.5620
iter:  78 09:40:11  -864.687885c -6.00  -3.43    +75.5467
iter:  79 09:41:16  -864.689124c -5.67  -3.51    +75.5364
iter:  80 09:42:20  -864.695507c -5.16  -3.52    +75.5365
iter:  81 09:43:25  -864.688784c -5.10  -3.36    +75.5329
iter:  82 09:44:28  -864.688185c -5.40  -3.46    +75.5003
iter:  83 09:45:33  -864.688368c -5.67  -3.72    +75.5046
iter:  84 09:46:38  -864.688074c -5.85  -3.72    +75.5057
iter:  85 09:47:45  -864.687413c -6.12  -3.82    +75.4955
iter:  86 09:48:51  -864.687055c -6.40  -3.90    +75.4937
iter:  87 09:49:56  -864.687820c -6.59  -3.99    +75.4925
iter:  88 09:51:04  -864.687425c -6.86  -4.05c   +75.4929
iter:  89 09:52:11  -864.687506c -6.95  -4.08c   +75.4888
iter:  90 09:53:18  -864.687557c -6.59  -4.08c   +75.4874
iter:  91 09:54:22  -864.688001c -6.44  -4.03c   +75.4877
iter:  92 09:55:27  -864.688085c -6.48  -3.98    +75.4849
iter:  93 09:56:37  -864.687231c -6.51  -4.09c   +75.4809
iter:  94 09:57:47  -864.687777c -6.56  -4.08c   +75.4770
iter:  95 09:58:57  -864.687628c -6.96  -4.10c   +75.4778
iter:  96 10:00:05  -864.687723c -7.18  -4.27c   +75.4760
iter:  97 10:01:10  -864.687655c -7.75c -4.31c   +75.4737

Converged after 97 iterations.

Dipole moment: (0.166537, -0.131824, 0.006815) |e|*Ang

Total magnetic moment: (0.000000, 0.000000, 75.473719)
Local magnetic moments:
   0 Cr ( 0.000000,  0.000000, -2.031184)
   1 Al ( 0.000000,  0.000000, -0.038673)
   2 Cr ( 0.000000,  0.000000, -1.955527)
   3 Co ( 0.000000,  0.000000,  1.119082)
   4 Fe ( 0.000000,  0.000000,  2.222377)
   5 Cr ( 0.000000,  0.000000, -1.806379)
   6 Ni ( 0.000000,  0.000000,  0.249088)
   7 Fe ( 0.000000,  0.000000,  2.379227)
   8 Cr ( 0.000000,  0.000000, -1.955193)
   9 Co ( 0.000000,  0.000000,  1.404244)
  10 Ni ( 0.000000,  0.000000,  0.262703)
  11 Fe ( 0.000000,  0.000000,  2.579302)
  12 Co ( 0.000000,  0.000000,  1.609726)
  13 Co ( 0.000000,  0.000000,  1.356096)
  14 Fe ( 0.000000,  0.000000,  2.417808)
  15 Fe ( 0.000000,  0.000000,  2.690975)
  16 Fe ( 0.000000,  0.000000,  2.497977)
  17 Fe ( 0.000000,  0.000000,  2.447973)
  18 Cr ( 0.000000,  0.000000, -1.452215)
  19 Co ( 0.000000,  0.000000,  1.517969)
  20 Fe ( 0.000000,  0.000000,  2.646937)
  21 Ni ( 0.000000,  0.000000,  0.299336)
  22 Co ( 0.000000,  0.000000,  1.554819)
  23 Cr ( 0.000000,  0.000000, -2.083947)
  24 Cr ( 0.000000,  0.000000, -2.069557)
  25 Ni ( 0.000000,  0.000000,  0.179068)
  26 Fe ( 0.000000,  0.000000,  2.656961)
  27 Ni ( 0.000000,  0.000000,  0.328658)
  28 Co ( 0.000000,  0.000000,  1.483803)
  29 Co ( 0.000000,  0.000000,  1.490349)
  30 Co ( 0.000000,  0.000000,  1.453025)
  31 Cr ( 0.000000,  0.000000,  1.773763)
  32 Al ( 0.000000,  0.000000, -0.020097)
  33 Cr ( 0.000000,  0.000000, -2.104873)
  34 Cr ( 0.000000,  0.000000,  1.950798)
  35 Cr ( 0.000000,  0.000000,  1.760632)
  36 Fe ( 0.000000,  0.000000,  2.578864)
  37 Co ( 0.000000,  0.000000,  1.206180)
  38 Cr ( 0.000000,  0.000000, -1.917959)
  39 Fe ( 0.000000,  0.000000,  2.324171)
  40 Co ( 0.000000,  0.000000,  1.319367)
  41 Ni ( 0.000000,  0.000000,  0.176259)
  42 Ni ( 0.000000,  0.000000,  0.321693)
  43 Al ( 0.000000,  0.000000, -0.019992)
  44 Fe ( 0.000000,  0.000000,  2.569019)
  45 Co ( 0.000000,  0.000000,  1.423460)
  46 Fe ( 0.000000,  0.000000,  2.375977)
  47 Ni ( 0.000000,  0.000000,  0.588466)
  48 Fe ( 0.000000,  0.000000,  2.678068)
  49 Fe ( 0.000000,  0.000000,  2.629423)
  50 Ni ( 0.000000,  0.000000,  0.497395)
  51 Ni ( 0.000000,  0.000000,  0.485636)
  52 Cr ( 0.000000,  0.000000, -1.497709)
  53 Co ( 0.000000,  0.000000,  1.592434)
  54 Fe ( 0.000000,  0.000000,  2.538035)
  55 Cr ( 0.000000,  0.000000, -2.210144)
  56 Co ( 0.000000,  0.000000,  1.506418)
  57 Fe ( 0.000000,  0.000000,  2.666315)
  58 Ni ( 0.000000,  0.000000,  0.463195)
  59 Fe ( 0.000000,  0.000000,  2.602843)
[...]
  93 Ni ( 0.000000,  0.000000,  0.220731)
  94 Co ( 0.000000,  0.000000,  1.527774)
  95 Cr ( 0.000000,  0.000000, -2.510355)
  96 Fe ( 0.000000,  0.000000,  2.641474)
  97 Ni ( 0.000000,  0.000000,  0.308266)
  98 Ni ( 0.000000,  0.000000,  0.497144)
  99 Fe ( 0.000000,  0.000000,  2.402149)
 100 Ni ( 0.000000,  0.000000,  0.487386)
 101 Cr ( 0.000000,  0.000000, -2.029243)
 102 Cr ( 0.000000,  0.000000, -2.092885)
 103 Cr ( 0.000000,  0.000000,  1.822302)
 104 Co ( 0.000000,  0.000000,  1.285683)
 105 Fe ( 0.000000,  0.000000,  1.959957)
 106 Cr ( 0.000000,  0.000000,  1.816398)
 107 Ni ( 0.000000,  0.000000,  0.245515)

Energy contributions relative to reference atoms: (reference = -3699400.456887)

Kinetic:       -128.908337
Potential:      +24.763471
External:        +0.000000
XC:            -794.544349
Entropy (-ST):   -4.617532
Local:          +36.310326
Free energy:   -866.996421
Extrapolated:  -864.687655

Spin contamination: 47.824800 electrons
Showing only first 2 kpts
                      Up                     Down
 Kpt  Band  Eigenvalues  Occupancy  Eigenvalues  Occupancy
  0   508      8.12809    0.99898      9.19022    0.02335
  0   509      8.13962    0.99886      9.21155    0.01895
  0   510      8.15328    0.99869      9.21564    0.01820
  0   511      8.16872    0.99847      9.23847    0.01454

  1   508      8.11303    0.99912      9.19342    0.02263
  1   509      8.13195    0.99894      9.21419    0.01846
  1   510      8.15131    0.99871      9.21940    0.01754
  1   511      8.17512    0.99837      9.23375    0.01523

Fermi level: 8.81685

Gap: 0.002 eV
Transition (v -> c):
  (s=0, k=1, n=547, [0.25, -0.25, 0.25]) -> (s=1, k=1, n=472, [0.25, -0.25, 0.25])

Forces in eV/Ang:
  0 Cr   -0.15452   -0.39669   -0.79650
  1 Al   -0.36410    0.44851    0.12203
  2 Cr    0.52674   -0.74743    0.18800
  3 Co    0.31797    0.00067   -0.07117
  4 Fe   -0.36084    0.21666    0.37190
  5 Cr   -0.39413   -0.04684   -0.62038
  6 Ni   -0.09443    0.04945   -0.06080
  7 Fe    0.20079   -0.00554    0.19947
  8 Cr    0.43914    0.18917    0.08241
  9 Co    0.26546    0.05808   -0.06047
 10 Ni   -0.15751   -0.05847    0.06451
 11 Fe   -0.33566   -0.11746   -0.10813
 12 Co   -0.03896    0.26348   -0.24308
 13 Co    0.13808   -0.33397    0.05504
 14 Fe    0.14184    0.24283   -0.10373
 15 Fe   -0.12357    0.05251   -0.43639
 16 Fe    0.19092    0.07171   -0.30083
 17 Fe    0.20953    0.09942    0.25807
 18 Cr    0.12159    0.30309   -0.31353
 19 Co   -0.50161   -0.10538    0.06612
 20 Fe   -0.08024    0.26148   -0.04000
 21 Ni   -0.04100   -0.09768    0.21926
 22 Co   -0.13749    0.18213    0.04665
 23 Cr    0.31838   -0.73999   -0.08010
 24 Cr    0.25785    0.43693   -0.08382
 25 Ni    0.05036    0.15785   -0.03962
 26 Fe   -0.02147    0.12785    0.24296
 27 Ni    0.04424    0.02712    0.04127
 28 Co    0.00333   -0.24692    0.05366
 29 Co   -0.17519    0.05776    0.15732
 30 Co   -0.16143   -0.19393    0.22229
 31 Cr   -0.36609    0.04042    0.56379
 32 Al   -0.44665   -0.65583    0.08343
 33 Cr    0.00465    0.08304    0.74895
 34 Cr    0.15596   -0.44225    0.03052
 35 Cr    0.32532    0.89593    0.09722
 36 Fe    0.06458   -0.14624    0.30231
 37 Co   -0.01906   -0.00317    0.08989
 38 Cr    0.24935   -0.17300   -0.40637
 39 Fe    0.43075   -0.09524    0.33534
 40 Co   -0.25511   -0.33407   -0.02298
 41 Ni   -0.05481    0.10102    0.07245
 42 Ni   -0.07905    0.10573    0.09138
 43 Al    0.31935   -0.57300    0.36182
 44 Fe    0.32012    0.31460   -0.31745
 45 Co    0.12576    0.14523    0.00530
 46 Fe    0.25285    0.24353    0.17100
 47 Ni   -0.18670   -0.00292    0.07066
 48 Fe   -0.13119    0.11494    0.29144
 49 Fe    0.11414   -0.26983    0.16542
 50 Ni    0.08144    0.08036    0.06611
 51 Ni    0.25592   -0.09392    0.02230
 52 Cr   -0.70753    0.39313    0.09749
 53 Co   -0.05946   -0.03574   -0.04119
 54 Fe   -0.12480   -0.01231    0.35245
 55 Cr    0.20915    0.38090    0.01619
 56 Co    0.19962    0.04129    0.01911
 57 Fe    0.01436    0.19605    0.19230
 58 Ni   -0.05941   -0.11530   -0.08647
 59 Fe   -0.09944   -0.21593   -0.04248
[...]
 93 Ni   -0.10885   -0.00362   -0.05225
 94 Co    0.06041   -0.14277    0.06005
 95 Cr    0.01606   -0.12640    0.13705
 96 Fe    0.21794    0.01637   -0.21577
 97 Ni    0.00161    0.06270   -0.07510
 98 Ni    0.09441   -0.11986   -0.10146
 99 Fe    0.12620   -0.02834    0.00322
100 Ni   -0.02266   -0.10111    0.00555
101 Cr   -0.84623   -0.05819    0.01578
102 Cr    0.14456   -0.30716   -0.55144
103 Cr   -0.50738   -0.34212   -0.12272
104 Co   -0.16560   -0.20139    0.30330
105 Fe    0.47965    0.07527   -0.55776
106 Cr    0.16192   -0.21344   -0.20883
107 Ni    0.06099    0.12264    0.18615

Date: Sat Apr  8 10:01:26 2023