User:   c.zeng@d0139
Date:   Wed Apr 12 15:44:43 2023
Arch:   x86_64
Pid:    33872
CWD:    /home/c.zeng/projects/hea-corrosion/hea-mlp/data-curation/bulk-md/dft-jobs/1
Python: 3.8.1
gpaw:   /home/c.zeng/usr/installs/gpaw/source/gpaw-22.8.0/gpaw
_gpaw:  /home/c.zeng/usr/installs/gpaw/source/gpaw-22.8.0/
        _gpaw.cpython-38-x86_64-linux-gnu.so
ase:    /home/c.zeng/.local/lib/python3.8/site-packages/ase-3.22.1-py3.8.egg/ase (version 3.22.1)
numpy:  /shared/centos7/python/3.8.1/lib/python3.8/site-packages/numpy (version 1.17.4)
scipy:  /shared/centos7/python/3.8.1/lib/python3.8/site-packages/scipy (version 1.4.1)
units:  Angstrom and eV
cores: 48
OpenMP: False
OMP_NUM_THREADS: 1

Input parameters:
  convergence: {energy: 0.0001}
  kpts: [2 2 2]
  maxiter: 666
  mode: {ecut: 350.0,
         name: pw}
  occupations: {fixmagmom: False,
                name: fermi-dirac,
                width: 0.1}
  spinpol: True
  xc: PBE

System changes: positions, numbers, cell, pbc, initial_charges, initial_magmoms

Initialize ...

species:
  Co:
    name: Cobalt
    id: 339d20d5b0b93d2de9531a1bee871d91
    Z: 27.0
    valence: 9
    core: 18
    charge: 0.0
    file: /home/c.zeng/usr/data/gpaw-setups-0.9.20000/Co.PBE.gz
    compensation charges: {type: gauss,
                           rc: 0.32,
                           lmax: 2}
    cutoffs: {filter: 1.87,
              core: 2.55}
    valence states:
      #              energy  rcut
      - 4s(2.00)    -5.469   1.005
      - 4p(0.00)    -1.277   1.058
      - 3d(7.00)    -8.205   1.005
      -  s          21.742   1.005
      -  p          25.934   1.058
      -  d          19.007   1.005

    # Using partial waves for Co as LCAO basis

  Fe:
    name: Iron
    id: 37abbd8d6c3c35915a9b583b742da910
    Z: 26.0
    valence: 8
    core: 18
    charge: 0.0
    file: /home/c.zeng/usr/data/gpaw-setups-0.9.20000/Fe.PBE.gz
    compensation charges: {type: gauss,
                           rc: 0.33,
                           lmax: 2}
    cutoffs: {filter: 2.06,
              core: 2.67}
    valence states:
      #              energy  rcut
      - 4s(2.00)    -5.291   1.164
      - 4p(0.00)    -1.326   1.058
      - 3d(6.00)    -7.505   1.058
      -  s          21.920   1.164
      -  p          25.885   1.058
      -  d          19.706   1.058

[...]

  Cr:
    name: Chromium
    id: 33f258bda2ca9f93018e70263a35547b
    Z: 24.0
    valence: 6
    core: 18
    charge: 0.0
    file: /home/c.zeng/usr/data/gpaw-setups-0.9.20000/Cr.PBE.gz
    compensation charges: {type: gauss,
                           rc: 0.35,
                           lmax: 2}
    cutoffs: {filter: 2.14,
              core: 3.04}
    valence states:
      #              energy  rcut
      - 4s(1.00)    -4.007   1.164
      - 4p(0.00)    -0.989   1.217
      - 3d(5.00)    -2.913   1.111
      -  s          23.205   1.164
      -  p          26.223   1.217
      -  d          24.299   1.111

[...]

  Ni:
    name: Nickel
    id: 0d9f38a9d6e76a2886f07bb4381f212b
    Z: 28.0
    valence: 16
    core: 12
    charge: 0.0
    file: /home/c.zeng/usr/data/gpaw-setups-0.9.20000/Ni.PBE.gz
    compensation charges: {type: gauss,
                           rc: 0.36,
                           lmax: 2}
    cutoffs: {filter: 2.14,
              core: 1.98}
    valence states:
      #              energy  rcut
      - 4s(2.00)    -5.642   1.164
      - 3p(6.00)   -71.394   1.207
      - 4p(0.00)    -1.226   1.207
      - 3d(8.00)    -8.875   1.138
      -  s          21.570   1.164
      -  d          18.337   1.138

    # Using partial waves for Ni as LCAO basis

Reference energy: -3846758.590871  # eV

Spin-polarized calculation.
Magnetic moment: 151.200000

Convergence criteria:
 Maximum [total energy] change in last 3 cyles: 0.0001 eV / electron
 Maximum integral of absolute [dens]ity change: 0.0001 electrons / valence electron
 Maximum integral of absolute [eigenst]ate change: 4e-08 eV^2 / valence electron
 Maximum number of scf [iter]ations: 666
 (Square brackets indicate name in SCF output, whereas a 'c' in
 the SCF output indicates the quantity has converged.)

Symmetries present (total): 1

  ( 1  0  0)
  ( 0  1  0)
  ( 0  0  1)

8 k-points: 2 x 2 x 2 Monkhorst-Pack grid
4 k-points in the irreducible part of the Brillouin zone
       k-points in crystal coordinates                weights
   0:     0.25000000   -0.25000000   -0.25000000          2/8
   1:     0.25000000   -0.25000000    0.25000000          2/8
   2:     0.25000000    0.25000000   -0.25000000          2/8
   3:     0.25000000    0.25000000    0.25000000          2/8

Wave functions: Plane wave expansion
  Cutoff energy: 350.000 eV
  Number of coefficients (min, max): 17755, 17755
  Pulay-stress correction: 0.000000 eV/Ang^3 (de/decut=0.000000)
  Using FFTW library
  ScaLapack parameters: grid=1x1, blocksize=None
  Wavefunction extrapolation:
    Improved wavefunction reuse through dual PAW basis

Occupation numbers: Fermi-Dirac:
  width: 0.1000  # eV

Eigensolver
   Davidson(niter=2)

Densities:
  Coarse grid: 48*48*48 grid
  Fine grid: 96*96*96 grid
  Total Charge: 0.000000

Density mixing:
  Method: difference
  Backend: pulay
  Linear mixing parameter: 0.05
  old densities: 5
  Damping of long wavelength oscillations: 50

Hamiltonian:
  XC and Coulomb potentials evaluated on a 96*96*96 grid
  Using the PBE Exchange-Correlation functional
  External potential:
    NoExternalPotential

XC parameters: PBE with 2 nearest neighbor stencil

Total number of cores used: 48
Parallelization over k-points: 4
Domain decomposition: 3 x 2 x 2

Number of atoms: 108
Number of atomic orbitals: 1053
Number of bands in calculation: 727
Number of valence electrons: 1053
Bands to converge: occupied

... initialized

Initializing position-dependent things.

Density initialized from atomic densities
Creating initial wave functions:
  727 bands from LCAO basis set

        .----------------Fe-------Co
       /|                    Cr   |
      / |     Fe     FeCr         |
     / Co      Cr       Co        |
    /   | Fe     CrFe    NiCr     Co
   / Co |   Ni              Cr    |
  /     |  CrFeCr   CNi   Ni      |
 *      CCr CrCo Ni    Ni      Nie|
 | Co   |NiCo   NCoFe   CoCr      |
 |  CrFe| FeCr     CNi CoFeCr     |
 |    Cr|  Ni FeCr  NiFNi    NNi  |
 |      FeCrFe Fe    CoFeCo    Ni |
 |      |CoCo   FeNiFe  NiNiNi   Co
 |  Cr  .-CrCo----Co-NiNi--Ni-----.
 |     Fe  CrCCr    CoNi      Fe /
 |    Fe       Fe       Co      /
 Fe  / CrFFer   Ni       Co    /
 |  /              Ni       Co/
 | /r                CNi     /
 |/   Fe                Co  /

Positions:
   0 Co    -0.029461   -0.058984   10.544483    ( 0.0000,  0.0000,  2.1000)
   1 Co    -0.046334    1.684371    1.860051    ( 0.0000,  0.0000,  2.1000)
   2 Fe     1.620611   -0.083470    1.647875    ( 0.0000,  0.0000,  2.0000)
   3 Fe     1.697493    1.705019   10.623126    ( 0.0000,  0.0000,  2.0000)
   4 Cr     3.449722    0.025161   10.603534    ( 0.0000,  0.0000,  0.0000)
   5 Cr     3.507945    1.776804    1.925632    ( 0.0000,  0.0000,  0.0000)
   6 Co     5.343257   10.564650    1.712276    ( 0.0000,  0.0000,  2.1000)
   7 Cr     5.229084    1.734994   10.588625    ( 0.0000,  0.0000,  0.0000)
   8 Fe     6.918132   -0.051571   10.442661    ( 0.0000,  0.0000,  2.0000)
   9 Ni     6.990801    1.660402    1.633102    ( 0.0000,  0.0000,  1.5000)
  10 Ni     8.751687    0.017012    1.682007    ( 0.0000,  0.0000,  1.5000)
  11 Co     8.891660    1.651144   10.637447    ( 0.0000,  0.0000,  2.1000)
  12 Cr    10.624959    3.529310    0.024398    ( 0.0000,  0.0000,  0.0000)
  13 Fe    10.595215    5.345812    1.735704    ( 0.0000,  0.0000,  2.0000)
  14 Cr     1.668704    3.437775    1.735379    ( 0.0000,  0.0000,  0.0000)
  15 Fe     1.811564    5.267580   10.658666    ( 0.0000,  0.0000,  2.0000)
  16 Ni     3.607162    3.691002   10.486046    ( 0.0000,  0.0000,  1.5000)
  17 Co     3.468786    5.225596    1.780384    ( 0.0000,  0.0000,  2.1000)
  18 Ni     5.320580    3.440135    1.682494    ( 0.0000,  0.0000,  1.5000)
  19 Cr     5.250286    5.291175   10.535047    ( 0.0000,  0.0000,  0.0000)
  20 Co     7.116569    3.447708   10.710634    ( 0.0000,  0.0000,  2.1000)
  21 Ni     7.159363    5.310622    1.653290    ( 0.0000,  0.0000,  1.5000)
  22 Co     8.987282    3.498405    1.754582    ( 0.0000,  0.0000,  2.1000)
  23 Cr     9.027653    5.352870   -0.077219    ( 0.0000,  0.0000,  0.0000)
  24 Fe     0.065294    7.099124   10.730552    ( 0.0000,  0.0000,  2.0000)
  25 Co    10.557377    8.790550    1.830606    ( 0.0000,  0.0000,  2.1000)
  26 Cr     1.978945    7.049150    1.819541    ( 0.0000,  0.0000,  0.0000)
  27 Cr     1.665250    8.805907   10.659941    ( 0.0000,  0.0000,  0.0000)
  28 Fe     3.467931    7.124371   10.495075    ( 0.0000,  0.0000,  2.0000)
  29 Cr     3.676225    8.938776    1.740019    ( 0.0000,  0.0000,  0.0000)
  30 Co     5.210327    7.109875    1.700181    ( 0.0000,  0.0000,  2.1000)
  31 Co     5.391378    8.750678   10.679992    ( 0.0000,  0.0000,  2.1000)
  32 Cr     7.122672    7.068849   10.594372    ( 0.0000,  0.0000,  0.0000)
  33 Ni     7.139730    8.911719    1.614971    ( 0.0000,  0.0000,  1.5000)
  34 Ni     8.805566    6.979183    1.822838    ( 0.0000,  0.0000,  1.5000)
  35 Cr     8.972367    8.959045   10.552518    ( 0.0000,  0.0000,  0.0000)
  36 Fe     0.008337   10.745938    3.599886    ( 0.0000,  0.0000,  2.0000)
  37 Ni    10.432804    1.853869    5.275559    ( 0.0000,  0.0000,  1.5000)
  38 Cr     1.769444   -0.155567    5.197465    ( 0.0000,  0.0000,  0.0000)
  39 Fe     1.922569    1.816566    3.585829    ( 0.0000,  0.0000,  2.0000)
  40 Fe     3.571863    0.001309    3.543333    ( 0.0000,  0.0000,  2.0000)
  41 Co     3.517562    2.003570    5.308929    ( 0.0000,  0.0000,  2.1000)
  42 Cr     5.338547    0.092902    5.215623    ( 0.0000,  0.0000,  0.0000)
  43 Fe     5.366390    1.721300    3.346555    ( 0.0000,  0.0000,  2.0000)
  44 Fe     7.066139   -0.016555    3.505346    ( 0.0000,  0.0000,  2.0000)
  45 Fe     7.146429    1.797507    5.249188    ( 0.0000,  0.0000,  2.0000)
  46 Ni     8.835233    0.133667    5.347545    ( 0.0000,  0.0000,  1.5000)
  47 Co     8.799224    1.776238    3.381129    ( 0.0000,  0.0000,  2.1000)
  48 Cr     0.041886    3.639276    3.506473    ( 0.0000,  0.0000,  0.0000)
  49 Ni    -0.097332    5.324318    5.341937    ( 0.0000,  0.0000,  1.5000)
  50 Fe     1.825147    3.683541    5.352811    ( 0.0000,  0.0000,  2.0000)
  51 Co     1.661175    5.354469    3.587708    ( 0.0000,  0.0000,  2.1000)
  52 Co     3.485884    3.655531    3.528855    ( 0.0000,  0.0000,  2.1000)
  53 Fe     3.682326    5.287446    5.347467    ( 0.0000,  0.0000,  2.0000)
  54 Fe     5.373750    3.319679    5.138754    ( 0.0000,  0.0000,  2.0000)
  55 Ni     5.486978    5.299499    3.504367    ( 0.0000,  0.0000,  1.5000)
  56 Ni     7.089600    3.455572    3.517711    ( 0.0000,  0.0000,  1.5000)
  57 Fe     7.059545    5.181749    5.358196    ( 0.0000,  0.0000,  2.0000)
  58 Co     8.778842    3.453195    5.294305    ( 0.0000,  0.0000,  2.1000)
  59 Ni     8.847919    5.343879    3.545360    ( 0.0000,  0.0000,  1.5000)
[...]
  93 Ni     6.890868    5.249405    8.889598    ( 0.0000,  0.0000,  1.5000)
  94 Ni     9.041140    3.633806    9.092456    ( 0.0000,  0.0000,  1.5000)
  95 Cr     8.794874    5.296351    7.313804    ( 0.0000,  0.0000,  0.0000)
  96 Ni    -0.044248    6.983649    7.153206    ( 0.0000,  0.0000,  1.5000)
  97 Co     0.168695    8.914370    8.881605    ( 0.0000,  0.0000,  2.1000)
  98 Fe     1.786953    7.132109    8.887126    ( 0.0000,  0.0000,  2.0000)
  99 Cr     1.860710    8.846067    6.937618    ( 0.0000,  0.0000,  0.0000)
 100 Co     3.454464    7.044654    7.197388    ( 0.0000,  0.0000,  2.1000)
 101 Cr     3.495481    8.905900    8.799661    ( 0.0000,  0.0000,  0.0000)
 102 Fe     5.256059    7.116418    8.831318    ( 0.0000,  0.0000,  2.0000)
 103 Co     5.209290    8.826538    6.967324    ( 0.0000,  0.0000,  2.1000)
 104 Ni     7.074319    6.997704    7.238185    ( 0.0000,  0.0000,  1.5000)
 105 Co     7.043603    8.857452    8.889718    ( 0.0000,  0.0000,  2.1000)
 106 Cr     8.757307    7.067360    8.914795    ( 0.0000,  0.0000,  0.0000)
 107 Cr     8.815706    8.797929    7.277585    ( 0.0000,  0.0000,  0.0000)

Unit cell:
           periodic     x           y           z      points  spacing
  1. axis:    yes   10.614300    0.000000    0.000000    48     0.2211
  2. axis:    yes    0.000000   10.614300    0.000000    48     0.2211
  3. axis:    yes    0.000000    0.000000   10.614300    48     0.2211

  Lengths:  10.614300  10.614300  10.614300
  Angles:   90.000000  90.000000  90.000000

Effective grid spacing dv^(1/3) = 0.2211

     iter     time        total  log10-change:  magmom
                         energy  eigst   dens
iter:   1 15:47:33 -1081.819426                  +151.4734
iter:   2 15:48:50  -944.597319  -0.28  -1.20    +84.7840
iter:   3 15:50:07  -937.846317  -0.93  -1.24    +69.1043
iter:   4 15:51:24  -926.411303  -1.21  -1.30    +64.5638
iter:   5 15:52:42  -904.119672  -1.60  -1.29    +59.2181
iter:   6 15:53:59  -904.188866  -1.34  -1.38    +58.6989
iter:   7 15:55:16  -899.450429  -1.24  -1.46    +57.1797
iter:   8 15:56:33  -882.313618  -1.59  -1.56    +56.1387
iter:   9 15:57:50  -880.641512  -2.27  -1.81    +56.6774
iter:  10 15:59:07  -881.368159  -2.37  -1.86    +58.2398
iter:  11 16:00:25  -881.413355  -2.64  -1.88    +59.0821
iter:  12 16:01:42  -881.634069  -2.66  -1.90    +60.2804
iter:  13 16:02:59  -884.520139  -2.42  -1.95    +61.5160
iter:  14 16:04:16  -882.849959  -2.42  -1.92    +61.6553
iter:  15 16:05:34  -882.470098  -2.68  -2.05    +62.0197
iter:  16 16:06:51  -882.519955  -2.64  -2.15    +62.2956
iter:  17 16:08:08  -881.924294  -2.93  -2.19    +62.8801
iter:  18 16:09:25  -882.017755  -3.30  -2.32    +63.4713
iter:  19 16:10:43  -882.010509c -3.41  -2.34    +63.6336
iter:  20 16:12:00  -882.294211  -3.26  -2.39    +64.1502
iter:  21 16:13:17  -881.997730  -3.37  -2.34    +64.3751
iter:  22 16:14:34  -881.927063  -3.33  -2.49    +64.5248
iter:  23 16:15:52  -882.097611  -3.30  -2.67    +64.7012
iter:  24 16:17:09  -881.945685  -3.73  -2.58    +64.8334
iter:  25 16:18:26  -881.970231  -4.05  -2.78    +65.0954
iter:  26 16:19:44  -881.979787c -4.17  -2.80    +65.2023
iter:  27 16:21:01  -881.993807c -4.21  -2.84    +65.3606
iter:  28 16:22:18  -882.023317c -4.29  -2.89    +65.4147
iter:  29 16:23:36  -882.019129c -4.42  -2.89    +65.4632
iter:  30 16:24:53  -882.035515c -4.40  -2.96    +65.4518
iter:  31 16:26:10  -882.038543c -4.55  -2.95    +65.4664
iter:  32 16:27:27  -882.049517c -4.57  -3.01    +65.4576
iter:  33 16:28:44  -882.050654c -4.72  -3.02    +65.4526
iter:  34 16:30:02  -882.056440c -4.77  -3.05    +65.4563
iter:  35 16:31:19  -882.060657c -4.95  -3.09    +65.4026
iter:  36 16:32:36  -882.071054c -4.90  -3.11    +65.3702
iter:  37 16:33:53  -882.069760c -5.14  -3.10    +65.3482
iter:  38 16:35:11  -882.078857c -4.96  -3.15    +65.3169
iter:  39 16:36:28  -882.084013c -5.06  -3.14    +65.2612
iter:  40 16:37:46  -882.084072c -5.16  -3.15    +65.1838
iter:  41 16:39:03  -882.091165c -5.02  -3.19    +65.1445
iter:  42 16:40:20  -882.096093c -4.88  -3.19    +65.1144
iter:  43 16:41:37  -882.098214c -4.99  -3.16    +65.0551
iter:  44 16:42:55  -882.099441c -4.94  -3.22    +64.9524
iter:  45 16:44:12  -882.098098c -5.17  -3.21    +64.9269
iter:  46 16:45:30  -882.099664c -5.30  -3.25    +64.9238
iter:  47 16:46:46  -882.101397c -5.73  -3.30    +64.8713
iter:  48 16:48:04  -882.105761c -5.63  -3.31    +64.7847
iter:  49 16:49:21  -882.115907c -5.16  -3.29    +64.6488
iter:  50 16:50:38  -882.113687c -5.09  -3.22    +64.7708
iter:  51 16:51:55  -882.118264c -5.07  -3.21    +64.6131
iter:  52 16:53:13  -882.121290c -5.40  -3.25    +64.5451
iter:  53 16:54:30  -882.117392c -5.21  -3.23    +64.5001
iter:  54 16:55:47  -882.121058c -5.51  -3.26    +64.4621
iter:  55 16:57:04  -882.127901c -5.25  -3.28    +64.4160
iter:  56 16:58:22  -882.137822c -4.81  -3.25    +64.4045
iter:  57 16:59:39  -882.130818c -4.97  -3.16    +64.3500
iter:  58 17:00:56  -882.144557c -4.62  -3.32    +64.2489
iter:  59 17:02:14  -882.130307c -4.93  -3.15    +64.2349
iter:  60 17:03:31  -882.130824c -5.31  -3.37    +64.2314
iter:  61 17:04:48  -882.129696c -5.70  -3.45    +64.1989
iter:  62 17:06:05  -882.132399c -5.88  -3.54    +64.1316
iter:  63 17:07:22  -882.137429c -5.21  -3.48    +63.9290
iter:  64 17:08:39  -882.146259c -4.79  -3.41    +63.6459
iter:  65 17:09:57  -882.146435c -5.49  -3.31    +63.7809
iter:  66 17:11:14  -882.147791c -5.35  -3.32    +63.6569
iter:  67 17:12:31  -882.148890c -5.67  -3.31    +63.6245
iter:  68 17:13:48  -882.144214c -5.04  -3.30    +63.6128
iter:  69 17:15:06  -882.160652c -4.57  -3.30    +63.6034
iter:  70 17:16:23  -882.141582c -5.01  -3.12    +63.6147
iter:  71 17:17:41  -882.145974c -5.01  -3.32    +63.6098
iter:  72 17:18:58  -882.141718c -5.21  -3.25    +63.6155
iter:  73 17:20:15  -882.141581c -5.46  -3.31    +63.6143
iter:  74 17:21:32  -882.140569c -5.63  -3.36    +63.6272
iter:  75 17:22:49  -882.144309c -5.30  -3.38    +63.6212
iter:  76 17:24:07  -882.142205c -5.32  -3.33    +63.6045
iter:  77 17:25:25  -882.142802c -5.42  -3.39    +63.6006
iter:  78 17:26:41  -882.145383c -5.23  -3.37    +63.6253
iter:  79 17:27:59  -882.145077c -5.20  -3.34    +63.6302
iter:  80 17:29:17  -882.143110c -5.23  -3.36    +63.5980
iter:  81 17:30:33  -882.141901c -5.65  -3.42    +63.5976
iter:  82 17:31:51  -882.141557c -5.43  -3.51    +63.6225
iter:  83 17:33:08  -882.141993c -5.76  -3.49    +63.6200
iter:  84 17:34:26  -882.141338c -5.69  -3.52    +63.6014
iter:  85 17:35:43  -882.141707c -5.70  -3.54    +63.5989
[...]
iter:  91 17:43:26  -882.139844c -6.34  -3.76    +63.6125
iter:  92 17:44:43  -882.140270c -6.15  -3.80    +63.6048
iter:  93 17:46:00  -882.139614c -6.57  -3.77    +63.6055
iter:  94 17:47:17  -882.139939c -6.21  -3.87    +63.6121
iter:  95 17:48:35  -882.140235c -6.26  -3.80    +63.6107
iter:  96 17:49:52  -882.139733c -6.35  -3.83    +63.6017
iter:  97 17:51:09  -882.139665c -6.47  -3.87    +63.6005
iter:  98 17:52:26  -882.139668c -6.40  -3.91    +63.6077
iter:  99 17:53:44  -882.139573c -6.66  -3.89    +63.6081
iter: 100 17:55:01  -882.139661c -6.93  -3.99    +63.6044
iter: 101 17:56:18  -882.139430c -6.83  -3.99    +63.6055
iter: 102 17:57:36  -882.139688c -6.77  -3.99    +63.6088
iter: 103 17:58:53  -882.139707c -6.61  -4.00    +63.6092
iter: 104 18:00:10  -882.139903c -6.56  -3.99    +63.6032
iter: 105 18:01:27  -882.139475c -6.41  -4.00    +63.6023
iter: 106 18:02:44  -882.139460c -6.71  -4.02c   +63.6062
iter: 107 18:04:01  -882.139690c -6.66  -4.07c   +63.6043
iter: 108 18:05:18  -882.139394c -6.80  -4.09c   +63.5996
iter: 109 18:06:36  -882.139370c -6.88  -4.14c   +63.5988
iter: 110 18:07:53  -882.139346c -7.23  -4.18c   +63.6036
iter: 111 18:09:11  -882.139612c -6.69  -4.26c   +63.6037
iter: 112 18:10:28  -882.139526c -7.06  -4.14c   +63.6027
iter: 113 18:11:45  -882.139320c -6.97  -4.28c   +63.6037
iter: 114 18:13:02  -882.139485c -7.03  -4.27c   +63.6065
iter: 115 18:14:19  -882.139478c -7.02  -4.31c   +63.6069
iter: 116 18:15:37  -882.139398c -7.47c -4.31c   +63.6028

Converged after 116 iterations.

Dipole moment: (6.060886, -4.129432, 14.787510) |e|*Ang

Total magnetic moment: (0.000000, 0.000000, 63.602804)
Local magnetic moments:
   0 Co ( 0.000000,  0.000000,  0.992322)
   1 Co ( 0.000000,  0.000000,  1.083462)
   2 Fe ( 0.000000,  0.000000,  1.910883)
   3 Fe ( 0.000000,  0.000000,  1.422140)
   4 Cr ( 0.000000,  0.000000,  0.566022)
   5 Cr ( 0.000000,  0.000000, -1.321763)
   6 Co ( 0.000000,  0.000000,  0.550079)
   7 Cr ( 0.000000,  0.000000, -1.087256)
   8 Fe ( 0.000000,  0.000000,  1.994216)
   9 Ni ( 0.000000,  0.000000,  0.399757)
  10 Ni ( 0.000000,  0.000000,  0.497425)
  11 Co ( 0.000000,  0.000000,  1.550714)
  12 Cr ( 0.000000,  0.000000, -0.484784)
  13 Fe ( 0.000000,  0.000000,  1.650499)
  14 Cr ( 0.000000,  0.000000,  0.261284)
  15 Fe ( 0.000000,  0.000000,  1.300739)
  16 Ni ( 0.000000,  0.000000,  0.091342)
  17 Co ( 0.000000,  0.000000,  1.082759)
  18 Ni ( 0.000000,  0.000000,  0.280846)
  19 Cr ( 0.000000,  0.000000, -1.653720)
  20 Co ( 0.000000,  0.000000,  1.370070)
  21 Ni ( 0.000000,  0.000000,  0.258003)
  22 Co ( 0.000000,  0.000000,  1.167614)
  23 Cr ( 0.000000,  0.000000, -0.865842)
  24 Fe ( 0.000000,  0.000000,  1.536247)
  25 Co ( 0.000000,  0.000000,  1.231961)
  26 Cr ( 0.000000,  0.000000, -1.134145)
  27 Cr ( 0.000000,  0.000000, -0.949123)
  28 Fe ( 0.000000,  0.000000,  1.549436)
  29 Cr ( 0.000000,  0.000000, -1.129548)
  30 Co ( 0.000000,  0.000000,  1.227452)
  31 Co ( 0.000000,  0.000000,  0.660485)
  32 Cr ( 0.000000,  0.000000,  0.467348)
  33 Ni ( 0.000000,  0.000000,  0.347921)
  34 Ni ( 0.000000,  0.000000,  0.271528)
  35 Cr ( 0.000000,  0.000000, -1.400339)
  36 Fe ( 0.000000,  0.000000,  2.337161)
  37 Ni ( 0.000000,  0.000000,  0.336174)
  38 Cr ( 0.000000,  0.000000, -0.827622)
  39 Fe ( 0.000000,  0.000000,  1.733138)
  40 Fe ( 0.000000,  0.000000,  1.951352)
  41 Co ( 0.000000,  0.000000,  0.554642)
  42 Cr ( 0.000000,  0.000000, -1.272642)
  43 Fe ( 0.000000,  0.000000,  1.856598)
  44 Fe ( 0.000000,  0.000000,  2.357706)
  45 Fe ( 0.000000,  0.000000,  2.112169)
  46 Ni ( 0.000000,  0.000000,  0.537394)
  47 Co ( 0.000000,  0.000000,  1.478967)
  48 Cr ( 0.000000,  0.000000, -1.267441)
  49 Ni ( 0.000000,  0.000000,  0.241493)
  50 Fe ( 0.000000,  0.000000,  1.872670)
  51 Co ( 0.000000,  0.000000,  1.190493)
  52 Co ( 0.000000,  0.000000,  1.206970)
  53 Fe ( 0.000000,  0.000000,  2.207734)
  54 Fe ( 0.000000,  0.000000,  2.066092)
  55 Ni ( 0.000000,  0.000000,  0.558578)
  56 Ni ( 0.000000,  0.000000,  0.446875)
  57 Fe ( 0.000000,  0.000000,  2.379065)
  58 Co ( 0.000000,  0.000000,  1.449524)
  59 Ni ( 0.000000,  0.000000,  0.367509)
[...]
  93 Ni ( 0.000000,  0.000000,  0.124994)
  94 Ni ( 0.000000,  0.000000, -0.014251)
  95 Cr ( 0.000000,  0.000000, -1.531691)
  96 Ni ( 0.000000,  0.000000,  0.143925)
  97 Co ( 0.000000,  0.000000,  0.655499)
  98 Fe ( 0.000000,  0.000000,  1.445309)
  99 Cr ( 0.000000,  0.000000, -0.912811)
 100 Co ( 0.000000,  0.000000,  0.881465)
 101 Cr ( 0.000000,  0.000000, -1.127794)
 102 Fe ( 0.000000,  0.000000,  2.089777)
 103 Co ( 0.000000,  0.000000,  1.231555)
 104 Ni ( 0.000000,  0.000000,  0.066147)
 105 Co ( 0.000000,  0.000000,  0.688705)
 106 Cr ( 0.000000,  0.000000,  0.736365)
 107 Cr ( 0.000000,  0.000000, -1.200509)

Energy contributions relative to reference atoms: (reference = -3846758.590871)

Kinetic:       +225.557525
Potential:     -271.907768
External:        +0.000000
XC:            -873.115467
Entropy (-ST):   -4.733194
Local:          +39.692910
Free energy:   -884.505996
Extrapolated:  -882.139398

Spin contamination: 27.541385 electrons
Showing only first 2 kpts
                      Up                     Down
 Kpt  Band  Eigenvalues  Occupancy  Eigenvalues  Occupancy
  0   524      9.86997    0.99270     10.71674    0.02777
  0   525      9.87556    0.99228     10.72973    0.02447
  0   526      9.88386    0.99162     10.74257    0.02158
  0   527      9.90490    0.98967     10.76074    0.01806

  1   524      9.85495    0.99371     10.71827    0.02736
  1   525      9.86339    0.99316     10.72854    0.02475
  1   526      9.88591    0.99144     10.74931    0.02020
  1   527      9.90017    0.99015     10.75564    0.01899

Fermi level: 10.36116

No gap

Forces in eV/Ang:
  0 Co    0.63605    0.74932    0.46420
  1 Co    0.64647    0.46646   -0.84450
  2 Fe    0.82221    0.38117    1.15124
  3 Fe    0.72739    0.64720    0.25328
  4 Cr    0.80264   -0.18226    0.09049
  5 Cr   -0.05266   -0.30466   -0.74069
  6 Co   -0.43485   -0.06198   -0.07064
  7 Cr    0.17364   -0.02161   -0.32419
  8 Fe    0.20640    0.27937    1.15689
  9 Ni    1.10814    0.62007    0.36642
 10 Ni    0.73058   -0.12993    0.24530
 11 Co    0.12498    1.17652   -0.08476
 12 Cr    0.88504   -0.66598    0.49085
 13 Fe    0.43646    0.14691    0.62145
 14 Cr    0.53697    0.84416    0.09310
 15 Fe   -0.09207    0.59716    0.36320
 16 Ni   -0.38827   -1.48211    1.33697
 17 Co    0.61629    0.35161   -0.05222
 18 Ni   -0.15360    1.04199    0.41934
 19 Cr    0.13123    0.85679    1.30012
 20 Co    0.17834    0.57857   -0.82184
 21 Ni   -0.62220   -0.49170    0.41529
 22 Co   -0.87061    0.27986   -0.29517
 23 Cr   -1.19629    0.50905    0.98984
 24 Fe   -0.14460    0.21262   -0.60743
 25 Co   -0.03843    0.10643   -0.68308
 26 Cr   -0.90553   -0.16222    0.04759
 27 Cr    0.27829    0.51943    0.08253
 28 Fe    0.54323   -0.00758    1.17445
 29 Cr   -0.96148   -0.24560    0.24439
 30 Co    0.61841   -0.95837    0.10509
 31 Co   -1.18543    0.32393   -1.02482
 32 Cr   -0.37551    0.26711    0.46125
 33 Ni   -0.06206   -0.90886    1.06222
 34 Ni    0.23229    1.43433   -0.65958
 35 Cr   -0.82639   -1.37462    0.12631
 36 Fe   -0.16082   -0.75237   -0.19799
 37 Ni    1.55034   -0.22856    0.24304
 38 Cr    0.11377    1.33487    0.56437
 39 Fe   -1.31595    0.05099    0.31107
 40 Fe   -0.15117   -0.62465    0.06418
 41 Co    0.09468   -1.50456    0.29032
 42 Cr   -0.39358   -0.38782    0.16886
 43 Fe   -0.62232    0.23505    0.96028
 44 Fe    0.24057   -0.26610    0.00263
 45 Fe   -0.48240   -0.40912    0.53905
 46 Ni   -0.40743   -1.02523   -0.38378
 47 Co   -0.04425   -0.02947    0.87603
 48 Cr   -0.14170   -0.84982    0.21832
 49 Ni   -0.10192   -0.31977    0.42682
 50 Fe   -0.69841   -0.37488   -0.31804
 51 Co    0.63601   -0.00718   -0.34137
 52 Co    0.39615   -0.06496   -0.45247
 53 Fe   -0.54599   -0.01071   -0.25151
 54 Fe   -0.43918    1.20649    0.87567
 55 Ni   -0.60780   -0.38707   -0.29553
 56 Ni    0.42410    0.60206   -0.99107
 57 Fe    0.19767    0.46728    0.01854
 58 Co    0.14119    1.29150    0.09129
 59 Ni   -0.54352   -0.75960    0.39740
[...]
 93 Ni    2.02150    0.55135    0.27543
 94 Ni   -1.88811   -1.49806   -2.17633
 95 Cr    0.47825   -0.64813   -0.69857
 96 Ni    0.03795    0.85779    0.03758
 97 Co   -0.64890   -0.36218   -0.99074
 98 Fe   -0.70027   -0.04745   -0.34427
 99 Cr   -0.96738    0.46596    0.55931
100 Co    0.72632    1.02529   -1.11503
101 Cr    0.67322   -0.15853    0.28651
102 Fe    0.02833    0.12167    0.09413
103 Co    0.96003    0.08618    0.77539
104 Ni   -0.46188    0.63035   -0.57551
105 Co   -0.14102   -0.22140   -0.68336
106 Cr    1.34953   -0.06644    0.02403
107 Cr   -0.04814    0.16752   -0.14561

Date: Wed Apr 12 18:15:53 2023