User:   c.zeng@d0019
Date:   Sat Apr 15 04:15:57 2023
Arch:   x86_64
Pid:    107782
CWD:    /home/c.zeng/projects/hea-corrosion/hea-mlp/data-curation/bulk-mcmc/dft-jobs/218
Python: 3.8.1
gpaw:   /home/c.zeng/usr/installs/gpaw/source/gpaw-22.8.0/gpaw
_gpaw:  /home/c.zeng/usr/installs/gpaw/source/gpaw-22.8.0/
        _gpaw.cpython-38-x86_64-linux-gnu.so
ase:    /home/c.zeng/.local/lib/python3.8/site-packages/ase-3.22.1-py3.8.egg/ase (version 3.22.1)
numpy:  /shared/centos7/python/3.8.1/lib/python3.8/site-packages/numpy (version 1.17.4)
scipy:  /shared/centos7/python/3.8.1/lib/python3.8/site-packages/scipy (version 1.4.1)
units:  Angstrom and eV
cores: 30
OpenMP: False
OMP_NUM_THREADS: 1

Input parameters:
  convergence: {energy: 0.0001}
  kpts: [2 2 2]
  maxiter: 666
  mode: {ecut: 350.0,
         name: pw}
  occupations: {fixmagmom: False,
                name: fermi-dirac,
                width: 0.1}
  spinpol: True
  xc: PBE

System changes: positions, numbers, cell, pbc, initial_charges, initial_magmoms

Initialize ...

species:
  Cr:
    name: Chromium
    id: 33f258bda2ca9f93018e70263a35547b
    Z: 24.0
    valence: 6
    core: 18
    charge: 0.0
    file: /home/c.zeng/usr/data/gpaw-setups-0.9.20000/Cr.PBE.gz
    compensation charges: {type: gauss,
                           rc: 0.35,
                           lmax: 2}
    cutoffs: {filter: 2.14,
              core: 3.04}
    valence states:
      #              energy  rcut
      - 4s(1.00)    -4.007   1.164
      - 4p(0.00)    -0.989   1.217
      - 3d(5.00)    -2.913   1.111
      -  s          23.205   1.164
      -  p          26.223   1.217
      -  d          24.299   1.111

    # Using partial waves for Cr as LCAO basis

  Al:
    name: Aluminium
    id: 0292cae29f5d6237e50f6abdd43a7bdd
    Z: 13.0
    valence: 3
    core: 10
    charge: 0.0
    file: /home/c.zeng/usr/data/gpaw-setups-0.9.20000/Al.PBE.gz
    compensation charges: {type: gauss,
                           rc: 0.34,
                           lmax: 2}
    cutoffs: {filter: 1.91,
              core: 2.36}
    valence states:
      #              energy  rcut
      - 3s(2.00)    -7.753   1.085
      - 3p(1.00)    -2.712   1.085
      -  s          19.459   1.085
      -  p          24.499   1.085
      -  d           0.000   1.085

[...]

  Ni:
    name: Nickel
    id: 0d9f38a9d6e76a2886f07bb4381f212b
    Z: 28.0
    valence: 16
    core: 12
    charge: 0.0
    file: /home/c.zeng/usr/data/gpaw-setups-0.9.20000/Ni.PBE.gz
    compensation charges: {type: gauss,
                           rc: 0.36,
                           lmax: 2}
    cutoffs: {filter: 2.14,
              core: 1.98}
    valence states:
      #              energy  rcut
      - 4s(2.00)    -5.642   1.164
      - 3p(6.00)   -71.394   1.207
      - 4p(0.00)    -1.226   1.207
      - 3d(8.00)    -8.875   1.138
      -  s          21.570   1.164
      -  d          18.337   1.138

[...]

  Co:
    name: Cobalt
    id: 339d20d5b0b93d2de9531a1bee871d91
    Z: 27.0
    valence: 9
    core: 18
    charge: 0.0
    file: /home/c.zeng/usr/data/gpaw-setups-0.9.20000/Co.PBE.gz
    compensation charges: {type: gauss,
                           rc: 0.32,
                           lmax: 2}
    cutoffs: {filter: 1.87,
              core: 2.55}
    valence states:
      #              energy  rcut
      - 4s(2.00)    -5.469   1.005
      - 4p(0.00)    -1.277   1.058
      - 3d(7.00)    -8.205   1.005
      -  s          21.742   1.005
      -  p          25.934   1.058
      -  d          19.007   1.005

[...]

  Fe:
    name: Iron
    id: 37abbd8d6c3c35915a9b583b742da910
    Z: 26.0
    valence: 8
    core: 18
    charge: 0.0
    file: /home/c.zeng/usr/data/gpaw-setups-0.9.20000/Fe.PBE.gz
    compensation charges: {type: gauss,
                           rc: 0.33,
                           lmax: 2}
    cutoffs: {filter: 2.06,
              core: 2.67}
    valence states:
      #              energy  rcut
      - 4s(2.00)    -5.291   1.164
      - 4p(0.00)    -1.326   1.058
      - 3d(6.00)    -7.505   1.058
      -  s          21.920   1.164
      -  p          25.885   1.058
      -  d          19.706   1.058

    # Using partial waves for Fe as LCAO basis

Reference energy: -3235165.067515  # eV

Spin-polarized calculation.
Magnetic moment: 121.100000

Convergence criteria:
 Maximum [total energy] change in last 3 cyles: 0.0001 eV / electron
 Maximum integral of absolute [dens]ity change: 0.0001 electrons / valence electron
 Maximum integral of absolute [eigenst]ate change: 4e-08 eV^2 / valence electron
 Maximum number of scf [iter]ations: 666
 (Square brackets indicate name in SCF output, whereas a 'c' in
 the SCF output indicates the quantity has converged.)

Symmetries present (total): 1

  ( 1  0  0)
  ( 0  1  0)
  ( 0  0  1)

8 k-points: 2 x 2 x 2 Monkhorst-Pack grid
4 k-points in the irreducible part of the Brillouin zone
       k-points in crystal coordinates                weights
   0:     0.25000000   -0.25000000   -0.25000000          2/8
   1:     0.25000000   -0.25000000    0.25000000          2/8
   2:     0.25000000    0.25000000   -0.25000000          2/8
   3:     0.25000000    0.25000000    0.25000000          2/8

Wave functions: Plane wave expansion
  Cutoff energy: 350.000 eV
  Number of coefficients (min, max): 19084, 19084
  Pulay-stress correction: 0.000000 eV/Ang^3 (de/decut=0.000000)
  Using FFTW library
  ScaLapack parameters: grid=1x1, blocksize=None
  Wavefunction extrapolation:
    Improved wavefunction reuse through dual PAW basis

Occupation numbers: Fermi-Dirac:
  width: 0.1000  # eV

Eigensolver
   Davidson(niter=2)

Densities:
  Coarse grid: 48*48*48 grid
  Fine grid: 96*96*96 grid
  Total Charge: 0.000000

Density mixing:
  Method: difference
  Backend: pulay
  Linear mixing parameter: 0.05
  old densities: 5
  Damping of long wavelength oscillations: 50

Hamiltonian:
  XC and Coulomb potentials evaluated on a 96*96*96 grid
  Using the PBE Exchange-Correlation functional
  External potential:
    NoExternalPotential

XC parameters: PBE with 2 nearest neighbor stencil

Total number of cores used: 30
Parallelization over k-points: 2
Domain decomposition: 5 x 3 x 1

Number of atoms: 108
Number of atomic orbitals: 933
Number of bands in calculation: 624
Number of valence electrons: 912
Bands to converge: occupied

... initialized

Initializing position-dependent things.

Density initialized from atomic densities
Creating initial wave functions:
  624 bands from LCAO basis set

        .--------Al----------------.
       /|           Fe             |
      / |    FeFe     Ni           |
     / Ni       Ni       Al        |
    /   |Fe      CrCo       Fe     |
   /    | NiNi      ACo            |
  /    Co  FeiAlAl    Co Fe  CoAl  |
 *      Fe     AlCoAl   NiFe     Cr|
 |      |FeNi   NiFeFe   AlCrNi   Co
 |      | CoCr   AlCoCoAl NiCrFe   |
 |     Fe  Al CoCo  CrCr Ni  NiCr  |
 |      Cr  Ni CrCrCo CoCrCoAl   Fe|
 |      |NiCo   CoAlAl   CoCrFe   Fe
 |      .-FeCr-----NiNi-Al--CrFe---.
 |     Al  Cr CoCr    Al Co  Ni Ni/
 |    / Co              Cr       Ni
 |   /           Alr      CrFe  /
 |  /      Cr       Fe     NiAl/
 | /                   Fe     /i
 *--------------------------Cr

Positions:
   0 Cr    10.797848    0.093654    0.085777    ( 0.0000,  0.0000,  0.0000)
   1 Al    10.831824    1.844742    1.870716    ( 0.0000,  0.0000,  2.0000)
   2 Ni     1.786803   10.847372    1.827335    ( 0.0000,  0.0000,  0.0000)
   3 Co     1.769614    1.870531   -0.031264    ( 0.0000,  0.0000,  0.0000)
   4 Al     3.620857   10.822050   10.833629    ( 0.0000,  0.0000,  1.5000)
   5 Cr     3.571246    1.883176    1.708402    ( 0.0000,  0.0000,  0.0000)
   6 Co     5.521103   10.788063    1.666217    ( 0.0000,  0.0000,  0.0000)
   7 Al     5.520831    1.813973   10.830911    ( 0.0000,  0.0000,  1.5000)
   8 Al     7.330846    0.011025   10.815657    ( 0.0000,  0.0000,  2.0000)
   9 Fe     7.282018    1.809483    1.793250    ( 0.0000,  0.0000,  2.1000)
  10 Fe     9.029996    0.022005    1.811918    ( 0.0000,  0.0000,  1.5000)
  11 Fe     9.007196    1.868639   10.825714    ( 0.0000,  0.0000,  2.0000)
  12 Ni    10.861310    3.649723    0.014171    ( 0.0000,  0.0000,  2.0000)
  13 Ni    10.867442    5.463468    1.819235    ( 0.0000,  0.0000,  2.1000)
  14 Co     1.756088    3.650267    1.845949    ( 0.0000,  0.0000,  0.0000)
  15 Fe     1.790358    5.439092   10.869084    ( 0.0000,  0.0000,  2.1000)
  16 Ni     3.687842    3.622792   -0.049287    ( 0.0000,  0.0000,  2.0000)
  17 Co     3.667347    5.391145    1.745368    ( 0.0000,  0.0000,  0.0000)
  18 Al     5.497977    3.634415    1.792370    ( 0.0000,  0.0000,  2.0000)
  19 Cr     5.524908    5.448029    0.002551    ( 0.0000,  0.0000,  2.0000)
  20 Co     7.223340    3.611877   10.834270    ( 0.0000,  0.0000,  0.0000)
  21 Al     7.217762    5.474830    1.807776    ( 0.0000,  0.0000,  2.1000)
  22 Cr     9.073442    3.654344    1.775148    ( 0.0000,  0.0000,  0.0000)
  23 Ni     9.008740    5.418608    0.007692    ( 0.0000,  0.0000,  2.0000)
  24 Ni    10.859190    7.178720    0.014480    ( 0.0000,  0.0000,  1.5000)
  25 Fe    -0.018106    8.970948    1.875391    ( 0.0000,  0.0000,  0.0000)
  26 Fe     1.817615    7.224025    1.802546    ( 0.0000,  0.0000,  1.5000)
  27 Cr     1.880729    8.993464   10.874031    ( 0.0000,  0.0000,  0.0000)
  28 Fe     3.684428    7.260447   -0.001356    ( 0.0000,  0.0000,  2.0000)
  29 Co     3.612616    9.025636    1.761807    ( 0.0000,  0.0000,  1.5000)
  30 Ni     5.481440    7.275114    1.811211    ( 0.0000,  0.0000,  1.5000)
  31 Fe     5.461261    9.048153   10.833988    ( 0.0000,  0.0000,  1.5000)
  32 Cr     7.245704    7.257881    0.056891    ( 0.0000,  0.0000,  2.1000)
  33 Co     7.301969    9.004609    1.790315    ( 0.0000,  0.0000,  0.0000)
  34 Cr     9.029343    7.181775    1.815549    ( 0.0000,  0.0000,  2.0000)
  35 Ni     9.030561    9.042010    0.020232    ( 0.0000,  0.0000,  1.5000)
  36 Fe    -0.031046    0.001947    3.645701    ( 0.0000,  0.0000,  2.0000)
  37 Fe    10.825910    1.804351    5.434602    ( 0.0000,  0.0000,  2.1000)
  38 Ni     1.743552   10.849296    5.484376    ( 0.0000,  0.0000,  0.0000)
  39 Al     1.769755    1.791891    3.636068    ( 0.0000,  0.0000,  1.5000)
  40 Al     3.516667   10.719828    3.663227    ( 0.0000,  0.0000,  0.0000)
  41 Co     3.644244    1.785205    5.586728    ( 0.0000,  0.0000,  0.0000)
  42 Al     5.484778   10.815439    5.504022    ( 0.0000,  0.0000,  0.0000)
  43 Cr     5.457934    1.842230    3.658769    ( 0.0000,  0.0000,  0.0000)
  44 Ni     7.360615   10.815439    3.672229    ( 0.0000,  0.0000,  0.0000)
  45 Al     7.266884    1.811614    5.485528    ( 0.0000,  0.0000,  2.1000)
  46 Al     9.077986    0.023590    5.491921    ( 0.0000,  0.0000,  0.0000)
  47 Co     9.066788    1.824226    3.671175    ( 0.0000,  0.0000,  1.5000)
  48 Fe    -0.047135    3.649615    3.617291    ( 0.0000,  0.0000,  2.0000)
  49 Cr    10.809264    5.435993    5.379805    ( 0.0000,  0.0000,  2.0000)
  50 Cr     1.752316    3.624989    5.344676    ( 0.0000,  0.0000,  0.0000)
  51 Ni     1.805786    5.472046    3.619389    ( 0.0000,  0.0000,  2.1000)
  52 Cr     3.649408    3.633491    3.631251    ( 0.0000,  0.0000,  2.1000)
  53 Co     3.657628    5.433797    5.434015    ( 0.0000,  0.0000,  1.5000)
  54 Cr     5.413368    3.672642    5.480309    ( 0.0000,  0.0000,  1.5000)
  55 Al     5.413835    5.465588    3.639666    ( 0.0000,  0.0000,  2.1000)
  56 Ni     7.223449    3.731734    3.720829    ( 0.0000,  0.0000,  0.0000)
  57 Cr     7.220557    5.483180    5.485572    ( 0.0000,  0.0000,  0.0000)
  58 Co     9.069039    3.623673    5.469720    ( 0.0000,  0.0000,  1.5000)
  59 Cr     9.064766    5.503837    3.636731    ( 0.0000,  0.0000,  0.0000)
[...]
  93 Co     7.214631    5.385893    9.048577    ( 0.0000,  0.0000,  2.1000)
  94 Fe     8.994291    3.655975    9.039237    ( 0.0000,  0.0000,  1.5000)
  95 Cr     9.006577    5.423262    7.223296    ( 0.0000,  0.0000,  2.0000)
  96 Cr    -0.070637    7.291956    7.110419    ( 0.0000,  0.0000,  0.0000)
  97 Ni     0.073012    9.104570    9.068375    ( 0.0000,  0.0000,  0.0000)
  98 Ni     1.863247    7.257381    9.054785    ( 0.0000,  0.0000,  2.0000)
  99 Fe     1.858343    9.053708    7.225808    ( 0.0000,  0.0000,  2.1000)
 100 Al     3.683906    7.292456    7.235550    ( 0.0000,  0.0000,  2.0000)
 101 Ni     3.628218    9.069550    9.051262    ( 0.0000,  0.0000,  2.1000)
 102 Co     5.530605    7.331890    9.040129    ( 0.0000,  0.0000,  0.0000)
 103 Al     5.476232    9.097209    7.250467    ( 0.0000,  0.0000,  2.0000)
 104 Ni     7.256827    7.264242    7.208456    ( 0.0000,  0.0000,  2.1000)
 105 Al     7.272548    9.136437    9.056861    ( 0.0000,  0.0000,  1.5000)
 106 Fe     8.936493    7.190875    9.109767    ( 0.0000,  0.0000,  0.0000)
 107 Co     8.994682    9.112169    7.218480    ( 0.0000,  0.0000,  0.0000)

Unit cell:
           periodic     x           y           z      points  spacing
  1. axis:    yes   10.872400    0.000000    0.000000    48     0.2265
  2. axis:    yes    0.000000   10.872400    0.000000    48     0.2265
  3. axis:    yes    0.000000    0.000000   10.872400    48     0.2265

  Lengths:  10.872400  10.872400  10.872400
  Angles:   90.000000  90.000000  90.000000

Effective grid spacing dv^(1/3) = 0.2265

     iter     time        total  log10-change:  magmom
                         energy  eigst   dens
iter:   1 04:19:07  -927.971199                  +120.1256
iter:   2 04:20:22  -854.680518  -0.28  -1.23    +80.5709
iter:   3 04:21:38  -849.023004  -0.69  -1.25    +48.3709
iter:   4 04:22:53  -813.851835  -1.17  -1.25    +43.0717
iter:   5 04:24:09  -809.080272  -1.70  -1.38    +40.7075
iter:   6 04:25:25  -813.482972  -1.72  -1.42    +39.9235
iter:   7 04:26:40  -806.209640  -1.61  -1.42    +39.2249
iter:   8 04:27:55  -805.549623  -1.68  -1.52    +39.6998
iter:   9 04:29:10  -812.957750  -1.63  -1.60    +40.1596
iter:  10 04:30:25  -803.380437  -1.91  -1.56    +40.2572
iter:  11 04:31:40  -803.572000  -2.19  -1.74    +41.2822
iter:  12 04:32:56  -802.435655  -2.44  -1.77    +42.3121
iter:  13 04:34:11  -804.252633  -2.37  -1.85    +44.0727
iter:  14 04:35:26  -803.084352  -2.45  -1.82    +44.8596
iter:  15 04:36:42  -804.520936  -2.48  -1.92    +46.2633
iter:  16 04:37:58  -804.389092  -2.37  -1.89    +47.0523
iter:  17 04:39:13  -804.782572  -2.46  -1.92    +48.2058
iter:  18 04:40:29  -803.592272  -2.65  -1.95    +48.9725
iter:  19 04:41:44  -804.158358  -2.76  -2.05    +50.2255
iter:  20 04:43:00  -803.731819  -2.90  -2.05    +51.0985
iter:  21 04:44:15  -803.894452  -3.14  -2.12    +52.0168
iter:  22 04:45:31  -804.113609  -3.17  -2.14    +52.9158
iter:  23 04:46:46  -804.335979  -3.16  -2.16    +53.7535
iter:  24 04:48:01  -804.550080  -3.06  -2.19    +54.4434
iter:  25 04:49:17  -804.963853  -3.02  -2.19    +54.7667
iter:  26 04:50:32  -805.025796  -2.89  -2.19    +55.4178
iter:  27 04:51:48  -805.341004  -2.93  -2.24    +55.7419
iter:  28 04:53:04  -805.044044  -3.05  -2.21    +55.9834
iter:  29 04:54:19  -805.211215  -3.17  -2.33    +56.0193
iter:  30 04:55:35  -805.047308  -3.45  -2.31    +56.2449
iter:  31 04:56:50  -805.126532  -3.69  -2.40    +56.7228
iter:  32 04:58:05  -805.201511  -3.78  -2.43    +56.8784
iter:  33 04:59:21  -805.245424  -3.93  -2.43    +57.0502
iter:  34 05:00:36  -805.302990  -3.86  -2.44    +57.2202
iter:  35 05:01:52  -805.446949  -3.67  -2.48    +57.1169
iter:  36 05:03:07  -805.424065  -3.55  -2.49    +57.2471
iter:  37 05:04:22  -805.519219  -3.50  -2.62    +57.0934
iter:  38 05:05:38  -805.459800  -3.74  -2.64    +56.9653
iter:  39 05:06:53  -805.425403  -4.21  -2.77    +56.9634
iter:  40 05:08:08  -805.439140c -4.53  -2.98    +56.9838
iter:  41 05:09:24  -805.445369c -4.68  -2.98    +56.9238
iter:  42 05:10:39  -805.452621c -4.70  -3.05    +57.0055
iter:  43 05:11:55  -805.456698c -4.64  -3.07    +56.9516
iter:  44 05:13:10  -805.462599c -4.80  -3.20    +56.9646
iter:  45 05:14:26  -805.461489c -4.96  -3.18    +56.9879
iter:  46 05:15:41  -805.465204c -5.07  -3.26    +57.0047
iter:  47 05:16:56  -805.468054c -5.19  -3.33    +57.0415
iter:  48 05:18:12  -805.470185c -5.34  -3.34    +57.0521
iter:  49 05:19:27  -805.473695c -5.27  -3.41    +57.0994
iter:  50 05:20:42  -805.475162c -5.49  -3.39    +57.0914
iter:  51 05:21:58  -805.478545c -5.48  -3.47    +57.1282
iter:  52 05:23:14  -805.480190c -5.65  -3.49    +57.1513
iter:  53 05:24:29  -805.482916c -5.59  -3.51    +57.1741
iter:  54 05:25:45  -805.484750c -5.73  -3.52    +57.1918
iter:  55 05:27:01  -805.487021c -5.68  -3.57    +57.2230
iter:  56 05:28:16  -805.488568c -5.79  -3.57    +57.2341
iter:  57 05:29:32  -805.491080c -5.70  -3.63    +57.2577
iter:  58 05:30:47  -805.491724c -6.09  -3.67    +57.2670
iter:  59 05:32:03  -805.494687c -5.63  -3.70    +57.2862
iter:  60 05:33:19  -805.495226c -6.05  -3.69    +57.2959
iter:  61 05:34:34  -805.497424c -5.78  -3.76    +57.3224
iter:  62 05:35:50  -805.498765c -5.89  -3.74    +57.3316
iter:  63 05:37:05  -805.501133c -5.72  -3.80    +57.3507
iter:  64 05:38:21  -805.505229c -5.28  -3.82    +57.3850
iter:  65 05:39:37  -805.516742c -4.47  -3.81    +57.4409
iter:  66 05:40:52  -805.537361c -3.76  -3.64    +57.5443
iter:  67 05:42:08  -805.537548c -4.77  -3.40    +57.5254
iter:  68 05:43:23  -805.537376c -5.23  -3.40    +57.4989
iter:  69 05:44:39  -805.537925c -5.51  -3.41    +57.4727
iter:  70 05:45:55  -805.544722c -5.09  -3.40    +57.3838
iter:  71 05:47:10  -805.539501c -4.86  -3.28    +57.4527
iter:  72 05:48:26  -805.536097c -5.26  -3.28    +57.4104
iter:  73 05:49:41  -805.536239c -5.17  -3.43    +57.3741
iter:  74 05:50:57  -805.534236c -4.91  -3.36    +57.3740
iter:  75 05:52:12  -805.531161c -5.08  -3.36    +57.3689
iter:  76 05:53:28  -805.530244c -5.78  -3.46    +57.3491
iter:  77 05:54:44  -805.530328c -5.89  -3.62    +57.3364
iter:  78 05:55:59  -805.530445c -6.08  -3.65    +57.3299
iter:  79 05:57:15  -805.530366c -6.23  -3.65    +57.3128
iter:  80 05:58:31  -805.530181c -6.32  -3.73    +57.3066
iter:  81 05:59:46  -805.530584c -6.18  -3.78    +57.3032
iter:  82 06:01:02  -805.530392c -6.43  -3.78    +57.3060
iter:  83 06:02:18  -805.530288c -6.68  -3.87    +57.3055
iter:  84 06:03:33  -805.530532c -6.63  -3.92    +57.3044
iter:  85 06:04:49  -805.530446c -6.71  -3.93    +57.3049
iter:  86 06:06:05  -805.530372c -6.60  -3.96    +57.3042
iter:  87 06:07:20  -805.530620c -6.74  -4.06c   +57.3025
iter:  88 06:08:36  -805.530486c -6.86  -4.07c   +57.3083
iter:  89 06:09:52  -805.530397c -6.89  -4.16c   +57.3074
iter:  90 06:11:08  -805.530558c -7.09  -4.20c   +57.3078
iter:  91 06:12:23  -805.530484c -7.22  -4.24c   +57.3101
iter:  92 06:13:39  -805.530469c -7.26  -4.28c   +57.3095
iter:  93 06:14:54  -805.530596c -7.15  -4.32c   +57.3097
iter:  94 06:16:10  -805.530498c -7.32  -4.29c   +57.3132
iter:  95 06:17:26  -805.530464c -7.46c -4.38c   +57.3120

Converged after 95 iterations.

Dipole moment: (29.736182, 16.527048, 7.352558) |e|*Ang

Total magnetic moment: (0.000000, 0.000000, 57.312018)
Local magnetic moments:
   0 Cr ( 0.000000,  0.000000, -2.426823)
   1 Al ( 0.000000,  0.000000, -0.028156)
   2 Ni ( 0.000000,  0.000000,  0.123382)
   3 Co ( 0.000000,  0.000000,  1.063206)
   4 Al ( 0.000000,  0.000000, -0.032326)
   5 Cr ( 0.000000,  0.000000,  1.988244)
   6 Co ( 0.000000,  0.000000,  1.152782)
   7 Al ( 0.000000,  0.000000, -0.032346)
   8 Al ( 0.000000,  0.000000, -0.045893)
   9 Fe ( 0.000000,  0.000000,  2.233449)
  10 Fe ( 0.000000,  0.000000,  2.314867)
  11 Fe ( 0.000000,  0.000000,  2.120728)
  12 Ni ( 0.000000,  0.000000,  0.394726)
  13 Ni ( 0.000000,  0.000000,  0.354625)
  14 Co ( 0.000000,  0.000000,  1.073872)
  15 Fe ( 0.000000,  0.000000,  2.505681)
  16 Ni ( 0.000000,  0.000000,  0.329854)
  17 Co ( 0.000000,  0.000000,  0.949712)
  18 Al ( 0.000000,  0.000000, -0.026766)
  19 Cr ( 0.000000,  0.000000,  1.270880)
  20 Co ( 0.000000,  0.000000,  0.905161)
  21 Al ( 0.000000,  0.000000, -0.002828)
  22 Cr ( 0.000000,  0.000000, -2.136015)
  23 Ni ( 0.000000,  0.000000,  0.258507)
  24 Ni ( 0.000000,  0.000000,  0.374104)
  25 Fe ( 0.000000,  0.000000,  2.221405)
  26 Fe ( 0.000000,  0.000000,  2.330801)
  27 Cr ( 0.000000,  0.000000, -2.181173)
  28 Fe ( 0.000000,  0.000000,  2.271468)
  29 Co ( 0.000000,  0.000000,  0.898829)
  30 Ni ( 0.000000,  0.000000,  0.076252)
  31 Fe ( 0.000000,  0.000000,  2.236224)
  32 Cr ( 0.000000,  0.000000, -1.824251)
  33 Co ( 0.000000,  0.000000,  0.825926)
  34 Cr ( 0.000000,  0.000000,  1.051836)
  35 Ni ( 0.000000,  0.000000,  0.049446)
  36 Fe ( 0.000000,  0.000000,  2.361703)
  37 Fe ( 0.000000,  0.000000,  1.920971)
  38 Ni ( 0.000000,  0.000000,  0.269116)
  39 Al ( 0.000000,  0.000000, -0.033661)
  40 Al ( 0.000000,  0.000000, -0.011053)
  41 Co ( 0.000000,  0.000000,  0.456927)
  42 Al ( 0.000000,  0.000000, -0.004332)
  43 Cr ( 0.000000,  0.000000, -2.012118)
  44 Ni ( 0.000000,  0.000000,  0.131861)
  45 Al ( 0.000000,  0.000000, -0.016222)
  46 Al ( 0.000000,  0.000000, -0.033085)
  47 Co ( 0.000000,  0.000000,  1.082929)
  48 Fe ( 0.000000,  0.000000,  1.802880)
  49 Cr ( 0.000000,  0.000000, -0.794424)
  50 Cr ( 0.000000,  0.000000, -1.945750)
  51 Ni ( 0.000000,  0.000000,  0.214103)
  52 Cr ( 0.000000,  0.000000,  1.434836)
  53 Co ( 0.000000,  0.000000,  0.560856)
  54 Cr ( 0.000000,  0.000000,  0.873213)
  55 Al ( 0.000000,  0.000000, -0.010958)
  56 Ni ( 0.000000,  0.000000,  0.031204)
  57 Cr ( 0.000000,  0.000000, -0.656200)
  58 Co ( 0.000000,  0.000000,  0.724933)
  59 Cr ( 0.000000,  0.000000,  0.154845)
[...]
  93 Co ( 0.000000,  0.000000,  1.086622)
  94 Fe ( 0.000000,  0.000000,  2.307739)
  95 Cr ( 0.000000,  0.000000,  0.220820)
  96 Cr ( 0.000000,  0.000000, -1.788292)
  97 Ni ( 0.000000,  0.000000,  0.154382)
  98 Ni ( 0.000000,  0.000000,  0.286773)
  99 Fe ( 0.000000,  0.000000,  2.299639)
 100 Al ( 0.000000,  0.000000, -0.032777)
 101 Ni ( 0.000000,  0.000000,  0.097047)
 102 Co ( 0.000000,  0.000000,  0.636764)
 103 Al ( 0.000000,  0.000000,  0.002467)
 104 Ni ( 0.000000,  0.000000,  0.129942)
 105 Al ( 0.000000,  0.000000, -0.023116)
 106 Fe ( 0.000000,  0.000000,  2.389507)
 107 Co ( 0.000000,  0.000000,  0.810055)

Energy contributions relative to reference atoms: (reference = -3235165.067515)

Kinetic:       +250.470100
Potential:     -240.690539
External:        +0.000000
XC:            -844.394159
Entropy (-ST):   -4.050016
Local:          +31.109142
Free energy:   -807.555472
Extrapolated:  -805.530464

Spin contamination: 26.049293 electrons
Showing only first 2 kpts
                      Up                     Down
 Kpt  Band  Eigenvalues  Occupancy  Eigenvalues  Occupancy
  0   454      8.99277    0.99573      9.91814    0.02185
  0   455      9.00139    0.99535      9.92619    0.02020
  0   456      9.01211    0.99483      9.93775    0.01803
  0   457      9.03133    0.99374      9.95543    0.01515

  1   454      8.98421    0.99608      9.90285    0.02537
  1   455      9.00970    0.99495      9.91283    0.02302
  1   456      9.01427    0.99471      9.93117    0.01923
  1   457      9.03519    0.99349      9.94341    0.01706

Fermi level: 9.53800

No gap

Forces in eV/Ang:
  0 Cr    0.29022   -0.58463   -0.56296
  1 Al    0.18026    0.15187   -0.60327
  2 Ni    0.02539    0.05863   -0.10851
  3 Co   -0.00547   -0.23440   -0.17165
  4 Al   -0.05636    0.34825    0.10044
  5 Cr   -0.08576   -0.37148    0.47484
  6 Co   -0.32807    0.25760    0.89075
  7 Al   -0.67883    0.30899   -0.58459
  8 Al   -0.55813   -0.23944    1.92832
  9 Fe    0.28735   -0.10339    0.87573
 10 Fe    0.07701   -0.54296    0.41170
 11 Fe    0.62267    0.25244   -0.05562
 12 Ni   -0.04574   -0.21942   -0.12639
 13 Ni   -0.04897   -0.19402   -0.06509
 14 Co    0.57615   -0.03768   -0.17808
 15 Fe    0.47562   -0.13207    0.54680
 16 Ni   -0.40226   -0.16434    0.25902
 17 Co   -0.10430    0.27131    0.20619
 18 Al   -0.39135   -0.60326   -0.02498
 19 Cr   -0.17775    0.39181   -0.62726
 20 Co    0.34454    0.43254    0.09955
 21 Al    1.03656   -0.46164   -0.20196
 22 Cr   -0.63568   -0.17831    0.28302
 23 Ni    0.07493   -0.11564   -0.02708
 24 Ni   -0.01163    0.63312   -0.18967
 25 Fe   -0.28404    0.50505   -0.82619
 26 Fe    0.17772   -0.17559   -0.05497
 27 Cr   -1.03715   -0.82404    0.21455
 28 Fe   -0.14088    0.24477    0.25555
 29 Co    0.32867   -0.18472    0.36087
 30 Ni   -0.72294    0.10043    0.15981
 31 Fe    0.07474   -0.64480    0.52892
 32 Cr   -0.18570    0.26435   -0.67247
 33 Co   -0.13477    0.16942    0.47767
 34 Cr    0.59927    0.60656    0.16654
 35 Ni    0.50901    0.19458   -0.36812
 36 Fe   -0.39865   -0.26098   -0.18531
 37 Fe    0.20935    0.70844   -0.30240
 38 Ni    0.78692    0.11264   -0.16720
 39 Al    0.66311   -0.04838    0.50768
 40 Al    1.26714    1.01167   -0.42635
 41 Co   -0.17206    0.19937   -0.39784
 42 Al   -0.78104    1.48854   -0.79566
 43 Cr   -0.54817   -0.26029   -0.82213
 44 Ni   -0.81911    0.27471    0.00334
 45 Al    0.41132    1.00536   -0.19094
 46 Al   -0.24501   -0.52995   -0.89834
 47 Co   -0.20843    0.35566   -0.30235
 48 Fe    0.03857    0.27048    0.29288
 49 Cr    0.08869    0.13976    0.22127
 50 Cr    0.62376    0.30508    0.89726
 51 Ni    0.23961   -0.12693    0.18940
 52 Cr   -0.81711    0.10448    0.43600
 53 Co   -0.52689   -0.10525    0.10285
 54 Cr   -0.22508   -0.80544    0.40017
 55 Al   -0.71303    0.56734    0.56331
 56 Ni    0.11870   -0.43035   -0.71108
 57 Cr    0.42489   -0.29423    0.58699
 58 Co    0.19561    0.51872   -0.27546
 59 Cr   -0.10453   -0.43584    0.32362
[...]
 93 Co    0.01660    0.23089   -0.14205
 94 Fe   -0.19673   -0.32131    0.01038
 95 Cr   -0.29576   -0.06483   -0.31703
 96 Cr   -0.06369    0.34502    0.49903
 97 Ni   -0.56074   -0.22969    0.01677
 98 Ni   -0.26295   -0.10053   -0.18233
 99 Fe   -0.74959   -0.15137    0.00337
100 Al   -0.67309   -0.58824   -0.22157
101 Ni    0.30693   -0.39721    0.17733
102 Co   -0.38119   -0.69671    0.28557
103 Al   -0.22455   -0.94334    1.06187
104 Ni    0.07454   -0.16663    0.71946
105 Al   -0.07513   -1.73124   -0.66221
106 Fe    0.55701    0.43600   -0.48462
107 Co    0.83015   -0.69706    0.23657

Date: Sat Apr 15 06:17:42 2023