User:   c.zeng@d0023
Date:   Sat Apr 15 21:33:08 2023
Arch:   x86_64
Pid:    275248
CWD:    /home/c.zeng/projects/hea-corrosion/hea-mlp/data-curation/bulk-mcmc/dft-jobs/86
Python: 3.8.1
gpaw:   /home/c.zeng/usr/installs/gpaw/source/gpaw-22.8.0/gpaw
_gpaw:  /home/c.zeng/usr/installs/gpaw/source/gpaw-22.8.0/
        _gpaw.cpython-38-x86_64-linux-gnu.so
ase:    /home/c.zeng/.local/lib/python3.8/site-packages/ase-3.22.1-py3.8.egg/ase (version 3.22.1)
numpy:  /shared/centos7/python/3.8.1/lib/python3.8/site-packages/numpy (version 1.17.4)
scipy:  /shared/centos7/python/3.8.1/lib/python3.8/site-packages/scipy (version 1.4.1)
units:  Angstrom and eV
cores: 30
OpenMP: False
OMP_NUM_THREADS: 1

Input parameters:
  convergence: {energy: 0.0001}
  kpts: [2 2 2]
  maxiter: 666
  mode: {ecut: 350.0,
         name: pw}
  occupations: {fixmagmom: False,
                name: fermi-dirac,
                width: 0.1}
  spinpol: True
  xc: PBE

System changes: positions, numbers, cell, pbc, initial_charges, initial_magmoms

Initialize ...

species:
  Cr:
    name: Chromium
    id: 33f258bda2ca9f93018e70263a35547b
    Z: 24.0
    valence: 6
    core: 18
    charge: 0.0
    file: /home/c.zeng/usr/data/gpaw-setups-0.9.20000/Cr.PBE.gz
    compensation charges: {type: gauss,
                           rc: 0.35,
                           lmax: 2}
    cutoffs: {filter: 2.14,
              core: 3.04}
    valence states:
      #              energy  rcut
      - 4s(1.00)    -4.007   1.164
      - 4p(0.00)    -0.989   1.217
      - 3d(5.00)    -2.913   1.111
      -  s          23.205   1.164
      -  p          26.223   1.217
      -  d          24.299   1.111

    # Using partial waves for Cr as LCAO basis

  Ni:
    name: Nickel
    id: 0d9f38a9d6e76a2886f07bb4381f212b
    Z: 28.0
    valence: 16
    core: 12
    charge: 0.0
    file: /home/c.zeng/usr/data/gpaw-setups-0.9.20000/Ni.PBE.gz
    compensation charges: {type: gauss,
                           rc: 0.36,
                           lmax: 2}
    cutoffs: {filter: 2.14,
              core: 1.98}
    valence states:
      #              energy  rcut
      - 4s(2.00)    -5.642   1.164
      - 3p(6.00)   -71.394   1.207
      - 4p(0.00)    -1.226   1.207
      - 3d(8.00)    -8.875   1.138
      -  s          21.570   1.164
      -  d          18.337   1.138

[...]

  Fe:
    name: Iron
    id: 37abbd8d6c3c35915a9b583b742da910
    Z: 26.0
    valence: 8
    core: 18
    charge: 0.0
    file: /home/c.zeng/usr/data/gpaw-setups-0.9.20000/Fe.PBE.gz
    compensation charges: {type: gauss,
                           rc: 0.33,
                           lmax: 2}
    cutoffs: {filter: 2.06,
              core: 2.67}
    valence states:
      #              energy  rcut
      - 4s(2.00)    -5.291   1.164
      - 4p(0.00)    -1.326   1.058
      - 3d(6.00)    -7.505   1.058
      -  s          21.920   1.164
      -  p          25.885   1.058
      -  d          19.706   1.058

[...]

  Co:
    name: Cobalt
    id: 339d20d5b0b93d2de9531a1bee871d91
    Z: 27.0
    valence: 9
    core: 18
    charge: 0.0
    file: /home/c.zeng/usr/data/gpaw-setups-0.9.20000/Co.PBE.gz
    compensation charges: {type: gauss,
                           rc: 0.32,
                           lmax: 2}
    cutoffs: {filter: 1.87,
              core: 2.55}
    valence states:
      #              energy  rcut
      - 4s(2.00)    -5.469   1.005
      - 4p(0.00)    -1.277   1.058
      - 3d(7.00)    -8.205   1.005
      -  s          21.742   1.005
      -  p          25.934   1.058
      -  d          19.007   1.005

[...]

  Al:
    name: Aluminium
    id: 0292cae29f5d6237e50f6abdd43a7bdd
    Z: 13.0
    valence: 3
    core: 10
    charge: 0.0
    file: /home/c.zeng/usr/data/gpaw-setups-0.9.20000/Al.PBE.gz
    compensation charges: {type: gauss,
                           rc: 0.34,
                           lmax: 2}
    cutoffs: {filter: 1.91,
              core: 2.36}
    valence states:
      #              energy  rcut
      - 3s(2.00)    -7.753   1.085
      - 3p(1.00)    -2.712   1.085
      -  s          19.459   1.085
      -  p          24.499   1.085
      -  d           0.000   1.085

    # Using partial waves for Al as LCAO basis

Reference energy: -3699400.456887  # eV

Spin-polarized calculation.
Magnetic moment: 143.500000

Convergence criteria:
 Maximum [total energy] change in last 3 cyles: 0.0001 eV / electron
 Maximum integral of absolute [dens]ity change: 0.0001 electrons / valence electron
 Maximum integral of absolute [eigenst]ate change: 4e-08 eV^2 / valence electron
 Maximum number of scf [iter]ations: 666
 (Square brackets indicate name in SCF output, whereas a 'c' in
 the SCF output indicates the quantity has converged.)

Symmetries present (total): 1

  ( 1  0  0)
  ( 0  1  0)
  ( 0  0  1)

8 k-points: 2 x 2 x 2 Monkhorst-Pack grid
4 k-points in the irreducible part of the Brillouin zone
       k-points in crystal coordinates                weights
   0:     0.25000000   -0.25000000   -0.25000000          2/8
   1:     0.25000000   -0.25000000    0.25000000          2/8
   2:     0.25000000    0.25000000   -0.25000000          2/8
   3:     0.25000000    0.25000000    0.25000000          2/8

Wave functions: Plane wave expansion
  Cutoff energy: 350.000 eV
  Number of coefficients (min, max): 18052, 18052
  Pulay-stress correction: 0.000000 eV/Ang^3 (de/decut=0.000000)
  Using FFTW library
  ScaLapack parameters: grid=1x1, blocksize=None
  Wavefunction extrapolation:
    Improved wavefunction reuse through dual PAW basis

Occupation numbers: Fermi-Dirac:
  width: 0.1000  # eV

Eigensolver
   Davidson(niter=2)

Densities:
  Coarse grid: 48*48*48 grid
  Fine grid: 96*96*96 grid
  Total Charge: 0.000000

Density mixing:
  Method: difference
  Backend: pulay
  Linear mixing parameter: 0.05
  old densities: 5
  Damping of long wavelength oscillations: 50

Hamiltonian:
  XC and Coulomb potentials evaluated on a 96*96*96 grid
  Using the PBE Exchange-Correlation functional
  External potential:
    NoExternalPotential

XC parameters: PBE with 2 nearest neighbor stencil

Total number of cores used: 30
Parallelization over k-points: 2
Domain decomposition: 5 x 3 x 1

Number of atoms: 108
Number of atomic orbitals: 1025
Number of bands in calculation: 703
Number of valence electrons: 1020
Bands to converge: occupied

... initialized

Initializing position-dependent things.

Density initialized from atomic densities
Creating initial wave functions:
  703 bands from LCAO basis set

        Cr------------------------.
       /|  Co                Co   |
      Cr|   Cr         Ni         |
     / Fe      Fe       Al        |
    /   CCo      Ni       Fe      |
   /e   | CoCr     CoAl    CrNi   |
  /  FeNi  CrCo     NiCrCo        |
 *    FeFe  FeCoCr     CoAl       |
 |     CoFeCr  CoFe Ni  CrFeCr    |
 | Fe   CrNiNiCo NiNiNiFe  Ni     |
 |   CoNi  CrAlNi   NiCrNi   Fe   |
 |    FeCr  FeFeCoCr CoFeCr   Cr  |
 |     CrFeFe  Cr CrNi  CoFeFe    |
 |      .-CoNiCo-FeCrCrCo--CoCr---.
 |   CrCo    CoAl   NiCrFe       /
 |    / Ni    NiFe       Ni     /
 |   /            Ni           /
 |Ni/      Co       Co        /
 |/            Ni           /
 *----------------Ni-------*

Positions:
   0 Cr     0.005316   -0.016350   10.639749    ( 0.0000,  0.0000,  0.0000)
   1 Ni    10.672340    1.801276    1.786848    ( 0.0000,  0.0000,  0.0000)
   2 Fe     1.795727   10.625972    1.782259    ( 0.0000,  0.0000,  0.0000)
   3 Ni     1.780787    1.796175   10.644605    ( 0.0000,  0.0000,  2.1000)
   4 Fe     3.523539   -0.014558    0.017268    ( 0.0000,  0.0000,  2.0000)
   5 Co     3.522568    1.781672    1.746648    ( 0.0000,  0.0000,  0.0000)
   6 Co     5.320952   10.642342    1.763136    ( 0.0000,  0.0000,  1.5000)
   7 Ni     5.342082    1.828767    0.007462    ( 0.0000,  0.0000,  2.0000)
   8 Ni     7.144895    0.019195    0.012033    ( 0.0000,  0.0000,  0.0000)
   9 Co     7.143497    1.798064    1.764939    ( 0.0000,  0.0000,  2.1000)
  10 Cr     8.891362   10.651627    1.788353    ( 0.0000,  0.0000,  1.5000)
  11 Co     8.888779    1.804777   10.642609    ( 0.0000,  0.0000,  2.0000)
  12 Fe     0.008694    3.581540   10.650250    ( 0.0000,  0.0000,  2.1000)
  13 Cr     0.018979    5.332745    1.789751    ( 0.0000,  0.0000,  2.1000)
  14 Ni     1.778129    3.600941    1.760019    ( 0.0000,  0.0000,  2.0000)
  15 Co     1.790423    5.343267   -0.017766    ( 0.0000,  0.0000,  2.0000)
  16 Cr     3.542802    3.589864   -0.015614    ( 0.0000,  0.0000,  2.0000)
  17 Co     3.526837    5.358538    1.765793    ( 0.0000,  0.0000,  2.0000)
  18 Fe     5.336650    3.606501    1.755815    ( 0.0000,  0.0000,  0.0000)
  19 Ni     5.300399    5.323642   -0.012797    ( 0.0000,  0.0000,  2.1000)
  20 Al     7.122858    3.584816   10.659524    ( 0.0000,  0.0000,  2.0000)
  21 Cr     7.120500    5.315168    1.805502    ( 0.0000,  0.0000,  1.5000)
  22 Ni     8.892034    3.590952    1.773146    ( 0.0000,  0.0000,  2.1000)
  23 Fe     8.925340    5.301487   -0.003100    ( 0.0000,  0.0000,  0.0000)
  24 Cr     0.023055    7.096680   -0.007939    ( 0.0000,  0.0000,  0.0000)
  25 Cr     0.019141    8.871245    1.787510    ( 0.0000,  0.0000,  1.5000)
  26 Co     1.784372    7.104567    1.776443    ( 0.0000,  0.0000,  2.0000)
  27 Co     1.779944    8.867628   10.659406    ( 0.0000,  0.0000,  1.5000)
  28 Ni     3.547785    7.097897    0.009215    ( 0.0000,  0.0000,  2.1000)
  29 Cr     3.541137    8.858109    1.788225    ( 0.0000,  0.0000,  2.1000)
  30 Cr     5.295105    7.099391    1.787894    ( 0.0000,  0.0000,  2.1000)
  31 Ni     5.303685    8.873828    0.029898    ( 0.0000,  0.0000,  0.0000)
  32 Ni     7.106883    7.088719   10.645159    ( 0.0000,  0.0000,  0.0000)
  33 Co     7.111055    8.901137    1.809472    ( 0.0000,  0.0000,  0.0000)
  34 Co     8.939384    7.093404    1.799238    ( 0.0000,  0.0000,  0.0000)
  35 Co     8.919972    8.915853   10.664881    ( 0.0000,  0.0000,  0.0000)
  36 Cr    10.679704   10.658873    3.584517    ( 0.0000,  0.0000,  2.0000)
  37 Fe    10.670921    1.796367    5.340289    ( 0.0000,  0.0000,  2.1000)
  38 Fe     1.770350   10.649001    5.343491    ( 0.0000,  0.0000,  0.0000)
  39 Co     1.791800    1.784671    3.584891    ( 0.0000,  0.0000,  2.0000)
  40 Ni     3.529718   10.626388    3.565234    ( 0.0000,  0.0000,  2.1000)
  41 Fe     3.535716    1.793465    5.367289    ( 0.0000,  0.0000,  1.5000)
  42 Co     5.311497    0.001574    5.366254    ( 0.0000,  0.0000,  1.5000)
  43 Al     5.332627    1.768055    3.580793    ( 0.0000,  0.0000,  0.0000)
  44 Ni     7.136966   10.673941    3.563804    ( 0.0000,  0.0000,  2.0000)
  45 Ni     7.136774    1.794126    5.358944    ( 0.0000,  0.0000,  2.1000)
  46 Co     8.925938   10.673621    5.347589    ( 0.0000,  0.0000,  2.0000)
  47 Fe     8.883827    1.779111    3.582404    ( 0.0000,  0.0000,  1.5000)
  48 Cr    -0.010038    3.572341    3.580996    ( 0.0000,  0.0000,  2.0000)
  49 Co    10.685573    5.328935    5.338550    ( 0.0000,  0.0000,  2.0000)
  50 Cr     1.784180    3.582949    5.348357    ( 0.0000,  0.0000,  1.5000)
  51 Fe     1.766326    5.339510    3.565255    ( 0.0000,  0.0000,  1.5000)
  52 Ni     3.522387    3.605007    3.574059    ( 0.0000,  0.0000,  0.0000)
  53 Al     3.543581    5.347343    5.347962    ( 0.0000,  0.0000,  2.1000)
  54 Co     5.333950    3.591678    5.360630    ( 0.0000,  0.0000,  2.0000)
  55 Cr     5.336458    5.346308    3.560132    ( 0.0000,  0.0000,  0.0000)
  56 Cr     7.143102    3.570089    3.572138    ( 0.0000,  0.0000,  2.1000)
  57 Cr     7.120265    5.347471    5.345689    ( 0.0000,  0.0000,  2.0000)
  58 Cr     8.888299    3.570665    5.342018    ( 0.0000,  0.0000,  1.5000)
  59 Fe     8.904573    5.339084    3.577453    ( 0.0000,  0.0000,  2.0000)
[...]
  93 Cr     7.108740    5.307762    8.854395    ( 0.0000,  0.0000,  1.5000)
  94 Al     8.907593    3.561296    8.890348    ( 0.0000,  0.0000,  2.1000)
  95 Fe     8.917806    5.336309    7.100224    ( 0.0000,  0.0000,  0.0000)
  96 Fe     0.016270    7.102027    7.111664    ( 0.0000,  0.0000,  2.0000)
  97 Fe     0.000822    8.895150    8.883817    ( 0.0000,  0.0000,  1.5000)
  98 Co     1.771182    7.105090    8.888608    ( 0.0000,  0.0000,  1.5000)
  99 Cr     1.775184    8.850318    7.108494    ( 0.0000,  0.0000,  2.0000)
 100 Co     3.530401    7.086478    7.104972    ( 0.0000,  0.0000,  1.5000)
 101 Fe     3.524841    8.851001    8.894798    ( 0.0000,  0.0000,  0.0000)
 102 Co     5.310654    7.102827    8.871128    ( 0.0000,  0.0000,  0.0000)
 103 Ni     5.290613    8.850286    7.104876    ( 0.0000,  0.0000,  0.0000)
 104 Co     7.129016    7.083330    7.142750    ( 0.0000,  0.0000,  2.1000)
 105 Al     7.143241    8.903186    8.854384    ( 0.0000,  0.0000,  2.0000)
 106 Cr     8.926504    7.115858    8.862313    ( 0.0000,  0.0000,  0.0000)
 107 Ni     8.932896    8.877648    7.127479    ( 0.0000,  0.0000,  1.5000)

Unit cell:
           periodic     x           y           z      points  spacing
  1. axis:    yes   10.671700    0.000000    0.000000    48     0.2223
  2. axis:    yes    0.000000   10.671700    0.000000    48     0.2223
  3. axis:    yes    0.000000    0.000000   10.671700    48     0.2223

  Lengths:  10.671700  10.671700  10.671700
  Angles:   90.000000  90.000000  90.000000

Effective grid spacing dv^(1/3) = 0.2223

     iter     time        total  log10-change:  magmom
                         energy  eigst   dens
iter:   1 21:38:56  -943.050814                  +143.1360
iter:   2 21:42:12  -927.206449  -0.48  -1.34    +106.9531
iter:   3 21:45:08  -910.378689  -0.90  -1.32    +76.2150
iter:   4 21:47:42  -875.241323  -1.41  -1.34    +64.6416
iter:   5 21:50:16  -872.972689  -1.93  -1.47    +57.7934
iter:   6 21:52:49  -875.124472  -2.00  -1.50    +53.6983
iter:   7 21:55:24  -872.678897  -1.80  -1.52    +51.8972
iter:   8 21:57:58  -869.582108  -1.70  -1.58    +50.8689
iter:   9 22:00:32  -874.851348  -1.77  -1.73    +50.1441
iter:  10 22:04:03  -868.189393  -2.07  -1.72    +49.1988
iter:  11 22:06:43  -869.938058  -2.36  -1.88    +49.4849
iter:  12 22:09:17  -867.635707  -2.67  -1.84    +49.6576
iter:  13 22:11:52  -868.585893  -2.72  -1.96    +50.2230
iter:  14 22:14:26  -868.913589  -2.66  -1.96    +50.4552
iter:  15 22:17:02  -870.790385  -2.51  -2.02    +51.0052
iter:  16 22:19:36  -870.780494  -2.39  -1.94    +51.2264
iter:  17 22:22:10  -871.635920  -2.45  -1.97    +51.2806
iter:  18 22:25:42  -869.491176  -2.59  -1.99    +51.7882
iter:  19 22:28:21  -869.380524  -2.73  -2.13    +52.0893
iter:  20 22:30:55  -868.734966  -3.21  -2.12    +52.4375
iter:  21 22:33:30  -869.055143  -3.21  -2.26    +53.0104
iter:  22 22:36:05  -869.109502  -3.15  -2.26    +53.3300
iter:  23 22:38:37  -869.224269  -3.30  -2.25    +53.9381
iter:  24 22:41:11  -869.420626  -3.14  -2.30    +54.3126
iter:  25 22:43:45  -869.988852  -2.96  -2.35    +54.5746
iter:  26 22:47:19  -869.331121  -3.14  -2.24    +54.8783
iter:  27 22:49:55  -869.516174  -3.30  -2.45    +55.2915
iter:  28 22:52:29  -869.485115  -3.38  -2.39    +55.4942
iter:  29 22:55:04  -869.380940  -3.69  -2.44    +55.7999
iter:  30 22:57:38  -869.402002  -3.96  -2.54    +56.1374
iter:  31 23:00:11  -869.463759c -4.06  -2.56    +56.4072
iter:  32 23:02:45  -869.498955c -4.32  -2.57    +56.5840
iter:  33 23:05:25  -869.758635  -3.62  -2.61    +56.8534
iter:  34 23:08:57  -869.682652  -3.61  -2.53    +56.9131
iter:  35 23:11:32  -869.937973  -3.47  -2.68    +57.1833
iter:  36 23:14:06  -869.782560  -3.63  -2.55    +57.2738
iter:  37 23:16:42  -869.835663  -3.83  -2.80    +57.5154
iter:  38 23:19:17  -869.828141c -3.98  -2.83    +57.6201
iter:  39 23:21:50  -869.873428c -4.23  -2.89    +57.8498
iter:  40 23:24:23  -869.907888c -4.49  -2.94    +58.0566
iter:  41 23:26:57  -870.026530  -3.92  -3.00    +58.4991
iter:  42 23:30:33  -870.178726  -3.54  -2.89    +59.1038
iter:  43 23:33:09  -870.296149  -3.19  -2.81    +59.7236
iter:  44 23:35:43  -870.283194  -4.38  -2.70    +59.4638
iter:  45 23:38:18  -870.269514c -4.36  -2.74    +59.3518
iter:  46 23:40:53  -870.311315c -4.19  -2.77    +59.2921
iter:  47 23:43:27  -870.434172  -4.05  -2.72    +59.2168
iter:  48 23:46:00  -870.347615  -3.77  -2.58    +59.1641
iter:  49 23:48:38  -870.405765c -3.53  -2.67    +59.1435
iter:  50 23:52:13  -870.251569  -4.03  -2.65    +59.0629
iter:  51 23:54:46  -870.283270  -3.94  -2.91    +58.8608
iter:  52 23:57:21  -870.243330c -4.35  -2.85    +58.8822
iter:  53 23:59:56  -870.267880c -4.24  -3.04    +58.8755
iter:  54 00:02:30  -870.237316c -4.59  -2.92    +58.8219
iter:  55 00:05:04  -870.240008c -4.71  -3.12    +58.7463
iter:  56 00:07:36  -870.237542c -4.94  -3.12    +58.7508
iter:  57 00:10:11  -870.239872c -5.17  -3.20    +58.7577
iter:  58 00:13:37  -870.240971c -4.96  -3.21    +58.7348
iter:  59 00:16:24  -870.248381c -4.89  -3.19    +58.7218
iter:  60 00:18:58  -870.247451c -4.78  -3.18    +58.7429
iter:  61 00:21:32  -870.246971c -4.90  -3.18    +58.7655
iter:  62 00:24:06  -870.248302c -4.79  -3.25    +58.7491
iter:  63 00:26:39  -870.243097c -5.09  -3.19    +58.7242
iter:  64 00:29:12  -870.245464c -5.05  -3.34    +58.7451
iter:  65 00:31:46  -870.241878c -5.59  -3.35    +58.7555
iter:  66 00:35:05  -870.244973c -5.35  -3.45    +58.7458
iter:  67 00:38:00  -870.242909c -5.70  -3.42    +58.7444
iter:  68 00:40:33  -870.247320c -5.36  -3.50    +58.7636
iter:  69 00:43:08  -870.244417c -5.58  -3.41    +58.7721
iter:  70 00:45:41  -870.246521c -5.29  -3.53    +58.7697
iter:  71 00:48:15  -870.245025c -5.63  -3.42    +58.7635
iter:  72 00:50:49  -870.244937c -5.62  -3.58    +58.7794
iter:  73 00:53:22  -870.244820c -6.02  -3.56    +58.7890
iter:  74 00:56:28  -870.244889c -6.31  -3.65    +58.7904
iter:  75 00:59:35  -870.245576c -6.24  -3.67    +58.7886
iter:  76 01:02:09  -870.246610c -6.22  -3.67    +58.7959
iter:  77 01:04:43  -870.246148c -6.12  -3.68    +58.8015
iter:  78 01:07:18  -870.248894c -5.69  -3.69    +58.8011
iter:  79 01:09:52  -870.247932c -5.52  -3.62    +58.8001
iter:  80 01:12:25  -870.247732c -5.80  -3.61    +58.8175
iter:  81 01:14:59  -870.248441c -5.63  -3.82    +58.8317
iter:  82 01:18:22  -870.247001c -6.02  -3.66    +58.8262
iter:  83 01:21:09  -870.247566c -6.29  -3.92    +58.8252
iter:  84 01:23:44  -870.247488c -6.90  -4.04c   +58.8302
iter:  85 01:26:18  -870.247919c -6.74  -4.12c   +58.8380
iter:  86 01:28:52  -870.248154c -6.80  -4.12c   +58.8412
iter:  87 01:31:27  -870.249387c -5.69  -4.14c   +58.8592
iter:  88 01:34:01  -870.250046c -5.77  -4.14c   +58.8757
iter:  89 01:36:33  -870.250322c -6.24  -4.08c   +58.8829
iter:  90 01:39:39  -870.250311c -6.89  -3.99    +58.8829
iter:  91 01:42:46  -870.250689c -6.66  -4.00    +58.8860
iter:  92 01:45:20  -870.250692c -6.65  -3.95    +58.8882
iter:  93 01:47:54  -870.250876c -6.40  -3.92    +58.8916
iter:  94 01:50:28  -870.251992c -6.01  -3.99    +58.8956
iter:  95 01:53:03  -870.250853c -6.42  -3.86    +58.8975
iter:  96 01:55:35  -870.250666c -6.60  -4.14c   +58.8925
iter:  97 01:58:10  -870.251020c -6.56  -4.17c   +58.8939
iter:  98 02:01:47  -870.250983c -6.96  -4.12c   +58.8947
iter:  99 02:04:22  -870.250887c -6.99  -4.31c   +58.8947
iter: 100 02:06:56  -870.250758c -7.00  -4.32c   +58.8933
iter: 101 02:09:30  -870.250966c -7.11  -4.34c   +58.8935
iter: 102 02:12:04  -870.250960c -7.57c -4.35c   +58.8968

Converged after 102 iterations.

Dipole moment: (-10.791370, 8.192313, 8.914022) |e|*Ang

Total magnetic moment: (0.000000, 0.000000, 58.896821)
Local magnetic moments:
   0 Cr ( 0.000000,  0.000000, -0.162844)
   1 Ni ( 0.000000,  0.000000,  0.148261)
   2 Fe ( 0.000000,  0.000000,  1.916783)
   3 Ni ( 0.000000,  0.000000,  0.088194)
   4 Fe ( 0.000000,  0.000000,  2.205314)
   5 Co ( 0.000000,  0.000000,  1.409686)
   6 Co ( 0.000000,  0.000000,  1.478808)
   7 Ni ( 0.000000,  0.000000,  0.264658)
   8 Ni ( 0.000000,  0.000000,  0.360948)
   9 Co ( 0.000000,  0.000000,  1.203587)
  10 Cr ( 0.000000,  0.000000, -0.899774)
  11 Co ( 0.000000,  0.000000,  0.752778)
  12 Fe ( 0.000000,  0.000000,  2.109545)
  13 Cr ( 0.000000,  0.000000, -1.334962)
  14 Ni ( 0.000000,  0.000000,  0.265944)
  15 Co ( 0.000000,  0.000000,  1.066657)
  16 Cr ( 0.000000,  0.000000, -1.314060)
  17 Co ( 0.000000,  0.000000,  0.890383)
  18 Fe ( 0.000000,  0.000000,  2.096772)
  19 Ni ( 0.000000,  0.000000,  0.205787)
  20 Al ( 0.000000,  0.000000, -0.016508)
  21 Cr ( 0.000000,  0.000000, -1.192389)
  22 Ni ( 0.000000,  0.000000,  0.051739)
  23 Fe ( 0.000000,  0.000000,  1.378501)
  24 Cr ( 0.000000,  0.000000, -0.914871)
  25 Cr ( 0.000000,  0.000000, -0.038663)
  26 Co ( 0.000000,  0.000000,  0.661999)
  27 Co ( 0.000000,  0.000000,  0.861000)
  28 Ni ( 0.000000,  0.000000,  0.386964)
  29 Cr ( 0.000000,  0.000000, -1.083199)
  30 Cr ( 0.000000,  0.000000,  0.330562)
  31 Ni ( 0.000000,  0.000000,  0.300870)
  32 Ni ( 0.000000,  0.000000,  0.074760)
  33 Co ( 0.000000,  0.000000,  1.416209)
  34 Co ( 0.000000,  0.000000,  0.378860)
  35 Co ( 0.000000,  0.000000,  0.341845)
  36 Cr ( 0.000000,  0.000000, -1.078082)
  37 Fe ( 0.000000,  0.000000,  1.936774)
  38 Fe ( 0.000000,  0.000000,  1.987760)
  39 Co ( 0.000000,  0.000000,  1.093939)
  40 Ni ( 0.000000,  0.000000,  0.336975)
  41 Fe ( 0.000000,  0.000000,  2.314293)
  42 Co ( 0.000000,  0.000000,  1.245920)
  43 Al ( 0.000000,  0.000000, -0.037863)
  44 Ni ( 0.000000,  0.000000,  0.315082)
  45 Ni ( 0.000000,  0.000000,  0.205498)
  46 Co ( 0.000000,  0.000000,  1.132238)
  47 Fe ( 0.000000,  0.000000,  1.801669)
  48 Cr ( 0.000000,  0.000000, -0.244891)
  49 Co ( 0.000000,  0.000000,  0.909064)
  50 Cr ( 0.000000,  0.000000, -1.728945)
  51 Fe ( 0.000000,  0.000000,  1.984022)
  52 Ni ( 0.000000,  0.000000,  0.247060)
  53 Al ( 0.000000,  0.000000, -0.035168)
  54 Co ( 0.000000,  0.000000,  1.029122)
  55 Cr ( 0.000000,  0.000000,  0.575612)
  56 Cr ( 0.000000,  0.000000, -0.456784)
  57 Cr ( 0.000000,  0.000000, -1.149782)
  58 Cr ( 0.000000,  0.000000, -0.545380)
  59 Fe ( 0.000000,  0.000000,  1.657672)
[...]
  93 Cr ( 0.000000,  0.000000, -1.588569)
  94 Al ( 0.000000,  0.000000, -0.029841)
  95 Fe ( 0.000000,  0.000000,  1.755473)
  96 Fe ( 0.000000,  0.000000,  2.164842)
  97 Fe ( 0.000000,  0.000000,  1.696747)
  98 Co ( 0.000000,  0.000000,  1.256665)
  99 Cr ( 0.000000,  0.000000, -1.648071)
 100 Co ( 0.000000,  0.000000,  1.287231)
 101 Fe ( 0.000000,  0.000000,  2.339365)
 102 Co ( 0.000000,  0.000000,  1.374015)
 103 Ni ( 0.000000,  0.000000,  0.266881)
 104 Co ( 0.000000,  0.000000,  0.482243)
 105 Al ( 0.000000,  0.000000, -0.017312)
 106 Cr ( 0.000000,  0.000000, -1.499628)
 107 Ni ( 0.000000,  0.000000,  0.151337)

Energy contributions relative to reference atoms: (reference = -3699400.456887)

Kinetic:       +125.058525
Potential:     -179.605710
External:        +0.000000
XC:            -851.315891
Entropy (-ST):   -4.651741
Local:          +37.937987
Free energy:   -872.576830
Extrapolated:  -870.250960

Spin contamination: 28.632831 electrons
Showing only first 2 kpts
                      Up                     Down
 Kpt  Band  Eigenvalues  Occupancy  Eigenvalues  Occupancy
  0   508      9.65169    0.99322     10.48572    0.03381
  0   509      9.67402    0.99154     10.48942    0.03262
  0   510      9.69853    0.98922     10.49655    0.03045
  0   511      9.70838    0.98812     10.51819    0.02467

  1   508      9.67153    0.99175     10.47492    0.03752
  1   509      9.68876    0.99021     10.49150    0.03197
  1   510      9.69704    0.98938     10.50585    0.02782
  1   511      9.71777    0.98696     10.52092    0.02402

Fermi level: 10.15046

No gap

Forces in eV/Ang:
  0 Cr    0.02175   -0.12846    0.33877
  1 Ni   -0.01764   -0.30514   -0.01793
  2 Fe   -0.30406    0.49888   -0.09696
  3 Ni   -0.07343   -0.02738    0.42378
  4 Fe    0.59961    0.41787   -0.10146
  5 Co    0.02230   -0.07843    0.10485
  6 Co    0.03031    0.11420   -0.11159
  7 Ni   -0.12186   -0.56547    0.11188
  8 Ni   -0.29168   -0.04508    0.07705
  9 Co   -0.18976   -0.21856    0.35540
 10 Cr   -0.02101    0.37056   -0.32710
 11 Co    0.39947   -0.54735    0.61065
 12 Fe    0.25931   -0.16553    0.62492
 13 Cr   -0.13220    0.27960   -0.03536
 14 Ni   -0.01193   -0.48771    0.21383
 15 Co   -0.15635    0.00249    0.05895
 16 Cr    0.08027    0.00395    0.36746
 17 Co    0.35069   -0.09279    0.11449
 18 Fe   -0.37826   -0.17856    0.24486
 19 Ni    0.14230    0.47702    0.12019
 20 Al   -0.35516   -0.93979    0.85801
 21 Cr    0.01549    1.21388    0.29886
 22 Ni    0.23830   -0.48651    0.29831
 23 Fe   -0.21512    1.03135    0.16360
 24 Cr   -0.04245    0.25847    0.24355
 25 Cr   -0.08444   -0.19636   -0.45183
 26 Co   -0.10000    0.20919   -0.19528
 27 Co   -0.06558   -0.16879    0.22851
 28 Ni   -0.02213    0.03521   -0.13085
 29 Cr   -0.05966    0.03483   -0.41829
 30 Cr    0.20015   -0.25622   -0.22823
 31 Ni    0.25169    0.11380   -0.16415
 32 Ni    0.27829    0.01692    0.36792
 33 Co    0.18230   -0.06882   -0.39237
 34 Co   -0.12181    0.10839   -0.29843
 35 Co   -0.08806   -0.39132    0.40957
 36 Cr    0.12365    0.35472   -0.26744
 37 Fe    0.08577    0.01152    0.12353
 38 Fe   -0.06541    0.03542   -0.12982
 39 Co   -0.07058   -0.05464   -0.32441
 40 Ni    0.17999    0.25562    0.03377
 41 Fe   -0.17260   -0.02046    0.05280
 42 Co   -0.05717   -0.56255    0.23900
 43 Al   -0.22530   -0.25619   -0.21117
 44 Ni   -0.08716   -0.21417    0.07148
 45 Ni   -0.08089   -0.21183   -0.02133
 46 Co   -0.17683   -0.13242   -0.00365
 47 Fe    0.07859   -0.10528   -0.22516
 48 Cr   -0.25100   -0.30045   -0.25766
 49 Co    0.04498    0.00201    0.01229
 50 Cr   -0.98275   -0.70806    0.05785
 51 Fe   -0.09763   -0.04315   -0.35858
 52 Ni    0.28631   -0.28422   -0.36978
 53 Al    0.27677    0.20921    0.14977
 54 Co    0.19436   -0.21081   -0.14263
 55 Cr    0.27446   -0.43506   -0.47617
 56 Cr    0.46708    0.43660   -0.12612
 57 Cr   -0.02959    0.40496    0.14832
 58 Cr    0.36932   -0.17533    0.23592
 59 Fe   -0.09855    0.18192   -0.17978
[...]
 93 Cr   -0.87129    1.17534   -0.08866
 94 Al    0.05783   -0.30537   -0.89490
 95 Fe   -0.26976    0.18863   -0.34706
 96 Fe   -0.01404    0.01606   -0.08434
 97 Fe   -0.00012   -0.28496    0.40185
 98 Co    0.03348   -0.00496    0.18562
 99 Cr   -0.08756   -0.00355   -0.31992
100 Co    0.08022    0.40225    0.35323
101 Fe    0.31620    0.05498   -0.04807
102 Co   -0.03049   -0.33450    0.04857
103 Ni    0.34218    0.34483    0.04315
104 Co   -0.10686   -0.09954   -0.37450
105 Al   -0.90345   -0.33772    0.77231
106 Cr    0.73179   -0.52412   -0.02094
107 Ni   -0.28910    0.25044   -0.39859

Date: Sun Apr 16 02:12:28 2023