User:   c.zeng@d0066
Date:   Thu Apr 13 19:35:45 2023
Arch:   x86_64
Pid:    55595
CWD:    /home/c.zeng/projects/hea-corrosion/hea-mlp/data-curation/bulk-md/dft-jobs/20
Python: 3.8.1
gpaw:   /home/c.zeng/usr/installs/gpaw/source/gpaw-22.8.0/gpaw
_gpaw:  /home/c.zeng/usr/installs/gpaw/source/gpaw-22.8.0/
        _gpaw.cpython-38-x86_64-linux-gnu.so
ase:    /home/c.zeng/.local/lib/python3.8/site-packages/ase-3.22.1-py3.8.egg/ase (version 3.22.1)
numpy:  /shared/centos7/python/3.8.1/lib/python3.8/site-packages/numpy (version 1.17.4)
scipy:  /shared/centos7/python/3.8.1/lib/python3.8/site-packages/scipy (version 1.4.1)
units:  Angstrom and eV
cores: 30
OpenMP: False
OMP_NUM_THREADS: 1

Input parameters:
  convergence: {energy: 0.0001}
  kpts: [2 2 2]
  maxiter: 666
  mode: {ecut: 350.0,
         name: pw}
  occupations: {fixmagmom: False,
                name: fermi-dirac,
                width: 0.1}
  spinpol: True
  xc: PBE

System changes: positions, numbers, cell, pbc, initial_charges, initial_magmoms

Initialize ...

species:
  Cr:
    name: Chromium
    id: 33f258bda2ca9f93018e70263a35547b
    Z: 24.0
    valence: 6
    core: 18
    charge: 0.0
    file: /home/c.zeng/usr/data/gpaw-setups-0.9.20000/Cr.PBE.gz
    compensation charges: {type: gauss,
                           rc: 0.35,
                           lmax: 2}
    cutoffs: {filter: 2.14,
              core: 3.04}
    valence states:
      #              energy  rcut
      - 4s(1.00)    -4.007   1.164
      - 4p(0.00)    -0.989   1.217
      - 3d(5.00)    -2.913   1.111
      -  s          23.205   1.164
      -  p          26.223   1.217
      -  d          24.299   1.111

    # Using partial waves for Cr as LCAO basis

  Al:
    name: Aluminium
    id: 0292cae29f5d6237e50f6abdd43a7bdd
    Z: 13.0
    valence: 3
    core: 10
    charge: 0.0
    file: /home/c.zeng/usr/data/gpaw-setups-0.9.20000/Al.PBE.gz
    compensation charges: {type: gauss,
                           rc: 0.34,
                           lmax: 2}
    cutoffs: {filter: 1.91,
              core: 2.36}
    valence states:
      #              energy  rcut
      - 3s(2.00)    -7.753   1.085
      - 3p(1.00)    -2.712   1.085
      -  s          19.459   1.085
      -  p          24.499   1.085
      -  d           0.000   1.085

[...]

  Co:
    name: Cobalt
    id: 339d20d5b0b93d2de9531a1bee871d91
    Z: 27.0
    valence: 9
    core: 18
    charge: 0.0
    file: /home/c.zeng/usr/data/gpaw-setups-0.9.20000/Co.PBE.gz
    compensation charges: {type: gauss,
                           rc: 0.32,
                           lmax: 2}
    cutoffs: {filter: 1.87,
              core: 2.55}
    valence states:
      #              energy  rcut
      - 4s(2.00)    -5.469   1.005
      - 4p(0.00)    -1.277   1.058
      - 3d(7.00)    -8.205   1.005
      -  s          21.742   1.005
      -  p          25.934   1.058
      -  d          19.007   1.005

[...]

  Fe:
    name: Iron
    id: 37abbd8d6c3c35915a9b583b742da910
    Z: 26.0
    valence: 8
    core: 18
    charge: 0.0
    file: /home/c.zeng/usr/data/gpaw-setups-0.9.20000/Fe.PBE.gz
    compensation charges: {type: gauss,
                           rc: 0.33,
                           lmax: 2}
    cutoffs: {filter: 2.06,
              core: 2.67}
    valence states:
      #              energy  rcut
      - 4s(2.00)    -5.291   1.164
      - 4p(0.00)    -1.326   1.058
      - 3d(6.00)    -7.505   1.058
      -  s          21.920   1.164
      -  p          25.885   1.058
      -  d          19.706   1.058

[...]

  Ni:
    name: Nickel
    id: 0d9f38a9d6e76a2886f07bb4381f212b
    Z: 28.0
    valence: 16
    core: 12
    charge: 0.0
    file: /home/c.zeng/usr/data/gpaw-setups-0.9.20000/Ni.PBE.gz
    compensation charges: {type: gauss,
                           rc: 0.36,
                           lmax: 2}
    cutoffs: {filter: 2.14,
              core: 1.98}
    valence states:
      #              energy  rcut
      - 4s(2.00)    -5.642   1.164
      - 3p(6.00)   -71.394   1.207
      - 4p(0.00)    -1.226   1.207
      - 3d(8.00)    -8.875   1.138
      -  s          21.570   1.164
      -  d          18.337   1.138

    # Using partial waves for Ni as LCAO basis

Reference energy: -3699400.456887  # eV

Spin-polarized calculation.
Magnetic moment: 143.500000

Convergence criteria:
 Maximum [total energy] change in last 3 cyles: 0.0001 eV / electron
 Maximum integral of absolute [dens]ity change: 0.0001 electrons / valence electron
 Maximum integral of absolute [eigenst]ate change: 4e-08 eV^2 / valence electron
 Maximum number of scf [iter]ations: 666
 (Square brackets indicate name in SCF output, whereas a 'c' in
 the SCF output indicates the quantity has converged.)

Symmetries present (total): 1

  ( 1  0  0)
  ( 0  1  0)
  ( 0  0  1)

8 k-points: 2 x 2 x 2 Monkhorst-Pack grid
4 k-points in the irreducible part of the Brillouin zone
       k-points in crystal coordinates                weights
   0:     0.25000000   -0.25000000   -0.25000000          2/8
   1:     0.25000000   -0.25000000    0.25000000          2/8
   2:     0.25000000    0.25000000   -0.25000000          2/8
   3:     0.25000000    0.25000000    0.25000000          2/8

Wave functions: Plane wave expansion
  Cutoff energy: 350.000 eV
  Number of coefficients (min, max): 18052, 18052
  Pulay-stress correction: 0.000000 eV/Ang^3 (de/decut=0.000000)
  Using FFTW library
  ScaLapack parameters: grid=1x1, blocksize=None
  Wavefunction extrapolation:
    Improved wavefunction reuse through dual PAW basis

Occupation numbers: Fermi-Dirac:
  width: 0.1000  # eV

Eigensolver
   Davidson(niter=2)

Densities:
  Coarse grid: 48*48*48 grid
  Fine grid: 96*96*96 grid
  Total Charge: 0.000000

Density mixing:
  Method: difference
  Backend: pulay
  Linear mixing parameter: 0.05
  old densities: 5
  Damping of long wavelength oscillations: 50

Hamiltonian:
  XC and Coulomb potentials evaluated on a 96*96*96 grid
  Using the PBE Exchange-Correlation functional
  External potential:
    NoExternalPotential

XC parameters: PBE with 2 nearest neighbor stencil

Total number of cores used: 30
Parallelization over k-points: 2
Domain decomposition: 5 x 3 x 1

Number of atoms: 108
Number of atomic orbitals: 1025
Number of bands in calculation: 703
Number of valence electrons: 1020
Bands to converge: occupied

... initialized

Initializing position-dependent things.

Density initialized from atomic densities
Creating initial wave functions:
  703 bands from LCAO basis set

       /|  Ni               Cr    |
     /  |     Cor     AlFe     CrNi
    /   |        Co      CrCr     |
   /    | Nie      CrFe     Ni    |
  / Ni  |   CCo     CrNi          |
 *    FeCo    NiNi     CoCoCr Fe  |
 |     NiCoCr  CoNiCo   AlCrFe    |
 | Ni FeFeFeCoAlCo NNi Co FeNi    |
 |   FeCr  NiCoCo   FeFeCr  Fe    |
 Cr     NiCrCrCoFe   NiNiNi   NiCr|
 | Co   |Ni    CoCr Co  CrFe     Ni
 |  Fe  .--Nir---FeCCo------Cr----.
 |     /  Fe Fe Al  CrNiNi    Co /
 |    Fee        Cr      Co     /
 |   /   Fe               Cr   /
 |  /      Cr       Co      Al/
 | /        Fe               /o
 |/    Co      Fe       Fe  /
 *----------------Cr-------*

Positions:
   0 Cr    -0.079797    0.089221   10.581213    ( 0.0000,  0.0000,  0.0000)
   1 Al    10.645617    1.785575    1.735386    ( 0.0000,  0.0000,  0.0000)
   2 Cr     1.620684   10.534031    1.680829    ( 0.0000,  0.0000,  0.0000)
   3 Co     1.848663    1.796524   10.868212    ( 0.0000,  0.0000,  2.1000)
   4 Fe     3.547762   -0.204706    0.044690    ( 0.0000,  0.0000,  2.0000)
   5 Cr     3.681761    1.804224    1.834338    ( 0.0000,  0.0000,  0.0000)
   6 Ni     5.300756   10.648097    1.746198    ( 0.0000,  0.0000,  1.5000)
   7 Fe     5.416610    1.944032    0.113506    ( 0.0000,  0.0000,  2.0000)
   8 Cr     7.004428    0.014963    0.091725    ( 0.0000,  0.0000,  0.0000)
   9 Co     7.255080    1.763804    1.831330    ( 0.0000,  0.0000,  2.1000)
  10 Ni     8.891499   10.462185    1.671462    ( 0.0000,  0.0000,  1.5000)
  11 Fe     8.841618    1.815081   10.733689    ( 0.0000,  0.0000,  2.0000)
  12 Co    -0.117871    3.589395   10.727922    ( 0.0000,  0.0000,  2.1000)
  13 Co    -0.059266    5.450896    1.816013    ( 0.0000,  0.0000,  2.1000)
  14 Fe     1.607210    3.666873    1.731720    ( 0.0000,  0.0000,  2.0000)
  15 Fe     1.780754    5.317766    0.034873    ( 0.0000,  0.0000,  2.0000)
  16 Fe     3.469565    3.557497    0.115170    ( 0.0000,  0.0000,  2.0000)
  17 Fe     3.620866    5.324506    1.880303    ( 0.0000,  0.0000,  2.0000)
  18 Cr     5.451383    3.647375    1.736047    ( 0.0000,  0.0000,  0.0000)
  19 Co     5.249060    5.350397   -0.098774    ( 0.0000,  0.0000,  2.1000)
  20 Fe     7.204358    3.527841   10.639919    ( 0.0000,  0.0000,  2.0000)
  21 Ni     7.318755    5.391809    1.941482    ( 0.0000,  0.0000,  1.5000)
  22 Co     8.948381    3.550444    1.920442    ( 0.0000,  0.0000,  2.1000)
  23 Cr     8.943255    5.326446    0.005941    ( 0.0000,  0.0000,  0.0000)
  24 Cr    -0.062226    7.090405   -0.130578    ( 0.0000,  0.0000,  0.0000)
  25 Ni    -0.103787    8.840836    1.513805    ( 0.0000,  0.0000,  1.5000)
  26 Fe     1.702299    7.094856    1.474050    ( 0.0000,  0.0000,  2.0000)
  27 Ni     1.608048    8.854885   10.465030    ( 0.0000,  0.0000,  1.5000)
  28 Co     3.497762    6.968636   -0.065098    ( 0.0000,  0.0000,  2.1000)
  29 Co     3.585532    8.515748    1.770891    ( 0.0000,  0.0000,  2.1000)
  30 Co     5.382006    7.055993    1.915267    ( 0.0000,  0.0000,  2.1000)
  31 Cr     5.311422    8.772505    0.003541    ( 0.0000,  0.0000,  0.0000)
  32 Al     6.935746    6.919074   10.626591    ( 0.0000,  0.0000,  0.0000)
  33 Cr     6.915474    8.917747    1.859415    ( 0.0000,  0.0000,  0.0000)
  34 Cr     9.010609    7.058139    1.819998    ( 0.0000,  0.0000,  0.0000)
  35 Cr     8.786558    8.854888   10.668540    ( 0.0000,  0.0000,  0.0000)
  36 Fe    10.679774   10.505191    3.507546    ( 0.0000,  0.0000,  2.0000)
  37 Co    10.795591    1.933808    5.264390    ( 0.0000,  0.0000,  2.1000)
  38 Cr     1.668736   10.671321    5.396970    ( 0.0000,  0.0000,  0.0000)
  39 Fe     1.626540    1.670259    3.392092    ( 0.0000,  0.0000,  2.0000)
  40 Co     3.244181   10.489983    3.485804    ( 0.0000,  0.0000,  2.1000)
  41 Ni     3.537168    1.713715    5.166063    ( 0.0000,  0.0000,  1.5000)
  42 Ni     5.394584   -0.002687    5.407285    ( 0.0000,  0.0000,  1.5000)
  43 Al     5.513239    1.682654    3.611357    ( 0.0000,  0.0000,  0.0000)
  44 Fe     7.256594   10.551306    3.511143    ( 0.0000,  0.0000,  2.0000)
  45 Co     7.125606    1.780720    5.407451    ( 0.0000,  0.0000,  2.1000)
  46 Fe     8.961233   10.448317    5.138176    ( 0.0000,  0.0000,  2.0000)
  47 Ni     8.940325    1.907691    3.664201    ( 0.0000,  0.0000,  1.5000)
  48 Fe     0.129430    3.728421    3.610590    ( 0.0000,  0.0000,  2.0000)
  49 Fe    10.724625    5.324630    5.484818    ( 0.0000,  0.0000,  2.0000)
  50 Ni     1.883716    3.728291    5.393163    ( 0.0000,  0.0000,  1.5000)
  51 Ni     1.693467    5.518972    3.634786    ( 0.0000,  0.0000,  1.5000)
  52 Cr     3.582977    3.808445    3.653111    ( 0.0000,  0.0000,  0.0000)
  53 Co     3.612344    5.481143    5.338044    ( 0.0000,  0.0000,  2.1000)
  54 Fe     5.270460    3.687625    5.502201    ( 0.0000,  0.0000,  2.0000)
  55 Cr     5.267781    5.424073    3.550867    ( 0.0000,  0.0000,  0.0000)
  56 Co     7.014496    3.636498    3.627670    ( 0.0000,  0.0000,  2.1000)
  57 Fe     6.996899    5.321625    5.414946    ( 0.0000,  0.0000,  2.0000)
  58 Ni     8.888478    3.646764    5.321904    ( 0.0000,  0.0000,  1.5000)
  59 Fe     8.970795    5.348866    3.773374    ( 0.0000,  0.0000,  2.0000)
[...]
  93 Ni     7.007813    5.333255    8.690668    ( 0.0000,  0.0000,  1.5000)
  94 Co     8.818768    3.424601    9.024653    ( 0.0000,  0.0000,  2.1000)
  95 Cr     8.892450    5.254039    6.993963    ( 0.0000,  0.0000,  0.0000)
  96 Fe     0.107957    7.171713    7.191349    ( 0.0000,  0.0000,  2.0000)
  97 Ni    -0.105686    9.056731    8.843576    ( 0.0000,  0.0000,  1.5000)
  98 Ni     1.813322    7.020343    8.759761    ( 0.0000,  0.0000,  1.5000)
  99 Fe     1.851159    8.805563    7.219597    ( 0.0000,  0.0000,  2.0000)
 100 Ni     3.594232    7.039099    7.061663    ( 0.0000,  0.0000,  1.5000)
 101 Cr     3.516878    8.762768    8.953753    ( 0.0000,  0.0000,  0.0000)
 102 Cr     5.332716    7.236173    8.777593    ( 0.0000,  0.0000,  0.0000)
 103 Cr     5.336813    8.846895    7.111142    ( 0.0000,  0.0000,  0.0000)
 104 Co     7.198883    7.080943    7.104004    ( 0.0000,  0.0000,  2.1000)
 105 Fe     7.063119    8.868673    8.955552    ( 0.0000,  0.0000,  2.0000)
 106 Cr     8.901177    7.187598    8.906100    ( 0.0000,  0.0000,  0.0000)
 107 Ni     8.816191    8.912831    7.145240    ( 0.0000,  0.0000,  1.5000)

Unit cell:
           periodic     x           y           z      points  spacing
  1. axis:    yes   10.671700    0.000000    0.000000    48     0.2223
  2. axis:    yes    0.000000   10.671700    0.000000    48     0.2223
  3. axis:    yes    0.000000    0.000000   10.671700    48     0.2223

  Lengths:  10.671700  10.671700  10.671700
  Angles:   90.000000  90.000000  90.000000

Effective grid spacing dv^(1/3) = 0.2223

     iter     time        total  log10-change:  magmom
                         energy  eigst   dens
iter:   1 19:41:25 -1046.062114                  +143.7778
iter:   2 19:43:54  -927.838389  -0.24  -1.20    +81.6162
iter:   3 19:46:25  -910.997856  -0.90  -1.23    +69.5929
iter:   4 19:48:54  -892.827860  -1.30  -1.29    +65.6721
iter:   5 19:51:25  -877.935285  -1.61  -1.32    +62.5824
iter:   6 19:54:34  -879.273322  -1.26  -1.39    +63.0491
iter:   7 19:57:13  -876.072861  -1.25  -1.46    +62.0762
iter:   8 19:59:43  -861.729911  -1.69  -1.55    +60.5513
iter:   9 20:02:14  -860.589776  -2.08  -1.75    +61.8209
iter:  10 20:04:43  -860.237461  -2.46  -1.81    +62.8319
iter:  11 20:07:14  -860.350941  -2.59  -1.84    +64.1771
iter:  12 20:09:44  -861.777830  -2.44  -1.87    +65.6486
iter:  13 20:12:15  -861.704697  -2.39  -1.88    +66.1942
iter:  14 20:15:23  -862.139721  -2.42  -1.95    +66.8501
iter:  15 20:18:03  -861.387683  -2.50  -1.99    +67.6315
iter:  16 20:20:33  -861.764488  -2.71  -2.06    +68.0536
iter:  17 20:23:03  -861.011466  -2.88  -2.06    +68.2106
iter:  18 20:25:34  -861.375701  -2.83  -2.16    +68.6204
iter:  19 20:28:04  -860.710105  -3.11  -2.13    +69.1237
iter:  20 20:30:34  -860.939909  -3.21  -2.25    +69.4170
iter:  21 20:33:05  -860.722303  -3.19  -2.22    +69.4659
iter:  22 20:35:45  -861.177894  -3.10  -2.32    +69.8828
iter:  23 20:38:55  -860.828909  -3.15  -2.26    +70.0854
iter:  24 20:41:26  -861.161344  -3.12  -2.33    +70.0264
iter:  25 20:43:57  -860.835156  -3.24  -2.31    +69.9636
iter:  26 20:46:29  -860.866400  -3.32  -2.39    +70.1323
iter:  27 20:49:01  -860.675920  -3.74  -2.40    +70.2796
iter:  28 20:51:31  -860.736907  -3.72  -2.53    +70.1088
iter:  29 20:54:02  -860.736565c -3.81  -2.50    +70.1806
iter:  30 20:56:37  -860.783560c -3.79  -2.54    +70.3267
iter:  31 20:59:53  -860.795153c -3.77  -2.53    +70.3463
iter:  32 21:02:24  -860.838348c -3.64  -2.56    +70.2423
iter:  33 21:04:56  -860.779451c -3.85  -2.53    +70.1719
iter:  34 21:07:28  -860.820879c -3.82  -2.60    +70.4069
iter:  35 21:09:57  -860.774288c -3.95  -2.61    +70.3840
iter:  36 21:12:28  -860.762075c -4.16  -2.64    +70.2054
iter:  37 21:14:59  -860.757048c -4.27  -2.70    +70.1598
iter:  38 21:17:53  -860.785165c -4.26  -2.71    +70.1808
iter:  39 21:20:50  -860.777822c -4.37  -2.71    +70.1939
iter:  40 21:23:22  -860.782925c -4.21  -2.74    +70.0600
iter:  41 21:25:54  -860.822053c -4.15  -2.74    +70.0592
iter:  42 21:28:25  -860.799692c -4.20  -2.72    +70.1411
iter:  43 21:30:57  -860.805288c -4.24  -2.76    +70.1183
iter:  44 21:33:28  -860.796992c -4.34  -2.77    +70.0514
iter:  45 21:36:00  -860.784387c -4.50  -2.80    +70.0062
iter:  46 21:38:35  -860.795320c -4.65  -2.84    +70.0761
iter:  47 21:41:50  -860.792335c -4.64  -2.86    +70.0591
iter:  48 21:44:21  -860.800457c -4.61  -2.86    +70.0053
iter:  49 21:46:52  -860.802749c -4.47  -2.88    +70.0127
iter:  50 21:49:24  -860.823830c -4.48  -2.86    +70.0496
iter:  51 21:51:54  -860.816855c -4.36  -2.87    +70.0689
iter:  52 21:54:25  -860.806226c -4.43  -2.88    +69.9786
iter:  53 21:56:55  -860.817157c -4.55  -2.92    +69.9805
iter:  54 21:59:43  -860.800903c -4.65  -2.93    +70.0468
iter:  55 22:02:45  -860.804390c -4.80  -2.99    +70.0360
iter:  56 22:05:16  -860.800785c -5.12  -3.00    +70.0022
iter:  57 22:07:47  -860.807978c -4.78  -3.04    +69.9858
iter:  58 22:10:18  -860.818436c -4.76  -3.02    +70.0234
iter:  59 22:12:50  -860.817030c -4.68  -3.02    +70.0203
iter:  60 22:15:20  -860.818620c -4.59  -3.02    +69.9664
iter:  61 22:17:50  -860.815860c -4.59  -3.05    +69.9891
iter:  62 22:20:21  -860.812315c -4.91  -3.03    +70.0396
iter:  63 22:23:38  -860.810185c -4.94  -3.14    +70.0678
iter:  64 22:26:09  -860.805047c -5.18  -3.15    +70.0352
iter:  65 22:28:40  -860.809082c -5.45  -3.20    +70.0463
iter:  66 22:31:11  -860.807728c -5.17  -3.23    +70.0693
iter:  67 22:33:42  -860.817155c -5.04  -3.21    +70.0637
iter:  68 22:36:12  -860.809587c -5.10  -3.18    +70.0392
iter:  69 22:38:43  -860.815630c -4.96  -3.25    +70.0362
iter:  70 22:41:23  -860.817546c -4.96  -3.20    +70.0829
iter:  71 22:44:31  -860.810907c -5.22  -3.23    +70.0811
iter:  72 22:47:01  -860.811032c -5.32  -3.32    +70.0587
iter:  73 22:49:32  -860.809819c -5.76  -3.37    +70.0714
iter:  74 22:52:04  -860.811573c -5.76  -3.39    +70.0913
iter:  75 22:54:35  -860.812831c -5.69  -3.42    +70.0953
iter:  76 22:57:05  -860.813685c -5.36  -3.40    +70.0850
iter:  77 22:59:35  -860.816015c -5.36  -3.37    +70.0911
iter:  78 23:02:09  -860.815873c -5.14  -3.42    +70.1178
iter:  79 23:05:24  -860.817557c -5.36  -3.35    +70.1057
iter:  80 23:07:55  -860.812533c -5.33  -3.43    +70.0841
iter:  81 23:10:27  -860.813059c -5.77  -3.49    +70.0890
iter:  82 23:12:58  -860.814333c -5.86  -3.56    +70.1239
iter:  83 23:15:29  -860.813108c -5.93  -3.59    +70.1215
iter:  84 23:17:59  -860.815239c -5.82  -3.64    +70.1233
iter:  85 23:20:29  -860.813989c -6.06  -3.60    +70.1334
iter:  86 23:23:04  -860.818105c -5.52  -3.70    +70.1463
iter:  87 23:26:18  -860.816227c -5.70  -3.54    +70.1423
iter:  88 23:28:50  -860.815446c -5.76  -3.66    +70.1205
iter:  89 23:31:22  -860.816402c -5.83  -3.71    +70.1325
iter:  90 23:33:53  -860.815639c -6.08  -3.76    +70.1434
iter:  91 23:36:24  -860.816087c -6.44  -3.80    +70.1411
iter:  92 23:38:54  -860.815849c -6.44  -3.94    +70.1404
iter:  93 23:41:25  -860.816124c -6.87  -3.91    +70.1408
iter:  94 23:43:59  -860.816724c -6.56  -3.98    +70.1501
iter:  95 23:47:13  -860.816835c -6.03  -3.98    +70.1480
iter:  96 23:49:45  -860.817304c -6.22  -3.80    +70.1475
iter:  97 23:52:17  -860.816824c -6.19  -4.05c   +70.1540
iter:  98 23:54:48  -860.817697c -6.41  -3.97    +70.1573
iter:  99 23:57:19  -860.817399c -6.44  -4.09c   +70.1537
iter: 100 23:59:49  -860.817298c -6.80  -4.16c   +70.1521
iter: 101 00:02:20  -860.817788c -6.87  -4.29c   +70.1589
iter: 102 00:04:55  -860.817872c -6.94  -4.34c   +70.1635
iter: 103 00:08:09  -860.818404c -6.71  -4.40c   +70.1682
iter: 104 00:10:41  -860.818534c -6.98  -4.33c   +70.1699
iter: 105 00:13:13  -860.818744c -6.73  -4.51c   +70.1687
iter: 106 00:15:44  -860.818728c -7.59c -4.48c   +70.1695

Converged after 106 iterations.

Dipole moment: (6.083499, 30.277248, -7.293216) |e|*Ang

Total magnetic moment: (0.000000, 0.000000, 70.169524)
Local magnetic moments:
   0 Cr ( 0.000000,  0.000000,  0.132318)
   1 Al ( 0.000000,  0.000000, -0.043372)
   2 Cr ( 0.000000,  0.000000, -1.317440)
   3 Co ( 0.000000,  0.000000,  0.805175)
   4 Fe ( 0.000000,  0.000000,  2.004240)
   5 Cr ( 0.000000,  0.000000, -1.808074)
   6 Ni ( 0.000000,  0.000000,  0.099120)
   7 Fe ( 0.000000,  0.000000,  1.836471)
   8 Cr ( 0.000000,  0.000000, -1.001339)
   9 Co ( 0.000000,  0.000000,  1.136367)
  10 Ni ( 0.000000,  0.000000,  0.163445)
  11 Fe ( 0.000000,  0.000000,  1.986768)
  12 Co ( 0.000000,  0.000000,  1.389459)
  13 Co ( 0.000000,  0.000000,  0.569918)
  14 Fe ( 0.000000,  0.000000,  2.043149)
  15 Fe ( 0.000000,  0.000000,  2.088383)
  16 Fe ( 0.000000,  0.000000,  2.054407)
  17 Fe ( 0.000000,  0.000000,  1.696053)
  18 Cr ( 0.000000,  0.000000, -1.390806)
  19 Co ( 0.000000,  0.000000,  1.343390)
  20 Fe ( 0.000000,  0.000000,  2.326759)
  21 Ni ( 0.000000,  0.000000,  0.219911)
  22 Co ( 0.000000,  0.000000,  1.300510)
  23 Cr ( 0.000000,  0.000000, -1.065261)
  24 Cr ( 0.000000,  0.000000, -0.096159)
  25 Ni ( 0.000000,  0.000000,  0.183757)
  26 Fe ( 0.000000,  0.000000,  2.067899)
  27 Ni ( 0.000000,  0.000000,  0.225156)
  28 Co ( 0.000000,  0.000000,  1.264970)
  29 Co ( 0.000000,  0.000000,  1.395027)
  30 Co ( 0.000000,  0.000000,  1.043419)
  31 Cr ( 0.000000,  0.000000,  0.404688)
  32 Al ( 0.000000,  0.000000, -0.014642)
  33 Cr ( 0.000000,  0.000000, -1.301697)
  34 Cr ( 0.000000,  0.000000,  0.409893)
  35 Cr ( 0.000000,  0.000000,  0.563751)
  36 Fe ( 0.000000,  0.000000,  2.243035)
  37 Co ( 0.000000,  0.000000,  1.275382)
  38 Cr ( 0.000000,  0.000000, -0.922757)
  39 Fe ( 0.000000,  0.000000,  2.117230)
  40 Co ( 0.000000,  0.000000,  1.242107)
  41 Ni ( 0.000000,  0.000000,  0.077583)
  42 Ni ( 0.000000,  0.000000,  0.229544)
  43 Al ( 0.000000,  0.000000, -0.017856)
  44 Fe ( 0.000000,  0.000000,  2.008689)
  45 Co ( 0.000000,  0.000000,  1.064512)
  46 Fe ( 0.000000,  0.000000,  2.122468)
  47 Ni ( 0.000000,  0.000000,  0.545418)
  48 Fe ( 0.000000,  0.000000,  2.265901)
  49 Fe ( 0.000000,  0.000000,  2.003824)
  50 Ni ( 0.000000,  0.000000,  0.370289)
  51 Ni ( 0.000000,  0.000000,  0.395753)
  52 Cr ( 0.000000,  0.000000, -0.983310)
  53 Co ( 0.000000,  0.000000,  1.279812)
  54 Fe ( 0.000000,  0.000000,  2.245603)
  55 Cr ( 0.000000,  0.000000, -0.205722)
  56 Co ( 0.000000,  0.000000,  1.167891)
  57 Fe ( 0.000000,  0.000000,  2.227876)
  58 Ni ( 0.000000,  0.000000,  0.293504)
  59 Fe ( 0.000000,  0.000000,  2.205380)
[...]
  93 Ni ( 0.000000,  0.000000,  0.216764)
  94 Co ( 0.000000,  0.000000,  1.314841)
  95 Cr ( 0.000000,  0.000000, -2.017232)
  96 Fe ( 0.000000,  0.000000,  2.224144)
  97 Ni ( 0.000000,  0.000000,  0.227977)
  98 Ni ( 0.000000,  0.000000,  0.470136)
  99 Fe ( 0.000000,  0.000000,  2.001633)
 100 Ni ( 0.000000,  0.000000,  0.395698)
 101 Cr ( 0.000000,  0.000000, -1.048632)
 102 Cr ( 0.000000,  0.000000, -0.030039)
 103 Cr ( 0.000000,  0.000000, -0.212032)
 104 Co ( 0.000000,  0.000000,  0.915891)
 105 Fe ( 0.000000,  0.000000,  1.026526)
 106 Cr ( 0.000000,  0.000000, -0.210733)
 107 Ni ( 0.000000,  0.000000,  0.162524)

Energy contributions relative to reference atoms: (reference = -3699400.456887)

Kinetic:       +287.515173
Potential:     -309.806544
External:        +0.000000
XC:            -873.765875
Entropy (-ST):   -4.614793
Local:          +37.545914
Free energy:   -863.126125
Extrapolated:  -860.818728

Spin contamination: 23.244069 electrons
Showing only first 2 kpts
                      Up                     Down
 Kpt  Band  Eigenvalues  Occupancy  Eigenvalues  Occupancy
  0   508      9.61912    0.99625     10.58149    0.01727
  0   509      9.63713    0.99551     10.59054    0.01580
  0   510      9.65987    0.99438     10.60811    0.01329
  0   511      9.66954    0.99381     10.61354    0.01260

  1   508      9.63517    0.99560     10.57727    0.01800
  1   509      9.63690    0.99552     10.59012    0.01587
  1   510      9.65695    0.99454     10.59751    0.01475
  1   511      9.66050    0.99434     10.61519    0.01239

Fermi level: 10.17737

No gap

Forces in eV/Ang:
  0 Cr    0.55421   -0.43325   -0.59995
  1 Al   -1.29550    0.14877    0.61706
  2 Cr    1.21132   -0.40741   -0.32988
  3 Co    0.10314   -0.25194   -1.05853
  4 Fe   -0.14617    0.95528    0.25270
  5 Cr   -1.55671   -0.02413   -0.26078
  6 Ni   -0.49867    0.28194    0.55714
  7 Fe   -0.42340   -1.16966    0.01602
  8 Cr    0.90335    0.15819   -0.53922
  9 Co   -0.26481    0.04648    0.13796
 10 Ni   -0.35286    1.65479    0.63189
 11 Fe   -0.18967   -0.80170   -0.35886
 12 Co    0.50706   -0.06671   -0.64329
 13 Co    0.38343   -0.92175   -0.51005
 14 Fe    1.48731   -0.12640    0.73381
 15 Fe   -0.56162   -0.52514   -0.83059
 16 Fe    0.50424    0.33976   -0.39958
 17 Fe   -0.68719    0.07603   -0.58435
 18 Cr    0.10527    0.32326    0.27446
 19 Co   -0.46670   -0.18533    1.14791
 20 Fe   -0.63653    1.20896    0.51294
 21 Ni   -0.85596   -0.62468   -0.76820
 22 Co   -0.49193    0.76174   -0.30143
 23 Cr   -0.10448   -0.62235   -0.26908
 24 Cr   -0.20859   -0.00220   -0.31896
 25 Ni    0.87789   -0.01638    1.15685
 26 Fe   -0.20376    0.01659    1.74129
 27 Ni    0.87768    0.25003    0.49863
 28 Co    0.65061    0.71910    0.33228
 29 Co   -0.51418    1.99251   -0.35003
 30 Co   -0.31433   -0.08921   -0.43528
 31 Cr   -0.24148    0.75150    0.44274
 32 Al    1.54715    0.13747    0.89857
 33 Cr    0.99275   -0.99949   -0.02317
 34 Cr   -1.53036    0.15444   -0.10723
 35 Cr   -0.45259   -0.03352   -0.75420
 36 Fe   -0.33079    0.61486   -0.13843
 37 Co   -0.24039   -0.25526    0.31839
 38 Cr    0.00910   -0.26486   -0.38815
 39 Fe    1.49889    0.60365    1.02188
 40 Co    1.08704    0.57239   -0.38701
 41 Ni    0.09899    0.43494   -0.21948
 42 Ni    0.15604    0.03814   -0.37494
 43 Al   -0.78261    0.15889    0.04015
 44 Fe   -0.42259    0.98195    0.15168
 45 Co    0.21101   -0.01872   -0.36924
 46 Fe    0.04106    1.91978    1.23324
 47 Ni   -0.12354   -0.96811   -0.12577
 48 Fe   -0.72469   -1.00310    0.08319
 49 Fe   -0.08579    0.16329    0.01468
 50 Ni    0.02574   -0.97923   -0.08287
 51 Ni    0.68190   -1.65736   -0.83139
 52 Cr   -0.12721   -1.16215   -0.55260
 53 Co   -0.46248   -0.60110    0.08456
 54 Fe   -0.39098   -1.09642   -1.02681
 55 Cr    0.29233   -0.58443    0.28036
 56 Co    0.49542   -0.08452    0.04078
 57 Fe    0.25944    0.36944    0.32133
 58 Ni   -0.12176   -1.00354    0.26029
 59 Fe   -0.68903    0.24468   -1.42611
[...]
 93 Ni    1.53865    0.07433    1.66788
 94 Co    0.34208    0.56814   -1.59553
 95 Cr    0.03599    0.33260    1.40358
 96 Fe   -1.61827   -0.34850   -0.15219
 97 Ni    0.32279   -0.26930   -0.37068
 98 Ni   -0.67868    0.88341    1.75198
 99 Fe   -0.15951    1.59680   -0.42872
100 Ni   -0.20396    1.03071    0.09773
101 Cr   -0.31791    0.54506   -0.38480
102 Cr   -0.22722   -0.17257   -0.67923
103 Cr   -0.56029    0.11874   -0.07637
104 Co   -0.62490   -0.00660    0.41363
105 Fe    0.58151    0.05793   -0.53493
106 Cr   -0.21214   -0.42101   -0.39217
107 Ni    1.09182    0.21400    0.09423

Date: Fri Apr 14 00:16:08 2023