User:   c.zeng@d0137
Date:   Fri Apr 14 17:43:50 2023
Arch:   x86_64
Pid:    127131
CWD:    /home/c.zeng/projects/hea-corrosion/hea-mlp/data-curation/bulk-mcmc/dft-jobs/154
Python: 3.8.1
gpaw:   /home/c.zeng/usr/installs/gpaw/source/gpaw-22.8.0/gpaw
_gpaw:  /home/c.zeng/usr/installs/gpaw/source/gpaw-22.8.0/
        _gpaw.cpython-38-x86_64-linux-gnu.so
ase:    /home/c.zeng/.local/lib/python3.8/site-packages/ase-3.22.1-py3.8.egg/ase (version 3.22.1)
numpy:  /shared/centos7/python/3.8.1/lib/python3.8/site-packages/numpy (version 1.17.4)
scipy:  /shared/centos7/python/3.8.1/lib/python3.8/site-packages/scipy (version 1.4.1)
units:  Angstrom and eV
cores: 30
OpenMP: False
OMP_NUM_THREADS: 1

Input parameters:
  convergence: {energy: 0.0001}
  kpts: [2 2 2]
  maxiter: 666
  mode: {ecut: 350.0,
         name: pw}
  occupations: {fixmagmom: False,
                name: fermi-dirac,
                width: 0.1}
  spinpol: True
  xc: PBE

System changes: positions, numbers, cell, pbc, initial_charges, initial_magmoms

Initialize ...

species:
  Fe:
    name: Iron
    id: 37abbd8d6c3c35915a9b583b742da910
    Z: 26.0
    valence: 8
    core: 18
    charge: 0.0
    file: /home/c.zeng/usr/data/gpaw-setups-0.9.20000/Fe.PBE.gz
    compensation charges: {type: gauss,
                           rc: 0.33,
                           lmax: 2}
    cutoffs: {filter: 2.06,
              core: 2.67}
    valence states:
      #              energy  rcut
      - 4s(2.00)    -5.291   1.164
      - 4p(0.00)    -1.326   1.058
      - 3d(6.00)    -7.505   1.058
      -  s          21.920   1.164
      -  p          25.885   1.058
      -  d          19.706   1.058

    # Using partial waves for Fe as LCAO basis

  Al:
    name: Aluminium
    id: 0292cae29f5d6237e50f6abdd43a7bdd
    Z: 13.0
    valence: 3
    core: 10
    charge: 0.0
    file: /home/c.zeng/usr/data/gpaw-setups-0.9.20000/Al.PBE.gz
    compensation charges: {type: gauss,
                           rc: 0.34,
                           lmax: 2}
    cutoffs: {filter: 1.91,
              core: 2.36}
    valence states:
      #              energy  rcut
      - 3s(2.00)    -7.753   1.085
      - 3p(1.00)    -2.712   1.085
      -  s          19.459   1.085
      -  p          24.499   1.085
      -  d           0.000   1.085

[...]

  Co:
    name: Cobalt
    id: 339d20d5b0b93d2de9531a1bee871d91
    Z: 27.0
    valence: 9
    core: 18
    charge: 0.0
    file: /home/c.zeng/usr/data/gpaw-setups-0.9.20000/Co.PBE.gz
    compensation charges: {type: gauss,
                           rc: 0.32,
                           lmax: 2}
    cutoffs: {filter: 1.87,
              core: 2.55}
    valence states:
      #              energy  rcut
      - 4s(2.00)    -5.469   1.005
      - 4p(0.00)    -1.277   1.058
      - 3d(7.00)    -8.205   1.005
      -  s          21.742   1.005
      -  p          25.934   1.058
      -  d          19.007   1.005

[...]

  Cr:
    name: Chromium
    id: 33f258bda2ca9f93018e70263a35547b
    Z: 24.0
    valence: 6
    core: 18
    charge: 0.0
    file: /home/c.zeng/usr/data/gpaw-setups-0.9.20000/Cr.PBE.gz
    compensation charges: {type: gauss,
                           rc: 0.35,
                           lmax: 2}
    cutoffs: {filter: 2.14,
              core: 3.04}
    valence states:
      #              energy  rcut
      - 4s(1.00)    -4.007   1.164
      - 4p(0.00)    -0.989   1.217
      - 3d(5.00)    -2.913   1.111
      -  s          23.205   1.164
      -  p          26.223   1.217
      -  d          24.299   1.111

[...]

  Ni:
    name: Nickel
    id: 0d9f38a9d6e76a2886f07bb4381f212b
    Z: 28.0
    valence: 16
    core: 12
    charge: 0.0
    file: /home/c.zeng/usr/data/gpaw-setups-0.9.20000/Ni.PBE.gz
    compensation charges: {type: gauss,
                           rc: 0.36,
                           lmax: 2}
    cutoffs: {filter: 2.14,
              core: 1.98}
    valence states:
      #              energy  rcut
      - 4s(2.00)    -5.642   1.164
      - 3p(6.00)   -71.394   1.207
      - 4p(0.00)    -1.226   1.207
      - 3d(8.00)    -8.875   1.138
      -  s          21.570   1.164
      -  d          18.337   1.138

    # Using partial waves for Ni as LCAO basis

Reference energy: -3382523.201499  # eV

Spin-polarized calculation.
Magnetic moment: 128.800000

Convergence criteria:
 Maximum [total energy] change in last 3 cyles: 0.0001 eV / electron
 Maximum integral of absolute [dens]ity change: 0.0001 electrons / valence electron
 Maximum integral of absolute [eigenst]ate change: 4e-08 eV^2 / valence electron
 Maximum number of scf [iter]ations: 666
 (Square brackets indicate name in SCF output, whereas a 'c' in
 the SCF output indicates the quantity has converged.)

Symmetries present (total): 1

  ( 1  0  0)
  ( 0  1  0)
  ( 0  0  1)

8 k-points: 2 x 2 x 2 Monkhorst-Pack grid
4 k-points in the irreducible part of the Brillouin zone
       k-points in crystal coordinates                weights
   0:     0.25000000   -0.25000000   -0.25000000          2/8
   1:     0.25000000   -0.25000000    0.25000000          2/8
   2:     0.25000000    0.25000000   -0.25000000          2/8
   3:     0.25000000    0.25000000    0.25000000          2/8

Wave functions: Plane wave expansion
  Cutoff energy: 350.000 eV
  Number of coefficients (min, max): 18865, 18865
  Pulay-stress correction: 0.000000 eV/Ang^3 (de/decut=0.000000)
  Using FFTW library
  ScaLapack parameters: grid=1x1, blocksize=None
  Wavefunction extrapolation:
    Improved wavefunction reuse through dual PAW basis

Occupation numbers: Fermi-Dirac:
  width: 0.1000  # eV

Eigensolver
   Davidson(niter=2)

Densities:
  Coarse grid: 48*48*48 grid
  Fine grid: 96*96*96 grid
  Total Charge: 0.000000

Density mixing:
  Method: difference
  Backend: pulay
  Linear mixing parameter: 0.05
  old densities: 5
  Damping of long wavelength oscillations: 50

Hamiltonian:
  XC and Coulomb potentials evaluated on a 96*96*96 grid
  Using the PBE Exchange-Correlation functional
  External potential:
    NoExternalPotential

XC parameters: PBE with 2 nearest neighbor stencil

Total number of cores used: 30
Parallelization over k-points: 2
Domain decomposition: 5 x 3 x 1

Number of atoms: 108
Number of atomic orbitals: 961
Number of bands in calculation: 649
Number of valence electrons: 945
Bands to converge: occupied

... initialized

Initializing position-dependent things.

Density initialized from atomic densities
Creating initial wave functions:
  649 bands from LCAO basis set

       /|                     Co   |
      / |            Fe Fe     CrFe|
     /  |       Cr       Ni       Cr
    /   |Co       Col     FCor     |
   /i   | Coo        Co      Co    |
  /  CrAl   NCr       Ni           |
 *      Ni     CoFe   AlCoCrFe   Cr|
 |      |FeNi   CrNiAl   NiAlNi   Fe
 | CrFe | AlNi   AlAlFe     Ni     |
 |     Co  FeCr Cr  Fe CoNi  CrNi  |
 |      CoNi   AlCr   CoCoCoNi  Fe |
 |Al    |FeCr   AlCrCo   CrCo     Co
 |      .-CrCo-----NiCr-FeFeCrNi---.
 |     /   Ni Fe    Cr FeNi    Al /
 |    Fe       AFei       Al     /
 |   /  Co         Al       Cr  /
 |  /      Fe       Al       Fe/
 | / Fe     Co       Ni Ni    /
 |/             Cr       Ni  /
 *--------Co----------------*

Positions:
   0 Fe    10.764147   10.861293   10.805330    ( 0.0000,  0.0000,  2.0000)
   1 Fe    10.786221    1.792513    1.813624    ( 0.0000,  0.0000,  0.0000)
   2 Fe     1.744156    0.036560    1.851269    ( 0.0000,  0.0000,  1.5000)
   3 Al     1.736571    1.831142   10.798805    ( 0.0000,  0.0000,  0.0000)
   4 Co     3.575126    0.057318    0.061759    ( 0.0000,  0.0000,  0.0000)
   5 Fe     3.594289    1.817617    1.845577    ( 0.0000,  0.0000,  2.0000)
   6 Co     5.429813   10.817005    1.865054    ( 0.0000,  0.0000,  1.5000)
   7 Cr     5.429608    1.929425    0.057134    ( 0.0000,  0.0000,  0.0000)
   8 Fe     7.316909   10.723332    0.087382    ( 0.0000,  0.0000,  0.0000)
   9 Al     7.263142    1.825786    1.869404    ( 0.0000,  0.0000,  2.1000)
  10 Ni     9.063554    0.025226    1.863474    ( 0.0000,  0.0000,  1.5000)
  11 Ni     9.049217    1.829703    0.033106    ( 0.0000,  0.0000,  2.1000)
  12 Ni     0.004792    3.558981   10.794801    ( 0.0000,  0.0000,  1.5000)
  13 Al    10.759710    5.390697    1.778165    ( 0.0000,  0.0000,  0.0000)
  14 Co     1.733585    3.561849    1.761112    ( 0.0000,  0.0000,  2.0000)
  15 Co     1.776899    5.391834   10.795505    ( 0.0000,  0.0000,  0.0000)
  16 Co     3.565452    3.619360   10.832619    ( 0.0000,  0.0000,  2.1000)
  17 Fe     3.633221    5.394614    1.719551    ( 0.0000,  0.0000,  0.0000)
  18 Ni     5.471624    3.659114    1.836033    ( 0.0000,  0.0000,  2.1000)
  19 Co     5.440212    5.373060   -0.002773    ( 0.0000,  0.0000,  2.0000)
  20 Ni     7.258997    3.609080    0.031294    ( 0.0000,  0.0000,  0.0000)
  21 Fe     7.268941    5.378362    1.785274    ( 0.0000,  0.0000,  2.0000)
  22 Al     9.030724    3.577636    1.833728    ( 0.0000,  0.0000,  2.1000)
  23 Co     9.040420    5.372281   10.801110    ( 0.0000,  0.0000,  0.0000)
  24 Fe    10.791663    7.196206   10.792486    ( 0.0000,  0.0000,  1.5000)
  25 Co    10.758434    9.040387    1.848239    ( 0.0000,  0.0000,  0.0000)
  26 Cr     1.690487    7.202493    1.786032    ( 0.0000,  0.0000,  0.0000)
  27 Ni     1.652691    8.981047    0.027217    ( 0.0000,  0.0000,  0.0000)
  28 Al     3.631241    7.164437    0.034633    ( 0.0000,  0.0000,  0.0000)
  29 Al     3.625452    9.063759    1.801678    ( 0.0000,  0.0000,  0.0000)
  30 Ni     5.490852    7.187095    1.746342    ( 0.0000,  0.0000,  2.0000)
  31 Cr     5.426935    8.989152    0.009861    ( 0.0000,  0.0000,  2.0000)
  32 Fe     7.229122    7.237075   -0.008698    ( 0.0000,  0.0000,  1.5000)
  33 Cr     7.249194    8.995850    1.810713    ( 0.0000,  0.0000,  0.0000)
  34 Cr     9.052073    7.204300    1.764218    ( 0.0000,  0.0000,  2.1000)
  35 Co     9.092553    8.989639   10.808760    ( 0.0000,  0.0000,  1.5000)
  36 Cr    -0.000975   10.826235    3.639789    ( 0.0000,  0.0000,  1.5000)
  37 Al    10.822772    1.771770    5.422044    ( 0.0000,  0.0000,  2.1000)
  38 Ni     1.754263   10.802084    5.428872    ( 0.0000,  0.0000,  2.1000)
  39 Fe     1.741873    1.774270    3.610801    ( 0.0000,  0.0000,  0.0000)
  40 Al     3.591183   10.794152    3.612143    ( 0.0000,  0.0000,  2.0000)
  41 Cr     3.593088    1.736744    5.455177    ( 0.0000,  0.0000,  0.0000)
  42 Al     5.437150   10.794563    5.400804    ( 0.0000,  0.0000,  2.0000)
  43 Fe     5.451931    1.783251    3.601387    ( 0.0000,  0.0000,  1.5000)
  44 Al     7.226222    0.007781    3.626209    ( 0.0000,  0.0000,  0.0000)
  45 Co     7.236069    1.766512    5.381392    ( 0.0000,  0.0000,  2.1000)
  46 Fe     9.034587   10.848850    5.403844    ( 0.0000,  0.0000,  2.1000)
  47 Ni     9.031558    1.804946    3.616730    ( 0.0000,  0.0000,  1.5000)
  48 Ni    10.773885    3.543973    3.617867    ( 0.0000,  0.0000,  1.5000)
  49 Ni    10.772186    5.358409    5.454917    ( 0.0000,  0.0000,  0.0000)
  50 Co     1.757531    3.575678    5.428937    ( 0.0000,  0.0000,  2.1000)
  51 Fe     1.621766    5.386986    3.572550    ( 0.0000,  0.0000,  0.0000)
  52 Co     3.634303    3.633188    3.540792    ( 0.0000,  0.0000,  0.0000)
  53 Cr     3.550606    5.397969    5.404753    ( 0.0000,  0.0000,  2.0000)
  54 Cr     5.402221    3.610887    5.370193    ( 0.0000,  0.0000,  2.0000)
  55 Cr     5.460241    5.433590    3.575613    ( 0.0000,  0.0000,  2.0000)
  56 Cr     7.250157    3.615183    3.623169    ( 0.0000,  0.0000,  1.5000)
  57 Co     7.248707    5.410715    5.362099    ( 0.0000,  0.0000,  1.5000)
  58 Co     9.058230    3.565236    5.380082    ( 0.0000,  0.0000,  2.1000)
  59 Co     9.074071    5.365323    3.589008    ( 0.0000,  0.0000,  2.1000)
[...]
  93 Ni     7.211073    5.388295    9.040181    ( 0.0000,  0.0000,  0.0000)
  94 Cr     9.095052    3.598119    8.980636    ( 0.0000,  0.0000,  2.0000)
  95 Al     9.078205    5.402416    7.227759    ( 0.0000,  0.0000,  0.0000)
  96 Cr    10.763411    7.244682    7.260285    ( 0.0000,  0.0000,  1.5000)
  97 Cr    10.795093    9.034566    8.977574    ( 0.0000,  0.0000,  2.0000)
  98 Co     1.740045    7.178947    8.984662    ( 0.0000,  0.0000,  2.1000)
  99 Co     1.734429    9.080207    7.236696    ( 0.0000,  0.0000,  1.5000)
 100 Co     3.580482    7.154277    7.248285    ( 0.0000,  0.0000,  0.0000)
 101 Cr     3.612835    8.970898    8.958086    ( 0.0000,  0.0000,  0.0000)
 102 Al     5.410943    7.155878    9.067049    ( 0.0000,  0.0000,  0.0000)
 103 Co     5.466441    9.064062    7.220963    ( 0.0000,  0.0000,  2.1000)
 104 Co     7.307203    7.271549    7.289738    ( 0.0000,  0.0000,  0.0000)
 105 Ni     7.271073    9.044683    9.027879    ( 0.0000,  0.0000,  1.5000)
 106 Cr     9.081743    7.219805    9.041166    ( 0.0000,  0.0000,  2.1000)
 107 Co     9.063684    9.083009    7.213865    ( 0.0000,  0.0000,  2.0000)

Unit cell:
           periodic     x           y           z      points  spacing
  1. axis:    yes   10.820500    0.000000    0.000000    48     0.2254
  2. axis:    yes    0.000000   10.820500    0.000000    48     0.2254
  3. axis:    yes    0.000000    0.000000   10.820500    48     0.2254

  Lengths:  10.820500  10.820500  10.820500
  Angles:   90.000000  90.000000  90.000000

Effective grid spacing dv^(1/3) = 0.2254

     iter     time        total  log10-change:  magmom
                         energy  eigst   dens
iter:   1 17:47:08  -895.065108                  +128.4417
iter:   2 17:48:33  -859.711838  -0.41  -1.31    +96.1013
iter:   3 17:49:57  -844.077533  -0.95  -1.30    +68.0808
iter:   4 17:51:21  -832.668501  -1.27  -1.37    +57.9947
iter:   5 17:52:45  -826.445120  -1.85  -1.40    +53.4446
iter:   6 17:54:09  -827.997106  -1.93  -1.47    +51.1192
iter:   7 17:55:33  -827.116199  -1.65  -1.49    +49.7932
iter:   8 17:56:58  -825.745250  -1.74  -1.54    +49.4285
iter:   9 17:58:23  -828.641071  -1.82  -1.64    +49.6866
iter:  10 17:59:46  -823.354111  -1.96  -1.65    +49.3074
iter:  11 18:01:10  -824.985448  -2.21  -1.80    +49.8075
iter:  12 18:02:35  -823.243999  -2.35  -1.79    +50.6965
iter:  13 18:03:59  -823.649404  -2.52  -1.86    +51.6108
iter:  14 18:05:24  -823.419915  -2.54  -1.89    +52.5687
iter:  15 18:06:47  -824.698387  -2.51  -1.94    +53.4735
iter:  16 18:08:11  -823.994882  -2.50  -1.92    +54.8124
iter:  17 18:09:33  -825.103504  -2.61  -1.99    +55.5488
iter:  18 18:10:56  -824.473782  -2.61  -1.97    +55.9335
iter:  19 18:12:19  -824.635079  -2.73  -2.06    +56.8279
iter:  20 18:13:43  -824.188625  -2.92  -2.07    +57.5597
iter:  21 18:15:06  -824.376588  -3.15  -2.14    +58.2966
iter:  22 18:16:29  -824.704865  -3.10  -2.18    +58.6979
iter:  23 18:17:52  -824.685292  -3.26  -2.15    +59.1673
iter:  24 18:19:16  -824.876571  -3.18  -2.20    +59.7398
iter:  25 18:20:39  -825.252642  -3.09  -2.22    +59.9549
iter:  26 18:22:02  -825.228953  -2.97  -2.21    +59.9894
iter:  27 18:23:25  -825.307158c -3.09  -2.28    +60.1054
iter:  28 18:24:48  -825.471551  -3.03  -2.27    +60.5071
iter:  29 18:26:12  -825.372914  -3.09  -2.31    +60.2289
iter:  30 18:27:35  -825.164540  -3.53  -2.32    +60.2219
iter:  31 18:28:59  -825.206880  -3.66  -2.44    +60.3191
iter:  32 18:30:22  -825.205446c -3.88  -2.44    +60.4246
iter:  33 18:31:45  -825.241580c -3.85  -2.48    +60.3522
iter:  34 18:33:07  -825.278319c -4.05  -2.49    +60.2859
iter:  35 18:34:31  -825.567202  -3.38  -2.54    +60.2570
iter:  36 18:35:54  -825.353808  -3.56  -2.41    +60.1731
iter:  37 18:37:16  -825.448256  -3.55  -2.61    +59.9776
iter:  38 18:38:40  -825.406598c -3.64  -2.65    +59.8128
iter:  39 18:40:03  -825.445924c -3.61  -2.70    +59.7225
iter:  40 18:41:26  -825.345894  -4.03  -2.67    +59.7748
iter:  41 18:42:49  -825.361247  -4.25  -2.90    +59.5755
iter:  42 18:44:12  -825.344181c -4.66  -2.92    +59.5223
iter:  43 18:45:36  -825.352469c -5.06  -3.02    +59.4230
iter:  44 18:46:59  -825.377645c -4.53  -3.05    +59.2147
iter:  45 18:48:22  -825.373330c -4.89  -3.03    +59.2040
iter:  46 18:49:45  -825.381232c -4.83  -3.20    +59.0724
iter:  47 18:51:09  -825.389084c -4.78  -3.29    +59.0191
iter:  48 18:52:32  -825.387936c -5.04  -3.27    +58.9734
iter:  49 18:53:56  -825.393168c -5.17  -3.57    +58.9012
iter:  50 18:55:18  -825.397468c -5.33  -3.59    +58.8458
iter:  51 18:56:41  -825.403194c -5.30  -3.57    +58.7841
iter:  52 18:58:05  -825.409405c -5.34  -3.59    +58.7211
iter:  53 18:59:27  -825.406565c -6.22  -3.50    +58.7410
iter:  54 19:00:50  -825.423480c -4.63  -3.54    +58.6110
iter:  55 19:02:13  -825.438654c -4.40  -3.48    +58.4796
iter:  56 19:03:37  -825.449270c -4.55  -3.41    +58.4011
iter:  57 19:05:00  -825.468249c -4.06  -3.32    +58.3096
iter:  58 19:06:24  -825.469906c -5.04  -3.16    +58.3690
iter:  59 19:07:47  -825.469987c -5.16  -3.14    +58.3819
iter:  60 19:09:10  -825.466675c -5.33  -3.15    +58.4372
iter:  61 19:10:33  -825.467836c -5.18  -3.21    +58.4667
iter:  62 19:11:57  -825.464087c -4.51  -3.20    +58.4744
iter:  63 19:13:20  -825.460355c -5.06  -3.18    +58.4395
iter:  64 19:14:44  -825.459614c -5.25  -3.31    +58.4115
iter:  65 19:16:07  -825.459744c -5.49  -3.34    +58.4084
iter:  66 19:17:30  -825.459203c -5.41  -3.38    +58.3978
iter:  67 19:18:53  -825.459897c -5.54  -3.46    +58.3935
iter:  68 19:20:16  -825.459749c -5.50  -3.50    +58.4030
iter:  69 19:21:38  -825.459567c -5.52  -3.57    +58.4185
iter:  70 19:23:00  -825.459002c -5.75  -3.59    +58.4092
iter:  71 19:24:23  -825.458881c -5.83  -3.76    +58.4199
iter:  72 19:25:45  -825.458869c -6.27  -3.72    +58.4271
iter:  73 19:27:08  -825.458797c -6.33  -3.86    +58.4398
iter:  74 19:28:31  -825.459188c -6.37  -3.91    +58.4460
iter:  75 19:29:55  -825.459039c -6.46  -3.94    +58.4594
iter:  76 19:31:18  -825.459219c -6.58  -4.02c   +58.4679
iter:  77 19:32:41  -825.459390c -6.65  -4.03c   +58.4721
iter:  78 19:34:04  -825.459446c -6.65  -4.06c   +58.4858
iter:  79 19:35:26  -825.459708c -6.63  -4.11c   +58.4955
iter:  80 19:36:49  -825.459772c -6.60  -4.14c   +58.5027
iter:  81 19:38:13  -825.459950c -6.83  -4.16c   +58.5093
iter:  82 19:39:36  -825.460162c -6.67  -4.21c   +58.5172
iter:  83 19:40:58  -825.460263c -6.76  -4.20c   +58.5226
iter:  84 19:42:21  -825.460409c -6.80  -4.25c   +58.5299
iter:  85 19:43:44  -825.460659c -6.73  -4.28c   +58.5387
iter:  86 19:45:06  -825.460870c -6.62  -4.30c   +58.5491
iter:  87 19:46:29  -825.461294c -6.34  -4.32c   +58.5624
iter:  88 19:47:51  -825.461641c -6.33  -4.31c   +58.5795
iter:  89 19:49:14  -825.462865c -5.40  -4.25c   +58.6436
iter:  90 19:50:36  -825.462790c -6.52  -4.07c   +58.6397
iter:  91 19:51:59  -825.462936c -6.69  -4.09c   +58.6495
iter:  92 19:53:22  -825.463077c -6.81  -4.08c   +58.6575
iter:  93 19:54:45  -825.462839c -7.10  -4.06c   +58.6484
iter:  94 19:56:09  -825.463608c -6.13  -4.05c   +58.6649
iter:  95 19:57:32  -825.462954c -6.75  -3.91    +58.6563
iter:  96 19:58:54  -825.463189c -6.94  -4.08c   +58.6580
iter:  97 20:00:18  -825.463607c -6.46  -4.08c   +58.6601
iter:  98 20:01:40  -825.463271c -7.04  -3.98    +58.6614
iter:  99 20:03:03  -825.463359c -7.11  -4.16c   +58.6625
iter: 100 20:04:26  -825.463311c -7.10  -4.14c   +58.6654
iter: 101 20:05:48  -825.463519c -6.96  -4.15c   +58.6683
iter: 102 20:07:11  -825.463319c -6.56  -4.18c   +58.6702
iter: 103 20:08:33  -825.463478c -6.84  -4.18c   +58.6714
iter: 104 20:09:56  -825.463534c -7.05  -4.22c   +58.6749
iter: 105 20:11:19  -825.463514c -7.06  -4.29c   +58.6783
iter: 106 20:12:43  -825.463517c -7.31  -4.28c   +58.6786
iter: 107 20:14:07  -825.463467c -7.23  -4.36c   +58.6823
iter: 108 20:15:30  -825.463630c -7.49c -4.32c   +58.6834

Converged after 108 iterations.

Dipole moment: (27.993821, -3.661404, -10.237120) |e|*Ang

Total magnetic moment: (0.000000, 0.000000, 58.683414)
Local magnetic moments:
   0 Fe ( 0.000000,  0.000000,  2.164736)
   1 Fe ( 0.000000,  0.000000,  2.363391)
   2 Fe ( 0.000000,  0.000000,  2.255645)
   3 Al ( 0.000000,  0.000000, -0.048640)
   4 Co ( 0.000000,  0.000000,  1.327708)
   5 Fe ( 0.000000,  0.000000,  2.454542)
   6 Co ( 0.000000,  0.000000,  0.948419)
   7 Cr ( 0.000000,  0.000000, -2.444966)
   8 Fe ( 0.000000,  0.000000,  2.232917)
   9 Al ( 0.000000,  0.000000, -0.007871)
  10 Ni ( 0.000000,  0.000000,  0.205360)
  11 Ni ( 0.000000,  0.000000,  0.152051)
  12 Ni ( 0.000000,  0.000000,  0.197531)
  13 Al ( 0.000000,  0.000000, -0.024734)
  14 Co ( 0.000000,  0.000000,  1.211524)
  15 Co ( 0.000000,  0.000000,  0.691989)
  16 Co ( 0.000000,  0.000000,  1.190448)
  17 Fe ( 0.000000,  0.000000,  2.291909)
  18 Ni ( 0.000000,  0.000000,  0.260314)
  19 Co ( 0.000000,  0.000000,  1.236856)
  20 Ni ( 0.000000,  0.000000,  0.076152)
  21 Fe ( 0.000000,  0.000000,  2.252705)
  22 Al ( 0.000000,  0.000000, -0.022256)
  23 Co ( 0.000000,  0.000000,  0.645332)
  24 Fe ( 0.000000,  0.000000,  1.742609)
  25 Co ( 0.000000,  0.000000,  0.920969)
  26 Cr ( 0.000000,  0.000000, -1.925081)
  27 Ni ( 0.000000,  0.000000,  0.121016)
  28 Al ( 0.000000,  0.000000, -0.007788)
  29 Al ( 0.000000,  0.000000, -0.019387)
  30 Ni ( 0.000000,  0.000000,  0.313564)
  31 Cr ( 0.000000,  0.000000,  1.541406)
  32 Fe ( 0.000000,  0.000000,  2.086590)
  33 Cr ( 0.000000,  0.000000, -1.433735)
  34 Cr ( 0.000000,  0.000000, -1.706248)
  35 Co ( 0.000000,  0.000000,  0.840592)
  36 Cr ( 0.000000,  0.000000, -1.476583)
  37 Al ( 0.000000,  0.000000, -0.024206)
  38 Ni ( 0.000000,  0.000000,  0.109043)
  39 Fe ( 0.000000,  0.000000,  2.185379)
  40 Al ( 0.000000,  0.000000, -0.039506)
  41 Cr ( 0.000000,  0.000000, -1.398649)
  42 Al ( 0.000000,  0.000000, -0.024255)
  43 Fe ( 0.000000,  0.000000,  1.892294)
  44 Al ( 0.000000,  0.000000, -0.024890)
  45 Co ( 0.000000,  0.000000,  0.882283)
  46 Fe ( 0.000000,  0.000000,  2.007190)
  47 Ni ( 0.000000,  0.000000,  0.181533)
  48 Ni ( 0.000000,  0.000000,  0.332151)
  49 Ni ( 0.000000,  0.000000,  0.218525)
  50 Co ( 0.000000,  0.000000,  1.005552)
  51 Fe ( 0.000000,  0.000000,  2.310945)
  52 Co ( 0.000000,  0.000000,  1.210194)
  53 Cr ( 0.000000,  0.000000,  0.954382)
  54 Cr ( 0.000000,  0.000000, -0.291877)
  55 Cr ( 0.000000,  0.000000,  0.781616)
  56 Cr ( 0.000000,  0.000000, -1.182275)
  57 Co ( 0.000000,  0.000000,  1.286932)
  58 Co ( 0.000000,  0.000000,  1.196563)
  59 Co ( 0.000000,  0.000000,  1.102262)
[...]
  93 Ni ( 0.000000,  0.000000,  0.287466)
  94 Cr ( 0.000000,  0.000000,  1.164327)
  95 Al ( 0.000000,  0.000000, -0.016855)
  96 Cr ( 0.000000,  0.000000,  1.052258)
  97 Cr ( 0.000000,  0.000000, -0.710219)
  98 Co ( 0.000000,  0.000000,  0.591093)
  99 Co ( 0.000000,  0.000000,  0.787869)
 100 Co ( 0.000000,  0.000000,  0.423574)
 101 Cr ( 0.000000,  0.000000, -2.182462)
 102 Al ( 0.000000,  0.000000, -0.017277)
 103 Co ( 0.000000,  0.000000,  1.099574)
 104 Co ( 0.000000,  0.000000,  1.425557)
 105 Ni ( 0.000000,  0.000000,  0.239140)
 106 Cr ( 0.000000,  0.000000, -1.104584)
 107 Co ( 0.000000,  0.000000,  0.975931)

Energy contributions relative to reference atoms: (reference = -3382523.201499)

Kinetic:       +199.631864
Potential:     -212.244108
External:        +0.000000
XC:            -844.090420
Entropy (-ST):   -4.274411
Local:          +33.376239
Free energy:   -827.600835
Extrapolated:  -825.463630

Spin contamination: 27.149601 electrons
Showing only first 2 kpts
                      Up                     Down
 Kpt  Band  Eigenvalues  Occupancy  Eigenvalues  Occupancy
  0   470      9.15432    0.99460     10.03721    0.02626
  0   471      9.18061    0.99299     10.04834    0.02356
  0   472      9.19437    0.99196     10.05840    0.02135
  0   473      9.19693    0.99175     10.06917    0.01921

  1   470      9.16254    0.99414     10.03985    0.02559
  1   471      9.17485    0.99338     10.05328    0.02245
  1   472      9.19074    0.99224     10.07094    0.01888
  1   473      9.20206    0.99132     10.07755    0.01769

Fermi level: 9.67589

No gap

Forces in eV/Ang:
  0 Fe   -0.11385   -0.87866    0.18239
  1 Fe    0.35269   -0.08670    0.21682
  2 Fe   -0.00182   -0.36611   -0.74778
  3 Al    0.55223    0.07510   -0.17627
  4 Co    0.18803   -0.22744   -0.47722
  5 Fe    0.18640    0.69691   -0.37454
  6 Co    0.24327    0.23570   -0.59321
  7 Cr   -1.09478   -1.01973   -0.80592
  8 Fe   -0.45574    0.37969   -0.45438
  9 Al   -0.31191   -0.56326   -1.26601
 10 Ni   -0.18489   -0.25834   -0.38269
 11 Ni   -0.23300   -0.26530   -0.40431
 12 Ni   -0.25331    0.58522    0.03499
 13 Al    0.70566   -0.55841   -0.45422
 14 Co    0.57474    0.28114    0.56015
 15 Co   -0.13893   -0.11910   -0.06375
 16 Co    0.35421    0.20963    0.17804
 17 Fe   -0.43966   -0.94416    0.56962
 18 Ni   -0.47895   -0.18547   -0.05289
 19 Co    0.05982   -0.19301    0.18316
 20 Ni   -0.11565   -0.01536   -0.41988
 21 Fe   -0.00528    0.51604    0.06136
 22 Al    0.40283    0.18338   -0.61697
 23 Co   -0.28741    0.46296   -0.48821
 24 Fe    0.29453    0.13537   -0.17220
 25 Co    0.21359   -0.01964   -0.22746
 26 Cr   -0.66123    0.10940    0.10709
 27 Ni    0.79317    0.51020   -0.26277
 28 Al   -0.99965   -0.02915   -0.00855
 29 Al   -0.45838    0.57930   -1.10803
 30 Ni   -0.23169    0.14601    0.54815
 31 Cr    0.29640    1.28840   -0.26321
 32 Fe    0.87430   -0.33101    0.24798
 33 Cr    0.01293   -0.01380   -0.44587
 34 Cr   -0.46895    0.38907   -0.01945
 35 Co   -0.14462    0.09011    0.21422
 36 Cr    0.04367   -0.74372   -0.80068
 37 Al    0.10874    0.34679    0.07219
 38 Ni    0.35154    0.04888    0.18745
 39 Fe    0.57177    0.71144   -0.02750
 40 Al   -0.40440    0.77023   -0.24142
 41 Cr   -0.69182    1.66136   -0.05221
 42 Al    0.19617   -0.15530    0.93405
 43 Fe   -0.57170    0.79227    0.23535
 44 Al    0.78335   -0.15733   -0.06478
 45 Co    0.07012    0.48492    0.34328
 46 Fe   -0.15124   -0.30571    0.14536
 47 Ni   -0.21735   -0.11147    0.10048
 48 Ni    0.53703    0.36940   -0.03672
 49 Ni    0.31093    0.16141   -0.36098
 50 Co    0.67871    0.08469   -0.32108
 51 Fe    1.16654   -0.29604    0.40754
 52 Co   -0.33884    0.03347    0.44417
 53 Cr   -0.14802   -0.99146   -0.19840
 54 Cr   -0.09736    0.20479    0.11621
 55 Cr    0.10514   -0.63177    0.28654
 56 Cr   -0.93540    0.67003    1.33999
 57 Co    0.20034    0.06252    0.00851
 58 Co   -0.63309    0.21814    0.24001
 59 Co   -0.50442    0.51040    0.64868
[...]
 93 Ni    0.43374   -0.18741   -0.23762
 94 Cr    0.27183    0.49326    0.65224
 95 Al   -1.41235    0.02852   -0.96058
 96 Cr    0.09162    0.34703    0.82580
 97 Cr    0.47028   -0.04492    0.27987
 98 Co    0.12312    0.29154   -0.18456
 99 Co    0.16345   -0.30372    0.28156
100 Co   -0.41659    0.47598   -0.04554
101 Cr   -0.44317    0.88174    0.12345
102 Al    1.11263   -0.01843   -1.59489
103 Co   -0.15675   -0.43440    0.34084
104 Co   -0.03013   -0.07137   -0.42749
105 Ni    0.07033    0.05176    0.04843
106 Cr   -0.75200    0.39441    0.21261
107 Co   -0.43542   -0.27901   -0.05942

Date: Fri Apr 14 20:15:48 2023