User:   c.zeng@d0127
Date:   Sat Apr 15 16:10:21 2023
Arch:   x86_64
Pid:    173542
CWD:    /home/c.zeng/projects/hea-corrosion/hea-mlp/data-curation/bulk-mcmc/dft-jobs/54
Python: 3.8.1
gpaw:   /home/c.zeng/usr/installs/gpaw/source/gpaw-22.8.0/gpaw
_gpaw:  /home/c.zeng/usr/installs/gpaw/source/gpaw-22.8.0/
        _gpaw.cpython-38-x86_64-linux-gnu.so
ase:    /home/c.zeng/.local/lib/python3.8/site-packages/ase-3.22.1-py3.8.egg/ase (version 3.22.1)
numpy:  /shared/centos7/python/3.8.1/lib/python3.8/site-packages/numpy (version 1.17.4)
scipy:  /shared/centos7/python/3.8.1/lib/python3.8/site-packages/scipy (version 1.4.1)
units:  Angstrom and eV
cores: 30
OpenMP: False
OMP_NUM_THREADS: 1

Input parameters:
  convergence: {energy: 0.0001}
  kpts: [2 2 2]
  maxiter: 666
  mode: {ecut: 350.0,
         name: pw}
  occupations: {fixmagmom: False,
                name: fermi-dirac,
                width: 0.1}
  spinpol: True
  xc: PBE

System changes: positions, numbers, cell, pbc, initial_charges, initial_magmoms

Initialize ...

species:
  Ni:
    name: Nickel
    id: 0d9f38a9d6e76a2886f07bb4381f212b
    Z: 28.0
    valence: 16
    core: 12
    charge: 0.0
    file: /home/c.zeng/usr/data/gpaw-setups-0.9.20000/Ni.PBE.gz
    compensation charges: {type: gauss,
                           rc: 0.36,
                           lmax: 2}
    cutoffs: {filter: 2.14,
              core: 1.98}
    valence states:
      #              energy  rcut
      - 4s(2.00)    -5.642   1.164
      - 3p(6.00)   -71.394   1.207
      - 4p(0.00)    -1.226   1.207
      - 3d(8.00)    -8.875   1.138
      -  s          21.570   1.164
      -  d          18.337   1.138

    # Using partial waves for Ni as LCAO basis

  Cr:
    name: Chromium
    id: 33f258bda2ca9f93018e70263a35547b
    Z: 24.0
    valence: 6
    core: 18
    charge: 0.0
    file: /home/c.zeng/usr/data/gpaw-setups-0.9.20000/Cr.PBE.gz
    compensation charges: {type: gauss,
                           rc: 0.35,
                           lmax: 2}
    cutoffs: {filter: 2.14,
              core: 3.04}
    valence states:
      #              energy  rcut
      - 4s(1.00)    -4.007   1.164
      - 4p(0.00)    -0.989   1.217
      - 3d(5.00)    -2.913   1.111
      -  s          23.205   1.164
      -  p          26.223   1.217
      -  d          24.299   1.111

[...]

  Fe:
    name: Iron
    id: 37abbd8d6c3c35915a9b583b742da910
    Z: 26.0
    valence: 8
    core: 18
    charge: 0.0
    file: /home/c.zeng/usr/data/gpaw-setups-0.9.20000/Fe.PBE.gz
    compensation charges: {type: gauss,
                           rc: 0.33,
                           lmax: 2}
    cutoffs: {filter: 2.06,
              core: 2.67}
    valence states:
      #              energy  rcut
      - 4s(2.00)    -5.291   1.164
      - 4p(0.00)    -1.326   1.058
      - 3d(6.00)    -7.505   1.058
      -  s          21.920   1.164
      -  p          25.885   1.058
      -  d          19.706   1.058

[...]

  Co:
    name: Cobalt
    id: 339d20d5b0b93d2de9531a1bee871d91
    Z: 27.0
    valence: 9
    core: 18
    charge: 0.0
    file: /home/c.zeng/usr/data/gpaw-setups-0.9.20000/Co.PBE.gz
    compensation charges: {type: gauss,
                           rc: 0.32,
                           lmax: 2}
    cutoffs: {filter: 1.87,
              core: 2.55}
    valence states:
      #              energy  rcut
      - 4s(2.00)    -5.469   1.005
      - 4p(0.00)    -1.277   1.058
      - 3d(7.00)    -8.205   1.005
      -  s          21.742   1.005
      -  p          25.934   1.058
      -  d          19.007   1.005

[...]

  Al:
    name: Aluminium
    id: 0292cae29f5d6237e50f6abdd43a7bdd
    Z: 13.0
    valence: 3
    core: 10
    charge: 0.0
    file: /home/c.zeng/usr/data/gpaw-setups-0.9.20000/Al.PBE.gz
    compensation charges: {type: gauss,
                           rc: 0.34,
                           lmax: 2}
    cutoffs: {filter: 1.91,
              core: 2.36}
    valence states:
      #              energy  rcut
      - 3s(2.00)    -7.753   1.085
      - 3p(1.00)    -2.712   1.085
      -  s          19.459   1.085
      -  p          24.499   1.085
      -  d           0.000   1.085

    # Using partial waves for Al as LCAO basis

Reference energy: -3699400.456887  # eV

Spin-polarized calculation.
Magnetic moment: 143.500000

Convergence criteria:
 Maximum [total energy] change in last 3 cyles: 0.0001 eV / electron
 Maximum integral of absolute [dens]ity change: 0.0001 electrons / valence electron
 Maximum integral of absolute [eigenst]ate change: 4e-08 eV^2 / valence electron
 Maximum number of scf [iter]ations: 666
 (Square brackets indicate name in SCF output, whereas a 'c' in
 the SCF output indicates the quantity has converged.)

Symmetries present (total): 1

  ( 1  0  0)
  ( 0  1  0)
  ( 0  0  1)

8 k-points: 2 x 2 x 2 Monkhorst-Pack grid
4 k-points in the irreducible part of the Brillouin zone
       k-points in crystal coordinates                weights
   0:     0.25000000   -0.25000000   -0.25000000          2/8
   1:     0.25000000   -0.25000000    0.25000000          2/8
   2:     0.25000000    0.25000000   -0.25000000          2/8
   3:     0.25000000    0.25000000    0.25000000          2/8

Wave functions: Plane wave expansion
  Cutoff energy: 350.000 eV
  Number of coefficients (min, max): 18052, 18052
  Pulay-stress correction: 0.000000 eV/Ang^3 (de/decut=0.000000)
  Using FFTW library
  ScaLapack parameters: grid=1x1, blocksize=None
  Wavefunction extrapolation:
    Improved wavefunction reuse through dual PAW basis

Occupation numbers: Fermi-Dirac:
  width: 0.1000  # eV

Eigensolver
   Davidson(niter=2)

Densities:
  Coarse grid: 48*48*48 grid
  Fine grid: 96*96*96 grid
  Total Charge: 0.000000

Density mixing:
  Method: difference
  Backend: pulay
  Linear mixing parameter: 0.05
  old densities: 5
  Damping of long wavelength oscillations: 50

Hamiltonian:
  XC and Coulomb potentials evaluated on a 96*96*96 grid
  Using the PBE Exchange-Correlation functional
  External potential:
    NoExternalPotential

XC parameters: PBE with 2 nearest neighbor stencil

Total number of cores used: 30
Parallelization over k-points: 2
Domain decomposition: 5 x 3 x 1

Number of atoms: 108
Number of atomic orbitals: 1025
Number of bands in calculation: 703
Number of valence electrons: 1020
Bands to converge: occupied

... initialized

Initializing position-dependent things.

Density initialized from atomic densities
Creating initial wave functions:
  703 bands from LCAO basis set

        Ni------------------------.
       /|  Co                Co   |
      Cr|   Cr         Cr         |
     / Fe      Fe       Al        |
    /   CCo      Ni       Fe      |
   /e   | CoCr     CoAl    NiCr   |
  /  FeCr  NiCo     NiCrCo        |
 *    FeFe  FeCoCr     CoAl       |
 |     CoFeCr  CoFe Ni  CrFeNi    |
 | Fe   NiNiNiCo NiNiCrFe  Ni     |
 |   CoCr  CrAlNi   NiCrCr   Fe   |
 |    FeNi  FeFeCoCr CoFeNi   Cr  |
 |     CrFeFe  Cr NiNi  CoFeFe    |
 |      .-CoNiCo-FeCrCrCo--CoCr---.
 |   CrCo    CoAl   NiCrFe       /
 |    / Ni    CrFe       Ni     /
 |   /            Ni           /
 |Cr/      Co       Co        /
 |/            Ni           /
 *----------------Ni-------*

Positions:
   0 Ni     0.005316   -0.016350   10.639749    ( 0.0000,  0.0000,  0.0000)
   1 Cr    10.672340    1.801276    1.786848    ( 0.0000,  0.0000,  0.0000)
   2 Fe     1.795727   10.625972    1.782259    ( 0.0000,  0.0000,  0.0000)
   3 Cr     1.780787    1.796175   10.644605    ( 0.0000,  0.0000,  2.1000)
   4 Fe     3.523539   -0.014558    0.017268    ( 0.0000,  0.0000,  2.0000)
   5 Co     3.522568    1.781672    1.746648    ( 0.0000,  0.0000,  0.0000)
   6 Co     5.320952   10.642342    1.763136    ( 0.0000,  0.0000,  1.5000)
   7 Ni     5.342082    1.828767    0.007462    ( 0.0000,  0.0000,  2.0000)
   8 Ni     7.144895    0.019195    0.012033    ( 0.0000,  0.0000,  0.0000)
   9 Co     7.143497    1.798064    1.764939    ( 0.0000,  0.0000,  2.1000)
  10 Cr     8.891362   10.651627    1.788353    ( 0.0000,  0.0000,  1.5000)
  11 Co     8.888779    1.804777   10.642609    ( 0.0000,  0.0000,  2.0000)
  12 Fe     0.008694    3.581540   10.650250    ( 0.0000,  0.0000,  2.1000)
  13 Cr     0.018979    5.332745    1.789751    ( 0.0000,  0.0000,  2.1000)
  14 Ni     1.778129    3.600941    1.760019    ( 0.0000,  0.0000,  2.0000)
  15 Co     1.790423    5.343267   -0.017766    ( 0.0000,  0.0000,  2.0000)
  16 Cr     3.542802    3.589864   -0.015614    ( 0.0000,  0.0000,  2.0000)
  17 Co     3.526837    5.358538    1.765793    ( 0.0000,  0.0000,  2.0000)
  18 Fe     5.336650    3.606501    1.755815    ( 0.0000,  0.0000,  0.0000)
  19 Ni     5.300399    5.323642   -0.012797    ( 0.0000,  0.0000,  2.1000)
  20 Al     7.122858    3.584816   10.659524    ( 0.0000,  0.0000,  2.0000)
  21 Cr     7.120500    5.315168    1.805502    ( 0.0000,  0.0000,  1.5000)
  22 Ni     8.892034    3.590952    1.773146    ( 0.0000,  0.0000,  2.1000)
  23 Fe     8.925340    5.301487   -0.003100    ( 0.0000,  0.0000,  0.0000)
  24 Cr     0.023055    7.096680   -0.007939    ( 0.0000,  0.0000,  0.0000)
  25 Cr     0.019141    8.871245    1.787510    ( 0.0000,  0.0000,  1.5000)
  26 Co     1.784372    7.104567    1.776443    ( 0.0000,  0.0000,  2.0000)
  27 Co     1.779944    8.867628   10.659406    ( 0.0000,  0.0000,  1.5000)
  28 Cr     3.547785    7.097897    0.009215    ( 0.0000,  0.0000,  2.1000)
  29 Cr     3.541137    8.858109    1.788225    ( 0.0000,  0.0000,  2.1000)
  30 Cr     5.295105    7.099391    1.787894    ( 0.0000,  0.0000,  2.1000)
  31 Ni     5.303685    8.873828    0.029898    ( 0.0000,  0.0000,  0.0000)
  32 Cr     7.106883    7.088719   10.645159    ( 0.0000,  0.0000,  0.0000)
  33 Co     7.111055    8.901137    1.809472    ( 0.0000,  0.0000,  0.0000)
  34 Co     8.939384    7.093404    1.799238    ( 0.0000,  0.0000,  0.0000)
  35 Co     8.919972    8.915853   10.664881    ( 0.0000,  0.0000,  0.0000)
  36 Ni    10.679704   10.658873    3.584517    ( 0.0000,  0.0000,  2.0000)
  37 Fe    10.670921    1.796367    5.340289    ( 0.0000,  0.0000,  2.1000)
  38 Fe     1.770350   10.649001    5.343491    ( 0.0000,  0.0000,  0.0000)
  39 Co     1.791800    1.784671    3.584891    ( 0.0000,  0.0000,  2.0000)
  40 Ni     3.529718   10.626388    3.565234    ( 0.0000,  0.0000,  2.1000)
  41 Fe     3.535716    1.793465    5.367289    ( 0.0000,  0.0000,  1.5000)
  42 Co     5.311497    0.001574    5.366254    ( 0.0000,  0.0000,  1.5000)
  43 Al     5.332627    1.768055    3.580793    ( 0.0000,  0.0000,  0.0000)
  44 Ni     7.136966   10.673941    3.563804    ( 0.0000,  0.0000,  2.0000)
  45 Ni     7.136774    1.794126    5.358944    ( 0.0000,  0.0000,  2.1000)
  46 Co     8.925938   10.673621    5.347589    ( 0.0000,  0.0000,  2.0000)
  47 Fe     8.883827    1.779111    3.582404    ( 0.0000,  0.0000,  1.5000)
  48 Cr    -0.010038    3.572341    3.580996    ( 0.0000,  0.0000,  2.0000)
  49 Co    10.685573    5.328935    5.338550    ( 0.0000,  0.0000,  2.0000)
  50 Ni     1.784180    3.582949    5.348357    ( 0.0000,  0.0000,  1.5000)
  51 Fe     1.766326    5.339510    3.565255    ( 0.0000,  0.0000,  1.5000)
  52 Ni     3.522387    3.605007    3.574059    ( 0.0000,  0.0000,  0.0000)
  53 Al     3.543581    5.347343    5.347962    ( 0.0000,  0.0000,  2.1000)
  54 Co     5.333950    3.591678    5.360630    ( 0.0000,  0.0000,  2.0000)
  55 Ni     5.336458    5.346308    3.560132    ( 0.0000,  0.0000,  0.0000)
  56 Cr     7.143102    3.570089    3.572138    ( 0.0000,  0.0000,  2.1000)
  57 Cr     7.120265    5.347471    5.345689    ( 0.0000,  0.0000,  2.0000)
  58 Ni     8.888299    3.570665    5.342018    ( 0.0000,  0.0000,  1.5000)
  59 Fe     8.904573    5.339084    3.577453    ( 0.0000,  0.0000,  2.0000)
[...]
  93 Cr     7.108740    5.307762    8.854395    ( 0.0000,  0.0000,  1.5000)
  94 Al     8.907593    3.561296    8.890348    ( 0.0000,  0.0000,  2.1000)
  95 Fe     8.917806    5.336309    7.100224    ( 0.0000,  0.0000,  0.0000)
  96 Fe     0.016270    7.102027    7.111664    ( 0.0000,  0.0000,  2.0000)
  97 Fe     0.000822    8.895150    8.883817    ( 0.0000,  0.0000,  1.5000)
  98 Co     1.771182    7.105090    8.888608    ( 0.0000,  0.0000,  1.5000)
  99 Ni     1.775184    8.850318    7.108494    ( 0.0000,  0.0000,  2.0000)
 100 Co     3.530401    7.086478    7.104972    ( 0.0000,  0.0000,  1.5000)
 101 Fe     3.524841    8.851001    8.894798    ( 0.0000,  0.0000,  0.0000)
 102 Co     5.310654    7.102827    8.871128    ( 0.0000,  0.0000,  0.0000)
 103 Ni     5.290613    8.850286    7.104876    ( 0.0000,  0.0000,  0.0000)
 104 Co     7.129016    7.083330    7.142750    ( 0.0000,  0.0000,  2.1000)
 105 Al     7.143241    8.903186    8.854384    ( 0.0000,  0.0000,  2.0000)
 106 Ni     8.926504    7.115858    8.862313    ( 0.0000,  0.0000,  0.0000)
 107 Cr     8.932896    8.877648    7.127479    ( 0.0000,  0.0000,  1.5000)

Unit cell:
           periodic     x           y           z      points  spacing
  1. axis:    yes   10.671700    0.000000    0.000000    48     0.2223
  2. axis:    yes    0.000000   10.671700    0.000000    48     0.2223
  3. axis:    yes    0.000000    0.000000   10.671700    48     0.2223

  Lengths:  10.671700  10.671700  10.671700
  Angles:   90.000000  90.000000  90.000000

Effective grid spacing dv^(1/3) = 0.2223

     iter     time        total  log10-change:  magmom
                         energy  eigst   dens
iter:   1 16:15:24  -955.008518                  +143.1621
iter:   2 16:17:19  -955.598080  -0.43  -1.32    +107.3243
iter:   3 16:19:14  -903.451290  -0.86  -1.27    +78.7240
iter:   4 16:21:09  -877.502911  -1.35  -1.37    +66.6149
iter:   5 16:23:03  -873.376545  -1.93  -1.46    +60.5704
iter:   6 16:24:58  -877.951366  -1.92  -1.51    +56.7334
iter:   7 16:26:53  -873.194168  -1.75  -1.50    +55.5863
iter:   8 16:28:47  -871.195831  -1.73  -1.58    +54.9032
iter:   9 16:30:42  -877.277598  -1.77  -1.70    +54.4107
iter:  10 16:32:38  -871.532146  -1.91  -1.67    +53.4839
iter:  11 16:34:33  -869.314016  -2.30  -1.80    +53.7404
iter:  12 16:36:28  -869.433903  -2.47  -1.86    +54.3796
iter:  13 16:38:23  -868.986036  -2.62  -1.90    +54.8356
iter:  14 16:40:19  -868.355498  -2.77  -1.93    +55.2611
iter:  15 16:42:14  -869.866660  -2.73  -1.98    +56.3370
iter:  16 16:44:09  -870.454086  -2.54  -1.96    +56.7461
iter:  17 16:46:04  -870.556306  -2.52  -1.96    +57.1822
iter:  18 16:47:59  -870.411526  -2.61  -1.98    +57.9034
iter:  19 16:49:54  -870.381028  -2.60  -2.03    +58.5185
iter:  20 16:51:49  -869.483541  -2.77  -2.04    +59.2036
iter:  21 16:53:44  -869.574818  -3.02  -2.11    +59.5328
iter:  22 16:55:39  -869.779576  -2.97  -2.17    +60.2783
iter:  23 16:57:34  -869.710250  -3.09  -2.14    +60.8516
iter:  24 16:59:29  -869.752601c -3.31  -2.17    +61.3463
iter:  25 17:01:24  -870.081043  -3.11  -2.23    +61.9060
iter:  26 17:03:19  -870.281179  -3.02  -2.21    +62.3433
iter:  27 17:05:14  -870.194468  -3.15  -2.21    +62.9129
iter:  28 17:07:10  -870.647188  -3.01  -2.29    +63.3108
iter:  29 17:09:05  -870.613612  -3.03  -2.24    +63.6088
iter:  30 17:11:00  -870.370627  -3.25  -2.29    +64.1029
iter:  31 17:12:56  -870.250118  -3.50  -2.34    +64.4688
iter:  32 17:14:51  -870.281879  -3.76  -2.41    +64.7988
iter:  33 17:16:46  -870.289076c -4.12  -2.42    +65.1224
iter:  34 17:18:42  -870.457213  -3.81  -2.46    +65.4806
iter:  35 17:20:38  -870.567366  -3.67  -2.45    +65.5209
iter:  36 17:22:33  -870.824607  -3.39  -2.45    +65.6165
iter:  37 17:24:29  -870.861829  -3.29  -2.41    +65.6847
iter:  38 17:26:25  -871.109345  -3.15  -2.47    +65.7836
iter:  39 17:28:20  -870.748500  -3.34  -2.38    +65.6347
iter:  40 17:30:16  -870.699581  -3.63  -2.54    +65.5640
iter:  41 17:32:12  -870.610952  -4.06  -2.60    +65.6413
iter:  42 17:34:08  -870.609876c -4.53  -2.74    +65.6943
iter:  43 17:36:04  -870.635714c -4.72  -2.78    +65.6709
iter:  44 17:38:00  -870.748455  -3.77  -2.80    +65.4915
iter:  45 17:39:55  -870.806922  -3.93  -2.85    +65.5015
iter:  46 17:41:51  -870.761600c -4.05  -2.76    +65.4078
iter:  47 17:43:47  -870.755415c -4.36  -3.01    +65.2974
iter:  48 17:45:43  -870.757091c -4.72  -3.22    +65.2661
iter:  49 17:47:39  -870.764908c -4.92  -3.38    +65.2310
iter:  50 17:49:35  -870.770333c -5.17  -3.44    +65.2036
iter:  51 17:51:31  -870.781808c -4.98  -3.49    +65.1586
iter:  52 17:53:27  -870.796636c -4.85  -3.48    +65.1445
iter:  53 17:55:23  -870.811826c -4.85  -3.40    +65.1596
iter:  54 17:57:19  -870.808298c -5.51  -3.32    +65.1613
iter:  55 17:59:15  -870.815450c -5.29  -3.42    +65.1781
iter:  56 18:01:11  -870.826228c -5.08  -3.43    +65.1908
iter:  57 18:03:07  -870.853103c -4.48  -3.39    +65.2349
iter:  58 18:05:04  -870.838641c -5.19  -3.22    +65.2065
iter:  59 18:07:00  -870.861660c -4.76  -3.25    +65.2740
iter:  60 18:08:56  -870.874668c -4.78  -3.18    +65.3192
iter:  61 18:10:53  -870.873058c -5.35  -3.16    +65.3180
iter:  62 18:12:49  -870.881693c -5.26  -3.19    +65.3256
iter:  63 18:14:45  -870.888393c -5.35  -3.17    +65.3403
iter:  64 18:16:40  -870.885442c -4.70  -3.16    +65.3477
iter:  65 18:18:36  -870.881663c -5.06  -3.08    +65.3434
iter:  66 18:20:32  -870.888228c -5.22  -3.16    +65.2809
iter:  67 18:22:28  -870.897993c -4.63  -3.15    +65.1849
iter:  68 18:24:24  -870.893853c -4.98  -3.12    +65.1645
iter:  69 18:26:19  -870.895613c -5.07  -3.20    +65.0829
iter:  70 18:28:15  -870.896859c -5.14  -3.23    +65.0677
iter:  71 18:30:11  -870.896765c -4.94  -3.27    +65.0101
iter:  72 18:32:07  -870.897919c -5.27  -3.36    +65.0040
iter:  73 18:34:02  -870.901558c -5.25  -3.44    +64.9678
iter:  74 18:35:58  -870.900775c -5.53  -3.38    +64.9544
iter:  75 18:37:54  -870.903373c -5.61  -3.48    +64.9348
iter:  76 18:39:50  -870.906670c -5.61  -3.49    +64.8987
iter:  77 18:41:46  -870.910554c -5.64  -3.49    +64.8757
iter:  78 18:43:41  -870.906298c -5.82  -3.43    +64.9002
iter:  79 18:45:37  -870.919975c -4.73  -3.47    +64.8156
iter:  80 18:47:33  -870.916047c -5.56  -3.40    +64.8449
iter:  81 18:49:29  -870.924421c -5.14  -3.42    +64.7746
iter:  82 18:51:25  -870.923390c -5.73  -3.41    +64.7682
iter:  83 18:53:20  -870.929479c -4.89  -3.48    +64.7415
iter:  84 18:55:16  -870.930096c -4.69  -3.24    +64.7218
iter:  85 18:57:12  -870.921839c -5.02  -3.30    +64.7514
iter:  86 18:59:08  -870.920747c -5.46  -3.53    +64.7443
iter:  87 19:01:04  -870.922172c -5.49  -3.63    +64.7159
iter:  88 19:03:00  -870.921357c -5.81  -3.58    +64.7097
iter:  89 19:04:56  -870.921997c -5.61  -3.73    +64.6975
iter:  90 19:06:52  -870.921579c -5.73  -3.70    +64.6973
iter:  91 19:08:47  -870.921323c -6.00  -3.75    +64.7102
iter:  92 19:10:43  -870.921623c -6.50  -3.92    +64.7070
iter:  93 19:12:39  -870.922233c -6.17  -3.95    +64.7005
iter:  94 19:14:35  -870.921909c -6.42  -3.87    +64.6990
iter:  95 19:16:30  -870.922264c -6.48  -3.96    +64.7005
iter:  96 19:18:26  -870.922306c -6.62  -3.96    +64.7005
iter:  97 19:20:22  -870.922818c -6.33  -4.02c   +64.6968
iter:  98 19:22:18  -870.922634c -6.53  -3.94    +64.6978
iter:  99 19:24:14  -870.922752c -6.73  -4.04c   +64.6981
iter: 100 19:26:10  -870.923173c -6.49  -4.06c   +64.6985
iter: 101 19:28:07  -870.923060c -6.60  -4.02c   +64.6962
iter: 102 19:30:02  -870.923238c -6.58  -4.09c   +64.6940
iter: 103 19:31:58  -870.923263c -6.93  -4.09c   +64.6951
iter: 104 19:33:54  -870.923384c -6.73  -4.17c   +64.6912
iter: 105 19:35:50  -870.923416c -6.91  -4.14c   +64.6921
iter: 106 19:37:46  -870.923517c -7.07  -4.21c   +64.6922
iter: 107 19:39:42  -870.923642c -7.12  -4.23c   +64.6933
iter: 108 19:41:38  -870.923673c -7.08  -4.29c   +64.6920
iter: 109 19:43:34  -870.923707c -7.30  -4.24c   +64.6897
iter: 110 19:45:30  -870.923866c -7.19  -4.32c   +64.6902
iter: 111 19:47:26  -870.923898c -6.97  -4.33c   +64.6885
iter: 112 19:49:22  -870.923977c -7.26  -4.27c   +64.6876
iter: 113 19:51:18  -870.923959c -7.16  -4.38c   +64.6855
iter: 114 19:53:14  -870.924086c -7.17  -4.37c   +64.6859
iter: 115 19:55:09  -870.924132c -7.27  -4.36c   +64.6876
iter: 116 19:57:05  -870.924156c -7.64c -4.43c   +64.6856

Converged after 116 iterations.

Dipole moment: (-10.693332, 7.797551, 8.895275) |e|*Ang

Total magnetic moment: (0.000000, 0.000000, 64.685593)
Local magnetic moments:
   0 Ni ( 0.000000,  0.000000,  0.129834)
   1 Cr ( 0.000000,  0.000000,  1.325808)
   2 Fe ( 0.000000,  0.000000, -1.589583)
   3 Cr ( 0.000000,  0.000000, -0.789752)
   4 Fe ( 0.000000,  0.000000,  2.047777)
   5 Co ( 0.000000,  0.000000,  1.183851)
   6 Co ( 0.000000,  0.000000,  1.379562)
   7 Ni ( 0.000000,  0.000000,  0.212794)
   8 Ni ( 0.000000,  0.000000,  0.407425)
   9 Co ( 0.000000,  0.000000,  1.266742)
  10 Cr ( 0.000000,  0.000000, -1.642741)
  11 Co ( 0.000000,  0.000000,  1.019382)
  12 Fe ( 0.000000,  0.000000,  2.015775)
  13 Cr ( 0.000000,  0.000000, -0.872136)
  14 Ni ( 0.000000,  0.000000,  0.176739)
  15 Co ( 0.000000,  0.000000,  0.999148)
  16 Cr ( 0.000000,  0.000000, -1.116622)
  17 Co ( 0.000000,  0.000000,  0.935162)
  18 Fe ( 0.000000,  0.000000,  2.090161)
  19 Ni ( 0.000000,  0.000000,  0.074179)
  20 Al ( 0.000000,  0.000000, -0.017418)
  21 Cr ( 0.000000,  0.000000, -1.309503)
  22 Ni ( 0.000000,  0.000000,  0.017254)
  23 Fe ( 0.000000,  0.000000,  1.575834)
  24 Cr ( 0.000000,  0.000000, -1.280906)
  25 Cr ( 0.000000,  0.000000,  0.755093)
  26 Co ( 0.000000,  0.000000,  0.418507)
  27 Co ( 0.000000,  0.000000,  0.577989)
  28 Cr ( 0.000000,  0.000000, -0.646010)
  29 Cr ( 0.000000,  0.000000,  0.572124)
  30 Cr ( 0.000000,  0.000000, -1.055582)
  31 Ni ( 0.000000,  0.000000,  0.234312)
  32 Cr ( 0.000000,  0.000000,  1.245373)
  33 Co ( 0.000000,  0.000000,  1.313824)
  34 Co ( 0.000000,  0.000000,  0.158879)
  35 Co ( 0.000000,  0.000000,  0.893611)
  36 Ni ( 0.000000,  0.000000,  0.219086)
  37 Fe ( 0.000000,  0.000000,  2.172812)
  38 Fe ( 0.000000,  0.000000,  2.176966)
  39 Co ( 0.000000,  0.000000,  1.271729)
  40 Ni ( 0.000000,  0.000000,  0.331976)
  41 Fe ( 0.000000,  0.000000,  2.356177)
  42 Co ( 0.000000,  0.000000,  1.272161)
  43 Al ( 0.000000,  0.000000, -0.036278)
  44 Ni ( 0.000000,  0.000000,  0.359780)
  45 Ni ( 0.000000,  0.000000,  0.092856)
  46 Co ( 0.000000,  0.000000,  1.043535)
  47 Fe ( 0.000000,  0.000000,  2.214315)
  48 Cr ( 0.000000,  0.000000, -1.333240)
  49 Co ( 0.000000,  0.000000,  1.359689)
  50 Ni ( 0.000000,  0.000000,  0.338978)
  51 Fe ( 0.000000,  0.000000,  2.171995)
  52 Ni ( 0.000000,  0.000000,  0.378050)
  53 Al ( 0.000000,  0.000000, -0.040812)
  54 Co ( 0.000000,  0.000000,  0.687299)
  55 Ni ( 0.000000,  0.000000,  0.108438)
  56 Cr ( 0.000000,  0.000000, -1.241502)
  57 Cr ( 0.000000,  0.000000, -1.310478)
  58 Ni ( 0.000000,  0.000000,  0.177821)
  59 Fe ( 0.000000,  0.000000,  1.817272)
[...]
  93 Cr ( 0.000000,  0.000000, -1.068591)
  94 Al ( 0.000000,  0.000000, -0.032241)
  95 Fe ( 0.000000,  0.000000,  1.958133)
  96 Fe ( 0.000000,  0.000000,  2.316028)
  97 Fe ( 0.000000,  0.000000,  2.138241)
  98 Co ( 0.000000,  0.000000,  1.162790)
  99 Ni ( 0.000000,  0.000000,  0.467672)
 100 Co ( 0.000000,  0.000000,  1.480385)
 101 Fe ( 0.000000,  0.000000,  2.336096)
 102 Co ( 0.000000,  0.000000,  1.044987)
 103 Ni ( 0.000000,  0.000000,  0.376557)
 104 Co ( 0.000000,  0.000000,  0.928181)
 105 Al ( 0.000000,  0.000000, -0.025307)
 106 Ni ( 0.000000,  0.000000,  0.215944)
 107 Cr ( 0.000000,  0.000000, -1.339540)

Energy contributions relative to reference atoms: (reference = -3699400.456887)

Kinetic:       +142.748021
Potential:     -193.465353
External:        +0.000000
XC:            -855.904282
Entropy (-ST):   -4.559873
Local:          +37.977394
Free energy:   -873.204092
Extrapolated:  -870.924156

Spin contamination: 28.358788 electrons
Showing only first 2 kpts
                      Up                     Down
 Kpt  Band  Eigenvalues  Occupancy  Eigenvalues  Occupancy
  0   508      9.64920    0.99324     10.53706    0.02007
  0   509      9.66419    0.99216     10.55100    0.01751
  0   510      9.67480    0.99129     10.56156    0.01578
  0   511      9.69425    0.98944     10.57529    0.01378

  1   508      9.66131    0.99238     10.53172    0.02115
  1   509      9.67875    0.99094     10.55067    0.01756
  1   510      9.68794    0.99008     10.55892    0.01619
  1   511      9.69846    0.98899     10.57675    0.01359

Fermi level: 10.14825

No gap

Forces in eV/Ang:
  0 Ni    0.14628    0.16940    0.38560
  1 Cr    0.28416   -0.51706   -0.06088
  2 Fe   -0.51794    0.01242    0.05053
  3 Cr    0.13588    0.02337    0.13956
  4 Fe    0.35803    0.29747   -0.01472
  5 Co   -0.05042   -0.11913   -0.05415
  6 Co    0.06609    0.08693   -0.11540
  7 Ni   -0.20427   -0.52333    0.12953
  8 Ni   -0.35345   -0.03042   -0.01089
  9 Co   -0.09396   -0.20415    0.11658
 10 Cr   -0.00810    0.19296   -0.23124
 11 Co    0.29711   -0.47839    0.64455
 12 Fe    0.32981   -0.08157    0.44251
 13 Cr   -0.15243    0.24545   -0.23058
 14 Ni    0.03340   -0.37572    0.09276
 15 Co    0.04764    0.09769    0.17706
 16 Cr    0.02606    0.01394   -0.02761
 17 Co    0.23608    0.12992   -0.09349
 18 Fe   -0.40808   -0.09375    0.57724
 19 Ni   -0.06020    0.37850   -0.06864
 20 Al   -0.26874   -0.90809    0.82054
 21 Cr    0.10150    1.22398    0.01541
 22 Ni    0.26669   -0.27635    0.22310
 23 Fe   -0.09406    0.84903    0.22753
 24 Cr   -0.40909   -0.00626    0.04060
 25 Cr    0.30775    0.21092   -0.53370
 26 Co   -0.07744   -0.01531   -0.31653
 27 Co    0.01546    0.06348    0.32474
 28 Cr   -0.32965   -0.20346   -0.17685
 29 Cr   -0.01624    0.28415   -0.26975
 30 Cr    0.01734    0.03788    0.09107
 31 Ni    0.28351    0.25893   -0.29755
 32 Cr    0.27161   -0.42166    0.98877
 33 Co    0.12224   -0.06775   -0.37400
 34 Co   -0.12433    0.05091   -0.29462
 35 Co   -0.16973   -0.42358    0.47915
 36 Ni    0.02856    0.16178   -0.15041
 37 Fe    0.16402   -0.13854   -0.07028
 38 Fe   -0.13436   -0.10278   -0.06587
 39 Co    0.21893    0.05474   -0.25236
 40 Ni    0.20298    0.32085   -0.03389
 41 Fe   -0.19505    0.15225    0.15840
 42 Co   -0.06572   -0.45353    0.08893
 43 Al   -0.24672   -0.29086   -0.22095
 44 Ni   -0.14134   -0.27712    0.09095
 45 Ni   -0.08723   -0.08980   -0.08532
 46 Co    0.00689   -0.10413   -0.06253
 47 Fe   -0.37155    0.06709   -0.07088
 48 Cr    0.09466   -0.16049   -0.02730
 49 Co   -0.03224   -0.04312   -0.01079
 50 Ni   -0.23162   -0.26811   -0.10828
 51 Fe   -0.27359    0.00567   -0.48345
 52 Ni    0.20656   -0.50294   -0.38175
 53 Al    0.23961   -0.39584   -0.25198
 54 Co    0.39368   -0.30030    0.01793
 55 Ni    0.09728   -0.29054   -0.20670
 56 Cr    0.38137    0.20570   -0.04201
 57 Cr   -0.04011    0.39953    0.44552
 58 Ni    0.10522   -0.00976   -0.00366
 59 Fe   -0.17897   -0.21900   -0.26339
[...]
 93 Cr   -0.45958    1.33998   -0.26897
 94 Al    0.78211   -0.18145   -0.03101
 95 Fe   -0.20277    0.40011   -0.15550
 96 Fe   -0.11080    0.22752   -0.32864
 97 Fe    0.18997   -0.08107    0.25078
 98 Co    0.10471   -0.03043    0.23085
 99 Ni    0.03368    0.13963   -0.04219
100 Co    0.08791    0.36216    0.28585
101 Fe    0.28699    0.22483   -0.10416
102 Co   -0.00038   -0.28444    0.13103
103 Ni    0.19789    0.17977    0.02026
104 Co   -0.02741   -0.16214   -0.57015
105 Al   -0.95955   -0.29570    0.86318
106 Ni   -0.20714   -0.32479    0.34880
107 Cr    0.70829    0.16997   -0.79199

Date: Sat Apr 15 19:57:28 2023