User:   c.zeng@d0100
Date:   Fri Apr 14 01:02:36 2023
Arch:   x86_64
Pid:    40784
CWD:    /home/c.zeng/projects/hea-corrosion/hea-mlp/data-curation/bulk-md/dft-jobs/73
Python: 3.8.1
gpaw:   /home/c.zeng/usr/installs/gpaw/source/gpaw-22.8.0/gpaw
_gpaw:  /home/c.zeng/usr/installs/gpaw/source/gpaw-22.8.0/
        _gpaw.cpython-38-x86_64-linux-gnu.so
ase:    /home/c.zeng/.local/lib/python3.8/site-packages/ase-3.22.1-py3.8.egg/ase (version 3.22.1)
numpy:  /shared/centos7/python/3.8.1/lib/python3.8/site-packages/numpy (version 1.17.4)
scipy:  /shared/centos7/python/3.8.1/lib/python3.8/site-packages/scipy (version 1.4.1)
units:  Angstrom and eV
cores: 30
OpenMP: False
OMP_NUM_THREADS: 1

Input parameters:
  convergence: {energy: 0.0001}
  kpts: [2 2 2]
  maxiter: 666
  mode: {ecut: 350.0,
         name: pw}
  occupations: {fixmagmom: False,
                name: fermi-dirac,
                width: 0.1}
  spinpol: True
  xc: PBE

System changes: positions, numbers, cell, pbc, initial_charges, initial_magmoms

Initialize ...

species:
  Fe:
    name: Iron
    id: 37abbd8d6c3c35915a9b583b742da910
    Z: 26.0
    valence: 8
    core: 18
    charge: 0.0
    file: /home/c.zeng/usr/data/gpaw-setups-0.9.20000/Fe.PBE.gz
    compensation charges: {type: gauss,
                           rc: 0.33,
                           lmax: 2}
    cutoffs: {filter: 2.06,
              core: 2.67}
    valence states:
      #              energy  rcut
      - 4s(2.00)    -5.291   1.164
      - 4p(0.00)    -1.326   1.058
      - 3d(6.00)    -7.505   1.058
      -  s          21.920   1.164
      -  p          25.885   1.058
      -  d          19.706   1.058

    # Using partial waves for Fe as LCAO basis

  Cr:
    name: Chromium
    id: 33f258bda2ca9f93018e70263a35547b
    Z: 24.0
    valence: 6
    core: 18
    charge: 0.0
    file: /home/c.zeng/usr/data/gpaw-setups-0.9.20000/Cr.PBE.gz
    compensation charges: {type: gauss,
                           rc: 0.35,
                           lmax: 2}
    cutoffs: {filter: 2.14,
              core: 3.04}
    valence states:
      #              energy  rcut
      - 4s(1.00)    -4.007   1.164
      - 4p(0.00)    -0.989   1.217
      - 3d(5.00)    -2.913   1.111
      -  s          23.205   1.164
      -  p          26.223   1.217
      -  d          24.299   1.111

[...]

  Ni:
    name: Nickel
    id: 0d9f38a9d6e76a2886f07bb4381f212b
    Z: 28.0
    valence: 16
    core: 12
    charge: 0.0
    file: /home/c.zeng/usr/data/gpaw-setups-0.9.20000/Ni.PBE.gz
    compensation charges: {type: gauss,
                           rc: 0.36,
                           lmax: 2}
    cutoffs: {filter: 2.14,
              core: 1.98}
    valence states:
      #              energy  rcut
      - 4s(2.00)    -5.642   1.164
      - 3p(6.00)   -71.394   1.207
      - 4p(0.00)    -1.226   1.207
      - 3d(8.00)    -8.875   1.138
      -  s          21.570   1.164
      -  d          18.337   1.138

[...]

  Al:
    name: Aluminium
    id: 0292cae29f5d6237e50f6abdd43a7bdd
    Z: 13.0
    valence: 3
    core: 10
    charge: 0.0
    file: /home/c.zeng/usr/data/gpaw-setups-0.9.20000/Al.PBE.gz
    compensation charges: {type: gauss,
                           rc: 0.34,
                           lmax: 2}
    cutoffs: {filter: 1.91,
              core: 2.36}
    valence states:
      #              energy  rcut
      - 3s(2.00)    -7.753   1.085
      - 3p(1.00)    -2.712   1.085
      -  s          19.459   1.085
      -  p          24.499   1.085
      -  d           0.000   1.085

[...]

  Co:
    name: Cobalt
    id: 339d20d5b0b93d2de9531a1bee871d91
    Z: 27.0
    valence: 9
    core: 18
    charge: 0.0
    file: /home/c.zeng/usr/data/gpaw-setups-0.9.20000/Co.PBE.gz
    compensation charges: {type: gauss,
                           rc: 0.32,
                           lmax: 2}
    cutoffs: {filter: 1.87,
              core: 2.55}
    valence states:
      #              energy  rcut
      - 4s(2.00)    -5.469   1.005
      - 4p(0.00)    -1.277   1.058
      - 3d(7.00)    -8.205   1.005
      -  s          21.742   1.005
      -  p          25.934   1.058
      -  d          19.007   1.005

    # Using partial waves for Co as LCAO basis

Reference energy: -3382523.201499  # eV

Spin-polarized calculation.
Magnetic moment: 128.800000

Convergence criteria:
 Maximum [total energy] change in last 3 cyles: 0.0001 eV / electron
 Maximum integral of absolute [dens]ity change: 0.0001 electrons / valence electron
 Maximum integral of absolute [eigenst]ate change: 4e-08 eV^2 / valence electron
 Maximum number of scf [iter]ations: 666
 (Square brackets indicate name in SCF output, whereas a 'c' in
 the SCF output indicates the quantity has converged.)

Symmetries present (total): 1

  ( 1  0  0)
  ( 0  1  0)
  ( 0  0  1)

8 k-points: 2 x 2 x 2 Monkhorst-Pack grid
4 k-points in the irreducible part of the Brillouin zone
       k-points in crystal coordinates                weights
   0:     0.25000000   -0.25000000   -0.25000000          2/8
   1:     0.25000000   -0.25000000    0.25000000          2/8
   2:     0.25000000    0.25000000   -0.25000000          2/8
   3:     0.25000000    0.25000000    0.25000000          2/8

Wave functions: Plane wave expansion
  Cutoff energy: 350.000 eV
  Number of coefficients (min, max): 18865, 18865
  Pulay-stress correction: 0.000000 eV/Ang^3 (de/decut=0.000000)
  Using FFTW library
  ScaLapack parameters: grid=1x1, blocksize=None
  Wavefunction extrapolation:
    Improved wavefunction reuse through dual PAW basis

Occupation numbers: Fermi-Dirac:
  width: 0.1000  # eV

Eigensolver
   Davidson(niter=2)

Densities:
  Coarse grid: 48*48*48 grid
  Fine grid: 96*96*96 grid
  Total Charge: 0.000000

Density mixing:
  Method: difference
  Backend: pulay
  Linear mixing parameter: 0.05
  old densities: 5
  Damping of long wavelength oscillations: 50

Hamiltonian:
  XC and Coulomb potentials evaluated on a 96*96*96 grid
  Using the PBE Exchange-Correlation functional
  External potential:
    NoExternalPotential

XC parameters: PBE with 2 nearest neighbor stencil

Total number of cores used: 30
Parallelization over k-points: 2
Domain decomposition: 5 x 3 x 1

Number of atoms: 108
Number of atomic orbitals: 961
Number of bands in calculation: 649
Number of valence electrons: 945
Bands to converge: occupied

... initialized

Initializing position-dependent things.

Density initialized from atomic densities
Creating initial wave functions:
  649 bands from LCAO basis set

        .-----------------Al-------.
       /| Al        Fe       Ni    |
      / |    Co               Ni   |
     / Fe      Al               Ni |
    /   Cr         Cr    NiCoCo    |
   /    | CoNFe     CoCr           |
  /  FeCr      Cr        Co  Fe    |
 *    NCo   Co  CNi     AlFe     Co|
 |      |Cr Fe   Co  Al     CCo    |
 |  Ni  NiAlNi Cr  AlAl     Cr     |
 |     Co  NiFe Fe   NNi  Ni  CCr  |
 Fe    Co  FeiAl      NiAl    Ni Fe|
 |      Al Al   FeFeCo   CCoo    Cr|
 |Co    .-Cr---FeAlFeNi-Co--Co-----Fe
 |   Cr/    Al        Fe      Ni  /
 |    /Cr    CrrNio     Nio      /
 |   / Fe  Fe     FeCr          /
 |Cr/      Fe       Co     Al  /
 | /        Co       Cr       /i
 |/             Al           /

Positions:
   0 Fe    10.674948   10.739606   10.869381    ( 0.0000,  0.0000,  2.0000)
   1 Cr    10.962644    1.698296    1.877763    ( 0.0000,  0.0000,  0.0000)
   2 Ni     1.772414   -0.177136    1.667330    ( 0.0000,  0.0000,  1.5000)
   3 Cr     1.850110    1.727582   10.743782    ( 0.0000,  0.0000,  0.0000)
   4 Al     3.736118   -0.196336    0.086165    ( 0.0000,  0.0000,  0.0000)
   5 Fe     3.492261    1.504030    1.664792    ( 0.0000,  0.0000,  2.0000)
   6 Ni     5.607716   10.634944    1.829588    ( 0.0000,  0.0000,  1.5000)
   7 Al     5.633980    1.669172    0.125930    ( 0.0000,  0.0000,  0.0000)
   8 Al     7.401842   10.640959   -0.037873    ( 0.0000,  0.0000,  0.0000)
   9 Co     7.133064    1.683989    1.893478    ( 0.0000,  0.0000,  2.1000)
  10 Ni     9.006422   -0.028066    1.799900    ( 0.0000,  0.0000,  1.5000)
  11 Co     9.036542    1.940686   -0.020889    ( 0.0000,  0.0000,  2.1000)
  12 Ni    -0.225107    3.482567   10.840312    ( 0.0000,  0.0000,  1.5000)
  13 Cr    11.003970    5.492271    1.641223    ( 0.0000,  0.0000,  0.0000)
  14 Fe     1.721598    3.291022    1.671735    ( 0.0000,  0.0000,  2.0000)
  15 Cr     1.673205    4.943744   10.605938    ( 0.0000,  0.0000,  0.0000)
  16 Co     3.569762    3.575432   10.820937    ( 0.0000,  0.0000,  2.1000)
  17 Cr     3.481912    5.373810    1.657988    ( 0.0000,  0.0000,  0.0000)
  18 Co     5.624118    3.392286    2.075758    ( 0.0000,  0.0000,  2.1000)
  19 Fe     5.380270    5.809846    0.214791    ( 0.0000,  0.0000,  2.0000)
  20 Cr     7.137596    3.555973    0.069918    ( 0.0000,  0.0000,  0.0000)
  21 Fe     6.941298    5.540936    1.816227    ( 0.0000,  0.0000,  2.0000)
  22 Co     8.854418    3.587648    2.011063    ( 0.0000,  0.0000,  2.1000)
  23 Al     8.904187    5.220138   10.871200    ( 0.0000,  0.0000,  0.0000)
  24 Ni    10.596996    7.089810   10.610541    ( 0.0000,  0.0000,  1.5000)
  25 Cr    10.709610    8.883288    1.842847    ( 0.0000,  0.0000,  0.0000)
  26 Cr     1.821943    7.098127    1.834327    ( 0.0000,  0.0000,  0.0000)
  27 Al     1.491210    8.820525   -0.008328    ( 0.0000,  0.0000,  0.0000)
  28 Cr     3.436997    7.164117    0.151453    ( 0.0000,  0.0000,  0.0000)
  29 Cr     3.508762    9.206971    2.046648    ( 0.0000,  0.0000,  0.0000)
  30 Fe     5.418372    7.450111    1.948583    ( 0.0000,  0.0000,  2.0000)
  31 Fe     5.476252    8.832235   -0.087562    ( 0.0000,  0.0000,  2.0000)
  32 Ni     7.338200    7.372746    0.209939    ( 0.0000,  0.0000,  1.5000)
  33 Cr     7.324114    8.988074    1.606381    ( 0.0000,  0.0000,  0.0000)
  34 Co     9.056417    7.455360    1.723844    ( 0.0000,  0.0000,  2.1000)
  35 Ni     9.041326    8.932583   10.698314    ( 0.0000,  0.0000,  1.5000)
  36 Ni     0.187017   10.750908    3.376035    ( 0.0000,  0.0000,  1.5000)
  37 Co    11.010891    1.501967    4.994321    ( 0.0000,  0.0000,  2.1000)
  38 Co     1.554414   10.605404    5.477506    ( 0.0000,  0.0000,  2.1000)
  39 Cr     1.941692    1.604853    3.579651    ( 0.0000,  0.0000,  0.0000)
  40 Fe     3.807943   10.919302    3.617230    ( 0.0000,  0.0000,  2.0000)
  41 Al     3.603865    1.487624    5.450085    ( 0.0000,  0.0000,  0.0000)
  42 Fe     5.698282   10.891830    5.801494    ( 0.0000,  0.0000,  2.0000)
  43 Ni     5.691336    1.767457    3.603129    ( 0.0000,  0.0000,  1.5000)
  44 Cr     7.447567    0.061306    3.674096    ( 0.0000,  0.0000,  0.0000)
  45 Co     7.093908    1.954313    5.254578    ( 0.0000,  0.0000,  2.1000)
  46 Co     9.013709   11.147544    5.582827    ( 0.0000,  0.0000,  2.1000)
  47 Ni     8.983473    1.617209    3.531481    ( 0.0000,  0.0000,  1.5000)
  48 Ni    10.776759    3.513813    3.220863    ( 0.0000,  0.0000,  1.5000)
  49 Cr    10.723796    5.461859    5.206936    ( 0.0000,  0.0000,  0.0000)
  50 Co     1.571740    3.317304    5.434856    ( 0.0000,  0.0000,  2.1000)
  51 Al     1.628926    5.240142    3.520987    ( 0.0000,  0.0000,  0.0000)
  52 Al     3.496712    3.376971    3.208808    ( 0.0000,  0.0000,  0.0000)
  53 Fe     3.552549    5.460722    5.454326    ( 0.0000,  0.0000,  2.0000)
  54 Fe     5.167625    3.510328    5.171499    ( 0.0000,  0.0000,  2.0000)
  55 Fe     5.222825    5.551833    3.572274    ( 0.0000,  0.0000,  2.0000)
  56 Ni     7.260814    3.647602    3.782375    ( 0.0000,  0.0000,  1.5000)
  57 Ni     6.839336    5.636264    5.238178    ( 0.0000,  0.0000,  1.5000)
  58 Co     9.302491    3.378799    5.130817    ( 0.0000,  0.0000,  2.1000)
  59 Co     8.938843    5.338683    3.438477    ( 0.0000,  0.0000,  2.1000)
[...]
  93 Cr     6.996916    5.548808    9.502630    ( 0.0000,  0.0000,  0.0000)
  94 Fe     9.125730    3.657502    9.113263    ( 0.0000,  0.0000,  2.0000)
  95 Cr     9.293022    5.602771    7.157929    ( 0.0000,  0.0000,  0.0000)
  96 Ni    10.936293    7.403579    7.149253    ( 0.0000,  0.0000,  1.5000)
  97 Fe    10.914918    9.042184    8.887881    ( 0.0000,  0.0000,  2.0000)
  98 Co     1.894846    7.109701    9.044873    ( 0.0000,  0.0000,  2.1000)
  99 Ni     1.935570    9.216341    7.350021    ( 0.0000,  0.0000,  1.5000)
 100 Cr     3.559964    7.350108    7.311662    ( 0.0000,  0.0000,  0.0000)
 101 Al     3.414966    8.914974    9.091261    ( 0.0000,  0.0000,  0.0000)
 102 Cr     5.214491    7.227223    9.207327    ( 0.0000,  0.0000,  0.0000)
 103 Co     5.430422    8.862069    7.341983    ( 0.0000,  0.0000,  2.1000)
 104 Al     7.304754    7.018552    7.194014    ( 0.0000,  0.0000,  0.0000)
 105 Ni     7.228029    9.008280    8.872691    ( 0.0000,  0.0000,  1.5000)
 106 Co     9.177183    7.191349    9.059033    ( 0.0000,  0.0000,  2.1000)
 107 Fe     8.981970    8.921479    7.208858    ( 0.0000,  0.0000,  2.0000)

Unit cell:
           periodic     x           y           z      points  spacing
  1. axis:    yes   10.820500    0.000000    0.000000    48     0.2254
  2. axis:    yes    0.000000   10.820500    0.000000    48     0.2254
  3. axis:    yes    0.000000    0.000000   10.820500    48     0.2254

  Lengths:  10.820500  10.820500  10.820500
  Angles:   90.000000  90.000000  90.000000

Effective grid spacing dv^(1/3) = 0.2254

     iter     time        total  log10-change:  magmom
                         energy  eigst   dens
iter:   1 01:06:29  -973.994853                  +129.0867
iter:   2 01:08:06  -865.380764  -0.21  -1.18    +71.1898
iter:   3 01:09:41  -852.488627  -0.84  -1.20    +60.3783
iter:   4 01:11:16  -833.071826  -1.23  -1.27    +56.6371
iter:   5 01:12:53  -823.770794  -1.54  -1.29    +54.1284
iter:   6 01:14:30  -820.431477  -1.39  -1.34    +54.8196
iter:   7 01:16:06  -819.130605  -1.29  -1.42    +53.9146
iter:   8 01:17:41  -809.943424  -1.63  -1.50    +53.9106
iter:   9 01:19:17  -809.021480  -1.87  -1.65    +55.2294
iter:  10 01:20:52  -806.420026  -2.36  -1.71    +55.7381
iter:  11 01:22:26  -806.924485  -2.53  -1.80    +57.4652
iter:  12 01:24:00  -808.828650  -2.34  -1.84    +58.6210
iter:  13 01:25:35  -807.704065  -2.38  -1.83    +59.5004
iter:  14 01:27:09  -807.979988  -2.54  -1.94    +60.1539
iter:  15 01:28:44  -807.789174  -2.65  -1.97    +60.5711
iter:  16 01:30:21  -807.453368  -2.84  -2.02    +61.0869
iter:  17 01:31:55  -807.243874  -3.13  -2.07    +61.4554
iter:  18 01:33:31  -807.426446  -3.03  -2.16    +61.8063
iter:  19 01:35:08  -807.657513  -3.00  -2.22    +61.8667
iter:  20 01:36:46  -807.532607  -3.07  -2.24    +61.9817
iter:  21 01:38:23  -807.362656  -3.30  -2.29    +62.0395
iter:  22 01:40:00  -807.374132  -3.44  -2.40    +61.9827
iter:  23 01:41:36  -807.407055c -3.52  -2.46    +61.9384
iter:  24 01:43:13  -807.434006c -3.62  -2.51    +61.8704
iter:  25 01:44:51  -807.478339c -3.66  -2.54    +61.7636
iter:  26 01:46:27  -807.494088c -3.87  -2.57    +61.7189
iter:  27 01:48:03  -807.518487c -3.94  -2.59    +61.5704
iter:  28 01:49:41  -807.534930c -4.03  -2.63    +61.4881
iter:  29 01:51:18  -807.567206c -4.10  -2.68    +61.3800
iter:  30 01:52:56  -807.595516c -4.14  -2.71    +61.2346
iter:  31 01:54:16  -807.625581c -4.19  -2.74    +61.1814
iter:  32 01:55:32  -807.660575c -4.20  -2.78    +61.0701
iter:  33 01:56:47  -807.667350c -4.37  -2.79    +60.9523
iter:  34 01:58:02  -807.694675c -4.39  -2.84    +60.8850
iter:  35 01:59:18  -807.745144c -4.05  -2.87    +60.7638
iter:  36 02:00:33  -807.771386c -4.17  -2.88    +60.6803
iter:  37 02:01:48  -807.804765c -4.05  -2.91    +60.7093
iter:  38 02:03:04  -807.840446c -3.87  -2.90    +60.8550
iter:  39 02:04:19  -807.862272c -4.42  -2.84    +61.0055
iter:  40 02:05:35  -807.853254c -4.43  -2.82    +60.9908
iter:  41 02:06:50  -807.846857c -4.37  -2.90    +61.1601
iter:  42 02:08:05  -807.845505c -4.79  -2.98    +61.2890
iter:  43 02:09:21  -807.848576c -4.48  -3.00    +61.3680
iter:  44 02:10:36  -807.846299c -4.78  -2.99    +61.3652
iter:  45 02:11:52  -807.842599c -4.85  -3.01    +61.3116
iter:  46 02:13:07  -807.843158c -5.22  -3.08    +61.3358
iter:  47 02:14:23  -807.846515c -4.69  -3.10    +61.3572
iter:  48 02:15:38  -807.842445c -4.90  -3.19    +61.3545
iter:  49 02:16:54  -807.843693c -5.19  -3.24    +61.3905
iter:  50 02:18:09  -807.843772c -5.24  -3.33    +61.4365
iter:  51 02:19:24  -807.845920c -5.19  -3.34    +61.4579
iter:  52 02:20:40  -807.844274c -5.24  -3.35    +61.4688
iter:  53 02:21:55  -807.844291c -5.59  -3.49    +61.4757
iter:  54 02:23:10  -807.844941c -5.70  -3.50    +61.5046
iter:  55 02:24:26  -807.844435c -5.78  -3.60    +61.5050
iter:  56 02:25:41  -807.845195c -5.82  -3.61    +61.5247
iter:  57 02:26:57  -807.845253c -5.94  -3.63    +61.5427
iter:  58 02:28:12  -807.846036c -5.83  -3.73    +61.5561
iter:  59 02:29:28  -807.845950c -5.92  -3.70    +61.5579
iter:  60 02:30:43  -807.845856c -6.02  -3.76    +61.5566
iter:  61 02:31:58  -807.846753c -6.12  -3.82    +61.5747
iter:  62 02:33:14  -807.846500c -6.18  -3.82    +61.5773
iter:  63 02:34:37  -807.846783c -6.24  -3.91    +61.5859
iter:  64 02:36:00  -807.847020c -6.25  -3.91    +61.5933
iter:  65 02:37:21  -807.847194c -6.39  -3.93    +61.6026
iter:  66 02:38:44  -807.847827c -6.25  -4.04c   +61.6102
iter:  67 02:40:07  -807.847449c -6.56  -3.95    +61.6084
iter:  68 02:41:29  -807.848009c -6.50  -4.09c   +61.6201
iter:  69 02:42:52  -807.848047c -6.77  -4.07c   +61.6205
iter:  70 02:44:14  -807.848252c -6.59  -4.14c   +61.6226
iter:  71 02:45:37  -807.848404c -6.63  -4.18c   +61.6246
iter:  72 02:47:00  -807.848571c -6.80  -4.15c   +61.6291
iter:  73 02:48:22  -807.848988c -6.64  -4.28c   +61.6358
iter:  74 02:49:45  -807.848870c -6.93  -4.23c   +61.6336
iter:  75 02:51:08  -807.849103c -6.82  -4.26c   +61.6385
iter:  76 02:52:31  -807.849271c -6.97  -4.31c   +61.6397
iter:  77 02:53:54  -807.849474c -6.88  -4.33c   +61.6417
iter:  78 02:55:17  -807.849656c -6.82  -4.35c   +61.6418
iter:  79 02:56:40  -807.849842c -6.86  -4.35c   +61.6427
iter:  80 02:58:02  -807.850504c -5.95  -4.29c   +61.6549
iter:  81 02:59:25  -807.850874c -6.22  -4.22c   +61.6705
iter:  82 03:00:48  -807.850871c -6.81  -4.24c   +61.6677
iter:  83 03:02:11  -807.850933c -7.03  -4.35c   +61.6636
iter:  84 03:03:34  -807.851144c -6.56  -4.37c   +61.6569
iter:  85 03:04:56  -807.851167c -6.78  -4.35c   +61.6585
iter:  86 03:06:19  -807.851179c -7.30  -4.40c   +61.6537
iter:  87 03:07:42  -807.851189c -7.53c -4.45c   +61.6494

Converged after 87 iterations.

Dipole moment: (6.970965, 26.310624, -7.091247) |e|*Ang

Total magnetic moment: (0.000000, 0.000000, 61.649375)
Local magnetic moments:
   0 Fe ( 0.000000,  0.000000,  2.369211)
   1 Cr ( 0.000000,  0.000000,  0.846938)
   2 Ni ( 0.000000,  0.000000, -0.016429)
   3 Cr ( 0.000000,  0.000000, -1.225187)
   4 Al ( 0.000000,  0.000000, -0.017227)
   5 Fe ( 0.000000,  0.000000,  1.738970)
   6 Ni ( 0.000000,  0.000000,  0.065146)
   7 Al ( 0.000000,  0.000000, -0.024719)
   8 Al ( 0.000000,  0.000000, -0.004080)
   9 Co ( 0.000000,  0.000000,  1.130295)
  10 Ni ( 0.000000,  0.000000,  0.134458)
  11 Co ( 0.000000,  0.000000,  1.261289)
  12 Ni ( 0.000000,  0.000000,  0.309718)
  13 Cr ( 0.000000,  0.000000,  1.616605)
  14 Fe ( 0.000000,  0.000000, -0.579483)
  15 Cr ( 0.000000,  0.000000, -1.471118)
  16 Co ( 0.000000,  0.000000,  0.913136)
  17 Cr ( 0.000000,  0.000000,  0.631553)
  18 Co ( 0.000000,  0.000000,  1.181040)
  19 Fe ( 0.000000,  0.000000,  0.965545)
  20 Cr ( 0.000000,  0.000000, -2.147948)
  21 Fe ( 0.000000,  0.000000,  2.356278)
  22 Co ( 0.000000,  0.000000,  1.361130)
  23 Al ( 0.000000,  0.000000, -0.022705)
  24 Ni ( 0.000000,  0.000000,  0.342644)
  25 Cr ( 0.000000,  0.000000, -0.341930)
  26 Cr ( 0.000000,  0.000000, -0.776520)
  27 Al ( 0.000000,  0.000000, -0.020050)
  28 Cr ( 0.000000,  0.000000, -0.138268)
  29 Cr ( 0.000000,  0.000000, -1.661968)
  30 Fe ( 0.000000,  0.000000,  1.690989)
  31 Fe ( 0.000000,  0.000000,  1.057368)
  32 Ni ( 0.000000,  0.000000,  0.256885)
  33 Cr ( 0.000000,  0.000000,  0.627828)
  34 Co ( 0.000000,  0.000000,  0.442330)
  35 Ni ( 0.000000,  0.000000,  0.303678)
  36 Ni ( 0.000000,  0.000000,  0.095817)
  37 Co ( 0.000000,  0.000000,  1.379816)
  38 Co ( 0.000000,  0.000000,  1.231149)
  39 Cr ( 0.000000,  0.000000, -1.330666)
  40 Fe ( 0.000000,  0.000000,  1.904170)
  41 Al ( 0.000000,  0.000000, -0.043442)
  42 Fe ( 0.000000,  0.000000,  2.181772)
  43 Ni ( 0.000000,  0.000000,  0.495456)
  44 Cr ( 0.000000,  0.000000, -1.050752)
  45 Co ( 0.000000,  0.000000,  1.454429)
  46 Co ( 0.000000,  0.000000,  1.522655)
  47 Ni ( 0.000000,  0.000000,  0.307356)
  48 Ni ( 0.000000,  0.000000,  0.321972)
  49 Cr ( 0.000000,  0.000000,  1.508069)
  50 Co ( 0.000000,  0.000000,  1.288432)
  51 Al ( 0.000000,  0.000000, -0.016272)
  52 Al ( 0.000000,  0.000000, -0.024617)
  53 Fe ( 0.000000,  0.000000,  2.172519)
  54 Fe ( 0.000000,  0.000000,  2.318084)
  55 Fe ( 0.000000,  0.000000,  2.235441)
  56 Ni ( 0.000000,  0.000000,  0.602612)
  57 Ni ( 0.000000,  0.000000,  0.159625)
  58 Co ( 0.000000,  0.000000,  1.519056)
  59 Co ( 0.000000,  0.000000,  1.455379)
[...]
  93 Cr ( 0.000000,  0.000000,  1.694146)
  94 Fe ( 0.000000,  0.000000,  2.074375)
  95 Cr ( 0.000000,  0.000000, -1.831249)
  96 Ni ( 0.000000,  0.000000,  0.201958)
  97 Fe ( 0.000000,  0.000000,  2.433104)
  98 Co ( 0.000000,  0.000000,  0.553595)
  99 Ni ( 0.000000,  0.000000,  0.304003)
 100 Cr ( 0.000000,  0.000000,  1.131583)
 101 Al ( 0.000000,  0.000000, -0.011270)
 102 Cr ( 0.000000,  0.000000, -1.121448)
 103 Co ( 0.000000,  0.000000,  0.466806)
 104 Al ( 0.000000,  0.000000, -0.020544)
 105 Ni ( 0.000000,  0.000000,  0.266234)
 106 Co ( 0.000000,  0.000000,  1.144072)
 107 Fe ( 0.000000,  0.000000,  2.180144)

Energy contributions relative to reference atoms: (reference = -3382523.201499)

Kinetic:       +458.794103
Potential:     -419.748614
External:        +0.000000
XC:            -877.880741
Entropy (-ST):   -4.195581
Local:          +33.081854
Free energy:   -809.948979
Extrapolated:  -807.851189

Spin contamination: 25.156909 electrons
Showing only first 2 kpts
                      Up                     Down
 Kpt  Band  Eigenvalues  Occupancy  Eigenvalues  Occupancy
  0   470      9.15992    0.99634     10.09600    0.02290
  0   471      9.17097    0.99592     10.11622    0.01879
  0   472      9.18803    0.99516     10.12780    0.01677
  0   473      9.19779    0.99467     10.14126    0.01469

  1   470      9.16378    0.99620     10.10876    0.02021
  1   471      9.16940    0.99598     10.11434    0.01914
  1   472      9.18415    0.99534     10.12343    0.01750
  1   473      9.20547    0.99424     10.14260    0.01449

Fermi level: 9.72066

No gap

Forces in eV/Ang:
  0 Fe    0.41236    0.78743   -0.94796
  1 Cr   -0.65362   -0.04733   -1.10917
  2 Ni   -0.35005    0.35616   -0.32978
  3 Cr   -0.67382   -0.00406    0.29497
  4 Al   -0.36932    0.28564   -0.69127
  5 Fe    0.92488    1.27742    0.23714
  6 Ni   -0.60556    0.38948   -0.10232
  7 Al   -1.58060    1.09736    0.30702
  8 Al    0.71045    1.37007   -0.66271
  9 Co    2.38808    0.36096   -0.66246
 10 Ni    0.35871   -0.07358   -0.45856
 11 Co   -1.35219   -1.83982    0.50073
 12 Ni    2.13774    0.55488    0.54058
 13 Cr   -1.03949   -0.42349   -0.13943
 14 Fe    0.26636    0.84963   -0.72215
 15 Cr    0.29988    1.77825    0.71684
 16 Co    0.96678    0.01603    0.73883
 17 Cr   -0.10771   -0.64619   -0.81781
 18 Co   -1.08625    2.01385   -1.98040
 19 Fe   -0.84004   -1.40500    0.19535
 20 Cr    0.06243    0.70445    0.01556
 21 Fe    1.42573   -0.99606    0.76795
 22 Co   -0.47978   -0.77012   -1.85475
 23 Al    1.52511    1.83214    1.56937
 24 Ni    2.44786    0.63732    2.96045
 25 Cr   -0.17719    0.33441    0.31433
 26 Cr   -2.25134    0.53547   -1.94956
 27 Al    0.69821    0.54785    0.27859
 28 Cr   -0.20662    0.04614    0.46015
 29 Cr    1.40206   -0.91614   -0.39357
 30 Fe    0.14509    0.29998   -0.80601
 31 Fe   -0.78365    1.07135    0.33874
 32 Ni   -0.68165   -1.91258   -2.25774
 33 Cr   -0.45131    0.43085    3.21869
 34 Co    0.35376   -1.60328    1.70214
 35 Ni    0.89546    0.65888    0.12711
 36 Ni   -1.35049   -0.95064    0.30122
 37 Co   -1.23905    1.92239    1.85588
 38 Co    1.65227   -0.05915   -0.46972
 39 Cr   -1.31883   -0.65385   -0.99502
 40 Fe   -0.46398   -0.59126   -0.63891
 41 Al   -0.16196    1.11809    0.87499
 42 Fe   -0.79913   -0.22381   -1.33938
 43 Ni   -2.80569   -1.76236    0.11195
 44 Cr   -1.73257   -1.98822    0.42917
 45 Co    2.03132   -0.70101    2.57626
 46 Co   -0.54218   -1.46561   -0.87641
 47 Ni    1.22661    1.36587   -0.18875
 48 Ni    0.36589    0.67356    2.12259
 49 Cr   -0.68510   -0.98261    1.26833
 50 Co    1.16162    0.81308   -0.57904
 51 Al    1.03710   -0.54965    0.89859
 52 Al    1.47442    0.86777    1.45367
 53 Fe   -0.22668   -0.51798   -0.47560
 54 Fe   -0.03951    1.26132    0.31804
 55 Fe    0.43965   -1.59314   -0.53664
 56 Ni   -0.04940    0.77597   -0.48724
 57 Ni    1.22301   -0.17205    0.07220
 58 Co   -0.13428    0.90505    0.75109
 59 Co    0.37745    1.28737    0.48565
[...]
 93 Cr    0.01785   -0.61970   -2.72177
 94 Fe   -0.04786    0.04570   -1.98977
 95 Cr   -0.04185   -0.87812   -0.43438
 96 Ni   -0.22827   -0.97727    0.47644
 97 Fe   -0.43053    0.01313    0.02103
 98 Co   -0.71405   -0.09887   -0.22398
 99 Ni   -0.50619   -0.84322   -1.17043
100 Cr   -0.02865   -1.63097   -0.64436
101 Al    1.59670    0.76715    0.24550
102 Cr    1.27770   -0.36730   -1.18734
103 Co   -0.04529    0.90072    0.45992
104 Al   -1.27392    0.34571    1.00450
105 Ni   -0.05466   -1.11360    1.21762
106 Co   -2.50041   -0.14082   -2.18355
107 Fe    0.49677   -0.52048   -0.01063

Date: Fri Apr 14 03:08:01 2023