User:   c.zeng@d0061
Date:   Sat Apr 15 23:22:28 2023
Arch:   x86_64
Pid:    263376
CWD:    /home/c.zeng/projects/hea-corrosion/hea-mlp/data-curation/bulk-mcmc/dft-jobs/92
Python: 3.8.1
gpaw:   /home/c.zeng/usr/installs/gpaw/source/gpaw-22.8.0/gpaw
_gpaw:  /home/c.zeng/usr/installs/gpaw/source/gpaw-22.8.0/
        _gpaw.cpython-38-x86_64-linux-gnu.so
ase:    /home/c.zeng/.local/lib/python3.8/site-packages/ase-3.22.1-py3.8.egg/ase (version 3.22.1)
numpy:  /home/c.zeng/.local/lib/python3.8/site-packages/numpy (version 1.24.2)
scipy:  /home/c.zeng/.local/lib/python3.8/site-packages/scipy (version 1.10.1)
units:  Angstrom and eV
cores: 30
OpenMP: False
OMP_NUM_THREADS: 1

Input parameters:
  convergence: {energy: 0.0001}
  kpts: [2 2 2]
  maxiter: 666
  mode: {ecut: 350.0,
         name: pw}
  occupations: {fixmagmom: False,
                name: fermi-dirac,
                width: 0.1}
  spinpol: True
  xc: PBE

System changes: positions, numbers, cell, pbc, initial_charges, initial_magmoms

Initialize ...

species:
  Cr:
    name: Chromium
    id: 33f258bda2ca9f93018e70263a35547b
    Z: 24.0
    valence: 6
    core: 18
    charge: 0.0
    file: /home/c.zeng/usr/data/gpaw-setups-0.9.20000/Cr.PBE.gz
    compensation charges: {type: gauss,
                           rc: 0.35,
                           lmax: 2}
    cutoffs: {filter: 2.14,
              core: 3.04}
    valence states:
      #              energy  rcut
      - 4s(1.00)    -4.007   1.164
      - 4p(0.00)    -0.989   1.217
      - 3d(5.00)    -2.913   1.111
      -  s          23.205   1.164
      -  p          26.223   1.217
      -  d          24.299   1.111

    # Using partial waves for Cr as LCAO basis

  Ni:
    name: Nickel
    id: 0d9f38a9d6e76a2886f07bb4381f212b
    Z: 28.0
    valence: 16
    core: 12
    charge: 0.0
    file: /home/c.zeng/usr/data/gpaw-setups-0.9.20000/Ni.PBE.gz
    compensation charges: {type: gauss,
                           rc: 0.36,
                           lmax: 2}
    cutoffs: {filter: 2.14,
              core: 1.98}
    valence states:
      #              energy  rcut
      - 4s(2.00)    -5.642   1.164
      - 3p(6.00)   -71.394   1.207
      - 4p(0.00)    -1.226   1.207
      - 3d(8.00)    -8.875   1.138
      -  s          21.570   1.164
      -  d          18.337   1.138

[...]

  Fe:
    name: Iron
    id: 37abbd8d6c3c35915a9b583b742da910
    Z: 26.0
    valence: 8
    core: 18
    charge: 0.0
    file: /home/c.zeng/usr/data/gpaw-setups-0.9.20000/Fe.PBE.gz
    compensation charges: {type: gauss,
                           rc: 0.33,
                           lmax: 2}
    cutoffs: {filter: 2.06,
              core: 2.67}
    valence states:
      #              energy  rcut
      - 4s(2.00)    -5.291   1.164
      - 4p(0.00)    -1.326   1.058
      - 3d(6.00)    -7.505   1.058
      -  s          21.920   1.164
      -  p          25.885   1.058
      -  d          19.706   1.058

[...]

  Co:
    name: Cobalt
    id: 339d20d5b0b93d2de9531a1bee871d91
    Z: 27.0
    valence: 9
    core: 18
    charge: 0.0
    file: /home/c.zeng/usr/data/gpaw-setups-0.9.20000/Co.PBE.gz
    compensation charges: {type: gauss,
                           rc: 0.32,
                           lmax: 2}
    cutoffs: {filter: 1.87,
              core: 2.55}
    valence states:
      #              energy  rcut
      - 4s(2.00)    -5.469   1.005
      - 4p(0.00)    -1.277   1.058
      - 3d(7.00)    -8.205   1.005
      -  s          21.742   1.005
      -  p          25.934   1.058
      -  d          19.007   1.005

[...]

  Al:
    name: Aluminium
    id: 0292cae29f5d6237e50f6abdd43a7bdd
    Z: 13.0
    valence: 3
    core: 10
    charge: 0.0
    file: /home/c.zeng/usr/data/gpaw-setups-0.9.20000/Al.PBE.gz
    compensation charges: {type: gauss,
                           rc: 0.34,
                           lmax: 2}
    cutoffs: {filter: 1.91,
              core: 2.36}
    valence states:
      #              energy  rcut
      - 3s(2.00)    -7.753   1.085
      - 3p(1.00)    -2.712   1.085
      -  s          19.459   1.085
      -  p          24.499   1.085
      -  d           0.000   1.085

    # Using partial waves for Al as LCAO basis

Reference energy: -3699400.456887  # eV

Spin-polarized calculation.
Magnetic moment: 143.500000

Convergence criteria:
 Maximum [total energy] change in last 3 cyles: 0.0001 eV / electron
 Maximum integral of absolute [dens]ity change: 0.0001 electrons / valence electron
 Maximum integral of absolute [eigenst]ate change: 4e-08 eV^2 / valence electron
 Maximum number of scf [iter]ations: 666
 (Square brackets indicate name in SCF output, whereas a 'c' in
 the SCF output indicates the quantity has converged.)

Symmetries present (total): 1

  ( 1  0  0)
  ( 0  1  0)
  ( 0  0  1)

8 k-points: 2 x 2 x 2 Monkhorst-Pack grid
4 k-points in the irreducible part of the Brillouin zone
       k-points in crystal coordinates                weights
   0:     0.25000000   -0.25000000   -0.25000000          2/8
   1:     0.25000000   -0.25000000    0.25000000          2/8
   2:     0.25000000    0.25000000   -0.25000000          2/8
   3:     0.25000000    0.25000000    0.25000000          2/8

Wave functions: Plane wave expansion
  Cutoff energy: 350.000 eV
  Number of coefficients (min, max): 18052, 18052
  Pulay-stress correction: 0.000000 eV/Ang^3 (de/decut=0.000000)
  Using FFTW library
  ScaLapack parameters: grid=1x1, blocksize=None
  Wavefunction extrapolation:
    Improved wavefunction reuse through dual PAW basis

Occupation numbers: Fermi-Dirac:
  width: 0.1000  # eV

Eigensolver
   Davidson(niter=2)

Densities:
  Coarse grid: 48*48*48 grid
  Fine grid: 96*96*96 grid
  Total Charge: 0.000000

Density mixing:
  Method: difference
  Backend: pulay
  Linear mixing parameter: 0.05
  old densities: 5
  Damping of long wavelength oscillations: 50

Hamiltonian:
  XC and Coulomb potentials evaluated on a 96*96*96 grid
  Using the PBE Exchange-Correlation functional
  External potential:
    NoExternalPotential

XC parameters: PBE with 2 nearest neighbor stencil

Total number of cores used: 30
Parallelization over k-points: 2
Domain decomposition: 5 x 3 x 1

Number of atoms: 108
Number of atomic orbitals: 1025
Number of bands in calculation: 703
Number of valence electrons: 1020
Bands to converge: occupied

... initialized

Initializing position-dependent things.

Density initialized from atomic densities
Creating initial wave functions:
  703 bands from LCAO basis set

        Cr------------------------.
       /|  Co                Co   |
      Ni|   Cr         Ni         |
     / Fe      Fe       Al        |
    /   CCo      Cr       Fe      |
   /e   | CoNi     CoAl    CrNi   |
  /  FeNi  NiCo     CrNiCo        |
 *    FeFe  FeCoNi     CoAl       |
 |     CoFeCr  CoFe Cr  CrFeCr    |
 | Fe   NiNiCrCo NiCrCrFe  Ni     |
 |   CoNi  NiAlCr   CrCrNi   Fe   |
 |    FeCr  FeFeCoNi CoFeNi   Cr  |
 |     NiFeFe  Ni CrNi  CoFeFe    |
 |      .-CoNiCo-FeCrCrCo--CoCr---.
 |   CrCo    CoAl   CrNiFe       /
 |    / Cr    CrFe       Ni     /
 |   /            Ni           /
 |Ni/      Co       Co        /
 |/            Cr           /
 *----------------Ni-------*

Positions:
   0 Cr     0.005316   -0.016350   10.639749    ( 0.0000,  0.0000,  0.0000)
   1 Ni    10.672340    1.801276    1.786848    ( 0.0000,  0.0000,  0.0000)
   2 Fe     1.795727   10.625972    1.782259    ( 0.0000,  0.0000,  0.0000)
   3 Ni     1.780787    1.796175   10.644605    ( 0.0000,  0.0000,  2.1000)
   4 Fe     3.523539   -0.014558    0.017268    ( 0.0000,  0.0000,  2.0000)
   5 Co     3.522568    1.781672    1.746648    ( 0.0000,  0.0000,  0.0000)
   6 Co     5.320952   10.642342    1.763136    ( 0.0000,  0.0000,  1.5000)
   7 Cr     5.342082    1.828767    0.007462    ( 0.0000,  0.0000,  2.0000)
   8 Ni     7.144895    0.019195    0.012033    ( 0.0000,  0.0000,  0.0000)
   9 Co     7.143497    1.798064    1.764939    ( 0.0000,  0.0000,  2.1000)
  10 Cr     8.891362   10.651627    1.788353    ( 0.0000,  0.0000,  1.5000)
  11 Co     8.888779    1.804777   10.642609    ( 0.0000,  0.0000,  2.0000)
  12 Fe     0.008694    3.581540   10.650250    ( 0.0000,  0.0000,  2.1000)
  13 Cr     0.018979    5.332745    1.789751    ( 0.0000,  0.0000,  2.1000)
  14 Cr     1.778129    3.600941    1.760019    ( 0.0000,  0.0000,  2.0000)
  15 Co     1.790423    5.343267   -0.017766    ( 0.0000,  0.0000,  2.0000)
  16 Ni     3.542802    3.589864   -0.015614    ( 0.0000,  0.0000,  2.0000)
  17 Co     3.526837    5.358538    1.765793    ( 0.0000,  0.0000,  2.0000)
  18 Fe     5.336650    3.606501    1.755815    ( 0.0000,  0.0000,  0.0000)
  19 Cr     5.300399    5.323642   -0.012797    ( 0.0000,  0.0000,  2.1000)
  20 Al     7.122858    3.584816   10.659524    ( 0.0000,  0.0000,  2.0000)
  21 Ni     7.120500    5.315168    1.805502    ( 0.0000,  0.0000,  1.5000)
  22 Ni     8.892034    3.590952    1.773146    ( 0.0000,  0.0000,  2.1000)
  23 Fe     8.925340    5.301487   -0.003100    ( 0.0000,  0.0000,  0.0000)
  24 Ni     0.023055    7.096680   -0.007939    ( 0.0000,  0.0000,  0.0000)
  25 Ni     0.019141    8.871245    1.787510    ( 0.0000,  0.0000,  1.5000)
  26 Co     1.784372    7.104567    1.776443    ( 0.0000,  0.0000,  2.0000)
  27 Co     1.779944    8.867628   10.659406    ( 0.0000,  0.0000,  1.5000)
  28 Cr     3.547785    7.097897    0.009215    ( 0.0000,  0.0000,  2.1000)
  29 Ni     3.541137    8.858109    1.788225    ( 0.0000,  0.0000,  2.1000)
  30 Cr     5.295105    7.099391    1.787894    ( 0.0000,  0.0000,  2.1000)
  31 Cr     5.303685    8.873828    0.029898    ( 0.0000,  0.0000,  0.0000)
  32 Ni     7.106883    7.088719   10.645159    ( 0.0000,  0.0000,  0.0000)
  33 Co     7.111055    8.901137    1.809472    ( 0.0000,  0.0000,  0.0000)
  34 Co     8.939384    7.093404    1.799238    ( 0.0000,  0.0000,  0.0000)
  35 Co     8.919972    8.915853   10.664881    ( 0.0000,  0.0000,  0.0000)
  36 Ni    10.679704   10.658873    3.584517    ( 0.0000,  0.0000,  2.0000)
  37 Fe    10.670921    1.796367    5.340289    ( 0.0000,  0.0000,  2.1000)
  38 Fe     1.770350   10.649001    5.343491    ( 0.0000,  0.0000,  0.0000)
  39 Co     1.791800    1.784671    3.584891    ( 0.0000,  0.0000,  2.0000)
  40 Ni     3.529718   10.626388    3.565234    ( 0.0000,  0.0000,  2.1000)
  41 Fe     3.535716    1.793465    5.367289    ( 0.0000,  0.0000,  1.5000)
  42 Co     5.311497    0.001574    5.366254    ( 0.0000,  0.0000,  1.5000)
  43 Al     5.332627    1.768055    3.580793    ( 0.0000,  0.0000,  0.0000)
  44 Ni     7.136966   10.673941    3.563804    ( 0.0000,  0.0000,  2.0000)
  45 Ni     7.136774    1.794126    5.358944    ( 0.0000,  0.0000,  2.1000)
  46 Co     8.925938   10.673621    5.347589    ( 0.0000,  0.0000,  2.0000)
  47 Fe     8.883827    1.779111    3.582404    ( 0.0000,  0.0000,  1.5000)
  48 Cr    -0.010038    3.572341    3.580996    ( 0.0000,  0.0000,  2.0000)
  49 Co    10.685573    5.328935    5.338550    ( 0.0000,  0.0000,  2.0000)
  50 Cr     1.784180    3.582949    5.348357    ( 0.0000,  0.0000,  1.5000)
  51 Fe     1.766326    5.339510    3.565255    ( 0.0000,  0.0000,  1.5000)
  52 Ni     3.522387    3.605007    3.574059    ( 0.0000,  0.0000,  0.0000)
  53 Al     3.543581    5.347343    5.347962    ( 0.0000,  0.0000,  2.1000)
  54 Co     5.333950    3.591678    5.360630    ( 0.0000,  0.0000,  2.0000)
  55 Cr     5.336458    5.346308    3.560132    ( 0.0000,  0.0000,  0.0000)
  56 Cr     7.143102    3.570089    3.572138    ( 0.0000,  0.0000,  2.1000)
  57 Cr     7.120265    5.347471    5.345689    ( 0.0000,  0.0000,  2.0000)
  58 Ni     8.888299    3.570665    5.342018    ( 0.0000,  0.0000,  1.5000)
  59 Fe     8.904573    5.339084    3.577453    ( 0.0000,  0.0000,  2.0000)
[...]
  93 Ni     7.108740    5.307762    8.854395    ( 0.0000,  0.0000,  1.5000)
  94 Al     8.907593    3.561296    8.890348    ( 0.0000,  0.0000,  2.1000)
  95 Fe     8.917806    5.336309    7.100224    ( 0.0000,  0.0000,  0.0000)
  96 Fe     0.016270    7.102027    7.111664    ( 0.0000,  0.0000,  2.0000)
  97 Fe     0.000822    8.895150    8.883817    ( 0.0000,  0.0000,  1.5000)
  98 Co     1.771182    7.105090    8.888608    ( 0.0000,  0.0000,  1.5000)
  99 Ni     1.775184    8.850318    7.108494    ( 0.0000,  0.0000,  2.0000)
 100 Co     3.530401    7.086478    7.104972    ( 0.0000,  0.0000,  1.5000)
 101 Fe     3.524841    8.851001    8.894798    ( 0.0000,  0.0000,  0.0000)
 102 Co     5.310654    7.102827    8.871128    ( 0.0000,  0.0000,  0.0000)
 103 Cr     5.290613    8.850286    7.104876    ( 0.0000,  0.0000,  0.0000)
 104 Co     7.129016    7.083330    7.142750    ( 0.0000,  0.0000,  2.1000)
 105 Al     7.143241    8.903186    8.854384    ( 0.0000,  0.0000,  2.0000)
 106 Cr     8.926504    7.115858    8.862313    ( 0.0000,  0.0000,  0.0000)
 107 Ni     8.932896    8.877648    7.127479    ( 0.0000,  0.0000,  1.5000)

Unit cell:
           periodic     x           y           z      points  spacing
  1. axis:    yes   10.671700    0.000000    0.000000    48     0.2223
  2. axis:    yes    0.000000   10.671700    0.000000    48     0.2223
  3. axis:    yes    0.000000    0.000000   10.671700    48     0.2223

  Lengths:  10.671700  10.671700  10.671700
  Angles:   90.000000  90.000000  90.000000

Effective grid spacing dv^(1/3) = 0.2223

     iter     time        total  log10-change:  magmom
                         energy  eigst   dens
iter:   1 23:28:46  -948.031345                  +143.1592
iter:   2 23:31:20  -989.383571  -0.38  -1.31    +107.9936
iter:   3 23:33:54  -894.479051  -0.85  -1.24    +79.1353
iter:   4 23:36:28  -874.052942  -1.44  -1.39    +65.5512
iter:   5 23:39:02  -873.324237  -1.91  -1.48    +57.3469
iter:   6 23:41:32  -877.226268  -1.87  -1.50    +53.6528
iter:   7 23:44:02  -870.530452  -1.82  -1.50    +52.4225
iter:   8 23:46:35  -869.901187  -1.78  -1.60    +51.8174
iter:   9 23:49:09  -874.999761  -1.76  -1.71    +51.6681
iter:  10 23:51:42  -869.393696  -2.03  -1.71    +51.1725
iter:  11 23:54:15  -868.797541  -2.34  -1.83    +51.3448
iter:  12 23:56:48  -869.442721  -2.42  -1.86    +51.7815
iter:  13 23:59:14  -867.691107  -2.65  -1.88    +51.9681
iter:  14 00:01:47  -868.183598  -2.78  -1.96    +52.7214
iter:  15 00:04:21  -869.680969  -2.66  -1.99    +53.4364
iter:  16 00:06:55  -870.033504  -2.51  -1.96    +54.0328
iter:  17 00:09:28  -870.254221  -2.49  -1.95    +54.6550
iter:  18 00:12:01  -870.359751  -2.56  -1.98    +54.8222
iter:  19 00:14:32  -869.392109  -2.60  -2.00    +55.5303
iter:  20 00:17:02  -868.937849  -3.01  -2.08    +56.1706
iter:  21 00:19:36  -869.289923  -3.08  -2.16    +57.1458
iter:  22 00:22:10  -869.436802  -3.11  -2.17    +57.6762
iter:  23 00:24:43  -869.493782  -3.25  -2.17    +58.3992
iter:  24 00:27:17  -869.844273  -3.23  -2.21    +59.4826
iter:  25 00:29:50  -870.651595  -2.86  -2.24    +59.8631
iter:  26 00:32:25  -870.296155  -3.02  -2.14    +60.4454
iter:  27 00:34:58  -870.698643  -2.93  -2.28    +61.0463
iter:  28 00:37:32  -870.742952  -2.99  -2.22    +61.5797
iter:  29 00:40:06  -870.465147  -3.14  -2.25    +61.7158
iter:  30 00:42:35  -870.334805  -3.44  -2.33    +61.8102
iter:  31 00:45:05  -870.322953  -3.57  -2.38    +62.2614
iter:  32 00:47:39  -870.324272c -4.03  -2.41    +62.3812
iter:  33 00:50:12  -870.476919  -3.64  -2.45    +62.6807
iter:  34 00:52:46  -870.659120  -3.54  -2.42    +62.6235
iter:  35 00:55:19  -870.757921  -3.34  -2.42    +62.6964
iter:  36 00:57:53  -870.896231  -3.19  -2.45    +62.6873
iter:  37 01:00:27  -870.900522  -3.21  -2.40    +62.5558
iter:  38 01:03:00  -870.657817  -3.41  -2.44    +62.7131
iter:  39 01:05:27  -870.576717  -3.68  -2.57    +62.5721
iter:  40 01:08:00  -870.512176  -4.29  -2.61    +62.6887
iter:  41 01:10:34  -870.532625c -4.63  -2.72    +62.6948
iter:  42 01:13:08  -870.597668c -4.10  -2.75    +62.7538
iter:  43 01:15:41  -870.614365c -4.16  -2.70    +62.7349
iter:  44 01:18:15  -870.659173c -3.83  -2.80    +62.6321
iter:  45 01:20:47  -870.682780c -3.77  -2.73    +62.6621
iter:  46 01:23:17  -870.652851c -3.87  -2.75    +62.6057
iter:  47 01:25:46  -870.599639c -4.28  -2.85    +62.6131
iter:  48 01:28:19  -870.597155c -4.53  -3.03    +62.6056
iter:  49 01:30:54  -870.591545c -5.22  -3.07    +62.5950
iter:  50 01:33:27  -870.602523c -5.10  -3.22    +62.5966
iter:  51 01:36:01  -870.608483c -5.16  -3.22    +62.5803
iter:  52 01:38:34  -870.623505c -4.71  -3.30    +62.5699
iter:  53 01:41:09  -870.620470c -5.00  -3.29    +62.5505
iter:  54 01:43:42  -870.622215c -5.10  -3.38    +62.5455
iter:  55 01:46:14  -870.623618c -5.39  -3.51    +62.5355
iter:  56 01:48:43  -870.626755c -5.46  -3.69    +62.5293
iter:  57 01:51:17  -870.630355c -5.57  -3.68    +62.5274
iter:  58 01:53:51  -870.634181c -5.58  -3.71    +62.5226
iter:  59 01:56:25  -870.649730c -4.57  -3.66    +62.5461
iter:  60 01:58:59  -870.659207c -4.62  -3.47    +62.6210
iter:  61 02:01:34  -870.672611c -4.32  -3.39    +62.7561
iter:  62 02:04:07  -870.674157c -5.16  -3.27    +62.7821
iter:  63 02:06:37  -870.676306c -5.52  -3.25    +62.8076
iter:  64 02:09:04  -870.677285c -5.28  -3.23    +62.8275
iter:  65 02:11:38  -870.671403c -5.17  -3.21    +62.8294
iter:  66 02:14:12  -870.680817c -4.72  -3.28    +62.8131
iter:  67 02:16:46  -870.675119c -4.72  -3.13    +62.8191
iter:  68 02:19:21  -870.669324c -4.94  -3.18    +62.7949
iter:  69 02:21:54  -870.665220c -5.34  -3.27    +62.7972
iter:  70 02:24:28  -870.668351c -5.39  -3.39    +62.7822
iter:  71 02:26:55  -870.666959c -5.49  -3.35    +62.8062
iter:  72 02:29:30  -870.666070c -5.29  -3.40    +62.8047
iter:  73 02:32:04  -870.668322c -5.22  -3.38    +62.7973
iter:  74 02:34:39  -870.666794c -5.41  -3.36    +62.8101
iter:  75 02:37:12  -870.666966c -5.35  -3.46    +62.8175
iter:  76 02:39:46  -870.665677c -5.50  -3.44    +62.8313
iter:  77 02:42:19  -870.664582c -5.59  -3.48    +62.8212
iter:  78 02:44:53  -870.665105c -5.86  -3.56    +62.8329
iter:  79 02:47:27  -870.664464c -6.01  -3.60    +62.8489
iter:  80 02:49:57  -870.664032c -6.18  -3.60    +62.8552
iter:  81 02:52:29  -870.664702c -5.94  -3.65    +62.8637
iter:  82 02:55:03  -870.665055c -6.05  -3.62    +62.8643
iter:  83 02:57:37  -870.664874c -5.88  -3.65    +62.8814
iter:  84 03:00:10  -870.663947c -5.88  -3.64    +62.8823
iter:  85 03:02:43  -870.664852c -5.89  -3.67    +62.8752
iter:  86 03:05:16  -870.664359c -6.02  -3.65    +62.8816
iter:  87 03:07:45  -870.664131c -6.17  -3.74    +62.8863
iter:  88 03:10:15  -870.663793c -6.50  -3.76    +62.8955
iter:  89 03:12:49  -870.663894c -6.37  -3.81    +62.8944
iter:  90 03:15:23  -870.664352c -6.46  -3.82    +62.9018
iter:  91 03:17:56  -870.664048c -6.45  -3.83    +62.9139
iter:  92 03:20:29  -870.663972c -6.17  -3.84    +62.9195
iter:  93 03:23:03  -870.664434c -6.12  -3.81    +62.9245
iter:  94 03:25:36  -870.664312c -6.24  -3.79    +62.9234
iter:  95 03:28:10  -870.664095c -6.31  -3.89    +62.9364
iter:  96 03:30:43  -870.663596c -6.52  -3.92    +62.9382
iter:  97 03:33:15  -870.663767c -6.89  -3.97    +62.9379
iter:  98 03:35:49  -870.663854c -6.74  -4.03c   +62.9422
iter:  99 03:38:23  -870.663819c -7.00  -4.02c   +62.9456
iter: 100 03:40:56  -870.663716c -6.79  -4.06c   +62.9528
iter: 101 03:43:29  -870.663971c -6.54  -4.05c   +62.9529
iter: 102 03:46:03  -870.664226c -6.51  -4.01c   +62.9564
iter: 103 03:48:37  -870.663845c -6.65  -4.05c   +62.9656
iter: 104 03:51:09  -870.663734c -6.59  -4.12c   +62.9687
iter: 105 03:53:41  -870.663750c -6.95  -4.07c   +62.9721
iter: 106 03:56:10  -870.663791c -7.06  -4.19c   +62.9726
iter: 107 03:58:43  -870.663760c -7.48c -4.26c   +62.9784

Converged after 107 iterations.

Dipole moment: (-10.101686, 8.264326, 8.363151) |e|*Ang

Total magnetic moment: (0.000000, 0.000000, 62.978383)
Local magnetic moments:
   0 Cr ( 0.000000,  0.000000, -1.308544)
   1 Ni ( 0.000000,  0.000000,  0.137196)
   2 Fe ( 0.000000,  0.000000,  2.571608)
   3 Ni ( 0.000000,  0.000000,  0.189752)
   4 Fe ( 0.000000,  0.000000,  1.869217)
   5 Co ( 0.000000,  0.000000,  1.189813)
   6 Co ( 0.000000,  0.000000,  1.151200)
   7 Cr ( 0.000000,  0.000000, -1.479615)
   8 Ni ( 0.000000,  0.000000,  0.206696)
   9 Co ( 0.000000,  0.000000,  1.073886)
  10 Cr ( 0.000000,  0.000000, -1.656029)
  11 Co ( 0.000000,  0.000000,  0.203749)
  12 Fe ( 0.000000,  0.000000,  1.869343)
  13 Cr ( 0.000000,  0.000000, -1.366729)
  14 Cr ( 0.000000,  0.000000, -0.283870)
  15 Co ( 0.000000,  0.000000,  1.113742)
  16 Ni ( 0.000000,  0.000000,  0.156514)
  17 Co ( 0.000000,  0.000000,  0.577514)
  18 Fe ( 0.000000,  0.000000,  1.721920)
  19 Cr ( 0.000000,  0.000000,  0.653200)
  20 Al ( 0.000000,  0.000000, -0.018642)
  21 Ni ( 0.000000,  0.000000,  0.203523)
  22 Ni ( 0.000000,  0.000000,  0.181174)
  23 Fe ( 0.000000,  0.000000,  2.219364)
  24 Ni ( 0.000000,  0.000000,  0.446595)
  25 Ni ( 0.000000,  0.000000,  0.418628)
  26 Co ( 0.000000,  0.000000,  1.382045)
  27 Co ( 0.000000,  0.000000,  1.262169)
  28 Cr ( 0.000000,  0.000000, -0.879214)
  29 Ni ( 0.000000,  0.000000,  0.222297)
  30 Cr ( 0.000000,  0.000000, -0.496922)
  31 Cr ( 0.000000,  0.000000, -0.793696)
  32 Ni ( 0.000000,  0.000000,  0.131642)
  33 Co ( 0.000000,  0.000000,  1.104642)
  34 Co ( 0.000000,  0.000000,  1.289898)
  35 Co ( 0.000000,  0.000000,  1.024416)
  36 Ni ( 0.000000,  0.000000,  0.475255)
  37 Fe ( 0.000000,  0.000000,  2.264315)
  38 Fe ( 0.000000,  0.000000,  2.485016)
  39 Co ( 0.000000,  0.000000,  1.210862)
  40 Ni ( 0.000000,  0.000000,  0.414666)
  41 Fe ( 0.000000,  0.000000,  2.056572)
  42 Co ( 0.000000,  0.000000,  0.650544)
  43 Al ( 0.000000,  0.000000, -0.023861)
  44 Ni ( 0.000000,  0.000000,  0.317091)
  45 Ni ( 0.000000,  0.000000,  0.164645)
  46 Co ( 0.000000,  0.000000,  1.496675)
  47 Fe ( 0.000000,  0.000000,  2.324557)
  48 Cr ( 0.000000,  0.000000, -1.248905)
  49 Co ( 0.000000,  0.000000,  1.116883)
  50 Cr ( 0.000000,  0.000000, -1.215071)
  51 Fe ( 0.000000,  0.000000,  1.835687)
  52 Ni ( 0.000000,  0.000000,  0.182873)
  53 Al ( 0.000000,  0.000000, -0.026222)
  54 Co ( 0.000000,  0.000000,  0.417020)
  55 Cr ( 0.000000,  0.000000,  0.195170)
  56 Cr ( 0.000000,  0.000000, -1.479437)
  57 Cr ( 0.000000,  0.000000, -0.862600)
  58 Ni ( 0.000000,  0.000000,  0.188272)
  59 Fe ( 0.000000,  0.000000,  1.997348)
[...]
  93 Ni ( 0.000000,  0.000000,  0.250143)
  94 Al ( 0.000000,  0.000000, -0.033304)
  95 Fe ( 0.000000,  0.000000,  2.013358)
  96 Fe ( 0.000000,  0.000000,  2.380475)
  97 Fe ( 0.000000,  0.000000,  2.200721)
  98 Co ( 0.000000,  0.000000,  1.385857)
  99 Ni ( 0.000000,  0.000000,  0.465932)
 100 Co ( 0.000000,  0.000000,  1.173709)
 101 Fe ( 0.000000,  0.000000,  1.901574)
 102 Co ( 0.000000,  0.000000,  0.818856)
 103 Cr ( 0.000000,  0.000000,  0.155340)
 104 Co ( 0.000000,  0.000000,  0.836125)
 105 Al ( 0.000000,  0.000000, -0.012559)
 106 Cr ( 0.000000,  0.000000, -1.990691)
 107 Ni ( 0.000000,  0.000000,  0.269415)

Energy contributions relative to reference atoms: (reference = -3699400.456887)

Kinetic:       +129.263800
Potential:     -182.571064
External:        +0.000000
XC:            -852.670767
Entropy (-ST):   -4.465705
Local:          +37.547123
Free energy:   -872.896613
Extrapolated:  -870.663760

Spin contamination: 26.247317 electrons
Showing only first 2 kpts
                      Up                     Down
 Kpt  Band  Eigenvalues  Occupancy  Eigenvalues  Occupancy
  0   508      9.63357    0.99432     10.51923    0.02435
  0   509      9.64560    0.99360     10.53683    0.02050
  0   510      9.65596    0.99291     10.54591    0.01875
  0   511      9.66077    0.99256     10.55641    0.01692

  1   508      9.63700    0.99413     10.51978    0.02422
  1   509      9.64527    0.99363     10.54257    0.01938
  1   510      9.66138    0.99252     10.55537    0.01709
  1   511      9.67888    0.99110     10.56554    0.01546

Fermi level: 10.15017

No gap

Forces in eV/Ang:
  0 Cr    0.04235    0.00543    0.18708
  1 Ni    0.01986   -0.11547   -0.12143
  2 Fe   -0.35741    0.50303    0.04772
  3 Ni   -0.20800    0.08435    0.29352
  4 Fe    0.66371    0.06138   -0.25885
  5 Co   -0.03290    0.08897    0.19206
  6 Co    0.19459   -0.00850   -0.20819
  7 Cr   -0.46103   -0.96419    0.25912
  8 Ni   -0.31758   -0.08971    0.09147
  9 Co   -0.37172   -0.34517    0.13459
 10 Cr   -0.21687    0.18445   -0.12598
 11 Co    0.26536   -0.20365    0.25591
 12 Fe    0.25045   -0.50174    0.71520
 13 Cr    0.06363    0.36685   -0.36285
 14 Cr    0.18736   -0.29450    0.12490
 15 Co   -0.05161    0.01432    0.16409
 16 Ni   -0.00891   -0.19350    0.10156
 17 Co    0.00124   -0.37100    0.19395
 18 Fe   -0.60043   -0.13275    0.20616
 19 Cr   -0.57561    1.05104    0.26941
 20 Al   -0.02457    0.23495    0.93802
 21 Ni    0.02715    0.34417   -0.24769
 22 Ni    0.35992   -0.48196    0.22758
 23 Fe    0.17680    1.22245    0.32471
 24 Ni   -0.18402    0.05187    0.07902
 25 Ni   -0.08881    0.09329   -0.29413
 26 Co    0.04975   -0.07592   -0.05683
 27 Co    0.05572   -0.06664    0.08645
 28 Cr   -0.08908   -0.29058   -0.04976
 29 Ni    0.08987    0.28245   -0.31051
 30 Cr    0.72174   -0.05899    0.22183
 31 Cr   -0.21050    0.20997    0.52389
 32 Ni    0.00910    0.09174    0.28854
 33 Co   -0.05874   -0.11809   -0.41222
 34 Co   -0.51818    0.07097   -0.24271
 35 Co    0.01916   -0.23989    0.40855
 36 Ni   -0.02069    0.15807   -0.28270
 37 Fe    0.21726   -0.05180    0.02977
 38 Fe    0.02770   -0.12991    0.00290
 39 Co   -0.05303    0.18626   -0.14680
 40 Ni    0.32003    0.40824    0.01656
 41 Fe   -0.25418    0.03695   -0.18153
 42 Co    0.12410   -0.60991    0.24077
 43 Al   -0.32828   -0.27754   -0.18542
 44 Ni   -0.15074   -0.30666   -0.07275
 45 Ni   -0.27053   -0.06012   -0.12443
 46 Co   -0.16449   -0.08903    0.07720
 47 Fe    0.19104   -0.06928   -0.33010
 48 Cr   -0.04996   -0.27437   -0.09513
 49 Co   -0.14196   -0.09304    0.00212
 50 Cr   -0.70325   -0.71571   -0.07347
 51 Fe   -0.10310    0.02317   -0.25244
 52 Ni    0.14347   -0.36535   -0.43322
 53 Al   -0.18673    0.04112   -0.22074
 54 Co    0.24367   -0.27448    0.02834
 55 Cr    0.26905    0.11351   -0.51103
 56 Cr    0.43215    0.38477   -0.37818
 57 Cr    0.11746    0.68406    0.08642
 58 Ni    0.11786   -0.04856    0.14326
 59 Fe   -0.15484   -0.12744   -0.03184
[...]
 93 Ni    0.00192    0.46382    0.38854
 94 Al    0.51852    0.46182   -0.42896
 95 Fe   -0.26474    0.08218   -0.36497
 96 Fe    0.00970    0.21040   -0.22429
 97 Fe    0.17921   -0.04795    0.22727
 98 Co    0.23339    0.01144    0.15862
 99 Ni    0.00724    0.14107    0.03190
100 Co    0.05714    0.41706    0.42880
101 Fe    0.28943    0.07545    0.01215
102 Co    0.04431    0.01991    0.00706
103 Cr   -0.60350    0.43240   -0.70864
104 Co    0.05440    0.02152   -0.53365
105 Al   -0.29665    0.34032    0.34818
106 Cr    0.50556   -1.03827    0.34596
107 Ni   -0.20168    0.20660   -0.47968

Date: Sun Apr 16 03:59:11 2023