User:   c.zeng@d0087
Date:   Sat Apr 15 18:28:42 2023
Arch:   x86_64
Pid:    17291
CWD:    /home/c.zeng/projects/hea-corrosion/hea-mlp/data-curation/bulk-mcmc/dft-jobs/71
Python: 3.8.1
gpaw:   /home/c.zeng/usr/installs/gpaw/source/gpaw-22.8.0/gpaw
_gpaw:  /home/c.zeng/usr/installs/gpaw/source/gpaw-22.8.0/
        _gpaw.cpython-38-x86_64-linux-gnu.so
ase:    /home/c.zeng/.local/lib/python3.8/site-packages/ase-3.22.1-py3.8.egg/ase (version 3.22.1)
numpy:  /shared/centos7/python/3.8.1/lib/python3.8/site-packages/numpy (version 1.17.4)
scipy:  /shared/centos7/python/3.8.1/lib/python3.8/site-packages/scipy (version 1.4.1)
units:  Angstrom and eV
cores: 30
OpenMP: False
OMP_NUM_THREADS: 1

Input parameters:
  convergence: {energy: 0.0001}
  kpts: [2 2 2]
  maxiter: 666
  mode: {ecut: 350.0,
         name: pw}
  occupations: {fixmagmom: False,
                name: fermi-dirac,
                width: 0.1}
  spinpol: True
  xc: PBE

System changes: positions, numbers, cell, pbc, initial_charges, initial_magmoms

Initialize ...

species:
  Cr:
    name: Chromium
    id: 33f258bda2ca9f93018e70263a35547b
    Z: 24.0
    valence: 6
    core: 18
    charge: 0.0
    file: /home/c.zeng/usr/data/gpaw-setups-0.9.20000/Cr.PBE.gz
    compensation charges: {type: gauss,
                           rc: 0.35,
                           lmax: 2}
    cutoffs: {filter: 2.14,
              core: 3.04}
    valence states:
      #              energy  rcut
      - 4s(1.00)    -4.007   1.164
      - 4p(0.00)    -0.989   1.217
      - 3d(5.00)    -2.913   1.111
      -  s          23.205   1.164
      -  p          26.223   1.217
      -  d          24.299   1.111

    # Using partial waves for Cr as LCAO basis

  Ni:
    name: Nickel
    id: 0d9f38a9d6e76a2886f07bb4381f212b
    Z: 28.0
    valence: 16
    core: 12
    charge: 0.0
    file: /home/c.zeng/usr/data/gpaw-setups-0.9.20000/Ni.PBE.gz
    compensation charges: {type: gauss,
                           rc: 0.36,
                           lmax: 2}
    cutoffs: {filter: 2.14,
              core: 1.98}
    valence states:
      #              energy  rcut
      - 4s(2.00)    -5.642   1.164
      - 3p(6.00)   -71.394   1.207
      - 4p(0.00)    -1.226   1.207
      - 3d(8.00)    -8.875   1.138
      -  s          21.570   1.164
      -  d          18.337   1.138

[...]

  Fe:
    name: Iron
    id: 37abbd8d6c3c35915a9b583b742da910
    Z: 26.0
    valence: 8
    core: 18
    charge: 0.0
    file: /home/c.zeng/usr/data/gpaw-setups-0.9.20000/Fe.PBE.gz
    compensation charges: {type: gauss,
                           rc: 0.33,
                           lmax: 2}
    cutoffs: {filter: 2.06,
              core: 2.67}
    valence states:
      #              energy  rcut
      - 4s(2.00)    -5.291   1.164
      - 4p(0.00)    -1.326   1.058
      - 3d(6.00)    -7.505   1.058
      -  s          21.920   1.164
      -  p          25.885   1.058
      -  d          19.706   1.058

[...]

  Co:
    name: Cobalt
    id: 339d20d5b0b93d2de9531a1bee871d91
    Z: 27.0
    valence: 9
    core: 18
    charge: 0.0
    file: /home/c.zeng/usr/data/gpaw-setups-0.9.20000/Co.PBE.gz
    compensation charges: {type: gauss,
                           rc: 0.32,
                           lmax: 2}
    cutoffs: {filter: 1.87,
              core: 2.55}
    valence states:
      #              energy  rcut
      - 4s(2.00)    -5.469   1.005
      - 4p(0.00)    -1.277   1.058
      - 3d(7.00)    -8.205   1.005
      -  s          21.742   1.005
      -  p          25.934   1.058
      -  d          19.007   1.005

[...]

  Al:
    name: Aluminium
    id: 0292cae29f5d6237e50f6abdd43a7bdd
    Z: 13.0
    valence: 3
    core: 10
    charge: 0.0
    file: /home/c.zeng/usr/data/gpaw-setups-0.9.20000/Al.PBE.gz
    compensation charges: {type: gauss,
                           rc: 0.34,
                           lmax: 2}
    cutoffs: {filter: 1.91,
              core: 2.36}
    valence states:
      #              energy  rcut
      - 3s(2.00)    -7.753   1.085
      - 3p(1.00)    -2.712   1.085
      -  s          19.459   1.085
      -  p          24.499   1.085
      -  d           0.000   1.085

    # Using partial waves for Al as LCAO basis

Reference energy: -3699400.456887  # eV

Spin-polarized calculation.
Magnetic moment: 143.500000

Convergence criteria:
 Maximum [total energy] change in last 3 cyles: 0.0001 eV / electron
 Maximum integral of absolute [dens]ity change: 0.0001 electrons / valence electron
 Maximum integral of absolute [eigenst]ate change: 4e-08 eV^2 / valence electron
 Maximum number of scf [iter]ations: 666
 (Square brackets indicate name in SCF output, whereas a 'c' in
 the SCF output indicates the quantity has converged.)

Symmetries present (total): 1

  ( 1  0  0)
  ( 0  1  0)
  ( 0  0  1)

8 k-points: 2 x 2 x 2 Monkhorst-Pack grid
4 k-points in the irreducible part of the Brillouin zone
       k-points in crystal coordinates                weights
   0:     0.25000000   -0.25000000   -0.25000000          2/8
   1:     0.25000000   -0.25000000    0.25000000          2/8
   2:     0.25000000    0.25000000   -0.25000000          2/8
   3:     0.25000000    0.25000000    0.25000000          2/8

Wave functions: Plane wave expansion
  Cutoff energy: 350.000 eV
  Number of coefficients (min, max): 18052, 18052
  Pulay-stress correction: 0.000000 eV/Ang^3 (de/decut=0.000000)
  Using FFTW library
  ScaLapack parameters: grid=1x1, blocksize=None
  Wavefunction extrapolation:
    Improved wavefunction reuse through dual PAW basis

Occupation numbers: Fermi-Dirac:
  width: 0.1000  # eV

Eigensolver
   Davidson(niter=2)

Densities:
  Coarse grid: 48*48*48 grid
  Fine grid: 96*96*96 grid
  Total Charge: 0.000000

Density mixing:
  Method: difference
  Backend: pulay
  Linear mixing parameter: 0.05
  old densities: 5
  Damping of long wavelength oscillations: 50

Hamiltonian:
  XC and Coulomb potentials evaluated on a 96*96*96 grid
  Using the PBE Exchange-Correlation functional
  External potential:
    NoExternalPotential

XC parameters: PBE with 2 nearest neighbor stencil

Total number of cores used: 30
Parallelization over k-points: 2
Domain decomposition: 5 x 3 x 1

Number of atoms: 108
Number of atomic orbitals: 1025
Number of bands in calculation: 703
Number of valence electrons: 1020
Bands to converge: occupied

... initialized

Initializing position-dependent things.

Density initialized from atomic densities
Creating initial wave functions:
  703 bands from LCAO basis set

        Cr------------------------.
       /|  Co                Co   |
      Cr|   Cr         Cr         |
     / Fe      Fe       Al        |
    /   CCo      Ni       Fe      |
   /e   | CoCr     CoAl    CrNi   |
  /  FeNi  CrCo     NiCrCo        |
 *    FeFe  FeCoNi     CoAl       |
 |     CoFeCr  CoFe Ni  CrFeCr    |
 | Fe   CrNiCrCo NiNiNiFe  Ni     |
 |   CoNi  CrAlNi   CrCrNi   Fe   |
 |    FeCr  FeFeCoCr CoFeCr   Cr  |
 |     CrFeFe  Ni CrNi  CoFeFe    |
 |      .-CoNiCo-FeNiCrCo--CoNi---.
 |   CrCo    CoAl   CrNiFe       /
 |    / Cr    NiFe       Ni     /
 |   /            Ni           /
 |Ni/      Co       Co        /
 |/            Ni           /
 *----------------Ni-------*

Positions:
   0 Cr     0.005316   -0.016350   10.639749    ( 0.0000,  0.0000,  0.0000)
   1 Ni    10.672340    1.801276    1.786848    ( 0.0000,  0.0000,  0.0000)
   2 Fe     1.795727   10.625972    1.782259    ( 0.0000,  0.0000,  0.0000)
   3 Ni     1.780787    1.796175   10.644605    ( 0.0000,  0.0000,  2.1000)
   4 Fe     3.523539   -0.014558    0.017268    ( 0.0000,  0.0000,  2.0000)
   5 Co     3.522568    1.781672    1.746648    ( 0.0000,  0.0000,  0.0000)
   6 Co     5.320952   10.642342    1.763136    ( 0.0000,  0.0000,  1.5000)
   7 Ni     5.342082    1.828767    0.007462    ( 0.0000,  0.0000,  2.0000)
   8 Ni     7.144895    0.019195    0.012033    ( 0.0000,  0.0000,  0.0000)
   9 Co     7.143497    1.798064    1.764939    ( 0.0000,  0.0000,  2.1000)
  10 Cr     8.891362   10.651627    1.788353    ( 0.0000,  0.0000,  1.5000)
  11 Co     8.888779    1.804777   10.642609    ( 0.0000,  0.0000,  2.0000)
  12 Fe     0.008694    3.581540   10.650250    ( 0.0000,  0.0000,  2.1000)
  13 Cr     0.018979    5.332745    1.789751    ( 0.0000,  0.0000,  2.1000)
  14 Cr     1.778129    3.600941    1.760019    ( 0.0000,  0.0000,  2.0000)
  15 Co     1.790423    5.343267   -0.017766    ( 0.0000,  0.0000,  2.0000)
  16 Cr     3.542802    3.589864   -0.015614    ( 0.0000,  0.0000,  2.0000)
  17 Co     3.526837    5.358538    1.765793    ( 0.0000,  0.0000,  2.0000)
  18 Fe     5.336650    3.606501    1.755815    ( 0.0000,  0.0000,  0.0000)
  19 Ni     5.300399    5.323642   -0.012797    ( 0.0000,  0.0000,  2.1000)
  20 Al     7.122858    3.584816   10.659524    ( 0.0000,  0.0000,  2.0000)
  21 Ni     7.120500    5.315168    1.805502    ( 0.0000,  0.0000,  1.5000)
  22 Ni     8.892034    3.590952    1.773146    ( 0.0000,  0.0000,  2.1000)
  23 Fe     8.925340    5.301487   -0.003100    ( 0.0000,  0.0000,  0.0000)
  24 Cr     0.023055    7.096680   -0.007939    ( 0.0000,  0.0000,  0.0000)
  25 Cr     0.019141    8.871245    1.787510    ( 0.0000,  0.0000,  1.5000)
  26 Co     1.784372    7.104567    1.776443    ( 0.0000,  0.0000,  2.0000)
  27 Co     1.779944    8.867628   10.659406    ( 0.0000,  0.0000,  1.5000)
  28 Ni     3.547785    7.097897    0.009215    ( 0.0000,  0.0000,  2.1000)
  29 Ni     3.541137    8.858109    1.788225    ( 0.0000,  0.0000,  2.1000)
  30 Ni     5.295105    7.099391    1.787894    ( 0.0000,  0.0000,  2.1000)
  31 Cr     5.303685    8.873828    0.029898    ( 0.0000,  0.0000,  0.0000)
  32 Cr     7.106883    7.088719   10.645159    ( 0.0000,  0.0000,  0.0000)
  33 Co     7.111055    8.901137    1.809472    ( 0.0000,  0.0000,  0.0000)
  34 Co     8.939384    7.093404    1.799238    ( 0.0000,  0.0000,  0.0000)
  35 Co     8.919972    8.915853   10.664881    ( 0.0000,  0.0000,  0.0000)
  36 Cr    10.679704   10.658873    3.584517    ( 0.0000,  0.0000,  2.0000)
  37 Fe    10.670921    1.796367    5.340289    ( 0.0000,  0.0000,  2.1000)
  38 Fe     1.770350   10.649001    5.343491    ( 0.0000,  0.0000,  0.0000)
  39 Co     1.791800    1.784671    3.584891    ( 0.0000,  0.0000,  2.0000)
  40 Ni     3.529718   10.626388    3.565234    ( 0.0000,  0.0000,  2.1000)
  41 Fe     3.535716    1.793465    5.367289    ( 0.0000,  0.0000,  1.5000)
  42 Co     5.311497    0.001574    5.366254    ( 0.0000,  0.0000,  1.5000)
  43 Al     5.332627    1.768055    3.580793    ( 0.0000,  0.0000,  0.0000)
  44 Ni     7.136966   10.673941    3.563804    ( 0.0000,  0.0000,  2.0000)
  45 Ni     7.136774    1.794126    5.358944    ( 0.0000,  0.0000,  2.1000)
  46 Co     8.925938   10.673621    5.347589    ( 0.0000,  0.0000,  2.0000)
  47 Fe     8.883827    1.779111    3.582404    ( 0.0000,  0.0000,  1.5000)
  48 Ni    -0.010038    3.572341    3.580996    ( 0.0000,  0.0000,  2.0000)
  49 Co    10.685573    5.328935    5.338550    ( 0.0000,  0.0000,  2.0000)
  50 Cr     1.784180    3.582949    5.348357    ( 0.0000,  0.0000,  1.5000)
  51 Fe     1.766326    5.339510    3.565255    ( 0.0000,  0.0000,  1.5000)
  52 Ni     3.522387    3.605007    3.574059    ( 0.0000,  0.0000,  0.0000)
  53 Al     3.543581    5.347343    5.347962    ( 0.0000,  0.0000,  2.1000)
  54 Co     5.333950    3.591678    5.360630    ( 0.0000,  0.0000,  2.0000)
  55 Cr     5.336458    5.346308    3.560132    ( 0.0000,  0.0000,  0.0000)
  56 Cr     7.143102    3.570089    3.572138    ( 0.0000,  0.0000,  2.1000)
  57 Cr     7.120265    5.347471    5.345689    ( 0.0000,  0.0000,  2.0000)
  58 Cr     8.888299    3.570665    5.342018    ( 0.0000,  0.0000,  1.5000)
  59 Fe     8.904573    5.339084    3.577453    ( 0.0000,  0.0000,  2.0000)
[...]
  93 Cr     7.108740    5.307762    8.854395    ( 0.0000,  0.0000,  1.5000)
  94 Al     8.907593    3.561296    8.890348    ( 0.0000,  0.0000,  2.1000)
  95 Fe     8.917806    5.336309    7.100224    ( 0.0000,  0.0000,  0.0000)
  96 Fe     0.016270    7.102027    7.111664    ( 0.0000,  0.0000,  2.0000)
  97 Fe     0.000822    8.895150    8.883817    ( 0.0000,  0.0000,  1.5000)
  98 Co     1.771182    7.105090    8.888608    ( 0.0000,  0.0000,  1.5000)
  99 Cr     1.775184    8.850318    7.108494    ( 0.0000,  0.0000,  2.0000)
 100 Co     3.530401    7.086478    7.104972    ( 0.0000,  0.0000,  1.5000)
 101 Fe     3.524841    8.851001    8.894798    ( 0.0000,  0.0000,  0.0000)
 102 Co     5.310654    7.102827    8.871128    ( 0.0000,  0.0000,  0.0000)
 103 Ni     5.290613    8.850286    7.104876    ( 0.0000,  0.0000,  0.0000)
 104 Co     7.129016    7.083330    7.142750    ( 0.0000,  0.0000,  2.1000)
 105 Al     7.143241    8.903186    8.854384    ( 0.0000,  0.0000,  2.0000)
 106 Cr     8.926504    7.115858    8.862313    ( 0.0000,  0.0000,  0.0000)
 107 Ni     8.932896    8.877648    7.127479    ( 0.0000,  0.0000,  1.5000)

Unit cell:
           periodic     x           y           z      points  spacing
  1. axis:    yes   10.671700    0.000000    0.000000    48     0.2223
  2. axis:    yes    0.000000   10.671700    0.000000    48     0.2223
  3. axis:    yes    0.000000    0.000000   10.671700    48     0.2223

  Lengths:  10.671700  10.671700  10.671700
  Angles:   90.000000  90.000000  90.000000

Effective grid spacing dv^(1/3) = 0.2223

     iter     time        total  log10-change:  magmom
                         energy  eigst   dens
iter:   1 18:34:51  -959.492529                  +143.1560
iter:   2 18:37:41  -914.615399  -0.46  -1.34    +105.0182
iter:   3 18:40:31  -912.196384  -0.91  -1.33    +73.9439
iter:   4 18:43:20  -877.532682  -1.33  -1.33    +65.9403
iter:   5 18:46:10  -876.529336  -1.84  -1.46    +58.7142
iter:   6 18:49:02  -876.935967  -1.83  -1.49    +54.9106
iter:   7 18:51:55  -872.391438  -1.60  -1.52    +52.8248
iter:   8 18:54:47  -867.799794  -1.78  -1.61    +51.8525
iter:   9 18:57:40  -871.343477  -2.02  -1.78    +50.9298
iter:  10 19:00:30  -868.211512  -2.16  -1.78    +50.7757
iter:  11 19:03:19  -867.667176  -2.73  -1.88    +50.7481
iter:  12 19:06:12  -868.562485  -2.77  -1.95    +50.7327
iter:  13 19:09:05  -869.207137  -2.62  -1.96    +51.0221
iter:  14 19:11:59  -869.078374  -2.67  -1.99    +51.1607
iter:  15 19:14:51  -869.064693  -2.85  -2.11    +51.2825
iter:  16 19:17:45  -870.008692  -2.78  -2.17    +51.4175
iter:  17 19:20:37  -869.041788  -3.02  -2.12    +51.5575
iter:  18 19:23:30  -869.052891  -3.25  -2.27    +51.8764
iter:  19 19:26:23  -869.065187c -3.35  -2.35    +52.0459
iter:  20 19:29:15  -869.287843  -3.38  -2.43    +52.4079
iter:  21 19:32:08  -869.192740  -3.43  -2.40    +52.5427
iter:  22 19:35:01  -869.308659  -3.54  -2.51    +52.8158
iter:  23 19:37:53  -869.390250  -3.57  -2.54    +53.1018
iter:  24 19:40:46  -869.453721  -3.68  -2.57    +53.2793
iter:  25 19:43:39  -869.544871  -3.83  -2.60    +53.6286
iter:  26 19:46:33  -869.628277  -3.80  -2.64    +53.8463
iter:  27 19:49:25  -869.821894  -3.59  -2.68    +54.2452
iter:  28 19:52:17  -869.800792  -4.06  -2.67    +54.2914
iter:  29 19:55:10  -869.920286  -3.95  -2.75    +54.4830
iter:  30 19:58:03  -869.927904  -4.29  -2.73    +54.5812
iter:  31 20:00:57  -870.044236  -3.98  -2.81    +54.7911
iter:  32 20:03:50  -870.086262  -4.24  -2.80    +54.8723
iter:  33 20:06:43  -870.223581  -3.78  -2.85    +55.1278
iter:  34 20:09:35  -870.300660  -3.90  -2.82    +55.1253
iter:  35 20:12:26  -870.509879  -3.33  -2.83    +54.9442
iter:  36 20:15:17  -870.527986  -4.34  -2.66    +54.7277
iter:  37 20:18:10  -870.525219c -4.11  -2.65    +54.2827
iter:  38 20:21:02  -870.520661c -4.46  -2.69    +54.2800
iter:  39 20:23:56  -870.548094c -4.43  -2.72    +54.1876
iter:  40 20:26:48  -870.550434c -3.68  -2.71    +54.0426
iter:  41 20:29:41  -870.535523c -3.89  -2.81    +53.9182
iter:  42 20:32:34  -870.543627c -4.15  -2.79    +53.7226
iter:  43 20:35:27  -870.504014c -4.50  -2.83    +53.6057
iter:  44 20:38:19  -870.511034c -4.71  -2.99    +53.4908
iter:  45 20:41:12  -870.526615c -4.63  -3.04    +53.3483
iter:  46 20:44:05  -870.520091c -4.85  -3.01    +53.2823
iter:  47 20:46:57  -870.523567c -4.90  -3.10    +53.2177
iter:  48 20:49:50  -870.534042c -4.77  -3.12    +53.1272
iter:  49 20:52:42  -870.524394c -5.11  -3.11    +53.1062
iter:  50 20:55:36  -870.528335c -5.23  -3.23    +53.0574
iter:  51 20:58:29  -870.529320c -5.26  -3.25    +53.0216
iter:  52 21:01:21  -870.530162c -5.40  -3.25    +52.9904
iter:  53 21:04:14  -870.529872c -5.39  -3.29    +52.9791
iter:  54 21:07:07  -870.531221c -5.53  -3.34    +52.9417
iter:  55 21:09:59  -870.531096c -5.67  -3.36    +52.9258
iter:  56 21:12:52  -870.532861c -5.68  -3.41    +52.9165
iter:  57 21:15:45  -870.532729c -5.84  -3.43    +52.9031
iter:  58 21:18:37  -870.534766c -5.60  -3.46    +52.8878
iter:  59 21:21:29  -870.534161c -5.77  -3.45    +52.8912
iter:  60 21:24:22  -870.535084c -5.98  -3.53    +52.8787
iter:  61 21:27:14  -870.535384c -6.07  -3.56    +52.8740
iter:  62 21:30:05  -870.537018c -6.03  -3.60    +52.8715
iter:  63 21:32:55  -870.536697c -6.03  -3.62    +52.8689
iter:  64 21:35:47  -870.537551c -6.04  -3.66    +52.8553
iter:  65 21:38:40  -870.537782c -6.29  -3.69    +52.8593
iter:  66 21:41:32  -870.538577c -6.36  -3.74    +52.8564
iter:  67 21:44:26  -870.538963c -6.27  -3.77    +52.8527
iter:  68 21:47:18  -870.539882c -6.24  -3.79    +52.8537
iter:  69 21:50:12  -870.539733c -6.41  -3.84    +52.8525
iter:  70 21:53:04  -870.540316c -6.46  -3.88    +52.8449
iter:  71 21:55:57  -870.540585c -6.70  -3.92    +52.8484
iter:  72 21:58:50  -870.540980c -6.63  -3.95    +52.8471
iter:  73 22:01:42  -870.541203c -6.61  -3.96    +52.8440
iter:  74 22:04:34  -870.541531c -6.78  -4.01c   +52.8466
iter:  75 22:07:27  -870.541568c -6.75  -4.05c   +52.8479
iter:  76 22:10:19  -870.541916c -6.76  -4.07c   +52.8474
iter:  77 22:13:12  -870.542083c -6.90  -4.09c   +52.8522
iter:  78 22:16:05  -870.542225c -6.98  -4.13c   +52.8535
iter:  79 22:18:59  -870.542425c -6.96  -4.16c   +52.8542
iter:  80 22:21:51  -870.542650c -7.04  -4.19c   +52.8576
iter:  81 22:24:44  -870.542732c -7.03  -4.22c   +52.8613
iter:  82 22:27:36  -870.542896c -7.05  -4.24c   +52.8626
iter:  83 22:30:29  -870.543041c -7.14  -4.25c   +52.8683
iter:  84 22:33:20  -870.543162c -7.24  -4.30c   +52.8714
iter:  85 22:36:13  -870.543286c -7.14  -4.32c   +52.8756
iter:  86 22:39:06  -870.543462c -7.30  -4.34c   +52.8795
iter:  87 22:41:58  -870.543573c -7.15  -4.37c   +52.8868
iter:  88 22:44:51  -870.543671c -7.28  -4.39c   +52.8895
iter:  89 22:47:44  -870.543860c -7.24  -4.43c   +52.8965
iter:  90 22:50:36  -870.543890c -7.46c -4.46c   +52.8980

Converged after 90 iterations.

Dipole moment: (-10.943471, 8.302725, 8.891910) |e|*Ang

Total magnetic moment: (0.000000, 0.000000, 52.898020)
Local magnetic moments:
   0 Cr ( 0.000000,  0.000000,  0.085336)
   1 Ni ( 0.000000,  0.000000,  0.124474)
   2 Fe ( 0.000000,  0.000000,  2.067825)
   3 Ni ( 0.000000,  0.000000,  0.138027)
   4 Fe ( 0.000000,  0.000000,  2.280962)
   5 Co ( 0.000000,  0.000000,  1.106925)
   6 Co ( 0.000000,  0.000000,  1.246925)
   7 Ni ( 0.000000,  0.000000,  0.268866)
   8 Ni ( 0.000000,  0.000000,  0.293256)
   9 Co ( 0.000000,  0.000000,  1.195764)
  10 Cr ( 0.000000,  0.000000, -1.128153)
  11 Co ( 0.000000,  0.000000,  0.768447)
  12 Fe ( 0.000000,  0.000000,  1.916980)
  13 Cr ( 0.000000,  0.000000, -1.278722)
  14 Cr ( 0.000000,  0.000000, -1.171362)
  15 Co ( 0.000000,  0.000000,  0.794904)
  16 Cr ( 0.000000,  0.000000, -0.507870)
  17 Co ( 0.000000,  0.000000,  1.012612)
  18 Fe ( 0.000000,  0.000000,  2.189389)
  19 Ni ( 0.000000,  0.000000,  0.257907)
  20 Al ( 0.000000,  0.000000, -0.020388)
  21 Ni ( 0.000000,  0.000000,  0.208615)
  22 Ni ( 0.000000,  0.000000,  0.219629)
  23 Fe ( 0.000000,  0.000000,  1.361601)
  24 Cr ( 0.000000,  0.000000, -0.970138)
  25 Cr ( 0.000000,  0.000000, -0.084127)
  26 Co ( 0.000000,  0.000000,  0.875560)
  27 Co ( 0.000000,  0.000000,  1.008935)
  28 Ni ( 0.000000,  0.000000,  0.395846)
  29 Ni ( 0.000000,  0.000000,  0.219484)
  30 Ni ( 0.000000,  0.000000,  0.140466)
  31 Cr ( 0.000000,  0.000000, -1.909147)
  32 Cr ( 0.000000,  0.000000,  1.606053)
  33 Co ( 0.000000,  0.000000,  1.009869)
  34 Co ( 0.000000,  0.000000,  0.190508)
  35 Co ( 0.000000,  0.000000,  0.284598)
  36 Cr ( 0.000000,  0.000000, -1.016030)
  37 Fe ( 0.000000,  0.000000,  2.146277)
  38 Fe ( 0.000000,  0.000000,  2.012919)
  39 Co ( 0.000000,  0.000000,  1.201704)
  40 Ni ( 0.000000,  0.000000,  0.330282)
  41 Fe ( 0.000000,  0.000000,  2.120101)
  42 Co ( 0.000000,  0.000000,  0.985794)
  43 Al ( 0.000000,  0.000000, -0.033437)
  44 Ni ( 0.000000,  0.000000,  0.250202)
  45 Ni ( 0.000000,  0.000000,  0.182707)
  46 Co ( 0.000000,  0.000000,  1.072062)
  47 Fe ( 0.000000,  0.000000,  1.975596)
  48 Ni ( 0.000000,  0.000000,  0.223366)
  49 Co ( 0.000000,  0.000000,  1.108683)
  50 Cr ( 0.000000,  0.000000, -1.662388)
  51 Fe ( 0.000000,  0.000000,  2.007160)
  52 Ni ( 0.000000,  0.000000,  0.192847)
  53 Al ( 0.000000,  0.000000, -0.028885)
  54 Co ( 0.000000,  0.000000,  0.780730)
  55 Cr ( 0.000000,  0.000000, -1.368725)
  56 Cr ( 0.000000,  0.000000, -0.092112)
  57 Cr ( 0.000000,  0.000000, -0.983022)
  58 Cr ( 0.000000,  0.000000, -1.234741)
  59 Fe ( 0.000000,  0.000000,  2.022785)
[...]
  93 Cr ( 0.000000,  0.000000, -1.603494)
  94 Al ( 0.000000,  0.000000, -0.028718)
  95 Fe ( 0.000000,  0.000000,  1.702487)
  96 Fe ( 0.000000,  0.000000,  2.170806)
  97 Fe ( 0.000000,  0.000000,  1.619749)
  98 Co ( 0.000000,  0.000000,  1.099922)
  99 Cr ( 0.000000,  0.000000, -1.671809)
 100 Co ( 0.000000,  0.000000,  1.284222)
 101 Fe ( 0.000000,  0.000000,  2.182201)
 102 Co ( 0.000000,  0.000000,  0.996505)
 103 Ni ( 0.000000,  0.000000,  0.235254)
 104 Co ( 0.000000,  0.000000,  0.684090)
 105 Al ( 0.000000,  0.000000, -0.013885)
 106 Cr ( 0.000000,  0.000000, -1.534439)
 107 Ni ( 0.000000,  0.000000,  0.145897)

Energy contributions relative to reference atoms: (reference = -3699400.456887)

Kinetic:       +118.776223
Potential:     -173.867687
External:        +0.000000
XC:            -850.903601
Entropy (-ST):   -4.618990
Local:          +37.760670
Free energy:   -872.853385
Extrapolated:  -870.543890

Spin contamination: 31.715668 electrons
Showing only first 2 kpts
                      Up                     Down
 Kpt  Band  Eigenvalues  Occupancy  Eigenvalues  Occupancy
  0   508      9.70040    0.98896     10.44761    0.04847
  0   509      9.70571    0.98836     10.45700    0.04431
  0   510      9.71735    0.98694     10.46749    0.04008
  0   511      9.74230    0.98331     10.47877    0.03596

  1   508      9.69599    0.98943     10.45362    0.04577
  1   509      9.71514    0.98723     10.46375    0.04154
  1   510      9.72413    0.98604     10.48149    0.03503
  1   511      9.73812    0.98398     10.49098    0.03196

Fermi level: 10.14989

No gap

Forces in eV/Ang:
  0 Cr    0.10541    0.16635    0.43036
  1 Ni   -0.05032   -0.29816   -0.09786
  2 Fe   -0.26822    0.52880    0.01790
  3 Ni   -0.18579    0.06585    0.27477
  4 Fe    0.42766    0.41784   -0.09619
  5 Co   -0.00414    0.10700    0.08612
  6 Co    0.17114    0.12226   -0.09965
  7 Ni   -0.22035   -0.53574   -0.00841
  8 Ni   -0.27361   -0.08709    0.05145
  9 Co   -0.27223   -0.28179    0.34420
 10 Cr   -0.28405    0.11678   -0.39875
 11 Co    0.50572   -0.50061    0.59959
 12 Fe    0.29576   -0.06969    0.49981
 13 Cr   -0.17108    0.49143    0.06442
 14 Cr    0.38745   -0.48490    0.15733
 15 Co   -0.28368   -0.24239   -0.07448
 16 Cr    0.04812   -0.22274    0.08474
 17 Co   -0.01355   -0.28739    0.20348
 18 Fe   -0.58704   -0.23387    0.42265
 19 Ni    0.14888    0.18793   -0.05522
 20 Al   -0.72179   -0.49312    1.01254
 21 Ni   -0.00265    0.39982   -0.13221
 22 Ni    0.07015   -0.34333    0.22320
 23 Fe    0.35069    0.82324    0.19544
 24 Cr   -0.18497    0.27406    0.05535
 25 Cr   -0.42197   -0.19928   -0.47117
 26 Co   -0.23901   -0.04896   -0.13964
 27 Co   -0.11219   -0.08925    0.10870
 28 Ni   -0.02798    0.09414   -0.20187
 29 Ni    0.02841    0.14106   -0.13918
 30 Ni    0.38333   -0.06708   -0.06432
 31 Cr   -0.03721    0.29159    0.09660
 32 Cr    0.66792   -0.06614    0.59288
 33 Co    0.17703    0.03859   -0.26450
 34 Co   -0.11274    0.16739   -0.47391
 35 Co   -0.00626   -0.43927    0.44527
 36 Cr   -0.01975    0.28953   -0.28666
 37 Fe    0.12903   -0.07667    0.16165
 38 Fe   -0.01679   -0.04786   -0.08912
 39 Co    0.02920    0.04955   -0.25503
 40 Ni    0.16464    0.39989   -0.01301
 41 Fe   -0.15474   -0.14818   -0.08385
 42 Co   -0.06538   -0.51816    0.30407
 43 Al   -0.23941   -0.28395   -0.16764
 44 Ni   -0.04264   -0.22455    0.11249
 45 Ni   -0.16296   -0.14535   -0.05250
 46 Co   -0.21152   -0.17685   -0.00740
 47 Fe    0.07611   -0.14828   -0.30384
 48 Ni    0.14557   -0.14562   -0.14454
 49 Co    0.03939    0.01599    0.01906
 50 Cr   -1.01233   -0.68768   -0.20582
 51 Fe   -0.33313   -0.13520   -0.43884
 52 Ni    0.29207   -0.39294   -0.38572
 53 Al    0.22117    0.43460   -0.09957
 54 Co    0.16919   -0.17583   -0.01316
 55 Cr    0.52221   -0.22979   -0.72280
 56 Cr    0.55043    0.70156   -0.11305
 57 Cr   -0.16018    0.28131    0.27232
 58 Cr    0.23120   -0.16108    0.27819
 59 Fe   -0.12816   -0.02127   -0.14031
[...]
 93 Cr   -0.70691    1.33514   -0.56009
 94 Al    0.09968   -0.29940   -0.85150
 95 Fe   -0.32602    0.11826   -0.23178
 96 Fe    0.04454   -0.09289   -0.08057
 97 Fe    0.11415   -0.26173    0.37593
 98 Co    0.11830   -0.04035    0.15454
 99 Cr   -0.11147    0.01883   -0.21996
100 Co    0.05704    0.43133    0.36753
101 Fe    0.22511    0.04565   -0.16650
102 Co   -0.11495   -0.20624   -0.06339
103 Ni    0.32317    0.36446    0.01747
104 Co   -0.14790   -0.22384   -0.34209
105 Al   -0.61018   -0.04119    0.16450
106 Cr    0.61236   -0.41870   -0.00934
107 Ni   -0.28984    0.28791   -0.35266

Date: Sat Apr 15 22:50:59 2023