User:   c.zeng@d0006
Date:   Fri Apr 14 04:14:04 2023
Arch:   x86_64
Pid:    186628
CWD:    /home/c.zeng/projects/hea-corrosion/hea-mlp/data-curation/bulk-md/dft-jobs/95
Python: 3.8.1
gpaw:   /home/c.zeng/usr/installs/gpaw/source/gpaw-22.8.0/gpaw
_gpaw:  /home/c.zeng/usr/installs/gpaw/source/gpaw-22.8.0/
        _gpaw.cpython-38-x86_64-linux-gnu.so
ase:    /home/c.zeng/.local/lib/python3.8/site-packages/ase-3.22.1-py3.8.egg/ase (version 3.22.1)
numpy:  /shared/centos7/python/3.8.1/lib/python3.8/site-packages/numpy (version 1.17.4)
scipy:  /shared/centos7/python/3.8.1/lib/python3.8/site-packages/scipy (version 1.4.1)
units:  Angstrom and eV
cores: 30
OpenMP: False
OMP_NUM_THREADS: 1

Input parameters:
  convergence: {energy: 0.0001}
  kpts: [2 2 2]
  maxiter: 666
  mode: {ecut: 350.0,
         name: pw}
  occupations: {fixmagmom: False,
                name: fermi-dirac,
                width: 0.1}
  spinpol: True
  xc: PBE

System changes: positions, numbers, cell, pbc, initial_charges, initial_magmoms

Initialize ...

species:
  Al:
    name: Aluminium
    id: 0292cae29f5d6237e50f6abdd43a7bdd
    Z: 13.0
    valence: 3
    core: 10
    charge: 0.0
    file: /home/c.zeng/usr/data/gpaw-setups-0.9.20000/Al.PBE.gz
    compensation charges: {type: gauss,
                           rc: 0.34,
                           lmax: 2}
    cutoffs: {filter: 1.91,
              core: 2.36}
    valence states:
      #              energy  rcut
      - 3s(2.00)    -7.753   1.085
      - 3p(1.00)    -2.712   1.085
      -  s          19.459   1.085
      -  p          24.499   1.085
      -  d           0.000   1.085

    # Using partial waves for Al as LCAO basis

  Fe:
    name: Iron
    id: 37abbd8d6c3c35915a9b583b742da910
    Z: 26.0
    valence: 8
    core: 18
    charge: 0.0
    file: /home/c.zeng/usr/data/gpaw-setups-0.9.20000/Fe.PBE.gz
    compensation charges: {type: gauss,
                           rc: 0.33,
                           lmax: 2}
    cutoffs: {filter: 2.06,
              core: 2.67}
    valence states:
      #              energy  rcut
      - 4s(2.00)    -5.291   1.164
      - 4p(0.00)    -1.326   1.058
      - 3d(6.00)    -7.505   1.058
      -  s          21.920   1.164
      -  p          25.885   1.058
      -  d          19.706   1.058

[...]

  Cr:
    name: Chromium
    id: 33f258bda2ca9f93018e70263a35547b
    Z: 24.0
    valence: 6
    core: 18
    charge: 0.0
    file: /home/c.zeng/usr/data/gpaw-setups-0.9.20000/Cr.PBE.gz
    compensation charges: {type: gauss,
                           rc: 0.35,
                           lmax: 2}
    cutoffs: {filter: 2.14,
              core: 3.04}
    valence states:
      #              energy  rcut
      - 4s(1.00)    -4.007   1.164
      - 4p(0.00)    -0.989   1.217
      - 3d(5.00)    -2.913   1.111
      -  s          23.205   1.164
      -  p          26.223   1.217
      -  d          24.299   1.111

[...]

  Ni:
    name: Nickel
    id: 0d9f38a9d6e76a2886f07bb4381f212b
    Z: 28.0
    valence: 16
    core: 12
    charge: 0.0
    file: /home/c.zeng/usr/data/gpaw-setups-0.9.20000/Ni.PBE.gz
    compensation charges: {type: gauss,
                           rc: 0.36,
                           lmax: 2}
    cutoffs: {filter: 2.14,
              core: 1.98}
    valence states:
      #              energy  rcut
      - 4s(2.00)    -5.642   1.164
      - 3p(6.00)   -71.394   1.207
      - 4p(0.00)    -1.226   1.207
      - 3d(8.00)    -8.875   1.138
      -  s          21.570   1.164
      -  d          18.337   1.138

[...]

  Co:
    name: Cobalt
    id: 339d20d5b0b93d2de9531a1bee871d91
    Z: 27.0
    valence: 9
    core: 18
    charge: 0.0
    file: /home/c.zeng/usr/data/gpaw-setups-0.9.20000/Co.PBE.gz
    compensation charges: {type: gauss,
                           rc: 0.32,
                           lmax: 2}
    cutoffs: {filter: 1.87,
              core: 2.55}
    valence states:
      #              energy  rcut
      - 4s(2.00)    -5.469   1.005
      - 4p(0.00)    -1.277   1.058
      - 3d(7.00)    -8.205   1.005
      -  s          21.742   1.005
      -  p          25.934   1.058
      -  d          19.007   1.005

    # Using partial waves for Co as LCAO basis

Reference energy: -3235165.067515  # eV

Spin-polarized calculation.
Magnetic moment: 121.100000

Convergence criteria:
 Maximum [total energy] change in last 3 cyles: 0.0001 eV / electron
 Maximum integral of absolute [dens]ity change: 0.0001 electrons / valence electron
 Maximum integral of absolute [eigenst]ate change: 4e-08 eV^2 / valence electron
 Maximum number of scf [iter]ations: 666
 (Square brackets indicate name in SCF output, whereas a 'c' in
 the SCF output indicates the quantity has converged.)

Symmetries present (total): 1

  ( 1  0  0)
  ( 0  1  0)
  ( 0  0  1)

8 k-points: 2 x 2 x 2 Monkhorst-Pack grid
4 k-points in the irreducible part of the Brillouin zone
       k-points in crystal coordinates                weights
   0:     0.25000000   -0.25000000   -0.25000000          2/8
   1:     0.25000000   -0.25000000    0.25000000          2/8
   2:     0.25000000    0.25000000   -0.25000000          2/8
   3:     0.25000000    0.25000000    0.25000000          2/8

Wave functions: Plane wave expansion
  Cutoff energy: 350.000 eV
  Number of coefficients (min, max): 19084, 19084
  Pulay-stress correction: 0.000000 eV/Ang^3 (de/decut=0.000000)
  Using FFTW library
  ScaLapack parameters: grid=1x1, blocksize=None
  Wavefunction extrapolation:
    Improved wavefunction reuse through dual PAW basis

Occupation numbers: Fermi-Dirac:
  width: 0.1000  # eV

Eigensolver
   Davidson(niter=2)

Densities:
  Coarse grid: 48*48*48 grid
  Fine grid: 96*96*96 grid
  Total Charge: 0.000000

Density mixing:
  Method: difference
  Backend: pulay
  Linear mixing parameter: 0.05
  old densities: 5
  Damping of long wavelength oscillations: 50

Hamiltonian:
  XC and Coulomb potentials evaluated on a 96*96*96 grid
  Using the PBE Exchange-Correlation functional
  External potential:
    NoExternalPotential

XC parameters: PBE with 2 nearest neighbor stencil

Total number of cores used: 30
Parallelization over k-points: 2
Domain decomposition: 5 x 3 x 1

Number of atoms: 108
Number of atomic orbitals: 933
Number of bands in calculation: 624
Number of valence electrons: 912
Bands to converge: occupied

... initialized

Initializing position-dependent things.

Density initialized from atomic densities
Creating initial wave functions:
  624 bands from LCAO basis set

       /|           Ni             |
      / |                      NNi |
     / Al      Co    Co  Ni        |
    /   | Fe      FeAl    FeAl     |
   /    Co           Cr        Cr  |
  /   Cr|  CoAlFe    FCo Fe  Cr Al |
 *      CrlNir   CoFe   Ni         |
 |Al    |  Al   Ni NFe   NiFe     Cr
 |  CCr |Fe Cr   AlCoCr      Fe    |
 |     Co  Fe NiCr  Cr CFe   CrFe  |
 |    CoACo  CAl NiNiAl NiNi  Ni   |
 |     ACo Al   NiCoCo   Cr CCo    |
 |      .-Ni--------NAl-Cr--Fe-----.
 |     /     ColAl      Ni   NFeo /
 |    /Ni      Fe FAl CoCoAl     /
 |   /  Cro                 Fe  /
 | Fe      Ale       Co        /
 | /e                         /
 |/             Ni           /
 *-------------------------Al

Positions:
   0 Al    10.644809    0.050433    0.256611    ( 0.0000,  0.0000,  0.0000)
   1 Fe    11.210342    1.605851    1.913485    ( 0.0000,  0.0000,  2.0000)
   2 Cr     1.912776   10.780091    2.017611    ( 0.0000,  0.0000,  0.0000)
   3 Cr     1.588901    1.744053   -0.160185    ( 0.0000,  0.0000,  0.0000)
   4 Ni     3.821648   11.222217   10.685484    ( 0.0000,  0.0000,  1.5000)
   5 Al     3.591240    1.738921    1.848912    ( 0.0000,  0.0000,  0.0000)
   6 Al     5.436249   10.750645    1.884921    ( 0.0000,  0.0000,  0.0000)
   7 Ni     5.631887    1.769503   10.987639    ( 0.0000,  0.0000,  1.5000)
   8 Fe     7.442657    0.023439   10.847124    ( 0.0000,  0.0000,  2.0000)
   9 Co     7.418511    1.757184    1.580964    ( 0.0000,  0.0000,  2.1000)
  10 Ni     8.841750   -0.063366    1.948196    ( 0.0000,  0.0000,  1.5000)
  11 Fe     9.303425    1.919361   10.749464    ( 0.0000,  0.0000,  2.0000)
  12 Fe    10.903996    3.561293    0.100403    ( 0.0000,  0.0000,  2.0000)
  13 Co    10.684259    5.555089    1.767709    ( 0.0000,  0.0000,  2.1000)
  14 Cr     1.817822    3.506747    1.790238    ( 0.0000,  0.0000,  0.0000)
  15 Co     1.829256    5.348488   11.198222    ( 0.0000,  0.0000,  2.1000)
  16 Fe     3.569592    3.698979    0.271864    ( 0.0000,  0.0000,  2.0000)
  17 Al     3.653841    5.415373    1.950505    ( 0.0000,  0.0000,  0.0000)
  18 Fe     5.768510    3.512372    1.945049    ( 0.0000,  0.0000,  2.0000)
  19 Fe     5.423102    5.424773   -0.147084    ( 0.0000,  0.0000,  2.0000)
  20 Cr     7.252070    3.389247   10.744848    ( 0.0000,  0.0000,  0.0000)
  21 Co     7.174995    5.200396    1.682088    ( 0.0000,  0.0000,  2.1000)
  22 Al     9.069343    3.654289    1.894471    ( 0.0000,  0.0000,  0.0000)
  23 Fe     8.796177    5.385765   -0.085310    ( 0.0000,  0.0000,  2.0000)
  24 Ni    10.738709    7.393089   -0.005394    ( 0.0000,  0.0000,  1.5000)
  25 Al     0.265759    9.052059    1.767538    ( 0.0000,  0.0000,  0.0000)
  26 Ni     1.862366    7.281420    1.749147    ( 0.0000,  0.0000,  1.5000)
  27 Cr     2.275295    9.255117   11.159718    ( 0.0000,  0.0000,  0.0000)
  28 Fe     3.793143    7.348387    0.035437    ( 0.0000,  0.0000,  2.0000)
  29 Ni     3.932815    8.842385    1.872140    ( 0.0000,  0.0000,  1.5000)
  30 Ni     5.638212    7.177520    1.772040    ( 0.0000,  0.0000,  1.5000)
  31 Ni     5.318693    9.294162   10.787342    ( 0.0000,  0.0000,  1.5000)
  32 Co     7.361199    7.324500    0.009253    ( 0.0000,  0.0000,  2.1000)
  33 Cr     7.169319    8.991093    1.806699    ( 0.0000,  0.0000,  0.0000)
  34 Fe     9.097238    7.145072    1.678323    ( 0.0000,  0.0000,  2.0000)
  35 Ni     9.050486    9.123060    0.375252    ( 0.0000,  0.0000,  1.5000)
  36 Fe    -0.099063    0.107492    3.673706    ( 0.0000,  0.0000,  2.0000)
  37 Co    10.767610    1.764668    5.470062    ( 0.0000,  0.0000,  2.1000)
  38 Cr     1.809101   10.831886    5.297626    ( 0.0000,  0.0000,  0.0000)
  39 Ni     2.009562    1.729162    3.535936    ( 0.0000,  0.0000,  1.5000)
  40 Al     3.649047   10.768306    3.698352    ( 0.0000,  0.0000,  0.0000)
  41 Al     3.714874    1.962719    5.222646    ( 0.0000,  0.0000,  0.0000)
  42 Cr     5.235102   10.783416    5.541385    ( 0.0000,  0.0000,  0.0000)
  43 Al     5.712311    1.946555    3.682379    ( 0.0000,  0.0000,  0.0000)
  44 Al     7.394129   10.941137    3.817455    ( 0.0000,  0.0000,  0.0000)
  45 Co     7.057097    1.806049    5.665912    ( 0.0000,  0.0000,  2.1000)
  46 Cr     9.110719    0.130639    5.560774    ( 0.0000,  0.0000,  0.0000)
  47 Ni     8.860181    2.001176    3.767609    ( 0.0000,  0.0000,  1.5000)
  48 Fe    -0.028866    3.250836    3.593895    ( 0.0000,  0.0000,  2.0000)
  49 Fe    10.575396    5.392393    5.400185    ( 0.0000,  0.0000,  2.0000)
  50 Al     1.779734    3.629438    5.456501    ( 0.0000,  0.0000,  0.0000)
  51 Co     1.651723    5.259484    3.491077    ( 0.0000,  0.0000,  2.1000)
  52 Co     3.787667    3.623411    3.480980    ( 0.0000,  0.0000,  2.1000)
  53 Ni     3.757762    5.331607    5.459419    ( 0.0000,  0.0000,  1.5000)
  54 Ni     5.299351    3.664958    5.600712    ( 0.0000,  0.0000,  1.5000)
  55 Co     5.418999    5.769071    3.462867    ( 0.0000,  0.0000,  2.1000)
  56 Al     7.036523    3.970529    3.838147    ( 0.0000,  0.0000,  0.0000)
  57 Cr     7.357552    5.726635    5.275694    ( 0.0000,  0.0000,  0.0000)
  58 Ni     9.047365    3.489361    5.742603    ( 0.0000,  0.0000,  1.5000)
  59 Cr     9.268200    5.685876    3.581671    ( 0.0000,  0.0000,  0.0000)
[...]
  93 Co     7.167117    5.619681    9.084733    ( 0.0000,  0.0000,  2.1000)
  94 Ni     8.521237    3.569200    8.882625    ( 0.0000,  0.0000,  1.5000)
  95 Fe     8.985372    5.296022    7.317669    ( 0.0000,  0.0000,  2.0000)
  96 Al    -0.191598    7.155651    7.460613    ( 0.0000,  0.0000,  0.0000)
  97 Al     0.203925    9.088027    9.047701    ( 0.0000,  0.0000,  0.0000)
  98 Fe     1.726813    6.965438    9.612152    ( 0.0000,  0.0000,  2.0000)
  99 Co     1.921846    8.882245    7.117806    ( 0.0000,  0.0000,  2.1000)
 100 Fe     3.765307    7.237089    7.394278    ( 0.0000,  0.0000,  2.0000)
 101 Co     3.396626    8.990778    9.122901    ( 0.0000,  0.0000,  2.1000)
 102 Al     5.613691    7.332163    9.216549    ( 0.0000,  0.0000,  0.0000)
 103 Fe     5.543716    8.982275    7.094602    ( 0.0000,  0.0000,  2.0000)
 104 Co     7.360456    7.396838    7.057483    ( 0.0000,  0.0000,  2.1000)
 105 Ni     7.388065    9.318538    9.011214    ( 0.0000,  0.0000,  1.5000)
 106 Al     9.046357    7.412890    9.033504    ( 0.0000,  0.0000,  0.0000)
 107 Cr     8.988378    9.205302    6.987894    ( 0.0000,  0.0000,  0.0000)

Unit cell:
           periodic     x           y           z      points  spacing
  1. axis:    yes   10.872400    0.000000    0.000000    48     0.2265
  2. axis:    yes    0.000000   10.872400    0.000000    48     0.2265
  3. axis:    yes    0.000000    0.000000   10.872400    48     0.2265

  Lengths:  10.872400  10.872400  10.872400
  Angles:   90.000000  90.000000  90.000000

Effective grid spacing dv^(1/3) = 0.2265

     iter     time        total  log10-change:  magmom
                         energy  eigst   dens
iter:   1 04:17:18  -951.519058                  +121.3865
iter:   2 04:18:35  -840.517540  -0.21  -1.17    +65.5212
iter:   3 04:19:53  -831.766924  -0.85  -1.21    +56.0123
iter:   4 04:21:11  -813.141184  -1.27  -1.25    +51.8274
iter:   5 04:22:28  -801.955623  -1.54  -1.29    +49.1871
iter:   6 04:23:46  -795.023098  -1.35  -1.35    +49.9535
iter:   7 04:25:04  -802.455718  -1.32  -1.48    +49.8186
iter:   8 04:26:22  -791.238609  -1.70  -1.51    +49.9670
iter:   9 04:27:39  -790.614491  -2.11  -1.69    +50.6526
iter:  10 04:28:55  -790.400123  -2.42  -1.76    +51.1867
iter:  11 04:30:10  -790.457976  -2.47  -1.80    +52.3412
iter:  12 04:31:24  -790.363831  -2.48  -1.84    +53.0509
iter:  13 04:32:39  -790.833385  -2.51  -1.92    +53.4810
iter:  14 04:33:54  -790.685770  -2.64  -1.96    +53.9886
iter:  15 04:35:09  -790.408648  -2.99  -1.99    +54.3226
iter:  16 04:36:24  -790.960435  -2.78  -2.07    +54.6872
iter:  17 04:37:39  -790.535836  -2.92  -2.05    +54.8619
iter:  18 04:38:54  -790.386085  -2.99  -2.15    +54.9620
iter:  19 04:40:09  -790.331908  -3.20  -2.25    +55.1496
iter:  20 04:41:24  -790.310690c -3.41  -2.32    +55.1729
iter:  21 04:42:39  -790.403280  -3.40  -2.37    +55.3299
iter:  22 04:43:54  -790.326540  -3.35  -2.38    +55.3198
iter:  23 04:45:08  -790.326131c -3.60  -2.45    +55.2942
iter:  24 04:46:23  -790.305320c -3.87  -2.50    +55.3070
iter:  25 04:47:38  -790.347428c -3.84  -2.56    +55.2911
iter:  26 04:48:53  -790.357494c -3.88  -2.56    +55.2849
iter:  27 04:50:08  -790.366639c -3.95  -2.62    +55.2204
iter:  28 04:51:23  -790.374980c -4.18  -2.65    +55.1902
iter:  29 04:52:38  -790.413568c -4.16  -2.69    +55.1507
iter:  30 04:53:53  -790.406572c -4.34  -2.70    +55.1340
iter:  31 04:55:08  -790.435836c -4.29  -2.76    +55.0750
iter:  32 04:56:22  -790.440494c -4.24  -2.78    +55.0775
iter:  33 04:57:37  -790.451048c -4.57  -2.84    +55.0160
iter:  34 04:58:52  -790.472477c -4.41  -2.89    +54.9999
iter:  35 05:00:07  -790.491663c -4.44  -2.89    +54.9006
iter:  36 05:01:21  -790.493403c -4.61  -2.93    +54.8854
iter:  37 05:02:36  -790.511739c -4.52  -2.97    +54.8564
iter:  38 05:03:51  -790.518465c -4.68  -2.99    +54.8228
iter:  39 05:05:06  -790.529561c -4.67  -3.04    +54.7910
iter:  40 05:06:21  -790.537125c -4.81  -3.07    +54.8115
iter:  41 05:07:36  -790.547964c -4.76  -3.09    +54.7543
iter:  42 05:08:50  -790.553510c -4.84  -3.13    +54.7659
iter:  43 05:10:05  -790.564093c -4.84  -3.16    +54.7849
iter:  44 05:11:20  -790.568230c -4.97  -3.19    +54.7880
iter:  45 05:12:35  -790.575917c -4.93  -3.23    +54.7934
iter:  46 05:13:50  -790.579461c -5.11  -3.25    +54.8252
iter:  47 05:15:05  -790.584962c -5.06  -3.27    +54.8183
iter:  48 05:16:20  -790.586322c -5.23  -3.31    +54.8429
iter:  49 05:17:35  -790.591975c -5.20  -3.34    +54.8703
iter:  50 05:18:50  -790.594694c -5.23  -3.36    +54.8941
iter:  51 05:20:05  -790.598834c -5.23  -3.39    +54.9233
iter:  52 05:21:19  -790.602991c -5.18  -3.41    +54.9666
iter:  53 05:22:34  -790.606155c -5.30  -3.42    +54.9741
iter:  54 05:23:49  -790.607287c -5.43  -3.46    +54.9981
iter:  55 05:25:04  -790.610401c -5.49  -3.48    +55.0168
iter:  56 05:26:19  -790.611814c -5.49  -3.51    +55.0322
iter:  57 05:27:34  -790.613893c -5.63  -3.54    +55.0481
iter:  58 05:28:49  -790.615442c -5.64  -3.57    +55.0754
iter:  59 05:30:04  -790.617699c -5.67  -3.60    +55.0888
iter:  60 05:31:18  -790.618256c -5.80  -3.63    +55.1033
iter:  61 05:32:33  -790.620947c -5.67  -3.65    +55.1230
iter:  62 05:33:48  -790.621597c -5.86  -3.69    +55.1340
iter:  63 05:35:03  -790.623516c -5.84  -3.73    +55.1489
iter:  64 05:36:18  -790.625017c -5.71  -3.75    +55.1743
iter:  65 05:37:32  -790.626602c -5.83  -3.78    +55.1854
iter:  66 05:38:47  -790.627865c -5.69  -3.81    +55.2036
iter:  67 05:40:02  -790.629985c -5.74  -3.82    +55.2201
iter:  68 05:41:17  -790.631035c -5.79  -3.85    +55.2372
iter:  69 05:42:32  -790.633136c -5.60  -3.88    +55.2604
iter:  70 05:43:46  -790.638020c -4.92  -3.89    +55.3268
iter:  71 05:45:01  -790.649444c -4.02  -3.79    +55.5351
iter:  72 05:46:16  -790.648804c -5.29  -3.51    +55.5297
iter:  73 05:47:31  -790.649635c -5.60  -3.52    +55.5546
iter:  74 05:48:46  -790.650385c -5.70  -3.50    +55.5948
iter:  75 05:50:02  -790.651000c -5.62  -3.47    +55.6486
iter:  76 05:51:16  -790.650806c -5.85  -3.43    +55.6271
iter:  77 05:52:31  -790.651916c -5.43  -3.42    +55.6570
iter:  78 05:53:46  -790.651196c -5.39  -3.34    +55.6447
iter:  79 05:55:01  -790.647823c -4.95  -3.37    +55.6440
iter:  80 05:56:16  -790.651854c -5.08  -3.35    +55.6091
iter:  81 05:57:30  -790.646986c -5.86  -3.39    +55.5546
iter:  82 05:58:45  -790.648734c -5.47  -3.56    +55.5088
iter:  83 05:59:59  -790.646781c -5.52  -3.47    +55.5049
iter:  84 06:01:14  -790.646696c -5.80  -3.59    +55.4783
iter:  85 06:02:29  -790.645416c -5.72  -3.72    +55.4628
iter:  86 06:03:43  -790.645867c -6.01  -3.75    +55.4572
iter:  87 06:04:58  -790.646075c -6.27  -3.85    +55.4420
iter:  88 06:06:13  -790.645428c -6.47  -3.89    +55.4353
iter:  89 06:07:28  -790.645704c -6.52  -3.96    +55.4269
iter:  90 06:08:42  -790.645266c -6.55  -3.99    +55.4165
iter:  91 06:09:58  -790.645421c -6.67  -4.07c   +55.4111
iter:  92 06:11:12  -790.645113c -6.78  -4.14c   +55.4047
iter:  93 06:12:28  -790.645057c -6.91  -4.17c   +55.3988
iter:  94 06:13:43  -790.645129c -6.94  -4.28c   +55.3924
iter:  95 06:14:58  -790.644991c -6.80  -4.33c   +55.3858
iter:  96 06:16:12  -790.644907c -7.19  -4.34c   +55.3835
iter:  97 06:17:27  -790.645089c -7.16  -4.43c   +55.3787
iter:  98 06:18:42  -790.644921c -7.39  -4.47c   +55.3746
iter:  99 06:19:57  -790.644931c -7.37  -4.55c   +55.3693
iter: 100 06:21:12  -790.644825c -7.04  -4.56c   +55.3592
iter: 101 06:22:28  -790.644762c -6.91  -4.58c   +55.3474
iter: 102 06:23:42  -790.644744c -6.55  -4.56c   +55.3291
iter: 103 06:24:57  -790.644625c -7.53c -4.42c   +55.3299

Converged after 103 iterations.

Dipole moment: (21.388271, 3.873830, -19.199721) |e|*Ang

Total magnetic moment: (0.000000, 0.000000, 55.329899)
Local magnetic moments:
   0 Al ( 0.000000,  0.000000, -0.020485)
   1 Fe ( 0.000000,  0.000000,  1.181806)
   2 Cr ( 0.000000,  0.000000,  0.471860)
   3 Cr ( 0.000000,  0.000000, -0.961865)
   4 Ni ( 0.000000,  0.000000,  0.041893)
   5 Al ( 0.000000,  0.000000, -0.007820)
   6 Al ( 0.000000,  0.000000, -0.003730)
   7 Ni ( 0.000000,  0.000000,  0.231223)
   8 Fe ( 0.000000,  0.000000,  2.413626)
   9 Co ( 0.000000,  0.000000,  0.943198)
  10 Ni ( 0.000000,  0.000000,  0.116545)
  11 Fe ( 0.000000,  0.000000,  2.128586)
  12 Fe ( 0.000000,  0.000000,  1.848982)
  13 Co ( 0.000000,  0.000000,  1.198687)
  14 Cr ( 0.000000,  0.000000, -1.458543)
  15 Co ( 0.000000,  0.000000,  1.059548)
  16 Fe ( 0.000000,  0.000000,  1.669131)
  17 Al ( 0.000000,  0.000000, -0.037416)
  18 Fe ( 0.000000,  0.000000,  1.997229)
  19 Fe ( 0.000000,  0.000000,  2.263569)
  20 Cr ( 0.000000,  0.000000, -1.569265)
  21 Co ( 0.000000,  0.000000,  1.118516)
  22 Al ( 0.000000,  0.000000, -0.034900)
  23 Fe ( 0.000000,  0.000000,  2.060286)
  24 Ni ( 0.000000,  0.000000,  0.152036)
  25 Al ( 0.000000,  0.000000, -0.014254)
  26 Ni ( 0.000000,  0.000000,  0.238825)
  27 Cr ( 0.000000,  0.000000, -1.705866)
  28 Fe ( 0.000000,  0.000000,  2.223326)
  29 Ni ( 0.000000,  0.000000,  0.122950)
  30 Ni ( 0.000000,  0.000000,  0.304429)
  31 Ni ( 0.000000,  0.000000,  0.303862)
  32 Co ( 0.000000,  0.000000,  1.106301)
  33 Cr ( 0.000000,  0.000000, -1.563220)
  34 Fe ( 0.000000,  0.000000,  1.928611)
  35 Ni ( 0.000000,  0.000000,  0.152273)
  36 Fe ( 0.000000,  0.000000,  2.007697)
  37 Co ( 0.000000,  0.000000,  1.071255)
  38 Cr ( 0.000000,  0.000000, -1.401396)
  39 Ni ( 0.000000,  0.000000,  0.016742)
  40 Al ( 0.000000,  0.000000, -0.011842)
  41 Al ( 0.000000,  0.000000, -0.003543)
  42 Cr ( 0.000000,  0.000000,  1.051186)
  43 Al ( 0.000000,  0.000000, -0.022561)
  44 Al ( 0.000000,  0.000000, -0.005083)
  45 Co ( 0.000000,  0.000000,  0.353112)
  46 Cr ( 0.000000,  0.000000, -0.755617)
  47 Ni ( 0.000000,  0.000000,  0.239090)
  48 Fe ( 0.000000,  0.000000,  2.408189)
  49 Fe ( 0.000000,  0.000000,  1.715003)
  50 Al ( 0.000000,  0.000000, -0.029907)
  51 Co ( 0.000000,  0.000000,  1.125510)
  52 Co ( 0.000000,  0.000000,  0.801513)
  53 Ni ( 0.000000,  0.000000,  0.371845)
  54 Ni ( 0.000000,  0.000000, -0.017075)
  55 Co ( 0.000000,  0.000000,  0.874713)
  56 Al ( 0.000000,  0.000000, -0.012542)
  57 Cr ( 0.000000,  0.000000, -1.748143)
  58 Ni ( 0.000000,  0.000000,  0.193888)
  59 Cr ( 0.000000,  0.000000, -1.192648)
[...]
  93 Co ( 0.000000,  0.000000,  1.255493)
  94 Ni ( 0.000000,  0.000000,  0.137308)
  95 Fe ( 0.000000,  0.000000,  1.574801)
  96 Al ( 0.000000,  0.000000, -0.022915)
  97 Al ( 0.000000,  0.000000, -0.014638)
  98 Fe ( 0.000000,  0.000000,  2.303301)
  99 Co ( 0.000000,  0.000000,  1.463340)
 100 Fe ( 0.000000,  0.000000,  2.533937)
 101 Co ( 0.000000,  0.000000,  1.396144)
 102 Al ( 0.000000,  0.000000, -0.047902)
 103 Fe ( 0.000000,  0.000000,  2.369808)
 104 Co ( 0.000000,  0.000000,  1.031409)
 105 Ni ( 0.000000,  0.000000,  0.340329)
 106 Al ( 0.000000,  0.000000, -0.018352)
 107 Cr ( 0.000000,  0.000000,  0.971645)

Energy contributions relative to reference atoms: (reference = -3235165.067515)

Kinetic:       +435.827844
Potential:     -391.038271
External:        +0.000000
XC:            -864.633912
Entropy (-ST):   -3.987764
Local:          +31.193597
Free energy:   -792.638507
Extrapolated:  -790.644625

Spin contamination: 24.394323 electrons
Showing only first 2 kpts
                      Up                     Down
 Kpt  Band  Eigenvalues  Occupancy  Eigenvalues  Occupancy
  0   454      9.04009    0.99502      9.92417    0.02807
  0   455      9.05584    0.99417      9.94841    0.02216
  0   456      9.07873    0.99268      9.96436    0.01896
  0   457      9.08805    0.99197      9.97757    0.01665

  1   454      9.04140    0.99495      9.94063    0.02391
  1   455      9.05454    0.99424      9.95195    0.02141
  1   456      9.06824    0.99340      9.95969    0.01985
  1   457      9.08524    0.99219      9.97449    0.01716

Fermi level: 9.56972

No gap

Forces in eV/Ang:
  0 Al    0.68558   -0.87512   -1.31810
  1 Fe   -1.46436    1.22367   -0.56765
  2 Cr   -0.01741   -0.38954   -1.30015
  3 Cr    0.99661   -0.24525    0.08581
  4 Ni   -1.48432   -1.19517    0.61790
  5 Al    1.06190    0.92410   -1.21984
  6 Al    0.51991    0.75971   -1.37706
  7 Ni   -1.08343    0.06737   -0.78381
  8 Fe   -0.80768   -0.15200    0.06885
  9 Co    0.11391    0.22068    1.39166
 10 Ni    1.30289    0.97020    0.62864
 11 Fe   -1.42975    0.44677    0.22119
 12 Fe   -0.07357    0.78373    0.05453
 13 Co    1.57250   -1.16302   -0.88548
 14 Cr   -1.17222    0.42520    0.56172
 15 Co   -0.59317   -0.09380   -0.74248
 16 Fe    0.94796   -1.54566   -0.39831
 17 Al    0.36084    0.62406   -0.72838
 18 Fe   -1.96512    0.32278   -1.84325
 19 Fe    1.24418   -0.64772    1.84331
 20 Cr   -0.09726    0.92859    0.83241
 21 Co    0.24001    1.74571    0.29157
 22 Al   -0.00980   -0.65809   -0.51415
 23 Fe    0.40403   -0.16276    0.07236
 24 Ni    0.21246   -0.53750    0.06042
 25 Al   -1.74025   -1.37039    1.23660
 26 Ni    0.52471   -0.48099   -0.03972
 27 Cr   -1.29790    0.39130   -1.61733
 28 Fe   -0.54283   -1.23202   -0.01587
 29 Ni   -1.41342    0.49380    0.30937
 30 Ni   -0.96497   -0.19689   -2.52901
 31 Ni    0.89081   -0.49350    0.18792
 32 Co   -0.32819    0.04954    0.43548
 33 Cr    0.51748    0.13268   -0.14329
 34 Fe   -0.76636    0.36695    0.87825
 35 Ni    0.47258   -0.31405   -1.84515
 36 Fe   -0.09754   -0.21161   -0.14307
 37 Co    0.61474    0.59042    0.07254
 38 Cr   -0.96410    0.27928    0.89050
 39 Ni   -0.84044    0.79208    1.75017
 40 Al    0.65444   -0.90623   -0.38150
 41 Al   -0.70097   -0.36652    1.79524
 42 Cr    1.21592    0.12596    0.33130
 43 Al   -0.55254   -0.91148    0.10462
 44 Al   -0.59719   -1.01614   -0.32029
 45 Co    0.89950    0.79345   -1.48918
 46 Cr   -0.26823   -0.23426   -0.23105
 47 Ni   -0.06326   -0.51150   -0.43386
 48 Fe    0.42257    1.54793    0.55240
 49 Fe    1.33696   -0.54205    0.00181
 50 Al   -0.18908    0.88596   -1.54328
 51 Co    0.21357   -0.18843    0.34126
 52 Co    0.03550    0.20216    0.09206
 53 Ni   -1.13662    1.22104   -0.31023
 54 Ni    1.13842    0.09436   -0.36108
 55 Co   -0.44920   -1.56286    1.85759
 56 Al    1.84561   -0.87489    0.06760
 57 Cr   -0.00429    0.93239    2.45837
 58 Ni   -0.35834    0.56978   -1.58529
 59 Cr   -1.11608   -1.03874    0.18669
[...]
 93 Co    0.76196   -1.18625   -0.57046
 94 Ni    2.37790    0.13329    0.82306
 95 Fe   -0.63397    1.04429   -0.24940
 96 Al    1.81960   -0.27315   -2.67770
 97 Al   -0.66738   -0.40117    0.38384
 98 Fe    0.81629    1.07304   -1.38928
 99 Co   -0.92965   -0.09712    0.36339
100 Fe   -0.66403    0.34942   -0.65124
101 Co    0.26705    0.65730   -0.89912
102 Al   -0.29276    1.58794   -1.13161
103 Fe   -0.43952   -0.12052    0.43097
104 Co    0.37252   -0.15273    0.68100
105 Ni   -0.86965   -0.87607    0.01351
106 Al   -2.83448    0.50352    1.90274
107 Cr    0.72288   -0.05667    0.92252

Date: Fri Apr 14 06:25:14 2023