User:   c.zeng@d0075
Date:   Sat Apr 15 22:13:40 2023
Arch:   x86_64
Pid:    284084
CWD:    /home/c.zeng/projects/hea-corrosion/hea-mlp/data-curation/bulk-mcmc/dft-jobs/88
Python: 3.8.1
gpaw:   /home/c.zeng/usr/installs/gpaw/source/gpaw-22.8.0/gpaw
_gpaw:  /home/c.zeng/usr/installs/gpaw/source/gpaw-22.8.0/
        _gpaw.cpython-38-x86_64-linux-gnu.so
ase:    /home/c.zeng/.local/lib/python3.8/site-packages/ase-3.22.1-py3.8.egg/ase (version 3.22.1)
numpy:  /home/c.zeng/.local/lib/python3.8/site-packages/numpy (version 1.24.2)
scipy:  /home/c.zeng/.local/lib/python3.8/site-packages/scipy (version 1.10.1)
units:  Angstrom and eV
cores: 30
OpenMP: False
OMP_NUM_THREADS: 1

Input parameters:
  convergence: {energy: 0.0001}
  kpts: [2 2 2]
  maxiter: 666
  mode: {ecut: 350.0,
         name: pw}
  occupations: {fixmagmom: False,
                name: fermi-dirac,
                width: 0.1}
  spinpol: True
  xc: PBE

System changes: positions, numbers, cell, pbc, initial_charges, initial_magmoms

Initialize ...

species:
  Ni:
    name: Nickel
    id: 0d9f38a9d6e76a2886f07bb4381f212b
    Z: 28.0
    valence: 16
    core: 12
    charge: 0.0
    file: /home/c.zeng/usr/data/gpaw-setups-0.9.20000/Ni.PBE.gz
    compensation charges: {type: gauss,
                           rc: 0.36,
                           lmax: 2}
    cutoffs: {filter: 2.14,
              core: 1.98}
    valence states:
      #              energy  rcut
      - 4s(2.00)    -5.642   1.164
      - 3p(6.00)   -71.394   1.207
      - 4p(0.00)    -1.226   1.207
      - 3d(8.00)    -8.875   1.138
      -  s          21.570   1.164
      -  d          18.337   1.138

    # Using partial waves for Ni as LCAO basis

  Cr:
    name: Chromium
    id: 33f258bda2ca9f93018e70263a35547b
    Z: 24.0
    valence: 6
    core: 18
    charge: 0.0
    file: /home/c.zeng/usr/data/gpaw-setups-0.9.20000/Cr.PBE.gz
    compensation charges: {type: gauss,
                           rc: 0.35,
                           lmax: 2}
    cutoffs: {filter: 2.14,
              core: 3.04}
    valence states:
      #              energy  rcut
      - 4s(1.00)    -4.007   1.164
      - 4p(0.00)    -0.989   1.217
      - 3d(5.00)    -2.913   1.111
      -  s          23.205   1.164
      -  p          26.223   1.217
      -  d          24.299   1.111

[...]

  Fe:
    name: Iron
    id: 37abbd8d6c3c35915a9b583b742da910
    Z: 26.0
    valence: 8
    core: 18
    charge: 0.0
    file: /home/c.zeng/usr/data/gpaw-setups-0.9.20000/Fe.PBE.gz
    compensation charges: {type: gauss,
                           rc: 0.33,
                           lmax: 2}
    cutoffs: {filter: 2.06,
              core: 2.67}
    valence states:
      #              energy  rcut
      - 4s(2.00)    -5.291   1.164
      - 4p(0.00)    -1.326   1.058
      - 3d(6.00)    -7.505   1.058
      -  s          21.920   1.164
      -  p          25.885   1.058
      -  d          19.706   1.058

[...]

  Co:
    name: Cobalt
    id: 339d20d5b0b93d2de9531a1bee871d91
    Z: 27.0
    valence: 9
    core: 18
    charge: 0.0
    file: /home/c.zeng/usr/data/gpaw-setups-0.9.20000/Co.PBE.gz
    compensation charges: {type: gauss,
                           rc: 0.32,
                           lmax: 2}
    cutoffs: {filter: 1.87,
              core: 2.55}
    valence states:
      #              energy  rcut
      - 4s(2.00)    -5.469   1.005
      - 4p(0.00)    -1.277   1.058
      - 3d(7.00)    -8.205   1.005
      -  s          21.742   1.005
      -  p          25.934   1.058
      -  d          19.007   1.005

[...]

  Al:
    name: Aluminium
    id: 0292cae29f5d6237e50f6abdd43a7bdd
    Z: 13.0
    valence: 3
    core: 10
    charge: 0.0
    file: /home/c.zeng/usr/data/gpaw-setups-0.9.20000/Al.PBE.gz
    compensation charges: {type: gauss,
                           rc: 0.34,
                           lmax: 2}
    cutoffs: {filter: 1.91,
              core: 2.36}
    valence states:
      #              energy  rcut
      - 3s(2.00)    -7.753   1.085
      - 3p(1.00)    -2.712   1.085
      -  s          19.459   1.085
      -  p          24.499   1.085
      -  d           0.000   1.085

    # Using partial waves for Al as LCAO basis

Reference energy: -3699400.456887  # eV

Spin-polarized calculation.
Magnetic moment: 143.500000

Convergence criteria:
 Maximum [total energy] change in last 3 cyles: 0.0001 eV / electron
 Maximum integral of absolute [dens]ity change: 0.0001 electrons / valence electron
 Maximum integral of absolute [eigenst]ate change: 4e-08 eV^2 / valence electron
 Maximum number of scf [iter]ations: 666
 (Square brackets indicate name in SCF output, whereas a 'c' in
 the SCF output indicates the quantity has converged.)

Symmetries present (total): 1

  ( 1  0  0)
  ( 0  1  0)
  ( 0  0  1)

8 k-points: 2 x 2 x 2 Monkhorst-Pack grid
4 k-points in the irreducible part of the Brillouin zone
       k-points in crystal coordinates                weights
   0:     0.25000000   -0.25000000   -0.25000000          2/8
   1:     0.25000000   -0.25000000    0.25000000          2/8
   2:     0.25000000    0.25000000   -0.25000000          2/8
   3:     0.25000000    0.25000000    0.25000000          2/8

Wave functions: Plane wave expansion
  Cutoff energy: 350.000 eV
  Number of coefficients (min, max): 18052, 18052
  Pulay-stress correction: 0.000000 eV/Ang^3 (de/decut=0.000000)
  Using FFTW library
  ScaLapack parameters: grid=1x1, blocksize=None
  Wavefunction extrapolation:
    Improved wavefunction reuse through dual PAW basis

Occupation numbers: Fermi-Dirac:
  width: 0.1000  # eV

Eigensolver
   Davidson(niter=2)

Densities:
  Coarse grid: 48*48*48 grid
  Fine grid: 96*96*96 grid
  Total Charge: 0.000000

Density mixing:
  Method: difference
  Backend: pulay
  Linear mixing parameter: 0.05
  old densities: 5
  Damping of long wavelength oscillations: 50

Hamiltonian:
  XC and Coulomb potentials evaluated on a 96*96*96 grid
  Using the PBE Exchange-Correlation functional
  External potential:
    NoExternalPotential

XC parameters: PBE with 2 nearest neighbor stencil

Total number of cores used: 30
Parallelization over k-points: 2
Domain decomposition: 5 x 3 x 1

Number of atoms: 108
Number of atomic orbitals: 1025
Number of bands in calculation: 703
Number of valence electrons: 1020
Bands to converge: occupied

... initialized

Initializing position-dependent things.

Density initialized from atomic densities
Creating initial wave functions:
  703 bands from LCAO basis set

        Ni------------------------.
       /|  Co                Co   |
      Cr|   Cr         Ni         |
     / Fe      Fe       Al        |
    /   CCo      Ni       Fe      |
   /e   | CoCr     CoAl    CrNi   |
  /  FeNi  NiCo     CrCrCo        |
 *    FeFe  FeCoCr     CoAl       |
 |     CoFeCr  CoFe Ni  CrFeNi    |
 | Fe   NiNiNiCo NiCrNiFe  Cr     |
 |   CoCr  CrAlCr   NiCrNi   Fe   |
 |    FeCr  FeFeCoNi CoFeNi   Cr  |
 |     CrFeFe  Cr CrNi  CoFeFe    |
 |      .-CoNiCo-FeCrNiCo--CoNi---.
 |   CrCo    CoAl   NiNiFe       /
 |    / Ni    CrFe       Ni     /
 |   /            Cr           /
 |Cr/      Co       Co        /
 |/            Ni           /
 *----------------Cr-------*

Positions:
   0 Ni     0.005316   -0.016350   10.639749    ( 0.0000,  0.0000,  0.0000)
   1 Cr    10.672340    1.801276    1.786848    ( 0.0000,  0.0000,  0.0000)
   2 Fe     1.795727   10.625972    1.782259    ( 0.0000,  0.0000,  0.0000)
   3 Ni     1.780787    1.796175   10.644605    ( 0.0000,  0.0000,  2.1000)
   4 Fe     3.523539   -0.014558    0.017268    ( 0.0000,  0.0000,  2.0000)
   5 Co     3.522568    1.781672    1.746648    ( 0.0000,  0.0000,  0.0000)
   6 Co     5.320952   10.642342    1.763136    ( 0.0000,  0.0000,  1.5000)
   7 Ni     5.342082    1.828767    0.007462    ( 0.0000,  0.0000,  2.0000)
   8 Cr     7.144895    0.019195    0.012033    ( 0.0000,  0.0000,  0.0000)
   9 Co     7.143497    1.798064    1.764939    ( 0.0000,  0.0000,  2.1000)
  10 Cr     8.891362   10.651627    1.788353    ( 0.0000,  0.0000,  1.5000)
  11 Co     8.888779    1.804777   10.642609    ( 0.0000,  0.0000,  2.0000)
  12 Fe     0.008694    3.581540   10.650250    ( 0.0000,  0.0000,  2.1000)
  13 Cr     0.018979    5.332745    1.789751    ( 0.0000,  0.0000,  2.1000)
  14 Ni     1.778129    3.600941    1.760019    ( 0.0000,  0.0000,  2.0000)
  15 Co     1.790423    5.343267   -0.017766    ( 0.0000,  0.0000,  2.0000)
  16 Cr     3.542802    3.589864   -0.015614    ( 0.0000,  0.0000,  2.0000)
  17 Co     3.526837    5.358538    1.765793    ( 0.0000,  0.0000,  2.0000)
  18 Fe     5.336650    3.606501    1.755815    ( 0.0000,  0.0000,  0.0000)
  19 Ni     5.300399    5.323642   -0.012797    ( 0.0000,  0.0000,  2.1000)
  20 Al     7.122858    3.584816   10.659524    ( 0.0000,  0.0000,  2.0000)
  21 Ni     7.120500    5.315168    1.805502    ( 0.0000,  0.0000,  1.5000)
  22 Ni     8.892034    3.590952    1.773146    ( 0.0000,  0.0000,  2.1000)
  23 Fe     8.925340    5.301487   -0.003100    ( 0.0000,  0.0000,  0.0000)
  24 Cr     0.023055    7.096680   -0.007939    ( 0.0000,  0.0000,  0.0000)
  25 Cr     0.019141    8.871245    1.787510    ( 0.0000,  0.0000,  1.5000)
  26 Co     1.784372    7.104567    1.776443    ( 0.0000,  0.0000,  2.0000)
  27 Co     1.779944    8.867628   10.659406    ( 0.0000,  0.0000,  1.5000)
  28 Cr     3.547785    7.097897    0.009215    ( 0.0000,  0.0000,  2.1000)
  29 Cr     3.541137    8.858109    1.788225    ( 0.0000,  0.0000,  2.1000)
  30 Cr     5.295105    7.099391    1.787894    ( 0.0000,  0.0000,  2.1000)
  31 Ni     5.303685    8.873828    0.029898    ( 0.0000,  0.0000,  0.0000)
  32 Ni     7.106883    7.088719   10.645159    ( 0.0000,  0.0000,  0.0000)
  33 Co     7.111055    8.901137    1.809472    ( 0.0000,  0.0000,  0.0000)
  34 Co     8.939384    7.093404    1.799238    ( 0.0000,  0.0000,  0.0000)
  35 Co     8.919972    8.915853   10.664881    ( 0.0000,  0.0000,  0.0000)
  36 Ni    10.679704   10.658873    3.584517    ( 0.0000,  0.0000,  2.0000)
  37 Fe    10.670921    1.796367    5.340289    ( 0.0000,  0.0000,  2.1000)
  38 Fe     1.770350   10.649001    5.343491    ( 0.0000,  0.0000,  0.0000)
  39 Co     1.791800    1.784671    3.584891    ( 0.0000,  0.0000,  2.0000)
  40 Ni     3.529718   10.626388    3.565234    ( 0.0000,  0.0000,  2.1000)
  41 Fe     3.535716    1.793465    5.367289    ( 0.0000,  0.0000,  1.5000)
  42 Co     5.311497    0.001574    5.366254    ( 0.0000,  0.0000,  1.5000)
  43 Al     5.332627    1.768055    3.580793    ( 0.0000,  0.0000,  0.0000)
  44 Cr     7.136966   10.673941    3.563804    ( 0.0000,  0.0000,  2.0000)
  45 Ni     7.136774    1.794126    5.358944    ( 0.0000,  0.0000,  2.1000)
  46 Co     8.925938   10.673621    5.347589    ( 0.0000,  0.0000,  2.0000)
  47 Fe     8.883827    1.779111    3.582404    ( 0.0000,  0.0000,  1.5000)
  48 Ni    -0.010038    3.572341    3.580996    ( 0.0000,  0.0000,  2.0000)
  49 Co    10.685573    5.328935    5.338550    ( 0.0000,  0.0000,  2.0000)
  50 Cr     1.784180    3.582949    5.348357    ( 0.0000,  0.0000,  1.5000)
  51 Fe     1.766326    5.339510    3.565255    ( 0.0000,  0.0000,  1.5000)
[...]
  54 Co     5.333950    3.591678    5.360630    ( 0.0000,  0.0000,  2.0000)
  55 Cr     5.336458    5.346308    3.560132    ( 0.0000,  0.0000,  0.0000)
  56 Ni     7.143102    3.570089    3.572138    ( 0.0000,  0.0000,  2.1000)
  57 Cr     7.120265    5.347471    5.345689    ( 0.0000,  0.0000,  2.0000)
  58 Ni     8.888299    3.570665    5.342018    ( 0.0000,  0.0000,  1.5000)
  59 Fe     8.904573    5.339084    3.577453    ( 0.0000,  0.0000,  2.0000)
[...]
  93 Cr     7.108740    5.307762    8.854395    ( 0.0000,  0.0000,  1.5000)
  94 Al     8.907593    3.561296    8.890348    ( 0.0000,  0.0000,  2.1000)
  95 Fe     8.917806    5.336309    7.100224    ( 0.0000,  0.0000,  0.0000)
  96 Fe     0.016270    7.102027    7.111664    ( 0.0000,  0.0000,  2.0000)
  97 Fe     0.000822    8.895150    8.883817    ( 0.0000,  0.0000,  1.5000)
  98 Co     1.771182    7.105090    8.888608    ( 0.0000,  0.0000,  1.5000)
  99 Ni     1.775184    8.850318    7.108494    ( 0.0000,  0.0000,  2.0000)
 100 Co     3.530401    7.086478    7.104972    ( 0.0000,  0.0000,  1.5000)
 101 Fe     3.524841    8.851001    8.894798    ( 0.0000,  0.0000,  0.0000)
 102 Co     5.310654    7.102827    8.871128    ( 0.0000,  0.0000,  0.0000)
 103 Cr     5.290613    8.850286    7.104876    ( 0.0000,  0.0000,  0.0000)
 104 Co     7.129016    7.083330    7.142750    ( 0.0000,  0.0000,  2.1000)
 105 Al     7.143241    8.903186    8.854384    ( 0.0000,  0.0000,  2.0000)
 106 Cr     8.926504    7.115858    8.862313    ( 0.0000,  0.0000,  0.0000)
 107 Ni     8.932896    8.877648    7.127479    ( 0.0000,  0.0000,  1.5000)

Unit cell:
           periodic     x           y           z      points  spacing
  1. axis:    yes   10.671700    0.000000    0.000000    48     0.2223
  2. axis:    yes    0.000000   10.671700    0.000000    48     0.2223
  3. axis:    yes    0.000000    0.000000   10.671700    48     0.2223

  Lengths:  10.671700  10.671700  10.671700
  Angles:   90.000000  90.000000  90.000000

Effective grid spacing dv^(1/3) = 0.2223

     iter     time        total  log10-change:  magmom
                         energy  eigst   dens
iter:   1 22:19:08  -958.098628                  +143.1694
iter:   2 22:21:26  -928.592358  -0.49  -1.33    +105.6476
iter:   3 22:23:51  -914.083002  -0.84  -1.31    +75.0297
iter:   4 22:26:23  -877.626740  -1.33  -1.33    +64.5349
iter:   5 22:29:04  -874.116982  -1.89  -1.46    +57.3452
iter:   6 22:31:39  -876.160688  -1.88  -1.49    +53.8374
iter:   7 22:34:15  -875.069085  -1.67  -1.52    +51.7765
iter:   8 22:36:51  -869.874528  -1.78  -1.57    +51.0165
iter:   9 22:39:27  -882.502922  -1.70  -1.71    +50.3161
iter:  10 22:42:03  -867.560432  -1.91  -1.63    +48.7191
iter:  11 22:44:39  -867.630095  -2.54  -1.89    +48.5316
iter:  12 22:47:14  -867.871762  -2.71  -1.92    +49.2076
iter:  13 22:49:50  -868.321731  -2.71  -1.96    +49.7315
iter:  14 22:52:25  -869.421564  -2.67  -1.99    +50.1359
iter:  15 22:55:01  -869.786255  -2.64  -2.01    +50.5996
iter:  16 22:57:36  -870.894661  -2.51  -2.02    +51.1962
iter:  17 23:00:10  -869.156091  -2.75  -2.01    +51.1497
iter:  18 23:02:53  -869.382448  -2.96  -2.19    +51.5503
iter:  19 23:05:53  -869.570601  -2.94  -2.21    +51.8651
iter:  20 23:08:29  -869.351819  -3.10  -2.22    +52.3644
iter:  21 23:11:04  -869.556672  -3.13  -2.30    +52.7976
iter:  22 23:13:40  -869.506203  -3.20  -2.29    +52.9728
iter:  23 23:16:16  -869.537862c -3.29  -2.34    +53.3359
iter:  24 23:18:52  -869.558286c -3.36  -2.39    +53.6134
iter:  25 23:21:39  -869.554962c -3.47  -2.41    +53.9336
iter:  26 23:24:34  -869.649489c -3.56  -2.47    +54.1769
iter:  27 23:27:09  -869.704478  -3.58  -2.49    +54.3159
iter:  28 23:29:45  -869.681435c -3.68  -2.48    +54.7011
iter:  29 23:32:21  -869.821420  -3.65  -2.58    +55.0314
iter:  30 23:34:57  -869.864759  -3.72  -2.54    +55.1730
iter:  31 23:37:32  -869.879668c -3.80  -2.55    +55.3556
iter:  32 23:40:08  -869.952492c -3.74  -2.63    +55.5824
iter:  33 23:42:44  -870.008814  -3.81  -2.59    +55.7592
iter:  34 23:45:19  -869.978021c -4.06  -2.60    +55.8696
iter:  35 23:47:55  -870.071971c -3.89  -2.71    +56.0341
iter:  36 23:50:37  -870.101346  -3.92  -2.67    +56.1112
iter:  37 23:53:36  -870.092029c -4.12  -2.66    +56.2688
iter:  38 23:56:12  -870.201383  -3.92  -2.77    +56.4172
iter:  39 23:58:48  -870.189675  -4.02  -2.68    +56.4293
iter:  40 00:01:24  -870.183549c -4.09  -2.72    +56.5531
iter:  41 00:04:00  -870.227008c -4.22  -2.80    +56.6790
iter:  42 00:06:36  -870.236852c -4.48  -2.79    +56.7677
iter:  43 00:09:11  -870.265539c -4.50  -2.83    +56.8581
iter:  44 00:11:46  -870.311272c -4.31  -2.85    +57.0194
iter:  45 00:14:22  -870.393320  -4.12  -2.82    +57.1934
iter:  46 00:16:56  -870.383683c -4.47  -2.73    +57.2048
iter:  47 00:19:58  -870.429375c -4.18  -2.76    +57.3087
iter:  48 00:22:39  -870.466714c -4.06  -2.74    +57.3475
iter:  49 00:25:15  -870.486274c -3.79  -2.72    +57.3663
iter:  50 00:27:50  -870.427555c -4.31  -2.70    +57.3823
iter:  51 00:30:25  -870.523142c -3.88  -2.83    +57.4244
iter:  52 00:33:02  -870.452919c -4.27  -2.71    +57.4789
iter:  53 00:35:37  -870.475901c -4.11  -2.90    +57.5432
iter:  54 00:38:13  -870.452091c -4.46  -2.84    +57.5617
iter:  55 00:40:47  -870.521819c -3.98  -2.95    +57.6643
iter:  56 00:43:23  -870.464913c -4.36  -2.80    +57.6498
iter:  57 00:45:58  -870.489852c -4.32  -2.99    +57.6847
iter:  58 00:48:33  -870.465362c -4.62  -2.94    +57.6857
iter:  59 00:51:08  -870.473858c -4.73  -3.08    +57.7488
iter:  60 00:53:43  -870.476265c -5.26  -3.09    +57.8008
iter:  61 00:56:31  -870.496017c -4.64  -3.14    +57.8685
iter:  62 00:59:25  -870.504126c -4.64  -3.11    +57.9209
iter:  63 01:02:01  -870.496682c -4.73  -3.05    +57.9647
iter:  64 01:04:36  -870.511404c -4.69  -3.34    +57.9838
iter:  65 01:07:12  -870.500412c -5.03  -3.19    +57.9835
iter:  66 01:09:47  -870.504676c -5.20  -3.46    +58.0150
iter:  67 01:12:23  -870.508968c -5.39  -3.47    +58.0748
iter:  68 01:14:58  -870.516104c -5.32  -3.53    +58.1168
iter:  69 01:17:33  -870.519683c -5.52  -3.47    +58.1041
iter:  70 01:20:08  -870.521299c -5.19  -3.38    +58.1631
iter:  71 01:22:43  -870.523300c -5.53  -3.50    +58.1958
iter:  72 01:25:24  -870.534387c -4.84  -3.54    +58.3254
iter:  73 01:28:24  -870.554362c -4.39  -3.46    +58.5626
iter:  74 01:31:00  -870.554919c -5.14  -3.18    +58.5963
iter:  75 01:33:35  -870.563982c -5.22  -3.29    +58.6470
iter:  76 01:36:11  -870.557938c -5.42  -3.21    +58.6577
iter:  77 01:38:46  -870.559345c -5.30  -3.28    +58.6893
iter:  78 01:41:21  -870.581687c -4.27  -3.21    +58.6987
iter:  79 01:43:57  -870.560377c -4.50  -3.00    +58.6794
iter:  80 01:46:33  -870.548332c -4.91  -3.12    +58.6687
iter:  81 01:49:08  -870.554811c -5.03  -3.34    +58.6668
iter:  82 01:51:44  -870.548039c -5.20  -3.30    +58.6623
iter:  83 01:54:19  -870.546570c -5.68  -3.38    +58.6465
iter:  84 01:56:54  -870.547272c -5.84  -3.43    +58.6537
iter:  85 01:59:29  -870.549418c -5.53  -3.45    +58.6587
iter:  86 02:02:25  -870.548403c -5.52  -3.41    +58.6558
iter:  87 02:05:11  -870.546996c -5.57  -3.45    +58.6556
iter:  88 02:07:47  -870.557559c -4.97  -3.52    +58.6671
iter:  89 02:10:22  -870.551959c -5.15  -3.32    +58.6793
iter:  90 02:12:58  -870.548343c -5.47  -3.47    +58.6740
iter:  91 02:15:34  -870.547817c -5.71  -3.59    +58.6734
iter:  92 02:18:09  -870.547812c -5.82  -3.64    +58.6966
iter:  93 02:20:43  -870.547668c -6.40  -3.70    +58.7057
iter:  94 02:23:44  -870.547830c -6.55  -3.82    +58.7178
iter:  95 02:26:24  -870.548613c -6.03  -3.84    +58.7300
iter:  96 02:29:00  -870.549681c -5.95  -3.74    +58.7362
iter:  97 02:31:35  -870.549077c -6.03  -3.73    +58.7538
iter:  98 02:34:11  -870.549006c -6.06  -3.88    +58.7562
iter:  99 02:36:47  -870.548761c -5.98  -3.97    +58.7703
iter: 100 02:39:22  -870.549037c -6.49  -3.88    +58.7817
iter: 101 02:41:57  -870.549131c -6.68  -4.18c   +58.7987
iter: 102 02:44:47  -870.549035c -6.92  -4.22c   +58.8065
iter: 103 02:47:39  -870.549182c -7.18  -4.25c   +58.8167
iter: 104 02:50:15  -870.549574c -6.24  -4.29c   +58.8558
iter: 105 02:52:50  -870.549827c -6.52  -4.20c   +58.8819
iter: 106 02:55:25  -870.549931c -7.11  -4.16c   +58.8878
iter: 107 02:58:01  -870.549912c -7.12  -4.15c   +58.8918
iter: 108 03:00:53  -870.550078c -7.09  -4.22c   +58.9073
iter: 109 03:03:45  -870.550952c -6.43  -4.25c   +58.9250
iter: 110 03:06:21  -870.550444c -6.56  -4.07c   +58.9235
iter: 111 03:08:56  -870.550316c -6.92  -4.16c   +58.9328
iter: 112 03:11:30  -870.550542c -7.24  -4.34c   +58.9397
iter: 113 03:14:05  -870.550579c -7.23  -4.34c   +58.9486
iter: 114 03:16:37  -870.550683c -7.28  -4.38c   +58.9578
iter: 115 03:19:08  -870.550728c -7.24  -4.39c   +58.9679
iter: 116 03:21:38  -870.550960c -6.42  -4.39c   +59.0009
iter: 117 03:23:58  -870.550666c -6.60  -4.18c   +58.9678
iter: 118 03:26:30  -870.551114c -6.39  -4.43c   +59.0092
iter: 119 03:28:46  -870.551238c -6.68  -4.39c   +59.0308
iter: 120 03:31:07  -870.551144c -7.28  -4.53c   +59.0325
iter: 121 03:33:41  -870.551242c -7.36  -4.63c   +59.0395
iter: 122 03:36:02  -870.551271c -7.02  -4.74c   +59.0508
iter: 123 03:38:27  -870.551412c -6.32  -4.76c   +59.0838
iter: 124 03:40:55  -870.551466c -6.74  -4.68c   +59.0989
iter: 125 03:43:17  -870.551469c -7.67c -4.52c   +59.0975

Converged after 125 iterations.

Dipole moment: (-10.770544, 7.889330, 8.285458) |e|*Ang

Total magnetic moment: (0.000000, 0.000000, 59.097507)
Local magnetic moments:
   0 Ni ( 0.000000,  0.000000,  0.277483)
   1 Cr ( 0.000000,  0.000000, -1.999230)
   2 Fe ( 0.000000,  0.000000,  1.984353)
   3 Ni ( 0.000000,  0.000000,  0.249462)
   4 Fe ( 0.000000,  0.000000,  2.084314)
   5 Co ( 0.000000,  0.000000,  1.440331)
   6 Co ( 0.000000,  0.000000,  1.194858)
   7 Ni ( 0.000000,  0.000000,  0.198697)
   8 Cr ( 0.000000,  0.000000, -1.578115)
   9 Co ( 0.000000,  0.000000,  0.982980)
  10 Cr ( 0.000000,  0.000000,  1.467773)
  11 Co ( 0.000000,  0.000000,  0.984744)
  12 Fe ( 0.000000,  0.000000,  2.156770)
  13 Cr ( 0.000000,  0.000000, -1.594125)
  14 Ni ( 0.000000,  0.000000,  0.300105)
  15 Co ( 0.000000,  0.000000,  0.919584)
  16 Cr ( 0.000000,  0.000000, -1.439322)
  17 Co ( 0.000000,  0.000000,  0.710074)
  18 Fe ( 0.000000,  0.000000,  2.384520)
  19 Ni ( 0.000000,  0.000000,  0.170961)
  20 Al ( 0.000000,  0.000000, -0.021160)
  21 Ni ( 0.000000,  0.000000,  0.275561)
  22 Ni ( 0.000000,  0.000000,  0.271808)
  23 Fe ( 0.000000,  0.000000,  1.629363)
  24 Cr ( 0.000000,  0.000000, -1.094753)
  25 Cr ( 0.000000,  0.000000, -0.274430)
  26 Co ( 0.000000,  0.000000,  0.599469)
  27 Co ( 0.000000,  0.000000,  0.763653)
  28 Cr ( 0.000000,  0.000000, -1.004100)
  29 Cr ( 0.000000,  0.000000, -0.025129)
  30 Cr ( 0.000000,  0.000000, -0.104368)
  31 Ni ( 0.000000,  0.000000,  0.136602)
  32 Ni ( 0.000000,  0.000000,  0.067937)
  33 Co ( 0.000000,  0.000000,  0.958681)
  34 Co ( 0.000000,  0.000000,  0.233433)
  35 Co ( 0.000000,  0.000000,  0.349727)
  36 Ni ( 0.000000,  0.000000,  0.261116)
  37 Fe ( 0.000000,  0.000000,  2.324810)
  38 Fe ( 0.000000,  0.000000,  2.216018)
  39 Co ( 0.000000,  0.000000,  1.373302)
  40 Ni ( 0.000000,  0.000000,  0.281421)
  41 Fe ( 0.000000,  0.000000,  2.028768)
  42 Co ( 0.000000,  0.000000,  1.081374)
  43 Al ( 0.000000,  0.000000, -0.030940)
  44 Cr ( 0.000000,  0.000000, -1.501992)
  45 Ni ( 0.000000,  0.000000,  0.294734)
  46 Co ( 0.000000,  0.000000,  1.322287)
  47 Fe ( 0.000000,  0.000000,  2.321271)
  48 Ni ( 0.000000,  0.000000,  0.342281)
  49 Co ( 0.000000,  0.000000,  1.157690)
  50 Cr ( 0.000000,  0.000000, -1.707285)
  51 Fe ( 0.000000,  0.000000,  2.087909)
  52 Ni ( 0.000000,  0.000000,  0.242060)
  53 Al ( 0.000000,  0.000000, -0.028398)
  54 Co ( 0.000000,  0.000000,  0.914059)
  55 Cr ( 0.000000,  0.000000, -0.559346)
  56 Ni ( 0.000000,  0.000000,  0.281305)
  57 Cr ( 0.000000,  0.000000, -1.128278)
  58 Ni ( 0.000000,  0.000000,  0.373366)
  59 Fe ( 0.000000,  0.000000,  2.153369)
[...]
  93 Cr ( 0.000000,  0.000000, -1.134671)
  94 Al ( 0.000000,  0.000000, -0.035023)
  95 Fe ( 0.000000,  0.000000,  1.756164)
  96 Fe ( 0.000000,  0.000000,  2.037033)
  97 Fe ( 0.000000,  0.000000,  2.050964)
  98 Co ( 0.000000,  0.000000,  1.189530)
  99 Ni ( 0.000000,  0.000000,  0.410701)
 100 Co ( 0.000000,  0.000000,  1.166200)
 101 Fe ( 0.000000,  0.000000,  2.251910)
 102 Co ( 0.000000,  0.000000,  1.074282)
 103 Cr ( 0.000000,  0.000000, -1.588791)
 104 Co ( 0.000000,  0.000000,  0.300815)
 105 Al ( 0.000000,  0.000000, -0.010762)
 106 Cr ( 0.000000,  0.000000, -1.635853)
 107 Ni ( 0.000000,  0.000000,  0.235249)

Energy contributions relative to reference atoms: (reference = -3699400.456887)

Kinetic:       +133.856900
Potential:     -186.234502
External:        +0.000000
XC:            -853.713283
Entropy (-ST):   -4.681442
Local:          +37.880138
Free energy:   -872.892190
Extrapolated:  -870.551469

Spin contamination: 29.517422 electrons
Showing only first 2 kpts
                      Up                     Down
 Kpt  Band  Eigenvalues  Occupancy  Eigenvalues  Occupancy
  0   508      9.68131    0.99068     10.48972    0.03174
  0   509      9.68836    0.99001     10.50050    0.02859
  0   510      9.69823    0.98898     10.50857    0.02643
  0   511      9.70986    0.98764     10.53347    0.02073

  1   508      9.67834    0.99095     10.48437    0.03343
  1   509      9.69517    0.98931     10.50151    0.02831
  1   510      9.71313    0.98723     10.50646    0.02698
  1   511      9.72069    0.98624     10.51391    0.02509

Fermi level: 10.14793

No gap

Forces in eV/Ang:
  0 Ni   -0.08765    0.13948    0.39107
  1 Cr   -0.20080   -0.17495    0.10741
  2 Fe   -0.32510    0.19668   -0.01302
  3 Ni   -0.15140   -0.16528    0.12001
  4 Fe    0.49657    0.25940   -0.23080
  5 Co    0.12631   -0.10129    0.03069
  6 Co    0.23954    0.15761   -0.14341
  7 Ni   -0.11757   -0.59873    0.01702
  8 Cr   -0.30699    0.65189    0.62199
  9 Co   -0.13631   -0.39870    0.05761
 10 Cr    0.09508    0.33795   -0.35001
 11 Co    0.35347   -0.60789    0.55913
 12 Fe    0.38161   -0.11713    0.64695
 13 Cr   -0.02365    0.11899   -0.02813
 14 Ni    0.02512   -0.33274    0.27498
 15 Co   -0.16720    0.22046    0.01906
 16 Cr   -0.33171   -0.02560    0.24455
 17 Co    0.30133    0.10309    0.13978
 18 Fe   -0.45515   -0.16409    0.44481
 19 Ni    0.17542    0.42559    0.13022
 20 Al   -0.21190   -0.63613    1.20303
 21 Ni   -0.06979    0.39694   -0.11670
 22 Ni    0.19714   -0.51868    0.23170
 23 Fe   -0.07347    1.13640    0.11583
 24 Cr    0.26496    0.00656    0.12354
 25 Cr   -0.18164   -0.12198   -0.32941
 26 Co   -0.11066    0.08938   -0.35130
 27 Co   -0.14129   -0.07278    0.37419
 28 Cr   -0.39091   -0.30526   -0.09511
 29 Cr    0.21414    0.04072   -0.35298
 30 Cr    0.16165    0.09973    0.18646
 31 Ni    0.25299    0.22066   -0.12241
 32 Ni    0.30884    0.00042    0.26638
 33 Co    0.00445    0.03323   -0.24087
 34 Co    0.00010    0.22612   -0.32563
 35 Co   -0.19325   -0.55784    0.22864
 36 Ni    0.02511    0.05583   -0.13148
 37 Fe    0.14742   -0.14419    0.11846
 38 Fe    0.09251    0.01980   -0.09190
 39 Co   -0.01546   -0.06469   -0.19710
 40 Ni    0.15506    0.31262    0.14190
 41 Fe   -0.21429    0.02305    0.30695
 42 Co    0.00577   -0.13920    0.07281
 43 Al   -0.34038    0.60274   -0.21360
 44 Cr    0.44634   -0.79655   -0.33173
 45 Ni   -0.17857   -0.14312   -0.06318
 46 Co   -0.13189   -0.11470   -0.03531
 47 Fe    0.00992    0.20526   -0.21156
 48 Ni    0.08497   -0.12113   -0.15146
 49 Co   -0.02079    0.05875    0.11650
 50 Cr   -0.95298   -0.72409   -0.25827
 51 Fe   -0.02658    0.09599   -0.40273
 52 Ni    0.33463   -0.40086   -0.33706
 53 Al   -0.18216   -0.18155    0.14319
 54 Co    0.20599    0.08076   -0.11885
 55 Cr    0.26489    0.12561   -0.55009
 56 Ni   -0.23492    0.05275    0.00022
 57 Cr   -0.17514   -0.23729    0.39920
 58 Ni    0.21781    0.02435   -0.07470
 59 Fe   -0.22791    0.06207   -0.05529
[...]
 93 Cr   -0.85289    1.37362   -0.25510
 94 Al    0.40413   -0.72940   -0.80095
 95 Fe   -0.22701    0.35546   -0.30305
 96 Fe   -0.18303    0.16012   -0.19280
 97 Fe    0.22751   -0.33376    0.23384
 98 Co    0.01751   -0.08007    0.37156
 99 Ni   -0.03824    0.18800    0.03778
100 Co    0.24220    0.33858    0.28355
101 Fe    0.20006    0.27502   -0.15530
102 Co    0.01248   -0.34899    0.05341
103 Cr   -0.28299    0.32097   -0.46201
104 Co    0.09594   -0.19378   -0.38589
105 Al   -0.58612   -0.25910    0.25140
106 Cr    0.54029   -0.72597   -0.18443
107 Ni   -0.19929    0.07541   -0.43932

Date: Sun Apr 16 03:43:59 2023