User:   c.zeng@d0143
Date:   Fri Apr  7 21:13:25 2023
Arch:   x86_64
Pid:    100605
CWD:    /home/c.zeng/projects/hea-corrosion/hea-mlp/data-curation/volume/dft-jobs/0
Python: 3.8.1
gpaw:   /home/c.zeng/usr/installs/gpaw/source/gpaw-22.8.0/gpaw
_gpaw:  /home/c.zeng/usr/installs/gpaw/source/gpaw-22.8.0/
        _gpaw.cpython-38-x86_64-linux-gnu.so
ase:    /home/c.zeng/.local/lib/python3.8/site-packages/ase-3.22.1-py3.8.egg/ase (version 3.22.1)
numpy:  /shared/centos7/python/3.8.1/lib/python3.8/site-packages/numpy (version 1.17.4)
scipy:  /shared/centos7/python/3.8.1/lib/python3.8/site-packages/scipy (version 1.4.1)
units:  Angstrom and eV
cores: 64
OpenMP: False
OMP_NUM_THREADS: 1

Input parameters:
  convergence: {energy: 0.0001}
  kpts: [2 2 2]
  maxiter: 666
  mode: {ecut: 350.0,
         name: pw}
  occupations: {fixmagmom: False,
                name: fermi-dirac,
                width: 0.1}
  spinpol: True
  xc: PBE

System changes: positions, numbers, cell, pbc, initial_charges, initial_magmoms

Initialize ...

species:
  Co:
    name: Cobalt
    id: 339d20d5b0b93d2de9531a1bee871d91
    Z: 27.0
    valence: 9
    core: 18
    charge: 0.0
    file: /home/c.zeng/usr/data/gpaw-setups-0.9.20000/Co.PBE.gz
    compensation charges: {type: gauss,
                           rc: 0.32,
                           lmax: 2}
    cutoffs: {filter: 1.87,
              core: 2.55}
    valence states:
      #              energy  rcut
      - 4s(2.00)    -5.469   1.005
      - 4p(0.00)    -1.277   1.058
      - 3d(7.00)    -8.205   1.005
      -  s          21.742   1.005
      -  p          25.934   1.058
      -  d          19.007   1.005

    # Using partial waves for Co as LCAO basis

  Fe:
    name: Iron
    id: 37abbd8d6c3c35915a9b583b742da910
    Z: 26.0
    valence: 8
    core: 18
    charge: 0.0
    file: /home/c.zeng/usr/data/gpaw-setups-0.9.20000/Fe.PBE.gz
    compensation charges: {type: gauss,
                           rc: 0.33,
                           lmax: 2}
    cutoffs: {filter: 2.06,
              core: 2.67}
    valence states:
      #              energy  rcut
      - 4s(2.00)    -5.291   1.164
      - 4p(0.00)    -1.326   1.058
      - 3d(6.00)    -7.505   1.058
      -  s          21.920   1.164
      -  p          25.885   1.058
      -  d          19.706   1.058

[...]

  Cr:
    name: Chromium
    id: 33f258bda2ca9f93018e70263a35547b
    Z: 24.0
    valence: 6
    core: 18
    charge: 0.0
    file: /home/c.zeng/usr/data/gpaw-setups-0.9.20000/Cr.PBE.gz
    compensation charges: {type: gauss,
                           rc: 0.35,
                           lmax: 2}
    cutoffs: {filter: 2.14,
              core: 3.04}
    valence states:
      #              energy  rcut
      - 4s(1.00)    -4.007   1.164
      - 4p(0.00)    -0.989   1.217
      - 3d(5.00)    -2.913   1.111
      -  s          23.205   1.164
      -  p          26.223   1.217
      -  d          24.299   1.111

[...]

  Ni:
    name: Nickel
    id: 0d9f38a9d6e76a2886f07bb4381f212b
    Z: 28.0
    valence: 16
    core: 12
    charge: 0.0
    file: /home/c.zeng/usr/data/gpaw-setups-0.9.20000/Ni.PBE.gz
    compensation charges: {type: gauss,
                           rc: 0.36,
                           lmax: 2}
    cutoffs: {filter: 2.14,
              core: 1.98}
    valence states:
      #              energy  rcut
      - 4s(2.00)    -5.642   1.164
      - 3p(6.00)   -71.394   1.207
      - 4p(0.00)    -1.226   1.207
      - 3d(8.00)    -8.875   1.138
      -  s          21.570   1.164
      -  d          18.337   1.138

    # Using partial waves for Ni as LCAO basis

Reference energy: -3846758.590871  # eV

Spin-polarized calculation.
Magnetic moment: 151.200000

Convergence criteria:
 Maximum [total energy] change in last 3 cyles: 0.0001 eV / electron
 Maximum integral of absolute [dens]ity change: 0.0001 electrons / valence electron
 Maximum integral of absolute [eigenst]ate change: 4e-08 eV^2 / valence electron
 Maximum number of scf [iter]ations: 666
 (Square brackets indicate name in SCF output, whereas a 'c' in
 the SCF output indicates the quantity has converged.)

Symmetries present (total): 1

  ( 1  0  0)
  ( 0  1  0)
  ( 0  0  1)

8 k-points: 2 x 2 x 2 Monkhorst-Pack grid
4 k-points in the irreducible part of the Brillouin zone
       k-points in crystal coordinates                weights
   0:     0.25000000   -0.25000000   -0.25000000          2/8
   1:     0.25000000   -0.25000000    0.25000000          2/8
   2:     0.25000000    0.25000000   -0.25000000          2/8
   3:     0.25000000    0.25000000    0.25000000          2/8

Wave functions: Plane wave expansion
  Cutoff energy: 350.000 eV
  Number of coefficients (min, max): 26661, 26661
  Pulay-stress correction: 0.000000 eV/Ang^3 (de/decut=0.000000)
  Using FFTW library
  ScaLapack parameters: grid=1x1, blocksize=None
  Wavefunction extrapolation:
    Improved wavefunction reuse through dual PAW basis

Occupation numbers: Fermi-Dirac:
  width: 0.1000  # eV

Eigensolver
   Davidson(niter=2)

Densities:
  Coarse grid: 54*54*54 grid
  Fine grid: 108*108*108 grid
  Total Charge: 0.000000

Density mixing:
  Method: difference
  Backend: pulay
  Linear mixing parameter: 0.05
  old densities: 5
  Damping of long wavelength oscillations: 50

Hamiltonian:
  XC and Coulomb potentials evaluated on a 108*108*108 grid
  Using the PBE Exchange-Correlation functional
  External potential:
    NoExternalPotential

XC parameters: PBE with 2 nearest neighbor stencil

Total number of cores used: 64
Parallelization over k-points: 4
Domain decomposition: 4 x 2 x 2

Number of atoms: 108
Number of atomic orbitals: 1053
Number of bands in calculation: 727
Number of valence electrons: 1053
Bands to converge: occupied

... initialized

Initializing position-dependent things.

Density initialized from atomic densities
Creating initial wave functions:
  727 bands from LCAO basis set

    /  Co        Cr        Co         |
   /    |  Fe        Fe        Cr     |
  / Co  |   CrFe      Co Ni     Cr    |
 *    NiCr      CoNi      NiNi        |
 |Co    | NiCo     Co Fe     Cr       |
 |     Fe        Ni        Co         |
 | Cr Fe|  FeCr Fe   CoNi Co   Cr     |
 |  Ni Cr   NiFe Cr   Ni FeNi   Ni    |
 Co   NiFe Cr   FeFe Ni   FeCo        |
 |Ni    |   Co        Fe              |
 |     Co Co     CrNi      NiNi       |
 | Cr Cr.--CrCo-Cr---CoNi-Ni---Ni-----.
 |  Fe Fe   CrCo Fe   Co NiCo   Cr   /
 Fe   FeCr Fe   FeNi Fe   CrCo      /
 |Co /      Cr        Ni           /
 |  / Fe  Fe    Co Cr     Ni Cr   /
 | /r        Ni        Co        /
 |/    Fe        Cr        Co   /
 Co--------Cr--------Fe--------*

Positions:
   0 Co     0.000000    0.000000    0.000000    ( 0.0000,  0.0000,  2.1000)
   1 Co     0.000000    2.025004    2.025004    ( 0.0000,  0.0000,  2.1000)
   2 Fe     2.025004    0.000000    2.025004    ( 0.0000,  0.0000,  2.0000)
   3 Fe     2.025004    2.025004    0.000000    ( 0.0000,  0.0000,  2.0000)
   4 Cr     4.049996    0.000000    0.000000    ( 0.0000,  0.0000,  0.0000)
   5 Cr     4.049996    2.025004    2.025004    ( 0.0000,  0.0000,  0.0000)
   6 Co     6.075000    0.000000    2.025004    ( 0.0000,  0.0000,  2.1000)
   7 Cr     6.075000    2.025004    0.000000    ( 0.0000,  0.0000,  0.0000)
   8 Fe     8.100004    0.000000    0.000000    ( 0.0000,  0.0000,  2.0000)
   9 Ni     8.100004    2.025004    2.025004    ( 0.0000,  0.0000,  1.5000)
  10 Ni    10.124996    0.000000    2.025004    ( 0.0000,  0.0000,  1.5000)
  11 Co    10.124996    2.025004    0.000000    ( 0.0000,  0.0000,  2.1000)
  12 Cr     0.000000    4.049996    0.000000    ( 0.0000,  0.0000,  0.0000)
  13 Fe     0.000000    6.075000    2.025004    ( 0.0000,  0.0000,  2.0000)
  14 Cr     2.025004    4.049996    2.025004    ( 0.0000,  0.0000,  0.0000)
  15 Fe     2.025004    6.075000    0.000000    ( 0.0000,  0.0000,  2.0000)
  16 Ni     4.049996    4.049996    0.000000    ( 0.0000,  0.0000,  1.5000)
  17 Co     4.049996    6.075000    2.025004    ( 0.0000,  0.0000,  2.1000)
  18 Ni     6.075000    4.049996    2.025004    ( 0.0000,  0.0000,  1.5000)
  19 Cr     6.075000    6.075000    0.000000    ( 0.0000,  0.0000,  0.0000)
  20 Co     8.100004    4.049996    0.000000    ( 0.0000,  0.0000,  2.1000)
  21 Ni     8.100004    6.075000    2.025004    ( 0.0000,  0.0000,  1.5000)
  22 Co    10.124996    4.049996    2.025004    ( 0.0000,  0.0000,  2.1000)
  23 Cr    10.124996    6.075000    0.000000    ( 0.0000,  0.0000,  0.0000)
  24 Fe     0.000000    8.100004    0.000000    ( 0.0000,  0.0000,  2.0000)
  25 Co     0.000000   10.124996    2.025004    ( 0.0000,  0.0000,  2.1000)
  26 Cr     2.025004    8.100004    2.025004    ( 0.0000,  0.0000,  0.0000)
  27 Cr     2.025004   10.124996    0.000000    ( 0.0000,  0.0000,  0.0000)
  28 Fe     4.049996    8.100004    0.000000    ( 0.0000,  0.0000,  2.0000)
  29 Cr     4.049996   10.124996    2.025004    ( 0.0000,  0.0000,  0.0000)
  30 Co     6.075000    8.100004    2.025004    ( 0.0000,  0.0000,  2.1000)
  31 Co     6.075000   10.124996    0.000000    ( 0.0000,  0.0000,  2.1000)
  32 Cr     8.100004    8.100004    0.000000    ( 0.0000,  0.0000,  0.0000)
  33 Ni     8.100004   10.124996    2.025004    ( 0.0000,  0.0000,  1.5000)
  34 Ni    10.124996    8.100004    2.025004    ( 0.0000,  0.0000,  1.5000)
  35 Cr    10.124996   10.124996    0.000000    ( 0.0000,  0.0000,  0.0000)
  36 Fe     0.000000    0.000000    4.049996    ( 0.0000,  0.0000,  2.0000)
  37 Ni     0.000000    2.025004    6.075000    ( 0.0000,  0.0000,  1.5000)
  38 Cr     2.025004    0.000000    6.075000    ( 0.0000,  0.0000,  0.0000)
  39 Fe     2.025004    2.025004    4.049996    ( 0.0000,  0.0000,  2.0000)
  40 Fe     4.049996    0.000000    4.049996    ( 0.0000,  0.0000,  2.0000)
  41 Co     4.049996    2.025004    6.075000    ( 0.0000,  0.0000,  2.1000)
  42 Cr     6.075000    0.000000    6.075000    ( 0.0000,  0.0000,  0.0000)
  43 Fe     6.075000    2.025004    4.049996    ( 0.0000,  0.0000,  2.0000)
  44 Fe     8.100004    0.000000    4.049996    ( 0.0000,  0.0000,  2.0000)
  45 Fe     8.100004    2.025004    6.075000    ( 0.0000,  0.0000,  2.0000)
  46 Ni    10.124996    0.000000    6.075000    ( 0.0000,  0.0000,  1.5000)
  47 Co    10.124996    2.025004    4.049996    ( 0.0000,  0.0000,  2.1000)
  48 Cr     0.000000    4.049996    4.049996    ( 0.0000,  0.0000,  0.0000)
  49 Ni     0.000000    6.075000    6.075000    ( 0.0000,  0.0000,  1.5000)
  50 Fe     2.025004    4.049996    6.075000    ( 0.0000,  0.0000,  2.0000)
  51 Co     2.025004    6.075000    4.049996    ( 0.0000,  0.0000,  2.1000)
  52 Co     4.049996    4.049996    4.049996    ( 0.0000,  0.0000,  2.1000)
  53 Fe     4.049996    6.075000    6.075000    ( 0.0000,  0.0000,  2.0000)
  54 Fe     6.075000    4.049996    6.075000    ( 0.0000,  0.0000,  2.0000)
  55 Ni     6.075000    6.075000    4.049996    ( 0.0000,  0.0000,  1.5000)
  56 Ni     8.100004    4.049996    4.049996    ( 0.0000,  0.0000,  1.5000)
  57 Fe     8.100004    6.075000    6.075000    ( 0.0000,  0.0000,  2.0000)
  58 Co    10.124996    4.049996    6.075000    ( 0.0000,  0.0000,  2.1000)
  59 Ni    10.124996    6.075000    4.049996    ( 0.0000,  0.0000,  1.5000)
[...]
  93 Ni     8.100004    6.075000   10.124996    ( 0.0000,  0.0000,  1.5000)
  94 Ni    10.124996    4.049996   10.124996    ( 0.0000,  0.0000,  1.5000)
  95 Cr    10.124996    6.075000    8.100004    ( 0.0000,  0.0000,  0.0000)
  96 Ni     0.000000    8.100004    8.100004    ( 0.0000,  0.0000,  1.5000)
  97 Co     0.000000   10.124996   10.124996    ( 0.0000,  0.0000,  2.1000)
  98 Fe     2.025004    8.100004   10.124996    ( 0.0000,  0.0000,  2.0000)
  99 Cr     2.025004   10.124996    8.100004    ( 0.0000,  0.0000,  0.0000)
 100 Co     4.049996    8.100004    8.100004    ( 0.0000,  0.0000,  2.1000)
 101 Cr     4.049996   10.124996   10.124996    ( 0.0000,  0.0000,  0.0000)
 102 Fe     6.075000    8.100004   10.124996    ( 0.0000,  0.0000,  2.0000)
 103 Co     6.075000   10.124996    8.100004    ( 0.0000,  0.0000,  2.1000)
 104 Ni     8.100004    8.100004    8.100004    ( 0.0000,  0.0000,  1.5000)
 105 Co     8.100004   10.124996   10.124996    ( 0.0000,  0.0000,  2.1000)
 106 Cr    10.124996    8.100004   10.124996    ( 0.0000,  0.0000,  0.0000)
 107 Cr    10.124996   10.124996    8.100004    ( 0.0000,  0.0000,  0.0000)

Unit cell:
           periodic     x           y           z      points  spacing
  1. axis:    yes   12.150000    0.000000    0.000000    54     0.2250
  2. axis:    yes    0.000000   12.150000    0.000000    54     0.2250
  3. axis:    yes    0.000000    0.000000   12.150000    54     0.2250

  Lengths:  12.150000  12.150000  12.150000
  Angles:   90.000000  90.000000  90.000000

Effective grid spacing dv^(1/3) = 0.2250

     iter     time        total  log10-change:  magmom
                         energy  eigst   dens
iter:   1 21:16:30 -1100.486282                  +151.4725
iter:   2 21:17:49  -887.598528  +0.04  -1.15    +81.5753
iter:   3 21:19:08  -936.572881  -0.45  -1.08    +90.1488
iter:   4 21:20:26  -834.420242  -0.97  -1.14    +84.2144
iter:   5 21:21:44  -814.633838  -1.62  -1.28    +84.9303
iter:   6 21:23:03  -820.469837  -1.74  -1.35    +98.3462
iter:   7 21:24:22  -829.687201  -1.39  -1.33    +106.1234
iter:   8 21:25:41  -816.556744  -1.44  -1.32    +110.6828
iter:   9 21:27:00  -822.478616  -1.24  -1.44    +110.7217
iter:  10 21:28:20  -822.454942  -1.57  -1.52    +109.6038
iter:  11 21:29:40  -818.677409  -1.55  -1.54    +105.5521
iter:  12 21:30:59  -815.301198  -1.68  -1.53    +105.7643
iter:  13 21:32:19  -815.447214  -1.77  -1.63    +102.0830
iter:  14 21:33:37  -810.042118  -2.11  -1.65    +99.8814
iter:  15 21:34:56  -811.736055  -2.35  -1.81    +95.4981
iter:  16 21:36:15  -814.372172  -2.45  -1.85    +91.3054
iter:  17 21:37:34  -815.794880  -2.52  -1.88    +88.9460
iter:  18 21:38:53  -817.378998  -2.65  -1.88    +85.5276
iter:  19 21:40:13  -817.821356  -2.71  -1.93    +82.9213
iter:  20 21:41:33  -819.118803  -2.72  -1.97    +82.3299
iter:  21 21:42:52  -820.101094  -2.78  -1.99    +81.6409
iter:  22 21:44:12  -820.283689  -2.80  -1.98    +80.6435
iter:  23 21:45:31  -821.643694  -2.54  -2.04    +80.6170
iter:  24 21:46:50  -821.681271  -2.63  -2.00    +80.7571
iter:  25 21:48:09  -821.193093  -2.77  -2.02    +81.5568
iter:  26 21:49:28  -821.252110  -2.80  -2.11    +80.8474
iter:  27 21:50:47  -821.320420  -3.03  -2.11    +80.7112
iter:  28 21:52:06  -821.310460c -3.16  -2.15    +81.4324
iter:  29 21:53:26  -821.406135c -3.28  -2.20    +81.4083
iter:  30 21:54:45  -821.339817c -3.46  -2.20    +81.2243
iter:  31 21:56:08  -821.419038c -3.55  -2.25    +80.9041
iter:  32 21:57:30  -821.930998  -2.98  -2.28    +80.8031
iter:  33 21:58:52  -821.449043  -3.11  -2.24    +80.7508
iter:  34 22:00:12  -821.590233  -3.28  -2.41    +80.7944
iter:  35 22:01:32  -821.505565  -3.38  -2.39    +80.6652
iter:  36 22:02:55  -821.503504c -3.82  -2.52    +80.6085
iter:  37 22:04:21  -821.523242c -3.97  -2.56    +80.6515
iter:  38 22:05:45  -821.581378c -4.07  -2.63    +80.4670
iter:  39 22:07:09  -821.654296  -4.02  -2.67    +80.1644
iter:  40 22:08:32  -821.706829  -4.22  -2.66    +79.9716
iter:  41 22:09:55  -821.824356  -4.31  -2.78    +79.5524
iter:  42 22:11:20  -821.952431  -4.19  -2.77    +79.0373
iter:  43 22:12:50  -822.134771  -3.43  -2.75    +77.9086
iter:  44 22:14:17  -822.191039  -4.39  -2.63    +78.3009
iter:  45 22:15:49  -822.192794c -4.36  -2.60    +78.2509
iter:  46 22:17:17  -822.174933c -3.96  -2.60    +78.3417
iter:  47 22:18:45  -822.130824c -3.84  -2.59    +78.3408
iter:  48 22:20:13  -822.108881c -3.35  -2.63    +78.3913
iter:  49 22:21:40  -822.113494c -3.30  -2.66    +78.2695
iter:  50 22:23:12  -822.100006c -3.47  -2.59    +78.1713
iter:  51 22:24:44  -822.027487c -3.82  -2.65    +78.2724
iter:  52 22:26:15  -822.090340c -4.12  -2.95    +78.2653
iter:  53 22:27:44  -821.949311  -3.75  -2.82    +78.2867
iter:  54 22:29:19  -821.962466  -4.01  -3.11    +78.2657
iter:  55 22:30:48  -821.976351c -4.71  -2.91    +78.2469
iter:  56 22:32:20  -822.002943c -4.86  -2.91    +78.2580
iter:  57 22:33:50  -822.009134c -4.90  -2.86    +78.2514
iter:  58 22:35:22  -821.968977c -4.27  -2.85    +78.2352
iter:  59 22:36:54  -822.188558  -3.43  -2.88    +78.2110
iter:  60 22:38:31  -821.961801  -3.87  -2.56    +78.2292
iter:  61 22:40:06  -822.018939  -4.09  -3.11    +78.2172
iter:  62 22:41:39  -822.027222c -3.97  -2.98    +78.2101
iter:  63 22:43:08  -822.077004c -4.26  -2.96    +78.2380
iter:  64 22:44:40  -822.114450c -4.87  -2.89    +78.2309
iter:  65 22:46:17  -822.200507  -4.42  -2.81    +78.2469
iter:  66 22:47:46  -822.185407c -3.77  -2.71    +78.1072
iter:  67 22:49:22  -822.153765c -3.72  -2.62    +78.0848
iter:  68 22:50:56  -822.165225c -3.74  -2.68    +78.0305
iter:  69 22:52:30  -822.272172  -3.29  -2.60    +78.0770
iter:  70 22:54:08  -822.487518  -3.05  -2.48    +78.1149
iter:  71 22:55:21  -822.023701  -3.27  -2.41    +78.0932
iter:  72 22:56:37  -822.116330  -3.68  -2.88    +78.1376
iter:  73 22:57:57  -822.020750c -4.06  -2.71    +78.1290
iter:  74 22:59:20  -821.991773  -4.07  -2.92    +78.1230
iter:  75 23:00:42  -822.001430c -4.60  -3.15    +78.1688
iter:  76 23:02:07  -822.016074c -4.40  -3.17    +78.1490
iter:  77 23:03:32  -822.002515c -4.71  -3.09    +78.1464
iter:  78 23:04:57  -822.005526c -4.96  -3.38    +78.1574
iter:  79 23:06:22  -822.008209c -4.78  -3.41    +78.1595
iter:  80 23:07:48  -822.003255c -5.47  -3.28    +78.1647
iter:  81 23:09:16  -822.004183c -5.62  -3.54    +78.1633
iter:  82 23:10:43  -822.005297c -5.81  -3.46    +78.1653
iter:  83 23:12:11  -822.005943c -5.33  -3.50    +78.1673
iter:  84 23:13:41  -822.004307c -5.45  -3.51    +78.1691
iter:  85 23:15:11  -822.004070c -5.86  -3.72    +78.1681
iter:  86 23:16:38  -822.003973c -5.82  -3.86    +78.1624
iter:  87 23:18:05  -822.004577c -6.18  -3.82    +78.1652
iter:  88 23:19:33  -822.004082c -6.48  -3.93    +78.1647
iter:  89 23:20:57  -822.004097c -6.56  -4.00c   +78.1644
iter:  90 23:22:24  -822.003857c -6.86  -4.04c   +78.1625
iter:  91 23:23:51  -822.004205c -6.83  -4.04c   +78.1607
iter:  92 23:25:21  -822.004287c -6.76  -4.04c   +78.1592
iter:  93 23:26:52  -822.004565c -6.65  -4.15c   +78.1605
iter:  94 23:28:19  -822.004345c -7.06  -4.11c   +78.1619
iter:  95 23:29:49  -822.003874c -6.61  -4.28c   +78.1620
iter:  96 23:31:18  -822.004052c -6.87  -4.16c   +78.1630
iter:  97 23:32:46  -822.004069c -7.07  -4.29c   +78.1641
iter:  98 23:34:16  -822.004010c -7.36  -4.35c   +78.1630
iter:  99 23:35:44  -822.003883c -7.51c -4.39c   +78.1641

Converged after 99 iterations.

Dipole moment: (-0.309407, 0.171535, 0.023198) |e|*Ang

Total magnetic moment: (0.000000, 0.000000, 78.164121)
Local magnetic moments:
   0 Co ( 0.000000,  0.000000,  1.925905)
   1 Co ( 0.000000,  0.000000,  1.805686)
   2 Fe ( 0.000000,  0.000000,  2.983910)
   3 Fe ( 0.000000,  0.000000,  2.970844)
   4 Cr ( 0.000000,  0.000000,  3.056524)
   5 Cr ( 0.000000,  0.000000, -3.290138)
   6 Co ( 0.000000,  0.000000,  1.770003)
   7 Cr ( 0.000000,  0.000000, -3.302624)
   8 Fe ( 0.000000,  0.000000,  3.068834)
   9 Ni ( 0.000000,  0.000000,  0.654767)
  10 Ni ( 0.000000,  0.000000,  0.737126)
  11 Co ( 0.000000,  0.000000,  1.985578)
  12 Cr ( 0.000000,  0.000000, -3.295007)
  13 Fe ( 0.000000,  0.000000,  2.950143)
  14 Cr ( 0.000000,  0.000000, -3.317776)
  15 Fe ( 0.000000,  0.000000,  2.930124)
  16 Ni ( 0.000000,  0.000000,  0.386336)
  17 Co ( 0.000000,  0.000000,  1.823085)
  18 Ni ( 0.000000,  0.000000,  0.593025)
  19 Cr ( 0.000000,  0.000000, -3.325020)
  20 Co ( 0.000000,  0.000000,  1.895712)
  21 Ni ( 0.000000,  0.000000,  0.623117)
  22 Co ( 0.000000,  0.000000,  1.861805)
  23 Cr ( 0.000000,  0.000000, -3.276571)
  24 Fe ( 0.000000,  0.000000,  2.983257)
  25 Co ( 0.000000,  0.000000,  1.826811)
  26 Cr ( 0.000000,  0.000000, -3.296791)
  27 Cr ( 0.000000,  0.000000, -3.262015)
  28 Fe ( 0.000000,  0.000000,  2.891027)
  29 Cr ( 0.000000,  0.000000, -3.256501)
  30 Co ( 0.000000,  0.000000,  1.863627)
  31 Co ( 0.000000,  0.000000,  1.780563)
  32 Cr ( 0.000000,  0.000000,  3.119937)
  33 Ni ( 0.000000,  0.000000,  0.665535)
  34 Ni ( 0.000000,  0.000000,  0.608839)
  35 Cr ( 0.000000,  0.000000, -3.310760)
  36 Fe ( 0.000000,  0.000000,  3.108475)
  37 Ni ( 0.000000,  0.000000,  0.553460)
  38 Cr ( 0.000000,  0.000000, -3.305022)
  39 Fe ( 0.000000,  0.000000,  2.927728)
  40 Fe ( 0.000000,  0.000000,  3.014794)
  41 Co ( 0.000000,  0.000000,  1.642405)
  42 Cr ( 0.000000,  0.000000, -3.303350)
  43 Fe ( 0.000000,  0.000000,  3.031865)
  44 Fe ( 0.000000,  0.000000,  3.122728)
  45 Fe ( 0.000000,  0.000000,  3.058434)
  46 Ni ( 0.000000,  0.000000,  0.657702)
  47 Co ( 0.000000,  0.000000,  1.988003)
  48 Cr ( 0.000000,  0.000000, -3.327476)
  49 Ni ( 0.000000,  0.000000,  0.470572)
  50 Fe ( 0.000000,  0.000000,  3.031880)
  51 Co ( 0.000000,  0.000000,  1.816265)
  52 Co ( 0.000000,  0.000000,  1.853518)
  53 Fe ( 0.000000,  0.000000,  3.065796)
  54 Fe ( 0.000000,  0.000000,  3.005500)
  55 Ni ( 0.000000,  0.000000,  0.776878)
  56 Ni ( 0.000000,  0.000000,  0.744643)
  57 Fe ( 0.000000,  0.000000,  3.075406)
  58 Co ( 0.000000,  0.000000,  1.880729)
  59 Ni ( 0.000000,  0.000000,  0.638063)
[...]
  93 Ni ( 0.000000,  0.000000,  0.406509)
  94 Ni ( 0.000000,  0.000000,  0.475094)
  95 Cr ( 0.000000,  0.000000, -3.294913)
  96 Ni ( 0.000000,  0.000000,  0.404320)
  97 Co ( 0.000000,  0.000000,  1.649836)
  98 Fe ( 0.000000,  0.000000,  2.973523)
  99 Cr ( 0.000000,  0.000000, -3.326771)
 100 Co ( 0.000000,  0.000000,  1.844122)
 101 Cr ( 0.000000,  0.000000, -3.268807)
 102 Fe ( 0.000000,  0.000000,  3.055300)
 103 Co ( 0.000000,  0.000000,  1.876171)
 104 Ni ( 0.000000,  0.000000,  0.458577)
 105 Co ( 0.000000,  0.000000,  1.828069)
 106 Cr ( 0.000000,  0.000000,  3.136362)
 107 Cr ( 0.000000,  0.000000, -3.323711)

Energy contributions relative to reference atoms: (reference = -3846758.590871)

Kinetic:       -377.877891
Potential:     +219.006276
External:        +0.000000
XC:            -693.976070
Entropy (-ST):   -5.441506
Local:          +33.564556
Free energy:   -824.724636
Extrapolated:  -822.003883

Spin contamination: 87.861603 electrons
Showing only first 2 kpts
                      Up                     Down
 Kpt  Band  Eigenvalues  Occupancy  Eigenvalues  Occupancy
  0   524      4.93671    0.99988      6.12039    0.05636
  0   525      4.94467    0.99987      6.12765    0.05262
  0   526      4.95257    0.99986      6.13480    0.04917
  0   527      4.96994    0.99983      6.14486    0.04467

  1   524      4.93500    0.99988      6.11085    0.06166
  1   525      4.94503    0.99987      6.12126    0.05590
  1   526      4.96495    0.99984      6.12951    0.05171
  1   527      4.98014    0.99981      6.14066    0.04650

Fermi level: 5.83860

No gap

Forces in eV/Ang:
  0 Co   -0.04008    0.11373    0.04279
  1 Co   -0.14150   -0.12157    0.03357
  2 Fe   -0.53123   -0.03375    0.16954
  3 Fe   -0.29525    0.19467   -0.13214
  4 Cr    0.22863   -0.24847    0.11432
  5 Cr    0.05273   -0.26255    0.31365
  6 Co    0.24461   -0.10479    0.19213
  7 Cr    0.31657    0.17979   -0.30463
  8 Fe   -0.01483   -0.11278    0.21378
  9 Ni    0.12605    0.03863    0.04024
 10 Ni    0.05870    0.09423    0.03435
 11 Co    0.01453   -0.10445    0.01540
 12 Cr   -0.38377   -0.38622   -0.08348
 13 Fe   -0.12761    0.04640    0.25779
 14 Cr    0.38749    0.44613   -0.09172
 15 Fe    0.05464   -0.03023   -0.08216
 16 Ni   -0.14708    0.01440   -0.04004
 17 Co    0.14987   -0.06634    0.16688
 18 Ni    0.00617    0.02667    0.12447
 19 Cr    0.11547   -0.17604    0.03580
 20 Co    0.19019   -0.10811    0.02797
 21 Ni    0.04629   -0.04834    0.18729
 22 Co   -0.10325   -0.27298   -0.01135
 23 Cr   -0.37037    0.30112   -0.10549
 24 Fe    0.10119    0.06329    0.09271
 25 Co   -0.05618    0.11787    0.18452
 26 Cr   -0.41896   -0.63327    0.44197
 27 Cr   -0.70333    0.35995   -0.25705
 28 Fe    0.04613    0.15781    0.28763
 29 Cr    0.75610    0.45242    0.28887
 30 Co   -0.15959    0.05794    0.15187
 31 Co    0.17144   -0.04483    0.09845
 32 Cr   -0.09667   -0.01159    0.56112
 33 Ni   -0.10941    0.06295    0.12851
 34 Ni    0.12093    0.05315    0.10178
 35 Cr    0.09293   -0.04321    0.12100
 36 Fe   -0.31031    0.01973   -0.21211
 37 Ni   -0.12205   -0.07080   -0.04978
 38 Cr    0.06132    0.29610   -0.41681
 39 Fe    0.03844    0.07088    0.09596
 40 Fe    0.09457   -0.21971    0.08096
 41 Co    0.13941    0.37193   -0.59272
 42 Cr   -0.07995   -0.43640   -0.25782
 43 Fe    0.04554    0.29968   -0.09447
 44 Fe    0.17383   -0.19452   -0.33284
 45 Fe    0.38121    0.21499    0.07749
 46 Ni    0.03447   -0.01555   -0.09366
 47 Co   -0.11371    0.05827   -0.07005
 48 Cr   -0.42565    0.01449    0.34594
 49 Ni    0.11544   -0.00546   -0.05924
 50 Fe    0.05080    0.19542   -0.27373
 51 Co    0.24234    0.01320    0.18696
 52 Co   -0.05359    0.11664    0.08120
 53 Fe    0.12359    0.15242   -0.05835
 54 Fe    0.00593    0.12110   -0.10196
 55 Ni   -0.02475   -0.05152   -0.06909
 56 Ni    0.01513   -0.03875    0.08465
 57 Fe   -0.27430   -0.16824   -0.02053
 58 Co   -0.18225   -0.14973   -0.14202
 59 Ni   -0.10228   -0.01711   -0.03604
[...]
 93 Ni   -0.15596   -0.08446   -0.04429
 94 Ni   -0.04268   -0.09907    0.11542
 95 Cr   -0.28912   -0.02535    0.40355
 96 Ni    0.06887   -0.05418    0.02524
 97 Co    0.14993    0.18538    0.00078
 98 Fe   -0.20949   -0.16745   -0.22712
 99 Cr   -0.34566   -0.33803    0.02780
100 Co    0.21312   -0.02087   -0.04657
101 Cr    0.71203   -0.07455   -0.01599
102 Fe    0.08985    0.08950   -0.49066
103 Co    0.25759   -0.26982   -0.09610
104 Ni   -0.18635    0.12976   -0.08730
105 Co   -0.40733    0.36789   -0.20794
106 Cr    0.02054    0.04198   -0.57555
107 Cr   -0.02302    0.38527    0.37477

Date: Fri Apr  7 23:36:07 2023