User:   c.zeng@d0006
Date:   Thu Apr 13 20:16:12 2023
Arch:   x86_64
Pid:    154755
CWD:    /home/c.zeng/projects/hea-corrosion/hea-mlp/data-curation/bulk-md/dft-jobs/40
Python: 3.8.1
gpaw:   /home/c.zeng/usr/installs/gpaw/source/gpaw-22.8.0/gpaw
_gpaw:  /home/c.zeng/usr/installs/gpaw/source/gpaw-22.8.0/
        _gpaw.cpython-38-x86_64-linux-gnu.so
ase:    /home/c.zeng/.local/lib/python3.8/site-packages/ase-3.22.1-py3.8.egg/ase (version 3.22.1)
numpy:  /shared/centos7/python/3.8.1/lib/python3.8/site-packages/numpy (version 1.17.4)
scipy:  /shared/centos7/python/3.8.1/lib/python3.8/site-packages/scipy (version 1.4.1)
units:  Angstrom and eV
cores: 30
OpenMP: False
OMP_NUM_THREADS: 1

Input parameters:
  convergence: {energy: 0.0001}
  kpts: [2 2 2]
  maxiter: 666
  mode: {ecut: 350.0,
         name: pw}
  occupations: {fixmagmom: False,
                name: fermi-dirac,
                width: 0.1}
  spinpol: True
  xc: PBE

System changes: positions, numbers, cell, pbc, initial_charges, initial_magmoms

Initialize ...

species:
  Co:
    name: Cobalt
    id: 339d20d5b0b93d2de9531a1bee871d91
    Z: 27.0
    valence: 9
    core: 18
    charge: 0.0
    file: /home/c.zeng/usr/data/gpaw-setups-0.9.20000/Co.PBE.gz
    compensation charges: {type: gauss,
                           rc: 0.32,
                           lmax: 2}
    cutoffs: {filter: 1.87,
              core: 2.55}
    valence states:
      #              energy  rcut
      - 4s(2.00)    -5.469   1.005
      - 4p(0.00)    -1.277   1.058
      - 3d(7.00)    -8.205   1.005
      -  s          21.742   1.005
      -  p          25.934   1.058
      -  d          19.007   1.005

    # Using partial waves for Co as LCAO basis

  Ni:
    name: Nickel
    id: 0d9f38a9d6e76a2886f07bb4381f212b
    Z: 28.0
    valence: 16
    core: 12
    charge: 0.0
    file: /home/c.zeng/usr/data/gpaw-setups-0.9.20000/Ni.PBE.gz
    compensation charges: {type: gauss,
                           rc: 0.36,
                           lmax: 2}
    cutoffs: {filter: 2.14,
              core: 1.98}
    valence states:
      #              energy  rcut
      - 4s(2.00)    -5.642   1.164
      - 3p(6.00)   -71.394   1.207
      - 4p(0.00)    -1.226   1.207
      - 3d(8.00)    -8.875   1.138
      -  s          21.570   1.164
      -  d          18.337   1.138

[...]

  Al:
    name: Aluminium
    id: 0292cae29f5d6237e50f6abdd43a7bdd
    Z: 13.0
    valence: 3
    core: 10
    charge: 0.0
    file: /home/c.zeng/usr/data/gpaw-setups-0.9.20000/Al.PBE.gz
    compensation charges: {type: gauss,
                           rc: 0.34,
                           lmax: 2}
    cutoffs: {filter: 1.91,
              core: 2.36}
    valence states:
      #              energy  rcut
      - 3s(2.00)    -7.753   1.085
      - 3p(1.00)    -2.712   1.085
      -  s          19.459   1.085
      -  p          24.499   1.085
      -  d           0.000   1.085

[...]

  Cr:
    name: Chromium
    id: 33f258bda2ca9f93018e70263a35547b
    Z: 24.0
    valence: 6
    core: 18
    charge: 0.0
    file: /home/c.zeng/usr/data/gpaw-setups-0.9.20000/Cr.PBE.gz
    compensation charges: {type: gauss,
                           rc: 0.35,
                           lmax: 2}
    cutoffs: {filter: 2.14,
              core: 3.04}
    valence states:
      #              energy  rcut
      - 4s(1.00)    -4.007   1.164
      - 4p(0.00)    -0.989   1.217
      - 3d(5.00)    -2.913   1.111
      -  s          23.205   1.164
      -  p          26.223   1.217
      -  d          24.299   1.111

[...]

  Fe:
    name: Iron
    id: 37abbd8d6c3c35915a9b583b742da910
    Z: 26.0
    valence: 8
    core: 18
    charge: 0.0
    file: /home/c.zeng/usr/data/gpaw-setups-0.9.20000/Fe.PBE.gz
    compensation charges: {type: gauss,
                           rc: 0.33,
                           lmax: 2}
    cutoffs: {filter: 2.06,
              core: 2.67}
    valence states:
      #              energy  rcut
      - 4s(2.00)    -5.291   1.164
      - 4p(0.00)    -1.326   1.058
      - 3d(6.00)    -7.505   1.058
      -  s          21.920   1.164
      -  p          25.885   1.058
      -  d          19.706   1.058

    # Using partial waves for Fe as LCAO basis

Reference energy: -3548577.034362  # eV

Spin-polarized calculation.
Magnetic moment: 136.400000

Convergence criteria:
 Maximum [total energy] change in last 3 cyles: 0.0001 eV / electron
 Maximum integral of absolute [dens]ity change: 0.0001 electrons / valence electron
 Maximum integral of absolute [eigenst]ate change: 4e-08 eV^2 / valence electron
 Maximum number of scf [iter]ations: 666
 (Square brackets indicate name in SCF output, whereas a 'c' in
 the SCF output indicates the quantity has converged.)

Symmetries present (total): 1

  ( 1  0  0)
  ( 0  1  0)
  ( 0  0  1)

8 k-points: 2 x 2 x 2 Monkhorst-Pack grid
4 k-points in the irreducible part of the Brillouin zone
       k-points in crystal coordinates                weights
   0:     0.25000000   -0.25000000   -0.25000000          2/8
   1:     0.25000000   -0.25000000    0.25000000          2/8
   2:     0.25000000    0.25000000   -0.25000000          2/8
   3:     0.25000000    0.25000000    0.25000000          2/8

Wave functions: Plane wave expansion
  Cutoff energy: 350.000 eV
  Number of coefficients (min, max): 18331, 18331
  Pulay-stress correction: 0.000000 eV/Ang^3 (de/decut=0.000000)
  Using FFTW library
  ScaLapack parameters: grid=1x1, blocksize=None
  Wavefunction extrapolation:
    Improved wavefunction reuse through dual PAW basis

Occupation numbers: Fermi-Dirac:
  width: 0.1000  # eV

Eigensolver
   Davidson(niter=2)

Densities:
  Coarse grid: 48*48*48 grid
  Fine grid: 96*96*96 grid
  Total Charge: 0.000000

Density mixing:
  Method: difference
  Backend: pulay
  Linear mixing parameter: 0.05
  old densities: 5
  Damping of long wavelength oscillations: 50

Hamiltonian:
  XC and Coulomb potentials evaluated on a 96*96*96 grid
  Using the PBE Exchange-Correlation functional
  External potential:
    NoExternalPotential

XC parameters: PBE with 2 nearest neighbor stencil

Total number of cores used: 30
Parallelization over k-points: 2
Domain decomposition: 5 x 3 x 1

Number of atoms: 108
Number of atomic orbitals: 994
Number of bands in calculation: 674
Number of valence electrons: 980
Bands to converge: occupied

... initialized

Initializing position-dependent things.

Density initialized from atomic densities
Creating initial wave functions:
  674 bands from LCAO basis set

       /|           Fe            |
      / |   Co         Fe      Fe |
     / Ni     FeNi      Ni        |
    /   |Ali      Co     Ni       |
   /    |   Cr     Feo     FeCo   |
  /   Cr|  CoFe       Ni     FCo  |
 *    CNi Cr  CoCAl    CoCr  Al   |
 |     NiFeFe     CoCr  CrCrCo    |
 |      | CrCoFe   CoFeAlCrFeCr   Ni
 |   FFe|   NNiCr  Cr CoNi  Ni    |
 Al   NFeFe   Co Co Fe CrCr   Fe  |
 |      |NiNi  Ni CCo   CrFeNi   Al
 |   Co CoNiNiCo---CCr----CFeCr---.
 |     Ni  Cr CNi     CNi    CFe /
 |    /                  Cr     /
 |Ni / AlCo     Al        Cr   /
 |  /      Fe      Fe         /
 | / Al              Co      /
 |/            Fe       Al  /

Positions:
   0 Co    10.753645   -0.098681   10.769992    ( 0.0000,  0.0000,  2.1000)
   1 Ni    10.731395    1.689052    2.253358    ( 0.0000,  0.0000,  1.5000)
   2 Al     1.844436    0.031058    1.713105    ( 0.0000,  0.0000,  0.0000)
   3 Cr     1.530229    1.971328   10.648660    ( 0.0000,  0.0000,  0.0000)
   4 Cr     3.580300    0.031774   10.610529    ( 0.0000,  0.0000,  0.0000)
   5 Fe     3.472242    1.827747    1.665291    ( 0.0000,  0.0000,  2.0000)
   6 Fe     5.131449   -0.096971    1.804106    ( 0.0000,  0.0000,  2.0000)
   7 Fe     5.487020    1.679236    0.014088    ( 0.0000,  0.0000,  2.0000)
   8 Cr     7.332734   -0.064541    0.068363    ( 0.0000,  0.0000,  0.0000)
   9 Fe     7.040123    1.595312    1.906580    ( 0.0000,  0.0000,  2.0000)
  10 Fe     8.989164   -0.075282    1.927057    ( 0.0000,  0.0000,  2.0000)
  11 Al     9.163184    1.846011    0.100276    ( 0.0000,  0.0000,  0.0000)
  12 Co    10.696519    3.824999   10.490612    ( 0.0000,  0.0000,  2.1000)
  13 Fe    10.697872    5.427444    1.769700    ( 0.0000,  0.0000,  2.0000)
  14 Al     1.707629    3.506423    1.701269    ( 0.0000,  0.0000,  0.0000)
  15 Al     1.901599    5.464880   10.497469    ( 0.0000,  0.0000,  0.0000)
  16 Cr     3.411815    3.523461   10.599571    ( 0.0000,  0.0000,  0.0000)
  17 Cr     3.703402    5.489255    1.789584    ( 0.0000,  0.0000,  0.0000)
  18 Al     5.354605    3.447546    1.827703    ( 0.0000,  0.0000,  0.0000)
  19 Co     5.558217    5.325980   10.621567    ( 0.0000,  0.0000,  2.1000)
  20 Co     7.350127    3.612444    0.041883    ( 0.0000,  0.0000,  2.1000)
  21 Cr     7.151470    5.463368    1.792773    ( 0.0000,  0.0000,  0.0000)
  22 Cr     8.737942    3.659483    1.959018    ( 0.0000,  0.0000,  0.0000)
  23 Cr     8.919215    5.330772    0.020110    ( 0.0000,  0.0000,  0.0000)
  24 Fe    10.650422    7.139828   10.717159    ( 0.0000,  0.0000,  2.0000)
  25 Al    10.637121    8.933017    1.895446    ( 0.0000,  0.0000,  0.0000)
  26 Ni     1.802248    7.020616    1.995888    ( 0.0000,  0.0000,  1.5000)
  27 Cr     1.788501    8.750567   10.784172    ( 0.0000,  0.0000,  0.0000)
  28 Fe     3.638724    7.086274   10.545271    ( 0.0000,  0.0000,  2.0000)
  29 Ni     3.582216    8.752727    1.811821    ( 0.0000,  0.0000,  1.5000)
  30 Co     5.477112    7.238931    1.737965    ( 0.0000,  0.0000,  2.1000)
  31 Fe     5.278894    9.012311   10.718373    ( 0.0000,  0.0000,  2.0000)
  32 Fe     7.113540    7.079386   10.696731    ( 0.0000,  0.0000,  2.0000)
  33 Cr     7.229430    8.921197    1.596905    ( 0.0000,  0.0000,  0.0000)
  34 Fe     8.896877    7.053782    1.841923    ( 0.0000,  0.0000,  2.0000)
  35 Cr     8.993267    8.779558    0.042780    ( 0.0000,  0.0000,  0.0000)
  36 Ni    10.663060   -0.087602    3.730626    ( 0.0000,  0.0000,  1.5000)
  37 Ni    -0.116700    1.880367    5.310068    ( 0.0000,  0.0000,  1.5000)
  38 Co     1.748367    0.045219    5.414710    ( 0.0000,  0.0000,  2.1000)
  39 Ni     1.933451    1.806075    3.701007    ( 0.0000,  0.0000,  1.5000)
  40 Co     3.484736    0.041292    3.612603    ( 0.0000,  0.0000,  2.1000)
  41 Ni     3.657779    1.840743    5.464465    ( 0.0000,  0.0000,  1.5000)
  42 Co     5.321882    0.112295    5.417727    ( 0.0000,  0.0000,  2.1000)
  43 Ni     5.282202    1.801810    3.680962    ( 0.0000,  0.0000,  1.5000)
  44 Cr     6.927568   -0.021962    3.584337    ( 0.0000,  0.0000,  0.0000)
  45 Co     7.122126    1.751364    5.333138    ( 0.0000,  0.0000,  2.1000)
  46 Al     8.812165   10.672184    5.356857    ( 0.0000,  0.0000,  0.0000)
  47 Ni     8.756279    1.725151    3.685383    ( 0.0000,  0.0000,  1.5000)
  48 Cr    10.671795    3.615865    3.541987    ( 0.0000,  0.0000,  0.0000)
  49 Fe     0.130167    5.479584    5.317877    ( 0.0000,  0.0000,  2.0000)
  50 Fe     1.628612    3.606293    5.291358    ( 0.0000,  0.0000,  2.0000)
  51 Ni     1.854775    5.229053    3.462531    ( 0.0000,  0.0000,  1.5000)
  52 Ni     3.662415    3.557298    3.736740    ( 0.0000,  0.0000,  1.5000)
  53 Ni     3.603593    5.262450    5.525569    ( 0.0000,  0.0000,  1.5000)
  54 Co     5.502764    3.457452    5.477289    ( 0.0000,  0.0000,  2.1000)
  55 Cr     5.398310    5.459068    3.538790    ( 0.0000,  0.0000,  0.0000)
  56 Cr     6.950265    3.558043    3.565563    ( 0.0000,  0.0000,  0.0000)
  57 Co     7.149090    5.303079    5.381035    ( 0.0000,  0.0000,  2.1000)
  58 Cr     8.837257    3.519612    5.335077    ( 0.0000,  0.0000,  0.0000)
  59 Fe     8.908863    5.426302    3.638429    ( 0.0000,  0.0000,  2.0000)
[...]
  93 Ni     7.276936    5.400261    8.741757    ( 0.0000,  0.0000,  1.5000)
  94 Cr     8.968990    3.596964    8.888391    ( 0.0000,  0.0000,  0.0000)
  95 Cr     8.887083    5.395583    6.983593    ( 0.0000,  0.0000,  0.0000)
  96 Co    10.750520    7.174463    7.073064    ( 0.0000,  0.0000,  2.1000)
  97 Ni    10.753406    8.918714    8.890812    ( 0.0000,  0.0000,  1.5000)
  98 Ni     1.637921    7.160675    8.979688    ( 0.0000,  0.0000,  1.5000)
  99 Co     1.836438    8.854697    7.068681    ( 0.0000,  0.0000,  2.1000)
 100 Co     3.600954    7.226152    7.140109    ( 0.0000,  0.0000,  2.1000)
 101 Ni     3.615072    8.927161    8.885548    ( 0.0000,  0.0000,  1.5000)
 102 Fe     5.395766    7.162201    8.893350    ( 0.0000,  0.0000,  2.0000)
 103 Co     5.232185    9.102892    7.194466    ( 0.0000,  0.0000,  2.1000)
 104 Co     7.122272    7.274200    7.041554    ( 0.0000,  0.0000,  2.1000)
 105 Ni     7.187141    8.963345    8.845796    ( 0.0000,  0.0000,  1.5000)
 106 Fe     8.989165    7.198312    8.850560    ( 0.0000,  0.0000,  2.0000)
 107 Fe     8.972062    8.950266    7.080743    ( 0.0000,  0.0000,  2.0000)

Unit cell:
           periodic     x           y           z      points  spacing
  1. axis:    yes   10.722400    0.000000    0.000000    48     0.2234
  2. axis:    yes    0.000000   10.722400    0.000000    48     0.2234
  3. axis:    yes    0.000000    0.000000   10.722400    48     0.2234

  Lengths:  10.722400  10.722400  10.722400
  Angles:   90.000000  90.000000  90.000000

Effective grid spacing dv^(1/3) = 0.2234

     iter     time        total  log10-change:  magmom
                         energy  eigst   dens
iter:   1 20:21:17 -1021.822048                  +136.6833
iter:   2 20:23:34  -909.719279  -0.23  -1.19    +75.8244
iter:   3 20:25:50  -903.403959  -0.80  -1.20    +63.6468
iter:   4 20:28:08  -878.825856  -1.19  -1.27    +59.2953
iter:   5 20:30:24  -864.966209  -1.58  -1.28    +55.6796
iter:   6 20:32:40  -872.270592  -1.25  -1.36    +55.6145
iter:   7 20:34:57  -855.877409  -1.24  -1.40    +53.6437
iter:   8 20:37:14  -847.181453  -1.58  -1.55    +52.5999
iter:   9 20:39:30  -846.462102  -2.01  -1.73    +53.4840
iter:  10 20:41:46  -845.779281  -2.22  -1.76    +54.3894
iter:  11 20:44:04  -845.554721  -2.45  -1.81    +54.8645
iter:  12 20:46:21  -845.542194  -2.51  -1.83    +56.4388
iter:  13 20:48:37  -846.944267  -2.39  -1.88    +57.6077
iter:  14 20:50:54  -846.193380  -2.36  -1.89    +57.8006
iter:  15 20:53:10  -847.662865  -2.36  -1.97    +58.5069
iter:  16 20:55:27  -845.944924  -2.52  -1.93    +58.8625
iter:  17 20:57:43  -846.767253  -2.57  -2.06    +60.1068
iter:  18 20:59:59  -845.766870  -2.69  -2.02    +59.9831
iter:  19 21:02:16  -845.525854  -2.97  -2.12    +60.2607
iter:  20 21:04:32  -845.282927  -3.29  -2.15    +61.0597
iter:  21 21:07:16  -845.461296  -3.30  -2.23    +61.4863
iter:  22 21:10:16  -845.398136  -3.37  -2.22    +61.7659
iter:  23 21:12:34  -845.820131  -3.13  -2.26    +61.8244
iter:  24 21:14:50  -845.821675  -3.03  -2.23    +62.2329
iter:  25 21:17:07  -845.953975  -3.01  -2.25    +62.3954
iter:  26 21:19:24  -845.609789  -3.22  -2.26    +62.0625
iter:  27 21:21:41  -845.739761  -3.26  -2.37    +62.1438
iter:  28 21:23:57  -845.538090  -3.43  -2.34    +62.1935
iter:  29 21:26:14  -845.592768  -3.67  -2.42    +62.4912
iter:  30 21:28:31  -845.589997c -3.65  -2.45    +62.3961
iter:  31 21:30:48  -845.584329c -3.74  -2.46    +62.5007
iter:  32 21:33:04  -845.569297c -3.96  -2.48    +62.6545
iter:  33 21:35:22  -845.687753  -3.71  -2.53    +62.6769
iter:  34 21:37:38  -845.676830  -3.67  -2.48    +62.7181
iter:  35 21:39:55  -845.716863c -3.63  -2.53    +62.6442
iter:  36 21:42:11  -845.765599c -3.60  -2.52    +62.7629
iter:  37 21:44:28  -845.732474c -3.60  -2.54    +62.7244
iter:  38 21:46:45  -845.657939  -3.87  -2.57    +62.6483
iter:  39 21:49:01  -845.648574c -4.10  -2.65    +62.7271
iter:  40 21:51:18  -845.650346c -4.35  -2.69    +62.7103
iter:  41 21:53:34  -845.651846c -4.41  -2.71    +62.7338
iter:  42 21:55:51  -845.661799c -4.45  -2.73    +62.6992
iter:  43 21:58:09  -845.697391c -4.22  -2.74    +62.7399
iter:  44 22:00:26  -845.719390c -4.06  -2.74    +62.7254
iter:  45 22:02:43  -845.741130c -4.02  -2.72    +62.6409
iter:  46 22:05:00  -845.736194c -4.01  -2.72    +62.6545
iter:  47 22:07:23  -845.730670c -3.99  -2.76    +62.6447
iter:  48 22:10:32  -845.722811c -4.23  -2.78    +62.6985
iter:  49 22:13:02  -845.711210c -4.50  -2.84    +62.6167
iter:  50 22:15:19  -845.702737c -4.58  -2.90    +62.6121
iter:  51 22:17:36  -845.706916c -5.06  -2.94    +62.6117
iter:  52 22:19:54  -845.723681c -4.80  -2.97    +62.5800
iter:  53 22:22:11  -845.743826c -4.43  -2.95    +62.5449
iter:  54 22:24:28  -845.745125c -4.29  -2.90    +62.5024
iter:  55 22:26:46  -845.745032c -4.36  -2.92    +62.5449
iter:  56 22:29:03  -845.762862c -4.27  -2.98    +62.5068
iter:  57 22:31:20  -845.740704c -4.57  -2.93    +62.4454
iter:  58 22:33:38  -845.733210c -4.88  -3.06    +62.4156
iter:  59 22:35:56  -845.734369c -5.26  -3.13    +62.4115
iter:  60 22:38:13  -845.738539c -5.47  -3.18    +62.4022
iter:  61 22:40:30  -845.742239c -5.40  -3.19    +62.3580
iter:  62 22:42:47  -845.747932c -5.08  -3.20    +62.3494
iter:  63 22:45:04  -845.753327c -4.94  -3.17    +62.3259
iter:  64 22:47:20  -845.763824c -4.77  -3.20    +62.2953
iter:  65 22:49:37  -845.763988c -4.71  -3.17    +62.2619
iter:  66 22:51:54  -845.761770c -4.65  -3.18    +62.2244
iter:  67 22:54:12  -845.759267c -4.84  -3.20    +62.2486
iter:  68 22:56:29  -845.759405c -5.23  -3.30    +62.2087
iter:  69 22:58:46  -845.757548c -5.53  -3.41    +62.1772
iter:  70 23:01:04  -845.758629c -5.92  -3.50    +62.1423
iter:  71 23:03:22  -845.761758c -5.59  -3.53    +62.0901
iter:  72 23:05:39  -845.774024c -4.38  -3.54    +61.8148
iter:  73 23:07:56  -845.780374c -4.63  -3.48    +61.7036
iter:  74 23:10:13  -845.785637c -4.78  -3.38    +61.6634
iter:  75 23:12:31  -845.783871c -5.40  -3.33    +61.6992
iter:  76 23:14:48  -845.783936c -5.44  -3.38    +61.6981
iter:  77 23:17:39  -845.781867c -5.51  -3.47    +61.6936
iter:  78 23:20:37  -845.781799c -5.41  -3.72    +61.6704
iter:  79 23:22:55  -845.781186c -5.94  -3.67    +61.6541
iter:  80 23:25:13  -845.780869c -6.37  -3.88    +61.6225
iter:  81 23:27:31  -845.780482c -6.39  -3.91    +61.5848
iter:  82 23:29:48  -845.780992c -6.61  -3.92    +61.5776
iter:  83 23:32:06  -845.780376c -6.60  -3.94    +61.5693
iter:  84 23:34:24  -845.780610c -6.62  -4.05c   +61.5617
iter:  85 23:36:41  -845.780336c -6.66  -4.06c   +61.5572
iter:  86 23:39:00  -845.780369c -6.94  -4.16c   +61.5501
iter:  87 23:41:17  -845.780278c -7.36  -4.23c   +61.5429
iter:  88 23:43:34  -845.780252c -7.37  -4.28c   +61.5380
iter:  89 23:45:51  -845.780202c -7.30  -4.30c   +61.5315
iter:  90 23:48:10  -845.780314c -7.29  -4.34c   +61.5307
iter:  91 23:50:27  -845.780156c -7.46c -4.41c   +61.5281

Converged after 91 iterations.

Dipole moment: (10.748498, 7.508633, 30.785162) |e|*Ang

Total magnetic moment: (0.000000, 0.000000, 61.528088)
Local magnetic moments:
   0 Co ( 0.000000,  0.000000,  0.621246)
   1 Ni ( 0.000000,  0.000000,  0.127468)
   2 Al ( 0.000000,  0.000000, -0.010092)
   3 Cr ( 0.000000,  0.000000,  1.415526)
   4 Cr ( 0.000000,  0.000000, -1.612389)
   5 Fe ( 0.000000,  0.000000,  1.918918)
   6 Fe ( 0.000000,  0.000000,  1.923650)
   7 Fe ( 0.000000,  0.000000,  1.878713)
   8 Cr ( 0.000000,  0.000000, -0.725009)
   9 Fe ( 0.000000,  0.000000,  1.794795)
  10 Fe ( 0.000000,  0.000000,  2.061678)
  11 Al ( 0.000000,  0.000000, -0.017369)
  12 Co ( 0.000000,  0.000000, -0.093935)
  13 Fe ( 0.000000,  0.000000,  1.949135)
  14 Al ( 0.000000,  0.000000, -0.001990)
  15 Al ( 0.000000,  0.000000, -0.019706)
  16 Cr ( 0.000000,  0.000000, -1.334848)
  17 Cr ( 0.000000,  0.000000, -1.604760)
  18 Al ( 0.000000,  0.000000, -0.013638)
  19 Co ( 0.000000,  0.000000,  1.064720)
  20 Co ( 0.000000,  0.000000,  0.603393)
  21 Cr ( 0.000000,  0.000000, -0.820599)
  22 Cr ( 0.000000,  0.000000,  0.975993)
  23 Cr ( 0.000000,  0.000000, -1.276094)
  24 Fe ( 0.000000,  0.000000,  1.828401)
  25 Al ( 0.000000,  0.000000, -0.015175)
  26 Ni ( 0.000000,  0.000000,  0.180513)
  27 Cr ( 0.000000,  0.000000, -2.104476)
  28 Fe ( 0.000000,  0.000000,  2.028150)
  29 Ni ( 0.000000,  0.000000,  0.119203)
  30 Co ( 0.000000,  0.000000,  0.325247)
  31 Fe ( 0.000000,  0.000000,  1.994916)
  32 Fe ( 0.000000,  0.000000,  1.471983)
  33 Cr ( 0.000000,  0.000000,  0.003231)
  34 Fe ( 0.000000,  0.000000,  1.411172)
  35 Cr ( 0.000000,  0.000000, -0.971005)
  36 Ni ( 0.000000,  0.000000,  0.320258)
  37 Ni ( 0.000000,  0.000000,  0.158327)
  38 Co ( 0.000000,  0.000000,  1.401279)
  39 Ni ( 0.000000,  0.000000,  0.439069)
  40 Co ( 0.000000,  0.000000,  1.475328)
  41 Ni ( 0.000000,  0.000000,  0.340016)
  42 Co ( 0.000000,  0.000000,  1.204102)
  43 Ni ( 0.000000,  0.000000,  0.201552)
  44 Cr ( 0.000000,  0.000000, -0.896138)
  45 Co ( 0.000000,  0.000000,  0.901885)
  46 Al ( 0.000000,  0.000000, -0.015947)
  47 Ni ( 0.000000,  0.000000,  0.135016)
  48 Cr ( 0.000000,  0.000000, -1.404818)
  49 Fe ( 0.000000,  0.000000,  1.954288)
  50 Fe ( 0.000000,  0.000000,  2.260363)
  51 Ni ( 0.000000,  0.000000,  0.266543)
  52 Ni ( 0.000000,  0.000000,  0.331604)
  53 Ni ( 0.000000,  0.000000,  0.347185)
  54 Co ( 0.000000,  0.000000,  1.317334)
  55 Cr ( 0.000000,  0.000000,  0.854727)
  56 Cr ( 0.000000,  0.000000, -1.136413)
  57 Co ( 0.000000,  0.000000,  0.850084)
  58 Cr ( 0.000000,  0.000000,  0.655904)
  59 Fe ( 0.000000,  0.000000,  1.443160)
[...]
  93 Ni ( 0.000000,  0.000000,  0.225143)
  94 Cr ( 0.000000,  0.000000, -0.293557)
  95 Cr ( 0.000000,  0.000000, -0.845549)
  96 Co ( 0.000000,  0.000000,  1.205280)
  97 Ni ( 0.000000,  0.000000,  0.271205)
  98 Ni ( 0.000000,  0.000000,  0.343600)
  99 Co ( 0.000000,  0.000000,  1.443592)
 100 Co ( 0.000000,  0.000000,  1.474574)
 101 Ni ( 0.000000,  0.000000,  0.439252)
 102 Fe ( 0.000000,  0.000000,  2.335539)
 103 Co ( 0.000000,  0.000000,  1.485852)
 104 Co ( 0.000000,  0.000000,  1.297301)
 105 Ni ( 0.000000,  0.000000,  0.328277)
 106 Fe ( 0.000000,  0.000000,  2.140855)
 107 Fe ( 0.000000,  0.000000,  2.138095)

Energy contributions relative to reference atoms: (reference = -3548577.034362)

Kinetic:       +276.692591
Potential:     -291.212726
External:        +0.000000
XC:            -864.841142
Entropy (-ST):   -4.430904
Local:          +35.796573
Free energy:   -847.995608
Extrapolated:  -845.780156

Spin contamination: 25.496529 electrons
Showing only first 2 kpts
                      Up                     Down
 Kpt  Band  Eigenvalues  Occupancy  Eigenvalues  Occupancy
  0   488      9.51167    0.99373     10.37628    0.02713
  0   489      9.52641    0.99275     10.38858    0.02407
  0   490      9.53650    0.99198     10.40702    0.02010
  0   491      9.54462    0.99131     10.42103    0.01751

  1   488      9.50604    0.99408     10.38026    0.02610
  1   489      9.52125    0.99311     10.39062    0.02359
  1   490      9.53485    0.99211     10.40943    0.01963
  1   491      9.54573    0.99121     10.42270    0.01723

Fermi level: 10.01832

No gap

Forces in eV/Ang:
  0 Co    0.23159    0.05410   -0.05987
  1 Ni   -0.25194    0.38212   -2.31079
  2 Al   -0.32600   -0.03469    1.22979
  3 Cr   -0.04530   -1.55315   -1.27286
  4 Cr    0.28160   -0.02072   -0.17429
  5 Fe    0.89782   -0.26383    0.46127
  6 Fe    0.63139    0.65323    0.29027
  7 Fe   -0.43969    0.46156    0.12434
  8 Cr   -1.77507   -0.04259    0.58169
  9 Fe    0.57662    0.31455   -0.82454
 10 Fe   -0.64292    1.39603   -0.41743
 11 Al    0.70054    0.24787    1.22301
 12 Co    0.78039   -0.81509    0.96655
 13 Fe   -0.24773   -0.44745    0.17155
 14 Al   -0.05565    1.15423    1.50049
 15 Al   -1.71394   -0.50312    0.92289
 16 Cr    1.18662   -0.98151   -0.13775
 17 Cr   -0.07789   -0.15727   -0.12539
 18 Al   -0.64090    0.42890   -1.54422
 19 Co   -1.00631    0.18104    0.87508
 20 Co   -0.73897   -0.40860   -0.23890
 21 Cr   -0.54772   -0.00989    0.03251
 22 Cr    0.40874   -0.24390    0.25949
 23 Cr    0.01945    0.92470   -0.31677
 24 Fe    0.24617    0.06587    0.13982
 25 Al    0.94431   -0.93136    1.08902
 26 Ni    0.42701    0.95554   -1.82198
 27 Cr   -0.07247    0.06847   -0.96039
 28 Fe    0.71520    0.57018    1.09272
 29 Ni   -0.78886    0.34555   -0.57526
 30 Co   -0.48557   -0.42101   -0.26292
 31 Fe    0.58269   -0.31327   -0.25177
 32 Fe    0.58575    0.66901   -0.43621
 33 Cr   -0.49607   -0.06935    0.58088
 34 Fe   -0.07016    0.01008   -0.26975
 35 Cr   -0.49629   -0.13638   -0.95587
 36 Ni    0.53858   -0.34228    0.04020
 37 Ni    0.59738   -0.73572   -0.61009
 38 Co    0.36364   -0.35243   -0.44524
 39 Ni   -0.81774    0.17743   -0.29484
 40 Co    0.91237   -0.12252    0.35600
 41 Ni   -1.05656   -0.02437   -0.46083
 42 Co   -0.12795   -0.78122   -0.01327
 43 Ni   -0.08033   -0.60380   -0.70703
 44 Cr    0.25971   -0.12408   -0.33537
 45 Co   -0.79302    0.06888    0.52971
 46 Al    0.96158    0.06856   -0.38843
 47 Ni    0.76017    0.19083   -1.03526
 48 Cr   -0.69705    0.39422    0.84532
 49 Fe   -0.68741   -0.06931    0.04878
 50 Fe    1.08851    0.22511    0.31401
 51 Ni    0.13446    0.03539    0.85055
 52 Ni   -0.22104    0.56458   -0.60975
 53 Ni    0.16118    0.19846   -0.36958
 54 Co   -0.76139    1.08344    0.13902
 55 Cr   -0.34039   -0.64017    0.46027
 56 Cr    1.89859    0.00696    1.51193
 57 Co   -0.38946    0.63122   -0.03467
 58 Cr   -0.02254    0.51106   -0.61397
 59 Fe    0.11908   -0.14922    0.44006
[...]
 93 Ni   -0.30588    0.45227    1.10677
 94 Cr   -0.23050   -0.00648   -0.35923
 95 Cr    0.42271    0.62485    0.09358
 96 Co   -0.21153    0.00228    0.33139
 97 Ni   -0.28034    0.25527    0.21779
 98 Ni    1.06567    0.26813   -1.26119
 99 Co   -0.08216    0.45580    0.58477
100 Co    0.26409   -0.34127    0.09757
101 Ni   -0.86783    0.05114    0.44572
102 Fe    0.91602    0.61201    0.02319
103 Co    1.05393   -0.51255   -0.37108
104 Co    0.16774   -0.26112    0.31389
105 Ni   -0.22584   -0.28121    0.92141
106 Fe   -0.66395   -0.24872    0.01895
107 Fe   -0.21895   -0.42628    0.13233

Date: Thu Apr 13 23:50:50 2023