User:   c.zeng@d0143
Date:   Fri Apr 14 17:44:01 2023
Arch:   x86_64
Pid:    18015
CWD:    /home/c.zeng/projects/hea-corrosion/hea-mlp/data-curation/bulk-mcmc/dft-jobs/152
Python: 3.8.1
gpaw:   /home/c.zeng/usr/installs/gpaw/source/gpaw-22.8.0/gpaw
_gpaw:  /home/c.zeng/usr/installs/gpaw/source/gpaw-22.8.0/
        _gpaw.cpython-38-x86_64-linux-gnu.so
ase:    /home/c.zeng/.local/lib/python3.8/site-packages/ase-3.22.1-py3.8.egg/ase (version 3.22.1)
numpy:  /shared/centos7/python/3.8.1/lib/python3.8/site-packages/numpy (version 1.17.4)
scipy:  /shared/centos7/python/3.8.1/lib/python3.8/site-packages/scipy (version 1.4.1)
units:  Angstrom and eV
cores: 30
OpenMP: False
OMP_NUM_THREADS: 1

Input parameters:
  convergence: {energy: 0.0001}
  kpts: [2 2 2]
  maxiter: 666
  mode: {ecut: 350.0,
         name: pw}
  occupations: {fixmagmom: False,
                name: fermi-dirac,
                width: 0.1}
  spinpol: True
  xc: PBE

System changes: positions, numbers, cell, pbc, initial_charges, initial_magmoms

Initialize ...

species:
  Co:
    name: Cobalt
    id: 339d20d5b0b93d2de9531a1bee871d91
    Z: 27.0
    valence: 9
    core: 18
    charge: 0.0
    file: /home/c.zeng/usr/data/gpaw-setups-0.9.20000/Co.PBE.gz
    compensation charges: {type: gauss,
                           rc: 0.32,
                           lmax: 2}
    cutoffs: {filter: 1.87,
              core: 2.55}
    valence states:
      #              energy  rcut
      - 4s(2.00)    -5.469   1.005
      - 4p(0.00)    -1.277   1.058
      - 3d(7.00)    -8.205   1.005
      -  s          21.742   1.005
      -  p          25.934   1.058
      -  d          19.007   1.005

    # Using partial waves for Co as LCAO basis

  Al:
    name: Aluminium
    id: 0292cae29f5d6237e50f6abdd43a7bdd
    Z: 13.0
    valence: 3
    core: 10
    charge: 0.0
    file: /home/c.zeng/usr/data/gpaw-setups-0.9.20000/Al.PBE.gz
    compensation charges: {type: gauss,
                           rc: 0.34,
                           lmax: 2}
    cutoffs: {filter: 1.91,
              core: 2.36}
    valence states:
      #              energy  rcut
      - 3s(2.00)    -7.753   1.085
      - 3p(1.00)    -2.712   1.085
      -  s          19.459   1.085
      -  p          24.499   1.085
      -  d           0.000   1.085

[...]

  Fe:
    name: Iron
    id: 37abbd8d6c3c35915a9b583b742da910
    Z: 26.0
    valence: 8
    core: 18
    charge: 0.0
    file: /home/c.zeng/usr/data/gpaw-setups-0.9.20000/Fe.PBE.gz
    compensation charges: {type: gauss,
                           rc: 0.33,
                           lmax: 2}
    cutoffs: {filter: 2.06,
              core: 2.67}
    valence states:
      #              energy  rcut
      - 4s(2.00)    -5.291   1.164
      - 4p(0.00)    -1.326   1.058
      - 3d(6.00)    -7.505   1.058
      -  s          21.920   1.164
      -  p          25.885   1.058
      -  d          19.706   1.058

[...]

  Cr:
    name: Chromium
    id: 33f258bda2ca9f93018e70263a35547b
    Z: 24.0
    valence: 6
    core: 18
    charge: 0.0
    file: /home/c.zeng/usr/data/gpaw-setups-0.9.20000/Cr.PBE.gz
    compensation charges: {type: gauss,
                           rc: 0.35,
                           lmax: 2}
    cutoffs: {filter: 2.14,
              core: 3.04}
    valence states:
      #              energy  rcut
      - 4s(1.00)    -4.007   1.164
      - 4p(0.00)    -0.989   1.217
      - 3d(5.00)    -2.913   1.111
      -  s          23.205   1.164
      -  p          26.223   1.217
      -  d          24.299   1.111

[...]

  Ni:
    name: Nickel
    id: 0d9f38a9d6e76a2886f07bb4381f212b
    Z: 28.0
    valence: 16
    core: 12
    charge: 0.0
    file: /home/c.zeng/usr/data/gpaw-setups-0.9.20000/Ni.PBE.gz
    compensation charges: {type: gauss,
                           rc: 0.36,
                           lmax: 2}
    cutoffs: {filter: 2.14,
              core: 1.98}
    valence states:
      #              energy  rcut
      - 4s(2.00)    -5.642   1.164
      - 3p(6.00)   -71.394   1.207
      - 4p(0.00)    -1.226   1.207
      - 3d(8.00)    -8.875   1.138
      -  s          21.570   1.164
      -  d          18.337   1.138

    # Using partial waves for Ni as LCAO basis

Reference energy: -3382523.201499  # eV

Spin-polarized calculation.
Magnetic moment: 128.800000

Convergence criteria:
 Maximum [total energy] change in last 3 cyles: 0.0001 eV / electron
 Maximum integral of absolute [dens]ity change: 0.0001 electrons / valence electron
 Maximum integral of absolute [eigenst]ate change: 4e-08 eV^2 / valence electron
 Maximum number of scf [iter]ations: 666
 (Square brackets indicate name in SCF output, whereas a 'c' in
 the SCF output indicates the quantity has converged.)

Symmetries present (total): 1

  ( 1  0  0)
  ( 0  1  0)
  ( 0  0  1)

8 k-points: 2 x 2 x 2 Monkhorst-Pack grid
4 k-points in the irreducible part of the Brillouin zone
       k-points in crystal coordinates                weights
   0:     0.25000000   -0.25000000   -0.25000000          2/8
   1:     0.25000000   -0.25000000    0.25000000          2/8
   2:     0.25000000    0.25000000   -0.25000000          2/8
   3:     0.25000000    0.25000000    0.25000000          2/8

Wave functions: Plane wave expansion
  Cutoff energy: 350.000 eV
  Number of coefficients (min, max): 18865, 18865
  Pulay-stress correction: 0.000000 eV/Ang^3 (de/decut=0.000000)
  Using FFTW library
  ScaLapack parameters: grid=1x1, blocksize=None
  Wavefunction extrapolation:
    Improved wavefunction reuse through dual PAW basis

Occupation numbers: Fermi-Dirac:
  width: 0.1000  # eV

Eigensolver
   Davidson(niter=2)

Densities:
  Coarse grid: 48*48*48 grid
  Fine grid: 96*96*96 grid
  Total Charge: 0.000000

Density mixing:
  Method: difference
  Backend: pulay
  Linear mixing parameter: 0.05
  old densities: 5
  Damping of long wavelength oscillations: 50

Hamiltonian:
  XC and Coulomb potentials evaluated on a 96*96*96 grid
  Using the PBE Exchange-Correlation functional
  External potential:
    NoExternalPotential

XC parameters: PBE with 2 nearest neighbor stencil

Total number of cores used: 30
Parallelization over k-points: 2
Domain decomposition: 5 x 3 x 1

Number of atoms: 108
Number of atomic orbitals: 961
Number of bands in calculation: 649
Number of valence electrons: 945
Bands to converge: occupied

... initialized

Initializing position-dependent things.

Density initialized from atomic densities
Creating initial wave functions:
  649 bands from LCAO basis set

       /|                     Co   |
      / |            Co Fe     CrFe|
     /  |       Cr       Ni       Cr
    /   |Fe       Fel     FFer     |
   /i   | Coe        Fe      Co    |
  /  CrAl   NCr       Ni           |
 *      Ni     FeCo   AlFeCrCo   Cr|
 |      |CoNi   CrNiAl   NiAlNi   Co
 | CrCo | AlNi   AlAlFe     Ni     |
 |     Fe  FeCr Cr  Fe CoNi  CrNi  |
 |      CoNi   AlCr   CoCoCoNi  Fe |
 |Al    |FeCr   AlCrFe   CrCo     Fe
 |      .-CrCo-----NiCr-CoCoCrNi---.
 |     /   Ni Co    Cr FeNi    Al /
 |    Fe       AFei       Al     /
 |   /  Co         Al       Cr  /
 |  /      Fe       Al       Co/
 | / Co     Fe       Ni Ni    /
 |/             Cr       Ni  /
 *--------Co----------------*

Positions:
   0 Co    10.764147   10.861293   10.805330    ( 0.0000,  0.0000,  2.0000)
   1 Co    10.786221    1.792513    1.813624    ( 0.0000,  0.0000,  0.0000)
   2 Co     1.744156    0.036560    1.851269    ( 0.0000,  0.0000,  1.5000)
   3 Al     1.736571    1.831142   10.798805    ( 0.0000,  0.0000,  0.0000)
   4 Co     3.575126    0.057318    0.061759    ( 0.0000,  0.0000,  0.0000)
   5 Fe     3.594289    1.817617    1.845577    ( 0.0000,  0.0000,  2.0000)
   6 Co     5.429813   10.817005    1.865054    ( 0.0000,  0.0000,  1.5000)
   7 Cr     5.429608    1.929425    0.057134    ( 0.0000,  0.0000,  0.0000)
   8 Co     7.316909   10.723332    0.087382    ( 0.0000,  0.0000,  0.0000)
   9 Al     7.263142    1.825786    1.869404    ( 0.0000,  0.0000,  2.1000)
  10 Ni     9.063554    0.025226    1.863474    ( 0.0000,  0.0000,  1.5000)
  11 Ni     9.049217    1.829703    0.033106    ( 0.0000,  0.0000,  2.1000)
  12 Ni     0.004792    3.558981   10.794801    ( 0.0000,  0.0000,  1.5000)
  13 Al    10.759710    5.390697    1.778165    ( 0.0000,  0.0000,  0.0000)
  14 Co     1.733585    3.561849    1.761112    ( 0.0000,  0.0000,  2.0000)
  15 Fe     1.776899    5.391834   10.795505    ( 0.0000,  0.0000,  0.0000)
  16 Fe     3.565452    3.619360   10.832619    ( 0.0000,  0.0000,  2.1000)
  17 Co     3.633221    5.394614    1.719551    ( 0.0000,  0.0000,  0.0000)
  18 Ni     5.471624    3.659114    1.836033    ( 0.0000,  0.0000,  2.1000)
  19 Fe     5.440212    5.373060   -0.002773    ( 0.0000,  0.0000,  2.0000)
  20 Ni     7.258997    3.609080    0.031294    ( 0.0000,  0.0000,  0.0000)
  21 Fe     7.268941    5.378362    1.785274    ( 0.0000,  0.0000,  2.0000)
  22 Al     9.030724    3.577636    1.833728    ( 0.0000,  0.0000,  2.1000)
  23 Fe     9.040420    5.372281   10.801110    ( 0.0000,  0.0000,  0.0000)
  24 Fe    10.791663    7.196206   10.792486    ( 0.0000,  0.0000,  1.5000)
  25 Fe    10.758434    9.040387    1.848239    ( 0.0000,  0.0000,  0.0000)
  26 Cr     1.690487    7.202493    1.786032    ( 0.0000,  0.0000,  0.0000)
  27 Ni     1.652691    8.981047    0.027217    ( 0.0000,  0.0000,  0.0000)
  28 Al     3.631241    7.164437    0.034633    ( 0.0000,  0.0000,  0.0000)
  29 Al     3.625452    9.063759    1.801678    ( 0.0000,  0.0000,  0.0000)
  30 Ni     5.490852    7.187095    1.746342    ( 0.0000,  0.0000,  2.0000)
  31 Cr     5.426935    8.989152    0.009861    ( 0.0000,  0.0000,  2.0000)
  32 Fe     7.229122    7.237075   -0.008698    ( 0.0000,  0.0000,  1.5000)
  33 Cr     7.249194    8.995850    1.810713    ( 0.0000,  0.0000,  0.0000)
  34 Cr     9.052073    7.204300    1.764218    ( 0.0000,  0.0000,  2.1000)
  35 Co     9.092553    8.989639   10.808760    ( 0.0000,  0.0000,  1.5000)
  36 Cr    -0.000975   10.826235    3.639789    ( 0.0000,  0.0000,  1.5000)
  37 Al    10.822772    1.771770    5.422044    ( 0.0000,  0.0000,  2.1000)
  38 Ni     1.754263   10.802084    5.428872    ( 0.0000,  0.0000,  2.1000)
  39 Fe     1.741873    1.774270    3.610801    ( 0.0000,  0.0000,  0.0000)
  40 Al     3.591183   10.794152    3.612143    ( 0.0000,  0.0000,  2.0000)
  41 Cr     3.593088    1.736744    5.455177    ( 0.0000,  0.0000,  0.0000)
  42 Al     5.437150   10.794563    5.400804    ( 0.0000,  0.0000,  2.0000)
  43 Fe     5.451931    1.783251    3.601387    ( 0.0000,  0.0000,  1.5000)
  44 Al     7.226222    0.007781    3.626209    ( 0.0000,  0.0000,  0.0000)
  45 Fe     7.236069    1.766512    5.381392    ( 0.0000,  0.0000,  2.1000)
  46 Co     9.034587   10.848850    5.403844    ( 0.0000,  0.0000,  2.1000)
  47 Ni     9.031558    1.804946    3.616730    ( 0.0000,  0.0000,  1.5000)
  48 Ni    10.773885    3.543973    3.617867    ( 0.0000,  0.0000,  1.5000)
  49 Ni    10.772186    5.358409    5.454917    ( 0.0000,  0.0000,  0.0000)
  50 Co     1.757531    3.575678    5.428937    ( 0.0000,  0.0000,  2.1000)
  51 Fe     1.621766    5.386986    3.572550    ( 0.0000,  0.0000,  0.0000)
  52 Co     3.634303    3.633188    3.540792    ( 0.0000,  0.0000,  0.0000)
  53 Cr     3.550606    5.397969    5.404753    ( 0.0000,  0.0000,  2.0000)
  54 Cr     5.402221    3.610887    5.370193    ( 0.0000,  0.0000,  2.0000)
  55 Cr     5.460241    5.433590    3.575613    ( 0.0000,  0.0000,  2.0000)
  56 Cr     7.250157    3.615183    3.623169    ( 0.0000,  0.0000,  1.5000)
  57 Co     7.248707    5.410715    5.362099    ( 0.0000,  0.0000,  1.5000)
  58 Co     9.058230    3.565236    5.380082    ( 0.0000,  0.0000,  2.1000)
  59 Co     9.074071    5.365323    3.589008    ( 0.0000,  0.0000,  2.1000)
[...]
  93 Ni     7.211073    5.388295    9.040181    ( 0.0000,  0.0000,  0.0000)
  94 Cr     9.095052    3.598119    8.980636    ( 0.0000,  0.0000,  2.0000)
  95 Al     9.078205    5.402416    7.227759    ( 0.0000,  0.0000,  0.0000)
  96 Cr    10.763411    7.244682    7.260285    ( 0.0000,  0.0000,  1.5000)
  97 Cr    10.795093    9.034566    8.977574    ( 0.0000,  0.0000,  2.0000)
  98 Co     1.740045    7.178947    8.984662    ( 0.0000,  0.0000,  2.1000)
  99 Fe     1.734429    9.080207    7.236696    ( 0.0000,  0.0000,  1.5000)
 100 Fe     3.580482    7.154277    7.248285    ( 0.0000,  0.0000,  0.0000)
 101 Cr     3.612835    8.970898    8.958086    ( 0.0000,  0.0000,  0.0000)
 102 Al     5.410943    7.155878    9.067049    ( 0.0000,  0.0000,  0.0000)
 103 Fe     5.466441    9.064062    7.220963    ( 0.0000,  0.0000,  2.1000)
 104 Fe     7.307203    7.271549    7.289738    ( 0.0000,  0.0000,  0.0000)
 105 Ni     7.271073    9.044683    9.027879    ( 0.0000,  0.0000,  1.5000)
 106 Cr     9.081743    7.219805    9.041166    ( 0.0000,  0.0000,  2.1000)
 107 Co     9.063684    9.083009    7.213865    ( 0.0000,  0.0000,  2.0000)

Unit cell:
           periodic     x           y           z      points  spacing
  1. axis:    yes   10.820500    0.000000    0.000000    48     0.2254
  2. axis:    yes    0.000000   10.820500    0.000000    48     0.2254
  3. axis:    yes    0.000000    0.000000   10.820500    48     0.2254

  Lengths:  10.820500  10.820500  10.820500
  Angles:   90.000000  90.000000  90.000000

Effective grid spacing dv^(1/3) = 0.2254

     iter     time        total  log10-change:  magmom
                         energy  eigst   dens
iter:   1 17:48:03  -895.088897                  +128.4417
iter:   2 17:49:41  -860.750899  -0.41  -1.31    +96.2272
iter:   3 17:51:20  -843.591145  -0.95  -1.30    +68.1808
iter:   4 17:52:58  -833.252465  -1.26  -1.37    +59.3925
iter:   5 17:54:36  -826.244127  -1.85  -1.40    +53.8786
iter:   6 17:56:15  -827.682146  -1.95  -1.47    +51.5908
iter:   7 17:57:54  -827.629785  -1.65  -1.49    +50.2362
iter:   8 17:59:31  -824.439705  -1.77  -1.54    +49.6212
iter:   9 18:01:09  -829.117232  -1.81  -1.66    +50.1118
iter:  10 18:02:48  -823.542221  -1.97  -1.65    +49.5726
iter:  11 18:04:26  -824.637825  -2.23  -1.80    +50.1398
iter:  12 18:06:05  -822.733443  -2.40  -1.80    +50.6619
iter:  13 18:07:43  -823.425041  -2.55  -1.89    +51.5836
iter:  14 18:09:22  -823.832760  -2.51  -1.93    +52.4981
iter:  15 18:11:00  -824.693794  -2.50  -1.94    +53.1723
iter:  16 18:12:39  -824.880480  -2.42  -1.95    +54.4699
iter:  17 18:14:18  -824.532117  -2.64  -1.96    +54.6183
iter:  18 18:15:56  -824.269119  -2.70  -2.05    +55.2494
iter:  19 18:17:34  -824.244892  -2.87  -2.14    +55.8509
iter:  20 18:19:14  -824.231588c -3.05  -2.17    +56.4519
iter:  21 18:20:53  -824.421046  -3.19  -2.22    +56.8505
iter:  22 18:22:33  -824.642462  -3.05  -2.23    +57.0615
iter:  23 18:24:11  -824.478415  -3.27  -2.20    +57.6481
iter:  24 18:25:49  -824.540337  -3.37  -2.30    +58.1072
iter:  25 18:27:28  -824.650684  -3.45  -2.34    +58.4045
iter:  26 18:29:06  -824.788237  -3.37  -2.35    +58.5689
iter:  27 18:30:44  -824.858465  -3.39  -2.38    +58.7942
iter:  28 18:32:23  -825.157198  -3.20  -2.39    +59.1304
iter:  29 18:34:01  -825.131718  -3.28  -2.37    +59.0763
iter:  30 18:35:40  -825.054848  -3.41  -2.40    +59.2402
iter:  31 18:37:19  -825.137312c -3.51  -2.52    +59.3800
iter:  32 18:38:57  -825.132657c -3.73  -2.52    +59.6031
iter:  33 18:40:35  -825.214268c -3.79  -2.59    +59.6696
iter:  34 18:42:13  -825.222635c -4.18  -2.58    +59.6870
iter:  35 18:43:51  -825.388154  -3.68  -2.65    +59.8150
iter:  36 18:45:30  -825.356175  -3.98  -2.56    +59.8204
iter:  37 18:47:08  -825.429084c -3.77  -2.67    +59.8717
iter:  38 18:48:47  -825.487211  -3.76  -2.74    +59.6943
iter:  39 18:50:25  -825.507875c -3.77  -2.70    +59.7153
iter:  40 18:52:05  -825.512977c -3.97  -2.79    +59.7132
iter:  41 18:53:44  -825.556156c -4.09  -2.85    +59.6726
iter:  42 18:55:22  -825.545739c -4.38  -2.83    +59.6799
iter:  43 18:57:01  -825.591267c -4.37  -2.96    +59.6147
iter:  44 18:58:40  -825.667945  -4.07  -2.95    +59.6088
iter:  45 19:00:19  -825.670501c -4.53  -2.86    +59.6337
iter:  46 19:01:58  -825.705074c -4.35  -2.90    +59.6539
iter:  47 19:03:36  -825.708008c -4.52  -2.91    +59.6639
iter:  48 19:05:15  -825.736281c -4.46  -3.01    +59.7295
iter:  49 19:06:54  -825.779530c -3.95  -3.00    +59.7513
iter:  50 19:08:32  -825.794496c -4.14  -2.87    +59.6413
iter:  51 19:10:10  -825.788248c -4.45  -2.83    +59.5094
iter:  52 19:11:48  -825.822890c -4.75  -2.90    +59.4869
iter:  53 19:13:26  -825.761341c -4.27  -2.84    +59.4631
iter:  54 19:15:05  -825.767804c -4.48  -2.94    +59.4320
iter:  55 19:16:43  -825.781478c -4.48  -3.02    +59.3928
iter:  56 19:18:21  -825.773925c -4.77  -2.96    +59.2950
iter:  57 19:20:00  -825.778226c -4.90  -3.05    +59.1947
iter:  58 19:21:38  -825.779438c -4.62  -3.09    +59.1310
iter:  59 19:23:16  -825.788932c -4.92  -3.12    +58.9936
iter:  60 19:24:55  -825.789648c -4.91  -3.14    +58.9368
iter:  61 19:26:33  -825.796883c -4.90  -3.19    +58.8768
iter:  62 19:28:12  -825.803568c -4.87  -3.19    +58.8013
iter:  63 19:29:50  -825.803174c -5.14  -3.18    +58.7265
iter:  64 19:31:29  -825.808317c -5.31  -3.29    +58.6522
iter:  65 19:33:07  -825.820617c -4.86  -3.30    +58.5072
iter:  66 19:34:45  -825.857718c -3.90  -3.27    +58.0100
iter:  67 19:36:23  -825.861693c -4.82  -3.08    +58.0125
iter:  68 19:38:01  -825.857399c -5.06  -3.07    +57.9958
iter:  69 19:39:39  -825.856711c -5.23  -3.14    +57.9824
iter:  70 19:41:17  -825.856799c -5.58  -3.16    +57.9680
iter:  71 19:42:55  -825.862429c -4.49  -3.18    +57.9534
iter:  72 19:44:33  -825.854007c -4.92  -3.13    +57.9593
iter:  73 19:46:11  -825.851547c -5.39  -3.23    +57.9201
iter:  74 19:47:49  -825.855967c -5.03  -3.32    +57.9153
iter:  75 19:49:27  -825.850995c -4.84  -3.27    +57.9229
iter:  76 19:51:05  -825.852778c -5.21  -3.39    +57.9253
iter:  77 19:52:44  -825.849584c -5.43  -3.41    +57.9216
iter:  78 19:54:23  -825.849992c -5.91  -3.52    +57.9343
iter:  79 19:56:01  -825.849941c -5.98  -3.58    +57.9437
iter:  80 19:57:40  -825.849866c -6.00  -3.59    +57.9471
iter:  81 19:59:18  -825.849649c -6.05  -3.66    +57.9535
iter:  82 20:00:57  -825.849973c -5.99  -3.74    +57.9665
iter:  83 20:02:35  -825.849672c -6.17  -3.73    +57.9680
iter:  84 20:04:13  -825.849568c -6.29  -3.83    +57.9703
iter:  85 20:05:51  -825.849636c -6.21  -3.87    +57.9789
iter:  86 20:07:30  -825.849514c -6.64  -3.88    +57.9778
iter:  87 20:09:08  -825.849496c -6.49  -3.98    +57.9781
iter:  88 20:10:46  -825.849487c -6.68  -3.97    +57.9801
iter:  89 20:12:24  -825.849609c -6.67  -4.06c   +57.9776
iter:  90 20:14:03  -825.849457c -6.84  -4.07c   +57.9769
iter:  91 20:15:41  -825.849579c -6.89  -4.12c   +57.9765
iter:  92 20:17:20  -825.849618c -6.91  -4.14c   +57.9753
iter:  93 20:18:58  -825.849616c -7.01  -4.18c   +57.9739
iter:  94 20:20:36  -825.849695c -7.04  -4.21c   +57.9745
iter:  95 20:22:14  -825.849797c -7.13  -4.25c   +57.9715
iter:  96 20:23:52  -825.849751c -7.15  -4.27c   +57.9708
iter:  97 20:25:30  -825.849883c -7.09  -4.30c   +57.9690
iter:  98 20:27:09  -825.849898c -7.34  -4.32c   +57.9677
iter:  99 20:28:49  -825.849903c -7.14  -4.38c   +57.9658
iter: 100 20:30:28  -825.849965c -7.42c -4.39c   +57.9664

Converged after 100 iterations.

Dipole moment: (28.460362, -3.849437, -10.973299) |e|*Ang

Total magnetic moment: (0.000000, 0.000000, 57.966383)
Local magnetic moments:
   0 Co ( 0.000000,  0.000000,  1.214269)
   1 Co ( 0.000000,  0.000000,  1.401687)
   2 Co ( 0.000000,  0.000000,  1.305962)
   3 Al ( 0.000000,  0.000000, -0.038892)
   4 Co ( 0.000000,  0.000000,  1.383612)
   5 Fe ( 0.000000,  0.000000,  2.439502)
   6 Co ( 0.000000,  0.000000,  0.896729)
   7 Cr ( 0.000000,  0.000000, -2.372344)
   8 Co ( 0.000000,  0.000000,  1.028838)
   9 Al ( 0.000000,  0.000000, -0.004015)
  10 Ni ( 0.000000,  0.000000,  0.192863)
  11 Ni ( 0.000000,  0.000000,  0.106806)
  12 Ni ( 0.000000,  0.000000,  0.203706)
  13 Al ( 0.000000,  0.000000, -0.033087)
  14 Co ( 0.000000,  0.000000,  1.258036)
  15 Fe ( 0.000000,  0.000000,  2.069129)
  16 Fe ( 0.000000,  0.000000,  2.330130)
  17 Co ( 0.000000,  0.000000,  1.049472)
  18 Ni ( 0.000000,  0.000000,  0.229346)
  19 Fe ( 0.000000,  0.000000,  2.194819)
  20 Ni ( 0.000000,  0.000000,  0.106392)
  21 Fe ( 0.000000,  0.000000,  2.184724)
  22 Al ( 0.000000,  0.000000, -0.023973)
  23 Fe ( 0.000000,  0.000000,  1.943120)
  24 Fe ( 0.000000,  0.000000,  1.623089)
  25 Fe ( 0.000000,  0.000000,  2.029545)
  26 Cr ( 0.000000,  0.000000, -2.010978)
  27 Ni ( 0.000000,  0.000000,  0.118709)
  28 Al ( 0.000000,  0.000000, -0.007395)
  29 Al ( 0.000000,  0.000000, -0.018249)
  30 Ni ( 0.000000,  0.000000,  0.307508)
  31 Cr ( 0.000000,  0.000000,  1.659957)
  32 Fe ( 0.000000,  0.000000,  1.961019)
  33 Cr ( 0.000000,  0.000000, -1.359354)
  34 Cr ( 0.000000,  0.000000, -1.696051)
  35 Co ( 0.000000,  0.000000,  0.936979)
  36 Cr ( 0.000000,  0.000000, -1.611224)
  37 Al ( 0.000000,  0.000000, -0.025697)
  38 Ni ( 0.000000,  0.000000,  0.148466)
  39 Fe ( 0.000000,  0.000000,  2.280000)
  40 Al ( 0.000000,  0.000000, -0.036794)
  41 Cr ( 0.000000,  0.000000, -2.054469)
  42 Al ( 0.000000,  0.000000, -0.038142)
  43 Fe ( 0.000000,  0.000000,  1.852206)
  44 Al ( 0.000000,  0.000000, -0.026905)
  45 Fe ( 0.000000,  0.000000,  1.838104)
  46 Co ( 0.000000,  0.000000,  0.829463)
  47 Ni ( 0.000000,  0.000000,  0.149392)
  48 Ni ( 0.000000,  0.000000,  0.351888)
  49 Ni ( 0.000000,  0.000000,  0.276743)
  50 Co ( 0.000000,  0.000000,  1.194396)
  51 Fe ( 0.000000,  0.000000,  2.352229)
  52 Co ( 0.000000,  0.000000,  1.084464)
  53 Cr ( 0.000000,  0.000000, -1.947891)
  54 Cr ( 0.000000,  0.000000, -1.256548)
  55 Cr ( 0.000000,  0.000000,  1.496114)
  56 Cr ( 0.000000,  0.000000, -1.492371)
  57 Co ( 0.000000,  0.000000,  1.218527)
  58 Co ( 0.000000,  0.000000,  1.133762)
  59 Co ( 0.000000,  0.000000,  1.121111)
[...]
  93 Ni ( 0.000000,  0.000000,  0.317896)
  94 Cr ( 0.000000,  0.000000,  1.059478)
  95 Al ( 0.000000,  0.000000, -0.012385)
  96 Cr ( 0.000000,  0.000000,  1.184550)
  97 Cr ( 0.000000,  0.000000, -0.650900)
  98 Co ( 0.000000,  0.000000,  0.103917)
  99 Fe ( 0.000000,  0.000000,  2.048522)
 100 Fe ( 0.000000,  0.000000,  1.994426)
 101 Cr ( 0.000000,  0.000000, -2.292833)
 102 Al ( 0.000000,  0.000000, -0.032323)
 103 Fe ( 0.000000,  0.000000,  2.142121)
 104 Fe ( 0.000000,  0.000000,  2.483387)
 105 Ni ( 0.000000,  0.000000,  0.297531)
 106 Cr ( 0.000000,  0.000000, -1.473825)
 107 Co ( 0.000000,  0.000000,  0.994109)

Energy contributions relative to reference atoms: (reference = -3382523.201499)

Kinetic:       +228.512692
Potential:     -235.392616
External:        +0.000000
XC:            -850.121678
Entropy (-ST):   -4.153523
Local:          +33.228400
Free energy:   -827.926726
Extrapolated:  -825.849965

Spin contamination: 31.106925 electrons
Showing only first 2 kpts
                      Up                     Down
 Kpt  Band  Eigenvalues  Occupancy  Eigenvalues  Occupancy
  0   470      9.13243    0.99614     10.04741    0.02671
  0   471      9.15519    0.99516     10.05373    0.02511
  0   472      9.16501    0.99467     10.06805    0.02184
  0   473      9.18736    0.99334     10.08000    0.01942

  1   470      9.13634    0.99599     10.03712    0.02952
  1   471      9.14784    0.99550     10.04867    0.02638
  1   472      9.17054    0.99436     10.07148    0.02112
  1   473      9.19404    0.99288     10.07723    0.01996

Fermi level: 9.68783

No gap

Forces in eV/Ang:
  0 Co    0.18738   -0.47760    0.26889
  1 Co    0.56338   -0.32298    0.05917
  2 Co    0.04016   -0.16490   -0.57025
  3 Al    0.12416   -0.46614   -0.12292
  4 Co    0.26729   -0.11483   -0.54670
  5 Fe    0.17321    0.25444   -0.24036
  6 Co    0.29249    0.20999   -0.58388
  7 Cr   -1.18141   -0.99911   -0.75401
  8 Co   -0.58974    0.27663   -0.52694
  9 Al   -0.36183   -0.72692   -1.40722
 10 Ni   -0.24398   -0.25908   -0.41520
 11 Ni   -0.16977   -0.32357   -0.43484
 12 Ni   -0.34438    0.54325    0.07468
 13 Al    0.71047   -0.49612   -0.11048
 14 Co    0.49063    0.25936    0.66285
 15 Fe   -0.22089   -0.15926    0.08847
 16 Fe    0.53586    0.11759    0.18586
 17 Co   -0.37763   -0.51810    0.64382
 18 Ni   -0.43810   -0.22623   -0.01753
 19 Fe    0.27534   -0.38679    0.26992
 20 Ni   -0.18377   -0.09974   -0.45285
 21 Fe    0.21003    0.47495    0.17047
 22 Al    0.58462   -0.16976   -0.51958
 23 Fe   -0.45894    0.64427   -0.59457
 24 Fe    0.32839    0.06507   -0.27714
 25 Fe    0.30440    0.16312   -0.69551
 26 Cr   -0.52556    0.07216    0.10332
 27 Ni    0.73748    0.56487   -0.28812
 28 Al   -0.99249    0.11142    0.29638
 29 Al   -0.50554    0.71685   -1.14447
 30 Ni   -0.24606    0.16226    0.54827
 31 Cr    0.64751    1.58247   -0.43798
 32 Fe    0.72454   -0.33085    0.17823
 33 Cr    0.09585    0.15464   -0.54016
 34 Cr   -0.52849    0.38581   -0.00353
 35 Co   -0.21398    0.23069    0.18267
 36 Cr    0.00045   -0.68650   -0.76996
 37 Al   -0.36327    0.13575   -0.07786
 38 Ni    0.28704   -0.01269    0.11849
 39 Fe    0.32977    0.68175   -0.30018
 40 Al   -0.50200    0.72302   -0.40329
 41 Cr   -0.63343    1.35337    0.04678
 42 Al    0.15804   -0.14668    0.79504
 43 Fe   -0.62276    0.72135    0.25920
 44 Al    0.93846   -0.24277   -0.02035
 45 Fe    0.36185    0.80772    0.40477
 46 Co   -0.09193   -0.43038   -0.01988
 47 Ni   -0.08176   -0.17388    0.05082
 48 Ni    0.60547    0.36587   -0.04883
 49 Ni    0.31276    0.14685   -0.38814
 50 Co    0.61761    0.31481   -0.22321
 51 Fe    1.31206   -0.33164    0.26980
 52 Co   -0.34572   -0.00212    0.24643
 53 Cr   -0.32242   -0.75436   -0.11123
 54 Cr    0.23205    0.19988    0.20005
 55 Cr   -0.23491   -0.64783    0.18245
 56 Cr   -0.60661    0.65165    1.27816
 57 Co    0.36624    0.10060    0.07543
 58 Co   -0.65692    0.29748    0.19065
 59 Co   -0.48178    0.52124    0.62493
[...]
 93 Ni    0.32602   -0.22652   -0.25159
 94 Cr    0.37319    0.18300    0.51190
 95 Al   -1.29693   -0.09220   -0.99047
 96 Cr   -0.08903    0.22587    0.88313
 97 Cr    0.58346    0.25714    0.45790
 98 Co    0.15907    0.23384   -0.11853
 99 Fe    0.20830    0.09629    0.49675
100 Fe   -0.41731    0.42844    0.17421
101 Cr   -0.49293    1.08900    0.10477
102 Al    1.24439    0.07237   -1.25849
103 Fe   -0.27196   -0.38165    0.60856
104 Fe   -0.02940   -0.08216   -0.54813
105 Ni   -0.02963    0.24969    0.09890
106 Cr   -0.87747    0.48657    0.35019
107 Co   -0.36795   -0.14328   -0.15078

Date: Fri Apr 14 20:30:51 2023