User:   c.zeng@d0112
Date:   Sat Apr 15 16:57:42 2023
Arch:   x86_64
Pid:    174815
CWD:    /home/c.zeng/projects/hea-corrosion/hea-mlp/data-curation/bulk-mcmc/dft-jobs/60
Python: 3.8.1
gpaw:   /home/c.zeng/usr/installs/gpaw/source/gpaw-22.8.0/gpaw
_gpaw:  /home/c.zeng/usr/installs/gpaw/source/gpaw-22.8.0/
        _gpaw.cpython-38-x86_64-linux-gnu.so
ase:    /home/c.zeng/.local/lib/python3.8/site-packages/ase-3.22.1-py3.8.egg/ase (version 3.22.1)
numpy:  /shared/centos7/python/3.8.1/lib/python3.8/site-packages/numpy (version 1.17.4)
scipy:  /shared/centos7/python/3.8.1/lib/python3.8/site-packages/scipy (version 1.4.1)
units:  Angstrom and eV
cores: 30
OpenMP: False
OMP_NUM_THREADS: 1

Input parameters:
  convergence: {energy: 0.0001}
  kpts: [2 2 2]
  maxiter: 666
  mode: {ecut: 350.0,
         name: pw}
  occupations: {fixmagmom: False,
                name: fermi-dirac,
                width: 0.1}
  spinpol: True
  xc: PBE

System changes: positions, numbers, cell, pbc, initial_charges, initial_magmoms

Initialize ...

species:
  Cr:
    name: Chromium
    id: 33f258bda2ca9f93018e70263a35547b
    Z: 24.0
    valence: 6
    core: 18
    charge: 0.0
    file: /home/c.zeng/usr/data/gpaw-setups-0.9.20000/Cr.PBE.gz
    compensation charges: {type: gauss,
                           rc: 0.35,
                           lmax: 2}
    cutoffs: {filter: 2.14,
              core: 3.04}
    valence states:
      #              energy  rcut
      - 4s(1.00)    -4.007   1.164
      - 4p(0.00)    -0.989   1.217
      - 3d(5.00)    -2.913   1.111
      -  s          23.205   1.164
      -  p          26.223   1.217
      -  d          24.299   1.111

    # Using partial waves for Cr as LCAO basis

  Fe:
    name: Iron
    id: 37abbd8d6c3c35915a9b583b742da910
    Z: 26.0
    valence: 8
    core: 18
    charge: 0.0
    file: /home/c.zeng/usr/data/gpaw-setups-0.9.20000/Fe.PBE.gz
    compensation charges: {type: gauss,
                           rc: 0.33,
                           lmax: 2}
    cutoffs: {filter: 2.06,
              core: 2.67}
    valence states:
      #              energy  rcut
      - 4s(2.00)    -5.291   1.164
      - 4p(0.00)    -1.326   1.058
      - 3d(6.00)    -7.505   1.058
      -  s          21.920   1.164
      -  p          25.885   1.058
      -  d          19.706   1.058

[...]

  Co:
    name: Cobalt
    id: 339d20d5b0b93d2de9531a1bee871d91
    Z: 27.0
    valence: 9
    core: 18
    charge: 0.0
    file: /home/c.zeng/usr/data/gpaw-setups-0.9.20000/Co.PBE.gz
    compensation charges: {type: gauss,
                           rc: 0.32,
                           lmax: 2}
    cutoffs: {filter: 1.87,
              core: 2.55}
    valence states:
      #              energy  rcut
      - 4s(2.00)    -5.469   1.005
      - 4p(0.00)    -1.277   1.058
      - 3d(7.00)    -8.205   1.005
      -  s          21.742   1.005
      -  p          25.934   1.058
      -  d          19.007   1.005

[...]

  Ni:
    name: Nickel
    id: 0d9f38a9d6e76a2886f07bb4381f212b
    Z: 28.0
    valence: 16
    core: 12
    charge: 0.0
    file: /home/c.zeng/usr/data/gpaw-setups-0.9.20000/Ni.PBE.gz
    compensation charges: {type: gauss,
                           rc: 0.36,
                           lmax: 2}
    cutoffs: {filter: 2.14,
              core: 1.98}
    valence states:
      #              energy  rcut
      - 4s(2.00)    -5.642   1.164
      - 3p(6.00)   -71.394   1.207
      - 4p(0.00)    -1.226   1.207
      - 3d(8.00)    -8.875   1.138
      -  s          21.570   1.164
      -  d          18.337   1.138

[...]

  Al:
    name: Aluminium
    id: 0292cae29f5d6237e50f6abdd43a7bdd
    Z: 13.0
    valence: 3
    core: 10
    charge: 0.0
    file: /home/c.zeng/usr/data/gpaw-setups-0.9.20000/Al.PBE.gz
    compensation charges: {type: gauss,
                           rc: 0.34,
                           lmax: 2}
    cutoffs: {filter: 1.91,
              core: 2.36}
    valence states:
      #              energy  rcut
      - 3s(2.00)    -7.753   1.085
      - 3p(1.00)    -2.712   1.085
      -  s          19.459   1.085
      -  p          24.499   1.085
      -  d           0.000   1.085

    # Using partial waves for Al as LCAO basis

Reference energy: -3699400.456887  # eV

Spin-polarized calculation.
Magnetic moment: 143.500000

Convergence criteria:
 Maximum [total energy] change in last 3 cyles: 0.0001 eV / electron
 Maximum integral of absolute [dens]ity change: 0.0001 electrons / valence electron
 Maximum integral of absolute [eigenst]ate change: 4e-08 eV^2 / valence electron
 Maximum number of scf [iter]ations: 666
 (Square brackets indicate name in SCF output, whereas a 'c' in
 the SCF output indicates the quantity has converged.)

Symmetries present (total): 1

  ( 1  0  0)
  ( 0  1  0)
  ( 0  0  1)

8 k-points: 2 x 2 x 2 Monkhorst-Pack grid
4 k-points in the irreducible part of the Brillouin zone
       k-points in crystal coordinates                weights
   0:     0.25000000   -0.25000000   -0.25000000          2/8
   1:     0.25000000   -0.25000000    0.25000000          2/8
   2:     0.25000000    0.25000000   -0.25000000          2/8
   3:     0.25000000    0.25000000    0.25000000          2/8

Wave functions: Plane wave expansion
  Cutoff energy: 350.000 eV
  Number of coefficients (min, max): 18052, 18052
  Pulay-stress correction: 0.000000 eV/Ang^3 (de/decut=0.000000)
  Using FFTW library
  ScaLapack parameters: grid=1x1, blocksize=None
  Wavefunction extrapolation:
    Improved wavefunction reuse through dual PAW basis

Occupation numbers: Fermi-Dirac:
  width: 0.1000  # eV

Eigensolver
   Davidson(niter=2)

Densities:
  Coarse grid: 48*48*48 grid
  Fine grid: 96*96*96 grid
  Total Charge: 0.000000

Density mixing:
  Method: difference
  Backend: pulay
  Linear mixing parameter: 0.05
  old densities: 5
  Damping of long wavelength oscillations: 50

Hamiltonian:
  XC and Coulomb potentials evaluated on a 96*96*96 grid
  Using the PBE Exchange-Correlation functional
  External potential:
    NoExternalPotential

XC parameters: PBE with 2 nearest neighbor stencil

Total number of cores used: 30
Parallelization over k-points: 2
Domain decomposition: 5 x 3 x 1

Number of atoms: 108
Number of atomic orbitals: 1025
Number of bands in calculation: 703
Number of valence electrons: 1020
Bands to converge: occupied

... initialized

Initializing position-dependent things.

Density initialized from atomic densities
Creating initial wave functions:
  703 bands from LCAO basis set

        Cr------------------------.
       /|  Co                Co   |
      Cr|   Ni         Cr         |
     / Fe      Fe       Al        |
    /   CCo      Ni       Fe      |
   /e   | CoCr     CoAl    CrNi   |
  /  FeCr  CrCo     CrNiCo        |
 *    FeFe  FeCoCr     CoAl       |
 |     CoFeCr  CoFe Ni  CrFeNi    |
 | Fe   CrNiNiCo NiNiNiFe  Ni     |
 |   CoCr  CrAlNi   NiCrCr   Fe   |
 |    FeNi  FeFeCoCr CoFeNi   Ni  |
 |     NiFeFe  Cr NiNi  CoFeFe    |
 |      .-CoNiCo-FeCrNiCo--CoCr---.
 |   CrCo    CoAl   NiCrFe       /
 |    / Ni    CrFe       Cr     /
 |   /            Ni           /
 |Cr/      Co       Co        /
 |/            Ni           /
 *----------------Cr-------*

Positions:
   0 Cr     0.005316   -0.016350   10.639749    ( 0.0000,  0.0000,  0.0000)
   1 Cr    10.672340    1.801276    1.786848    ( 0.0000,  0.0000,  0.0000)
   2 Fe     1.795727   10.625972    1.782259    ( 0.0000,  0.0000,  0.0000)
   3 Cr     1.780787    1.796175   10.644605    ( 0.0000,  0.0000,  2.1000)
   4 Fe     3.523539   -0.014558    0.017268    ( 0.0000,  0.0000,  2.0000)
   5 Co     3.522568    1.781672    1.746648    ( 0.0000,  0.0000,  0.0000)
   6 Co     5.320952   10.642342    1.763136    ( 0.0000,  0.0000,  1.5000)
   7 Ni     5.342082    1.828767    0.007462    ( 0.0000,  0.0000,  2.0000)
   8 Cr     7.144895    0.019195    0.012033    ( 0.0000,  0.0000,  0.0000)
   9 Co     7.143497    1.798064    1.764939    ( 0.0000,  0.0000,  2.1000)
  10 Ni     8.891362   10.651627    1.788353    ( 0.0000,  0.0000,  1.5000)
  11 Co     8.888779    1.804777   10.642609    ( 0.0000,  0.0000,  2.0000)
  12 Fe     0.008694    3.581540   10.650250    ( 0.0000,  0.0000,  2.1000)
  13 Cr     0.018979    5.332745    1.789751    ( 0.0000,  0.0000,  2.1000)
  14 Ni     1.778129    3.600941    1.760019    ( 0.0000,  0.0000,  2.0000)
  15 Co     1.790423    5.343267   -0.017766    ( 0.0000,  0.0000,  2.0000)
  16 Cr     3.542802    3.589864   -0.015614    ( 0.0000,  0.0000,  2.0000)
  17 Co     3.526837    5.358538    1.765793    ( 0.0000,  0.0000,  2.0000)
  18 Fe     5.336650    3.606501    1.755815    ( 0.0000,  0.0000,  0.0000)
  19 Ni     5.300399    5.323642   -0.012797    ( 0.0000,  0.0000,  2.1000)
  20 Al     7.122858    3.584816   10.659524    ( 0.0000,  0.0000,  2.0000)
  21 Cr     7.120500    5.315168    1.805502    ( 0.0000,  0.0000,  1.5000)
  22 Cr     8.892034    3.590952    1.773146    ( 0.0000,  0.0000,  2.1000)
  23 Fe     8.925340    5.301487   -0.003100    ( 0.0000,  0.0000,  0.0000)
  24 Cr     0.023055    7.096680   -0.007939    ( 0.0000,  0.0000,  0.0000)
  25 Ni     0.019141    8.871245    1.787510    ( 0.0000,  0.0000,  1.5000)
  26 Co     1.784372    7.104567    1.776443    ( 0.0000,  0.0000,  2.0000)
  27 Co     1.779944    8.867628   10.659406    ( 0.0000,  0.0000,  1.5000)
  28 Cr     3.547785    7.097897    0.009215    ( 0.0000,  0.0000,  2.1000)
  29 Cr     3.541137    8.858109    1.788225    ( 0.0000,  0.0000,  2.1000)
  30 Cr     5.295105    7.099391    1.787894    ( 0.0000,  0.0000,  2.1000)
  31 Ni     5.303685    8.873828    0.029898    ( 0.0000,  0.0000,  0.0000)
  32 Cr     7.106883    7.088719   10.645159    ( 0.0000,  0.0000,  0.0000)
  33 Co     7.111055    8.901137    1.809472    ( 0.0000,  0.0000,  0.0000)
  34 Co     8.939384    7.093404    1.799238    ( 0.0000,  0.0000,  0.0000)
  35 Co     8.919972    8.915853   10.664881    ( 0.0000,  0.0000,  0.0000)
  36 Cr    10.679704   10.658873    3.584517    ( 0.0000,  0.0000,  2.0000)
  37 Fe    10.670921    1.796367    5.340289    ( 0.0000,  0.0000,  2.1000)
  38 Fe     1.770350   10.649001    5.343491    ( 0.0000,  0.0000,  0.0000)
  39 Co     1.791800    1.784671    3.584891    ( 0.0000,  0.0000,  2.0000)
  40 Ni     3.529718   10.626388    3.565234    ( 0.0000,  0.0000,  2.1000)
  41 Fe     3.535716    1.793465    5.367289    ( 0.0000,  0.0000,  1.5000)
  42 Co     5.311497    0.001574    5.366254    ( 0.0000,  0.0000,  1.5000)
  43 Al     5.332627    1.768055    3.580793    ( 0.0000,  0.0000,  0.0000)
  44 Ni     7.136966   10.673941    3.563804    ( 0.0000,  0.0000,  2.0000)
  45 Ni     7.136774    1.794126    5.358944    ( 0.0000,  0.0000,  2.1000)
  46 Co     8.925938   10.673621    5.347589    ( 0.0000,  0.0000,  2.0000)
  47 Fe     8.883827    1.779111    3.582404    ( 0.0000,  0.0000,  1.5000)
  48 Cr    -0.010038    3.572341    3.580996    ( 0.0000,  0.0000,  2.0000)
  49 Co    10.685573    5.328935    5.338550    ( 0.0000,  0.0000,  2.0000)
  50 Ni     1.784180    3.582949    5.348357    ( 0.0000,  0.0000,  1.5000)
  51 Fe     1.766326    5.339510    3.565255    ( 0.0000,  0.0000,  1.5000)
  52 Ni     3.522387    3.605007    3.574059    ( 0.0000,  0.0000,  0.0000)
  53 Al     3.543581    5.347343    5.347962    ( 0.0000,  0.0000,  2.1000)
  54 Co     5.333950    3.591678    5.360630    ( 0.0000,  0.0000,  2.0000)
  55 Ni     5.336458    5.346308    3.560132    ( 0.0000,  0.0000,  0.0000)
  56 Ni     7.143102    3.570089    3.572138    ( 0.0000,  0.0000,  2.1000)
  57 Cr     7.120265    5.347471    5.345689    ( 0.0000,  0.0000,  2.0000)
  58 Ni     8.888299    3.570665    5.342018    ( 0.0000,  0.0000,  1.5000)
  59 Fe     8.904573    5.339084    3.577453    ( 0.0000,  0.0000,  2.0000)
[...]
  93 Ni     7.108740    5.307762    8.854395    ( 0.0000,  0.0000,  1.5000)
  94 Al     8.907593    3.561296    8.890348    ( 0.0000,  0.0000,  2.1000)
  95 Fe     8.917806    5.336309    7.100224    ( 0.0000,  0.0000,  0.0000)
  96 Fe     0.016270    7.102027    7.111664    ( 0.0000,  0.0000,  2.0000)
  97 Fe     0.000822    8.895150    8.883817    ( 0.0000,  0.0000,  1.5000)
  98 Co     1.771182    7.105090    8.888608    ( 0.0000,  0.0000,  1.5000)
  99 Cr     1.775184    8.850318    7.108494    ( 0.0000,  0.0000,  2.0000)
 100 Co     3.530401    7.086478    7.104972    ( 0.0000,  0.0000,  1.5000)
 101 Fe     3.524841    8.851001    8.894798    ( 0.0000,  0.0000,  0.0000)
 102 Co     5.310654    7.102827    8.871128    ( 0.0000,  0.0000,  0.0000)
 103 Cr     5.290613    8.850286    7.104876    ( 0.0000,  0.0000,  0.0000)
 104 Co     7.129016    7.083330    7.142750    ( 0.0000,  0.0000,  2.1000)
 105 Al     7.143241    8.903186    8.854384    ( 0.0000,  0.0000,  2.0000)
 106 Cr     8.926504    7.115858    8.862313    ( 0.0000,  0.0000,  0.0000)
 107 Ni     8.932896    8.877648    7.127479    ( 0.0000,  0.0000,  1.5000)

Unit cell:
           periodic     x           y           z      points  spacing
  1. axis:    yes   10.671700    0.000000    0.000000    48     0.2223
  2. axis:    yes    0.000000   10.671700    0.000000    48     0.2223
  3. axis:    yes    0.000000    0.000000   10.671700    48     0.2223

  Lengths:  10.671700  10.671700  10.671700
  Angles:   90.000000  90.000000  90.000000

Effective grid spacing dv^(1/3) = 0.2223

     iter     time        total  log10-change:  magmom
                         energy  eigst   dens
iter:   1 17:03:35  -991.709495                  +143.2146
iter:   2 17:06:12  -948.652998  -0.32  -1.31    +103.5524
iter:   3 17:08:50  -921.415375  -0.81  -1.25    +72.0665
iter:   4 17:11:27  -883.275993  -1.34  -1.32    +63.0068
iter:   5 17:14:38  -879.516645  -1.75  -1.43    +56.3304
iter:   6 17:17:47  -879.078430  -1.83  -1.45    +53.0589
iter:   7 17:20:25  -878.705930  -1.58  -1.50    +51.2524
iter:   8 17:23:02  -874.312764  -1.70  -1.53    +50.3962
iter:   9 17:25:40  -876.486502  -1.73  -1.65    +49.6870
iter:  10 17:28:17  -869.604473  -1.98  -1.71    +48.4068
iter:  11 17:30:55  -870.308627  -2.41  -1.85    +48.5074
iter:  12 17:33:32  -869.045818  -2.62  -1.85    +49.1769
iter:  13 17:36:10  -870.501447  -2.59  -1.92    +49.9291
iter:  14 17:38:49  -870.689201  -2.53  -1.92    +50.1890
iter:  15 17:41:26  -872.535073  -2.45  -1.95    +50.6368
iter:  16 17:44:03  -871.939657  -2.37  -1.93    +50.7915
iter:  17 17:46:40  -872.917828  -2.45  -2.01    +51.0385
iter:  18 17:49:17  -871.254638  -2.52  -1.98    +51.2811
iter:  19 17:51:54  -870.909667  -2.71  -2.08    +51.4953
iter:  20 17:54:32  -870.301369  -3.08  -2.11    +51.9217
iter:  21 17:57:08  -870.294970  -3.33  -2.21    +52.5910
iter:  22 17:59:47  -870.355791c -3.36  -2.27    +53.1426
iter:  23 18:02:26  -870.552555  -3.56  -2.28    +53.5283
iter:  24 18:05:04  -870.939173  -3.17  -2.30    +54.0693
iter:  25 18:07:43  -871.382185  -3.00  -2.31    +54.2722
iter:  26 18:10:20  -871.143557  -2.96  -2.26    +54.4292
iter:  27 18:12:59  -871.243996  -3.12  -2.37    +54.3974
iter:  28 18:15:52  -871.161632c -3.13  -2.36    +54.6638
iter:  29 18:19:21  -871.005875  -3.41  -2.42    +55.0469
iter:  30 18:21:59  -870.907297  -3.88  -2.50    +55.2685
iter:  31 18:24:37  -870.960209c -3.99  -2.62    +55.6088
iter:  32 18:27:15  -870.966771c -4.59  -2.61    +55.7584
iter:  33 18:29:53  -871.117101  -3.94  -2.66    +56.2274
iter:  34 18:32:32  -871.109508  -3.94  -2.65    +56.1779
iter:  35 18:35:10  -871.250493  -3.65  -2.73    +56.5264
iter:  36 18:37:49  -871.227570  -3.74  -2.69    +56.7012
iter:  37 18:40:27  -871.223326c -3.96  -2.79    +56.9868
iter:  38 18:43:05  -871.253923c -4.04  -2.93    +57.1619
iter:  39 18:45:43  -871.253304c -4.41  -2.96    +57.3439
iter:  40 18:48:21  -871.303797c -4.35  -3.07    +57.8229
iter:  41 18:51:00  -871.339950c -4.66  -3.15    +58.0285
iter:  42 18:53:38  -871.362484c -4.96  -3.08    +58.1846
iter:  43 18:56:17  -871.514071  -3.67  -3.07    +59.1913
iter:  44 18:58:55  -871.591510  -3.93  -2.96    +59.7016
iter:  45 19:01:33  -871.638254  -4.30  -2.87    +59.9437
iter:  46 19:04:12  -871.686393c -4.23  -2.84    +60.1852
iter:  47 19:06:51  -871.687023c -4.80  -2.79    +60.1834
iter:  48 19:09:29  -871.805048  -3.90  -2.80    +60.3612
iter:  49 19:12:07  -871.750532  -3.72  -2.65    +60.3616
iter:  50 19:14:45  -871.791151c -3.61  -2.70    +60.4497
iter:  51 19:17:22  -871.745969c -3.82  -2.65    +60.5483
iter:  52 19:20:00  -871.694624c -4.25  -2.75    +60.5737
iter:  53 19:22:38  -871.726707c -4.20  -2.92    +60.6750
iter:  54 19:25:15  -871.711567c -4.48  -2.86    +60.7216
iter:  55 19:27:54  -871.740375c -4.36  -2.98    +60.8465
iter:  56 19:30:31  -871.746369c -4.49  -2.95    +60.8547
iter:  57 19:33:09  -871.762096c -4.33  -2.97    +60.9703
iter:  58 19:36:39  -871.792127c -4.26  -3.00    +61.0689
iter:  59 19:39:29  -871.788320c -4.43  -2.94    +61.1048
iter:  60 19:42:07  -871.797666c -4.40  -3.03    +61.1778
iter:  61 19:44:45  -871.799847c -4.66  -3.03    +61.2149
iter:  62 19:47:24  -871.809956c -4.71  -3.11    +61.3411
iter:  63 19:50:03  -871.813150c -5.16  -3.13    +61.3823
iter:  64 19:52:42  -871.839079c -4.48  -3.21    +61.5344
iter:  65 19:55:21  -871.832049c -5.12  -3.12    +61.5238
iter:  66 19:58:00  -871.840033c -4.84  -3.27    +61.5734
iter:  67 20:00:37  -871.849824c -4.84  -3.38    +61.6519
iter:  68 20:03:15  -871.849152c -5.12  -3.30    +61.6755
iter:  69 20:05:54  -871.856580c -5.18  -3.46    +61.7684
iter:  70 20:08:31  -871.862639c -5.37  -3.47    +61.8065
iter:  71 20:11:10  -871.869329c -5.43  -3.45    +61.8407
iter:  72 20:13:48  -871.920665c -3.58  -3.41    +62.2103
iter:  73 20:16:27  -871.912727c -5.03  -3.14    +62.1510
iter:  74 20:19:04  -871.911670c -5.46  -3.23    +62.1507
iter:  75 20:21:42  -871.917221c -5.37  -3.24    +62.1620
iter:  76 20:24:20  -871.914273c -5.24  -3.20    +62.1524
iter:  77 20:26:58  -871.907348c -4.51  -3.17    +62.1481
iter:  78 20:30:17  -871.921100c -4.41  -3.17    +62.1392
iter:  79 20:33:19  -871.899032c -4.89  -3.08    +62.1371
iter:  80 20:35:56  -871.899143c -5.33  -3.37    +62.1133
iter:  81 20:38:35  -871.900481c -5.22  -3.38    +62.1392
iter:  82 20:41:13  -871.899578c -5.50  -3.36    +62.1557
iter:  83 20:43:52  -871.899729c -5.50  -3.48    +62.1583
iter:  84 20:46:31  -871.901634c -5.42  -3.48    +62.1600
iter:  85 20:49:09  -871.902638c -5.24  -3.49    +62.1597
iter:  86 20:51:48  -871.900648c -5.50  -3.45    +62.1727
iter:  87 20:54:27  -871.900232c -5.77  -3.60    +62.1679
iter:  88 20:57:05  -871.900199c -5.67  -3.71    +62.1761
iter:  89 20:59:43  -871.900327c -6.02  -3.63    +62.1918
iter:  90 21:02:21  -871.900102c -6.29  -3.80    +62.2079
iter:  91 21:04:59  -871.900576c -6.16  -3.83    +62.2140
iter:  92 21:07:38  -871.900575c -6.26  -3.80    +62.2137
iter:  93 21:10:17  -871.900580c -6.33  -3.84    +62.2195
iter:  94 21:12:56  -871.901689c -6.08  -3.87    +62.2258
iter:  95 21:15:35  -871.900389c -6.12  -3.81    +62.2240
iter:  96 21:18:13  -871.900951c -6.37  -3.89    +62.2273
iter:  97 21:20:51  -871.901056c -6.32  -3.93    +62.2324
iter:  98 21:23:29  -871.901001c -6.40  -3.91    +62.2396
iter:  99 21:26:07  -871.900964c -6.38  -3.98    +62.2378
iter: 100 21:28:45  -871.900846c -6.84  -3.98    +62.2394
iter: 101 21:31:23  -871.902004c -6.26  -4.10c   +62.2459
iter: 102 21:34:00  -871.901163c -6.42  -3.96    +62.2467
iter: 103 21:36:38  -871.901308c -6.66  -4.06c   +62.2487
iter: 104 21:39:16  -871.901341c -6.67  -4.20c   +62.2472
iter: 105 21:41:54  -871.901533c -6.59  -4.20c   +62.2512
iter: 106 21:44:33  -871.901454c -6.95  -4.12c   +62.2547
iter: 107 21:47:11  -871.901325c -7.16  -4.37c   +62.2566
iter: 108 21:49:48  -871.901489c -7.42c -4.39c   +62.2585

Converged after 108 iterations.

Dipole moment: (-10.658602, 7.679708, 9.145483) |e|*Ang

Total magnetic moment: (0.000000, 0.000000, 62.258511)
Local magnetic moments:
   0 Cr ( 0.000000,  0.000000, -0.855003)
   1 Cr ( 0.000000,  0.000000,  0.679281)
   2 Fe ( 0.000000,  0.000000,  1.685430)
   3 Cr ( 0.000000,  0.000000, -0.578255)
   4 Fe ( 0.000000,  0.000000,  2.179364)
   5 Co ( 0.000000,  0.000000,  1.245148)
   6 Co ( 0.000000,  0.000000,  1.238913)
   7 Ni ( 0.000000,  0.000000,  0.241142)
   8 Cr ( 0.000000,  0.000000, -1.763512)
   9 Co ( 0.000000,  0.000000,  1.126918)
  10 Ni ( 0.000000,  0.000000,  0.142052)
  11 Co ( 0.000000,  0.000000,  0.868703)
  12 Fe ( 0.000000,  0.000000,  1.863289)
  13 Cr ( 0.000000,  0.000000, -0.710838)
  14 Ni ( 0.000000,  0.000000,  0.211849)
  15 Co ( 0.000000,  0.000000,  0.985377)
  16 Cr ( 0.000000,  0.000000, -1.167902)
  17 Co ( 0.000000,  0.000000,  0.997449)
  18 Fe ( 0.000000,  0.000000,  2.307793)
  19 Ni ( 0.000000,  0.000000,  0.125905)
  20 Al ( 0.000000,  0.000000, -0.017706)
  21 Cr ( 0.000000,  0.000000, -1.338985)
  22 Cr ( 0.000000,  0.000000,  0.284032)
  23 Fe ( 0.000000,  0.000000,  1.388644)
  24 Cr ( 0.000000,  0.000000, -1.193600)
  25 Ni ( 0.000000,  0.000000,  0.250294)
  26 Co ( 0.000000,  0.000000,  0.750163)
  27 Co ( 0.000000,  0.000000,  0.883541)
  28 Cr ( 0.000000,  0.000000, -0.469923)
  29 Cr ( 0.000000,  0.000000, -0.022589)
  30 Cr ( 0.000000,  0.000000, -0.960289)
  31 Ni ( 0.000000,  0.000000,  0.203350)
  32 Cr ( 0.000000,  0.000000,  1.124446)
  33 Co ( 0.000000,  0.000000,  1.154647)
  34 Co ( 0.000000,  0.000000,  0.658586)
  35 Co ( 0.000000,  0.000000,  0.485174)
  36 Cr ( 0.000000,  0.000000, -1.331157)
  37 Fe ( 0.000000,  0.000000,  2.124226)
  38 Fe ( 0.000000,  0.000000,  1.859589)
  39 Co ( 0.000000,  0.000000,  1.240020)
  40 Ni ( 0.000000,  0.000000,  0.300778)
  41 Fe ( 0.000000,  0.000000,  2.348509)
  42 Co ( 0.000000,  0.000000,  1.026479)
  43 Al ( 0.000000,  0.000000, -0.040045)
  44 Ni ( 0.000000,  0.000000,  0.386103)
  45 Ni ( 0.000000,  0.000000,  0.279443)
  46 Co ( 0.000000,  0.000000,  1.185118)
  47 Fe ( 0.000000,  0.000000,  2.153832)
  48 Cr ( 0.000000,  0.000000, -1.098637)
  49 Co ( 0.000000,  0.000000,  1.227555)
  50 Ni ( 0.000000,  0.000000,  0.332560)
  51 Fe ( 0.000000,  0.000000,  2.194194)
  52 Ni ( 0.000000,  0.000000,  0.457599)
  53 Al ( 0.000000,  0.000000, -0.042893)
  54 Co ( 0.000000,  0.000000,  1.276532)
  55 Ni ( 0.000000,  0.000000,  0.219858)
  56 Ni ( 0.000000,  0.000000,  0.248027)
  57 Cr ( 0.000000,  0.000000, -1.857720)
  58 Ni ( 0.000000,  0.000000,  0.292222)
  59 Fe ( 0.000000,  0.000000,  2.024212)
[...]
  93 Ni ( 0.000000,  0.000000,  0.182090)
  94 Al ( 0.000000,  0.000000, -0.032584)
  95 Fe ( 0.000000,  0.000000,  2.274293)
  96 Fe ( 0.000000,  0.000000,  2.260033)
  97 Fe ( 0.000000,  0.000000,  1.970788)
  98 Co ( 0.000000,  0.000000,  0.969870)
  99 Cr ( 0.000000,  0.000000, -1.790058)
 100 Co ( 0.000000,  0.000000,  1.270175)
 101 Fe ( 0.000000,  0.000000,  2.123323)
 102 Co ( 0.000000,  0.000000,  0.844774)
 103 Cr ( 0.000000,  0.000000, -1.711289)
 104 Co ( 0.000000,  0.000000,  0.925425)
 105 Al ( 0.000000,  0.000000, -0.013484)
 106 Cr ( 0.000000,  0.000000, -1.627164)
 107 Ni ( 0.000000,  0.000000,  0.272614)

Energy contributions relative to reference atoms: (reference = -3699400.456887)

Kinetic:       +131.742580
Potential:     -184.279507
External:        +0.000000
XC:            -854.917283
Entropy (-ST):   -4.427118
Local:          +37.766280
Free energy:   -874.115048
Extrapolated:  -871.901489

Spin contamination: 29.447069 electrons
Showing only first 2 kpts
                      Up                     Down
 Kpt  Band  Eigenvalues  Occupancy  Eigenvalues  Occupancy
  0   508      9.65484    0.99334     10.52516    0.02418
  0   509      9.66987    0.99227     10.53597    0.02176
  0   510      9.68886    0.99067     10.54151    0.02061
  0   511      9.69589    0.99000     10.55613    0.01786

  1   508      9.64967    0.99368     10.52668    0.02383
  1   509      9.65943    0.99303     10.53530    0.02190
  1   510      9.66745    0.99246     10.54963    0.01903
  1   511      9.68263    0.99123     10.56763    0.01595

Fermi level: 10.15540

No gap

Forces in eV/Ang:
  0 Cr   -0.10406    0.16063    0.42262
  1 Cr    0.15652    0.02041   -0.17777
  2 Fe   -0.22570    0.12122    0.14907
  3 Cr    0.14026    0.01968    0.18658
  4 Fe    0.38809    0.34358   -0.05777
  5 Co   -0.19155   -0.22415    0.04401
  6 Co   -0.05591   -0.07549   -0.17766
  7 Ni   -0.15124   -0.52977    0.12747
  8 Cr   -0.21084    0.46921    0.36384
  9 Co    0.14200   -0.14616   -0.12948
 10 Ni    0.26826    0.27825   -0.19594
 11 Co    0.27302   -0.51672    0.61970
 12 Fe    0.47785   -0.05552    0.45684
 13 Cr   -0.01803   -0.03565   -0.31674
 14 Ni   -0.03639   -0.38341    0.08082
 15 Co   -0.04790    0.04308    0.11192
 16 Cr   -0.16063   -0.04016   -0.03860
 17 Co    0.20122    0.17998   -0.08059
 18 Fe   -0.26995   -0.20648    0.49936
 19 Ni    0.07345    0.26984   -0.18830
 20 Al   -0.66271   -0.48988    0.13851
 21 Cr    0.27967    0.66259    0.39132
 22 Cr    0.19129   -0.44689    0.28693
 23 Fe    0.27115    0.92503    0.25585
 24 Cr    0.02300    0.04604    0.25977
 25 Ni   -0.06811    0.21658   -0.25783
 26 Co   -0.11778    0.13210   -0.31787
 27 Co   -0.04324   -0.05491    0.24484
 28 Cr   -0.19400   -0.32950   -0.18096
 29 Cr    0.21736    0.24924   -0.41191
 30 Cr    0.07034    0.22070   -0.01189
 31 Ni    0.32112    0.23790   -0.21154
 32 Cr    0.20187   -0.21111    0.60613
 33 Co    0.01914   -0.15745   -0.48640
 34 Co   -0.25147    0.13127   -0.41182
 35 Co   -0.29458   -0.41851    0.54773
 36 Cr   -0.07705    0.37974   -0.08510
 37 Fe    0.27846   -0.15018   -0.18869
 38 Fe   -0.01281   -0.19283   -0.34677
 39 Co    0.07051    0.07069   -0.39783
 40 Ni    0.16095    0.23027    0.11766
 41 Fe   -0.28788    0.05760    0.12036
 42 Co   -0.00679   -0.45007   -0.00045
 43 Al    0.19718    0.07398   -0.27872
 44 Ni   -0.17881   -0.14546    0.13161
 45 Ni   -0.09101   -0.09683    0.03174
 46 Co    0.03458   -0.12888    0.07147
 47 Fe   -0.24391   -0.15800   -0.02923
 48 Cr    0.20772   -0.13278    0.04830
 49 Co    0.05130   -0.07257    0.00861
 50 Ni   -0.23394   -0.29154   -0.06929
 51 Fe   -0.29690   -0.05774   -0.49302
 52 Ni    0.31152   -0.46380   -0.32899
 53 Al    0.17571   -0.33955   -0.25030
 54 Co    0.11613   -0.21152    0.10232
 55 Ni    0.00680   -0.39012   -0.22163
 56 Ni   -0.18925    0.05679    0.03351
 57 Cr   -0.03079    0.11917    0.01919
 58 Ni    0.17021   -0.02557   -0.05217
 59 Fe   -0.04183    0.15329    0.12402
[...]
 93 Ni   -0.08399    0.34195    0.38297
 94 Al    0.14567    0.16251   -0.21942
 95 Fe   -0.29005    0.12523   -0.31327
 96 Fe   -0.03843    0.09693   -0.15154
 97 Fe    0.17405   -0.11769    0.38885
 98 Co    0.07311   -0.06070    0.24432
 99 Cr    0.11089    0.08695   -0.18738
100 Co    0.04476    0.49731    0.29018
101 Fe    0.32414    0.18234   -0.15530
102 Co    0.00705   -0.10828    0.20829
103 Cr   -0.69448    0.20641   -0.03863
104 Co   -0.11682    0.15068   -0.55598
105 Al   -0.50809   -0.23205    0.42416
106 Cr    0.19027   -0.76211    0.12270
107 Ni   -0.27933    0.18478   -0.41160

Date: Sat Apr 15 21:50:13 2023