User:   c.zeng@d0135
Date:   Sat Apr  8 03:43:14 2023
Arch:   x86_64
Pid:    66041
CWD:    /home/c.zeng/projects/hea-corrosion/hea-mlp/data-curation/volume/dft-jobs/129
Python: 3.8.1
gpaw:   /home/c.zeng/usr/installs/gpaw/source/gpaw-22.8.0/gpaw
_gpaw:  /home/c.zeng/usr/installs/gpaw/source/gpaw-22.8.0/
        _gpaw.cpython-38-x86_64-linux-gnu.so
ase:    /home/c.zeng/.local/lib/python3.8/site-packages/ase-3.22.1-py3.8.egg/ase (version 3.22.1)
numpy:  /shared/centos7/python/3.8.1/lib/python3.8/site-packages/numpy (version 1.17.4)
scipy:  /shared/centos7/python/3.8.1/lib/python3.8/site-packages/scipy (version 1.4.1)
units:  Angstrom and eV
cores: 64
OpenMP: False
OMP_NUM_THREADS: 1

Input parameters:
  convergence: {energy: 0.0001}
  kpts: [2 2 2]
  maxiter: 666
  mode: {ecut: 350.0,
         name: pw}
  occupations: {fixmagmom: False,
                name: fermi-dirac,
                width: 0.1}
  spinpol: True
  xc: PBE

System changes: positions, numbers, cell, pbc, initial_charges, initial_magmoms

Initialize ...

species:
  Al:
    name: Aluminium
    id: 0292cae29f5d6237e50f6abdd43a7bdd
    Z: 13.0
    valence: 3
    core: 10
    charge: 0.0
    file: /home/c.zeng/usr/data/gpaw-setups-0.9.20000/Al.PBE.gz
    compensation charges: {type: gauss,
                           rc: 0.34,
                           lmax: 2}
    cutoffs: {filter: 1.91,
              core: 2.36}
    valence states:
      #              energy  rcut
      - 3s(2.00)    -7.753   1.085
      - 3p(1.00)    -2.712   1.085
      -  s          19.459   1.085
      -  p          24.499   1.085
      -  d           0.000   1.085

    # Using partial waves for Al as LCAO basis

  Fe:
    name: Iron
    id: 37abbd8d6c3c35915a9b583b742da910
    Z: 26.0
    valence: 8
    core: 18
    charge: 0.0
    file: /home/c.zeng/usr/data/gpaw-setups-0.9.20000/Fe.PBE.gz
    compensation charges: {type: gauss,
                           rc: 0.33,
                           lmax: 2}
    cutoffs: {filter: 2.06,
              core: 2.67}
    valence states:
      #              energy  rcut
      - 4s(2.00)    -5.291   1.164
      - 4p(0.00)    -1.326   1.058
      - 3d(6.00)    -7.505   1.058
      -  s          21.920   1.164
      -  p          25.885   1.058
      -  d          19.706   1.058

[...]

  Cr:
    name: Chromium
    id: 33f258bda2ca9f93018e70263a35547b
    Z: 24.0
    valence: 6
    core: 18
    charge: 0.0
    file: /home/c.zeng/usr/data/gpaw-setups-0.9.20000/Cr.PBE.gz
    compensation charges: {type: gauss,
                           rc: 0.35,
                           lmax: 2}
    cutoffs: {filter: 2.14,
              core: 3.04}
    valence states:
      #              energy  rcut
      - 4s(1.00)    -4.007   1.164
      - 4p(0.00)    -0.989   1.217
      - 3d(5.00)    -2.913   1.111
      -  s          23.205   1.164
      -  p          26.223   1.217
      -  d          24.299   1.111

[...]

  Ni:
    name: Nickel
    id: 0d9f38a9d6e76a2886f07bb4381f212b
    Z: 28.0
    valence: 16
    core: 12
    charge: 0.0
    file: /home/c.zeng/usr/data/gpaw-setups-0.9.20000/Ni.PBE.gz
    compensation charges: {type: gauss,
                           rc: 0.36,
                           lmax: 2}
    cutoffs: {filter: 2.14,
              core: 1.98}
    valence states:
      #              energy  rcut
      - 4s(2.00)    -5.642   1.164
      - 3p(6.00)   -71.394   1.207
      - 4p(0.00)    -1.226   1.207
      - 3d(8.00)    -8.875   1.138
      -  s          21.570   1.164
      -  d          18.337   1.138

[...]

  Co:
    name: Cobalt
    id: 339d20d5b0b93d2de9531a1bee871d91
    Z: 27.0
    valence: 9
    core: 18
    charge: 0.0
    file: /home/c.zeng/usr/data/gpaw-setups-0.9.20000/Co.PBE.gz
    compensation charges: {type: gauss,
                           rc: 0.32,
                           lmax: 2}
    cutoffs: {filter: 1.87,
              core: 2.55}
    valence states:
      #              energy  rcut
      - 4s(2.00)    -5.469   1.005
      - 4p(0.00)    -1.277   1.058
      - 3d(7.00)    -8.205   1.005
      -  s          21.742   1.005
      -  p          25.934   1.058
      -  d          19.007   1.005

    # Using partial waves for Co as LCAO basis

Reference energy: -3235165.067515  # eV

Spin-polarized calculation.
Magnetic moment: 121.100000

Convergence criteria:
 Maximum [total energy] change in last 3 cyles: 0.0001 eV / electron
 Maximum integral of absolute [dens]ity change: 0.0001 electrons / valence electron
 Maximum integral of absolute [eigenst]ate change: 4e-08 eV^2 / valence electron
 Maximum number of scf [iter]ations: 666
 (Square brackets indicate name in SCF output, whereas a 'c' in
 the SCF output indicates the quantity has converged.)

Symmetries present (total): 1

  ( 1  0  0)
  ( 0  1  0)
  ( 0  0  1)

8 k-points: 2 x 2 x 2 Monkhorst-Pack grid
4 k-points in the irreducible part of the Brillouin zone
       k-points in crystal coordinates                weights
   0:     0.25000000   -0.25000000   -0.25000000          2/8
   1:     0.25000000   -0.25000000    0.25000000          2/8
   2:     0.25000000    0.25000000   -0.25000000          2/8
   3:     0.25000000    0.25000000    0.25000000          2/8

Wave functions: Plane wave expansion
  Cutoff energy: 350.000 eV
  Number of coefficients (min, max): 19144, 19144
  Pulay-stress correction: 0.000000 eV/Ang^3 (de/decut=0.000000)
  Using FFTW library
  ScaLapack parameters: grid=1x1, blocksize=None
  Wavefunction extrapolation:
    Improved wavefunction reuse through dual PAW basis

Occupation numbers: Fermi-Dirac:
  width: 0.1000  # eV

Eigensolver
   Davidson(niter=2)

Densities:
  Coarse grid: 48*48*48 grid
  Fine grid: 96*96*96 grid
  Total Charge: 0.000000

Density mixing:
  Method: difference
  Backend: pulay
  Linear mixing parameter: 0.05
  old densities: 5
  Damping of long wavelength oscillations: 50

Hamiltonian:
  XC and Coulomb potentials evaluated on a 96*96*96 grid
  Using the PBE Exchange-Correlation functional
  External potential:
    NoExternalPotential

XC parameters: PBE with 2 nearest neighbor stencil

Total number of cores used: 64
Parallelization over k-points: 4
Domain decomposition: 4 x 2 x 2

Number of atoms: 108
Number of atomic orbitals: 933
Number of bands in calculation: 624
Number of valence electrons: 912
Bands to converge: occupied

... initialized

Initializing position-dependent things.

Density initialized from atomic densities
Creating initial wave functions:
  624 bands from LCAO basis set

        .--------Ni----------------.
       /|           Ni             |
      / |    CrFe     Co           |
     / AlCo     Co       Ni        |
    /   |        CoAl       Al     |
   /    | FeFe      FCr            |
  /    Cr  CorAlNi    Co Fe  CrCr  |
 *      Cr     FeCoFe   CoNi     Al|
 |      |AlAl   NiNiFe   NiFeAl   Cr
 |      | FeCr   AlCoCrNi AlFeCr   |
 |     Co  Fe NiCr  CrCr Fe  CrFe  |
 |      Al  Cr AlNiNi AlNiNiCo   Co|
 |      |CoAl   NiCoCo   CrCrCo   Al
 |      .-NiCo-----NiAl-Cr--FeFe---.
 |     Ni  Cr AlAl    Co Ni  Ni Co/
 |    / Cr              Co       Ni
 |   /           Fee      AlFe  /
 |  /      Al       Co       Fe/
 | /                   Ni     /e
 *--------------------------Al

Positions:
   0 Al    10.802589    0.087824    0.089304    ( 0.0000,  0.0000,  0.0000)
   1 Fe    10.846504    1.833538    1.869449    ( 0.0000,  0.0000,  2.0000)
   2 Cr     1.796899   10.845406    1.828525    ( 0.0000,  0.0000,  0.0000)
   3 Cr     1.774626    1.858769   -0.036284    ( 0.0000,  0.0000,  0.0000)
   4 Ni     3.618039   10.825275   10.838293    ( 0.0000,  0.0000,  1.5000)
   5 Al     3.570557    1.887785    1.709559    ( 0.0000,  0.0000,  0.0000)
   6 Al     5.518363   10.785580    1.664436    ( 0.0000,  0.0000,  0.0000)
   7 Ni     5.517101    1.817562   10.838804    ( 0.0000,  0.0000,  1.5000)
   8 Fe     7.320069    0.006082   10.813758    ( 0.0000,  0.0000,  2.0000)
   9 Co     7.283266    1.809155    1.788699    ( 0.0000,  0.0000,  2.1000)
  10 Ni     9.027071    0.022249    1.809308    ( 0.0000,  0.0000,  1.5000)
  11 Fe     9.007289    1.855767   10.822796    ( 0.0000,  0.0000,  2.0000)
  12 Fe    10.872942    3.639648    0.009982    ( 0.0000,  0.0000,  2.0000)
  13 Co    10.871768    5.468651    1.816290    ( 0.0000,  0.0000,  2.1000)
  14 Cr     1.754572    3.649436    1.847535    ( 0.0000,  0.0000,  0.0000)
  15 Co     1.780651    5.449424   10.872159    ( 0.0000,  0.0000,  2.1000)
  16 Fe     3.668446    3.627490   -0.043299    ( 0.0000,  0.0000,  2.0000)
  17 Al     3.659083    5.392132    1.747525    ( 0.0000,  0.0000,  0.0000)
  18 Fe     5.496840    3.644531    1.790776    ( 0.0000,  0.0000,  2.0000)
  19 Fe     5.517841    5.452752    0.008394    ( 0.0000,  0.0000,  2.0000)
  20 Cr     7.226605    3.615907   10.841773    ( 0.0000,  0.0000,  0.0000)
  21 Co     7.229672    5.476014    1.801390    ( 0.0000,  0.0000,  2.1000)
  22 Al     9.089474    3.646130    1.765839    ( 0.0000,  0.0000,  0.0000)
  23 Fe     9.025886    5.425813    0.006971    ( 0.0000,  0.0000,  2.0000)
  24 Ni    10.862328    7.195306    0.011998    ( 0.0000,  0.0000,  1.5000)
  25 Al    -0.015346    8.976599    1.886197    ( 0.0000,  0.0000,  0.0000)
  26 Ni     1.814680    7.232500    1.807317    ( 0.0000,  0.0000,  1.5000)
  27 Cr     1.880857    8.998371   10.877358    ( 0.0000,  0.0000,  0.0000)
  28 Fe     3.678039    7.265115   -0.001368    ( 0.0000,  0.0000,  2.0000)
  29 Ni     3.611535    9.024483    1.767590    ( 0.0000,  0.0000,  1.5000)
  30 Ni     5.482333    7.274675    1.814147    ( 0.0000,  0.0000,  1.5000)
  31 Ni     5.450674    9.046832   10.836792    ( 0.0000,  0.0000,  1.5000)
  32 Co     7.245442    7.259068    0.054041    ( 0.0000,  0.0000,  2.1000)
  33 Cr     7.298285    9.004364    1.788601    ( 0.0000,  0.0000,  0.0000)
  34 Fe     9.034075    7.191869    1.813680    ( 0.0000,  0.0000,  2.0000)
  35 Ni     9.025995    9.046636    0.017428    ( 0.0000,  0.0000,  1.5000)
  36 Fe    -0.020021    0.003491    3.647740    ( 0.0000,  0.0000,  2.0000)
  37 Co    10.827070    1.800031    5.440245    ( 0.0000,  0.0000,  2.1000)
  38 Cr     1.753267   10.859576    5.485987    ( 0.0000,  0.0000,  0.0000)
  39 Ni     1.776584    1.792755    3.641530    ( 0.0000,  0.0000,  1.5000)
  40 Al     3.524815   10.727984    3.663705    ( 0.0000,  0.0000,  0.0000)
  41 Al     3.655559    1.797443    5.593425    ( 0.0000,  0.0000,  0.0000)
  42 Cr     5.487738   10.821937    5.506617    ( 0.0000,  0.0000,  0.0000)
  43 Al     5.464736    1.855724    3.659420    ( 0.0000,  0.0000,  0.0000)
  44 Al     7.362113   10.813791    3.674015    ( 0.0000,  0.0000,  0.0000)
  45 Co     7.275316    1.815354    5.489369    ( 0.0000,  0.0000,  2.1000)
  46 Cr     9.076859    0.024141    5.495089    ( 0.0000,  0.0000,  0.0000)
  47 Ni     9.073053    1.816224    3.669436    ( 0.0000,  0.0000,  1.5000)
  48 Fe    -0.046104    3.645804    3.615005    ( 0.0000,  0.0000,  2.0000)
  49 Fe    10.807679    5.437907    5.378777    ( 0.0000,  0.0000,  2.0000)
  50 Al     1.746350    3.623672    5.346466    ( 0.0000,  0.0000,  0.0000)
  51 Co     1.802565    5.471620    3.621911    ( 0.0000,  0.0000,  2.1000)
  52 Co     3.650926    3.635918    3.632394    ( 0.0000,  0.0000,  2.1000)
  53 Ni     3.658800    5.428608    5.432947    ( 0.0000,  0.0000,  1.5000)
  54 Ni     5.425530    3.682454    5.481115    ( 0.0000,  0.0000,  1.5000)
  55 Co     5.422170    5.462594    3.635842    ( 0.0000,  0.0000,  2.1000)
  56 Al     7.242233    3.741116    3.717201    ( 0.0000,  0.0000,  0.0000)
  57 Cr     7.234490    5.480027    5.489717    ( 0.0000,  0.0000,  0.0000)
  58 Ni     9.077185    3.617691    5.474763    ( 0.0000,  0.0000,  1.5000)
  59 Cr     9.073205    5.507977    3.628849    ( 0.0000,  0.0000,  0.0000)
[...]
  93 Co     7.218830    5.389555    9.061851    ( 0.0000,  0.0000,  2.1000)
  94 Ni     8.999361    3.655070    9.050399    ( 0.0000,  0.0000,  1.5000)
  95 Fe     9.014684    5.424389    7.232380    ( 0.0000,  0.0000,  2.0000)
  96 Al    -0.075163    7.302418    7.102517    ( 0.0000,  0.0000,  0.0000)
  97 Al     0.077361    9.114466    9.063319    ( 0.0000,  0.0000,  0.0000)
  98 Fe     1.861781    7.267345    9.050084    ( 0.0000,  0.0000,  2.0000)
  99 Co     1.862303    9.059426    7.220156    ( 0.0000,  0.0000,  2.1000)
 100 Fe     3.683237    7.293348    7.227051    ( 0.0000,  0.0000,  2.0000)
 101 Co     3.624738    9.070225    9.049594    ( 0.0000,  0.0000,  2.1000)
 102 Al     5.527118    7.333021    9.041992    ( 0.0000,  0.0000,  0.0000)
 103 Fe     5.469543    9.095934    7.246290    ( 0.0000,  0.0000,  2.0000)
 104 Co     7.258633    7.262538    7.210847    ( 0.0000,  0.0000,  2.1000)
 105 Ni     7.261809    9.134814    9.055652    ( 0.0000,  0.0000,  1.5000)
 106 Al     8.935816    7.194925    9.114020    ( 0.0000,  0.0000,  0.0000)
 107 Cr     8.988072    9.118773    7.218112    ( 0.0000,  0.0000,  0.0000)

Unit cell:
           periodic     x           y           z      points  spacing
  1. axis:    yes   10.875400    0.000000    0.000000    48     0.2266
  2. axis:    yes    0.000000   10.875400    0.000000    48     0.2266
  3. axis:    yes    0.000000    0.000000   10.875400    48     0.2266

  Lengths:  10.875400  10.875400  10.875400
  Angles:   90.000000  90.000000  90.000000

Effective grid spacing dv^(1/3) = 0.2266

     iter     time        total  log10-change:  magmom
                         energy  eigst   dens
iter:   1 03:44:59  -974.645738                  +121.3860
iter:   2 03:45:41  -859.606053  -0.18  -1.16    +64.8469
iter:   3 03:46:25  -844.867172  -0.85  -1.20    +56.0056
iter:   4 03:47:10  -831.584758  -1.24  -1.26    +52.0051
iter:   5 03:47:56  -819.863243  -1.53  -1.29    +49.8328
iter:   6 03:48:42  -813.479877  -1.35  -1.35    +50.1101
iter:   7 03:49:29  -816.160913  -1.35  -1.48    +49.5022
iter:   8 03:50:15  -810.692349  -1.65  -1.51    +50.0076
iter:   9 03:51:03  -806.601227  -2.07  -1.64    +51.0391
iter:  10 03:51:48  -806.624978  -2.52  -1.77    +51.9838
iter:  11 03:52:34  -807.075902  -2.51  -1.80    +52.9971
iter:  12 03:53:21  -808.004430  -2.40  -1.85    +54.2375
iter:  13 03:54:07  -807.857454  -2.52  -1.87    +54.6396
iter:  14 03:54:53  -807.615920  -2.68  -1.93    +55.3441
iter:  15 03:55:39  -807.597398  -2.92  -1.99    +55.7808
iter:  16 03:56:26  -807.852766  -2.94  -2.04    +56.0383
iter:  17 03:57:12  -807.822259  -2.87  -2.08    +56.4476
iter:  18 03:57:58  -807.631247  -3.10  -2.14    +56.3734
iter:  19 03:58:44  -807.742511  -3.15  -2.25    +56.4230
iter:  20 03:59:30  -807.727689  -3.29  -2.27    +56.4499
iter:  21 04:00:17  -807.718757c -3.39  -2.33    +56.2796
iter:  22 04:01:03  -807.778146c -3.35  -2.40    +56.1209
iter:  23 04:01:49  -807.780831c -3.63  -2.42    +56.0455
iter:  24 04:02:36  -807.817740c -3.70  -2.48    +55.7390
iter:  25 04:03:23  -807.882642  -3.70  -2.51    +55.4868
iter:  26 04:04:09  -807.911178  -3.87  -2.53    +55.3219
iter:  27 04:04:55  -807.928185c -3.87  -2.56    +54.9965
iter:  28 04:05:41  -807.987457c -3.96  -2.62    +54.7067
iter:  29 04:06:27  -808.015442c -3.99  -2.63    +54.4993
iter:  30 04:07:13  -808.041447c -4.19  -2.67    +54.1670
iter:  31 04:08:00  -808.088455c -4.10  -2.71    +53.8349
iter:  32 04:08:47  -808.127653c -4.23  -2.74    +53.4852
iter:  33 04:09:33  -808.172543c -4.14  -2.77    +53.0741
iter:  34 04:10:20  -808.240534  -3.88  -2.80    +52.4479
iter:  35 04:11:07  -808.269298  -4.10  -2.81    +52.1852
iter:  36 04:11:53  -808.295459c -4.20  -2.83    +51.8409
iter:  37 04:12:40  -808.350991c -3.91  -2.83    +51.4056
iter:  38 04:13:26  -808.359752c -4.71  -2.75    +51.5245
iter:  39 04:14:13  -808.365447c -4.04  -2.77    +51.2787
iter:  40 04:14:59  -808.342841c -4.24  -2.85    +51.4156
iter:  41 04:15:46  -808.341334c -4.67  -3.04    +51.3451
iter:  42 04:16:32  -808.345321c -4.76  -3.13    +51.3072
iter:  43 04:17:19  -808.349079c -5.05  -3.16    +51.2765
iter:  44 04:18:06  -808.352606c -5.07  -3.19    +51.2680
iter:  45 04:18:52  -808.352754c -4.92  -3.21    +51.2505
iter:  46 04:19:38  -808.354714c -4.93  -3.22    +51.2312
iter:  47 04:20:24  -808.352163c -5.10  -3.30    +51.2299
iter:  48 04:21:11  -808.353166c -5.48  -3.47    +51.2170
iter:  49 04:21:56  -808.355039c -5.59  -3.52    +51.2140
iter:  50 04:22:43  -808.356085c -5.71  -3.55    +51.2016
iter:  51 04:23:30  -808.356345c -5.74  -3.60    +51.1999
iter:  52 04:24:16  -808.357799c -5.82  -3.61    +51.1882
iter:  53 04:25:02  -808.358312c -6.06  -3.69    +51.1841
iter:  54 04:25:48  -808.359289c -5.98  -3.71    +51.1793
iter:  55 04:26:35  -808.360221c -6.17  -3.73    +51.1799
iter:  56 04:27:20  -808.360993c -6.07  -3.76    +51.1691
iter:  57 04:28:06  -808.361338c -6.03  -3.81    +51.1646
iter:  58 04:28:52  -808.362263c -6.24  -3.82    +51.1588
iter:  59 04:29:38  -808.362602c -6.30  -3.89    +51.1572
iter:  60 04:30:24  -808.363349c -6.30  -3.92    +51.1472
iter:  61 04:31:09  -808.363997c -6.43  -3.95    +51.1450
iter:  62 04:31:55  -808.364597c -6.33  -3.97    +51.1361
iter:  63 04:32:41  -808.365446c -6.05  -4.01c   +51.1305
iter:  64 04:33:27  -808.365899c -6.42  -4.02c   +51.1222
iter:  65 04:34:13  -808.366141c -6.53  -4.09c   +51.1184
iter:  66 04:34:59  -808.366558c -6.54  -4.12c   +51.1132
iter:  67 04:35:45  -808.366677c -6.84  -4.14c   +51.1133
iter:  68 04:36:31  -808.366884c -6.77  -4.19c   +51.1073
iter:  69 04:37:17  -808.367029c -7.03  -4.24c   +51.1080
iter:  70 04:38:03  -808.367202c -7.07  -4.25c   +51.1069
iter:  71 04:38:49  -808.367342c -7.00  -4.28c   +51.1076
iter:  72 04:39:35  -808.367528c -7.12  -4.31c   +51.1056
iter:  73 04:40:22  -808.367646c -7.00  -4.37c   +51.1044
iter:  74 04:41:08  -808.367800c -7.17  -4.38c   +51.1044
iter:  75 04:41:54  -808.367917c -7.28  -4.43c   +51.1045
iter:  76 04:42:40  -808.367943c -7.38  -4.43c   +51.1029
iter:  77 04:43:25  -808.367980c -7.56c -4.49c   +51.1037

Converged after 77 iterations.

Dipole moment: (27.212386, 18.229339, 7.848862) |e|*Ang

Total magnetic moment: (0.000000, 0.000000, 51.103709)
Local magnetic moments:
   0 Al ( 0.000000,  0.000000, -0.004628)
   1 Fe ( 0.000000,  0.000000,  2.089853)
   2 Cr ( 0.000000,  0.000000, -2.109927)
   3 Cr ( 0.000000,  0.000000,  1.601832)
   4 Ni ( 0.000000,  0.000000,  0.068342)
   5 Al ( 0.000000,  0.000000, -0.009507)
   6 Al ( 0.000000,  0.000000, -0.014845)
   7 Ni ( 0.000000,  0.000000,  0.306776)
   8 Fe ( 0.000000,  0.000000,  2.323694)
   9 Co ( 0.000000,  0.000000,  0.963652)
  10 Ni ( 0.000000,  0.000000,  0.256704)
  11 Fe ( 0.000000,  0.000000,  2.075094)
  12 Fe ( 0.000000,  0.000000,  2.066608)
  13 Co ( 0.000000,  0.000000,  1.329771)
  14 Cr ( 0.000000,  0.000000, -2.064739)
  15 Co ( 0.000000,  0.000000,  0.946619)
  16 Fe ( 0.000000,  0.000000,  2.054843)
  17 Al ( 0.000000,  0.000000, -0.037794)
  18 Fe ( 0.000000,  0.000000,  2.250764)
  19 Fe ( 0.000000,  0.000000,  2.205293)
  20 Cr ( 0.000000,  0.000000, -1.959373)
  21 Co ( 0.000000,  0.000000,  1.123526)
  22 Al ( 0.000000,  0.000000, -0.035576)
  23 Fe ( 0.000000,  0.000000,  2.196666)
  24 Ni ( 0.000000,  0.000000,  0.084281)
  25 Al ( 0.000000,  0.000000, -0.013909)
  26 Ni ( 0.000000,  0.000000,  0.296692)
  27 Cr ( 0.000000,  0.000000, -1.298944)
  28 Fe ( 0.000000,  0.000000,  2.355578)
  29 Ni ( 0.000000,  0.000000,  0.206055)
  30 Ni ( 0.000000,  0.000000,  0.322031)
  31 Ni ( 0.000000,  0.000000,  0.270958)
  32 Co ( 0.000000,  0.000000,  1.190074)
  33 Cr ( 0.000000,  0.000000, -2.029681)
  34 Fe ( 0.000000,  0.000000,  2.093571)
  35 Ni ( 0.000000,  0.000000,  0.164612)
  36 Fe ( 0.000000,  0.000000,  1.914408)
  37 Co ( 0.000000,  0.000000,  0.847001)
  38 Cr ( 0.000000,  0.000000, -1.727523)
  39 Ni ( 0.000000,  0.000000, -0.005515)
  40 Al ( 0.000000,  0.000000,  0.001810)
  41 Al ( 0.000000,  0.000000,  0.000010)
  42 Cr ( 0.000000,  0.000000, -1.780527)
  43 Al ( 0.000000,  0.000000, -0.005477)
  44 Al ( 0.000000,  0.000000, -0.003330)
  45 Co ( 0.000000,  0.000000,  0.278093)
  46 Cr ( 0.000000,  0.000000, -1.620605)
  47 Ni ( 0.000000,  0.000000,  0.235661)
  48 Fe ( 0.000000,  0.000000,  2.201094)
  49 Fe ( 0.000000,  0.000000,  1.970976)
  50 Al ( 0.000000,  0.000000, -0.029955)
  51 Co ( 0.000000,  0.000000,  1.264676)
  52 Co ( 0.000000,  0.000000,  1.018190)
  53 Ni ( 0.000000,  0.000000,  0.361374)
  54 Ni ( 0.000000,  0.000000,  0.096820)
  55 Co ( 0.000000,  0.000000,  1.153848)
  56 Al ( 0.000000,  0.000000, -0.009595)
  57 Cr ( 0.000000,  0.000000, -1.516740)
  58 Ni ( 0.000000,  0.000000,  0.122322)
  59 Cr ( 0.000000,  0.000000, -1.699638)
[...]
  93 Co ( 0.000000,  0.000000,  1.280526)
  94 Ni ( 0.000000,  0.000000,  0.222286)
  95 Fe ( 0.000000,  0.000000,  1.983121)
  96 Al ( 0.000000,  0.000000, -0.033310)
  97 Al ( 0.000000,  0.000000, -0.008925)
  98 Fe ( 0.000000,  0.000000,  2.065463)
  99 Co ( 0.000000,  0.000000,  1.033168)
 100 Fe ( 0.000000,  0.000000,  2.331743)
 101 Co ( 0.000000,  0.000000,  1.217820)
 102 Al ( 0.000000,  0.000000, -0.045927)
 103 Fe ( 0.000000,  0.000000,  2.331938)
 104 Co ( 0.000000,  0.000000,  1.115947)
 105 Ni ( 0.000000,  0.000000,  0.321470)
 106 Al ( 0.000000,  0.000000, -0.029782)
 107 Cr ( 0.000000,  0.000000,  1.522792)

Energy contributions relative to reference atoms: (reference = -3235165.067515)

Kinetic:       +241.648737
Potential:     -235.990759
External:        +0.000000
XC:            -843.160047
Entropy (-ST):   -3.919957
Local:          +31.094067
Free energy:   -810.327958
Extrapolated:  -808.367980

Spin contamination: 32.190919 electrons
Showing only first 2 kpts
                      Up                     Down
 Kpt  Band  Eigenvalues  Occupancy  Eigenvalues  Occupancy
  0   454      9.00865    0.99493      9.87059    0.03420
  0   455      9.02831    0.99383      9.87687    0.03219
  0   456      9.04191    0.99294      9.89310    0.02750
  0   457      9.06409    0.99120      9.90530    0.02441

  1   454      9.01237    0.99474      9.86259    0.03694
  1   455      9.02987    0.99373      9.87049    0.03423
  1   456      9.04621    0.99263      9.88370    0.03013
  1   457      9.06097    0.99147      9.89859    0.02606

Fermi level: 9.53652

No gap

Forces in eV/Ang:
  0 Al   -0.41997   -0.61162   -0.38907
  1 Fe    0.23331    0.05299    0.23723
  2 Cr   -0.13826    0.22791   -0.23700
  3 Cr    0.06187   -0.28192   -0.41188
  4 Ni   -0.19423    0.15647    0.03097
  5 Al    0.51882   -0.14015    0.28541
  6 Al   -0.67268    0.28244   -0.24891
  7 Ni   -0.28428   -0.12167    0.14093
  8 Fe    0.22655   -0.01360    0.00652
  9 Co   -0.13983    0.12267    0.20265
 10 Ni    0.05193   -0.13001    0.13921
 11 Fe   -0.16280    0.15029    0.42920
 12 Fe   -0.02265    0.33962   -0.17037
 13 Co    0.57498    0.05757    0.00926
 14 Cr   -0.89027   -0.01546   -0.13172
 15 Co   -0.10057   -0.16796   -0.11063
 16 Fe    0.08328    0.28285   -0.01725
 17 Al   -0.06187    0.40587    0.36191
 18 Fe    0.11375   -0.11681    0.11943
 19 Fe    0.31670   -0.07460   -0.14605
 20 Cr   -0.41856    0.06309   -0.19174
 21 Co   -0.11694   -0.01672    0.24500
 22 Al   -0.14278   -0.22726    0.38987
 23 Fe   -0.17535   -0.04828   -0.16691
 24 Ni    0.21918    0.31043   -0.28099
 25 Al   -0.26630   -0.32773   -0.61543
 26 Ni    0.01741   -0.25674    0.07328
 27 Cr    0.28960   -0.09914   -0.22743
 28 Fe   -0.42194    0.27505   -0.04897
 29 Ni    0.17400    0.11298    0.43880
 30 Ni   -0.30365   -0.29330   -0.14362
 31 Ni    0.02224    0.02249    0.09325
 32 Co   -0.03579   -0.14396    0.27159
 33 Cr    0.36497   -0.36096   -0.18907
 34 Fe   -0.24597   -0.35591   -0.14969
 35 Ni    0.57519    0.16872   -0.27445
 36 Fe    0.11301    0.46910    0.19188
 37 Co    0.23976   -0.37731    0.14887
 38 Cr   -0.80199   -0.10711    0.74887
 39 Ni    0.22163   -0.12300   -0.02960
 40 Al    0.52228    0.15550    0.06798
 41 Al   -0.52934   -0.11290   -0.73394
 42 Cr   -0.01719   -0.01403    0.01855
 43 Al    0.21776    0.21393    0.23679
 44 Al   -0.09883    0.83833   -0.22581
 45 Co   -0.33844   -0.23825   -0.12716
 46 Cr    0.28888    0.09496    0.37269
 47 Ni    0.03802    0.07678   -0.40905
 48 Fe   -0.09079    0.07291   -0.05814
 49 Fe    0.03045   -0.12424    0.09302
 50 Al    0.43755   -0.14783   -0.31400
 51 Co   -0.18791   -0.09146    0.11112
 52 Co    0.03297    0.18523   -0.21938
 53 Ni   -0.11326    0.00448    0.10451
 54 Ni    0.26400   -0.33147   -0.27648
 55 Co    0.01324   -0.12539   -0.06804
 56 Al    0.15842   -0.78316   -0.30996
 57 Cr   -0.32047    1.02245    0.32103
 58 Ni   -0.29538    0.15291   -0.12422
 59 Cr    0.59076    0.65700    0.16096
[...]
 93 Co    0.01629   -0.22940   -0.13703
 94 Ni    0.25431    0.11600   -0.13262
 95 Fe    0.04211   -0.32788    0.04039
 96 Al    0.31562   -0.58303    0.60464
 97 Al   -0.86885   -0.19513   -0.15255
 98 Fe   -0.23993   -0.06334    0.27734
 99 Co   -0.14854   -0.03014   -0.08588
100 Fe   -0.25246   -0.16992   -0.05385
101 Co   -0.24820    0.36126   -0.12660
102 Al    0.48724   -0.15633    0.12980
103 Fe    0.10530    0.35447   -0.28309
104 Co   -0.02728   -0.03273   -0.29815
105 Ni   -0.05061   -0.27806    0.06322
106 Al   -0.25350    0.62237    0.14647
107 Cr    0.21656    0.18541   -0.31725

Date: Sat Apr  8 04:43:38 2023