User:   c.zeng@d0108
Date:   Mon Apr 17 04:20:28 2023
Arch:   x86_64
Pid:    33747
CWD:    /home/c.zeng/projects/hea-corrosion/hea-mlp/data-curation/bulk-mcmc/dft-jobs/203
Python: 3.8.1
gpaw:   /home/c.zeng/usr/installs/gpaw/source/gpaw-22.8.0/gpaw
_gpaw:  /home/c.zeng/usr/installs/gpaw/source/gpaw-22.8.0/
        _gpaw.cpython-38-x86_64-linux-gnu.so
ase:    /home/c.zeng/.local/lib/python3.8/site-packages/ase-3.22.1-py3.8.egg/ase (version 3.22.1)
numpy:  /home/c.zeng/.local/lib/python3.8/site-packages/numpy (version 1.24.2)
scipy:  /home/c.zeng/.local/lib/python3.8/site-packages/scipy (version 1.10.1)
units:  Angstrom and eV
cores: 30
OpenMP: False
OMP_NUM_THREADS: 1

Input parameters:
  convergence: {energy: 0.0001}
  kpts: [2 2 2]
  maxiter: 666
  mode: {ecut: 350.0,
         name: pw}
  occupations: {fixmagmom: False,
                name: fermi-dirac,
                width: 0.1}
  spinpol: True
  xc: PBE

System changes: positions, numbers, cell, pbc, initial_charges, initial_magmoms

Initialize ...

species:
  Ni:
    name: Nickel
    id: 0d9f38a9d6e76a2886f07bb4381f212b
    Z: 28.0
    valence: 16
    core: 12
    charge: 0.0
    file: /home/c.zeng/usr/data/gpaw-setups-0.9.20000/Ni.PBE.gz
    compensation charges: {type: gauss,
                           rc: 0.36,
                           lmax: 2}
    cutoffs: {filter: 2.14,
              core: 1.98}
    valence states:
      #              energy  rcut
      - 4s(2.00)    -5.642   1.164
      - 3p(6.00)   -71.394   1.207
      - 4p(0.00)    -1.226   1.207
      - 3d(8.00)    -8.875   1.138
      -  s          21.570   1.164
      -  d          18.337   1.138

    # Using partial waves for Ni as LCAO basis

  Al:
    name: Aluminium
    id: 0292cae29f5d6237e50f6abdd43a7bdd
    Z: 13.0
    valence: 3
    core: 10
    charge: 0.0
    file: /home/c.zeng/usr/data/gpaw-setups-0.9.20000/Al.PBE.gz
    compensation charges: {type: gauss,
                           rc: 0.34,
                           lmax: 2}
    cutoffs: {filter: 1.91,
              core: 2.36}
    valence states:
      #              energy  rcut
      - 3s(2.00)    -7.753   1.085
      - 3p(1.00)    -2.712   1.085
      -  s          19.459   1.085
      -  p          24.499   1.085
      -  d           0.000   1.085

[...]

  Co:
    name: Cobalt
    id: 339d20d5b0b93d2de9531a1bee871d91
    Z: 27.0
    valence: 9
    core: 18
    charge: 0.0
    file: /home/c.zeng/usr/data/gpaw-setups-0.9.20000/Co.PBE.gz
    compensation charges: {type: gauss,
                           rc: 0.32,
                           lmax: 2}
    cutoffs: {filter: 1.87,
              core: 2.55}
    valence states:
      #              energy  rcut
      - 4s(2.00)    -5.469   1.005
      - 4p(0.00)    -1.277   1.058
      - 3d(7.00)    -8.205   1.005
      -  s          21.742   1.005
      -  p          25.934   1.058
      -  d          19.007   1.005

[...]

  Cr:
    name: Chromium
    id: 33f258bda2ca9f93018e70263a35547b
    Z: 24.0
    valence: 6
    core: 18
    charge: 0.0
    file: /home/c.zeng/usr/data/gpaw-setups-0.9.20000/Cr.PBE.gz
    compensation charges: {type: gauss,
                           rc: 0.35,
                           lmax: 2}
    cutoffs: {filter: 2.14,
              core: 3.04}
    valence states:
      #              energy  rcut
      - 4s(1.00)    -4.007   1.164
      - 4p(0.00)    -0.989   1.217
      - 3d(5.00)    -2.913   1.111
      -  s          23.205   1.164
      -  p          26.223   1.217
      -  d          24.299   1.111

[...]

  Fe:
    name: Iron
    id: 37abbd8d6c3c35915a9b583b742da910
    Z: 26.0
    valence: 8
    core: 18
    charge: 0.0
    file: /home/c.zeng/usr/data/gpaw-setups-0.9.20000/Fe.PBE.gz
    compensation charges: {type: gauss,
                           rc: 0.33,
                           lmax: 2}
    cutoffs: {filter: 2.06,
              core: 2.67}
    valence states:
      #              energy  rcut
      - 4s(2.00)    -5.291   1.164
      - 4p(0.00)    -1.326   1.058
      - 3d(6.00)    -7.505   1.058
      -  s          21.920   1.164
      -  p          25.885   1.058
      -  d          19.706   1.058

    # Using partial waves for Fe as LCAO basis

Reference energy: -3235165.067515  # eV

Spin-polarized calculation.
Magnetic moment: 121.100000

Convergence criteria:
 Maximum [total energy] change in last 3 cyles: 0.0001 eV / electron
 Maximum integral of absolute [dens]ity change: 0.0001 electrons / valence electron
 Maximum integral of absolute [eigenst]ate change: 4e-08 eV^2 / valence electron
 Maximum number of scf [iter]ations: 666
 (Square brackets indicate name in SCF output, whereas a 'c' in
 the SCF output indicates the quantity has converged.)

Symmetries present (total): 1

  ( 1  0  0)
  ( 0  1  0)
  ( 0  0  1)

8 k-points: 2 x 2 x 2 Monkhorst-Pack grid
4 k-points in the irreducible part of the Brillouin zone
       k-points in crystal coordinates                weights
   0:     0.25000000   -0.25000000   -0.25000000          2/8
   1:     0.25000000   -0.25000000    0.25000000          2/8
   2:     0.25000000    0.25000000   -0.25000000          2/8
   3:     0.25000000    0.25000000    0.25000000          2/8

Wave functions: Plane wave expansion
  Cutoff energy: 350.000 eV
  Number of coefficients (min, max): 19084, 19084
  Pulay-stress correction: 0.000000 eV/Ang^3 (de/decut=0.000000)
  Using FFTW library
  ScaLapack parameters: grid=1x1, blocksize=None
  Wavefunction extrapolation:
    Improved wavefunction reuse through dual PAW basis

Occupation numbers: Fermi-Dirac:
  width: 0.1000  # eV

Eigensolver
   Davidson(niter=2)

Densities:
  Coarse grid: 48*48*48 grid
  Fine grid: 96*96*96 grid
  Total Charge: 0.000000

Density mixing:
  Method: difference
  Backend: pulay
  Linear mixing parameter: 0.05
  old densities: 5
  Damping of long wavelength oscillations: 50

Hamiltonian:
  XC and Coulomb potentials evaluated on a 96*96*96 grid
  Using the PBE Exchange-Correlation functional
  External potential:
    NoExternalPotential

XC parameters: PBE with 2 nearest neighbor stencil

Total number of cores used: 30
Parallelization over k-points: 2
Domain decomposition: 5 x 3 x 1

Number of atoms: 108
Number of atomic orbitals: 933
Number of bands in calculation: 624
Number of valence electrons: 912
Bands to converge: occupied

... initialized

Initializing position-dependent things.

Density initialized from atomic densities
Creating initial wave functions:
  624 bands from LCAO basis set

        .--------Al----------------.
       /|           Fe             |
      / |    FeFe     Ni           |
     / Cr       Ni       Al        |
    /   |Fe      CrCo       Fe     |
   /    | NiNi      ACo            |
  /    Co  FeiAlAl    Co Fe  CoAl  |
 *      Fe     AlCoAl   CrFe     Cr|
 |      |FeNi   NiFeFe   AlNiCr   Co
 |      | CoNi   AlCoCoAl NiCrFe   |
 |     Fe  Al CoCo  CrCr Ni  CrCr  |
 |      Cr  Ni NiCrCo CoNiCoAl   Fe|
 |      |CrCo   CoAlAl   CoNiFe   Fe
 |      .-FeNi-----CrCr-Al--CrFe---.
 |     Al  Cr CoCr    Al Co  Cr Ni/
 |    / Co              Ni       Cr
 |   /           Ali      CrFe  /
 |  /      Cr       Fe     NiAl/
 | /                   Fe     /i
 *--------------------------Ni

Positions:
   0 Ni    10.797848    0.093654    0.085777    ( 0.0000,  0.0000,  0.0000)
   1 Al    10.831824    1.844742    1.870716    ( 0.0000,  0.0000,  2.0000)
   2 Ni     1.786803   10.847372    1.827335    ( 0.0000,  0.0000,  0.0000)
   3 Co     1.769614    1.870531   -0.031264    ( 0.0000,  0.0000,  0.0000)
   4 Al     3.620857   10.822050   10.833629    ( 0.0000,  0.0000,  1.5000)
   5 Cr     3.571246    1.883176    1.708402    ( 0.0000,  0.0000,  0.0000)
   6 Co     5.521103   10.788063    1.666217    ( 0.0000,  0.0000,  0.0000)
   7 Al     5.520831    1.813973   10.830911    ( 0.0000,  0.0000,  1.5000)
   8 Al     7.330846    0.011025   10.815657    ( 0.0000,  0.0000,  2.0000)
   9 Fe     7.282018    1.809483    1.793250    ( 0.0000,  0.0000,  2.1000)
  10 Fe     9.029996    0.022005    1.811918    ( 0.0000,  0.0000,  1.5000)
  11 Fe     9.007196    1.868639   10.825714    ( 0.0000,  0.0000,  2.0000)
  12 Ni    10.861310    3.649723    0.014171    ( 0.0000,  0.0000,  2.0000)
  13 Ni    10.867442    5.463468    1.819235    ( 0.0000,  0.0000,  2.1000)
  14 Co     1.756088    3.650267    1.845949    ( 0.0000,  0.0000,  0.0000)
  15 Fe     1.790358    5.439092   10.869084    ( 0.0000,  0.0000,  2.1000)
  16 Ni     3.687842    3.622792   -0.049287    ( 0.0000,  0.0000,  2.0000)
  17 Co     3.667347    5.391145    1.745368    ( 0.0000,  0.0000,  0.0000)
  18 Al     5.497977    3.634415    1.792370    ( 0.0000,  0.0000,  2.0000)
  19 Ni     5.524908    5.448029    0.002551    ( 0.0000,  0.0000,  2.0000)
  20 Co     7.223340    3.611877   10.834270    ( 0.0000,  0.0000,  0.0000)
  21 Al     7.217762    5.474830    1.807776    ( 0.0000,  0.0000,  2.1000)
  22 Cr     9.073442    3.654344    1.775148    ( 0.0000,  0.0000,  0.0000)
  23 Ni     9.008740    5.418608    0.007692    ( 0.0000,  0.0000,  2.0000)
  24 Cr    10.859190    7.178720    0.014480    ( 0.0000,  0.0000,  1.5000)
  25 Fe    -0.018106    8.970948    1.875391    ( 0.0000,  0.0000,  0.0000)
  26 Fe     1.817615    7.224025    1.802546    ( 0.0000,  0.0000,  1.5000)
  27 Cr     1.880729    8.993464   10.874031    ( 0.0000,  0.0000,  0.0000)
  28 Fe     3.684428    7.260447   -0.001356    ( 0.0000,  0.0000,  2.0000)
  29 Co     3.612616    9.025636    1.761807    ( 0.0000,  0.0000,  1.5000)
  30 Cr     5.481440    7.275114    1.811211    ( 0.0000,  0.0000,  1.5000)
  31 Fe     5.461261    9.048153   10.833988    ( 0.0000,  0.0000,  1.5000)
  32 Ni     7.245704    7.257881    0.056891    ( 0.0000,  0.0000,  2.1000)
  33 Co     7.301969    9.004609    1.790315    ( 0.0000,  0.0000,  0.0000)
  34 Cr     9.029343    7.181775    1.815549    ( 0.0000,  0.0000,  2.0000)
  35 Cr     9.030561    9.042010    0.020232    ( 0.0000,  0.0000,  1.5000)
  36 Fe    -0.031046    0.001947    3.645701    ( 0.0000,  0.0000,  2.0000)
  37 Fe    10.825910    1.804351    5.434602    ( 0.0000,  0.0000,  2.1000)
  38 Ni     1.743552   10.849296    5.484376    ( 0.0000,  0.0000,  0.0000)
  39 Al     1.769755    1.791891    3.636068    ( 0.0000,  0.0000,  1.5000)
  40 Al     3.516667   10.719828    3.663227    ( 0.0000,  0.0000,  0.0000)
  41 Co     3.644244    1.785205    5.586728    ( 0.0000,  0.0000,  0.0000)
  42 Al     5.484778   10.815439    5.504022    ( 0.0000,  0.0000,  0.0000)
  43 Cr     5.457934    1.842230    3.658769    ( 0.0000,  0.0000,  0.0000)
  44 Ni     7.360615   10.815439    3.672229    ( 0.0000,  0.0000,  0.0000)
  45 Al     7.266884    1.811614    5.485528    ( 0.0000,  0.0000,  2.1000)
  46 Al     9.077986    0.023590    5.491921    ( 0.0000,  0.0000,  0.0000)
  47 Co     9.066788    1.824226    3.671175    ( 0.0000,  0.0000,  1.5000)
  48 Fe    -0.047135    3.649615    3.617291    ( 0.0000,  0.0000,  2.0000)
  49 Cr    10.809264    5.435993    5.379805    ( 0.0000,  0.0000,  2.0000)
  50 Cr     1.752316    3.624989    5.344676    ( 0.0000,  0.0000,  0.0000)
  51 Cr     1.805786    5.472046    3.619389    ( 0.0000,  0.0000,  2.1000)
[...]
iter: 341 11:08:09  -804.969412c -4.16  -3.93    +56.7337
iter: 342 11:09:23  -804.977766c -4.23  -3.40    +56.7718
iter: 343 11:10:37  -804.976928c -5.84  -4.23c   +56.7690
iter: 344 11:11:50  -804.976964c -6.68  -4.07c   +56.7696
iter: 345 11:13:04  -804.977510c -6.37  -4.07c   +56.7776
iter: 346 11:14:17  -804.979408c -5.47  -4.15c   +56.8037
iter: 347 11:15:31  -804.971375c -4.19  -4.58c   +56.6852
iter: 348 11:16:44  -804.972692c -5.70  -3.55    +56.7022
iter: 349 11:17:58  -804.973091c -6.28  -3.64    +56.7023
iter: 350 11:19:12  -804.974078c -5.82  -3.68    +56.7061
iter: 351 11:20:26  -804.974817c -5.98  -3.76    +56.7105
iter: 352 11:21:40  -804.973578c -5.58  -3.82    +56.7094
iter: 353 11:22:53  -804.974378c -6.05  -3.66    +56.7185
iter: 354 11:24:07  -804.973345c -6.05  -3.74    +56.7206
iter: 355 11:25:21  -804.973631c -6.20  -3.68    +56.7349
iter: 356 11:26:36  -804.973966c -5.86  -3.59    +56.7309
iter: 357 11:27:50  -804.973898c -5.52  -3.66    +56.7716
iter: 358 11:29:04  -804.973883c -5.86  -3.65    +56.7432
iter: 359 11:30:18  -804.975387c -5.80  -3.88    +56.7402
iter: 360 11:31:32  -804.973618c -6.11  -3.97    +56.7512
iter: 361 11:32:46  -804.972168c -5.47  -3.96    +56.7871
iter: 362 11:34:00  -804.975307c -5.37  -3.77    +56.7570
iter: 363 11:35:15  -804.975305c -6.12  -4.04c   +56.7535
iter: 364 11:36:29  -804.976195c -6.00  -4.09c   +56.7647
iter: 365 11:37:43  -804.976180c -6.49  -4.09c   +56.7605
iter: 366 11:38:57  -804.977328c -6.08  -4.22c   +56.7592
iter: 367 11:40:12  -804.976464c -6.57  -4.17c   +56.7663
iter: 368 11:41:26  -804.976383c -6.52  -4.32c   +56.7786
iter: 369 11:42:40  -804.977206c -6.25  -4.21c   +56.7572
iter: 370 11:43:55  -804.977041c -6.53  -4.34c   +56.7922
iter: 371 11:45:09  -804.977761c -6.43  -4.37c   +56.7944
iter: 372 11:46:23  -804.976994c -6.75  -4.37c   +56.7885
iter: 373 11:47:38  -804.971366c -4.63  -4.47c   +56.7390
iter: 374 11:48:52  -804.974125c -5.64  -3.79    +56.7590
iter: 375 11:50:07  -804.974350c -6.57  -4.09c   +56.7552
iter: 376 11:51:21  -804.975750c -5.72  -4.13c   +56.7518
iter: 377 11:52:36  -804.976307c -6.19  -4.28c   +56.7532
iter: 378 11:53:50  -804.971387c -4.79  -4.30c   +56.7357
iter: 379 11:55:05  -804.970899c -5.47  -3.85    +56.7397
iter: 380 11:56:19  -804.972225c -5.93  -3.73    +56.7422
iter: 381 11:57:34  -804.973121c -5.97  -3.88    +56.7464
iter: 382 11:58:48  -804.973394c -6.49  -3.90    +56.7563
iter: 383 12:00:03  -804.974016c -5.96  -3.95    +56.7652
iter: 384 12:01:17  -804.974012c -6.23  -3.82    +56.7638
iter: 385 12:02:31  -804.975766c -5.63  -3.85    +56.7699
iter: 386 12:03:45  -804.974232c -6.01  -3.74    +56.7727
iter: 387 12:05:00  -804.974854c -6.17  -3.96    +56.7948
iter: 388 12:06:14  -804.975533c -6.28  -4.28c   +56.7951
iter: 389 12:07:28  -804.976486c -5.98  -4.22c   +56.8033
iter: 390 12:08:42  -804.976902c -6.08  -4.31c   +56.8083
iter: 391 12:09:57  -804.978052c -5.82  -4.45c   +56.8124
iter: 392 12:11:11  -804.976526c -5.97  -4.21c   +56.8038
iter: 393 12:12:25  -804.971452c -4.56  -4.45c   +56.7729
iter: 394 12:13:40  -804.972878c -5.98  -3.81    +56.7745
iter: 395 12:14:54  -804.974395c -5.56  -3.98    +56.7797
iter: 396 12:16:08  -804.975173c -5.94  -4.23c   +56.7838
iter: 397 12:17:22  -804.974468c -6.75  -4.34c   +56.7792
iter: 398 12:18:36  -804.975318c -6.30  -4.27c   +56.7848
iter: 399 12:19:50  -804.973632c -5.74  -4.45c   +56.7670
iter: 400 12:21:04  -804.969925c -4.81  -4.13c   +56.7162
iter: 401 12:22:19  -804.969456c -5.60  -3.74    +56.7095
iter: 402 12:23:33  -804.969237c -6.14  -3.71    +56.7063
iter: 403 12:24:47  -804.968166c -5.15  -3.70    +56.6814
iter: 404 12:26:01  -804.968069c -5.74  -3.66    +56.6715
iter: 405 12:27:15  -804.967605c -5.75  -3.67    +56.6768
iter: 406 12:28:29  -804.967735c -5.79  -3.71    +56.6721
iter: 407 12:29:44  -804.968638c -5.76  -3.73    +56.6879
iter: 408 12:30:58  -804.968005c -6.13  -3.78    +56.6802
iter: 409 12:32:12  -804.969211c -5.82  -3.91    +56.7119
iter: 410 12:33:27  -804.968994c -6.12  -3.99    +56.7154
iter: 411 12:34:41  -804.969892c -6.14  -4.05c   +56.7360
iter: 412 12:35:55  -804.969442c -6.50  -4.11c   +56.7301
iter: 413 12:37:09  -804.969928c -6.43  -4.14c   +56.7382
iter: 414 12:38:24  -804.970441c -6.52  -4.26c   +56.7431
iter: 415 12:39:38  -804.970566c -6.58  -4.21c   +56.7511
iter: 416 12:40:52  -804.971396c -6.23  -4.44c   +56.7658
iter: 417 12:42:06  -804.970106c -6.16  -4.38c   +56.7462
iter: 418 12:43:20  -804.965977c -4.79  -4.49c   +56.6740
iter: 419 12:44:34  -804.966944c -6.25  -3.84    +56.6892
iter: 420 12:45:49  -804.968073c -5.98  -3.93    +56.7060
iter: 421 12:47:03  -804.968643c -6.23  -4.06c   +56.7136
iter: 422 12:48:17  -804.965017c -4.91  -4.14c   +56.6699
iter: 423 12:49:31  -804.965281c -5.97  -3.75    +56.6733
iter: 424 12:50:45  -804.965346c -6.67  -3.70    +56.6759
iter: 425 12:51:59  -804.965652c -6.55  -3.77    +56.6848
iter: 426 12:53:13  -804.965559c -7.28  -3.81    +56.6816
iter: 427 12:54:28  -804.967584c -5.60  -3.79    +56.6881
iter: 428 12:55:42  -804.965435c -5.83  -3.61    +56.6951
iter: 429 12:56:55  -804.967042c -5.75  -3.84    +56.7074
iter: 430 12:58:08  -804.966733c -6.01  -3.75    +56.7073
iter: 431 12:59:21  -804.967039c -6.08  -3.91    +56.7181
iter: 432 13:00:34  -804.967626c -6.11  -4.17c   +56.7219
iter: 433 13:01:48  -804.968139c -6.06  -4.11c   +56.7338
iter: 434 13:03:01  -804.968502c -6.38  -4.23c   +56.7418
iter: 435 13:04:15  -804.968804c -6.35  -4.37c   +56.7447
iter: 436 13:05:29  -804.969058c -6.68  -4.36c   +56.7455
iter: 437 13:06:42  -804.969281c -6.76  -4.43c   +56.7470
iter: 438 13:07:56  -804.970098c -6.12  -4.55c   +56.7572
iter: 439 13:09:10  -804.966651c -4.99  -4.39c   +56.7140
iter: 440 13:10:23  -804.964682c -4.98  -4.17c   +56.6792
iter: 441 13:11:37  -804.965522c -6.18  -3.87    +56.6906
iter: 442 13:12:51  -804.966667c -5.68  -3.99    +56.7054
iter: 443 13:14:04  -804.966657c -6.85  -4.19c   +56.7041
iter: 444 13:15:17  -804.967020c -6.58  -4.21c   +56.7130
iter: 445 13:16:30  -804.966721c -6.94  -4.29c   +56.6982
iter: 446 13:17:43  -804.967598c -6.10  -4.23c   +56.7264
iter: 447 13:18:57  -804.966312c -5.67  -4.48c   +56.6675
iter: 448 13:20:10  -804.967174c -6.19  -4.11c   +56.6917
iter: 449 13:21:23  -804.967350c -6.83  -4.36c   +56.6854
iter: 450 13:22:37  -804.967471c -6.89  -4.36c   +56.7036
iter: 451 13:23:50  -804.967897c -6.56  -4.34c   +56.6942
iter: 452 13:25:04  -804.967679c -7.18  -4.45c   +56.7045
iter: 453 13:26:17  -804.968082c -6.68  -4.54c   +56.7198
iter: 454 13:27:30  -804.967428c -6.07  -4.60c   +56.6680
iter: 455 13:28:44  -804.968294c -6.23  -4.34c   +56.7017
iter: 456 13:29:57  -804.967570c -6.12  -4.64c   +56.6505
iter: 457 13:31:11  -804.968369c -6.45  -4.35c   +56.6693
iter: 458 13:32:24  -804.966574c -5.53  -4.58c   +56.6185
iter: 459 13:33:38  -804.966417c -5.99  -4.14c   +56.5937
iter: 460 13:34:51  -804.967564c -5.50  -4.07c   +56.6684
iter: 461 13:36:05  -804.967878c -6.43  -4.41c   +56.6639
iter: 462 13:37:18  -804.968114c -6.69  -4.35c   +56.6771
iter: 463 13:38:32  -804.968713c -6.39  -4.61c   +56.6829
iter: 464 13:39:46  -804.965093c -4.97  -4.79c   +56.6355
iter: 465 13:41:00  -804.962845c -4.85  -4.00    +56.5982
iter: 466 13:42:14  -804.963973c -5.93  -3.75    +56.6187
iter: 467 13:43:28  -804.964892c -5.77  -3.86    +56.6300
iter: 468 13:44:42  -804.965195c -6.35  -3.99    +56.6293
iter: 469 13:45:56  -804.964470c -6.26  -4.02c   +56.6383
iter: 470 13:47:10  -804.965111c -6.21  -3.94    +56.6319
iter: 471 13:48:24  -804.964941c -6.78  -4.05c   +56.6404
iter: 472 13:49:38  -804.966191c -5.77  -3.98    +56.6326
iter: 473 13:50:52  -804.965505c -6.04  -3.75    +56.6314
iter: 474 13:52:06  -804.965707c -6.24  -3.91    +56.6385
iter: 475 13:53:20  -804.966602c -6.06  -4.19c   +56.6382
iter: 476 13:54:33  -804.965913c -6.52  -4.03c   +56.6380
iter: 477 13:55:48  -804.966643c -6.43  -4.19c   +56.6475
iter: 478 13:57:02  -804.966441c -6.84  -4.32c   +56.6471
iter: 479 13:58:15  -804.966738c -6.47  -4.32c   +56.6355
iter: 480 13:59:30  -804.966924c -6.88  -4.33c   +56.6376
iter: 481 14:00:44  -804.967199c -6.67  -4.53c   +56.6352
iter: 482 14:01:58  -804.967686c -6.57  -4.65c   +56.6336
iter: 483 14:03:12  -804.966623c -6.25  -4.62c   +56.6405
iter: 484 14:04:25  -804.964076c -5.11  -4.66c   +56.6759
iter: 485 14:05:39  -804.964614c -6.50  -4.02c   +56.6743
iter: 486 14:06:54  -804.965462c -6.07  -4.11c   +56.6755
iter: 487 14:08:08  -804.965830c -6.38  -4.32c   +56.6783
iter: 488 14:09:22  -804.962440c -4.77  -4.44c   +56.6479
iter: 489 14:10:36  -804.963607c -5.97  -3.80    +56.6570
iter: 490 14:11:50  -804.963439c -7.00  -3.93    +56.6575
iter: 491 14:13:05  -804.963866c -6.58  -3.93    +56.6610
iter: 492 14:14:19  -804.963647c -7.36  -4.01c   +56.6594
iter: 493 14:15:33  -804.963787c -6.66  -3.99    +56.6613
iter: 494 14:16:47  -804.964400c -6.17  -4.02c   +56.6613
iter: 495 14:18:02  -804.964327c -6.29  -3.90    +56.6634
iter: 496 14:19:16  -804.964816c -5.99  -4.03c   +56.6541
iter: 497 14:20:30  -804.964494c -6.55  -3.96    +56.6566
iter: 498 14:21:44  -804.965034c -6.45  -4.33c   +56.6660
iter: 499 14:22:58  -804.965309c -6.59  -4.55c   +56.6676
iter: 500 14:24:12  -804.965623c -6.43  -4.49c   +56.6657
iter: 501 14:25:26  -804.965939c -6.49  -4.48c   +56.6678
iter: 502 14:26:40  -804.965778c -7.62c -4.55c   +56.6659

Converged after 502 iterations.

Dipole moment: (28.984148, 17.390338, 8.465579) |e|*Ang

Total magnetic moment: (0.000000, 0.000000, 56.665928)
Local magnetic moments:
   0 Ni ( 0.000000,  0.000000,  0.208946)
   1 Al ( 0.000000,  0.000000, -0.029830)
   2 Ni ( 0.000000,  0.000000,  0.202277)
   3 Co ( 0.000000,  0.000000,  1.336840)
   4 Al ( 0.000000,  0.000000, -0.030409)
   5 Cr ( 0.000000,  0.000000,  1.978833)
   6 Co ( 0.000000,  0.000000,  1.200976)
   7 Al ( 0.000000,  0.000000, -0.032219)
   8 Al ( 0.000000,  0.000000, -0.044124)
   9 Fe ( 0.000000,  0.000000,  2.167028)
  10 Fe ( 0.000000,  0.000000,  2.230532)
  11 Fe ( 0.000000,  0.000000,  2.192423)
  12 Ni ( 0.000000,  0.000000,  0.296290)
  13 Ni ( 0.000000,  0.000000,  0.233022)
  14 Co ( 0.000000,  0.000000,  1.041797)
  15 Fe ( 0.000000,  0.000000,  2.317098)
  16 Ni ( 0.000000,  0.000000,  0.397237)
  17 Co ( 0.000000,  0.000000,  1.233197)
  18 Al ( 0.000000,  0.000000, -0.031865)
  19 Ni ( 0.000000,  0.000000,  0.336185)
  20 Co ( 0.000000,  0.000000,  1.086726)
  21 Al ( 0.000000,  0.000000, -0.001315)
  22 Cr ( 0.000000,  0.000000, -2.233386)
  23 Ni ( 0.000000,  0.000000,  0.109144)
  24 Cr ( 0.000000,  0.000000, -0.684877)
  25 Fe ( 0.000000,  0.000000,  1.979494)
  26 Fe ( 0.000000,  0.000000,  2.209689)
  27 Cr ( 0.000000,  0.000000, -1.782469)
  28 Fe ( 0.000000,  0.000000,  2.281687)
  29 Co ( 0.000000,  0.000000,  0.874877)
  30 Cr ( 0.000000,  0.000000,  0.178234)
  31 Fe ( 0.000000,  0.000000,  2.348276)
  32 Ni ( 0.000000,  0.000000,  0.196749)
  33 Co ( 0.000000,  0.000000,  1.063464)
  34 Cr ( 0.000000,  0.000000, -0.400359)
  35 Cr ( 0.000000,  0.000000, -0.452067)
  36 Fe ( 0.000000,  0.000000,  2.214930)
  37 Fe ( 0.000000,  0.000000,  1.949504)
  38 Ni ( 0.000000,  0.000000,  0.258811)
  39 Al ( 0.000000,  0.000000, -0.028611)
  40 Al ( 0.000000,  0.000000, -0.016006)
  41 Co ( 0.000000,  0.000000,  0.967997)
  42 Al ( 0.000000,  0.000000, -0.012160)
  43 Cr ( 0.000000,  0.000000,  0.283888)
  44 Ni ( 0.000000,  0.000000,  0.010057)
  45 Al ( 0.000000,  0.000000, -0.015766)
  46 Al ( 0.000000,  0.000000, -0.024313)
  47 Co ( 0.000000,  0.000000,  0.997125)
  48 Fe ( 0.000000,  0.000000,  1.975998)
  49 Cr ( 0.000000,  0.000000, -0.755092)
  50 Cr ( 0.000000,  0.000000, -1.887833)
  51 Cr ( 0.000000,  0.000000,  0.087398)
  52 Ni ( 0.000000,  0.000000,  0.070606)
  53 Co ( 0.000000,  0.000000,  1.015312)
  54 Cr ( 0.000000,  0.000000, -1.490973)
  55 Al ( 0.000000,  0.000000, -0.006166)
  56 Cr ( 0.000000,  0.000000,  1.152583)
  57 Cr ( 0.000000,  0.000000, -0.707667)
  58 Co ( 0.000000,  0.000000,  0.975534)
  59 Ni ( 0.000000,  0.000000,  0.087785)
[...]
  93 Co ( 0.000000,  0.000000,  1.453206)
  94 Fe ( 0.000000,  0.000000,  2.423754)
  95 Ni ( 0.000000,  0.000000,  0.238403)
  96 Cr ( 0.000000,  0.000000, -1.706204)
  97 Cr ( 0.000000,  0.000000, -1.387390)
  98 Ni ( 0.000000,  0.000000,  0.204321)
  99 Fe ( 0.000000,  0.000000,  2.294845)
 100 Al ( 0.000000,  0.000000, -0.035217)
 101 Ni ( 0.000000,  0.000000,  0.122714)
 102 Co ( 0.000000,  0.000000,  1.024917)
 103 Al ( 0.000000,  0.000000, -0.001622)
 104 Cr ( 0.000000,  0.000000,  0.442008)
 105 Al ( 0.000000,  0.000000, -0.021790)
 106 Fe ( 0.000000,  0.000000,  2.263455)
 107 Co ( 0.000000,  0.000000,  0.590889)

Energy contributions relative to reference atoms: (reference = -3235165.067515)

Kinetic:       +220.514185
Potential:     -216.565446
External:        +0.000000
XC:            -838.127521
Entropy (-ST):   -4.095417
Local:          +31.260713
Free energy:   -807.013486
Extrapolated:  -804.965778

Spin contamination: 24.409076 electrons
Showing only first 2 kpts
                      Up                     Down
 Kpt  Band  Eigenvalues  Occupancy  Eigenvalues  Occupancy
  0   454      8.99753    0.99570      9.88790    0.03051
  0   455      9.00456    0.99539      9.90966    0.02470
  0   456      9.01715    0.99477      9.91847    0.02266
  0   457      9.03926    0.99349      9.93507    0.01926

  1   454      8.99481    0.99582      9.89860    0.02750
  1   455      9.02085    0.99458      9.90113    0.02683
  1   456      9.02774    0.99419      9.91376    0.02373
  1   457      9.03936    0.99348      9.92415    0.02143

Fermi level: 9.54205

No gap

Forces in eV/Ang:
  0 Ni    0.38975   -0.58140   -0.60276
  1 Al    0.11228   -0.41759   -1.18004
  2 Ni   -0.08016    0.06498   -0.00587
  3 Co    0.15999   -0.03501   -0.25295
  4 Al   -0.06436    0.32545    0.05818
  5 Cr    0.17830   -0.19411    0.89551
  6 Co   -0.27385    0.33852    1.12015
  7 Al   -0.69512    0.21637   -0.55086
  8 Al   -0.83772    0.06058    1.68364
  9 Fe    0.05427   -0.23600    0.83564
 10 Fe   -0.04986   -0.59685    0.44104
 11 Fe    0.35200    0.41758    0.12830
 12 Ni    0.07708   -0.24038   -0.07985
 13 Ni   -0.05699   -0.01835    0.09964
 14 Co    0.49526    0.09384   -0.19091
 15 Fe    0.30629   -0.16536    0.59514
 16 Ni   -0.30774   -0.08796    0.32767
 17 Co   -0.57630    0.55681    0.21246
 18 Al   -0.82465   -0.08149   -0.30780
 19 Ni   -0.27736    0.05870   -0.26404
 20 Co    0.41472    0.05571   -0.25122
 21 Al    0.90378   -0.06541   -0.57828
 22 Cr   -0.68127   -0.02663    0.28670
 23 Ni    0.01534    0.07219   -0.05595
 24 Cr    0.04981    1.02366    0.25597
 25 Fe   -0.39606    0.55690   -0.91710
 26 Fe    0.32280   -0.12738   -0.08966
 27 Cr   -1.02184   -0.33518    0.39432
 28 Fe   -0.14659    0.12857    0.23272
 29 Co    0.41105   -0.34734    0.50530
 30 Cr   -1.39070    1.58722   -0.26649
 31 Fe   -0.00343   -0.65183    0.59498
 32 Ni   -0.05577   -0.15392   -0.37885
 33 Co   -0.13877    0.08011    0.60843
 34 Cr    0.97440    1.06234   -0.00102
 35 Cr    1.32052   -0.62125    0.53502
 36 Fe   -0.30146   -0.23907   -0.21198
 37 Fe    0.20015    0.66840   -0.27529
 38 Ni    0.72545    0.05042   -0.18796
 39 Al    0.89724    0.15296    0.41105
 40 Al    1.22454    1.15528   -0.44785
 41 Co    0.15491    0.17441   -0.77427
 42 Al   -0.73643    1.49042   -1.01560
 43 Cr   -0.17380   -0.16162   -0.60425
 44 Ni   -0.81655    0.07965   -0.15305
 45 Al    0.26989    0.65077   -0.11222
 46 Al   -0.23277   -0.34284   -0.71163
 47 Co   -0.18348    0.25507   -0.32201
 48 Fe   -0.40736    0.32481    0.23174
 49 Cr   -0.22751   -0.07645    0.31112
 50 Cr    0.87297    0.71186    1.30291
 51 Cr    0.44019   -0.27810    0.25038
 52 Ni   -0.38728   -0.21911   -0.00026
 53 Co   -0.49122    0.01386    0.13131
 54 Cr   -0.58996   -0.76078    0.26056
 55 Al   -1.35091    0.99578    0.63038
 56 Cr    0.69240   -0.89672    0.32250
 57 Cr    0.79630   -0.01294    0.43464
 58 Co    0.06285    0.46809   -0.19660
 59 Ni   -0.16266   -0.56307   -0.13501
[...]
 93 Co   -0.09209    0.34540   -0.00936
 94 Fe   -0.30484   -0.32753   -0.01189
 95 Ni    0.12137    0.00563    0.09896
 96 Cr    0.08448    0.28196    0.22069
 97 Cr   -0.31525   -0.75064    0.32106
 98 Ni   -0.45485    0.02493   -0.07551
 99 Fe   -0.71669   -0.12014    0.07545
100 Al   -0.56093   -0.57210   -0.17180
101 Ni    0.26300   -0.38479    0.21759
102 Co   -0.13018   -0.60694    0.17567
103 Al   -0.46716   -0.59331    1.11773
104 Cr    0.39274   -1.36345    0.55489
105 Al   -0.15251   -1.57186   -0.36435
106 Fe    0.71734    0.39638   -0.51231
107 Co    0.64184   -0.88206    0.41958

Date: Mon Apr 17 14:26:57 2023