User:   c.zeng@d0147
Date:   Fri Apr 14 20:07:17 2023
Arch:   x86_64
Pid:    48593
CWD:    /home/c.zeng/projects/hea-corrosion/hea-mlp/data-curation/bulk-mcmc/dft-jobs/164
Python: 3.8.1
gpaw:   /home/c.zeng/usr/installs/gpaw/source/gpaw-22.8.0/gpaw
_gpaw:  /home/c.zeng/usr/installs/gpaw/source/gpaw-22.8.0/
        _gpaw.cpython-38-x86_64-linux-gnu.so
ase:    /home/c.zeng/.local/lib/python3.8/site-packages/ase-3.22.1-py3.8.egg/ase (version 3.22.1)
numpy:  /shared/centos7/python/3.8.1/lib/python3.8/site-packages/numpy (version 1.17.4)
scipy:  /shared/centos7/python/3.8.1/lib/python3.8/site-packages/scipy (version 1.4.1)
units:  Angstrom and eV
cores: 30
OpenMP: False
OMP_NUM_THREADS: 1

Input parameters:
  convergence: {energy: 0.0001}
  kpts: [2 2 2]
  maxiter: 666
  mode: {ecut: 350.0,
         name: pw}
  occupations: {fixmagmom: False,
                name: fermi-dirac,
                width: 0.1}
  spinpol: True
  xc: PBE

System changes: positions, numbers, cell, pbc, initial_charges, initial_magmoms

Initialize ...

species:
  Co:
    name: Cobalt
    id: 339d20d5b0b93d2de9531a1bee871d91
    Z: 27.0
    valence: 9
    core: 18
    charge: 0.0
    file: /home/c.zeng/usr/data/gpaw-setups-0.9.20000/Co.PBE.gz
    compensation charges: {type: gauss,
                           rc: 0.32,
                           lmax: 2}
    cutoffs: {filter: 1.87,
              core: 2.55}
    valence states:
      #              energy  rcut
      - 4s(2.00)    -5.469   1.005
      - 4p(0.00)    -1.277   1.058
      - 3d(7.00)    -8.205   1.005
      -  s          21.742   1.005
      -  p          25.934   1.058
      -  d          19.007   1.005

    # Using partial waves for Co as LCAO basis

  Fe:
    name: Iron
    id: 37abbd8d6c3c35915a9b583b742da910
    Z: 26.0
    valence: 8
    core: 18
    charge: 0.0
    file: /home/c.zeng/usr/data/gpaw-setups-0.9.20000/Fe.PBE.gz
    compensation charges: {type: gauss,
                           rc: 0.33,
                           lmax: 2}
    cutoffs: {filter: 2.06,
              core: 2.67}
    valence states:
      #              energy  rcut
      - 4s(2.00)    -5.291   1.164
      - 4p(0.00)    -1.326   1.058
      - 3d(6.00)    -7.505   1.058
      -  s          21.920   1.164
      -  p          25.885   1.058
      -  d          19.706   1.058

[...]

  Al:
    name: Aluminium
    id: 0292cae29f5d6237e50f6abdd43a7bdd
    Z: 13.0
    valence: 3
    core: 10
    charge: 0.0
    file: /home/c.zeng/usr/data/gpaw-setups-0.9.20000/Al.PBE.gz
    compensation charges: {type: gauss,
                           rc: 0.34,
                           lmax: 2}
    cutoffs: {filter: 1.91,
              core: 2.36}
    valence states:
      #              energy  rcut
      - 3s(2.00)    -7.753   1.085
      - 3p(1.00)    -2.712   1.085
      -  s          19.459   1.085
      -  p          24.499   1.085
      -  d           0.000   1.085

[...]

  Cr:
    name: Chromium
    id: 33f258bda2ca9f93018e70263a35547b
    Z: 24.0
    valence: 6
    core: 18
    charge: 0.0
    file: /home/c.zeng/usr/data/gpaw-setups-0.9.20000/Cr.PBE.gz
    compensation charges: {type: gauss,
                           rc: 0.35,
                           lmax: 2}
    cutoffs: {filter: 2.14,
              core: 3.04}
    valence states:
      #              energy  rcut
      - 4s(1.00)    -4.007   1.164
      - 4p(0.00)    -0.989   1.217
      - 3d(5.00)    -2.913   1.111
      -  s          23.205   1.164
      -  p          26.223   1.217
      -  d          24.299   1.111

[...]

  Ni:
    name: Nickel
    id: 0d9f38a9d6e76a2886f07bb4381f212b
    Z: 28.0
    valence: 16
    core: 12
    charge: 0.0
    file: /home/c.zeng/usr/data/gpaw-setups-0.9.20000/Ni.PBE.gz
    compensation charges: {type: gauss,
                           rc: 0.36,
                           lmax: 2}
    cutoffs: {filter: 2.14,
              core: 1.98}
    valence states:
      #              energy  rcut
      - 4s(2.00)    -5.642   1.164
      - 3p(6.00)   -71.394   1.207
      - 4p(0.00)    -1.226   1.207
      - 3d(8.00)    -8.875   1.138
      -  s          21.570   1.164
      -  d          18.337   1.138

    # Using partial waves for Ni as LCAO basis

Reference energy: -3382523.201499  # eV

Spin-polarized calculation.
Magnetic moment: 128.800000

Convergence criteria:
 Maximum [total energy] change in last 3 cyles: 0.0001 eV / electron
 Maximum integral of absolute [dens]ity change: 0.0001 electrons / valence electron
 Maximum integral of absolute [eigenst]ate change: 4e-08 eV^2 / valence electron
 Maximum number of scf [iter]ations: 666
 (Square brackets indicate name in SCF output, whereas a 'c' in
 the SCF output indicates the quantity has converged.)

Symmetries present (total): 1

  ( 1  0  0)
  ( 0  1  0)
  ( 0  0  1)

8 k-points: 2 x 2 x 2 Monkhorst-Pack grid
4 k-points in the irreducible part of the Brillouin zone
       k-points in crystal coordinates                weights
   0:     0.25000000   -0.25000000   -0.25000000          2/8
   1:     0.25000000   -0.25000000    0.25000000          2/8
   2:     0.25000000    0.25000000   -0.25000000          2/8
   3:     0.25000000    0.25000000    0.25000000          2/8

Wave functions: Plane wave expansion
  Cutoff energy: 350.000 eV
  Number of coefficients (min, max): 18865, 18865
  Pulay-stress correction: 0.000000 eV/Ang^3 (de/decut=0.000000)
  Using FFTW library
  ScaLapack parameters: grid=1x1, blocksize=None
  Wavefunction extrapolation:
    Improved wavefunction reuse through dual PAW basis

Occupation numbers: Fermi-Dirac:
  width: 0.1000  # eV

Eigensolver
   Davidson(niter=2)

Densities:
  Coarse grid: 48*48*48 grid
  Fine grid: 96*96*96 grid
  Total Charge: 0.000000

Density mixing:
  Method: difference
  Backend: pulay
  Linear mixing parameter: 0.05
  old densities: 5
  Damping of long wavelength oscillations: 50

Hamiltonian:
  XC and Coulomb potentials evaluated on a 96*96*96 grid
  Using the PBE Exchange-Correlation functional
  External potential:
    NoExternalPotential

XC parameters: PBE with 2 nearest neighbor stencil

Total number of cores used: 30
Parallelization over k-points: 2
Domain decomposition: 5 x 3 x 1

Number of atoms: 108
Number of atomic orbitals: 961
Number of bands in calculation: 649
Number of valence electrons: 945
Bands to converge: occupied

... initialized

Initializing position-dependent things.

Density initialized from atomic densities
Creating initial wave functions:
  649 bands from LCAO basis set

       /|                     Co   |
      / |            Co Co     CrCo|
     /  |       Cr       Ni       Cr
    /   |Co       Fel     FFer     |
   /i   | Coo        Co      Co    |
  /  CrAl   NCr       Ni           |
 *      Ni     FeCo   AlFeCrCo   Cr|
 |      |CoNi   CrNiAl   NiAlNi   Fe
 | CrCo | AlNi   AlAlFe     Ni     |
 |     Fe  FeCr Cr  Fe CoNi  CrNi  |
 |      CoNi   AlCr   FeFeCoNi  Fe |
 |Al    |FeCr   AlCrCo   CrCo     Co
 |      .-CrCo-----NiCr-CoFeCrNi---.
 |     /   Ni Fe    Cr FeNi    Al /
 |    Fe       AFei       Al     /
 |   /  Fe         Al       Cr  /
 |  /      Co       Al       Fe/
 | / Co     Fe       Ni Ni    /
 |/             Cr       Ni  /
 *--------Fe----------------*

Positions:
   0 Co    10.764147   10.861293   10.805330    ( 0.0000,  0.0000,  2.0000)
   1 Fe    10.786221    1.792513    1.813624    ( 0.0000,  0.0000,  0.0000)
   2 Co     1.744156    0.036560    1.851269    ( 0.0000,  0.0000,  1.5000)
   3 Al     1.736571    1.831142   10.798805    ( 0.0000,  0.0000,  0.0000)
   4 Fe     3.575126    0.057318    0.061759    ( 0.0000,  0.0000,  0.0000)
   5 Co     3.594289    1.817617    1.845577    ( 0.0000,  0.0000,  2.0000)
   6 Fe     5.429813   10.817005    1.865054    ( 0.0000,  0.0000,  1.5000)
   7 Cr     5.429608    1.929425    0.057134    ( 0.0000,  0.0000,  0.0000)
   8 Fe     7.316909   10.723332    0.087382    ( 0.0000,  0.0000,  0.0000)
   9 Al     7.263142    1.825786    1.869404    ( 0.0000,  0.0000,  2.1000)
  10 Ni     9.063554    0.025226    1.863474    ( 0.0000,  0.0000,  1.5000)
  11 Ni     9.049217    1.829703    0.033106    ( 0.0000,  0.0000,  2.1000)
  12 Ni     0.004792    3.558981   10.794801    ( 0.0000,  0.0000,  1.5000)
  13 Al    10.759710    5.390697    1.778165    ( 0.0000,  0.0000,  0.0000)
  14 Fe     1.733585    3.561849    1.761112    ( 0.0000,  0.0000,  2.0000)
  15 Co     1.776899    5.391834   10.795505    ( 0.0000,  0.0000,  0.0000)
  16 Fe     3.565452    3.619360   10.832619    ( 0.0000,  0.0000,  2.1000)
  17 Fe     3.633221    5.394614    1.719551    ( 0.0000,  0.0000,  0.0000)
  18 Ni     5.471624    3.659114    1.836033    ( 0.0000,  0.0000,  2.1000)
  19 Fe     5.440212    5.373060   -0.002773    ( 0.0000,  0.0000,  2.0000)
  20 Ni     7.258997    3.609080    0.031294    ( 0.0000,  0.0000,  0.0000)
  21 Fe     7.268941    5.378362    1.785274    ( 0.0000,  0.0000,  2.0000)
  22 Al     9.030724    3.577636    1.833728    ( 0.0000,  0.0000,  2.1000)
  23 Fe     9.040420    5.372281   10.801110    ( 0.0000,  0.0000,  0.0000)
  24 Co    10.791663    7.196206   10.792486    ( 0.0000,  0.0000,  1.5000)
  25 Co    10.758434    9.040387    1.848239    ( 0.0000,  0.0000,  0.0000)
  26 Cr     1.690487    7.202493    1.786032    ( 0.0000,  0.0000,  0.0000)
  27 Ni     1.652691    8.981047    0.027217    ( 0.0000,  0.0000,  0.0000)
  28 Al     3.631241    7.164437    0.034633    ( 0.0000,  0.0000,  0.0000)
  29 Al     3.625452    9.063759    1.801678    ( 0.0000,  0.0000,  0.0000)
  30 Ni     5.490852    7.187095    1.746342    ( 0.0000,  0.0000,  2.0000)
  31 Cr     5.426935    8.989152    0.009861    ( 0.0000,  0.0000,  2.0000)
  32 Co     7.229122    7.237075   -0.008698    ( 0.0000,  0.0000,  1.5000)
  33 Cr     7.249194    8.995850    1.810713    ( 0.0000,  0.0000,  0.0000)
  34 Cr     9.052073    7.204300    1.764218    ( 0.0000,  0.0000,  2.1000)
  35 Co     9.092553    8.989639   10.808760    ( 0.0000,  0.0000,  1.5000)
  36 Cr    -0.000975   10.826235    3.639789    ( 0.0000,  0.0000,  1.5000)
  37 Al    10.822772    1.771770    5.422044    ( 0.0000,  0.0000,  2.1000)
  38 Ni     1.754263   10.802084    5.428872    ( 0.0000,  0.0000,  2.1000)
  39 Fe     1.741873    1.774270    3.610801    ( 0.0000,  0.0000,  0.0000)
  40 Al     3.591183   10.794152    3.612143    ( 0.0000,  0.0000,  2.0000)
  41 Cr     3.593088    1.736744    5.455177    ( 0.0000,  0.0000,  0.0000)
  42 Al     5.437150   10.794563    5.400804    ( 0.0000,  0.0000,  2.0000)
  43 Fe     5.451931    1.783251    3.601387    ( 0.0000,  0.0000,  1.5000)
  44 Al     7.226222    0.007781    3.626209    ( 0.0000,  0.0000,  0.0000)
  45 Co     7.236069    1.766512    5.381392    ( 0.0000,  0.0000,  2.1000)
  46 Co     9.034587   10.848850    5.403844    ( 0.0000,  0.0000,  2.1000)
  47 Ni     9.031558    1.804946    3.616730    ( 0.0000,  0.0000,  1.5000)
  48 Ni    10.773885    3.543973    3.617867    ( 0.0000,  0.0000,  1.5000)
  49 Ni    10.772186    5.358409    5.454917    ( 0.0000,  0.0000,  0.0000)
  50 Co     1.757531    3.575678    5.428937    ( 0.0000,  0.0000,  2.1000)
  51 Fe     1.621766    5.386986    3.572550    ( 0.0000,  0.0000,  0.0000)
[...]
iter: 125 23:29:53  -825.469179c -6.23  -4.09c   +58.5281
iter: 126 23:31:30  -825.469780c -6.51  -4.16c   +58.5345
iter: 127 23:33:07  -825.470625c -6.34  -4.15c   +58.5498
iter: 128 23:34:45  -825.473267c -5.54  -4.18c   +58.5932
iter: 129 23:36:21  -825.464828c -4.66  -4.04c   +58.4621
iter: 130 23:37:48  -825.465096c -5.95  -4.14c   +58.4639
iter: 131 23:39:11  -825.466177c -6.54  -4.20c   +58.4801
iter: 132 23:40:33  -825.467410c -5.93  -4.22c   +58.5042
iter: 133 23:41:55  -825.467108c -6.87  -4.23c   +58.4994
iter: 134 23:43:17  -825.468292c -6.21  -4.33c   +58.5175
iter: 135 23:44:39  -825.470107c -5.78  -4.63c   +58.5487
iter: 136 23:46:02  -825.469126c -6.79  -4.44c   +58.5321
iter: 137 23:47:25  -825.469455c -7.33  -4.60c   +58.5345
iter: 138 23:48:47  -825.469906c -6.97  -4.59c   +58.5438
iter: 139 23:50:09  -825.471265c -6.11  -4.58c   +58.5651
iter: 140 23:51:30  -825.466834c -5.19  -4.37c   +58.4931
iter: 141 23:52:53  -825.460022c -4.54  -4.40c   +58.3669
iter: 142 23:54:15  -825.458539c -5.10  -3.82    +58.3351
iter: 143 23:55:37  -825.455101c -4.59  -3.73    +58.2488
iter: 144 23:57:00  -825.454221c -4.73  -3.53    +58.2026
iter: 145 23:58:22  -825.454752c -5.79  -3.44    +58.2238
iter: 146 23:59:45  -825.455323c -6.06  -3.46    +58.2364
iter: 147 00:01:06  -825.455218c -6.43  -3.44    +58.2424
iter: 148 00:02:28  -825.455282c -5.66  -3.47    +58.2587
iter: 149 00:03:51  -825.456112c -5.03  -3.42    +58.2557
iter: 150 00:05:13  -825.461676c -4.78  -3.41    +58.2680
iter: 151 00:06:36  -825.455741c -5.06  -3.24    +58.2647
iter: 152 00:07:58  -825.453469c -5.49  -3.50    +58.2965
iter: 153 00:09:20  -825.454442c -5.67  -3.70    +58.3145
iter: 154 00:10:43  -825.455155c -5.85  -3.65    +58.3318
iter: 155 00:12:05  -825.456010c -5.71  -3.80    +58.3613
iter: 156 00:13:28  -825.456371c -5.78  -3.74    +58.3638
iter: 157 00:14:50  -825.456690c -5.74  -3.72    +58.3811
iter: 158 00:16:12  -825.457287c -5.93  -3.78    +58.3935
iter: 159 00:17:34  -825.458163c -5.88  -3.88    +58.4153
iter: 160 00:18:56  -825.457850c -6.17  -3.87    +58.4250
iter: 161 00:20:18  -825.458636c -6.27  -4.03c   +58.4383
iter: 162 00:21:40  -825.459658c -6.04  -4.13c   +58.4662
iter: 163 00:23:03  -825.459866c -6.55  -4.12c   +58.4671
iter: 164 00:24:25  -825.460403c -6.28  -4.13c   +58.4783
iter: 165 00:25:47  -825.460646c -6.83  -4.18c   +58.4814
iter: 166 00:27:08  -825.461696c -6.20  -4.27c   +58.4967
iter: 167 00:28:30  -825.461648c -6.88  -4.18c   +58.4991
iter: 168 00:29:51  -825.462448c -6.30  -4.31c   +58.5091
iter: 169 00:31:13  -825.462770c -6.70  -4.30c   +58.5160
iter: 170 00:32:35  -825.463322c -6.59  -4.30c   +58.5240
iter: 171 00:33:58  -825.461247c -5.59  -4.23c   +58.4902
iter: 172 00:35:20  -825.460692c -6.32  -4.25c   +58.4858
iter: 173 00:36:42  -825.461730c -6.37  -4.38c   +58.4997
iter: 174 00:38:04  -825.461316c -7.17  -4.41c   +58.4926
iter: 175 00:39:27  -825.462060c -6.50  -4.50c   +58.5067
iter: 176 00:40:49  -825.461479c -6.80  -4.48c   +58.4943
iter: 177 00:42:11  -825.459799c -5.65  -4.54c   +58.4620
iter: 178 00:43:33  -825.459493c -6.27  -4.34c   +58.4574
iter: 179 00:44:54  -825.459740c -6.95  -4.28c   +58.4655
iter: 180 00:46:16  -825.461002c -6.06  -4.36c   +58.4917
iter: 181 00:47:37  -825.464203c -5.20  -4.45c   +58.5566
iter: 182 00:49:00  -825.460310c -5.26  -4.22c   +58.4769
iter: 183 00:50:22  -825.465118c -5.07  -4.34c   +58.5727
iter: 184 00:51:44  -825.462088c -5.62  -4.11c   +58.5136
iter: 185 00:53:06  -825.465951c -5.27  -4.47c   +58.5889
iter: 186 00:54:28  -825.465606c -6.51  -4.05c   +58.5825
iter: 187 00:55:50  -825.466644c -6.06  -4.03c   +58.6066
iter: 188 00:57:11  -825.467050c -6.50  -3.99    +58.6100
iter: 189 00:58:32  -825.467489c -6.46  -3.94    +58.6209
iter: 190 00:59:54  -825.467327c -6.65  -3.92    +58.6205
iter: 191 01:01:16  -825.468566c -6.06  -3.95    +58.6352
iter: 192 01:02:38  -825.469047c -5.88  -3.84    +58.6426
iter: 193 01:04:00  -825.468656c -5.93  -3.78    +58.6493
iter: 194 01:05:22  -825.469793c -5.84  -3.83    +58.6435
iter: 195 01:06:45  -825.469226c -6.32  -3.85    +58.6455
iter: 196 01:08:07  -825.469589c -6.43  -4.01c   +58.6511
iter: 197 01:09:28  -825.469620c -7.29  -4.01c   +58.6510
iter: 198 01:10:49  -825.470397c -6.35  -4.03c   +58.6523
iter: 199 01:12:11  -825.469022c -5.80  -3.93    +58.6528
iter: 200 01:13:33  -825.468791c -6.25  -4.14c   +58.6412
iter: 201 01:14:54  -825.469445c -6.22  -4.06c   +58.6461
iter: 202 01:16:16  -825.469945c -6.36  -4.10c   +58.6554
iter: 203 01:17:37  -825.470567c -6.30  -4.22c   +58.6555
iter: 204 01:18:59  -825.468877c -5.63  -4.17c   +58.6530
iter: 205 01:20:21  -825.471670c -5.37  -4.15c   +58.6576
iter: 206 01:21:42  -825.466715c -4.84  -3.98    +58.6398
iter: 207 01:23:03  -825.464765c -5.03  -4.39c   +58.6291
iter: 208 01:24:26  -825.462372c -4.71  -4.26c   +58.6165
iter: 209 01:25:47  -825.460805c -4.22  -3.87    +58.5957
iter: 210 01:27:10  -825.461260c -5.49  -3.53    +58.6051
iter: 211 01:28:31  -825.461560c -5.69  -3.59    +58.6161
iter: 212 01:29:53  -825.461503c -6.40  -3.64    +58.6220
iter: 213 01:31:15  -825.461603c -6.39  -3.65    +58.6316
iter: 214 01:32:38  -825.463949c -5.69  -3.67    +58.6376
iter: 215 01:33:59  -825.462851c -5.29  -3.48    +58.6430
iter: 216 01:35:19  -825.464486c -5.10  -3.53    +58.6578
iter: 217 01:36:41  -825.461447c -5.54  -3.48    +58.6689
iter: 218 01:38:01  -825.461815c -5.87  -3.72    +58.6771
iter: 219 01:39:22  -825.461250c -6.13  -3.83    +58.6868
iter: 220 01:40:44  -825.461709c -6.17  -3.95    +58.7023
iter: 221 01:42:05  -825.462057c -6.30  -4.01c   +58.7073
iter: 222 01:43:25  -825.462136c -6.31  -4.01c   +58.7178
iter: 223 01:44:47  -825.462691c -6.21  -4.16c   +58.7292
iter: 224 01:46:08  -825.462460c -6.49  -4.00    +58.7370
iter: 225 01:47:29  -825.463065c -6.44  -4.25c   +58.7477
iter: 226 01:48:50  -825.463224c -6.68  -4.27c   +58.7551
iter: 227 01:50:11  -825.463629c -6.58  -4.37c   +58.7668
iter: 228 01:51:32  -825.462373c -5.81  -4.32c   +58.7313
iter: 229 01:52:53  -825.459303c -4.77  -4.37c   +58.6338
iter: 230 01:54:14  -825.458674c -5.28  -3.93    +58.6114
iter: 231 01:55:34  -825.458316c -5.39  -3.82    +58.5984
iter: 232 01:56:56  -825.457851c -5.03  -3.73    +58.5885
iter: 233 01:58:17  -825.457909c -5.81  -3.59    +58.5983
iter: 234 01:59:39  -825.458085c -6.41  -3.59    +58.6141
iter: 235 02:01:00  -825.459284c -5.92  -3.60    +58.6446
iter: 236 02:02:21  -825.458755c -6.06  -3.55    +58.6242
iter: 237 02:03:43  -825.460854c -4.86  -3.50    +58.6457
iter: 238 02:05:04  -825.457389c -5.29  -3.36    +58.6408
iter: 239 02:06:26  -825.458264c -5.36  -3.58    +58.6487
iter: 240 02:07:47  -825.456261c -5.84  -3.54    +58.6593
iter: 241 02:09:08  -825.456742c -5.94  -3.94    +58.6803
iter: 242 02:10:28  -825.457306c -6.08  -3.88    +58.6847
iter: 243 02:11:49  -825.457825c -6.04  -3.94    +58.7025
iter: 244 02:13:10  -825.457857c -6.06  -4.06c   +58.7188
iter: 245 02:14:30  -825.457903c -6.64  -4.02c   +58.7202
iter: 246 02:15:51  -825.458366c -6.35  -4.29c   +58.7334
iter: 247 02:17:12  -825.458150c -7.16  -4.31c   +58.7291
iter: 248 02:18:33  -825.458225c -6.72  -4.39c   +58.7355
iter: 249 02:19:53  -825.458667c -6.59  -4.33c   +58.7451
iter: 250 02:21:14  -825.459256c -6.29  -4.42c   +58.7612
iter: 251 02:22:36  -825.460458c -5.70  -4.32c   +58.7918
iter: 252 02:23:57  -825.458717c -5.64  -4.14c   +58.7502
iter: 253 02:25:17  -825.460568c -5.64  -4.35c   +58.7915
iter: 254 02:26:38  -825.457696c -5.16  -4.11c   +58.7230
iter: 255 02:27:59  -825.456363c -5.32  -4.43c   +58.6906
iter: 256 02:29:20  -825.456861c -6.66  -4.17c   +58.7086
iter: 257 02:30:41  -825.459582c -5.09  -4.28c   +58.7917
iter: 258 02:32:02  -825.461370c -5.28  -4.31c   +58.8329
iter: 259 02:33:23  -825.453773c -4.11  -4.03c   +58.6063
iter: 260 02:34:44  -825.453371c -4.95  -3.74    +58.5819
iter: 261 02:36:05  -825.454267c -5.64  -3.66    +58.6244
iter: 262 02:37:26  -825.456239c -4.98  -3.77    +58.6990
iter: 263 02:38:46  -825.458262c -4.98  -4.09c   +58.7599
iter: 264 02:40:07  -825.454106c -4.55  -4.71c   +58.6218
iter: 265 02:41:29  -825.454420c -6.14  -3.75    +58.6379
iter: 266 02:42:50  -825.454484c -7.01  -3.78    +58.6409
iter: 267 02:44:11  -825.454936c -6.47  -3.79    +58.6594
iter: 268 02:45:32  -825.455062c -6.39  -3.83    +58.6755
iter: 269 02:46:54  -825.455381c -6.58  -3.88    +58.6850
iter: 270 02:48:15  -825.455718c -6.26  -3.89    +58.6920
iter: 271 02:49:36  -825.455561c -6.34  -3.78    +58.6938
iter: 272 02:50:56  -825.457382c -5.63  -3.91    +58.7065
iter: 273 02:52:17  -825.456456c -5.49  -3.68    +58.7066
iter: 274 02:53:39  -825.456225c -5.76  -3.64    +58.7222
iter: 275 02:55:00  -825.456504c -6.02  -4.01c   +58.7281
iter: 276 02:56:21  -825.456977c -6.23  -4.22c   +58.7444
iter: 277 02:57:44  -825.457607c -5.99  -4.37c   +58.7613
iter: 278 02:59:04  -825.458036c -6.23  -4.35c   +58.7748
iter: 279 03:00:25  -825.459235c -5.69  -4.65c   +58.8145
iter: 280 03:01:46  -825.457213c -5.41  -4.33c   +58.7525
iter: 281 03:03:07  -825.455855c -5.40  -4.52c   +58.7043
iter: 282 03:04:29  -825.456587c -6.41  -4.20c   +58.7312
iter: 283 03:05:50  -825.456315c -7.09  -4.39c   +58.7232
iter: 284 03:07:12  -825.456834c -6.51  -4.32c   +58.7412
iter: 285 03:08:33  -825.456991c -6.92  -4.46c   +58.7479
iter: 286 03:09:54  -825.457124c -7.41c -4.54c   +58.7496

Converged after 286 iterations.

Dipole moment: (28.656010, -4.244854, -9.523721) |e|*Ang

Total magnetic moment: (0.000000, 0.000000, 58.749605)
Local magnetic moments:
   0 Co ( 0.000000,  0.000000,  1.275235)
   1 Fe ( 0.000000,  0.000000,  2.393809)
   2 Co ( 0.000000,  0.000000,  1.287121)
   3 Al ( 0.000000,  0.000000, -0.046356)
   4 Fe ( 0.000000,  0.000000,  2.466277)
   5 Co ( 0.000000,  0.000000,  1.410220)
   6 Fe ( 0.000000,  0.000000,  1.878416)
   7 Cr ( 0.000000,  0.000000, -2.419789)
   8 Fe ( 0.000000,  0.000000,  2.187507)
   9 Al ( 0.000000,  0.000000, -0.015530)
  10 Ni ( 0.000000,  0.000000,  0.162061)
  11 Ni ( 0.000000,  0.000000,  0.153395)
  12 Ni ( 0.000000,  0.000000,  0.261076)
  13 Al ( 0.000000,  0.000000, -0.027268)
  14 Fe ( 0.000000,  0.000000,  2.232913)
  15 Co ( 0.000000,  0.000000,  0.771691)
  16 Fe ( 0.000000,  0.000000,  2.249274)
  17 Fe ( 0.000000,  0.000000,  2.177679)
  18 Ni ( 0.000000,  0.000000,  0.238666)
  19 Fe ( 0.000000,  0.000000,  2.238737)
  20 Ni ( 0.000000,  0.000000,  0.129431)
  21 Fe ( 0.000000,  0.000000,  2.191303)
  22 Al ( 0.000000,  0.000000, -0.028277)
  23 Fe ( 0.000000,  0.000000,  2.027690)
  24 Co ( 0.000000,  0.000000,  0.223209)
  25 Co ( 0.000000,  0.000000,  1.079039)
  26 Cr ( 0.000000,  0.000000, -1.828486)
  27 Ni ( 0.000000,  0.000000,  0.048263)
  28 Al ( 0.000000,  0.000000, -0.012203)
  29 Al ( 0.000000,  0.000000, -0.023288)
  30 Ni ( 0.000000,  0.000000,  0.276092)
  31 Cr ( 0.000000,  0.000000,  1.613681)
  32 Co ( 0.000000,  0.000000,  0.931241)
  33 Cr ( 0.000000,  0.000000, -0.198179)
  34 Cr ( 0.000000,  0.000000, -1.718985)
  35 Co ( 0.000000,  0.000000,  1.040527)
  36 Cr ( 0.000000,  0.000000, -1.458975)
  37 Al ( 0.000000,  0.000000, -0.025299)
  38 Ni ( 0.000000,  0.000000,  0.138359)
  39 Fe ( 0.000000,  0.000000,  2.236370)
  40 Al ( 0.000000,  0.000000, -0.035173)
  41 Cr ( 0.000000,  0.000000, -2.057065)
  42 Al ( 0.000000,  0.000000, -0.028569)
  43 Fe ( 0.000000,  0.000000,  1.870141)
  44 Al ( 0.000000,  0.000000, -0.022476)
  45 Co ( 0.000000,  0.000000,  0.830331)
  46 Co ( 0.000000,  0.000000,  0.622243)
  47 Ni ( 0.000000,  0.000000,  0.172789)
  48 Ni ( 0.000000,  0.000000,  0.349960)
  49 Ni ( 0.000000,  0.000000,  0.280045)
  50 Co ( 0.000000,  0.000000,  1.168896)
  51 Fe ( 0.000000,  0.000000,  2.282847)
  52 Co ( 0.000000,  0.000000,  1.224195)
  53 Cr ( 0.000000,  0.000000, -0.068197)
  54 Cr ( 0.000000,  0.000000, -1.211640)
  55 Cr ( 0.000000,  0.000000,  0.385679)
  56 Cr ( 0.000000,  0.000000, -0.292663)
  57 Co ( 0.000000,  0.000000,  1.238496)
  58 Co ( 0.000000,  0.000000,  1.130186)
  59 Co ( 0.000000,  0.000000,  1.068074)
[...]
  93 Ni ( 0.000000,  0.000000,  0.320556)
  94 Cr ( 0.000000,  0.000000,  1.043324)
  95 Al ( 0.000000,  0.000000, -0.013092)
  96 Cr ( 0.000000,  0.000000,  0.924831)
  97 Cr ( 0.000000,  0.000000,  0.936991)
  98 Co ( 0.000000,  0.000000, -0.383471)
  99 Co ( 0.000000,  0.000000,  0.913140)
 100 Fe ( 0.000000,  0.000000, -1.750686)
 101 Cr ( 0.000000,  0.000000, -2.056278)
 102 Al ( 0.000000,  0.000000, -0.012087)
 103 Co ( 0.000000,  0.000000,  1.062767)
 104 Fe ( 0.000000,  0.000000,  2.533742)
 105 Ni ( 0.000000,  0.000000,  0.291125)
 106 Cr ( 0.000000,  0.000000, -1.423063)
 107 Co ( 0.000000,  0.000000,  0.916678)

Energy contributions relative to reference atoms: (reference = -3382523.201499)

Kinetic:       +199.182346
Potential:     -211.769737
External:        +0.000000
XC:            -844.062700
Entropy (-ST):   -4.237052
Local:          +33.311493
Free energy:   -827.575650
Extrapolated:  -825.457124

Spin contamination: 26.339954 electrons
Showing only first 2 kpts
                      Up                     Down
 Kpt  Band  Eigenvalues  Occupancy  Eigenvalues  Occupancy
  0   470      9.13808    0.99553     10.03691    0.02708
  0   471      9.16369    0.99424     10.05951    0.02172
  0   472      9.17813    0.99335     10.06940    0.01971
  0   473      9.19608    0.99205     10.09000    0.01610

  1   470      9.15437    0.99475     10.04380    0.02532
  1   471      9.16516    0.99415     10.05424    0.02286
  1   472      9.18058    0.99318     10.07045    0.01951
  1   473      9.20010    0.99173     10.08011    0.01775

Fermi level: 9.67874

No gap

Forces in eV/Ang:
  0 Co    0.27675   -0.54456    0.26840
  1 Fe    0.28935   -0.51065    0.13308
  2 Co    0.03848   -0.20197   -0.52846
  3 Al    0.21513   -0.47783   -0.30345
  4 Fe    0.26007    0.04355   -0.73383
  5 Co    0.08409    0.33389   -0.18269
  6 Fe    0.34116    0.29798   -0.78541
  7 Cr   -1.07501   -0.94313   -0.79798
  8 Fe   -0.52085    0.38524   -0.42522
  9 Al   -0.23665   -0.45002   -1.16125
 10 Ni   -0.21604   -0.29284   -0.31918
 11 Ni   -0.20218   -0.31658   -0.40962
 12 Ni   -0.27593    0.62235    0.07868
 13 Al    0.77153   -0.19891   -0.32481
 14 Fe    0.67164    0.39038    0.66280
 15 Co   -0.27716    0.12112   -0.11416
 16 Fe    0.47453   -0.20491    0.20564
 17 Fe   -0.43130   -0.63869    0.77420
 18 Ni   -0.44711   -0.27965    0.10574
 19 Fe    0.44266   -0.36773    0.15071
 20 Ni   -0.11480   -0.11323   -0.45836
 21 Fe   -0.02521    0.45326    0.05391
 22 Al    0.30842    0.04194   -0.43639
 23 Fe   -0.41864    0.75000   -0.69072
 24 Co    0.46707   -0.15701   -0.13427
 25 Co    0.17694    0.06159   -0.19686
 26 Cr   -0.68520    0.13067    0.00371
 27 Ni    0.75179    0.44370   -0.25025
 28 Al   -1.14039    0.09682   -0.03906
 29 Al   -0.63612    0.34379   -0.94591
 30 Ni   -0.21227    0.13287    0.42046
 31 Cr    0.67557    0.94626   -0.54261
 32 Co    0.41150   -0.10616    0.16838
 33 Cr    0.32207   -0.09928   -0.55113
 34 Cr   -0.54237    0.45895   -0.31778
 35 Co   -0.22123    0.04608    0.28259
 36 Cr    0.08350   -0.72430   -0.80936
 37 Al   -0.36801    0.11359   -0.09502
 38 Ni    0.34257   -0.03733    0.15890
 39 Fe    0.64914    0.54551   -0.18178
 40 Al   -0.57988    0.86708   -0.44356
 41 Cr   -0.56971    1.36690    0.05806
 42 Al    0.25813   -0.23218    0.93781
 43 Fe   -0.69210    0.75849    0.14624
 44 Al    1.02371   -0.15842    0.17128
 45 Co    0.11512    0.52545    0.46998
 46 Co   -0.10135   -0.44595   -0.08456
 47 Ni   -0.21652   -0.13269    0.13513
 48 Ni    0.54012    0.40539    0.00408
 49 Ni    0.30173    0.14466   -0.38049
 50 Co    0.69000    0.39765   -0.25195
 51 Fe    1.23109   -0.23342    0.44692
 52 Co   -0.19986    0.02317    0.32597
 53 Cr   -0.08485   -0.93591   -0.14012
 54 Cr    0.11668    0.46900    0.10275
 55 Cr   -0.07175   -0.76495    0.18981
 56 Cr   -0.86535    0.73244    1.48450
 57 Co    0.24267    0.06926   -0.03307
 58 Co   -0.68670    0.26031    0.18517
 59 Co   -0.47483    0.41658    0.69125
[...]
 93 Ni    0.32556   -0.17594   -0.19606
 94 Cr    0.38510    0.23199    0.52282
 95 Al   -1.27177   -0.11465   -0.98388
 96 Cr    0.19580    0.18361    0.83572
 97 Cr    0.42592   -0.04207    0.51782
 98 Co    0.11523    0.17865   -0.17592
 99 Co    0.18021   -0.25816    0.36110
100 Fe   -0.52669    0.27376   -0.07843
101 Cr   -0.39824    1.07986    0.24276
102 Al    1.18152    0.16744   -1.32557
103 Co   -0.17617   -0.31377    0.41851
104 Fe   -0.02501    0.01877   -0.61481
105 Ni    0.00218    0.09137    0.04603
106 Cr   -0.73870    0.61664    0.36696
107 Co   -0.36635   -0.22645   -0.18781

Date: Sat Apr 15 03:10:14 2023