User:   c.zeng@d0093
Date:   Mon Apr 17 04:02:23 2023
Arch:   x86_64
Pid:    28466
CWD:    /home/c.zeng/projects/hea-corrosion/hea-mlp/data-curation/bulk-mcmc/dft-jobs/193
Python: 3.8.1
gpaw:   /home/c.zeng/usr/installs/gpaw/source/gpaw-22.8.0/gpaw
_gpaw:  /home/c.zeng/usr/installs/gpaw/source/gpaw-22.8.0/
        _gpaw.cpython-38-x86_64-linux-gnu.so
ase:    /home/c.zeng/.local/lib/python3.8/site-packages/ase-3.22.1-py3.8.egg/ase (version 3.22.1)
numpy:  /home/c.zeng/.local/lib/python3.8/site-packages/numpy (version 1.24.2)
scipy:  /home/c.zeng/.local/lib/python3.8/site-packages/scipy (version 1.10.1)
units:  Angstrom and eV
cores: 30
OpenMP: False
OMP_NUM_THREADS: 1

Input parameters:
  convergence: {energy: 0.0001}
  kpts: [2 2 2]
  maxiter: 666
  mode: {ecut: 350.0,
         name: pw}
  occupations: {fixmagmom: False,
                name: fermi-dirac,
                width: 0.1}
  spinpol: True
  xc: PBE

System changes: positions, numbers, cell, pbc, initial_charges, initial_magmoms

Initialize ...

species:
  Co:
    name: Cobalt
    id: 339d20d5b0b93d2de9531a1bee871d91
    Z: 27.0
    valence: 9
    core: 18
    charge: 0.0
    file: /home/c.zeng/usr/data/gpaw-setups-0.9.20000/Co.PBE.gz
    compensation charges: {type: gauss,
                           rc: 0.32,
                           lmax: 2}
    cutoffs: {filter: 1.87,
              core: 2.55}
    valence states:
      #              energy  rcut
      - 4s(2.00)    -5.469   1.005
      - 4p(0.00)    -1.277   1.058
      - 3d(7.00)    -8.205   1.005
      -  s          21.742   1.005
      -  p          25.934   1.058
      -  d          19.007   1.005

    # Using partial waves for Co as LCAO basis

  Fe:
    name: Iron
    id: 37abbd8d6c3c35915a9b583b742da910
    Z: 26.0
    valence: 8
    core: 18
    charge: 0.0
    file: /home/c.zeng/usr/data/gpaw-setups-0.9.20000/Fe.PBE.gz
    compensation charges: {type: gauss,
                           rc: 0.33,
                           lmax: 2}
    cutoffs: {filter: 2.06,
              core: 2.67}
    valence states:
      #              energy  rcut
      - 4s(2.00)    -5.291   1.164
      - 4p(0.00)    -1.326   1.058
      - 3d(6.00)    -7.505   1.058
      -  s          21.920   1.164
      -  p          25.885   1.058
      -  d          19.706   1.058

[...]

  Al:
    name: Aluminium
    id: 0292cae29f5d6237e50f6abdd43a7bdd
    Z: 13.0
    valence: 3
    core: 10
    charge: 0.0
    file: /home/c.zeng/usr/data/gpaw-setups-0.9.20000/Al.PBE.gz
    compensation charges: {type: gauss,
                           rc: 0.34,
                           lmax: 2}
    cutoffs: {filter: 1.91,
              core: 2.36}
    valence states:
      #              energy  rcut
      - 3s(2.00)    -7.753   1.085
      - 3p(1.00)    -2.712   1.085
      -  s          19.459   1.085
      -  p          24.499   1.085
      -  d           0.000   1.085

[...]

  Cr:
    name: Chromium
    id: 33f258bda2ca9f93018e70263a35547b
    Z: 24.0
    valence: 6
    core: 18
    charge: 0.0
    file: /home/c.zeng/usr/data/gpaw-setups-0.9.20000/Cr.PBE.gz
    compensation charges: {type: gauss,
                           rc: 0.35,
                           lmax: 2}
    cutoffs: {filter: 2.14,
              core: 3.04}
    valence states:
      #              energy  rcut
      - 4s(1.00)    -4.007   1.164
      - 4p(0.00)    -0.989   1.217
      - 3d(5.00)    -2.913   1.111
      -  s          23.205   1.164
      -  p          26.223   1.217
      -  d          24.299   1.111

[...]

  Ni:
    name: Nickel
    id: 0d9f38a9d6e76a2886f07bb4381f212b
    Z: 28.0
    valence: 16
    core: 12
    charge: 0.0
    file: /home/c.zeng/usr/data/gpaw-setups-0.9.20000/Ni.PBE.gz
    compensation charges: {type: gauss,
                           rc: 0.36,
                           lmax: 2}
    cutoffs: {filter: 2.14,
              core: 1.98}
    valence states:
      #              energy  rcut
      - 4s(2.00)    -5.642   1.164
      - 3p(6.00)   -71.394   1.207
      - 4p(0.00)    -1.226   1.207
      - 3d(8.00)    -8.875   1.138
      -  s          21.570   1.164
      -  d          18.337   1.138

    # Using partial waves for Ni as LCAO basis

Reference energy: -3382523.201499  # eV

Spin-polarized calculation.
Magnetic moment: 128.800000

Convergence criteria:
 Maximum [total energy] change in last 3 cyles: 0.0001 eV / electron
 Maximum integral of absolute [dens]ity change: 0.0001 electrons / valence electron
 Maximum integral of absolute [eigenst]ate change: 4e-08 eV^2 / valence electron
 Maximum number of scf [iter]ations: 666
 (Square brackets indicate name in SCF output, whereas a 'c' in
 the SCF output indicates the quantity has converged.)

Symmetries present (total): 1

  ( 1  0  0)
  ( 0  1  0)
  ( 0  0  1)

8 k-points: 2 x 2 x 2 Monkhorst-Pack grid
4 k-points in the irreducible part of the Brillouin zone
       k-points in crystal coordinates                weights
   0:     0.25000000   -0.25000000   -0.25000000          2/8
   1:     0.25000000   -0.25000000    0.25000000          2/8
   2:     0.25000000    0.25000000   -0.25000000          2/8
   3:     0.25000000    0.25000000    0.25000000          2/8

Wave functions: Plane wave expansion
  Cutoff energy: 350.000 eV
  Number of coefficients (min, max): 18865, 18865
  Pulay-stress correction: 0.000000 eV/Ang^3 (de/decut=0.000000)
  Using FFTW library
  ScaLapack parameters: grid=1x1, blocksize=None
  Wavefunction extrapolation:
    Improved wavefunction reuse through dual PAW basis

Occupation numbers: Fermi-Dirac:
  width: 0.1000  # eV

Eigensolver
   Davidson(niter=2)

Densities:
  Coarse grid: 48*48*48 grid
  Fine grid: 96*96*96 grid
  Total Charge: 0.000000

Density mixing:
  Method: difference
  Backend: pulay
  Linear mixing parameter: 0.05
  old densities: 5
  Damping of long wavelength oscillations: 50

Hamiltonian:
  XC and Coulomb potentials evaluated on a 96*96*96 grid
  Using the PBE Exchange-Correlation functional
  External potential:
    NoExternalPotential

XC parameters: PBE with 2 nearest neighbor stencil

Total number of cores used: 30
Parallelization over k-points: 2
Domain decomposition: 5 x 3 x 1

Number of atoms: 108
Number of atomic orbitals: 961
Number of bands in calculation: 649
Number of valence electrons: 945
Bands to converge: occupied

... initialized

Initializing position-dependent things.

Density initialized from atomic densities
Creating initial wave functions:
  649 bands from LCAO basis set

       /|                     Co   |
      / |            Co Co     CrFe|
     /  |       Cr       Ni       Cr
    /   |Fe       Fel     CFer     |
   /i   | Coe        Fe      Co    |
  /  CrAl   NCr       Ni           |
 *      Ni     CoCo   AlFeCrCo   Cr|
 |      |FeNi   CrNiAl   NiAlNi   Co
 | CrCo | AlNi   AlAlFe     Ni     |
 |     Fe  FeCr Cr  Fe FeNi  CrNi  |
 |      CoNi   AlCr   CoFeFeNi  Fe |
 |Al    |FeCr   AlCrFe   CrCo     Co
 |      .-CrCo-----NiCr-FeCoCrNi---.
 |     /   Ni Co    Cr CoNi    Al /
 |    Co       ACoi       Al     /
 |   /  Co         Al       Cr  /
 |  /      Fe       Al       Fe/
 | / Co     Fe       Ni Ni    /
 |/             Cr       Ni  /
 *--------Fe----------------*

Positions:
   0 Co    10.764147   10.861293   10.805330    ( 0.0000,  0.0000,  2.0000)
   1 Fe    10.786221    1.792513    1.813624    ( 0.0000,  0.0000,  0.0000)
   2 Co     1.744156    0.036560    1.851269    ( 0.0000,  0.0000,  1.5000)
   3 Al     1.736571    1.831142   10.798805    ( 0.0000,  0.0000,  0.0000)
   4 Fe     3.575126    0.057318    0.061759    ( 0.0000,  0.0000,  0.0000)
   5 Fe     3.594289    1.817617    1.845577    ( 0.0000,  0.0000,  2.0000)
   6 Co     5.429813   10.817005    1.865054    ( 0.0000,  0.0000,  1.5000)
   7 Cr     5.429608    1.929425    0.057134    ( 0.0000,  0.0000,  0.0000)
   8 Co     7.316909   10.723332    0.087382    ( 0.0000,  0.0000,  0.0000)
   9 Al     7.263142    1.825786    1.869404    ( 0.0000,  0.0000,  2.1000)
  10 Ni     9.063554    0.025226    1.863474    ( 0.0000,  0.0000,  1.5000)
  11 Ni     9.049217    1.829703    0.033106    ( 0.0000,  0.0000,  2.1000)
  12 Ni     0.004792    3.558981   10.794801    ( 0.0000,  0.0000,  1.5000)
  13 Al    10.759710    5.390697    1.778165    ( 0.0000,  0.0000,  0.0000)
  14 Co     1.733585    3.561849    1.761112    ( 0.0000,  0.0000,  2.0000)
  15 Fe     1.776899    5.391834   10.795505    ( 0.0000,  0.0000,  0.0000)
  16 Fe     3.565452    3.619360   10.832619    ( 0.0000,  0.0000,  2.1000)
  17 Co     3.633221    5.394614    1.719551    ( 0.0000,  0.0000,  0.0000)
  18 Ni     5.471624    3.659114    1.836033    ( 0.0000,  0.0000,  2.1000)
  19 Fe     5.440212    5.373060   -0.002773    ( 0.0000,  0.0000,  2.0000)
  20 Ni     7.258997    3.609080    0.031294    ( 0.0000,  0.0000,  0.0000)
  21 Co     7.268941    5.378362    1.785274    ( 0.0000,  0.0000,  2.0000)
  22 Al     9.030724    3.577636    1.833728    ( 0.0000,  0.0000,  2.1000)
  23 Fe     9.040420    5.372281   10.801110    ( 0.0000,  0.0000,  0.0000)
  24 Fe    10.791663    7.196206   10.792486    ( 0.0000,  0.0000,  1.5000)
  25 Co    10.758434    9.040387    1.848239    ( 0.0000,  0.0000,  0.0000)
  26 Cr     1.690487    7.202493    1.786032    ( 0.0000,  0.0000,  0.0000)
  27 Ni     1.652691    8.981047    0.027217    ( 0.0000,  0.0000,  0.0000)
  28 Al     3.631241    7.164437    0.034633    ( 0.0000,  0.0000,  0.0000)
  29 Al     3.625452    9.063759    1.801678    ( 0.0000,  0.0000,  0.0000)
  30 Ni     5.490852    7.187095    1.746342    ( 0.0000,  0.0000,  2.0000)
  31 Cr     5.426935    8.989152    0.009861    ( 0.0000,  0.0000,  2.0000)
  32 Co     7.229122    7.237075   -0.008698    ( 0.0000,  0.0000,  1.5000)
  33 Cr     7.249194    8.995850    1.810713    ( 0.0000,  0.0000,  0.0000)
  34 Cr     9.052073    7.204300    1.764218    ( 0.0000,  0.0000,  2.1000)
  35 Co     9.092553    8.989639   10.808760    ( 0.0000,  0.0000,  1.5000)
  36 Cr    -0.000975   10.826235    3.639789    ( 0.0000,  0.0000,  1.5000)
  37 Al    10.822772    1.771770    5.422044    ( 0.0000,  0.0000,  2.1000)
  38 Ni     1.754263   10.802084    5.428872    ( 0.0000,  0.0000,  2.1000)
  39 Co     1.741873    1.774270    3.610801    ( 0.0000,  0.0000,  0.0000)
  40 Al     3.591183   10.794152    3.612143    ( 0.0000,  0.0000,  2.0000)
  41 Cr     3.593088    1.736744    5.455177    ( 0.0000,  0.0000,  0.0000)
  42 Al     5.437150   10.794563    5.400804    ( 0.0000,  0.0000,  2.0000)
  43 Co     5.451931    1.783251    3.601387    ( 0.0000,  0.0000,  1.5000)
  44 Al     7.226222    0.007781    3.626209    ( 0.0000,  0.0000,  0.0000)
  45 Fe     7.236069    1.766512    5.381392    ( 0.0000,  0.0000,  2.1000)
  46 Fe     9.034587   10.848850    5.403844    ( 0.0000,  0.0000,  2.1000)
  47 Ni     9.031558    1.804946    3.616730    ( 0.0000,  0.0000,  1.5000)
  48 Ni    10.773885    3.543973    3.617867    ( 0.0000,  0.0000,  1.5000)
  49 Ni    10.772186    5.358409    5.454917    ( 0.0000,  0.0000,  0.0000)
  50 Co     1.757531    3.575678    5.428937    ( 0.0000,  0.0000,  2.1000)
  51 Fe     1.621766    5.386986    3.572550    ( 0.0000,  0.0000,  0.0000)
[...]
iter: 154 08:32:54  -825.879543c -5.19  -4.29c   +51.7520
iter: 155 08:34:26  -825.877038c -5.24  -3.87    +51.7810
iter: 156 08:35:59  -825.876390c -5.67  -4.48c   +51.7843
iter: 157 08:37:31  -825.878046c -5.59  -4.51c   +51.7756
iter: 158 08:39:04  -825.876093c -5.37  -4.27c   +51.7825
iter: 159 08:40:36  -825.875864c -6.21  -4.31c   +51.7754
iter: 160 08:42:08  -825.876311c -6.87  -4.28c   +51.7697
iter: 161 08:43:40  -825.875564c -6.28  -4.39c   +51.7833
iter: 162 08:45:13  -825.874195c -5.48  -4.21c   +51.8162
iter: 163 08:46:45  -825.871782c -4.73  -3.98    +51.9077
iter: 164 08:48:17  -825.872879c -5.78  -3.67    +51.8756
iter: 165 08:49:49  -825.873456c -5.89  -3.81    +51.8669
iter: 166 08:51:21  -825.873538c -6.63  -3.91    +51.8697
iter: 167 08:52:53  -825.873898c -6.60  -3.92    +51.8719
iter: 168 08:54:25  -825.873988c -6.59  -3.94    +51.8747
iter: 169 08:55:57  -825.875009c -6.22  -3.96    +51.8766
iter: 170 08:57:29  -825.875233c -5.76  -3.83    +51.8737
iter: 171 08:59:02  -825.874881c -5.92  -3.74    +51.8755
iter: 172 09:00:34  -825.875205c -6.20  -3.90    +51.8748
iter: 173 09:02:06  -825.875513c -6.10  -4.23c   +51.8655
iter: 174 09:03:38  -825.875596c -6.37  -4.09c   +51.8632
iter: 175 09:05:10  -825.876121c -6.32  -4.22c   +51.8514
iter: 176 09:06:42  -825.876308c -6.41  -4.33c   +51.8471
iter: 177 09:08:14  -825.876603c -6.53  -4.19c   +51.8492
iter: 178 09:09:46  -825.876782c -6.84  -4.49c   +51.8484
iter: 179 09:11:18  -825.877059c -6.88  -4.52c   +51.8409
iter: 180 09:12:50  -825.877480c -6.61  -4.52c   +51.8363
iter: 181 09:14:22  -825.871106c -4.29  -4.44c   +51.9234
iter: 182 09:15:55  -825.869950c -4.77  -3.81    +51.9517
iter: 183 09:17:27  -825.870135c -5.71  -3.67    +51.9522
iter: 184 09:18:59  -825.870276c -6.18  -3.68    +51.9555
iter: 185 09:20:31  -825.870571c -5.88  -3.69    +51.9717
iter: 186 09:22:03  -825.870694c -6.58  -3.74    +51.9752
iter: 187 09:23:35  -825.872453c -5.27  -3.75    +51.9690
iter: 188 09:25:08  -825.871141c -5.46  -3.56    +51.9807
iter: 189 09:26:40  -825.870734c -6.11  -3.61    +51.9736
iter: 190 09:28:12  -825.871138c -5.79  -3.88    +51.9722
iter: 191 09:29:44  -825.871129c -5.91  -3.82    +51.9671
iter: 192 09:31:16  -825.871234c -6.18  -3.86    +51.9578
iter: 193 09:32:48  -825.871698c -6.16  -4.07c   +51.9597
iter: 194 09:34:20  -825.872261c -6.20  -4.01c   +51.9661
iter: 195 09:35:52  -825.871884c -6.39  -4.14c   +51.9628
iter: 196 09:37:25  -825.872498c -6.37  -4.11c   +51.9561
iter: 197 09:38:57  -825.872809c -6.43  -4.23c   +51.9609
iter: 198 09:40:29  -825.873125c -6.54  -4.49c   +51.9593
iter: 199 09:42:01  -825.873528c -6.48  -4.40c   +51.9543
iter: 200 09:43:33  -825.873542c -7.32  -4.60c   +51.9541
iter: 201 09:45:05  -825.874381c -6.17  -4.62c   +51.9511
iter: 202 09:46:37  -825.871974c -5.40  -4.42c   +51.9588
iter: 203 09:48:09  -825.870879c -5.70  -4.54c   +51.9551
iter: 204 09:49:41  -825.870011c -5.84  -4.32c   +51.9483
iter: 205 09:51:13  -825.868850c -5.69  -4.14c   +51.9335
iter: 206 09:52:45  -825.866638c -5.15  -4.00    +51.9031
iter: 207 09:54:17  -825.864091c -4.81  -3.79    +51.8648
iter: 208 09:55:50  -825.861374c -4.43  -3.60    +51.8217
iter: 209 09:57:22  -825.861491c -5.34  -3.40    +51.8287
iter: 210 09:58:54  -825.861974c -5.94  -3.39    +51.8337
iter: 211 10:00:26  -825.862204c -6.12  -3.38    +51.8356
iter: 212 10:01:58  -825.861924c -6.44  -3.38    +51.8427
iter: 213 10:03:30  -825.861555c -4.57  -3.38    +51.8484
iter: 214 10:05:02  -825.862994c -4.84  -3.28    +51.8465
iter: 215 10:06:35  -825.857545c -5.37  -3.31    +51.8846
iter: 216 10:08:07  -825.859395c -5.49  -3.63    +51.9044
iter: 217 10:09:39  -825.859310c -5.48  -3.59    +51.9239
iter: 218 10:11:11  -825.859809c -5.99  -3.71    +51.9336
iter: 219 10:12:43  -825.860599c -5.80  -3.82    +51.9342
iter: 220 10:14:15  -825.860323c -5.83  -3.76    +51.9548
iter: 221 10:15:48  -825.861220c -6.02  -3.88    +51.9577
iter: 222 10:17:20  -825.861644c -6.09  -3.93    +51.9626
iter: 223 10:18:52  -825.862024c -6.26  -4.04c   +51.9642
iter: 224 10:20:24  -825.863037c -6.12  -4.22c   +51.9731
iter: 225 10:21:56  -825.863759c -6.28  -4.21c   +51.9763
iter: 226 10:23:28  -825.865204c -5.91  -4.16c   +51.9847
iter: 227 10:25:01  -825.861145c -5.19  -3.99    +51.9479
iter: 228 10:26:33  -825.851814c -4.25  -4.21c   +51.8639
iter: 229 10:28:05  -825.863506c -4.30  -3.68    +51.9725
iter: 230 10:29:37  -825.858583c -5.33  -4.15c   +51.9315
iter: 231 10:31:10  -825.858773c -6.57  -4.18c   +51.9322
iter: 232 10:32:44  -825.859642c -6.39  -4.17c   +51.9503
iter: 233 10:34:17  -825.859774c -6.73  -4.36c   +51.9520
iter: 234 10:35:49  -825.860386c -6.62  -4.33c   +51.9617
iter: 235 10:37:22  -825.860958c -6.42  -4.30c   +51.9652
iter: 236 10:38:54  -825.861668c -6.34  -4.57c   +51.9718
iter: 237 10:40:27  -825.860871c -6.74  -4.49c   +51.9631
iter: 238 10:41:59  -825.854529c -4.65  -4.62c   +51.8907
iter: 239 10:43:31  -825.856752c -5.93  -3.85    +51.9200
iter: 240 10:45:04  -825.861608c -4.89  -4.05c   +51.9770
iter: 241 10:46:36  -825.858242c -5.53  -4.48c   +51.9383
iter: 242 10:48:09  -825.857094c -5.81  -4.24c   +51.9261
iter: 243 10:49:41  -825.858969c -5.85  -4.08c   +51.9468
iter: 244 10:51:14  -825.857740c -6.25  -4.39c   +51.9362
iter: 245 10:52:46  -825.852764c -4.72  -4.16c   +51.8906
iter: 246 10:54:19  -825.856706c -5.18  -3.72    +51.9302
iter: 247 10:55:51  -825.860483c -4.95  -4.04c   +51.9652
iter: 248 10:57:24  -825.856111c -5.13  -4.71c   +51.9258
iter: 249 10:58:56  -825.852273c -4.78  -3.97    +51.8841
iter: 250 11:00:29  -825.856411c -5.07  -3.69    +51.9296
iter: 251 11:02:01  -825.858798c -5.21  -4.01c   +51.9551
iter: 252 11:03:34  -825.856631c -5.77  -4.37c   +51.9341
iter: 253 11:05:06  -825.847498c -4.07  -4.03c   +51.8355
iter: 254 11:06:38  -825.860187c -4.01  -3.45    +51.9677
iter: 255 11:08:11  -825.860097c -5.30  -4.76c   +51.9680
iter: 256 11:09:43  -825.860822c -5.82  -4.81c   +51.9733
iter: 257 11:11:15  -825.855708c -4.83  -4.86c   +51.9291
iter: 258 11:12:48  -825.853088c -5.02  -3.94    +51.9092
iter: 259 11:14:20  -825.860110c -4.59  -3.74    +51.9641
iter: 260 11:15:53  -825.854695c -4.97  -4.81c   +51.9259
iter: 261 11:17:25  -825.856658c -5.95  -3.85    +51.9443
iter: 262 11:18:57  -825.854401c -5.54  -4.03c   +51.9265
iter: 263 11:20:30  -825.857682c -5.25  -3.83    +51.9552
iter: 264 11:22:02  -825.855028c -5.54  -4.17c   +51.9351
iter: 265 11:23:35  -825.853076c -5.34  -3.88    +51.9223
iter: 266 11:25:07  -825.856468c -5.20  -3.73    +51.9486
iter: 267 11:26:39  -825.855411c -6.58  -4.01c   +51.9426
iter: 268 11:28:12  -825.852757c -5.15  -3.91    +51.9284
iter: 269 11:29:44  -825.853035c -6.36  -3.71    +51.9321
iter: 270 11:31:17  -825.853732c -6.23  -3.73    +51.9374
iter: 271 11:32:49  -825.855262c -5.60  -3.77    +51.9489
iter: 272 11:34:22  -825.858616c -4.93  -3.89    +51.9778
iter: 273 11:35:54  -825.852994c -4.55  -4.12c   +51.9286
iter: 274 11:37:27  -825.859234c -4.62  -3.60    +51.9766
iter: 275 11:38:59  -825.856147c -5.51  -3.96    +51.9699
iter: 276 11:40:32  -825.856348c -6.58  -3.98    +51.9761
iter: 277 11:42:04  -825.856656c -6.14  -3.97    +51.9816
iter: 278 11:43:37  -825.856174c -6.25  -3.84    +51.9788
iter: 279 11:45:09  -825.857061c -6.26  -4.03c   +51.9867
iter: 280 11:46:42  -825.856966c -6.04  -4.01c   +51.9891
iter: 281 11:48:15  -825.857750c -6.08  -3.94    +51.9782
iter: 282 11:49:47  -825.858323c -6.04  -4.09c   +51.9941
iter: 283 11:51:20  -825.858831c -6.31  -4.15c   +51.9961
iter: 284 11:52:52  -825.859907c -6.01  -4.44c   +52.0055
iter: 285 11:54:25  -825.861795c -5.61  -4.36c   +52.0237
iter: 286 11:55:58  -825.859390c -5.69  -4.18c   +52.0040
iter: 287 11:57:30  -825.845999c -3.86  -4.44c   +51.8713
iter: 288 11:59:03  -825.858458c -4.13  -3.48    +51.9949
iter: 289 12:00:36  -825.859480c -5.20  -4.53c   +52.0055
iter: 290 12:02:08  -825.860605c -5.64  -4.61c   +52.0133
iter: 291 12:03:41  -825.854601c -4.69  -4.41c   +51.9697
iter: 292 12:05:13  -825.847827c -4.23  -3.97    +51.9126
iter: 293 12:06:46  -825.856803c -4.30  -3.54    +51.9887
iter: 294 12:08:19  -825.855029c -6.18  -4.28c   +51.9759
iter: 295 12:09:52  -825.851324c -4.89  -4.02c   +51.9444
iter: 296 12:11:24  -825.853393c -5.67  -3.71    +51.9625
iter: 297 12:12:57  -825.857996c -4.74  -3.86    +51.9986
iter: 298 12:14:30  -825.852036c -4.70  -4.42c   +51.9511
iter: 299 12:16:03  -825.850266c -5.02  -3.75    +51.9329
iter: 300 12:17:35  -825.853166c -5.16  -3.63    +51.9613
iter: 301 12:19:08  -825.853271c -6.44  -3.84    +51.9630
iter: 302 12:20:40  -825.853725c -6.24  -3.83    +51.9617
iter: 303 12:22:13  -825.855124c -5.42  -3.87    +51.9618
iter: 304 12:23:45  -825.855419c -6.45  -3.99    +51.9627
iter: 305 12:25:18  -825.857407c -5.54  -3.92    +51.9619
iter: 306 12:26:51  -825.855440c -5.88  -3.67    +51.9598
iter: 307 12:28:23  -825.856334c -6.17  -3.93    +51.9868
iter: 308 12:29:56  -825.856695c -6.15  -4.16c   +51.9944
iter: 309 12:31:29  -825.856574c -6.73  -4.06c   +51.9980
iter: 310 12:33:02  -825.857209c -6.24  -4.32c   +52.0127
iter: 311 12:34:34  -825.857032c -6.24  -4.38c   +51.9941
iter: 312 12:36:07  -825.857215c -6.09  -4.20c   +51.9807
iter: 313 12:37:40  -825.857469c -6.52  -4.18c   +51.9983
iter: 314 12:39:12  -825.858201c -6.39  -4.40c   +52.0016
iter: 315 12:40:45  -825.858050c -7.41c -4.38c   +52.0031

Converged after 315 iterations.

Dipole moment: (28.801476, -2.956367, -10.417832) |e|*Ang

Total magnetic moment: (0.000000, 0.000000, 52.003147)
Local magnetic moments:
   0 Co ( 0.000000,  0.000000,  1.219490)
   1 Fe ( 0.000000,  0.000000,  2.432230)
   2 Co ( 0.000000,  0.000000,  1.305767)
   3 Al ( 0.000000,  0.000000, -0.045854)
   4 Fe ( 0.000000,  0.000000,  2.454766)
   5 Fe ( 0.000000,  0.000000,  2.458262)
   6 Co ( 0.000000,  0.000000,  0.815606)
   7 Cr ( 0.000000,  0.000000, -2.406041)
   8 Co ( 0.000000,  0.000000,  0.764818)
   9 Al ( 0.000000,  0.000000, -0.001936)
  10 Ni ( 0.000000,  0.000000,  0.152552)
  11 Ni ( 0.000000,  0.000000,  0.149640)
  12 Ni ( 0.000000,  0.000000,  0.229236)
  13 Al ( 0.000000,  0.000000, -0.035266)
  14 Co ( 0.000000,  0.000000,  1.241113)
  15 Fe ( 0.000000,  0.000000,  2.060838)
  16 Fe ( 0.000000,  0.000000,  2.344951)
  17 Co ( 0.000000,  0.000000,  1.090691)
  18 Ni ( 0.000000,  0.000000,  0.252816)
  19 Fe ( 0.000000,  0.000000,  2.300977)
  20 Ni ( 0.000000,  0.000000,  0.122950)
  21 Co ( 0.000000,  0.000000,  1.223700)
  22 Al ( 0.000000,  0.000000, -0.023063)
  23 Fe ( 0.000000,  0.000000,  2.046421)
  24 Fe ( 0.000000,  0.000000,  1.663798)
  25 Co ( 0.000000,  0.000000,  0.983634)
  26 Cr ( 0.000000,  0.000000, -1.986100)
  27 Ni ( 0.000000,  0.000000,  0.092158)
  28 Al ( 0.000000,  0.000000, -0.010503)
  29 Al ( 0.000000,  0.000000, -0.027626)
  30 Ni ( 0.000000,  0.000000,  0.281881)
  31 Cr ( 0.000000,  0.000000,  1.749705)
  32 Co ( 0.000000,  0.000000,  0.983297)
  33 Cr ( 0.000000,  0.000000, -0.473648)
  34 Cr ( 0.000000,  0.000000, -1.588081)
  35 Co ( 0.000000,  0.000000,  0.991518)
  36 Cr ( 0.000000,  0.000000, -1.254654)
  37 Al ( 0.000000,  0.000000, -0.027538)
  38 Ni ( 0.000000,  0.000000,  0.076560)
  39 Co ( 0.000000,  0.000000,  1.127435)
  40 Al ( 0.000000,  0.000000, -0.021509)
  41 Cr ( 0.000000,  0.000000, -2.001443)
  42 Al ( 0.000000,  0.000000, -0.018672)
  43 Co ( 0.000000,  0.000000,  0.601681)
  44 Al ( 0.000000,  0.000000, -0.023500)
  45 Fe ( 0.000000,  0.000000,  1.666696)
  46 Fe ( 0.000000,  0.000000,  2.001783)
  47 Ni ( 0.000000,  0.000000,  0.133290)
  48 Ni ( 0.000000,  0.000000,  0.365679)
  49 Ni ( 0.000000,  0.000000,  0.309817)
  50 Co ( 0.000000,  0.000000,  1.156040)
  51 Fe ( 0.000000,  0.000000,  2.332419)
  52 Co ( 0.000000,  0.000000,  1.300200)
  53 Cr ( 0.000000,  0.000000,  0.942494)
  54 Cr ( 0.000000,  0.000000, -1.203110)
  55 Cr ( 0.000000,  0.000000,  0.576381)
  56 Cr ( 0.000000,  0.000000, -1.331048)
  57 Fe ( 0.000000,  0.000000,  2.021312)
  58 Fe ( 0.000000,  0.000000,  2.065391)
  59 Co ( 0.000000,  0.000000,  0.993718)
[...]
  93 Ni ( 0.000000,  0.000000,  0.226660)
  94 Cr ( 0.000000,  0.000000,  1.432953)
  95 Al ( 0.000000,  0.000000, -0.004983)
  96 Cr ( 0.000000,  0.000000,  0.993224)
  97 Cr ( 0.000000,  0.000000, -1.278761)
  98 Co ( 0.000000,  0.000000,  0.135967)
  99 Fe ( 0.000000,  0.000000,  2.085272)
 100 Co ( 0.000000,  0.000000,  0.248403)
 101 Cr ( 0.000000,  0.000000, -2.275944)
 102 Al ( 0.000000,  0.000000, -0.022247)
 103 Fe ( 0.000000,  0.000000,  2.222072)
 104 Fe ( 0.000000,  0.000000,  2.433238)
 105 Ni ( 0.000000,  0.000000,  0.273733)
 106 Cr ( 0.000000,  0.000000, -1.391404)
 107 Co ( 0.000000,  0.000000,  0.761622)

Energy contributions relative to reference atoms: (reference = -3382523.201499)

Kinetic:       +209.603507
Potential:     -220.130996
External:        +0.000000
XC:            -846.538959
Entropy (-ST):   -4.167274
Local:          +33.292036
Free energy:   -827.941687
Extrapolated:  -825.858050

Spin contamination: 31.767440 electrons
Showing only first 2 kpts
                      Up                     Down
 Kpt  Band  Eigenvalues  Occupancy  Eigenvalues  Occupancy
  0   470      9.17312    0.99413     10.01036    0.03767
  0   471      9.19028    0.99304     10.01950    0.03450
  0   472      9.21548    0.99106     10.03715    0.02908
  0   473      9.23505    0.98915     10.04617    0.02664

  1   470      9.18275    0.99354     10.01427    0.03628
  1   471      9.19876    0.99243     10.02178    0.03374
  1   472      9.20474    0.99196     10.02940    0.03135
  1   473      9.21806    0.99083     10.04622    0.02662

Fermi level: 9.68632

No gap

Forces in eV/Ang:
  0 Co    0.28703   -0.68823    0.19297
  1 Fe    0.62380   -0.34820    0.24292
  2 Co    0.00345   -0.31169   -0.48078
  3 Al    0.10613   -0.33281   -0.25196
  4 Fe    0.24057   -0.05939   -0.84070
  5 Fe    0.07582    0.48713    0.10243
  6 Co    0.27433   -0.09198   -0.63734
  7 Cr   -1.06034   -0.97122   -0.81950
  8 Co   -0.62257    0.30851   -0.44370
  9 Al   -0.52692   -0.77536   -1.25739
 10 Ni   -0.26354   -0.37953   -0.38158
 11 Ni   -0.23308   -0.31442   -0.45727
 12 Ni   -0.28710    0.53040    0.11781
 13 Al    0.74136   -0.52477   -0.06655
 14 Co    0.63710    0.22290    0.73357
 15 Fe   -0.23387   -0.15037   -0.00521
 16 Fe    0.50362    0.04374    0.22136
 17 Co   -0.33997   -0.55666    0.73683
 18 Ni   -0.36918   -0.18040    0.11197
 19 Fe    0.43464   -0.48104    0.44706
 20 Ni   -0.15536   -0.03482   -0.41762
 21 Co   -0.00057    0.54999    0.16934
 22 Al    0.21587    0.17055   -0.47014
 23 Fe   -0.48867    0.75870   -0.50943
 24 Fe    0.33733    0.13863   -0.16512
 25 Co    0.14759    0.12744   -0.20541
 26 Cr   -0.65841    0.13173    0.10702
 27 Ni    0.75087    0.52401   -0.24014
 28 Al   -1.01816    0.14922    0.31424
 29 Al   -0.43645    0.54911   -0.95833
 30 Ni   -0.14158    0.05315    0.39267
 31 Cr    0.89182    1.30026   -0.48198
 32 Co    0.42589   -0.21290    0.20130
 33 Cr    0.20227    0.13405   -0.63427
 34 Cr   -0.67214    0.43388   -0.19223
 35 Co   -0.29673    0.16897    0.21193
 36 Cr    0.21374   -0.85469   -0.80084
 37 Al    0.18839    0.18394   -0.30095
 38 Ni    0.30798    0.01925    0.06483
 39 Co    0.37309    0.64215   -0.23306
 40 Al   -0.57108    1.12812   -0.49679
 41 Cr   -0.62503    1.46293    0.05877
 42 Al    0.44254    0.25811    0.73705
 43 Co   -0.36346    0.49993    0.23113
 44 Al    0.55445   -0.19790   -0.22708
 45 Fe    0.31188    0.98997    0.42284
 46 Fe   -0.17072   -0.56978    0.20316
 47 Ni   -0.11117   -0.20461    0.01102
 48 Ni    0.65516    0.29638   -0.07930
 49 Ni    0.31009    0.24259   -0.45043
 50 Co    0.68026    0.29541   -0.32954
 51 Fe    1.28171   -0.21411    0.31194
 52 Co   -0.26879    0.00087    0.26365
 53 Cr    0.17843   -1.00429   -0.31553
 54 Cr   -0.07768    0.30624   -0.04141
 55 Cr   -0.14674   -0.63904   -0.11028
 56 Cr   -0.98269    0.76036    1.29453
 57 Fe    0.12994   -0.08360   -0.01194
 58 Fe   -0.62560    0.26268    0.06663
 59 Co   -0.34475    0.49846    0.42082
[...]
 93 Ni    0.30106   -0.13405   -0.28675
 94 Cr    0.04689    0.17868    0.32104
 95 Al   -1.17215    0.10642   -0.79545
 96 Cr   -0.18808    0.33833    0.78937
 97 Cr    0.48666    0.44691    0.46647
 98 Co    0.28223    0.23970   -0.16195
 99 Fe    0.45214    0.04313    0.42621
100 Co   -0.35045    0.38332   -0.11271
101 Cr   -0.46055    1.03280    0.22279
102 Al    1.18229    0.09397   -1.42054
103 Fe   -0.22711   -0.22074    0.64987
104 Fe   -0.03614   -0.05312   -0.51661
105 Ni    0.04287    0.25374    0.12220
106 Cr   -0.98193    0.42011    0.41715
107 Co   -0.31488   -0.13879   -0.02089

Date: Mon Apr 17 12:41:07 2023