User:   c.zeng@d0102
Date:   Sat Apr 15 00:01:45 2023
Arch:   x86_64
Pid:    282576
CWD:    /home/c.zeng/projects/hea-corrosion/hea-mlp/data-curation/bulk-mcmc/dft-jobs/19
Python: 3.8.1
gpaw:   /home/c.zeng/usr/installs/gpaw/source/gpaw-22.8.0/gpaw
_gpaw:  /home/c.zeng/usr/installs/gpaw/source/gpaw-22.8.0/
        _gpaw.cpython-38-x86_64-linux-gnu.so
ase:    /home/c.zeng/.local/lib/python3.8/site-packages/ase-3.22.1-py3.8.egg/ase (version 3.22.1)
numpy:  /shared/centos7/python/3.8.1/lib/python3.8/site-packages/numpy (version 1.17.4)
scipy:  /shared/centos7/python/3.8.1/lib/python3.8/site-packages/scipy (version 1.4.1)
units:  Angstrom and eV
cores: 30
OpenMP: False
OMP_NUM_THREADS: 1

Input parameters:
  convergence: {energy: 0.0001}
  kpts: [2 2 2]
  maxiter: 666
  mode: {ecut: 350.0,
         name: pw}
  occupations: {fixmagmom: False,
                name: fermi-dirac,
                width: 0.1}
  spinpol: True
  xc: PBE

System changes: positions, numbers, cell, pbc, initial_charges, initial_magmoms

Initialize ...

species:
  Co:
    name: Cobalt
    id: 339d20d5b0b93d2de9531a1bee871d91
    Z: 27.0
    valence: 9
    core: 18
    charge: 0.0
    file: /home/c.zeng/usr/data/gpaw-setups-0.9.20000/Co.PBE.gz
    compensation charges: {type: gauss,
                           rc: 0.32,
                           lmax: 2}
    cutoffs: {filter: 1.87,
              core: 2.55}
    valence states:
      #              energy  rcut
      - 4s(2.00)    -5.469   1.005
      - 4p(0.00)    -1.277   1.058
      - 3d(7.00)    -8.205   1.005
      -  s          21.742   1.005
      -  p          25.934   1.058
      -  d          19.007   1.005

    # Using partial waves for Co as LCAO basis

  Fe:
    name: Iron
    id: 37abbd8d6c3c35915a9b583b742da910
    Z: 26.0
    valence: 8
    core: 18
    charge: 0.0
    file: /home/c.zeng/usr/data/gpaw-setups-0.9.20000/Fe.PBE.gz
    compensation charges: {type: gauss,
                           rc: 0.33,
                           lmax: 2}
    cutoffs: {filter: 2.06,
              core: 2.67}
    valence states:
      #              energy  rcut
      - 4s(2.00)    -5.291   1.164
      - 4p(0.00)    -1.326   1.058
      - 3d(6.00)    -7.505   1.058
      -  s          21.920   1.164
      -  p          25.885   1.058
      -  d          19.706   1.058

[...]

  Cr:
    name: Chromium
    id: 33f258bda2ca9f93018e70263a35547b
    Z: 24.0
    valence: 6
    core: 18
    charge: 0.0
    file: /home/c.zeng/usr/data/gpaw-setups-0.9.20000/Cr.PBE.gz
    compensation charges: {type: gauss,
                           rc: 0.35,
                           lmax: 2}
    cutoffs: {filter: 2.14,
              core: 3.04}
    valence states:
      #              energy  rcut
      - 4s(1.00)    -4.007   1.164
      - 4p(0.00)    -0.989   1.217
      - 3d(5.00)    -2.913   1.111
      -  s          23.205   1.164
      -  p          26.223   1.217
      -  d          24.299   1.111

[...]

  Ni:
    name: Nickel
    id: 0d9f38a9d6e76a2886f07bb4381f212b
    Z: 28.0
    valence: 16
    core: 12
    charge: 0.0
    file: /home/c.zeng/usr/data/gpaw-setups-0.9.20000/Ni.PBE.gz
    compensation charges: {type: gauss,
                           rc: 0.36,
                           lmax: 2}
    cutoffs: {filter: 2.14,
              core: 1.98}
    valence states:
      #              energy  rcut
      - 4s(2.00)    -5.642   1.164
      - 3p(6.00)   -71.394   1.207
      - 4p(0.00)    -1.226   1.207
      - 3d(8.00)    -8.875   1.138
      -  s          21.570   1.164
      -  d          18.337   1.138

    # Using partial waves for Ni as LCAO basis

Reference energy: -3846758.590871  # eV

Spin-polarized calculation.
Magnetic moment: 151.200000

Convergence criteria:
 Maximum [total energy] change in last 3 cyles: 0.0001 eV / electron
 Maximum integral of absolute [dens]ity change: 0.0001 electrons / valence electron
 Maximum integral of absolute [eigenst]ate change: 4e-08 eV^2 / valence electron
 Maximum number of scf [iter]ations: 666
 (Square brackets indicate name in SCF output, whereas a 'c' in
 the SCF output indicates the quantity has converged.)

Symmetries present (total): 1

  ( 1  0  0)
  ( 0  1  0)
  ( 0  0  1)

8 k-points: 2 x 2 x 2 Monkhorst-Pack grid
4 k-points in the irreducible part of the Brillouin zone
       k-points in crystal coordinates                weights
   0:     0.25000000   -0.25000000   -0.25000000          2/8
   1:     0.25000000   -0.25000000    0.25000000          2/8
   2:     0.25000000    0.25000000   -0.25000000          2/8
   3:     0.25000000    0.25000000    0.25000000          2/8

Wave functions: Plane wave expansion
  Cutoff energy: 350.000 eV
  Number of coefficients (min, max): 17755, 17755
  Pulay-stress correction: 0.000000 eV/Ang^3 (de/decut=0.000000)
  Using FFTW library
  ScaLapack parameters: grid=1x1, blocksize=None
  Wavefunction extrapolation:
    Improved wavefunction reuse through dual PAW basis

Occupation numbers: Fermi-Dirac:
  width: 0.1000  # eV

Eigensolver
   Davidson(niter=2)

Densities:
  Coarse grid: 48*48*48 grid
  Fine grid: 96*96*96 grid
  Total Charge: 0.000000

Density mixing:
  Method: difference
  Backend: pulay
  Linear mixing parameter: 0.05
  old densities: 5
  Damping of long wavelength oscillations: 50

Hamiltonian:
  XC and Coulomb potentials evaluated on a 96*96*96 grid
  Using the PBE Exchange-Correlation functional
  External potential:
    NoExternalPotential

XC parameters: PBE with 2 nearest neighbor stencil

Total number of cores used: 30
Parallelization over k-points: 2
Domain decomposition: 5 x 3 x 1

Number of atoms: 108
Number of atomic orbitals: 1053
Number of bands in calculation: 727
Number of valence electrons: 1053
Bands to converge: occupied

... initialized

Initializing position-dependent things.

Density initialized from atomic densities
Creating initial wave functions:
  727 bands from LCAO basis set

       /|  Ni       Cr      Cr    |
      / |   CrFe     Cr           |
     /  |       Co      Fe       Fe
    /   |Ni      CFe       Co     Cr
   /    | Co       Ni       CFe   |
  /  CCo|  FeCr     CoNi          |
 *    NiNi    FeNi   FeNiCo       |
 |      |CoNi   FeFeCr  CoNiFe   Ni
 |      | CrCo     CoCrFeCrNiCr   |
 |    Co|  CoFeCr   CoCrFe   CrCo |
 |      Cr    NiNiNi CrNiNi     Cr|
 |      |FeFe  CoFeNi   FeNiFe   Cr
 |      .-FeCo-----CrNiFe--NiCr---Co
 |   Nio     Fe       Ni         /
 |    NiCo     Coi     CCre     /
 |   /    Co               Cr  /
 |  /      Fe       Fe    CrFe/
 | / Fe     Cr       NiCr    /
 |/            Co       Ni  /
 *--------Co------Co-------*

Positions:
   0 Co    -0.012479   -0.003723   10.616104    ( 0.0000,  0.0000,  2.1000)
   1 Fe    -0.011321    1.761305    1.763386    ( 0.0000,  0.0000,  2.1000)
   2 Fe     1.758365    0.001326    1.769011    ( 0.0000,  0.0000,  2.0000)
   3 Co     1.752686    1.779222   10.610436    ( 0.0000,  0.0000,  2.0000)
   4 Co     3.541196    0.004726   10.616104    ( 0.0000,  0.0000,  0.0000)
   5 Fe     3.534711    1.782438    1.778999    ( 0.0000,  0.0000,  0.0000)
   6 Cr     5.305717   10.600629    1.767950    ( 0.0000,  0.0000,  2.1000)
   7 Co     5.324780    1.765604   10.614618    ( 0.0000,  0.0000,  0.0000)
   8 Co     7.089121    0.014598   10.619926    ( 0.0000,  0.0000,  2.0000)
   9 Fe     7.085279    1.771219    1.773543    ( 0.0000,  0.0000,  1.5000)
  10 Cr     8.850554    0.011470    1.768756    ( 0.0000,  0.0000,  1.5000)
  11 Ni     8.842381    1.777333   10.615680    ( 0.0000,  0.0000,  2.1000)
  12 Fe    10.590535    3.538203   -0.001956    ( 0.0000,  0.0000,  0.0000)
  13 Cr    10.624277    5.310674    1.769786    ( 0.0000,  0.0000,  2.0000)
  14 Co     1.761379    3.535623    1.784572    ( 0.0000,  0.0000,  0.0000)
  15 Ni     1.770200    5.301408   10.611753    ( 0.0000,  0.0000,  2.0000)
  16 Cr     3.556003    3.551407   10.618333    ( 0.0000,  0.0000,  1.5000)
  17 Fe     3.539370    5.311290    1.775199    ( 0.0000,  0.0000,  2.1000)
  18 Ni     5.320142    3.545059    1.779678    ( 0.0000,  0.0000,  1.5000)
  19 Fe     5.306980    5.314654   10.602720    ( 0.0000,  0.0000,  0.0000)
  20 Ni     7.081585    3.529127   10.614725    ( 0.0000,  0.0000,  2.1000)
  21 Ni     7.069241    5.303361    1.781271    ( 0.0000,  0.0000,  1.5000)
  22 Fe     8.841447    3.542671    1.781600    ( 0.0000,  0.0000,  2.1000)
  23 Cr     8.850893    5.290379    0.000220    ( 0.0000,  0.0000,  0.0000)
  24 Ni     0.005868    7.083411   10.614937    ( 0.0000,  0.0000,  2.0000)
  25 Cr    10.601043    8.849694    1.772960    ( 0.0000,  0.0000,  2.1000)
  26 Fe     1.773713    7.072329    1.777184    ( 0.0000,  0.0000,  0.0000)
  27 Ni     1.755520    8.842943   10.608324    ( 0.0000,  0.0000,  0.0000)
  28 Fe     3.544009    7.063116   10.610489    ( 0.0000,  0.0000,  2.0000)
  29 Co     3.542225    8.826820    1.785580    ( 0.0000,  0.0000,  0.0000)
  30 Cr     5.309835    7.081776    1.776600    ( 0.0000,  0.0000,  2.1000)
  31 Cr     5.331945    8.840321   10.604673    ( 0.0000,  0.0000,  2.1000)
  32 Co     7.068434    7.069028   10.623110    ( 0.0000,  0.0000,  0.0000)
  33 Fe     7.083750    8.846796    1.774509    ( 0.0000,  0.0000,  1.5000)
  34 Ni     8.841404    7.058180    1.777173    ( 0.0000,  0.0000,  1.5000)
  35 Cr     8.835524    8.853600   10.611753    ( 0.0000,  0.0000,  0.0000)
  36 Cr    -0.009351   10.618864    3.531070    ( 0.0000,  0.0000,  2.0000)
  37 Fe    10.602508    1.764818    5.300452    ( 0.0000,  0.0000,  1.5000)
  38 Ni     1.756720    0.001379    5.295867    ( 0.0000,  0.0000,  0.0000)
  39 Co     1.766506    1.767154    3.539222    ( 0.0000,  0.0000,  2.0000)
  40 Co     3.539742    0.013881    3.542873    ( 0.0000,  0.0000,  2.0000)
  41 Fe     3.548944    1.788658    5.306237    ( 0.0000,  0.0000,  2.1000)
  42 Fe     5.320174   -0.004685    5.301386    ( 0.0000,  0.0000,  0.0000)
  43 Co     5.316862    1.765551    3.538935    ( 0.0000,  0.0000,  2.0000)
  44 Cr     7.081086   -0.000289    3.531325    ( 0.0000,  0.0000,  2.0000)
  45 Ni     7.072902    1.777407    5.300537    ( 0.0000,  0.0000,  2.0000)
  46 Fe     8.840544    0.012372    5.307851    ( 0.0000,  0.0000,  1.5000)
  47 Cr     8.833592    1.767928    3.534318    ( 0.0000,  0.0000,  2.1000)
  48 Cr    -0.004066    3.525285    3.545951    ( 0.0000,  0.0000,  0.0000)
  49 Co    -0.001689    5.317934    5.307787    ( 0.0000,  0.0000,  1.5000)
  50 Cr     1.769043    3.555101    5.297279    ( 0.0000,  0.0000,  2.0000)
  51 Fe     1.773692    5.305929    3.538266    ( 0.0000,  0.0000,  2.1000)
  52 Co     3.542746    3.537364    3.547575    ( 0.0000,  0.0000,  2.1000)
  53 Fe     3.548477    5.306927    5.301153    ( 0.0000,  0.0000,  2.0000)
  54 Ni     5.316246    3.553031    5.303637    ( 0.0000,  0.0000,  2.0000)
  55 Fe     5.303286    5.303531    3.542385    ( 0.0000,  0.0000,  1.5000)
  56 Ni     7.074962    3.533023    3.537215    ( 0.0000,  0.0000,  1.5000)
  57 Cr     7.066046    5.306046    5.300081    ( 0.0000,  0.0000,  2.0000)
  58 Ni     8.834526    3.538160    5.294530    ( 0.0000,  0.0000,  2.1000)
  59 Ni     8.846255    5.300452    3.537672    ( 0.0000,  0.0000,  1.5000)
[...]
  93 Ni     7.071130    5.304220    8.839313    ( 0.0000,  0.0000,  1.5000)
  94 Co     8.837997    3.524669    8.843389    ( 0.0000,  0.0000,  1.5000)
  95 Ni     8.833772    5.299051    7.076862    ( 0.0000,  0.0000,  0.0000)
  96 Ni     0.012168    7.080333    7.083835    ( 0.0000,  0.0000,  1.5000)
  97 Fe    -0.017034    8.848707    8.843941    ( 0.0000,  0.0000,  2.1000)
  98 Co     1.777938    7.075503    8.840194    ( 0.0000,  0.0000,  2.0000)
  99 Fe     1.758800    8.840035    7.069803    ( 0.0000,  0.0000,  0.0000)
 100 Fe     3.549921    7.066194    7.070090    ( 0.0000,  0.0000,  2.1000)
 101 Co     3.553137    8.839111    8.836776    ( 0.0000,  0.0000,  0.0000)
 102 Ni     5.304189    7.079929    8.840215    ( 0.0000,  0.0000,  2.0000)
 103 Co     5.321946    8.832180    7.082997    ( 0.0000,  0.0000,  2.1000)
 104 Ni     7.057077    7.072149    7.064167    ( 0.0000,  0.0000,  1.5000)
 105 Fe     7.082402    8.855500    8.837487    ( 0.0000,  0.0000,  2.1000)
 106 Co     8.846786    7.077881    8.846732    ( 0.0000,  0.0000,  0.0000)
 107 Cr     8.839313    8.848272    7.075153    ( 0.0000,  0.0000,  0.0000)

Unit cell:
           periodic     x           y           z      points  spacing
  1. axis:    yes   10.614300    0.000000    0.000000    48     0.2211
  2. axis:    yes    0.000000   10.614300    0.000000    48     0.2211
  3. axis:    yes    0.000000    0.000000   10.614300    48     0.2211

  Lengths:  10.614300  10.614300  10.614300
  Angles:   90.000000  90.000000  90.000000

Effective grid spacing dv^(1/3) = 0.2211

     iter     time        total  log10-change:  magmom
                         energy  eigst   dens
iter:   1 00:06:12  -953.382251                  +151.1198
iter:   2 00:07:53  -946.541620  -0.58  -1.36    +116.2103
iter:   3 00:09:35  -918.701971  -0.96  -1.33    +87.6246
iter:   4 00:11:17  -895.215178  -1.42  -1.38    +72.4484
iter:   5 00:12:59  -891.188427  -1.92  -1.49    +64.5854
iter:   6 00:14:41  -894.894657  -2.05  -1.52    +60.5368
iter:   7 00:16:23  -895.025177  -1.79  -1.54    +57.6470
iter:   8 00:18:05  -887.418691  -1.68  -1.56    +56.0178
iter:   9 00:19:47  -891.882140  -1.84  -1.79    +55.3538
iter:  10 00:21:29  -890.557830  -2.11  -1.77    +54.9511
iter:  11 00:23:12  -887.844792  -2.30  -1.81    +54.7229
iter:  12 00:24:54  -886.978505  -2.69  -1.90    +55.0106
iter:  13 00:26:37  -888.016041  -2.73  -1.96    +55.6006
iter:  14 00:28:19  -887.344226  -2.79  -1.96    +55.9834
iter:  15 00:30:01  -888.782009  -2.81  -2.02    +56.5662
iter:  16 00:31:43  -889.912215  -2.55  -1.99    +57.1494
iter:  17 00:33:25  -889.703371  -2.52  -1.95    +57.4113
iter:  18 00:35:06  -888.475772  -2.72  -1.99    +57.9783
iter:  19 00:36:49  -889.731260  -2.75  -2.12    +58.5124
iter:  20 00:38:31  -888.479898  -2.82  -2.06    +58.9207
iter:  21 00:40:13  -888.550784  -3.23  -2.14    +59.3332
iter:  22 00:41:55  -888.682497  -3.22  -2.17    +59.9715
iter:  23 00:43:37  -888.817908  -3.22  -2.19    +60.5344
iter:  24 00:45:19  -888.764711  -3.45  -2.19    +60.8088
iter:  25 00:47:01  -889.752800  -3.08  -2.25    +61.3104
iter:  26 00:48:43  -889.899253  -2.83  -2.19    +61.4635
iter:  27 00:50:25  -890.096242  -2.89  -2.20    +61.8026
iter:  28 00:52:07  -889.890707  -3.00  -2.19    +61.8782
iter:  29 00:53:49  -889.820345  -2.99  -2.24    +61.9317
iter:  30 00:55:31  -889.383209  -3.38  -2.25    +62.3727
iter:  31 00:57:13  -889.344057  -3.81  -2.37    +62.7387
iter:  32 00:58:55  -889.432940c -4.00  -2.42    +63.0562
iter:  33 01:00:37  -889.568600  -3.82  -2.43    +63.2797
iter:  34 01:02:20  -889.847023  -3.58  -2.43    +63.4490
iter:  35 01:04:02  -890.215871  -3.15  -2.41    +63.6071
iter:  36 01:05:45  -890.393545  -3.09  -2.36    +63.4378
iter:  37 01:07:27  -890.134773  -3.13  -2.33    +63.5121
iter:  38 01:09:10  -890.006117  -3.31  -2.43    +63.6802
iter:  39 01:10:52  -889.760957  -3.61  -2.48    +63.6826
iter:  40 01:12:34  -889.700597  -4.43  -2.60    +63.6671
iter:  41 01:14:16  -889.733312c -4.54  -2.71    +63.6614
iter:  42 01:15:58  -889.764961c -4.41  -2.71    +63.6852
iter:  43 01:17:40  -889.877555  -3.96  -2.72    +63.5852
iter:  44 01:19:23  -889.930828  -3.70  -2.69    +63.5426
iter:  45 01:21:05  -890.009125  -3.56  -2.67    +63.5360
iter:  46 01:22:47  -889.880424  -3.72  -2.63    +63.5417
iter:  47 01:24:30  -889.841366  -4.02  -2.76    +63.5617
iter:  48 01:26:12  -889.793855c -4.40  -2.86    +63.3928
iter:  49 01:27:54  -889.788488c -5.17  -3.02    +63.3908
iter:  50 01:29:37  -889.799776c -5.16  -3.11    +63.3523
iter:  51 01:31:19  -889.816777c -4.89  -3.13    +63.3425
iter:  52 01:33:01  -889.838832c -4.45  -3.13    +63.2948
iter:  53 01:34:44  -889.821217c -4.63  -3.03    +63.2620
iter:  54 01:36:26  -889.832865c -4.62  -3.27    +63.2887
iter:  55 01:38:09  -889.824225c -4.87  -3.17    +63.2157
iter:  56 01:39:51  -889.823299c -5.10  -3.39    +63.1727
iter:  57 01:41:34  -889.823184c -5.51  -3.46    +63.1469
iter:  58 01:43:16  -889.826467c -5.73  -3.64    +63.1270
iter:  59 01:44:58  -889.841122c -4.65  -3.65    +63.0121
iter:  60 01:46:40  -889.853302c -4.46  -3.50    +62.9102
iter:  61 01:48:23  -889.858731c -4.63  -3.40    +62.8208
iter:  62 01:50:05  -889.863526c -4.88  -3.36    +62.7982
iter:  63 01:51:48  -889.863146c -5.64  -3.32    +62.8322
iter:  64 01:53:30  -889.865531c -5.46  -3.30    +62.8345
iter:  65 01:55:13  -889.866154c -4.91  -3.28    +62.8677
iter:  66 01:56:55  -889.872759c -4.68  -3.21    +62.8724
iter:  67 01:58:38  -889.856556c -5.01  -3.15    +62.8797
iter:  68 02:00:21  -889.864454c -5.01  -3.46    +62.8564
iter:  69 02:02:03  -889.861562c -4.95  -3.29    +62.8849
iter:  70 02:03:46  -889.856112c -5.29  -3.36    +62.8906
iter:  71 02:05:28  -889.856585c -5.48  -3.52    +62.8775
iter:  72 02:07:11  -889.854745c -5.93  -3.57    +62.8687
iter:  73 02:08:54  -889.855397c -5.90  -3.74    +62.8849
iter:  74 02:10:37  -889.855585c -5.79  -3.64    +62.8803
iter:  75 02:12:19  -889.855252c -5.80  -3.64    +62.8700
iter:  76 02:14:01  -889.856079c -5.75  -3.68    +62.8837
iter:  77 02:15:44  -889.855260c -5.75  -3.67    +62.8934
iter:  78 02:17:26  -889.854503c -5.98  -3.67    +62.9028
iter:  79 02:19:08  -889.854331c -6.38  -3.82    +62.8985
iter:  80 02:20:50  -889.854245c -6.52  -3.87    +62.9006
iter:  81 02:22:33  -889.854133c -6.51  -3.91    +62.9100
iter:  82 02:24:15  -889.854049c -6.46  -3.92    +62.9081
iter:  83 02:25:58  -889.854367c -6.37  -3.88    +62.9068
iter:  84 02:27:40  -889.854238c -6.09  -3.91    +62.9084
iter:  85 02:29:23  -889.854113c -6.27  -3.85    +62.9165
iter:  86 02:31:05  -889.853890c -6.34  -3.90    +62.9223
iter:  87 02:32:48  -889.853732c -6.52  -3.98    +62.9159
iter:  88 02:34:31  -889.853767c -6.87  -4.06c   +62.9254
iter:  89 02:36:13  -889.853562c -7.27  -4.14c   +62.9310
iter:  90 02:37:56  -889.853749c -6.86  -4.20c   +62.9357
iter:  91 02:39:38  -889.853664c -7.01  -4.10c   +62.9351
iter:  92 02:41:21  -889.853693c -6.80  -4.17c   +62.9373
iter:  93 02:43:03  -889.853669c -6.67  -4.15c   +62.9424
iter:  94 02:44:45  -889.853476c -6.77  -4.12c   +62.9402
iter:  95 02:46:28  -889.853540c -7.03  -4.17c   +62.9381
iter:  96 02:48:11  -889.853452c -7.25  -4.30c   +62.9393
iter:  97 02:49:54  -889.853428c -7.69c -4.32c   +62.9427

Converged after 97 iterations.

Dipole moment: (6.885788, -1.944692, 0.687673) |e|*Ang

Total magnetic moment: (0.000000, 0.000000, 62.942713)
Local magnetic moments:
   0 Co ( 0.000000,  0.000000,  0.872013)
   1 Fe ( 0.000000,  0.000000,  1.836654)
   2 Fe ( 0.000000,  0.000000,  2.207884)
   3 Co ( 0.000000,  0.000000,  1.190311)
   4 Co ( 0.000000,  0.000000,  0.941704)
   5 Fe ( 0.000000,  0.000000,  2.288648)
   6 Cr ( 0.000000,  0.000000, -1.245097)
   7 Co ( 0.000000,  0.000000,  1.031822)
   8 Co ( 0.000000,  0.000000,  0.253109)
   9 Fe ( 0.000000,  0.000000,  2.010283)
  10 Cr ( 0.000000,  0.000000, -0.346338)
  11 Ni ( 0.000000,  0.000000,  0.271595)
  12 Fe ( 0.000000,  0.000000,  2.121483)
  13 Cr ( 0.000000,  0.000000,  0.380316)
  14 Co ( 0.000000,  0.000000,  1.162877)
  15 Ni ( 0.000000,  0.000000,  0.236601)
  16 Cr ( 0.000000,  0.000000, -1.639232)
  17 Fe ( 0.000000,  0.000000,  2.211759)
  18 Ni ( 0.000000,  0.000000,  0.457279)
  19 Fe ( 0.000000,  0.000000,  2.244014)
  20 Ni ( 0.000000,  0.000000,  0.293023)
  21 Ni ( 0.000000,  0.000000,  0.295604)
  22 Fe ( 0.000000,  0.000000,  1.849665)
  23 Cr ( 0.000000,  0.000000, -1.698363)
  24 Ni ( 0.000000,  0.000000,  0.178116)
  25 Cr ( 0.000000,  0.000000,  0.202409)
  26 Fe ( 0.000000,  0.000000,  1.978638)
  27 Ni ( 0.000000,  0.000000,  0.372207)
  28 Fe ( 0.000000,  0.000000,  2.037257)
  29 Co ( 0.000000,  0.000000,  1.283246)
  30 Cr ( 0.000000,  0.000000, -1.586373)
  31 Cr ( 0.000000,  0.000000,  0.406446)
  32 Co ( 0.000000,  0.000000,  0.875463)
  33 Fe ( 0.000000,  0.000000,  1.687057)
  34 Ni ( 0.000000,  0.000000,  0.068559)
  35 Cr ( 0.000000,  0.000000, -1.309665)
  36 Cr ( 0.000000,  0.000000, -0.982659)
  37 Fe ( 0.000000,  0.000000,  1.652576)
  38 Ni ( 0.000000,  0.000000,  0.332484)
  39 Co ( 0.000000,  0.000000,  0.896189)
  40 Co ( 0.000000,  0.000000,  1.326154)
  41 Fe ( 0.000000,  0.000000,  2.324800)
  42 Fe ( 0.000000,  0.000000,  2.245002)
  43 Co ( 0.000000,  0.000000,  1.240716)
  44 Cr ( 0.000000,  0.000000, -0.925971)
  45 Ni ( 0.000000,  0.000000,  0.174653)
  46 Fe ( 0.000000,  0.000000,  1.409868)
  47 Cr ( 0.000000,  0.000000,  0.231554)
  48 Cr ( 0.000000,  0.000000, -1.150250)
  49 Co ( 0.000000,  0.000000,  0.634713)
  50 Cr ( 0.000000,  0.000000, -1.331954)
  51 Fe ( 0.000000,  0.000000,  1.551206)
  52 Co ( 0.000000,  0.000000,  1.249496)
  53 Fe ( 0.000000,  0.000000,  2.082584)
  54 Ni ( 0.000000,  0.000000,  0.288077)
  55 Fe ( 0.000000,  0.000000,  2.325528)
  56 Ni ( 0.000000,  0.000000,  0.325805)
  57 Cr ( 0.000000,  0.000000, -1.527854)
  58 Ni ( 0.000000,  0.000000,  0.069619)
  59 Ni ( 0.000000,  0.000000,  0.105204)
[...]
  93 Ni ( 0.000000,  0.000000,  0.256817)
  94 Co ( 0.000000,  0.000000,  1.119918)
  95 Ni ( 0.000000,  0.000000,  0.175009)
  96 Ni ( 0.000000,  0.000000,  0.330589)
  97 Fe ( 0.000000,  0.000000,  2.080104)
  98 Co ( 0.000000,  0.000000,  1.362227)
  99 Fe ( 0.000000,  0.000000,  2.165056)
 100 Fe ( 0.000000,  0.000000,  2.078629)
 101 Co ( 0.000000,  0.000000,  1.209903)
 102 Ni ( 0.000000,  0.000000,  0.350701)
 103 Co ( 0.000000,  0.000000,  1.432811)
 104 Ni ( 0.000000,  0.000000,  0.332209)
 105 Fe ( 0.000000,  0.000000,  2.015587)
 106 Co ( 0.000000,  0.000000,  1.115559)
 107 Cr ( 0.000000,  0.000000, -1.505626)

Energy contributions relative to reference atoms: (reference = -3846758.590871)

Kinetic:       +120.400683
Potential:     -187.595504
External:        +0.000000
XC:            -860.166929
Entropy (-ST):   -4.688567
Local:          +39.852607
Free energy:   -892.197711
Extrapolated:  -889.853428

Spin contamination: 30.093244 electrons
Showing only first 2 kpts
                      Up                     Down
 Kpt  Band  Eigenvalues  Occupancy  Eigenvalues  Occupancy
  0   524      9.83680    0.99401     10.71217    0.02554
  0   525      9.84736    0.99335     10.73048    0.02136
  0   526      9.86393    0.99216     10.73415    0.02060
  0   527      9.88055    0.99076     10.75501    0.01679

  1   524      9.84202    0.99369     10.70216    0.02815
  1   525      9.85613    0.99274     10.72303    0.02297
  1   526      9.86404    0.99215     10.73257    0.02092
  1   527      9.88257    0.99057     10.74666    0.01822

Fermi level: 10.34800

No gap

Forces in eV/Ang:
  0 Co    0.06893    0.05977    0.01391
  1 Fe    0.47083    0.04721   -0.11704
  2 Fe    0.10791   -0.06755   -0.21008
  3 Co    0.03153   -0.02519    0.06206
  4 Co    0.02559   -0.11596   -0.09323
  5 Fe    0.04135    0.13318    0.06293
  6 Cr   -0.07440    0.08306   -0.23309
  7 Co   -0.28049   -0.19899   -0.07941
  8 Co   -0.12162   -0.18517    0.15230
  9 Fe   -0.34582   -0.23830   -0.51183
 10 Cr   -0.08933    0.32855   -0.68644
 11 Ni    0.03740   -0.11375    0.00609
 12 Fe    0.39368    0.16451   -0.04073
 13 Cr    0.41879   -0.00220    0.24066
 14 Co   -0.06771   -0.10720   -0.01341
 15 Ni   -0.05379   -0.05457   -0.00096
 16 Cr   -0.09838   -0.43953    0.41621
 17 Fe   -0.33359   -0.37438   -0.02875
 18 Ni   -0.05257   -0.06721   -0.02591
 19 Fe    0.23854   -0.07649    0.04505
 20 Ni   -0.00000    0.06846   -0.02928
 21 Ni    0.08755    0.00883   -0.08119
 22 Fe   -0.10487    0.01125   -0.05374
 23 Cr   -0.07894    0.04880   -0.12806
 24 Ni   -0.10647   -0.12086    0.03740
 25 Cr    0.17247   -0.03486   -0.17002
 26 Fe   -0.02872    0.26951   -0.01661
 27 Ni    0.31188    0.06500    0.04407
 28 Fe   -0.34489    0.34205   -0.29778
 29 Co   -0.01957    0.26466    0.14740
 30 Cr    0.08333    0.19730   -0.02387
 31 Cr   -0.06777    0.34138    0.00002
 32 Co    0.15875    0.16304   -0.04851
 33 Fe    0.02328    0.05239   -0.24135
 34 Ni   -0.07697    0.16569   -0.25594
 35 Cr   -0.35279   -0.41147   -0.15204
 36 Cr    0.53139   -0.08576    0.69299
 37 Fe    0.48297   -0.03202    0.07377
 38 Ni    0.07826    0.12652    0.14692
 39 Co   -0.15001    0.33821   -0.07286
 40 Co    0.14320   -0.27286   -0.11311
 41 Fe   -0.38107   -0.30178   -0.10600
 42 Fe    0.29067    0.00856    0.10796
 43 Co   -0.06514    0.02372   -0.07706
 44 Cr    0.16207   -0.12975    0.50450
 45 Ni    0.07669   -0.01751    0.28319
 46 Fe   -0.15370   -0.13226   -0.01098
 47 Cr   -0.26409   -0.03942    0.31304
 48 Cr   -0.09293    0.20610   -0.20724
 49 Co    0.13610   -0.19003   -0.29081
 50 Cr    0.53043    0.07372   -0.05520
 51 Fe   -0.16025   -0.12985    0.25991
 52 Co   -0.12979    0.04636   -0.15497
 53 Fe   -0.26032   -0.16263   -0.00527
 54 Ni   -0.05146   -0.22107    0.03523
 55 Fe    0.04988    0.01588   -0.00136
 56 Ni    0.00781   -0.01983    0.04425
 57 Cr   -0.08291    0.13212    0.03308
 58 Ni    0.08814   -0.02681    0.18031
 59 Ni    0.20535   -0.07130    0.06565
[...]
 93 Ni    0.08739    0.03735    0.02270
 94 Co    0.01087    0.32800   -0.08505
 95 Ni    0.15035   -0.03855    0.07064
 96 Ni   -0.08876   -0.06675    0.01649
 97 Fe    0.02013   -0.06083    0.11938
 98 Co   -0.11217   -0.10797    0.02552
 99 Fe    0.12537    0.12052    0.14935
100 Fe   -0.03362    0.08817    0.45551
101 Co   -0.10937    0.09802   -0.03112
102 Ni    0.28671    0.00707    0.19231
103 Co   -0.22417    0.11505   -0.12573
104 Ni    0.16062    0.07401    0.16882
105 Fe    0.26576   -0.01228    0.11983
106 Co   -0.10507   -0.08972   -0.00865
107 Cr   -0.23209   -0.30632    0.03578

Date: Sat Apr 15 02:50:13 2023