User:   c.zeng@d0112
Date:   Sat Apr 15 04:14:54 2023
Arch:   x86_64
Pid:    33387
CWD:    /home/c.zeng/projects/hea-corrosion/hea-mlp/data-curation/bulk-mcmc/dft-jobs/214
Python: 3.8.1
gpaw:   /home/c.zeng/usr/installs/gpaw/source/gpaw-22.8.0/gpaw
_gpaw:  /home/c.zeng/usr/installs/gpaw/source/gpaw-22.8.0/
        _gpaw.cpython-38-x86_64-linux-gnu.so
ase:    /home/c.zeng/.local/lib/python3.8/site-packages/ase-3.22.1-py3.8.egg/ase (version 3.22.1)
numpy:  /shared/centos7/python/3.8.1/lib/python3.8/site-packages/numpy (version 1.17.4)
scipy:  /shared/centos7/python/3.8.1/lib/python3.8/site-packages/scipy (version 1.4.1)
units:  Angstrom and eV
cores: 30
OpenMP: False
OMP_NUM_THREADS: 1

Input parameters:
  convergence: {energy: 0.0001}
  kpts: [2 2 2]
  maxiter: 666
  mode: {ecut: 350.0,
         name: pw}
  occupations: {fixmagmom: False,
                name: fermi-dirac,
                width: 0.1}
  spinpol: True
  xc: PBE

System changes: positions, numbers, cell, pbc, initial_charges, initial_magmoms

Initialize ...

species:
  Ni:
    name: Nickel
    id: 0d9f38a9d6e76a2886f07bb4381f212b
    Z: 28.0
    valence: 16
    core: 12
    charge: 0.0
    file: /home/c.zeng/usr/data/gpaw-setups-0.9.20000/Ni.PBE.gz
    compensation charges: {type: gauss,
                           rc: 0.36,
                           lmax: 2}
    cutoffs: {filter: 2.14,
              core: 1.98}
    valence states:
      #              energy  rcut
      - 4s(2.00)    -5.642   1.164
      - 3p(6.00)   -71.394   1.207
      - 4p(0.00)    -1.226   1.207
      - 3d(8.00)    -8.875   1.138
      -  s          21.570   1.164
      -  d          18.337   1.138

    # Using partial waves for Ni as LCAO basis

  Al:
    name: Aluminium
    id: 0292cae29f5d6237e50f6abdd43a7bdd
    Z: 13.0
    valence: 3
    core: 10
    charge: 0.0
    file: /home/c.zeng/usr/data/gpaw-setups-0.9.20000/Al.PBE.gz
    compensation charges: {type: gauss,
                           rc: 0.34,
                           lmax: 2}
    cutoffs: {filter: 1.91,
              core: 2.36}
    valence states:
      #              energy  rcut
      - 3s(2.00)    -7.753   1.085
      - 3p(1.00)    -2.712   1.085
      -  s          19.459   1.085
      -  p          24.499   1.085
      -  d           0.000   1.085

[...]

  Co:
    name: Cobalt
    id: 339d20d5b0b93d2de9531a1bee871d91
    Z: 27.0
    valence: 9
    core: 18
    charge: 0.0
    file: /home/c.zeng/usr/data/gpaw-setups-0.9.20000/Co.PBE.gz
    compensation charges: {type: gauss,
                           rc: 0.32,
                           lmax: 2}
    cutoffs: {filter: 1.87,
              core: 2.55}
    valence states:
      #              energy  rcut
      - 4s(2.00)    -5.469   1.005
      - 4p(0.00)    -1.277   1.058
      - 3d(7.00)    -8.205   1.005
      -  s          21.742   1.005
      -  p          25.934   1.058
      -  d          19.007   1.005

[...]

  Fe:
    name: Iron
    id: 37abbd8d6c3c35915a9b583b742da910
    Z: 26.0
    valence: 8
    core: 18
    charge: 0.0
    file: /home/c.zeng/usr/data/gpaw-setups-0.9.20000/Fe.PBE.gz
    compensation charges: {type: gauss,
                           rc: 0.33,
                           lmax: 2}
    cutoffs: {filter: 2.06,
              core: 2.67}
    valence states:
      #              energy  rcut
      - 4s(2.00)    -5.291   1.164
      - 4p(0.00)    -1.326   1.058
      - 3d(6.00)    -7.505   1.058
      -  s          21.920   1.164
      -  p          25.885   1.058
      -  d          19.706   1.058

[...]

  Cr:
    name: Chromium
    id: 33f258bda2ca9f93018e70263a35547b
    Z: 24.0
    valence: 6
    core: 18
    charge: 0.0
    file: /home/c.zeng/usr/data/gpaw-setups-0.9.20000/Cr.PBE.gz
    compensation charges: {type: gauss,
                           rc: 0.35,
                           lmax: 2}
    cutoffs: {filter: 2.14,
              core: 3.04}
    valence states:
      #              energy  rcut
      - 4s(1.00)    -4.007   1.164
      - 4p(0.00)    -0.989   1.217
      - 3d(5.00)    -2.913   1.111
      -  s          23.205   1.164
      -  p          26.223   1.217
      -  d          24.299   1.111

    # Using partial waves for Cr as LCAO basis

Reference energy: -3235165.067515  # eV

Spin-polarized calculation.
Magnetic moment: 121.100000

Convergence criteria:
 Maximum [total energy] change in last 3 cyles: 0.0001 eV / electron
 Maximum integral of absolute [dens]ity change: 0.0001 electrons / valence electron
 Maximum integral of absolute [eigenst]ate change: 4e-08 eV^2 / valence electron
 Maximum number of scf [iter]ations: 666
 (Square brackets indicate name in SCF output, whereas a 'c' in
 the SCF output indicates the quantity has converged.)

Symmetries present (total): 1

  ( 1  0  0)
  ( 0  1  0)
  ( 0  0  1)

8 k-points: 2 x 2 x 2 Monkhorst-Pack grid
4 k-points in the irreducible part of the Brillouin zone
       k-points in crystal coordinates                weights
   0:     0.25000000   -0.25000000   -0.25000000          2/8
   1:     0.25000000   -0.25000000    0.25000000          2/8
   2:     0.25000000    0.25000000   -0.25000000          2/8
   3:     0.25000000    0.25000000    0.25000000          2/8

Wave functions: Plane wave expansion
  Cutoff energy: 350.000 eV
  Number of coefficients (min, max): 19084, 19084
  Pulay-stress correction: 0.000000 eV/Ang^3 (de/decut=0.000000)
  Using FFTW library
  ScaLapack parameters: grid=1x1, blocksize=None
  Wavefunction extrapolation:
    Improved wavefunction reuse through dual PAW basis

Occupation numbers: Fermi-Dirac:
  width: 0.1000  # eV

Eigensolver
   Davidson(niter=2)

Densities:
  Coarse grid: 48*48*48 grid
  Fine grid: 96*96*96 grid
  Total Charge: 0.000000

Density mixing:
  Method: difference
  Backend: pulay
  Linear mixing parameter: 0.05
  old densities: 5
  Damping of long wavelength oscillations: 50

Hamiltonian:
  XC and Coulomb potentials evaluated on a 96*96*96 grid
  Using the PBE Exchange-Correlation functional
  External potential:
    NoExternalPotential

XC parameters: PBE with 2 nearest neighbor stencil

Total number of cores used: 30
Parallelization over k-points: 2
Domain decomposition: 5 x 3 x 1

Number of atoms: 108
Number of atomic orbitals: 933
Number of bands in calculation: 624
Number of valence electrons: 912
Bands to converge: occupied

... initialized

Initializing position-dependent things.

Density initialized from atomic densities
Creating initial wave functions:
  624 bands from LCAO basis set

        .--------Al----------------.
       /|           Fe             |
      / |    FeFe     Ni           |
     / Cr       Cr       Al        |
    /   |Fe      CrCo       Fe     |
   /    | NiNi      ACo            |
  /    Co  FerAlAl    Co Fe  CoAl  |
 *      Fe     AlCoAl   CrFe     Ni|
 |      |FeCr   NiFeFe   AlNiCr   Co
 |      | CoCr   AlCoCoAl NiCrFe   |
 |     Fe  Al CoCo  NiCr Ni  CrCr  |
 |      Cr  Ni NiNiCo CoCrCoAl   Fe|
 |      |CrCo   CoAlAl   CoNiFe   Fe
 |      .-FeNi-----CrNi-Al--CrFe---.
 |     Al  Ni CoCr    Al Co  Ni Cr/
 |    / Co              Ni       Cr
 |   /           Ali      CrFe  /
 |  /      Ni       Fe     CrAl/
 | /                   Fe     /i
 *--------------------------Ni

Positions:
   0 Ni    10.797848    0.093654    0.085777    ( 0.0000,  0.0000,  0.0000)
   1 Al    10.831824    1.844742    1.870716    ( 0.0000,  0.0000,  2.0000)
   2 Ni     1.786803   10.847372    1.827335    ( 0.0000,  0.0000,  0.0000)
   3 Co     1.769614    1.870531   -0.031264    ( 0.0000,  0.0000,  0.0000)
   4 Al     3.620857   10.822050   10.833629    ( 0.0000,  0.0000,  1.5000)
   5 Ni     3.571246    1.883176    1.708402    ( 0.0000,  0.0000,  0.0000)
   6 Co     5.521103   10.788063    1.666217    ( 0.0000,  0.0000,  0.0000)
   7 Al     5.520831    1.813973   10.830911    ( 0.0000,  0.0000,  1.5000)
   8 Al     7.330846    0.011025   10.815657    ( 0.0000,  0.0000,  2.0000)
   9 Fe     7.282018    1.809483    1.793250    ( 0.0000,  0.0000,  2.1000)
  10 Fe     9.029996    0.022005    1.811918    ( 0.0000,  0.0000,  1.5000)
  11 Fe     9.007196    1.868639   10.825714    ( 0.0000,  0.0000,  2.0000)
  12 Ni    10.861310    3.649723    0.014171    ( 0.0000,  0.0000,  2.0000)
  13 Cr    10.867442    5.463468    1.819235    ( 0.0000,  0.0000,  2.1000)
  14 Co     1.756088    3.650267    1.845949    ( 0.0000,  0.0000,  0.0000)
  15 Fe     1.790358    5.439092   10.869084    ( 0.0000,  0.0000,  2.1000)
  16 Ni     3.687842    3.622792   -0.049287    ( 0.0000,  0.0000,  2.0000)
  17 Co     3.667347    5.391145    1.745368    ( 0.0000,  0.0000,  0.0000)
  18 Al     5.497977    3.634415    1.792370    ( 0.0000,  0.0000,  2.0000)
  19 Ni     5.524908    5.448029    0.002551    ( 0.0000,  0.0000,  2.0000)
  20 Co     7.223340    3.611877   10.834270    ( 0.0000,  0.0000,  0.0000)
  21 Al     7.217762    5.474830    1.807776    ( 0.0000,  0.0000,  2.1000)
  22 Cr     9.073442    3.654344    1.775148    ( 0.0000,  0.0000,  0.0000)
  23 Cr     9.008740    5.418608    0.007692    ( 0.0000,  0.0000,  2.0000)
  24 Cr    10.859190    7.178720    0.014480    ( 0.0000,  0.0000,  1.5000)
  25 Fe    -0.018106    8.970948    1.875391    ( 0.0000,  0.0000,  0.0000)
  26 Fe     1.817615    7.224025    1.802546    ( 0.0000,  0.0000,  1.5000)
  27 Ni     1.880729    8.993464   10.874031    ( 0.0000,  0.0000,  0.0000)
  28 Fe     3.684428    7.260447   -0.001356    ( 0.0000,  0.0000,  2.0000)
  29 Co     3.612616    9.025636    1.761807    ( 0.0000,  0.0000,  1.5000)
  30 Cr     5.481440    7.275114    1.811211    ( 0.0000,  0.0000,  1.5000)
  31 Fe     5.461261    9.048153   10.833988    ( 0.0000,  0.0000,  1.5000)
  32 Ni     7.245704    7.257881    0.056891    ( 0.0000,  0.0000,  2.1000)
  33 Co     7.301969    9.004609    1.790315    ( 0.0000,  0.0000,  0.0000)
  34 Cr     9.029343    7.181775    1.815549    ( 0.0000,  0.0000,  2.0000)
  35 Ni     9.030561    9.042010    0.020232    ( 0.0000,  0.0000,  1.5000)
  36 Fe    -0.031046    0.001947    3.645701    ( 0.0000,  0.0000,  2.0000)
  37 Fe    10.825910    1.804351    5.434602    ( 0.0000,  0.0000,  2.1000)
  38 Cr     1.743552   10.849296    5.484376    ( 0.0000,  0.0000,  0.0000)
  39 Al     1.769755    1.791891    3.636068    ( 0.0000,  0.0000,  1.5000)
  40 Al     3.516667   10.719828    3.663227    ( 0.0000,  0.0000,  0.0000)
  41 Co     3.644244    1.785205    5.586728    ( 0.0000,  0.0000,  0.0000)
  42 Al     5.484778   10.815439    5.504022    ( 0.0000,  0.0000,  0.0000)
  43 Cr     5.457934    1.842230    3.658769    ( 0.0000,  0.0000,  0.0000)
  44 Ni     7.360615   10.815439    3.672229    ( 0.0000,  0.0000,  0.0000)
  45 Al     7.266884    1.811614    5.485528    ( 0.0000,  0.0000,  2.1000)
  46 Al     9.077986    0.023590    5.491921    ( 0.0000,  0.0000,  0.0000)
  47 Co     9.066788    1.824226    3.671175    ( 0.0000,  0.0000,  1.5000)
  48 Fe    -0.047135    3.649615    3.617291    ( 0.0000,  0.0000,  2.0000)
  49 Cr    10.809264    5.435993    5.379805    ( 0.0000,  0.0000,  2.0000)
  50 Cr     1.752316    3.624989    5.344676    ( 0.0000,  0.0000,  0.0000)
  51 Cr     1.805786    5.472046    3.619389    ( 0.0000,  0.0000,  2.1000)
  52 Ni     3.649408    3.633491    3.631251    ( 0.0000,  0.0000,  2.1000)
  53 Co     3.657628    5.433797    5.434015    ( 0.0000,  0.0000,  1.5000)
  54 Ni     5.413368    3.672642    5.480309    ( 0.0000,  0.0000,  1.5000)
  55 Al     5.413835    5.465588    3.639666    ( 0.0000,  0.0000,  2.1000)
  56 Ni     7.223449    3.731734    3.720829    ( 0.0000,  0.0000,  0.0000)
  57 Cr     7.220557    5.483180    5.485572    ( 0.0000,  0.0000,  0.0000)
  58 Co     9.069039    3.623673    5.469720    ( 0.0000,  0.0000,  1.5000)
  59 Ni     9.064766    5.503837    3.636731    ( 0.0000,  0.0000,  0.0000)
[...]
  93 Co     7.214631    5.385893    9.048577    ( 0.0000,  0.0000,  2.1000)
  94 Fe     8.994291    3.655975    9.039237    ( 0.0000,  0.0000,  1.5000)
  95 Ni     9.006577    5.423262    7.223296    ( 0.0000,  0.0000,  2.0000)
  96 Ni    -0.070637    7.291956    7.110419    ( 0.0000,  0.0000,  0.0000)
  97 Cr     0.073012    9.104570    9.068375    ( 0.0000,  0.0000,  0.0000)
  98 Ni     1.863247    7.257381    9.054785    ( 0.0000,  0.0000,  2.0000)
  99 Fe     1.858343    9.053708    7.225808    ( 0.0000,  0.0000,  2.1000)
 100 Al     3.683906    7.292456    7.235550    ( 0.0000,  0.0000,  2.0000)
 101 Cr     3.628218    9.069550    9.051262    ( 0.0000,  0.0000,  2.1000)
 102 Co     5.530605    7.331890    9.040129    ( 0.0000,  0.0000,  0.0000)
 103 Al     5.476232    9.097209    7.250467    ( 0.0000,  0.0000,  2.0000)
 104 Cr     7.256827    7.264242    7.208456    ( 0.0000,  0.0000,  2.1000)
 105 Al     7.272548    9.136437    9.056861    ( 0.0000,  0.0000,  1.5000)
 106 Fe     8.936493    7.190875    9.109767    ( 0.0000,  0.0000,  0.0000)
 107 Co     8.994682    9.112169    7.218480    ( 0.0000,  0.0000,  0.0000)

Unit cell:
           periodic     x           y           z      points  spacing
  1. axis:    yes   10.872400    0.000000    0.000000    48     0.2265
  2. axis:    yes    0.000000   10.872400    0.000000    48     0.2265
  3. axis:    yes    0.000000    0.000000   10.872400    48     0.2265

  Lengths:  10.872400  10.872400  10.872400
  Angles:   90.000000  90.000000  90.000000

Effective grid spacing dv^(1/3) = 0.2265

     iter     time        total  log10-change:  magmom
                         energy  eigst   dens
iter:   1 04:19:27  -910.557767                  +120.1137
iter:   2 04:21:36  -877.914994  -0.25  -1.25    +82.9974
iter:   3 04:23:45  -845.846447  -0.72  -1.21    +50.0298
iter:   4 04:25:55  -813.578877  -1.15  -1.28    +43.2084
iter:   5 04:28:05  -807.777740  -1.75  -1.38    +39.9728
iter:   6 04:30:14  -811.924199  -1.79  -1.43    +38.1910
iter:   7 04:32:23  -804.782307  -1.75  -1.43    +37.4749
iter:   8 04:34:32  -803.483538  -1.85  -1.52    +37.7987
iter:   9 04:36:41  -808.754161  -1.69  -1.61    +38.2408
iter:  10 04:38:50  -805.598218  -1.81  -1.62    +38.3053
iter:  11 04:41:00  -803.628140  -2.19  -1.71    +38.6727
iter:  12 04:43:09  -802.349088  -2.43  -1.79    +39.7167
iter:  13 04:45:19  -803.047579  -2.61  -1.88    +41.0274
iter:  14 04:47:28  -803.666380  -2.54  -1.90    +41.5127
iter:  15 04:49:37  -804.014963  -2.56  -1.92    +42.4330
iter:  16 04:51:46  -805.306630  -2.39  -1.94    +43.4931
iter:  17 04:53:56  -804.157741  -2.51  -1.91    +43.9195
iter:  18 04:56:05  -804.221470  -2.66  -2.04    +44.1989
iter:  19 04:58:15  -803.944705  -2.81  -2.07    +44.7938
iter:  20 05:00:25  -804.439773  -2.87  -2.15    +45.5783
iter:  21 05:02:34  -804.309356  -2.91  -2.15    +45.9041
iter:  22 05:04:43  -804.504974  -3.06  -2.20    +46.1380
iter:  23 05:06:53  -804.555713  -3.10  -2.22    +46.7244
iter:  24 05:09:02  -804.752171  -3.19  -2.27    +47.0873
iter:  25 05:11:11  -804.698553  -3.40  -2.27    +47.2226
iter:  26 05:13:21  -804.892423  -3.38  -2.34    +47.3774
iter:  27 05:15:30  -805.008862  -3.39  -2.35    +47.5917
iter:  28 05:17:39  -805.077823  -3.52  -2.35    +47.8064
iter:  29 05:19:48  -805.176570  -3.47  -2.37    +47.7231
iter:  30 05:21:58  -805.288189  -3.38  -2.40    +47.7413
iter:  31 05:24:08  -805.260001  -3.40  -2.40    +47.8113
iter:  32 05:26:17  -805.368490  -3.44  -2.46    +47.8806
iter:  33 05:28:27  -805.332456  -3.48  -2.42    +47.8180
iter:  34 05:30:36  -805.364158c -3.56  -2.50    +47.6129
iter:  35 05:32:45  -805.319965c -3.78  -2.50    +47.6396
iter:  36 05:34:54  -805.336523c -3.95  -2.55    +47.6217
iter:  37 05:37:03  -805.347529c -4.17  -2.60    +47.5418
iter:  38 05:39:12  -805.368691c -4.14  -2.62    +47.4434
iter:  39 05:41:21  -805.392862c -4.31  -2.62    +47.3815
iter:  40 05:43:30  -805.466284  -3.81  -2.66    +47.2608
iter:  41 05:45:39  -805.492039  -3.81  -2.61    +47.1454
iter:  42 05:47:48  -805.501970c -3.71  -2.65    +47.0667
iter:  43 05:49:58  -805.507682c -3.73  -2.72    +47.0632
iter:  44 05:52:08  -805.518606c -3.76  -2.72    +46.9421
iter:  45 05:54:17  -805.462067c -4.15  -2.73    +46.8116
iter:  46 05:56:26  -805.466606c -4.42  -2.91    +46.7105
iter:  47 05:58:36  -805.465957c -4.97  -2.95    +46.7100
iter:  48 06:00:44  -805.481195c -4.80  -3.00    +46.6116
iter:  49 06:02:53  -805.525496c -3.71  -3.00    +46.2463
iter:  50 06:05:02  -805.537906c -4.64  -2.93    +46.3343
iter:  51 06:07:10  -805.540016c -4.93  -2.89    +46.2818
iter:  52 06:09:19  -805.546015c -4.99  -2.88    +46.3982
iter:  53 06:11:28  -805.559554c -4.59  -2.89    +46.4410
iter:  54 06:13:38  -805.528028c -4.17  -2.85    +46.4800
iter:  55 06:15:47  -805.525002c -4.72  -2.89    +46.4440
iter:  56 06:17:55  -805.521104c -5.20  -2.95    +46.4095
iter:  57 06:19:57  -805.535393c -4.56  -2.99    +46.3852
iter:  58 06:22:07  -805.526710c -4.43  -2.97    +46.3760
iter:  59 06:24:15  -805.520820c -4.72  -3.16    +46.3745
iter:  60 06:26:24  -805.518118c -5.31  -3.38    +46.3714
iter:  61 06:28:33  -805.518588c -5.42  -3.49    +46.3783
iter:  62 06:30:42  -805.517765c -5.85  -3.50    +46.3927
iter:  63 06:32:51  -805.518255c -5.77  -3.59    +46.4007
iter:  64 06:35:01  -805.517519c -5.76  -3.66    +46.4165
iter:  65 06:37:09  -805.517379c -5.81  -3.76    +46.4242
iter:  66 06:39:19  -805.517237c -5.99  -3.83    +46.4267
iter:  67 06:41:28  -805.517300c -6.36  -3.92    +46.4341
iter:  68 06:43:37  -805.517088c -6.53  -3.99    +46.4388
iter:  69 06:45:45  -805.517194c -6.63  -4.03c   +46.4454
iter:  70 06:47:54  -805.517262c -6.76  -4.07c   +46.4490
iter:  71 06:50:02  -805.517160c -6.74  -4.11c   +46.4533
iter:  72 06:52:11  -805.517363c -6.89  -4.14c   +46.4551
iter:  73 06:54:20  -805.517405c -6.88  -4.18c   +46.4578
iter:  74 06:56:29  -805.517342c -7.12  -4.22c   +46.4584
iter:  75 06:58:38  -805.517484c -7.10  -4.26c   +46.4611
iter:  76 07:00:47  -805.517509c -7.25  -4.29c   +46.4624
iter:  77 07:02:56  -805.517536c -7.02  -4.33c   +46.4628
iter:  78 07:05:04  -805.517630c -7.47c -4.37c   +46.4637

Converged after 78 iterations.

Dipole moment: (28.236247, 17.667757, 8.750711) |e|*Ang

Total magnetic moment: (0.000000, 0.000000, 46.463680)
Local magnetic moments:
   0 Ni ( 0.000000,  0.000000,  0.271665)
   1 Al ( 0.000000,  0.000000, -0.031603)
   2 Ni ( 0.000000,  0.000000,  0.247573)
   3 Co ( 0.000000,  0.000000,  1.277371)
   4 Al ( 0.000000,  0.000000, -0.023568)
   5 Ni ( 0.000000,  0.000000,  0.089780)
   6 Co ( 0.000000,  0.000000,  1.300566)
   7 Al ( 0.000000,  0.000000, -0.027903)
   8 Al ( 0.000000,  0.000000, -0.048316)
   9 Fe ( 0.000000,  0.000000,  2.191347)
  10 Fe ( 0.000000,  0.000000,  2.373137)
  11 Fe ( 0.000000,  0.000000,  2.150894)
  12 Ni ( 0.000000,  0.000000,  0.169192)
  13 Cr ( 0.000000,  0.000000, -1.016078)
  14 Co ( 0.000000,  0.000000,  0.984344)
  15 Fe ( 0.000000,  0.000000,  2.110303)
  16 Ni ( 0.000000,  0.000000,  0.195775)
  17 Co ( 0.000000,  0.000000,  1.146405)
  18 Al ( 0.000000,  0.000000, -0.017502)
  19 Ni ( 0.000000,  0.000000,  0.241903)
  20 Co ( 0.000000,  0.000000,  0.829100)
  21 Al ( 0.000000,  0.000000,  0.002302)
  22 Cr ( 0.000000,  0.000000, -1.735005)
  23 Cr ( 0.000000,  0.000000, -0.128933)
  24 Cr ( 0.000000,  0.000000,  0.383443)
  25 Fe ( 0.000000,  0.000000,  2.203354)
  26 Fe ( 0.000000,  0.000000,  2.178295)
  27 Ni ( 0.000000,  0.000000,  0.154401)
  28 Fe ( 0.000000,  0.000000,  2.370659)
  29 Co ( 0.000000,  0.000000,  1.348574)
  30 Cr ( 0.000000,  0.000000, -1.795826)
  31 Fe ( 0.000000,  0.000000,  2.219784)
  32 Ni ( 0.000000,  0.000000,  0.252749)
  33 Co ( 0.000000,  0.000000,  1.144916)
  34 Cr ( 0.000000,  0.000000, -0.565610)
  35 Ni ( 0.000000,  0.000000,  0.138482)
  36 Fe ( 0.000000,  0.000000,  2.109749)
  37 Fe ( 0.000000,  0.000000,  1.883446)
  38 Cr ( 0.000000,  0.000000, -1.717678)
  39 Al ( 0.000000,  0.000000, -0.020039)
  40 Al ( 0.000000,  0.000000,  0.000249)
  41 Co ( 0.000000,  0.000000,  0.243231)
  42 Al ( 0.000000,  0.000000, -0.006401)
  43 Cr ( 0.000000,  0.000000, -2.508218)
  44 Ni ( 0.000000,  0.000000, -0.013309)
  45 Al ( 0.000000,  0.000000, -0.015856)
  46 Al ( 0.000000,  0.000000, -0.025052)
  47 Co ( 0.000000,  0.000000,  0.937054)
  48 Fe ( 0.000000,  0.000000,  1.697725)
  49 Cr ( 0.000000,  0.000000, -1.412085)
  50 Cr ( 0.000000,  0.000000, -1.865824)
  51 Cr ( 0.000000,  0.000000,  1.225670)
  52 Ni ( 0.000000,  0.000000,  0.118725)
  53 Co ( 0.000000,  0.000000,  0.891310)
  54 Ni ( 0.000000,  0.000000,  0.142975)
  55 Al ( 0.000000,  0.000000, -0.004885)
  56 Ni ( 0.000000,  0.000000,  0.011951)
  57 Cr ( 0.000000,  0.000000, -1.365847)
  58 Co ( 0.000000,  0.000000,  1.094352)
  59 Ni ( 0.000000,  0.000000,  0.055700)
[...]
  93 Co ( 0.000000,  0.000000,  1.423721)
  94 Fe ( 0.000000,  0.000000,  2.255770)
  95 Ni ( 0.000000,  0.000000,  0.284627)
  96 Ni ( 0.000000,  0.000000,  0.284321)
  97 Cr ( 0.000000,  0.000000, -2.317305)
  98 Ni ( 0.000000,  0.000000,  0.213942)
  99 Fe ( 0.000000,  0.000000,  2.103004)
 100 Al ( 0.000000,  0.000000, -0.027785)
 101 Cr ( 0.000000,  0.000000, -1.832046)
 102 Co ( 0.000000,  0.000000,  0.743711)
 103 Al ( 0.000000,  0.000000, -0.000326)
 104 Cr ( 0.000000,  0.000000,  0.802564)
 105 Al ( 0.000000,  0.000000, -0.028626)
 106 Fe ( 0.000000,  0.000000,  2.365913)
 107 Co ( 0.000000,  0.000000,  0.678590)

Energy contributions relative to reference atoms: (reference = -3235165.067515)

Kinetic:       +244.228549
Potential:     -236.198434
External:        +0.000000
XC:            -842.758201
Entropy (-ST):   -4.022418
Local:          +31.221666
Free energy:   -807.528839
Extrapolated:  -805.517630

Spin contamination: 31.062818 electrons
Showing only first 2 kpts
                      Up                     Down
 Kpt  Band  Eigenvalues  Occupancy  Eigenvalues  Occupancy
  0   454      9.05857    0.99162      9.83027    0.05006
  0   455      9.07436    0.99020      9.84128    0.04508
  0   456      9.09013    0.98855      9.86630    0.03546
  0   457      9.11398    0.98551      9.87313    0.03319

  1   454      9.05208    0.99215      9.83800    0.04651
  1   455      9.07096    0.99053      9.85639    0.03900
  1   456      9.08938    0.98863      9.87188    0.03359
  1   457      9.09726    0.98771      9.87336    0.03312

Fermi level: 9.53596

No gap

Forces in eV/Ang:
  0 Ni    0.36077   -0.57295   -0.62145
  1 Al    0.03553   -0.30246   -1.12543
  2 Ni   -0.09771    0.01651   -0.01236
  3 Co    0.23354   -0.05025   -0.32424
  4 Al   -0.56071    0.34431    1.19100
  5 Ni    0.40946   -0.46977    0.52921
  6 Co   -0.06271    0.05575    1.01403
  7 Al   -0.62342    0.23112    0.09708
  8 Al   -0.70251   -0.18741    1.87042
  9 Fe    0.17083   -0.10542    0.94960
 10 Fe    0.02429   -0.47027    0.49207
 11 Fe    0.42510    0.50620    0.12609
 12 Ni    0.05559   -0.28309    0.00084
 13 Cr    0.32861   -0.14545    0.05284
 14 Co    0.45258    0.15053   -0.37718
 15 Fe    0.47839   -0.26657    0.66507
 16 Ni   -0.44008   -0.03666    0.15791
 17 Co   -0.55298    0.49558    0.22093
 18 Al   -1.05859   -0.44604   -0.26205
 19 Ni   -0.22893    0.12646   -0.20138
 20 Co    0.49116    0.16775    0.01191
 21 Al    0.87301   -0.51533   -0.31221
 22 Cr   -0.91871   -0.19962    0.26256
 23 Cr   -0.00896    0.07127   -0.11640
 24 Cr    0.17593    0.72150    0.52225
 25 Fe   -0.21813    0.39102   -0.87445
 26 Fe    0.25958    0.04693   -0.08091
 27 Ni   -0.64276    0.21672   -0.04624
 28 Fe   -0.24774    0.00143    0.17775
 29 Co    0.38098   -0.36487    0.39498
 30 Cr   -1.05115    1.02221   -0.24886
 31 Fe   -0.13116   -0.44184    0.41922
 32 Ni    0.03719    0.05408   -0.46614
 33 Co   -0.25022    0.27455    0.55504
 34 Cr    0.46209    0.78943   -0.33013
 35 Ni    0.18967    0.09626   -0.21285
 36 Fe   -0.17148   -0.26729   -0.03387
 37 Fe    0.21271    0.72105   -0.25260
 38 Cr    0.46368    0.24222    0.46085
 39 Al    1.24853    0.47804   -0.29476
 40 Al    1.68366    0.82683   -0.88284
 41 Co   -0.11760    0.04021   -0.67286
 42 Al   -0.84314    1.31248   -1.06392
 43 Cr   -0.40620   -0.24136   -0.47761
 44 Ni   -0.70264    0.24066   -0.14286
 45 Al    0.11728    1.22833   -0.26239
 46 Al   -0.24152   -0.29979   -0.79647
 47 Co   -0.21543    0.33428   -0.35283
 48 Fe   -0.41338    0.13166    0.30944
 49 Cr   -0.09709    0.05158    0.37564
 50 Cr    0.48719    0.46532    0.94281
 51 Cr    0.76740   -0.13127    0.36107
 52 Ni   -0.16928   -0.13601   -0.05587
 53 Co   -0.69438    0.10941    0.34377
 54 Ni   -0.06187   -0.53598   -0.13075
 55 Al   -1.43412   -0.12709    1.07012
 56 Ni    0.28974   -0.47357   -0.75335
 57 Cr    0.74067   -0.17751    0.63397
 58 Co    0.19019    0.41793   -0.21833
 59 Ni   -0.05830   -0.68360   -0.03033
[...]
 93 Co   -0.06101    0.34830    0.01930
 94 Fe   -0.23339   -0.21795    0.01037
 95 Ni    0.12282    0.02027    0.04301
 96 Ni    0.07134    0.08413    0.68830
 97 Cr   -0.01133   -0.93575    0.23244
 98 Ni   -0.36368   -0.11566   -0.05320
 99 Fe   -1.06662   -0.30141   -0.11652
100 Al   -0.48711   -0.89637   -0.54787
101 Cr   -0.33759   -0.38204    0.31616
102 Co   -0.15255   -0.53993   -0.00134
103 Al   -0.30054   -0.55360    0.88065
104 Cr    0.29940   -1.18965    0.44647
105 Al   -0.01440   -1.80139   -0.12129
106 Fe    0.76282    0.27287   -0.47355
107 Co    0.78619   -0.96081    0.39584

Date: Sat Apr 15 07:05:25 2023