User:   c.zeng@d0083
Date:   Thu Apr 13 20:07:07 2023
Arch:   x86_64
Pid:    161789
CWD:    /home/c.zeng/projects/hea-corrosion/hea-mlp/data-curation/bulk-md/dft-jobs/31
Python: 3.8.1
gpaw:   /home/c.zeng/usr/installs/gpaw/source/gpaw-22.8.0/gpaw
_gpaw:  /home/c.zeng/usr/installs/gpaw/source/gpaw-22.8.0/
        _gpaw.cpython-38-x86_64-linux-gnu.so
ase:    /home/c.zeng/.local/lib/python3.8/site-packages/ase-3.22.1-py3.8.egg/ase (version 3.22.1)
numpy:  /shared/centos7/python/3.8.1/lib/python3.8/site-packages/numpy (version 1.17.4)
scipy:  /shared/centos7/python/3.8.1/lib/python3.8/site-packages/scipy (version 1.4.1)
units:  Angstrom and eV
cores: 30
OpenMP: False
OMP_NUM_THREADS: 1

Input parameters:
  convergence: {energy: 0.0001}
  kpts: [2 2 2]
  maxiter: 666
  mode: {ecut: 350.0,
         name: pw}
  occupations: {fixmagmom: False,
                name: fermi-dirac,
                width: 0.1}
  spinpol: True
  xc: PBE

System changes: positions, numbers, cell, pbc, initial_charges, initial_magmoms

Initialize ...

species:
  Cr:
    name: Chromium
    id: 33f258bda2ca9f93018e70263a35547b
    Z: 24.0
    valence: 6
    core: 18
    charge: 0.0
    file: /home/c.zeng/usr/data/gpaw-setups-0.9.20000/Cr.PBE.gz
    compensation charges: {type: gauss,
                           rc: 0.35,
                           lmax: 2}
    cutoffs: {filter: 2.14,
              core: 3.04}
    valence states:
      #              energy  rcut
      - 4s(1.00)    -4.007   1.164
      - 4p(0.00)    -0.989   1.217
      - 3d(5.00)    -2.913   1.111
      -  s          23.205   1.164
      -  p          26.223   1.217
      -  d          24.299   1.111

    # Using partial waves for Cr as LCAO basis

  Al:
    name: Aluminium
    id: 0292cae29f5d6237e50f6abdd43a7bdd
    Z: 13.0
    valence: 3
    core: 10
    charge: 0.0
    file: /home/c.zeng/usr/data/gpaw-setups-0.9.20000/Al.PBE.gz
    compensation charges: {type: gauss,
                           rc: 0.34,
                           lmax: 2}
    cutoffs: {filter: 1.91,
              core: 2.36}
    valence states:
      #              energy  rcut
      - 3s(2.00)    -7.753   1.085
      - 3p(1.00)    -2.712   1.085
      -  s          19.459   1.085
      -  p          24.499   1.085
      -  d           0.000   1.085

[...]

  Co:
    name: Cobalt
    id: 339d20d5b0b93d2de9531a1bee871d91
    Z: 27.0
    valence: 9
    core: 18
    charge: 0.0
    file: /home/c.zeng/usr/data/gpaw-setups-0.9.20000/Co.PBE.gz
    compensation charges: {type: gauss,
                           rc: 0.32,
                           lmax: 2}
    cutoffs: {filter: 1.87,
              core: 2.55}
    valence states:
      #              energy  rcut
      - 4s(2.00)    -5.469   1.005
      - 4p(0.00)    -1.277   1.058
      - 3d(7.00)    -8.205   1.005
      -  s          21.742   1.005
      -  p          25.934   1.058
      -  d          19.007   1.005

[...]

  Fe:
    name: Iron
    id: 37abbd8d6c3c35915a9b583b742da910
    Z: 26.0
    valence: 8
    core: 18
    charge: 0.0
    file: /home/c.zeng/usr/data/gpaw-setups-0.9.20000/Fe.PBE.gz
    compensation charges: {type: gauss,
                           rc: 0.33,
                           lmax: 2}
    cutoffs: {filter: 2.06,
              core: 2.67}
    valence states:
      #              energy  rcut
      - 4s(2.00)    -5.291   1.164
      - 4p(0.00)    -1.326   1.058
      - 3d(6.00)    -7.505   1.058
      -  s          21.920   1.164
      -  p          25.885   1.058
      -  d          19.706   1.058

[...]

  Ni:
    name: Nickel
    id: 0d9f38a9d6e76a2886f07bb4381f212b
    Z: 28.0
    valence: 16
    core: 12
    charge: 0.0
    file: /home/c.zeng/usr/data/gpaw-setups-0.9.20000/Ni.PBE.gz
    compensation charges: {type: gauss,
                           rc: 0.36,
                           lmax: 2}
    cutoffs: {filter: 2.14,
              core: 1.98}
    valence states:
      #              energy  rcut
      - 4s(2.00)    -5.642   1.164
      - 3p(6.00)   -71.394   1.207
      - 4p(0.00)    -1.226   1.207
      - 3d(8.00)    -8.875   1.138
      -  s          21.570   1.164
      -  d          18.337   1.138

    # Using partial waves for Ni as LCAO basis

Reference energy: -3699400.456887  # eV

Spin-polarized calculation.
Magnetic moment: 143.500000

Convergence criteria:
 Maximum [total energy] change in last 3 cyles: 0.0001 eV / electron
 Maximum integral of absolute [dens]ity change: 0.0001 electrons / valence electron
 Maximum integral of absolute [eigenst]ate change: 4e-08 eV^2 / valence electron
 Maximum number of scf [iter]ations: 666
 (Square brackets indicate name in SCF output, whereas a 'c' in
 the SCF output indicates the quantity has converged.)

Symmetries present (total): 1

  ( 1  0  0)
  ( 0  1  0)
  ( 0  0  1)

8 k-points: 2 x 2 x 2 Monkhorst-Pack grid
4 k-points in the irreducible part of the Brillouin zone
       k-points in crystal coordinates                weights
   0:     0.25000000   -0.25000000   -0.25000000          2/8
   1:     0.25000000   -0.25000000    0.25000000          2/8
   2:     0.25000000    0.25000000   -0.25000000          2/8
   3:     0.25000000    0.25000000    0.25000000          2/8

Wave functions: Plane wave expansion
  Cutoff energy: 350.000 eV
  Number of coefficients (min, max): 18052, 18052
  Pulay-stress correction: 0.000000 eV/Ang^3 (de/decut=0.000000)
  Using FFTW library
  ScaLapack parameters: grid=1x1, blocksize=None
  Wavefunction extrapolation:
    Improved wavefunction reuse through dual PAW basis

Occupation numbers: Fermi-Dirac:
  width: 0.1000  # eV

Eigensolver
   Davidson(niter=2)

Densities:
  Coarse grid: 48*48*48 grid
  Fine grid: 96*96*96 grid
  Total Charge: 0.000000

Density mixing:
  Method: difference
  Backend: pulay
  Linear mixing parameter: 0.05
  old densities: 5
  Damping of long wavelength oscillations: 50

Hamiltonian:
  XC and Coulomb potentials evaluated on a 96*96*96 grid
  Using the PBE Exchange-Correlation functional
  External potential:
    NoExternalPotential

XC parameters: PBE with 2 nearest neighbor stencil

Total number of cores used: 30
Parallelization over k-points: 2
Domain decomposition: 5 x 3 x 1

Number of atoms: 108
Number of atomic orbitals: 1025
Number of bands in calculation: 703
Number of valence electrons: 1020
Bands to converge: occupied

... initialized

Initializing position-dependent things.

Density initialized from atomic densities
Creating initial wave functions:
  703 bands from LCAO basis set

        .--------Fe---------------.
       /|                   Cr    |
     /  |Fe     Cr      Fe      Cri
    /   |        Co       Cr      Cr
   /    | NiFe     CFe     Cr     |
  /     |    Co     CNi     NiNi  |
 *    FCo     NiNi    Co CoCr     |
 |Fe    |CCr   CoNi Co  AlCr      |
 | NiFe | FCo Al  NiNiCo FeNi     |
 |    Cr|  NiCCo    FFe Cr  FeFe  |
 |     Ni Cr CrCFe Cr  NiNi  NiCr |
 |     NiNiNi  Co CrCo  CrFe      |
 | Coe  .-Fe--Ni---CoCo----Cr-----.
 |   Cr/   NCre     CrNFei       /
 |    Fe  Co  CAlCr     ACo     /
 Fe  /  Fe                     /
 |  Co     Cr       Co      Al/
 | /          Ni        Fe   /
 |/    Co       Fe          /
 *----------------Cr-------*

Positions:
   0 Cr    -0.020073    0.067599   10.644298    ( 0.0000,  0.0000,  0.0000)
   1 Al    10.650527    1.777935    1.691482    ( 0.0000,  0.0000,  0.0000)
   2 Cr     1.911596   10.564013    1.709964    ( 0.0000,  0.0000,  0.0000)
   3 Co     1.855133    1.652384   10.775259    ( 0.0000,  0.0000,  2.1000)
   4 Fe     3.623460   -0.120460   -0.136972    ( 0.0000,  0.0000,  2.0000)
   5 Cr     3.662263    1.677417    1.649084    ( 0.0000,  0.0000,  0.0000)
   6 Ni     5.319794   10.699538    1.676278    ( 0.0000,  0.0000,  1.5000)
   7 Fe     5.468239    1.931487    0.092032    ( 0.0000,  0.0000,  2.0000)
   8 Cr     7.035264    0.032855    0.166916    ( 0.0000,  0.0000,  0.0000)
   9 Co     7.160000    1.674591    1.848100    ( 0.0000,  0.0000,  2.1000)
  10 Ni     8.792776   10.526250    1.640982    ( 0.0000,  0.0000,  1.5000)
  11 Fe     8.925845    2.007554   10.864828    ( 0.0000,  0.0000,  2.0000)
  12 Co     0.089816    3.839970   10.722829    ( 0.0000,  0.0000,  2.1000)
  13 Co     0.099784    5.496282    1.715137    ( 0.0000,  0.0000,  2.1000)
  14 Fe     1.841877    3.524507    1.682699    ( 0.0000,  0.0000,  2.0000)
  15 Fe     1.891598    5.451081   -0.027017    ( 0.0000,  0.0000,  2.0000)
  16 Fe     3.752578    3.541620   -0.039174    ( 0.0000,  0.0000,  2.0000)
  17 Fe     3.475720    5.427609    1.769605    ( 0.0000,  0.0000,  2.0000)
  18 Cr     5.447196    3.497877    1.874737    ( 0.0000,  0.0000,  0.0000)
  19 Co     5.398042    5.065085   -0.154669    ( 0.0000,  0.0000,  2.1000)
  20 Fe     7.060983    3.464509   10.541455    ( 0.0000,  0.0000,  2.0000)
  21 Ni     6.973254    5.440563    1.783026    ( 0.0000,  0.0000,  1.5000)
  22 Co     8.745694    3.678327    1.951845    ( 0.0000,  0.0000,  2.1000)
  23 Cr     8.759609    5.278308   -0.002047    ( 0.0000,  0.0000,  0.0000)
  24 Cr    -0.064905    7.124814   -0.404134    ( 0.0000,  0.0000,  0.0000)
  25 Ni     0.031702    8.973030    1.921976    ( 0.0000,  0.0000,  1.5000)
  26 Fe     1.796483    7.160143    1.871037    ( 0.0000,  0.0000,  2.0000)
  27 Ni     1.563962    8.744678   10.772897    ( 0.0000,  0.0000,  1.5000)
  28 Co     3.593427    7.051703    0.077081    ( 0.0000,  0.0000,  2.1000)
  29 Co     3.311899    8.774784    1.897443    ( 0.0000,  0.0000,  2.1000)
  30 Co     5.395691    7.100382    1.886614    ( 0.0000,  0.0000,  2.1000)
  31 Cr     5.450748    8.742690    0.213264    ( 0.0000,  0.0000,  0.0000)
  32 Al     7.329119    7.125212   10.698233    ( 0.0000,  0.0000,  0.0000)
  33 Cr     6.948659    8.802000    1.876858    ( 0.0000,  0.0000,  0.0000)
  34 Cr     8.810272    6.979458    1.864381    ( 0.0000,  0.0000,  0.0000)
  35 Cr     8.791155    8.962656   10.487799    ( 0.0000,  0.0000,  0.0000)
  36 Fe    10.838664   10.675349    3.400687    ( 0.0000,  0.0000,  2.0000)
  37 Co    10.846666    1.884384    5.008068    ( 0.0000,  0.0000,  2.1000)
  38 Cr     1.691886   10.770824    5.235565    ( 0.0000,  0.0000,  0.0000)
  39 Fe     1.763436    1.766269    3.345805    ( 0.0000,  0.0000,  2.0000)
  40 Co     3.510961   10.830166    3.627153    ( 0.0000,  0.0000,  2.1000)
  41 Ni     3.515417    1.700321    5.293856    ( 0.0000,  0.0000,  1.5000)
  42 Ni     5.429062    0.361397    5.348345    ( 0.0000,  0.0000,  1.5000)
  43 Al     5.353641    1.763182    3.423043    ( 0.0000,  0.0000,  0.0000)
  44 Fe     7.190881   10.601098    3.620379    ( 0.0000,  0.0000,  2.0000)
  45 Co     7.259422    1.693968    5.273377    ( 0.0000,  0.0000,  2.1000)
  46 Fe     9.122320   10.802526    5.153365    ( 0.0000,  0.0000,  2.0000)
  47 Ni     9.010366    1.858243    3.532904    ( 0.0000,  0.0000,  1.5000)
  48 Fe     0.124150    3.729918    3.367493    ( 0.0000,  0.0000,  2.0000)
  49 Fe    10.574534    5.241760    5.439022    ( 0.0000,  0.0000,  2.0000)
  50 Ni     1.641471    3.603876    5.193723    ( 0.0000,  0.0000,  1.5000)
  51 Ni     1.825721    5.466846    3.450363    ( 0.0000,  0.0000,  1.5000)
[...]
                         energy  eigst   dens
iter:   1 20:13:16 -1042.302343                  +143.7780
iter:   2 20:16:05  -925.335330  -0.24  -1.20    +81.7620
iter:   3 20:18:53  -909.648563  -0.90  -1.22    +69.0902
iter:   4 20:21:42  -884.800726  -1.33  -1.29    +64.9173
iter:   5 20:24:30  -872.762416  -1.60  -1.33    +61.6415
iter:   6 20:27:19  -873.968606  -1.23  -1.39    +62.2266
iter:   7 20:30:07  -874.680369  -1.28  -1.48    +61.1639
iter:   8 20:32:56  -857.501893  -1.66  -1.52    +59.9631
iter:   9 20:35:44  -855.623893  -2.10  -1.74    +60.9653
iter:  10 20:38:32  -855.809519  -2.52  -1.83    +61.8591
iter:  11 20:41:19  -856.007199  -2.49  -1.84    +63.5284
iter:  12 20:44:04  -857.360618  -2.50  -1.90    +64.6820
iter:  13 20:46:53  -857.357500  -2.41  -1.92    +65.3893
iter:  14 20:49:42  -856.896747  -2.55  -1.97    +66.1222
iter:  15 20:52:30  -857.434841  -2.66  -2.06    +66.7802
iter:  16 20:55:20  -856.516686  -2.84  -2.04    +66.9111
iter:  17 20:58:08  -856.596686  -3.09  -2.17    +67.6592
iter:  18 21:00:57  -856.317423  -3.25  -2.17    +68.1086
iter:  19 21:03:45  -856.479191  -3.23  -2.29    +68.5098
iter:  20 21:06:33  -856.491244  -3.27  -2.32    +68.6996
iter:  21 21:09:21  -856.473996c -3.34  -2.34    +68.9947
iter:  22 21:12:09  -856.367857  -3.39  -2.38    +69.1936
iter:  23 21:14:57  -856.302563  -3.51  -2.45    +69.2521
iter:  24 21:17:46  -856.320892c -3.57  -2.52    +69.4137
iter:  25 21:20:34  -856.279531c -3.81  -2.55    +69.5728
iter:  26 21:23:22  -856.291257c -3.74  -2.61    +69.6075
iter:  27 21:26:11  -856.289966c -3.87  -2.63    +69.6907
iter:  28 21:28:58  -856.269409c -3.97  -2.65    +69.7579
iter:  29 21:31:47  -856.271355c -4.20  -2.71    +69.7789
iter:  30 21:34:35  -856.287975c -4.28  -2.74    +69.8296
iter:  31 21:37:24  -856.280193c -4.31  -2.75    +69.8590
iter:  32 21:40:12  -856.291226c -4.35  -2.80    +69.8388
iter:  33 21:43:00  -856.285391c -4.48  -2.83    +69.8785
iter:  34 21:45:48  -856.293005c -4.67  -2.89    +69.8698
iter:  35 21:48:36  -856.301194c -4.59  -2.92    +69.8570
iter:  36 21:51:24  -856.311719c -4.46  -2.95    +69.8591
iter:  37 21:54:08  -856.307792c -4.61  -2.97    +69.8402
iter:  38 21:56:56  -856.309630c -4.76  -3.03    +69.8179
iter:  39 21:59:45  -856.315761c -4.86  -3.09    +69.8152
iter:  40 22:02:34  -856.322183c -4.79  -3.13    +69.7886
iter:  41 22:05:23  -856.324190c -4.93  -3.14    +69.7746
iter:  42 22:08:11  -856.332938c -4.84  -3.20    +69.7495
iter:  43 22:10:59  -856.332281c -5.01  -3.19    +69.7238
iter:  44 22:13:48  -856.335863c -5.07  -3.25    +69.7001
iter:  45 22:16:36  -856.340340c -5.10  -3.29    +69.6837
iter:  46 22:19:25  -856.340769c -5.27  -3.33    +69.6523
iter:  47 22:22:12  -856.344502c -5.32  -3.37    +69.6377
iter:  48 22:25:01  -856.348057c -5.32  -3.41    +69.6070
iter:  49 22:27:49  -856.349154c -5.38  -3.41    +69.5740
iter:  50 22:30:35  -856.350824c -5.49  -3.45    +69.5547
iter:  51 22:33:22  -856.353556c -5.47  -3.47    +69.5351
iter:  52 22:36:10  -856.355425c -5.55  -3.53    +69.5051
iter:  53 22:38:58  -856.361387c -5.18  -3.55    +69.4644
iter:  54 22:41:47  -856.361988c -5.69  -3.56    +69.4486
iter:  55 22:44:35  -856.364509c -5.54  -3.59    +69.4058
iter:  56 22:47:23  -856.365607c -5.73  -3.62    +69.3980
iter:  57 22:50:11  -856.367957c -5.57  -3.62    +69.3728
iter:  58 22:53:00  -856.369192c -5.57  -3.70    +69.3471
iter:  59 22:55:48  -856.372018c -5.57  -3.74    +69.3353
iter:  60 22:58:36  -856.373190c -5.82  -3.77    +69.3163
iter:  61 23:01:26  -856.376467c -5.44  -3.80    +69.2717
iter:  62 23:04:14  -856.377624c -5.83  -3.79    +69.2605
iter:  63 23:07:05  -856.382579c -5.14  -3.79    +69.2077
iter:  64 23:09:54  -856.376481c -5.26  -3.69    +69.2648
iter:  65 23:12:42  -856.382876c -5.24  -3.78    +69.2177
iter:  66 23:15:30  -856.382097c -6.39  -3.73    +69.2289
iter:  67 23:18:18  -856.382882c -6.32  -3.77    +69.2156
iter:  68 23:21:07  -856.384682c -5.99  -3.78    +69.2029
iter:  69 23:23:54  -856.387444c -5.50  -3.77    +69.1457
iter:  70 23:26:43  -856.386759c -6.42  -3.74    +69.1598
iter:  71 23:29:31  -856.388423c -5.92  -3.75    +69.1364
iter:  72 23:32:20  -856.388053c -6.84  -3.68    +69.1496
iter:  73 23:35:07  -856.390180c -5.71  -3.69    +69.1220
iter:  74 23:37:50  -856.391571c -5.73  -3.67    +69.1241
iter:  75 23:40:38  -856.393126c -5.91  -3.77    +69.1117
iter:  76 23:43:27  -856.393211c -5.95  -3.68    +69.0847
iter:  77 23:46:15  -856.394844c -5.71  -3.78    +69.0484
iter:  78 23:49:04  -856.394634c -6.31  -3.74    +69.0458
iter:  79 23:51:52  -856.395783c -6.02  -3.84    +69.0210
iter:  80 23:54:41  -856.396239c -5.93  -3.86    +69.0069
iter:  81 23:57:29  -856.396829c -6.05  -3.95    +68.9920
iter:  82 00:00:17  -856.398246c -6.10  -3.96    +68.9779
iter:  83 00:03:05  -856.398217c -6.54  -3.97    +68.9738
iter:  84 00:05:53  -856.399483c -6.06  -4.01c   +68.9485
iter:  85 00:08:39  -856.397898c -6.21  -4.01c   +68.9740
iter:  86 00:11:26  -856.395152c -5.42  -4.03c   +69.0209
iter:  87 00:14:13  -856.395413c -6.62  -4.05c   +69.0021
iter:  88 00:17:01  -856.395591c -6.74  -4.08c   +68.9963
iter:  89 00:19:49  -856.396655c -6.48  -4.10c   +68.9874
iter:  90 00:22:38  -856.397103c -6.58  -4.13c   +68.9805
iter:  91 00:25:26  -856.397409c -6.89  -4.17c   +68.9756
iter:  92 00:28:14  -856.398839c -6.11  -4.18c   +68.9540
iter:  93 00:31:02  -856.399388c -6.36  -4.19c   +68.9391
iter:  94 00:33:50  -856.399377c -7.26  -4.22c   +68.9361
iter:  95 00:36:38  -856.400091c -6.42  -4.24c   +68.9079
iter:  96 00:39:26  -856.398903c -6.13  -4.19c   +68.9651
iter:  97 00:42:14  -856.398797c -6.27  -4.15c   +68.9925
iter:  98 00:45:02  -856.400003c -6.28  -4.19c   +68.9486
iter:  99 00:47:51  -856.398740c -6.03  -4.23c   +69.0067
iter: 100 00:50:38  -856.401065c -5.83  -4.15c   +68.9402
iter: 101 00:53:27  -856.399107c -5.98  -4.16c   +68.9991
iter: 102 00:56:12  -856.399561c -6.91  -4.17c   +68.9833
iter: 103 00:58:59  -856.399268c -6.85  -4.17c   +68.9878
iter: 104 01:01:48  -856.398087c -5.09  -4.26c   +68.9880
iter: 105 01:04:35  -856.398651c -6.01  -4.06c   +68.9611
iter: 106 01:07:24  -856.399406c -6.39  -4.06c   +68.9456
iter: 107 01:10:12  -856.399282c -7.26  -4.08c   +68.9458
iter: 108 01:13:00  -856.400745c -6.07  -4.05c   +68.9207
iter: 109 01:15:48  -856.397870c -5.52  -4.06c   +68.9680
iter: 110 01:18:37  -856.400462c -5.81  -4.12c   +68.9303
iter: 111 01:21:24  -856.400067c -6.93  -4.14c   +68.9344
iter: 112 01:24:13  -856.401062c -6.33  -4.27c   +68.9212
iter: 113 01:27:01  -856.402592c -5.99  -4.26c   +68.9041
iter: 114 01:29:49  -856.401657c -6.79  -4.20c   +68.9147
iter: 115 01:32:38  -856.403663c -5.97  -4.23c   +68.8936
iter: 116 01:35:26  -856.399184c -5.24  -4.11c   +68.9452
iter: 117 01:38:13  -856.393438c -4.76  -4.27c   +69.0113
iter: 118 01:41:00  -856.392417c -5.33  -4.07c   +69.0326
iter: 119 01:43:45  -856.389086c -4.56  -3.99    +69.1297
iter: 120 01:46:34  -856.389237c -4.92  -3.77    +69.1891
iter: 121 01:49:22  -856.389825c -5.67  -3.70    +69.1989
iter: 122 01:52:11  -856.389871c -5.96  -3.69    +69.1950
iter: 123 01:54:59  -856.390461c -6.06  -3.69    +69.2142
iter: 124 01:57:47  -856.392880c -5.56  -3.71    +69.2470
iter: 125 02:00:36  -856.391023c -5.28  -3.61    +69.2310
iter: 126 02:03:25  -856.390962c -5.69  -3.60    +69.2544
iter: 127 02:06:14  -856.391478c -5.83  -3.76    +69.2699
iter: 128 02:09:03  -856.391756c -6.16  -3.83    +69.2756
iter: 129 02:11:52  -856.392036c -6.00  -3.84    +69.2880
iter: 130 02:14:40  -856.392491c -6.05  -3.93    +69.2959
iter: 131 02:17:28  -856.392997c -6.14  -3.94    +69.2985
iter: 132 02:20:17  -856.393026c -6.06  -4.00c   +69.2971
iter: 133 02:23:06  -856.393360c -6.30  -3.95    +69.3002
iter: 134 02:25:53  -856.393950c -6.21  -4.06c   +69.3109
iter: 135 02:28:40  -856.394467c -6.42  -4.04c   +69.3109
iter: 136 02:31:24  -856.394615c -6.66  -4.18c   +69.3119
iter: 137 02:34:13  -856.395332c -6.43  -4.25c   +69.3167
iter: 138 02:37:02  -856.396165c -6.26  -4.25c   +69.3199
iter: 139 02:39:50  -856.386044c -4.24  -4.20c   +69.2699
iter: 140 02:42:37  -856.383469c -4.65  -3.92    +69.2579
iter: 141 02:45:26  -856.385312c -5.69  -3.78    +69.2690
iter: 142 02:48:14  -856.385311c -6.34  -3.86    +69.2695
iter: 143 02:51:03  -856.385821c -6.39  -3.86    +69.2767
iter: 144 02:53:51  -856.388011c -5.42  -3.88    +69.3096
iter: 145 02:56:39  -856.388752c -5.71  -3.92    +69.3268
iter: 146 02:59:27  -856.389134c -5.91  -3.94    +69.3160
iter: 147 03:02:15  -856.389961c -5.79  -3.81    +69.3363
iter: 148 03:05:04  -856.389173c -6.15  -3.89    +69.3198
iter: 149 03:07:51  -856.389867c -6.13  -4.04c   +69.3295
iter: 150 03:10:40  -856.389702c -6.67  -4.00c   +69.3322
iter: 151 03:13:28  -856.390604c -6.44  -4.22c   +69.3408
iter: 152 03:16:16  -856.390390c -6.66  -4.23c   +69.3408
iter: 153 03:19:04  -856.391048c -6.47  -4.21c   +69.3479
iter: 154 03:21:51  -856.391409c -6.67  -4.24c   +69.3504
iter: 155 03:24:37  -856.391731c -6.45  -4.40c   +69.3497
iter: 156 03:27:26  -856.392095c -6.52  -4.17c   +69.3493
iter: 157 03:30:15  -856.392193c -6.89  -4.44c   +69.3492
iter: 158 03:33:03  -856.392868c -6.58  -4.56c   +69.3525
iter: 159 03:35:52  -856.392496c -7.37  -4.58c   +69.3529
iter: 160 03:38:40  -856.391412c -6.05  -4.67c   +69.3609
iter: 161 03:41:29  -856.391831c -7.30  -4.56c   +69.3570
iter: 162 03:44:17  -856.391908c -7.96c -4.65c   +69.3568

Converged after 162 iterations.

Dipole moment: (-16.847596, -27.972599, -2.912411) |e|*Ang

Total magnetic moment: (0.000000, 0.000000, 69.356814)
Local magnetic moments:
   0 Cr ( 0.000000,  0.000000, -1.068480)
   1 Al ( 0.000000,  0.000000, -0.040263)
   2 Cr ( 0.000000,  0.000000, -1.082592)
   3 Co ( 0.000000,  0.000000,  0.187333)
   4 Fe ( 0.000000,  0.000000,  1.474164)
   5 Cr ( 0.000000,  0.000000, -0.813153)
   6 Ni ( 0.000000,  0.000000,  0.143419)
   7 Fe ( 0.000000,  0.000000,  1.587578)
   8 Cr ( 0.000000,  0.000000, -0.879369)
   9 Co ( 0.000000,  0.000000,  0.962637)
  10 Ni ( 0.000000,  0.000000,  0.072418)
  11 Fe ( 0.000000,  0.000000,  2.278368)
  12 Co ( 0.000000,  0.000000,  1.462244)
  13 Co ( 0.000000,  0.000000,  1.159910)
  14 Fe ( 0.000000,  0.000000,  2.036991)
  15 Fe ( 0.000000,  0.000000,  2.362958)
  16 Fe ( 0.000000,  0.000000,  2.134118)
  17 Fe ( 0.000000,  0.000000,  2.199075)
  18 Cr ( 0.000000,  0.000000, -0.865611)
  19 Co ( 0.000000,  0.000000,  1.176683)
  20 Fe ( 0.000000,  0.000000,  1.995029)
  21 Ni ( 0.000000,  0.000000,  0.106844)
  22 Co ( 0.000000,  0.000000,  1.392922)
  23 Cr ( 0.000000,  0.000000, -0.923695)
  24 Cr ( 0.000000,  0.000000,  0.347389)
  25 Ni ( 0.000000,  0.000000,  0.236720)
  26 Fe ( 0.000000,  0.000000,  2.323252)
  27 Ni ( 0.000000,  0.000000,  0.160789)
  28 Co ( 0.000000,  0.000000,  1.227197)
  29 Co ( 0.000000,  0.000000,  1.075606)
  30 Co ( 0.000000,  0.000000,  0.953185)
  31 Cr ( 0.000000,  0.000000,  0.681824)
  32 Al ( 0.000000,  0.000000,  0.002530)
  33 Cr ( 0.000000,  0.000000, -0.786849)
  34 Cr ( 0.000000,  0.000000, -0.623558)
  35 Cr ( 0.000000,  0.000000,  0.926218)
  36 Fe ( 0.000000,  0.000000,  1.903425)
  37 Co ( 0.000000,  0.000000,  1.133263)
  38 Cr ( 0.000000,  0.000000, -0.881777)
  39 Fe ( 0.000000,  0.000000,  1.792956)
  40 Co ( 0.000000,  0.000000,  1.003948)
  41 Ni ( 0.000000,  0.000000,  0.180857)
  42 Ni ( 0.000000,  0.000000,  0.270466)
  43 Al ( 0.000000,  0.000000, -0.023221)
  44 Fe ( 0.000000,  0.000000,  2.207992)
  45 Co ( 0.000000,  0.000000,  1.340409)
  46 Fe ( 0.000000,  0.000000,  2.208436)
  47 Ni ( 0.000000,  0.000000,  0.485104)
  48 Fe ( 0.000000,  0.000000,  2.459786)
  49 Fe ( 0.000000,  0.000000,  2.316227)
  50 Ni ( 0.000000,  0.000000,  0.490912)
  51 Ni ( 0.000000,  0.000000,  0.459373)
  52 Cr ( 0.000000,  0.000000,  0.564600)
  53 Co ( 0.000000,  0.000000,  1.405364)
  54 Fe ( 0.000000,  0.000000,  2.252646)
  55 Cr ( 0.000000,  0.000000, -1.543844)
  56 Co ( 0.000000,  0.000000,  1.001834)
  57 Fe ( 0.000000,  0.000000,  1.892995)
  58 Ni ( 0.000000,  0.000000,  0.384529)
  59 Fe ( 0.000000,  0.000000,  1.864762)
[...]
  93 Ni ( 0.000000,  0.000000,  0.091107)
  94 Co ( 0.000000,  0.000000,  1.044972)
  95 Cr ( 0.000000,  0.000000, -1.683362)
  96 Fe ( 0.000000,  0.000000,  2.252682)
  97 Ni ( 0.000000,  0.000000,  0.195425)
  98 Ni ( 0.000000,  0.000000,  0.396019)
  99 Fe ( 0.000000,  0.000000,  2.254470)
 100 Ni ( 0.000000,  0.000000,  0.421246)
 101 Cr ( 0.000000,  0.000000, -1.364757)
 102 Cr ( 0.000000,  0.000000, -1.417157)
 103 Cr ( 0.000000,  0.000000,  0.785638)
 104 Co ( 0.000000,  0.000000,  0.791782)
 105 Fe ( 0.000000,  0.000000,  1.183342)
 106 Cr ( 0.000000,  0.000000,  0.641696)
 107 Ni ( 0.000000,  0.000000,  0.077986)

Energy contributions relative to reference atoms: (reference = -3699400.456887)

Kinetic:       +343.279958
Potential:     -354.141809
External:        +0.000000
XC:            -880.724668
Entropy (-ST):   -4.620199
Local:          +37.504710
Free energy:   -858.702007
Extrapolated:  -856.391908

Spin contamination: 23.020365 electrons
Showing only first 2 kpts
                      Up                     Down
 Kpt  Band  Eigenvalues  Occupancy  Eigenvalues  Occupancy
  0   508      9.64651    0.99554     10.59319    0.01699
  0   509      9.65727    0.99504     10.59945    0.01597
  0   510      9.66775    0.99449     10.62001    0.01304
  0   511      9.68747    0.99330     10.62724    0.01215

  1   508      9.64645    0.99555     10.58905    0.01770
  1   509      9.66205    0.99480     10.60660    0.01489
  1   510      9.67499    0.99408     10.61072    0.01430
  1   511      9.68348    0.99356     10.61711    0.01342

Fermi level: 10.18738

No gap

Forces in eV/Ang:
  0 Cr   -0.28569   -1.44106   -1.00881
  1 Al    0.14540    0.84464    0.88389
  2 Cr   -0.11503   -0.06769    0.40766
  3 Co    0.21575    0.78482    0.28260
  4 Fe   -1.07030   -0.20529    1.54496
  5 Cr   -1.28164    0.60758   -0.54664
  6 Ni   -0.51287   -0.46618    0.87316
  7 Fe   -0.98402   -1.69038   -0.56194
  8 Cr    0.69463    0.00736   -1.84931
  9 Co    0.43841    0.70343    0.00871
 10 Ni    0.70812    0.42667    1.13770
 11 Fe   -1.04551   -1.00695   -1.47438
 12 Co   -0.93258   -0.85320   -0.02497
 13 Co   -0.97749    0.25974    0.07335
 14 Fe    0.40659    0.82063   -0.32297
 15 Fe   -0.60885   -0.93280   -0.09212
 16 Fe   -2.04606   -0.23312    0.40570
 17 Fe    1.63862   -1.03724    0.05199
 18 Cr   -0.45842    1.73057   -1.14848
 19 Co   -0.51211    1.88003    1.74553
 20 Fe    0.69003    0.90559    0.82706
 21 Ni    0.86706   -0.76770   -0.33605
 22 Co    0.83618    0.62116   -0.98954
 23 Cr    1.85444   -0.62133    0.11411
 24 Cr   -1.60634   -2.37516    3.23121
 25 Ni   -0.59884   -1.40541   -1.03171
 26 Fe   -1.27556    0.03928   -0.04357
 27 Ni    1.31157    0.64847   -1.26616
 28 Co    0.45449    0.23164   -0.39147
 29 Co    1.96054    1.00711   -0.78894
 30 Co   -1.08597    0.08358   -0.30833
 31 Cr   -0.73825    1.09941   -1.01360
 32 Al   -2.63908   -0.59134   -0.94471
 33 Cr    1.12835    0.65985    0.42065
 34 Cr    1.53166    0.77065    0.16100
 35 Cr    0.84532    0.29779    1.23137
 36 Fe   -0.84251   -0.02568    0.91496
 37 Co   -1.26068   -0.41277    1.43813
 38 Cr    0.01979   -0.04474    0.43081
 39 Fe    1.00733    0.26814    0.60912
 40 Co   -0.06736   -1.46761   -0.97566
 41 Ni   -0.84565    1.67841    0.39885
 42 Ni   -0.92387   -2.45493    0.12714
 43 Al    1.20710   -1.65231    1.97223
 44 Fe    0.03053    0.94481   -1.30049
 45 Co    0.50178    1.27888    0.13950
 46 Fe   -0.57690   -0.58423    1.05317
 47 Ni   -0.75955   -0.10460   -0.47266
 48 Fe   -1.26121   -0.08232    0.33518
 49 Fe    0.34456    0.20004   -0.13124
 50 Ni    1.59362    0.45029    0.57967
 51 Ni   -0.46303   -1.06829    1.11004
 52 Cr   -0.89748    1.06881   -0.15370
 53 Co    0.03500   -0.15492    0.71578
 54 Fe   -0.66054   -0.29048   -0.66148
 55 Cr   -1.48030   -0.97428    0.73520
 56 Co    0.40078   -0.61129    0.86057
 57 Fe    0.47436    1.82078   -0.86415
 58 Ni    0.73964   -0.78382   -0.26022
 59 Fe   -0.72171   -1.47581   -0.42021
[...]
 93 Ni    0.59387    0.70493    0.18452
 94 Co    0.18943   -1.70077   -1.46844
 95 Cr    0.91315   -0.60821   -0.28588
 96 Fe   -0.90968    0.10230    1.22471
 97 Ni    0.23290    2.45731   -1.80492
 98 Ni    0.22445    0.75084    0.10967
 99 Fe    0.96034    0.74099   -1.14811
100 Ni    1.13950    0.55492   -0.76347
101 Cr   -0.61373    0.07722   -0.38628
102 Cr   -0.01319    0.47546   -0.61002
103 Cr   -1.91838    0.89756    0.62295
104 Co    0.26178    0.58426    0.75477
105 Fe   -0.16244   -0.09466    0.28983
106 Cr    0.15630   -0.96644    0.48564
107 Ni    1.32444    1.79434   -0.07880

Date: Fri Apr 14 03:44:39 2023