User:   c.zeng@d0127
Date:   Sat Apr 15 13:04:05 2023
Arch:   x86_64
Pid:    172531
CWD:    /home/c.zeng/projects/hea-corrosion/hea-mlp/data-curation/bulk-mcmc/dft-jobs/40
Python: 3.8.1
gpaw:   /home/c.zeng/usr/installs/gpaw/source/gpaw-22.8.0/gpaw
_gpaw:  /home/c.zeng/usr/installs/gpaw/source/gpaw-22.8.0/
        _gpaw.cpython-38-x86_64-linux-gnu.so
ase:    /home/c.zeng/.local/lib/python3.8/site-packages/ase-3.22.1-py3.8.egg/ase (version 3.22.1)
numpy:  /shared/centos7/python/3.8.1/lib/python3.8/site-packages/numpy (version 1.17.4)
scipy:  /shared/centos7/python/3.8.1/lib/python3.8/site-packages/scipy (version 1.4.1)
units:  Angstrom and eV
cores: 30
OpenMP: False
OMP_NUM_THREADS: 1

Input parameters:
  convergence: {energy: 0.0001}
  kpts: [2 2 2]
  maxiter: 666
  mode: {ecut: 350.0,
         name: pw}
  occupations: {fixmagmom: False,
                name: fermi-dirac,
                width: 0.1}
  spinpol: True
  xc: PBE

System changes: positions, numbers, cell, pbc, initial_charges, initial_magmoms

Initialize ...

species:
  Co:
    name: Cobalt
    id: 339d20d5b0b93d2de9531a1bee871d91
    Z: 27.0
    valence: 9
    core: 18
    charge: 0.0
    file: /home/c.zeng/usr/data/gpaw-setups-0.9.20000/Co.PBE.gz
    compensation charges: {type: gauss,
                           rc: 0.32,
                           lmax: 2}
    cutoffs: {filter: 1.87,
              core: 2.55}
    valence states:
      #              energy  rcut
      - 4s(2.00)    -5.469   1.005
      - 4p(0.00)    -1.277   1.058
      - 3d(7.00)    -8.205   1.005
      -  s          21.742   1.005
      -  p          25.934   1.058
      -  d          19.007   1.005

    # Using partial waves for Co as LCAO basis

  Fe:
    name: Iron
    id: 37abbd8d6c3c35915a9b583b742da910
    Z: 26.0
    valence: 8
    core: 18
    charge: 0.0
    file: /home/c.zeng/usr/data/gpaw-setups-0.9.20000/Fe.PBE.gz
    compensation charges: {type: gauss,
                           rc: 0.33,
                           lmax: 2}
    cutoffs: {filter: 2.06,
              core: 2.67}
    valence states:
      #              energy  rcut
      - 4s(2.00)    -5.291   1.164
      - 4p(0.00)    -1.326   1.058
      - 3d(6.00)    -7.505   1.058
      -  s          21.920   1.164
      -  p          25.885   1.058
      -  d          19.706   1.058

[...]

  Cr:
    name: Chromium
    id: 33f258bda2ca9f93018e70263a35547b
    Z: 24.0
    valence: 6
    core: 18
    charge: 0.0
    file: /home/c.zeng/usr/data/gpaw-setups-0.9.20000/Cr.PBE.gz
    compensation charges: {type: gauss,
                           rc: 0.35,
                           lmax: 2}
    cutoffs: {filter: 2.14,
              core: 3.04}
    valence states:
      #              energy  rcut
      - 4s(1.00)    -4.007   1.164
      - 4p(0.00)    -0.989   1.217
      - 3d(5.00)    -2.913   1.111
      -  s          23.205   1.164
      -  p          26.223   1.217
      -  d          24.299   1.111

[...]

  Ni:
    name: Nickel
    id: 0d9f38a9d6e76a2886f07bb4381f212b
    Z: 28.0
    valence: 16
    core: 12
    charge: 0.0
    file: /home/c.zeng/usr/data/gpaw-setups-0.9.20000/Ni.PBE.gz
    compensation charges: {type: gauss,
                           rc: 0.36,
                           lmax: 2}
    cutoffs: {filter: 2.14,
              core: 1.98}
    valence states:
      #              energy  rcut
      - 4s(2.00)    -5.642   1.164
      - 3p(6.00)   -71.394   1.207
      - 4p(0.00)    -1.226   1.207
      - 3d(8.00)    -8.875   1.138
      -  s          21.570   1.164
      -  d          18.337   1.138

    # Using partial waves for Ni as LCAO basis

Reference energy: -3846758.590871  # eV

Spin-polarized calculation.
Magnetic moment: 151.200000

Convergence criteria:
 Maximum [total energy] change in last 3 cyles: 0.0001 eV / electron
 Maximum integral of absolute [dens]ity change: 0.0001 electrons / valence electron
 Maximum integral of absolute [eigenst]ate change: 4e-08 eV^2 / valence electron
 Maximum number of scf [iter]ations: 666
 (Square brackets indicate name in SCF output, whereas a 'c' in
 the SCF output indicates the quantity has converged.)

Symmetries present (total): 1

  ( 1  0  0)
  ( 0  1  0)
  ( 0  0  1)

8 k-points: 2 x 2 x 2 Monkhorst-Pack grid
4 k-points in the irreducible part of the Brillouin zone
       k-points in crystal coordinates                weights
   0:     0.25000000   -0.25000000   -0.25000000          2/8
   1:     0.25000000   -0.25000000    0.25000000          2/8
   2:     0.25000000    0.25000000   -0.25000000          2/8
   3:     0.25000000    0.25000000    0.25000000          2/8

Wave functions: Plane wave expansion
  Cutoff energy: 350.000 eV
  Number of coefficients (min, max): 17755, 17755
  Pulay-stress correction: 0.000000 eV/Ang^3 (de/decut=0.000000)
  Using FFTW library
  ScaLapack parameters: grid=1x1, blocksize=None
  Wavefunction extrapolation:
    Improved wavefunction reuse through dual PAW basis

Occupation numbers: Fermi-Dirac:
  width: 0.1000  # eV

Eigensolver
   Davidson(niter=2)

Densities:
  Coarse grid: 48*48*48 grid
  Fine grid: 96*96*96 grid
  Total Charge: 0.000000

Density mixing:
  Method: difference
  Backend: pulay
  Linear mixing parameter: 0.05
  old densities: 5
  Damping of long wavelength oscillations: 50

Hamiltonian:
  XC and Coulomb potentials evaluated on a 96*96*96 grid
  Using the PBE Exchange-Correlation functional
  External potential:
    NoExternalPotential

XC parameters: PBE with 2 nearest neighbor stencil

Total number of cores used: 30
Parallelization over k-points: 2
Domain decomposition: 5 x 3 x 1

Number of atoms: 108
Number of atomic orbitals: 1053
Number of bands in calculation: 727
Number of valence electrons: 1053
Bands to converge: occupied

... initialized

Initializing position-dependent things.

Density initialized from atomic densities
Creating initial wave functions:
  727 bands from LCAO basis set

       /|  Ni       Ni      Cr    |
      / |   NiFe     Cr           |
     /  |       Co      Fe       Fe
    /   |Ni      CFe       Co     Cr
   /    | Co       Cr       CFe   |
  /  CCo|  FeCr     CoNi          |
 *    NiCr    FeNi   FeNiCo       |
 |      |CoNi   FeFeNi  CoCrFe   Ni
 |      | CrCo     CoCrFeCrNiCr   |
 |    Co|  CoFeCr   CoNiFe   NiCo |
 |      Cr    CrNiNi CrCrNi     Ni|
 |      |FeFe  CoFeCr   FeNiFe   Cr
 |      .-FeCo-----NiNiFe--CrCr---Co
 |   Cro     Fe       Cr         /
 |    NiCo     Coi     CNie     /
 |   /    Co               Cr  /
 |  /      Fe       Fe    CrFe/
 | / Fe     Cr       NiNi    /
 |/            Co       Ni  /
 *--------Co------Co-------*

Positions:
   0 Co    -0.012479   -0.003723   10.616104    ( 0.0000,  0.0000,  2.1000)
   1 Fe    -0.011321    1.761305    1.763386    ( 0.0000,  0.0000,  2.1000)
   2 Fe     1.758365    0.001326    1.769011    ( 0.0000,  0.0000,  2.0000)
   3 Co     1.752686    1.779222   10.610436    ( 0.0000,  0.0000,  2.0000)
   4 Co     3.541196    0.004726   10.616104    ( 0.0000,  0.0000,  0.0000)
   5 Fe     3.534711    1.782438    1.778999    ( 0.0000,  0.0000,  0.0000)
   6 Cr     5.305717   10.600629    1.767950    ( 0.0000,  0.0000,  2.1000)
   7 Co     5.324780    1.765604   10.614618    ( 0.0000,  0.0000,  0.0000)
   8 Co     7.089121    0.014598   10.619926    ( 0.0000,  0.0000,  2.0000)
   9 Fe     7.085279    1.771219    1.773543    ( 0.0000,  0.0000,  1.5000)
  10 Ni     8.850554    0.011470    1.768756    ( 0.0000,  0.0000,  1.5000)
  11 Ni     8.842381    1.777333   10.615680    ( 0.0000,  0.0000,  2.1000)
  12 Fe    10.590535    3.538203   -0.001956    ( 0.0000,  0.0000,  0.0000)
  13 Cr    10.624277    5.310674    1.769786    ( 0.0000,  0.0000,  2.0000)
  14 Co     1.761379    3.535623    1.784572    ( 0.0000,  0.0000,  0.0000)
  15 Ni     1.770200    5.301408   10.611753    ( 0.0000,  0.0000,  2.0000)
  16 Cr     3.556003    3.551407   10.618333    ( 0.0000,  0.0000,  1.5000)
  17 Fe     3.539370    5.311290    1.775199    ( 0.0000,  0.0000,  2.1000)
  18 Ni     5.320142    3.545059    1.779678    ( 0.0000,  0.0000,  1.5000)
  19 Fe     5.306980    5.314654   10.602720    ( 0.0000,  0.0000,  0.0000)
  20 Ni     7.081585    3.529127   10.614725    ( 0.0000,  0.0000,  2.1000)
  21 Cr     7.069241    5.303361    1.781271    ( 0.0000,  0.0000,  1.5000)
  22 Fe     8.841447    3.542671    1.781600    ( 0.0000,  0.0000,  2.1000)
  23 Cr     8.850893    5.290379    0.000220    ( 0.0000,  0.0000,  0.0000)
  24 Ni     0.005868    7.083411   10.614937    ( 0.0000,  0.0000,  2.0000)
  25 Cr    10.601043    8.849694    1.772960    ( 0.0000,  0.0000,  2.1000)
  26 Fe     1.773713    7.072329    1.777184    ( 0.0000,  0.0000,  0.0000)
  27 Ni     1.755520    8.842943   10.608324    ( 0.0000,  0.0000,  0.0000)
  28 Fe     3.544009    7.063116   10.610489    ( 0.0000,  0.0000,  2.0000)
  29 Co     3.542225    8.826820    1.785580    ( 0.0000,  0.0000,  0.0000)
  30 Ni     5.309835    7.081776    1.776600    ( 0.0000,  0.0000,  2.1000)
  31 Ni     5.331945    8.840321   10.604673    ( 0.0000,  0.0000,  2.1000)
  32 Co     7.068434    7.069028   10.623110    ( 0.0000,  0.0000,  0.0000)
  33 Fe     7.083750    8.846796    1.774509    ( 0.0000,  0.0000,  1.5000)
  34 Cr     8.841404    7.058180    1.777173    ( 0.0000,  0.0000,  1.5000)
  35 Cr     8.835524    8.853600   10.611753    ( 0.0000,  0.0000,  0.0000)
  36 Cr    -0.009351   10.618864    3.531070    ( 0.0000,  0.0000,  2.0000)
  37 Fe    10.602508    1.764818    5.300452    ( 0.0000,  0.0000,  1.5000)
  38 Cr     1.756720    0.001379    5.295867    ( 0.0000,  0.0000,  0.0000)
  39 Co     1.766506    1.767154    3.539222    ( 0.0000,  0.0000,  2.0000)
  40 Co     3.539742    0.013881    3.542873    ( 0.0000,  0.0000,  2.0000)
  41 Fe     3.548944    1.788658    5.306237    ( 0.0000,  0.0000,  2.1000)
  42 Fe     5.320174   -0.004685    5.301386    ( 0.0000,  0.0000,  0.0000)
  43 Co     5.316862    1.765551    3.538935    ( 0.0000,  0.0000,  2.0000)
  44 Cr     7.081086   -0.000289    3.531325    ( 0.0000,  0.0000,  2.0000)
  45 Cr     7.072902    1.777407    5.300537    ( 0.0000,  0.0000,  2.0000)
  46 Fe     8.840544    0.012372    5.307851    ( 0.0000,  0.0000,  1.5000)
  47 Ni     8.833592    1.767928    3.534318    ( 0.0000,  0.0000,  2.1000)
  48 Cr    -0.004066    3.525285    3.545951    ( 0.0000,  0.0000,  0.0000)
  49 Co    -0.001689    5.317934    5.307787    ( 0.0000,  0.0000,  1.5000)
  50 Cr     1.769043    3.555101    5.297279    ( 0.0000,  0.0000,  2.0000)
  51 Fe     1.773692    5.305929    3.538266    ( 0.0000,  0.0000,  2.1000)
  52 Co     3.542746    3.537364    3.547575    ( 0.0000,  0.0000,  2.1000)
  53 Fe     3.548477    5.306927    5.301153    ( 0.0000,  0.0000,  2.0000)
  54 Ni     5.316246    3.553031    5.303637    ( 0.0000,  0.0000,  2.0000)
  55 Fe     5.303286    5.303531    3.542385    ( 0.0000,  0.0000,  1.5000)
  56 Ni     7.074962    3.533023    3.537215    ( 0.0000,  0.0000,  1.5000)
  57 Ni     7.066046    5.306046    5.300081    ( 0.0000,  0.0000,  2.0000)
  58 Ni     8.834526    3.538160    5.294530    ( 0.0000,  0.0000,  2.1000)
  59 Ni     8.846255    5.300452    3.537672    ( 0.0000,  0.0000,  1.5000)
[...]
  93 Ni     7.071130    5.304220    8.839313    ( 0.0000,  0.0000,  1.5000)
  94 Co     8.837997    3.524669    8.843389    ( 0.0000,  0.0000,  1.5000)
  95 Cr     8.833772    5.299051    7.076862    ( 0.0000,  0.0000,  0.0000)
  96 Ni     0.012168    7.080333    7.083835    ( 0.0000,  0.0000,  1.5000)
  97 Fe    -0.017034    8.848707    8.843941    ( 0.0000,  0.0000,  2.1000)
  98 Co     1.777938    7.075503    8.840194    ( 0.0000,  0.0000,  2.0000)
  99 Fe     1.758800    8.840035    7.069803    ( 0.0000,  0.0000,  0.0000)
 100 Fe     3.549921    7.066194    7.070090    ( 0.0000,  0.0000,  2.1000)
 101 Co     3.553137    8.839111    8.836776    ( 0.0000,  0.0000,  0.0000)
 102 Cr     5.304189    7.079929    8.840215    ( 0.0000,  0.0000,  2.0000)
 103 Co     5.321946    8.832180    7.082997    ( 0.0000,  0.0000,  2.1000)
 104 Ni     7.057077    7.072149    7.064167    ( 0.0000,  0.0000,  1.5000)
 105 Fe     7.082402    8.855500    8.837487    ( 0.0000,  0.0000,  2.1000)
 106 Co     8.846786    7.077881    8.846732    ( 0.0000,  0.0000,  0.0000)
 107 Cr     8.839313    8.848272    7.075153    ( 0.0000,  0.0000,  0.0000)

Unit cell:
           periodic     x           y           z      points  spacing
  1. axis:    yes   10.614300    0.000000    0.000000    48     0.2211
  2. axis:    yes    0.000000   10.614300    0.000000    48     0.2211
  3. axis:    yes    0.000000    0.000000   10.614300    48     0.2211

  Lengths:  10.614300  10.614300  10.614300
  Angles:   90.000000  90.000000  90.000000

Effective grid spacing dv^(1/3) = 0.2211

     iter     time        total  log10-change:  magmom
                         energy  eigst   dens
iter:   1 13:09:23  -974.269155                  +151.1428
iter:   2 13:11:23  -932.787244  -0.54  -1.36    +115.1206
iter:   3 13:13:24  -928.732340  -0.97  -1.34    +84.9121
iter:   4 13:15:24  -900.044164  -1.30  -1.36    +72.3232
iter:   5 13:17:24  -893.262757  -1.94  -1.46    +64.8840
iter:   6 13:19:25  -895.958349  -1.84  -1.52    +59.8100
iter:   7 13:21:25  -899.929223  -1.51  -1.54    +57.4692
iter:   8 13:23:25  -889.213752  -1.69  -1.58    +56.1025
iter:   9 13:25:26  -896.149498  -1.92  -1.77    +55.2578
iter:  10 13:27:26  -887.249371  -2.03  -1.70    +54.3004
iter:  11 13:29:27  -886.674658  -2.71  -1.91    +53.8912
iter:  12 13:31:27  -887.474082  -2.71  -1.96    +54.3250
iter:  13 13:33:28  -888.138437  -2.76  -1.99    +54.6061
iter:  14 13:35:28  -889.026419  -2.65  -2.02    +54.9386
iter:  15 13:37:29  -889.488403  -2.62  -2.02    +55.4186
iter:  16 13:39:29  -890.492725  -2.52  -2.08    +55.5774
iter:  17 13:41:31  -889.472176  -2.67  -2.06    +55.6633
iter:  18 13:43:32  -889.026053  -2.93  -2.15    +56.1536
iter:  19 13:45:33  -889.265527  -3.00  -2.24    +56.7236
iter:  20 13:47:35  -889.022732  -3.18  -2.21    +57.1148
iter:  21 13:49:36  -889.034439  -3.39  -2.32    +57.4144
iter:  22 13:51:37  -889.153627  -3.54  -2.35    +57.9068
iter:  23 13:53:39  -889.337446  -3.41  -2.38    +58.4077
iter:  24 13:55:40  -889.378724  -3.51  -2.38    +58.7724
iter:  25 13:57:41  -889.744273  -3.29  -2.43    +59.1530
iter:  26 13:59:43  -889.649535  -3.31  -2.39    +59.3832
iter:  27 14:01:44  -889.928645  -3.22  -2.46    +59.8194
iter:  28 14:03:46  -889.762034  -3.42  -2.40    +59.8532
iter:  29 14:05:47  -889.800083  -3.50  -2.51    +60.1114
iter:  30 14:07:49  -889.761223c -3.84  -2.54    +60.2656
iter:  31 14:09:50  -889.779005c -4.04  -2.59    +60.5133
iter:  32 14:11:51  -889.848190c -4.10  -2.64    +60.7285
iter:  33 14:13:53  -889.956510  -3.85  -2.65    +61.0227
iter:  34 14:15:54  -889.947630  -4.32  -2.61    +61.1467
iter:  35 14:17:56  -890.005312c -3.75  -2.68    +61.2264
iter:  36 14:19:57  -890.021894c -3.93  -2.79    +61.3370
iter:  37 14:21:59  -890.023799c -4.10  -2.83    +61.3216
iter:  38 14:24:00  -890.013550c -4.53  -2.89    +61.3498
iter:  39 14:26:01  -890.024093c -4.78  -3.01    +61.4202
iter:  40 14:28:03  -890.028376c -4.99  -3.03    +61.4507
iter:  41 14:30:04  -890.036852c -4.79  -3.07    +61.5064
iter:  42 14:32:06  -890.039591c -4.91  -3.16    +61.5706
iter:  43 14:34:07  -890.044924c -5.08  -3.28    +61.5955
iter:  44 14:36:09  -890.047481c -5.20  -3.28    +61.6367
iter:  45 14:38:10  -890.054106c -5.13  -3.35    +61.6950
iter:  46 14:40:12  -890.057399c -5.12  -3.34    +61.7135
iter:  47 14:42:13  -890.060167c -5.34  -3.44    +61.7435
iter:  48 14:44:15  -890.066101c -5.31  -3.47    +61.8097
iter:  49 14:46:16  -890.071044c -5.40  -3.51    +61.8599
iter:  50 14:48:18  -890.080461c -5.10  -3.52    +61.9522
iter:  51 14:50:19  -890.084333c -5.43  -3.52    +61.9982
iter:  52 14:52:21  -890.099772c -4.69  -3.54    +62.1599
iter:  53 14:54:23  -890.137086c -3.94  -3.48    +62.5693
iter:  54 14:56:24  -890.140106c -4.72  -3.30    +62.6433
iter:  55 14:58:26  -890.148728c -5.01  -3.29    +62.7061
iter:  56 15:00:27  -890.146514c -5.64  -3.23    +62.6740
iter:  57 15:02:29  -890.142504c -5.31  -3.25    +62.7343
iter:  58 15:04:31  -890.154676c -4.88  -3.26    +62.7667
iter:  59 15:06:32  -890.144628c -4.54  -3.17    +62.7559
iter:  60 15:08:34  -890.145671c -4.66  -3.17    +62.7260
iter:  61 15:10:35  -890.151352c -4.62  -3.14    +62.6459
iter:  62 15:12:36  -890.132733c -5.07  -3.13    +62.6417
iter:  63 15:14:38  -890.134214c -5.42  -3.44    +62.5934
iter:  64 15:16:39  -890.131815c -5.35  -3.39    +62.5759
iter:  65 15:18:40  -890.134073c -5.48  -3.56    +62.5741
iter:  66 15:20:42  -890.132925c -5.44  -3.47    +62.5618
iter:  67 15:22:43  -890.131786c -5.71  -3.55    +62.5297
iter:  68 15:24:44  -890.133816c -5.71  -3.65    +62.5194
iter:  69 15:26:45  -890.132365c -5.94  -3.59    +62.5168
iter:  70 15:28:47  -890.132112c -6.12  -3.72    +62.5014
iter:  71 15:30:48  -890.132066c -6.24  -3.73    +62.4915
iter:  72 15:32:49  -890.132724c -6.10  -3.79    +62.4887
iter:  73 15:34:50  -890.132666c -6.14  -3.77    +62.4822
iter:  74 15:36:51  -890.132138c -6.16  -3.83    +62.4654
iter:  75 15:38:52  -890.132550c -6.14  -3.86    +62.4590
iter:  76 15:40:54  -890.132877c -6.23  -3.87    +62.4567
iter:  77 15:42:55  -890.132563c -6.38  -3.92    +62.4500
iter:  78 15:44:57  -890.132534c -6.55  -4.01c   +62.4375
iter:  79 15:46:58  -890.132524c -6.70  -4.01c   +62.4298
iter:  80 15:48:59  -890.132714c -6.92  -4.06c   +62.4264
iter:  81 15:51:01  -890.132730c -6.96  -4.11c   +62.4182
iter:  82 15:53:02  -890.132813c -7.01  -4.11c   +62.4085
iter:  83 15:55:03  -890.133060c -6.86  -4.15c   +62.3993
iter:  84 15:57:05  -890.133115c -6.71  -4.14c   +62.3963
iter:  85 15:59:06  -890.133194c -6.66  -4.13c   +62.3907
iter:  86 16:01:07  -890.133157c -6.72  -4.11c   +62.3804
iter:  87 16:03:09  -890.133602c -6.64  -4.20c   +62.3761
iter:  88 16:05:10  -890.133479c -6.84  -4.12c   +62.3730
iter:  89 16:07:11  -890.133395c -6.98  -4.26c   +62.3655
iter:  90 16:09:13  -890.133462c -7.44c -4.30c   +62.3595

Converged after 90 iterations.

Dipole moment: (6.837612, -1.863371, 0.542060) |e|*Ang

Total magnetic moment: (0.000000, 0.000000, 62.359537)
Local magnetic moments:
   0 Co ( 0.000000,  0.000000,  1.206685)
   1 Fe ( 0.000000,  0.000000,  2.234197)
   2 Fe ( 0.000000,  0.000000,  2.263343)
   3 Co ( 0.000000,  0.000000,  1.180123)
   4 Co ( 0.000000,  0.000000,  1.348262)
   5 Fe ( 0.000000,  0.000000,  2.362163)
   6 Cr ( 0.000000,  0.000000, -1.616279)
   7 Co ( 0.000000,  0.000000,  1.131637)
   8 Co ( 0.000000,  0.000000,  1.080703)
   9 Fe ( 0.000000,  0.000000,  2.271902)
  10 Ni ( 0.000000,  0.000000,  0.246637)
  11 Ni ( 0.000000,  0.000000,  0.430364)
  12 Fe ( 0.000000,  0.000000,  2.046307)
  13 Cr ( 0.000000,  0.000000, -0.369647)
  14 Co ( 0.000000,  0.000000,  1.097923)
  15 Ni ( 0.000000,  0.000000,  0.259628)
  16 Cr ( 0.000000,  0.000000, -1.517427)
  17 Fe ( 0.000000,  0.000000,  2.111458)
  18 Ni ( 0.000000,  0.000000,  0.409653)
  19 Fe ( 0.000000,  0.000000,  2.044071)
  20 Ni ( 0.000000,  0.000000,  0.338991)
  21 Cr ( 0.000000,  0.000000, -0.556411)
  22 Fe ( 0.000000,  0.000000,  1.781767)
  23 Cr ( 0.000000,  0.000000, -0.991834)
  24 Ni ( 0.000000,  0.000000,  0.220539)
  25 Cr ( 0.000000,  0.000000,  0.309585)
  26 Fe ( 0.000000,  0.000000,  2.120963)
  27 Ni ( 0.000000,  0.000000,  0.437645)
  28 Fe ( 0.000000,  0.000000,  2.042097)
  29 Co ( 0.000000,  0.000000,  1.442186)
  30 Ni ( 0.000000,  0.000000,  0.258736)
  31 Ni ( 0.000000,  0.000000,  0.282457)
  32 Co ( 0.000000,  0.000000,  0.900099)
  33 Fe ( 0.000000,  0.000000,  2.042958)
  34 Cr ( 0.000000,  0.000000,  0.730078)
  35 Cr ( 0.000000,  0.000000, -1.385183)
  36 Cr ( 0.000000,  0.000000, -1.438579)
  37 Fe ( 0.000000,  0.000000,  1.461130)
  38 Cr ( 0.000000,  0.000000, -1.184399)
  39 Co ( 0.000000,  0.000000,  0.714326)
  40 Co ( 0.000000,  0.000000,  1.143326)
  41 Fe ( 0.000000,  0.000000,  2.111112)
  42 Fe ( 0.000000,  0.000000,  2.047503)
  43 Co ( 0.000000,  0.000000,  0.951520)
  44 Cr ( 0.000000,  0.000000, -1.517271)
  45 Cr ( 0.000000,  0.000000,  0.391930)
  46 Fe ( 0.000000,  0.000000,  1.655972)
  47 Ni ( 0.000000,  0.000000,  0.190462)
  48 Cr ( 0.000000,  0.000000, -1.464721)
  49 Co ( 0.000000,  0.000000,  0.823473)
  50 Cr ( 0.000000,  0.000000, -1.168468)
  51 Fe ( 0.000000,  0.000000,  1.617494)
  52 Co ( 0.000000,  0.000000,  1.240960)
  53 Fe ( 0.000000,  0.000000,  1.881422)
  54 Ni ( 0.000000,  0.000000,  0.352101)
  55 Fe ( 0.000000,  0.000000,  2.021062)
  56 Ni ( 0.000000,  0.000000,  0.329905)
  57 Ni ( 0.000000,  0.000000,  0.231082)
  58 Ni ( 0.000000,  0.000000,  0.062516)
  59 Ni ( 0.000000,  0.000000,  0.065912)
[...]
  93 Ni ( 0.000000,  0.000000,  0.214311)
  94 Co ( 0.000000,  0.000000,  0.986113)
  95 Cr ( 0.000000,  0.000000,  1.207711)
  96 Ni ( 0.000000,  0.000000,  0.242176)
  97 Fe ( 0.000000,  0.000000,  2.130314)
  98 Co ( 0.000000,  0.000000,  1.361244)
  99 Fe ( 0.000000,  0.000000,  2.082125)
 100 Fe ( 0.000000,  0.000000,  1.891811)
 101 Co ( 0.000000,  0.000000,  1.228861)
 102 Cr ( 0.000000,  0.000000, -1.616969)
 103 Co ( 0.000000,  0.000000,  1.245403)
 104 Ni ( 0.000000,  0.000000,  0.297455)
 105 Fe ( 0.000000,  0.000000,  2.092621)
 106 Co ( 0.000000,  0.000000,  0.907878)
 107 Cr ( 0.000000,  0.000000, -1.533632)

Energy contributions relative to reference atoms: (reference = -3846758.590871)

Kinetic:       +116.267048
Potential:     -184.071489
External:        +0.000000
XC:            -860.130359
Entropy (-ST):   -4.703282
Local:          +40.152979
Free energy:   -892.485103
Extrapolated:  -890.133462

Spin contamination: 31.779870 electrons
Showing only first 2 kpts
                      Up                     Down
 Kpt  Band  Eigenvalues  Occupancy  Eigenvalues  Occupancy
  0   524      9.84773    0.99352     10.70086    0.02934
  0   525      9.85674    0.99291     10.71040    0.02674
  0   526      9.87020    0.99190     10.72567    0.02304
  0   527      9.87912    0.99115     10.74403    0.01925

  1   524      9.84817    0.99349     10.70360    0.02857
  1   525      9.86133    0.99258     10.71371    0.02589
  1   526      9.87404    0.99158     10.73366    0.02131
  1   527      9.88688    0.99044     10.74081    0.01987

Fermi level: 10.35096

No gap

Forces in eV/Ang:
  0 Co    0.12980   -0.04918   -0.04341
  1 Fe    0.26143    0.10750    0.01180
  2 Fe    0.19746   -0.29084   -0.00204
  3 Co    0.18343   -0.01375   -0.04197
  4 Co    0.08744   -0.03204   -0.00194
  5 Fe   -0.00059    0.04166    0.02447
  6 Cr   -0.46967    0.13372   -0.29020
  7 Co   -0.33382   -0.16340   -0.02408
  8 Co   -0.16726   -0.14829   -0.03767
  9 Fe   -0.38865   -0.10278   -0.06639
 10 Ni   -0.03405   -0.07978   -0.03405
 11 Ni    0.04042   -0.17495    0.08756
 12 Fe    0.43472    0.32942   -0.13017
 13 Cr    0.00178    0.09620    0.11904
 14 Co   -0.06236   -0.04068   -0.16126
 15 Ni   -0.05614    0.02653    0.06253
 16 Cr   -0.11093   -0.20369    0.17923
 17 Fe   -0.19651   -0.38257   -0.07972
 18 Ni   -0.01126   -0.11576    0.06665
 19 Fe    0.14710   -0.17114    0.27436
 20 Ni   -0.14523    0.21283   -0.06839
 21 Cr    0.18472    0.15870   -0.46085
 22 Fe    0.03747    0.32775    0.18369
 23 Cr   -0.07137    0.31563   -0.47966
 24 Ni   -0.04972   -0.16346   -0.15857
 25 Cr    0.25890   -0.23184   -0.04281
 26 Fe   -0.20835    0.24300   -0.07723
 27 Ni    0.23089    0.04218    0.05994
 28 Fe   -0.13081    0.44868   -0.24478
 29 Co   -0.12459    0.38217    0.01741
 30 Ni    0.10851    0.00833   -0.01875
 31 Ni   -0.22900    0.11757    0.18671
 32 Co    0.32455   -0.06604   -0.07632
 33 Fe   -0.12999    0.01297   -0.13405
 34 Cr    0.22246   -0.40150    0.01657
 35 Cr   -0.12291   -0.05724   -0.21796
 36 Cr   -0.17239    0.23784    0.12777
 37 Fe    0.17714   -0.00493    0.03089
 38 Cr    0.56350   -0.00132   -0.15803
 39 Co   -0.08924    0.19298    0.10534
 40 Co    0.04942   -0.26527    0.02331
 41 Fe   -0.32685   -0.11250   -0.22058
 42 Fe   -0.00911   -0.31160   -0.11229
 43 Co   -0.03921    0.11188    0.01683
 44 Cr    0.30539   -0.19554    0.65651
 45 Cr    0.02704    0.01455   -0.08836
 46 Fe    0.02102   -0.11571    0.04039
 47 Ni    0.10717    0.02235    0.02090
 48 Cr   -0.15159   -0.11818   -0.04852
 49 Co    0.29193   -0.17956   -0.01317
 50 Cr    0.61518   -0.08702    0.26131
 51 Fe   -0.21635   -0.04817    0.13515
 52 Co   -0.10265    0.01115   -0.10425
 53 Fe   -0.24067   -0.03243    0.12646
 54 Ni    0.02277   -0.07304   -0.16169
 55 Fe    0.12378    0.06798   -0.04546
 56 Ni   -0.06291   -0.07723    0.03411
 57 Ni   -0.01821    0.01106    0.09488
 58 Ni    0.08616   -0.03832    0.08904
 59 Ni    0.10452   -0.03782   -0.08018
[...]
 93 Ni    0.15267    0.10886    0.20491
 94 Co    0.11437    0.03250    0.09685
 95 Cr    0.31295   -0.02237   -0.09324
 96 Ni   -0.09868   -0.17728    0.02930
 97 Fe    0.04636   -0.11252    0.12775
 98 Co    0.00410   -0.19461    0.06213
 99 Fe    0.31646    0.17887   -0.00066
100 Fe   -0.19133    0.30221    0.15515
101 Co    0.00476    0.01238   -0.12097
102 Cr    0.09845    0.06459    0.04660
103 Co   -0.26918    0.17421   -0.18766
104 Ni    0.27858    0.08131    0.13225
105 Fe    0.09785   -0.20254    0.07981
106 Co   -0.13954   -0.02416    0.28754
107 Cr   -0.26748   -0.43799    0.02404

Date: Sat Apr 15 16:09:36 2023