User:   c.zeng@d0010
Date:   Fri Apr 14 17:46:52 2023
Arch:   x86_64
Pid:    343570
CWD:    /home/c.zeng/projects/hea-corrosion/hea-mlp/data-curation/bulk-mcmc/dft-jobs/155
Python: 3.8.1
gpaw:   /home/c.zeng/usr/installs/gpaw/source/gpaw-22.8.0/gpaw
_gpaw:  /home/c.zeng/usr/installs/gpaw/source/gpaw-22.8.0/
        _gpaw.cpython-38-x86_64-linux-gnu.so
ase:    /home/c.zeng/.local/lib/python3.8/site-packages/ase-3.22.1-py3.8.egg/ase (version 3.22.1)
numpy:  /shared/centos7/python/3.8.1/lib/python3.8/site-packages/numpy (version 1.17.4)
scipy:  /shared/centos7/python/3.8.1/lib/python3.8/site-packages/scipy (version 1.4.1)
units:  Angstrom and eV
cores: 30
OpenMP: False
OMP_NUM_THREADS: 1

Input parameters:
  convergence: {energy: 0.0001}
  kpts: [2 2 2]
  maxiter: 666
  mode: {ecut: 350.0,
         name: pw}
  occupations: {fixmagmom: False,
                name: fermi-dirac,
                width: 0.1}
  spinpol: True
  xc: PBE

System changes: positions, numbers, cell, pbc, initial_charges, initial_magmoms

Initialize ...

species:
  Co:
    name: Cobalt
    id: 339d20d5b0b93d2de9531a1bee871d91
    Z: 27.0
    valence: 9
    core: 18
    charge: 0.0
    file: /home/c.zeng/usr/data/gpaw-setups-0.9.20000/Co.PBE.gz
    compensation charges: {type: gauss,
                           rc: 0.32,
                           lmax: 2}
    cutoffs: {filter: 1.87,
              core: 2.55}
    valence states:
      #              energy  rcut
      - 4s(2.00)    -5.469   1.005
      - 4p(0.00)    -1.277   1.058
      - 3d(7.00)    -8.205   1.005
      -  s          21.742   1.005
      -  p          25.934   1.058
      -  d          19.007   1.005

    # Using partial waves for Co as LCAO basis

  Fe:
    name: Iron
    id: 37abbd8d6c3c35915a9b583b742da910
    Z: 26.0
    valence: 8
    core: 18
    charge: 0.0
    file: /home/c.zeng/usr/data/gpaw-setups-0.9.20000/Fe.PBE.gz
    compensation charges: {type: gauss,
                           rc: 0.33,
                           lmax: 2}
    cutoffs: {filter: 2.06,
              core: 2.67}
    valence states:
      #              energy  rcut
      - 4s(2.00)    -5.291   1.164
      - 4p(0.00)    -1.326   1.058
      - 3d(6.00)    -7.505   1.058
      -  s          21.920   1.164
      -  p          25.885   1.058
      -  d          19.706   1.058

[...]

  Al:
    name: Aluminium
    id: 0292cae29f5d6237e50f6abdd43a7bdd
    Z: 13.0
    valence: 3
    core: 10
    charge: 0.0
    file: /home/c.zeng/usr/data/gpaw-setups-0.9.20000/Al.PBE.gz
    compensation charges: {type: gauss,
                           rc: 0.34,
                           lmax: 2}
    cutoffs: {filter: 1.91,
              core: 2.36}
    valence states:
      #              energy  rcut
      - 3s(2.00)    -7.753   1.085
      - 3p(1.00)    -2.712   1.085
      -  s          19.459   1.085
      -  p          24.499   1.085
      -  d           0.000   1.085

[...]

  Cr:
    name: Chromium
    id: 33f258bda2ca9f93018e70263a35547b
    Z: 24.0
    valence: 6
    core: 18
    charge: 0.0
    file: /home/c.zeng/usr/data/gpaw-setups-0.9.20000/Cr.PBE.gz
    compensation charges: {type: gauss,
                           rc: 0.35,
                           lmax: 2}
    cutoffs: {filter: 2.14,
              core: 3.04}
    valence states:
      #              energy  rcut
      - 4s(1.00)    -4.007   1.164
      - 4p(0.00)    -0.989   1.217
      - 3d(5.00)    -2.913   1.111
      -  s          23.205   1.164
      -  p          26.223   1.217
      -  d          24.299   1.111

[...]

  Ni:
    name: Nickel
    id: 0d9f38a9d6e76a2886f07bb4381f212b
    Z: 28.0
    valence: 16
    core: 12
    charge: 0.0
    file: /home/c.zeng/usr/data/gpaw-setups-0.9.20000/Ni.PBE.gz
    compensation charges: {type: gauss,
                           rc: 0.36,
                           lmax: 2}
    cutoffs: {filter: 2.14,
              core: 1.98}
    valence states:
      #              energy  rcut
      - 4s(2.00)    -5.642   1.164
      - 3p(6.00)   -71.394   1.207
      - 4p(0.00)    -1.226   1.207
      - 3d(8.00)    -8.875   1.138
      -  s          21.570   1.164
      -  d          18.337   1.138

    # Using partial waves for Ni as LCAO basis

Reference energy: -3382523.201499  # eV

Spin-polarized calculation.
Magnetic moment: 128.800000

Convergence criteria:
 Maximum [total energy] change in last 3 cyles: 0.0001 eV / electron
 Maximum integral of absolute [dens]ity change: 0.0001 electrons / valence electron
 Maximum integral of absolute [eigenst]ate change: 4e-08 eV^2 / valence electron
 Maximum number of scf [iter]ations: 666
 (Square brackets indicate name in SCF output, whereas a 'c' in
 the SCF output indicates the quantity has converged.)

Symmetries present (total): 1

  ( 1  0  0)
  ( 0  1  0)
  ( 0  0  1)

8 k-points: 2 x 2 x 2 Monkhorst-Pack grid
4 k-points in the irreducible part of the Brillouin zone
       k-points in crystal coordinates                weights
   0:     0.25000000   -0.25000000   -0.25000000          2/8
   1:     0.25000000   -0.25000000    0.25000000          2/8
   2:     0.25000000    0.25000000   -0.25000000          2/8
   3:     0.25000000    0.25000000    0.25000000          2/8

Wave functions: Plane wave expansion
  Cutoff energy: 350.000 eV
  Number of coefficients (min, max): 18865, 18865
  Pulay-stress correction: 0.000000 eV/Ang^3 (de/decut=0.000000)
  Using FFTW library
  ScaLapack parameters: grid=1x1, blocksize=None
  Wavefunction extrapolation:
    Improved wavefunction reuse through dual PAW basis

Occupation numbers: Fermi-Dirac:
  width: 0.1000  # eV

Eigensolver
   Davidson(niter=2)

Densities:
  Coarse grid: 48*48*48 grid
  Fine grid: 96*96*96 grid
  Total Charge: 0.000000

Density mixing:
  Method: difference
  Backend: pulay
  Linear mixing parameter: 0.05
  old densities: 5
  Damping of long wavelength oscillations: 50

Hamiltonian:
  XC and Coulomb potentials evaluated on a 96*96*96 grid
  Using the PBE Exchange-Correlation functional
  External potential:
    NoExternalPotential

XC parameters: PBE with 2 nearest neighbor stencil

Total number of cores used: 30
Parallelization over k-points: 2
Domain decomposition: 5 x 3 x 1

Number of atoms: 108
Number of atomic orbitals: 961
Number of bands in calculation: 649
Number of valence electrons: 945
Bands to converge: occupied

... initialized

Initializing position-dependent things.

Density initialized from atomic densities
Creating initial wave functions:
  649 bands from LCAO basis set

       /|                     Co   |
      / |            Fe Co     CrCo|
     /  |       Cr       Ni       Cr
    /   |Fe       Fel     CFer     |
   /i   | Feo        Fe      Co    |
  /  CrAl   NCr       Ni           |
 *      Ni     FeFe   AlFeCrCo   Cr|
 |      |FeNi   CrNiAl   NiAlNi   Co
 | CrCo | AlNi   AlAlCo     Ni     |
 |     Fe  FeCr Cr  Fe CoNi  CrNi  |
 |      CoNi   AlCr   CoCoFeNi  Co |
 |Al    |FeCr   AlCrCo   CrFe     Co
 |      .-CrCo-----NiCr-CoFeCrNi---.
 |     /   Ni Co    Cr CoNi    Al /
 |    Co       AFei       Al     /
 |   /  Fe         Al       Cr  /
 |  /      Fe       Al       Fe/
 | / Fe     Co       Ni Ni    /
 |/             Cr       Ni  /
 *--------Fe----------------*

Positions:
   0 Co    10.764147   10.861293   10.805330    ( 0.0000,  0.0000,  2.0000)
   1 Fe    10.786221    1.792513    1.813624    ( 0.0000,  0.0000,  0.0000)
   2 Fe     1.744156    0.036560    1.851269    ( 0.0000,  0.0000,  1.5000)
   3 Al     1.736571    1.831142   10.798805    ( 0.0000,  0.0000,  0.0000)
   4 Fe     3.575126    0.057318    0.061759    ( 0.0000,  0.0000,  0.0000)
   5 Fe     3.594289    1.817617    1.845577    ( 0.0000,  0.0000,  2.0000)
   6 Co     5.429813   10.817005    1.865054    ( 0.0000,  0.0000,  1.5000)
   7 Cr     5.429608    1.929425    0.057134    ( 0.0000,  0.0000,  0.0000)
   8 Fe     7.316909   10.723332    0.087382    ( 0.0000,  0.0000,  0.0000)
   9 Al     7.263142    1.825786    1.869404    ( 0.0000,  0.0000,  2.1000)
  10 Ni     9.063554    0.025226    1.863474    ( 0.0000,  0.0000,  1.5000)
  11 Ni     9.049217    1.829703    0.033106    ( 0.0000,  0.0000,  2.1000)
  12 Ni     0.004792    3.558981   10.794801    ( 0.0000,  0.0000,  1.5000)
  13 Al    10.759710    5.390697    1.778165    ( 0.0000,  0.0000,  0.0000)
  14 Fe     1.733585    3.561849    1.761112    ( 0.0000,  0.0000,  2.0000)
  15 Fe     1.776899    5.391834   10.795505    ( 0.0000,  0.0000,  0.0000)
  16 Co     3.565452    3.619360   10.832619    ( 0.0000,  0.0000,  2.1000)
  17 Co     3.633221    5.394614    1.719551    ( 0.0000,  0.0000,  0.0000)
  18 Ni     5.471624    3.659114    1.836033    ( 0.0000,  0.0000,  2.1000)
  19 Fe     5.440212    5.373060   -0.002773    ( 0.0000,  0.0000,  2.0000)
  20 Ni     7.258997    3.609080    0.031294    ( 0.0000,  0.0000,  0.0000)
  21 Co     7.268941    5.378362    1.785274    ( 0.0000,  0.0000,  2.0000)
  22 Al     9.030724    3.577636    1.833728    ( 0.0000,  0.0000,  2.1000)
  23 Fe     9.040420    5.372281   10.801110    ( 0.0000,  0.0000,  0.0000)
  24 Co    10.791663    7.196206   10.792486    ( 0.0000,  0.0000,  1.5000)
  25 Co    10.758434    9.040387    1.848239    ( 0.0000,  0.0000,  0.0000)
  26 Cr     1.690487    7.202493    1.786032    ( 0.0000,  0.0000,  0.0000)
  27 Ni     1.652691    8.981047    0.027217    ( 0.0000,  0.0000,  0.0000)
  28 Al     3.631241    7.164437    0.034633    ( 0.0000,  0.0000,  0.0000)
  29 Al     3.625452    9.063759    1.801678    ( 0.0000,  0.0000,  0.0000)
  30 Ni     5.490852    7.187095    1.746342    ( 0.0000,  0.0000,  2.0000)
  31 Cr     5.426935    8.989152    0.009861    ( 0.0000,  0.0000,  2.0000)
  32 Co     7.229122    7.237075   -0.008698    ( 0.0000,  0.0000,  1.5000)
  33 Cr     7.249194    8.995850    1.810713    ( 0.0000,  0.0000,  0.0000)
  34 Cr     9.052073    7.204300    1.764218    ( 0.0000,  0.0000,  2.1000)
  35 Co     9.092553    8.989639   10.808760    ( 0.0000,  0.0000,  1.5000)
  36 Cr    -0.000975   10.826235    3.639789    ( 0.0000,  0.0000,  1.5000)
  37 Al    10.822772    1.771770    5.422044    ( 0.0000,  0.0000,  2.1000)
  38 Ni     1.754263   10.802084    5.428872    ( 0.0000,  0.0000,  2.1000)
  39 Co     1.741873    1.774270    3.610801    ( 0.0000,  0.0000,  0.0000)
  40 Al     3.591183   10.794152    3.612143    ( 0.0000,  0.0000,  2.0000)
  41 Cr     3.593088    1.736744    5.455177    ( 0.0000,  0.0000,  0.0000)
  42 Al     5.437150   10.794563    5.400804    ( 0.0000,  0.0000,  2.0000)
  43 Fe     5.451931    1.783251    3.601387    ( 0.0000,  0.0000,  1.5000)
  44 Al     7.226222    0.007781    3.626209    ( 0.0000,  0.0000,  0.0000)
  45 Co     7.236069    1.766512    5.381392    ( 0.0000,  0.0000,  2.1000)
  46 Co     9.034587   10.848850    5.403844    ( 0.0000,  0.0000,  2.1000)
  47 Ni     9.031558    1.804946    3.616730    ( 0.0000,  0.0000,  1.5000)
  48 Ni    10.773885    3.543973    3.617867    ( 0.0000,  0.0000,  1.5000)
  49 Ni    10.772186    5.358409    5.454917    ( 0.0000,  0.0000,  0.0000)
  50 Co     1.757531    3.575678    5.428937    ( 0.0000,  0.0000,  2.1000)
  51 Fe     1.621766    5.386986    3.572550    ( 0.0000,  0.0000,  0.0000)
[...]
 103 Fe     5.466441    9.064062    7.220963    ( 0.0000,  0.0000,  2.1000)
 104 Fe     7.307203    7.271549    7.289738    ( 0.0000,  0.0000,  0.0000)
 105 Ni     7.271073    9.044683    9.027879    ( 0.0000,  0.0000,  1.5000)
 106 Cr     9.081743    7.219805    9.041166    ( 0.0000,  0.0000,  2.1000)
 107 Co     9.063684    9.083009    7.213865    ( 0.0000,  0.0000,  2.0000)

Unit cell:
           periodic     x           y           z      points  spacing
  1. axis:    yes   10.820500    0.000000    0.000000    48     0.2254
  2. axis:    yes    0.000000   10.820500    0.000000    48     0.2254
  3. axis:    yes    0.000000    0.000000   10.820500    48     0.2254

  Lengths:  10.820500  10.820500  10.820500
  Angles:   90.000000  90.000000  90.000000

Effective grid spacing dv^(1/3) = 0.2254

     iter     time        total  log10-change:  magmom
                         energy  eigst   dens
iter:   1 17:55:16  -895.124907                  +128.4417
iter:   2 17:58:53  -866.197985  -0.40  -1.31    +95.5436
iter:   3 18:02:30  -845.007764  -0.94  -1.29    +66.7017
iter:   4 18:06:07  -832.720762  -1.26  -1.37    +57.0936
iter:   5 18:09:45  -825.839550  -1.84  -1.40    +52.4377
iter:   6 18:13:23  -826.492633  -2.01  -1.47    +50.1588
iter:   7 18:17:00  -825.461177  -1.69  -1.50    +49.2077
iter:   8 18:20:37  -824.074378  -1.74  -1.55    +49.0820
iter:   9 18:24:14  -827.249666  -1.84  -1.67    +49.6088
iter:  10 18:27:52  -823.280606  -2.06  -1.68    +49.3660
iter:  11 18:31:29  -823.950818  -2.28  -1.80    +50.0700
iter:  12 18:35:06  -822.552904  -2.43  -1.82    +50.9895
iter:  13 18:38:43  -822.816832  -2.65  -1.89    +52.3143
iter:  14 18:42:21  -823.743837  -2.53  -1.95    +53.3561
iter:  15 18:45:57  -824.439256  -2.53  -1.95    +54.1549
iter:  16 18:49:34  -824.898267  -2.42  -1.96    +55.6438
iter:  17 18:53:12  -823.984623  -2.68  -1.96    +56.1716
iter:  18 18:56:49  -824.403166  -2.67  -2.10    +57.2121
iter:  19 19:00:27  -823.932620  -2.90  -2.10    +57.8739
iter:  20 19:04:04  -824.140078  -3.12  -2.18    +59.1044
iter:  21 19:07:41  -824.437600  -3.11  -2.24    +60.0678
iter:  22 19:11:18  -824.691515  -3.09  -2.23    +60.4329
iter:  23 19:14:55  -824.548520  -3.24  -2.22    +61.1920
iter:  24 19:18:33  -824.822504  -3.24  -2.31    +61.8096
iter:  25 19:22:11  -824.767676  -3.34  -2.29    +62.0461
iter:  26 19:25:47  -824.928379  -3.33  -2.37    +62.2986
iter:  27 19:29:25  -825.036986  -3.31  -2.36    +62.6139
iter:  28 19:33:02  -825.203947  -3.23  -2.39    +62.8965
iter:  29 19:36:39  -825.126457  -3.36  -2.39    +62.9107
iter:  30 19:40:17  -825.166375c -3.45  -2.44    +63.0207
iter:  31 19:43:54  -825.112219c -3.74  -2.44    +63.2036
iter:  32 19:47:31  -825.174251c -3.85  -2.54    +63.4350
iter:  33 19:51:09  -825.210138  -4.07  -2.56    +63.4424
iter:  34 19:54:47  -825.270005  -4.05  -2.57    +63.4695
iter:  35 19:58:23  -825.479591  -3.56  -2.61    +63.3948
iter:  36 20:02:01  -825.459630  -3.58  -2.52    +63.3839
iter:  37 20:05:38  -825.395781c -3.74  -2.60    +63.2281
iter:  38 20:09:15  -825.499480  -3.67  -2.77    +63.0901
iter:  39 20:12:52  -825.442755  -3.98  -2.68    +63.0752
iter:  40 20:16:30  -825.453613c -4.04  -2.85    +62.9216
iter:  41 20:20:08  -825.461399c -4.42  -2.88    +62.8775
iter:  42 20:23:46  -825.487151c -4.51  -2.93    +62.7738
iter:  43 20:27:24  -825.521364c -4.47  -2.99    +62.6478
iter:  44 20:31:00  -825.580808c -4.13  -2.98    +62.3945
iter:  45 20:34:35  -825.667673  -3.80  -2.93    +62.0413
iter:  46 20:38:09  -825.679117  -4.51  -2.88    +62.0448
iter:  47 20:41:46  -825.711761c -4.49  -2.86    +61.9247
iter:  48 20:45:22  -825.741521c -4.32  -2.84    +61.7895
iter:  49 20:49:00  -825.755985c -4.08  -2.87    +61.7366
iter:  50 20:52:37  -825.726669c -4.46  -2.75    +61.6673
iter:  51 20:56:14  -825.761609c -4.10  -2.77    +61.4573
iter:  52 20:59:51  -825.757804c -4.05  -2.74    +61.3783
iter:  53 21:03:29  -825.780679c -4.04  -2.78    +61.2235
iter:  54 21:07:06  -825.752159c -4.14  -2.78    +61.1696
iter:  55 21:10:43  -825.736593c -4.28  -2.87    +61.0412
iter:  56 21:14:20  -825.736856c -4.54  -2.95    +60.9858
iter:  57 21:17:58  -825.735665c -4.60  -2.98    +60.9371
iter:  58 21:21:35  -825.739711c -4.54  -3.00    +60.9434
iter:  59 21:25:10  -825.745987c -4.44  -2.99    +60.8873
iter:  60 21:28:47  -825.735052c -4.61  -2.97    +60.8355
iter:  61 21:32:25  -825.744154c -4.56  -3.06    +60.8592
iter:  62 21:36:03  -825.734122c -4.74  -3.02    +60.8580
iter:  63 21:39:41  -825.734509c -4.79  -3.12    +60.8605
iter:  64 21:43:19  -825.732669c -5.01  -3.13    +60.8310
iter:  65 21:46:56  -825.736061c -5.04  -3.17    +60.8617
iter:  66 21:50:34  -825.734883c -5.05  -3.16    +60.8753
iter:  67 21:54:11  -825.736164c -5.01  -3.21    +60.8679
iter:  68 21:57:48  -825.736374c -5.12  -3.19    +60.8738
iter:  69 22:01:25  -825.739839c -4.86  -3.25    +60.8819
iter:  70 22:05:02  -825.740594c -4.87  -3.20    +60.9182
iter:  71 22:08:38  -825.739580c -4.95  -3.23    +60.9102
iter:  72 22:12:15  -825.738348c -4.98  -3.29    +60.9079
iter:  73 22:15:53  -825.740725c -5.17  -3.31    +60.9447
iter:  74 22:19:29  -825.737133c -5.48  -3.32    +60.9534
iter:  75 22:23:07  -825.738559c -5.49  -3.44    +60.9736
iter:  76 22:26:45  -825.738393c -5.89  -3.44    +60.9707
iter:  77 22:30:21  -825.740011c -5.76  -3.49    +60.9912
iter:  78 22:33:59  -825.743589c -5.33  -3.50    +60.9915
iter:  79 22:37:37  -825.741875c -5.36  -3.41    +60.9872
iter:  80 22:41:15  -825.743159c -5.34  -3.49    +60.9798
iter:  81 22:44:52  -825.744970c -5.29  -3.53    +60.9844
iter:  82 22:48:29  -825.744648c -5.34  -3.47    +61.0069
iter:  83 22:52:05  -825.744367c -5.54  -3.57    +60.9959
iter:  84 22:55:43  -825.744509c -5.89  -3.66    +60.9943
iter:  85 22:59:21  -825.746164c -5.97  -3.73    +61.0022
iter:  86 23:03:00  -825.747113c -5.84  -3.78    +61.0012
iter:  87 23:06:36  -825.748034c -6.05  -3.75    +60.9958
iter:  88 23:10:11  -825.749041c -6.03  -3.82    +60.9923
iter:  89 23:13:48  -825.749903c -6.01  -3.81    +60.9807
iter:  90 23:17:25  -825.750685c -6.00  -3.87    +60.9651
iter:  91 23:21:03  -825.752240c -5.81  -3.90    +60.9520
iter:  92 23:24:41  -825.752496c -6.13  -3.84    +60.9486
iter:  93 23:28:19  -825.753695c -5.86  -3.99    +60.9286
iter:  94 23:31:55  -825.754331c -6.18  -3.91    +60.9151
iter:  95 23:35:33  -825.755489c -6.18  -3.96    +60.8975
iter:  96 23:39:10  -825.756217c -6.45  -4.04c   +60.8988
iter:  97 23:42:47  -825.757289c -6.32  -3.90    +60.8721
iter:  98 23:46:25  -825.757551c -6.41  -3.87    +60.8937
iter:  99 23:50:02  -825.759145c -6.01  -3.92    +60.8494
iter: 100 23:53:40  -825.759822c -6.47  -3.90    +60.8417
iter: 101 23:57:18  -825.763463c -5.51  -3.92    +60.8047
iter: 102 00:00:56  -825.761542c -6.09  -3.66    +60.8037
iter: 103 00:04:33  -825.764000c -5.90  -3.95    +60.7550
iter: 104 00:08:10  -825.764375c -6.41  -3.88    +60.7653
iter: 105 00:11:49  -825.766896c -5.96  -3.86    +60.7237
iter: 106 00:15:26  -825.767226c -5.93  -3.80    +60.7289
iter: 107 00:19:04  -825.767885c -5.73  -3.68    +60.7068
iter: 108 00:22:38  -825.770194c -5.89  -4.00c   +60.6708
iter: 109 00:26:16  -825.780620c -4.70  -3.93    +60.5006
iter: 110 00:29:54  -825.792789c -4.18  -3.72    +60.2139
iter: 111 00:33:30  -825.791147c -5.44  -3.46    +60.3022
iter: 112 00:37:07  -825.791812c -5.80  -3.51    +60.2972
iter: 113 00:40:44  -825.794165c -5.47  -3.49    +60.2869
iter: 114 00:44:21  -825.795248c -5.91  -3.45    +60.2980
iter: 115 00:47:57  -825.797893c -5.18  -3.42    +60.3001
iter: 116 00:51:34  -825.800009c -5.00  -3.28    +60.3081
iter: 117 00:55:12  -825.797099c -4.75  -3.25    +60.2824
iter: 118 00:58:49  -825.790056c -4.81  -3.20    +60.2852
iter: 119 01:02:26  -825.791790c -5.07  -3.43    +60.2613
iter: 120 01:06:03  -825.786868c -5.40  -3.39    +60.2552
iter: 121 01:09:39  -825.787452c -5.44  -3.57    +60.2477
iter: 122 01:13:16  -825.787334c -5.62  -3.59    +60.2627
iter: 123 01:16:54  -825.789322c -5.25  -3.60    +60.2690
iter: 124 01:20:31  -825.786000c -5.62  -3.49    +60.2541
iter: 125 01:24:08  -825.785871c -5.95  -3.78    +60.2642
iter: 126 01:27:45  -825.786113c -6.05  -3.78    +60.2639
iter: 127 01:31:22  -825.785334c -6.35  -3.83    +60.2692
iter: 128 01:35:01  -825.785439c -6.51  -3.91    +60.2676
iter: 129 01:38:36  -825.785394c -6.50  -3.93    +60.2699
iter: 130 01:42:12  -825.785410c -6.29  -3.95    +60.2761
iter: 131 01:45:49  -825.785117c -6.43  -3.91    +60.2722
iter: 132 01:49:25  -825.784883c -6.33  -3.96    +60.2740
iter: 133 01:53:02  -825.785371c -6.34  -3.98    +60.2741
iter: 134 01:56:39  -825.784893c -6.43  -4.00    +60.2749
iter: 135 02:00:16  -825.784708c -6.80  -4.06c   +60.2741
iter: 136 02:03:52  -825.784609c -6.82  -4.15c   +60.2716
iter: 137 02:07:29  -825.784632c -7.16  -4.15c   +60.2744
iter: 138 02:11:06  -825.784599c -7.32  -4.26c   +60.2729
iter: 139 02:14:42  -825.784334c -7.09  -4.27c   +60.2740
iter: 140 02:18:18  -825.784491c -7.01  -4.24c   +60.2732
iter: 141 02:21:54  -825.784448c -7.04  -4.22c   +60.2733
iter: 142 02:25:31  -825.784481c -6.94  -4.30c   +60.2742
iter: 143 02:29:08  -825.784293c -6.98  -4.23c   +60.2705
iter: 144 02:32:45  -825.784216c -7.25  -4.29c   +60.2710
iter: 145 02:36:23  -825.784369c -7.38  -4.36c   +60.2708
iter: 146 02:40:00  -825.784242c -7.50c -4.40c   +60.2714

Converged after 146 iterations.

Dipole moment: (29.608024, -3.709499, -9.684279) |e|*Ang

Total magnetic moment: (0.000000, 0.000000, 60.271396)
Local magnetic moments:
   0 Co ( 0.000000,  0.000000,  1.210777)
   1 Fe ( 0.000000,  0.000000,  2.351085)
   2 Fe ( 0.000000,  0.000000,  2.242213)
   3 Al ( 0.000000,  0.000000, -0.049758)
   4 Fe ( 0.000000,  0.000000,  2.384950)
   5 Fe ( 0.000000,  0.000000,  2.400062)
   6 Co ( 0.000000,  0.000000,  0.942048)
   7 Cr ( 0.000000,  0.000000, -2.414201)
   8 Fe ( 0.000000,  0.000000,  2.165160)
   9 Al ( 0.000000,  0.000000, -0.008703)
  10 Ni ( 0.000000,  0.000000,  0.200504)
  11 Ni ( 0.000000,  0.000000,  0.181273)
  12 Ni ( 0.000000,  0.000000,  0.247045)
  13 Al ( 0.000000,  0.000000, -0.034922)
  14 Fe ( 0.000000,  0.000000,  2.245829)
  15 Fe ( 0.000000,  0.000000,  1.995413)
  16 Co ( 0.000000,  0.000000,  1.253258)
  17 Co ( 0.000000,  0.000000,  1.065080)
  18 Ni ( 0.000000,  0.000000,  0.278546)
  19 Fe ( 0.000000,  0.000000,  2.300036)
  20 Ni ( 0.000000,  0.000000,  0.120184)
  21 Co ( 0.000000,  0.000000,  1.189393)
  22 Al ( 0.000000,  0.000000, -0.024428)
  23 Fe ( 0.000000,  0.000000,  2.137589)
  24 Co ( 0.000000,  0.000000,  0.339890)
  25 Co ( 0.000000,  0.000000,  1.028718)
  26 Cr ( 0.000000,  0.000000, -1.890033)
  27 Ni ( 0.000000,  0.000000,  0.073165)
  28 Al ( 0.000000,  0.000000, -0.016913)
  29 Al ( 0.000000,  0.000000, -0.023097)
  30 Ni ( 0.000000,  0.000000,  0.348695)
  31 Cr ( 0.000000,  0.000000,  1.669653)
  32 Co ( 0.000000,  0.000000,  0.964849)
  33 Cr ( 0.000000,  0.000000, -1.556566)
  34 Cr ( 0.000000,  0.000000, -1.561212)
  35 Co ( 0.000000,  0.000000,  1.028994)
  36 Cr ( 0.000000,  0.000000, -1.576247)
  37 Al ( 0.000000,  0.000000, -0.026829)
  38 Ni ( 0.000000,  0.000000,  0.118082)
  39 Co ( 0.000000,  0.000000,  1.147984)
  40 Al ( 0.000000,  0.000000, -0.036586)
  41 Cr ( 0.000000,  0.000000, -1.941293)
  42 Al ( 0.000000,  0.000000, -0.025405)
  43 Fe ( 0.000000,  0.000000,  1.931059)
  44 Al ( 0.000000,  0.000000, -0.026746)
  45 Co ( 0.000000,  0.000000,  0.770634)
  46 Co ( 0.000000,  0.000000,  0.998628)
  47 Ni ( 0.000000,  0.000000,  0.118041)
  48 Ni ( 0.000000,  0.000000,  0.393601)
  49 Ni ( 0.000000,  0.000000,  0.313439)
  50 Co ( 0.000000,  0.000000,  1.251137)
  51 Fe ( 0.000000,  0.000000,  2.349513)
  52 Co ( 0.000000,  0.000000,  1.227746)
  53 Cr ( 0.000000,  0.000000, -1.873758)
  54 Cr ( 0.000000,  0.000000,  1.302066)
  55 Cr ( 0.000000,  0.000000,  1.521088)
  56 Cr ( 0.000000,  0.000000, -1.709337)
  57 Co ( 0.000000,  0.000000,  1.176839)
  58 Fe ( 0.000000,  0.000000,  2.262094)
  59 Fe ( 0.000000,  0.000000,  2.216373)
[...]
  93 Ni ( 0.000000,  0.000000,  0.322755)
  94 Cr ( 0.000000,  0.000000,  1.555701)
  95 Al ( 0.000000,  0.000000, -0.009812)
  96 Cr ( 0.000000,  0.000000,  0.774396)
  97 Cr ( 0.000000,  0.000000, -0.863406)
  98 Fe ( 0.000000,  0.000000,  1.729990)
  99 Co ( 0.000000,  0.000000,  0.911802)
 100 Fe ( 0.000000,  0.000000, -1.266455)
 101 Cr ( 0.000000,  0.000000, -2.101344)
 102 Al ( 0.000000,  0.000000, -0.010034)
 103 Fe ( 0.000000,  0.000000,  2.117772)
 104 Fe ( 0.000000,  0.000000,  2.459371)
 105 Ni ( 0.000000,  0.000000,  0.241476)
 106 Cr ( 0.000000,  0.000000, -1.295338)
 107 Co ( 0.000000,  0.000000,  0.948820)

Energy contributions relative to reference atoms: (reference = -3382523.201499)

Kinetic:       +228.083740
Potential:     -234.795202
External:        +0.000000
XC:            -850.201244
Entropy (-ST):   -4.189849
Local:          +33.223390
Free energy:   -827.879166
Extrapolated:  -825.784242

Spin contamination: 29.772958 electrons
Showing only first 2 kpts
                      Up                     Down
 Kpt  Band  Eigenvalues  Occupancy  Eigenvalues  Occupancy
  0   470      9.14076    0.99567     10.07173    0.02040
  0   471      9.14921    0.99529     10.07918    0.01896
  0   472      9.16331    0.99458     10.09170    0.01677
  0   473      9.18734    0.99312     10.09745    0.01585

  1   470      9.15081    0.99522     10.06613    0.02155
  1   471      9.15456    0.99503     10.07404    0.01995
  1   472      9.17111    0.99415     10.08633    0.01768
  1   473      9.18080    0.99355     10.10081    0.01533

Fermi level: 9.68458

No gap

Forces in eV/Ang:
  0 Co    0.17064   -0.61831    0.14121
  1 Fe    0.27499   -0.44394    0.18361
  2 Fe   -0.24324   -0.20928   -0.59426
  3 Al    0.29035   -0.24423   -0.46916
  4 Fe    0.18486   -0.17450   -0.70520
  5 Fe    0.13812    0.53876   -0.19758
  6 Co    0.23156    0.28536   -0.56821
  7 Cr   -1.01276   -1.03730   -0.82182
  8 Fe   -0.48264    0.51297   -0.34081
  9 Al   -0.30985   -0.63302   -1.29978
 10 Ni   -0.19399   -0.22745   -0.45571
 11 Ni   -0.24975   -0.39228   -0.42552
 12 Ni   -0.29844    0.51267    0.11362
 13 Al    0.83067   -0.15011   -0.29453
 14 Fe    0.83560    0.41237    0.87287
 15 Fe   -0.11332    0.02669    0.01157
 16 Co    0.39869    0.05179    0.32920
 17 Co   -0.40080   -0.52374    0.61556
 18 Ni   -0.48798   -0.19360   -0.04418
 19 Fe    0.26500   -0.53132    0.55455
 20 Ni   -0.09191   -0.04690   -0.34140
 21 Co    0.06499    0.57027    0.04206
 22 Al    0.30278   -0.07278   -0.66853
 23 Fe   -0.48723    0.85443   -0.42740
 24 Co    0.24580   -0.06236   -0.07420
 25 Co    0.31707   -0.13263   -0.34945
 26 Cr   -0.69542    0.18810    0.08770
 27 Ni    0.74392    0.44725   -0.21662
 28 Al   -0.89226    0.13602    0.37455
 29 Al   -0.42158    0.46080   -0.96724
 30 Ni   -0.13411    0.06033    0.44067
 31 Cr    0.65876    0.94190   -0.38972
 32 Co    0.48662   -0.17959    0.15145
 33 Cr   -0.06609   -0.03545   -0.54087
 34 Cr   -0.49123    0.37914   -0.17791
 35 Co   -0.20341    0.05198    0.15331
 36 Cr    0.12661   -0.73535   -0.80327
 37 Al    0.01744   -0.07336   -0.25684
 38 Ni    0.25663   -0.03855    0.08156
 39 Co    0.53311    0.54369   -0.15128
 40 Al   -0.54931    0.86617   -0.30677
 41 Cr   -0.36384    1.58298    0.05395
 42 Al    0.38132    0.03814    0.98152
 43 Fe   -0.43007    0.54264    0.12247
 44 Al    0.94893   -0.12788    0.07287
 45 Co    0.00950    0.38383    0.51575
 46 Co   -0.15388   -0.37052    0.15046
 47 Ni   -0.14707   -0.15112    0.06910
 48 Ni    0.58036    0.36293   -0.07417
 49 Ni    0.34575    0.31730   -0.35791
 50 Co    0.70699    0.25660   -0.30868
 51 Fe    1.22516   -0.12843    0.31465
 52 Co   -0.36270   -0.08636    0.20379
 53 Cr   -0.15163   -0.82326   -0.09999
 54 Cr    0.07285    0.14591    0.53632
 55 Cr   -0.00800   -0.27347   -0.31296
 56 Cr   -0.95704    0.54605    1.20650
 57 Co    0.12999    0.26862    0.26125
 58 Fe   -0.92225    0.08041    0.28238
 59 Fe   -0.64582    0.86316    0.73847
[...]
 93 Ni    0.37307   -0.12689   -0.24846
 94 Cr    0.13755    0.16553    0.29258
 95 Al   -1.45384   -0.03675   -0.88750
 96 Cr   -0.19263    0.51053    0.62862
 97 Cr    0.32590    0.23788    0.46642
 98 Fe    0.11815    0.25639   -0.24688
 99 Co    0.23063   -0.18339    0.37658
100 Fe   -0.38128    0.85228   -0.13068
101 Cr   -0.52898    0.98510    0.19458
102 Al    1.16039    0.09382   -1.35401
103 Fe   -0.01157   -0.35543    0.57192
104 Fe    0.02463   -0.15523   -0.57426
105 Ni    0.12421    0.13945    0.04024
106 Cr   -0.73567    0.51196    0.40922
107 Co   -0.32139   -0.09991   -0.08170

Date: Sat Apr 15 02:40:46 2023