User:   c.zeng@d0142
Date:   Sat Apr  8 15:55:11 2023
Arch:   x86_64
Pid:    18364
CWD:    /home/c.zeng/projects/hea-corrosion/hea-mlp/data-curation/volume/dft-jobs/88
Python: 3.8.1
gpaw:   /home/c.zeng/usr/installs/gpaw/source/gpaw-22.8.0/gpaw
_gpaw:  /home/c.zeng/usr/installs/gpaw/source/gpaw-22.8.0/
        _gpaw.cpython-38-x86_64-linux-gnu.so
ase:    /home/c.zeng/.local/lib/python3.8/site-packages/ase-3.22.1-py3.8.egg/ase (version 3.22.1)
numpy:  /shared/centos7/python/3.8.1/lib/python3.8/site-packages/numpy (version 1.17.4)
scipy:  /shared/centos7/python/3.8.1/lib/python3.8/site-packages/scipy (version 1.4.1)
units:  Angstrom and eV
cores: 64
OpenMP: False
OMP_NUM_THREADS: 1

Input parameters:
  convergence: {energy: 0.0001}
  kpts: [2 2 2]
  maxiter: 666
  mode: {ecut: 350.0,
         name: pw}
  occupations: {fixmagmom: False,
                name: fermi-dirac,
                width: 0.1}
  spinpol: True
  xc: PBE

System changes: positions, numbers, cell, pbc, initial_charges, initial_magmoms

Initialize ...

species:
  Fe:
    name: Iron
    id: 37abbd8d6c3c35915a9b583b742da910
    Z: 26.0
    valence: 8
    core: 18
    charge: 0.0
    file: /home/c.zeng/usr/data/gpaw-setups-0.9.20000/Fe.PBE.gz
    compensation charges: {type: gauss,
                           rc: 0.33,
                           lmax: 2}
    cutoffs: {filter: 2.06,
              core: 2.67}
    valence states:
      #              energy  rcut
      - 4s(2.00)    -5.291   1.164
      - 4p(0.00)    -1.326   1.058
      - 3d(6.00)    -7.505   1.058
      -  s          21.920   1.164
      -  p          25.885   1.058
      -  d          19.706   1.058

    # Using partial waves for Fe as LCAO basis

  Cr:
    name: Chromium
    id: 33f258bda2ca9f93018e70263a35547b
    Z: 24.0
    valence: 6
    core: 18
    charge: 0.0
    file: /home/c.zeng/usr/data/gpaw-setups-0.9.20000/Cr.PBE.gz
    compensation charges: {type: gauss,
                           rc: 0.35,
                           lmax: 2}
    cutoffs: {filter: 2.14,
              core: 3.04}
    valence states:
      #              energy  rcut
      - 4s(1.00)    -4.007   1.164
      - 4p(0.00)    -0.989   1.217
      - 3d(5.00)    -2.913   1.111
      -  s          23.205   1.164
      -  p          26.223   1.217
      -  d          24.299   1.111

[...]

  Ni:
    name: Nickel
    id: 0d9f38a9d6e76a2886f07bb4381f212b
    Z: 28.0
    valence: 16
    core: 12
    charge: 0.0
    file: /home/c.zeng/usr/data/gpaw-setups-0.9.20000/Ni.PBE.gz
    compensation charges: {type: gauss,
                           rc: 0.36,
                           lmax: 2}
    cutoffs: {filter: 2.14,
              core: 1.98}
    valence states:
      #              energy  rcut
      - 4s(2.00)    -5.642   1.164
      - 3p(6.00)   -71.394   1.207
      - 4p(0.00)    -1.226   1.207
      - 3d(8.00)    -8.875   1.138
      -  s          21.570   1.164
      -  d          18.337   1.138

[...]

  Al:
    name: Aluminium
    id: 0292cae29f5d6237e50f6abdd43a7bdd
    Z: 13.0
    valence: 3
    core: 10
    charge: 0.0
    file: /home/c.zeng/usr/data/gpaw-setups-0.9.20000/Al.PBE.gz
    compensation charges: {type: gauss,
                           rc: 0.34,
                           lmax: 2}
    cutoffs: {filter: 1.91,
              core: 2.36}
    valence states:
      #              energy  rcut
      - 3s(2.00)    -7.753   1.085
      - 3p(1.00)    -2.712   1.085
      -  s          19.459   1.085
      -  p          24.499   1.085
      -  d           0.000   1.085

[...]

  Co:
    name: Cobalt
    id: 339d20d5b0b93d2de9531a1bee871d91
    Z: 27.0
    valence: 9
    core: 18
    charge: 0.0
    file: /home/c.zeng/usr/data/gpaw-setups-0.9.20000/Co.PBE.gz
    compensation charges: {type: gauss,
                           rc: 0.32,
                           lmax: 2}
    cutoffs: {filter: 1.87,
              core: 2.55}
    valence states:
      #              energy  rcut
      - 4s(2.00)    -5.469   1.005
      - 4p(0.00)    -1.277   1.058
      - 3d(7.00)    -8.205   1.005
      -  s          21.742   1.005
      -  p          25.934   1.058
      -  d          19.007   1.005

    # Using partial waves for Co as LCAO basis

Reference energy: -3382523.201499  # eV

Spin-polarized calculation.
Magnetic moment: 128.800000

Convergence criteria:
 Maximum [total energy] change in last 3 cyles: 0.0001 eV / electron
 Maximum integral of absolute [dens]ity change: 0.0001 electrons / valence electron
 Maximum integral of absolute [eigenst]ate change: 4e-08 eV^2 / valence electron
 Maximum number of scf [iter]ations: 666
 (Square brackets indicate name in SCF output, whereas a 'c' in
 the SCF output indicates the quantity has converged.)

Symmetries present (total): 1

  ( 1  0  0)
  ( 0  1  0)
  ( 0  0  1)

8 k-points: 2 x 2 x 2 Monkhorst-Pack grid
4 k-points in the irreducible part of the Brillouin zone
       k-points in crystal coordinates                weights
   0:     0.25000000   -0.25000000   -0.25000000          2/8
   1:     0.25000000   -0.25000000    0.25000000          2/8
   2:     0.25000000    0.25000000   -0.25000000          2/8
   3:     0.25000000    0.25000000    0.25000000          2/8

Wave functions: Plane wave expansion
  Cutoff energy: 350.000 eV
  Number of coefficients (min, max): 25839, 25839
  Pulay-stress correction: 0.000000 eV/Ang^3 (de/decut=0.000000)
  Using FFTW library
  ScaLapack parameters: grid=1x1, blocksize=None
  Wavefunction extrapolation:
    Improved wavefunction reuse through dual PAW basis

Occupation numbers: Fermi-Dirac:
  width: 0.1000  # eV

Eigensolver
   Davidson(niter=2)

Densities:
  Coarse grid: 54*54*54 grid
  Fine grid: 108*108*108 grid
  Total Charge: 0.000000

Density mixing:
  Method: difference
  Backend: pulay
  Linear mixing parameter: 0.05
  old densities: 5
  Damping of long wavelength oscillations: 50

Hamiltonian:
  XC and Coulomb potentials evaluated on a 108*108*108 grid
  Using the PBE Exchange-Correlation functional
  External potential:
    NoExternalPotential

XC parameters: PBE with 2 nearest neighbor stencil

Total number of cores used: 64
Parallelization over k-points: 4
Domain decomposition: 4 x 2 x 2

Number of atoms: 108
Number of atomic orbitals: 961
Number of bands in calculation: 649
Number of valence electrons: 945
Bands to converge: occupied

... initialized

Initializing position-dependent things.

Density initialized from atomic densities
Creating initial wave functions:
  649 bands from LCAO basis set

        .-----------------------------Fe
       /|                       Ni    |
      / |                           Ni|
     /  |              Cr        Ni   |
    /   | Cr     Al        NiAl      Fe
   /i   |  Co        Cr     Co Co     Fe
  /    Cr   NiFe      Co Cr     FeFe  |
 *      Co      CrNi      AlFe      Ni|
 |      | CrFeo     CoAle     CrCoo   |
 |      |        Cr        Fe        Co
 |    CoNi AlNi      AlAl   Cr CrNi   |
 |     Co   Ni FeFe   NiNi Ni   CrCr  |
 |      Co Fe   AlFe   Ni AlCo      Fe|
 |      |   Al        Co        Co    |
 |      |Al      Cr Fe     CrCo      Cr
 |      .--CrAl------FeNi---Al-CoNi---.
 |     Cr   Al CrNi   FeFe Ni     Cr /
 |    / Fe Fe   CrCo      NiCo      /
 |   /      Fe      FeCo        Cr /
 |  / Ni                  Ni      /
 | /         Co        Cr        /
 |/              Al        Co   /
 *---------Al------------------*

Positions:
   0 Fe    -0.000001   -0.000000   -0.000001    ( 0.0000,  0.0000,  2.0000)
   1 Cr    -0.000000    2.004754    2.004754    ( 0.0000,  0.0000,  0.0000)
   2 Ni     2.004754    0.000002    2.004754    ( 0.0000,  0.0000,  1.5000)
   3 Cr     2.004754    2.004754   -0.000000    ( 0.0000,  0.0000,  0.0000)
   4 Al     4.009496    0.000007    0.000006    ( 0.0000,  0.0000,  0.0000)
   5 Fe     4.009496    2.004754    2.004754    ( 0.0000,  0.0000,  2.0000)
   6 Ni     6.014250   -0.000001    2.004754    ( 0.0000,  0.0000,  1.5000)
   7 Al     6.014238    2.004754    0.000006    ( 0.0000,  0.0000,  0.0000)
   8 Al     8.019004   -0.000012    0.000005    ( 0.0000,  0.0000,  0.0000)
   9 Co     8.019004    2.004754    2.004754    ( 0.0000,  0.0000,  2.1000)
  10 Ni    10.023758    0.000002    2.004754    ( 0.0000,  0.0000,  1.5000)
  11 Co    10.023758    2.004754    0.000000    ( 0.0000,  0.0000,  2.1000)
  12 Ni     0.000000    4.009496   -0.000002    ( 0.0000,  0.0000,  1.5000)
  13 Cr    -0.000001    6.014250    2.004754    ( 0.0000,  0.0000,  0.0000)
  14 Fe     2.004754    4.009496    2.004754    ( 0.0000,  0.0000,  2.0000)
  15 Cr     2.004754    6.014250   -0.000002    ( 0.0000,  0.0000,  0.0000)
  16 Co     4.009496    4.009496    0.000000    ( 0.0000,  0.0000,  2.1000)
  17 Cr     4.009508    6.014250    2.004742    ( 0.0000,  0.0000,  0.0000)
  18 Co     6.014250    4.009508    2.004754    ( 0.0000,  0.0000,  2.1000)
  19 Fe     6.014250    6.014250    0.000002    ( 0.0000,  0.0000,  2.0000)
  20 Cr     8.019004    4.009508    0.000004    ( 0.0000,  0.0000,  0.0000)
  21 Fe     8.018992    6.014250    2.004754    ( 0.0000,  0.0000,  2.0000)
  22 Co    10.023746    4.009496    2.004754    ( 0.0000,  0.0000,  2.1000)
  23 Al    10.023746    6.014250   -0.000001    ( 0.0000,  0.0000,  0.0000)
  24 Ni    -0.000002    8.019004   -0.000003    ( 0.0000,  0.0000,  1.5000)
  25 Cr    -0.000002   10.023746    2.004754    ( 0.0000,  0.0000,  0.0000)
  26 Cr     2.004742    8.019004    2.004754    ( 0.0000,  0.0000,  0.0000)
  27 Al     2.004742   10.023746    0.000002    ( 0.0000,  0.0000,  0.0000)
  28 Cr     4.009508    8.018992    0.000001    ( 0.0000,  0.0000,  0.0000)
  29 Cr     4.009508   10.023746    2.004754    ( 0.0000,  0.0000,  0.0000)
  30 Fe     6.014250    8.019004    2.004754    ( 0.0000,  0.0000,  2.0000)
  31 Fe     6.014250   10.023746    0.000002    ( 0.0000,  0.0000,  2.0000)
  32 Ni     8.018992    8.019004    0.000003    ( 0.0000,  0.0000,  1.5000)
  33 Cr     8.018992   10.023746    2.004742    ( 0.0000,  0.0000,  0.0000)
  34 Co    10.023746    8.019004    2.004754    ( 0.0000,  0.0000,  2.1000)
  35 Ni    10.023758   10.023746   -0.000002    ( 0.0000,  0.0000,  1.5000)
  36 Ni     0.000001   -0.000001    4.009496    ( 0.0000,  0.0000,  1.5000)
  37 Co    -0.000000    2.004754    6.014250    ( 0.0000,  0.0000,  2.1000)
  38 Co     2.004754   -0.000002    6.014250    ( 0.0000,  0.0000,  2.1000)
  39 Cr     2.004754    2.004742    4.009496    ( 0.0000,  0.0000,  0.0000)
  40 Fe     4.009496    0.000001    4.009496    ( 0.0000,  0.0000,  2.0000)
  41 Al     4.009508    2.004742    6.014262    ( 0.0000,  0.0000,  0.0000)
  42 Fe     6.014250   -0.000001    6.014250    ( 0.0000,  0.0000,  2.0000)
  43 Ni     6.014250    2.004754    4.009496    ( 0.0000,  0.0000,  1.5000)
  44 Cr     8.019004   -0.000000    4.009508    ( 0.0000,  0.0000,  0.0000)
  45 Co     8.018992    2.004754    6.014250    ( 0.0000,  0.0000,  2.1000)
  46 Co    10.023746   -0.000001    6.014250    ( 0.0000,  0.0000,  2.1000)
  47 Ni    10.023746    2.004754    4.009496    ( 0.0000,  0.0000,  1.5000)
  48 Ni    -0.000001    4.009496    4.009496    ( 0.0000,  0.0000,  1.5000)
  49 Cr    -0.000003    6.014250    6.014250    ( 0.0000,  0.0000,  0.0000)
  50 Co     2.004754    4.009496    6.014250    ( 0.0000,  0.0000,  2.1000)
  51 Al     2.004742    6.014250    4.009496    ( 0.0000,  0.0000,  0.0000)
  52 Al     4.009508    4.009496    4.009496    ( 0.0000,  0.0000,  0.0000)
  53 Fe     4.009508    6.014250    6.014250    ( 0.0000,  0.0000,  2.0000)
  54 Fe     6.014250    4.009508    6.014250    ( 0.0000,  0.0000,  2.0000)
  55 Fe     6.014250    6.014250    4.009496    ( 0.0000,  0.0000,  2.0000)
  56 Ni     8.019004    4.009508    4.009496    ( 0.0000,  0.0000,  1.5000)
  57 Ni     8.018992    6.014250    6.014250    ( 0.0000,  0.0000,  1.5000)
  58 Co    10.023746    4.009496    6.014250    ( 0.0000,  0.0000,  2.1000)
  59 Co    10.023746    6.014250    4.009496    ( 0.0000,  0.0000,  2.1000)
[...]
  93 Cr     8.019004    6.014250   10.023758    ( 0.0000,  0.0000,  0.0000)
  94 Fe    10.023758    4.009496   10.023746    ( 0.0000,  0.0000,  2.0000)
  95 Cr    10.023758    6.014250    8.019004    ( 0.0000,  0.0000,  0.0000)
  96 Ni    -0.000002    8.019004    8.019004    ( 0.0000,  0.0000,  1.5000)
  97 Fe    -0.000001   10.023746   10.023746    ( 0.0000,  0.0000,  2.0000)
  98 Co     2.004742    8.018992   10.023746    ( 0.0000,  0.0000,  2.1000)
  99 Ni     2.004742   10.023758    8.019004    ( 0.0000,  0.0000,  1.5000)
 100 Cr     4.009496    8.018992    8.019004    ( 0.0000,  0.0000,  0.0000)
 101 Al     4.009508   10.023746   10.023746    ( 0.0000,  0.0000,  0.0000)
 102 Cr     6.014250    8.019004   10.023758    ( 0.0000,  0.0000,  0.0000)
 103 Co     6.014250   10.023758    8.019004    ( 0.0000,  0.0000,  2.1000)
 104 Al     8.019004    8.019004    8.019004    ( 0.0000,  0.0000,  0.0000)
 105 Ni     8.019004   10.023746   10.023746    ( 0.0000,  0.0000,  1.5000)
 106 Co    10.023758    8.019004   10.023746    ( 0.0000,  0.0000,  2.1000)
 107 Fe    10.023746   10.023746    8.019004    ( 0.0000,  0.0000,  2.0000)

Unit cell:
           periodic     x           y           z      points  spacing
  1. axis:    yes   12.028500    0.000000    0.000000    54     0.2228
  2. axis:    yes    0.000000   12.028500    0.000000    54     0.2228
  3. axis:    yes    0.000000    0.000000   12.028500    54     0.2228

  Lengths:  12.028500  12.028500  12.028500
  Angles:   90.000000  90.000000  90.000000

Effective grid spacing dv^(1/3) = 0.2228

     iter     time        total  log10-change:  magmom
                         energy  eigst   dens
iter:   1 15:57:40 -1003.916072                  +129.0861
iter:   2 15:58:52  -863.481869  +0.06  -1.14    +67.7370
iter:   3 16:00:04  -874.887125  -0.41  -1.03    +73.5471
iter:   4 16:01:15  -786.159360  -1.07  -1.13    +68.2786
iter:   5 16:02:26  -774.264349  -1.63  -1.28    +69.5968
iter:   6 16:03:38  -778.885298  -1.67  -1.33    +79.4621
iter:   7 16:04:48  -782.663381  -1.30  -1.32    +84.2351
iter:   8 16:06:00  -773.215207  -1.48  -1.34    +87.8674
iter:   9 16:07:12  -774.125877  -1.38  -1.42    +89.9696
iter:  10 16:08:23  -771.522813  -1.60  -1.50    +90.9432
iter:  11 16:09:36  -778.555446  -1.55  -1.59    +89.5671
iter:  12 16:10:47  -767.547339  -1.80  -1.48    +89.0339
iter:  13 16:11:58  -769.617104  -2.01  -1.72    +88.6129
iter:  14 16:13:10  -768.259808  -2.25  -1.74    +88.5894
iter:  15 16:14:22  -769.460531  -2.38  -1.78    +86.5371
iter:  16 16:15:34  -770.481302  -2.64  -1.82    +85.5457
iter:  17 16:16:45  -772.656564  -2.49  -1.86    +84.4375
iter:  18 16:17:56  -772.788394  -2.63  -1.83    +83.1294
iter:  19 16:19:07  -773.897679  -2.62  -1.91    +81.3077
iter:  20 16:20:19  -776.238891  -2.38  -1.93    +80.6006
iter:  21 16:21:31  -775.251522  -2.57  -1.88    +80.9334
iter:  22 16:22:43  -775.872409  -2.61  -1.98    +78.8867
iter:  23 16:23:54  -776.322583  -2.62  -2.01    +78.8395
iter:  24 16:25:06  -776.671061  -2.68  -2.02    +78.8632
iter:  25 16:26:18  -776.371888  -2.96  -2.04    +78.9091
iter:  26 16:27:30  -776.768259  -3.07  -2.10    +78.6318
iter:  27 16:28:42  -777.161737  -3.01  -2.14    +78.0418
iter:  28 16:29:53  -777.257594  -3.23  -2.13    +78.2001
iter:  29 16:31:03  -777.607697  -3.26  -2.17    +78.4727
iter:  30 16:32:15  -778.112359  -3.10  -2.22    +78.4889
iter:  31 16:33:26  -778.134121  -3.23  -2.18    +78.3184
iter:  32 16:34:38  -778.380096  -3.08  -2.27    +78.4051
iter:  33 16:35:49  -778.315320  -2.84  -2.24    +78.6353
iter:  34 16:37:01  -778.366400c -3.30  -2.38    +79.1212
iter:  35 16:38:12  -778.382941c -3.34  -2.42    +79.2735
iter:  36 16:39:23  -778.480249  -3.35  -2.44    +79.4714
iter:  37 16:40:35  -778.324679  -3.73  -2.45    +79.8813
iter:  38 16:41:46  -778.343874  -4.12  -2.61    +80.1935
iter:  39 16:42:58  -778.343409c -3.96  -2.67    +80.2886
iter:  40 16:44:08  -778.345138c -4.18  -2.67    +80.3052
iter:  41 16:45:19  -778.329318c -4.17  -2.77    +80.3962
iter:  42 16:46:31  -778.328407c -4.29  -2.90    +80.4093
iter:  43 16:47:43  -778.324672c -4.65  -2.93    +80.3763
iter:  44 16:48:54  -778.325174c -4.63  -3.01    +80.4167
iter:  45 16:50:06  -778.330072c -4.43  -3.03    +80.4121
iter:  46 16:51:18  -778.317947c -4.78  -2.99    +80.3899
iter:  47 16:52:29  -778.325113c -4.88  -3.18    +80.3725
iter:  48 16:53:41  -778.323022c -4.74  -3.20    +80.4017
iter:  49 16:54:53  -778.320064c -4.86  -3.20    +80.3966
iter:  50 16:56:04  -778.319218c -5.20  -3.23    +80.3605
iter:  51 16:57:15  -778.321992c -5.07  -3.39    +80.3710
iter:  52 16:58:25  -778.319736c -5.39  -3.32    +80.3717
iter:  53 16:59:37  -778.318747c -5.59  -3.45    +80.3703
iter:  54 17:00:48  -778.322526c -5.51  -3.49    +80.3636
iter:  55 17:02:00  -778.320130c -5.59  -3.50    +80.3770
iter:  56 17:03:12  -778.319620c -5.63  -3.60    +80.3836
iter:  57 17:04:23  -778.320048c -5.84  -3.59    +80.3772
iter:  58 17:05:34  -778.319563c -6.02  -3.71    +80.3788
iter:  59 17:06:46  -778.320360c -5.92  -3.76    +80.3799
iter:  60 17:07:57  -778.319942c -6.14  -3.72    +80.3826
iter:  61 17:09:08  -778.319337c -6.41  -3.90    +80.3860
iter:  62 17:10:20  -778.319963c -6.26  -3.94    +80.3827
iter:  63 17:11:31  -778.319566c -6.56  -3.95    +80.3853
iter:  64 17:12:42  -778.319592c -6.49  -4.06c   +80.3877
iter:  65 17:13:52  -778.319625c -6.49  -4.11c   +80.3852
iter:  66 17:15:03  -778.319389c -6.77  -4.11c   +80.3873
iter:  67 17:16:15  -778.319422c -6.77  -4.20c   +80.3885
iter:  68 17:17:26  -778.319166c -7.03  -4.34c   +80.3885
iter:  69 17:18:38  -778.319480c -7.11  -4.36c   +80.3871
iter:  70 17:19:49  -778.319273c -7.21  -4.38c   +80.3885
iter:  71 17:21:00  -778.319254c -7.50c -4.49c   +80.3886

Converged after 71 iterations.

Dipole moment: (-0.540462, -0.161353, 0.167762) |e|*Ang

Total magnetic moment: (0.000000, 0.000000, 80.388631)
Local magnetic moments:
   0 Fe ( 0.000000,  0.000000,  2.951542)
   1 Cr ( 0.000000,  0.000000, -3.255435)
   2 Ni ( 0.000000,  0.000000,  0.008203)
   3 Cr ( 0.000000,  0.000000, -3.270617)
   4 Al ( 0.000000,  0.000000, -0.003767)
   5 Fe ( 0.000000,  0.000000,  2.860459)
   6 Ni ( 0.000000,  0.000000,  0.333738)
   7 Al ( 0.000000,  0.000000, -0.010185)
   8 Al ( 0.000000,  0.000000, -0.022790)
   9 Co ( 0.000000,  0.000000,  1.798168)
  10 Ni ( 0.000000,  0.000000,  0.363998)
  11 Co ( 0.000000,  0.000000,  1.736011)
  12 Ni ( 0.000000,  0.000000,  0.440761)
  13 Cr ( 0.000000,  0.000000,  2.951390)
  14 Fe ( 0.000000,  0.000000,  2.683775)
  15 Cr ( 0.000000,  0.000000, -3.178389)
  16 Co ( 0.000000,  0.000000,  1.668073)
  17 Cr ( 0.000000,  0.000000, -3.076986)
  18 Co ( 0.000000,  0.000000,  1.682395)
  19 Fe ( 0.000000,  0.000000,  2.903909)
  20 Cr ( 0.000000,  0.000000, -3.220391)
  21 Fe ( 0.000000,  0.000000,  2.948477)
  22 Co ( 0.000000,  0.000000,  1.778745)
  23 Al ( 0.000000,  0.000000, -0.039339)
  24 Ni ( 0.000000,  0.000000,  0.387876)
  25 Cr ( 0.000000,  0.000000, -3.191829)
  26 Cr ( 0.000000,  0.000000,  2.881948)
  27 Al ( 0.000000,  0.000000, -0.008534)
  28 Cr ( 0.000000,  0.000000, -3.115396)
  29 Cr ( 0.000000,  0.000000, -3.196253)
  30 Fe ( 0.000000,  0.000000,  2.760858)
  31 Fe ( 0.000000,  0.000000,  2.669351)
  32 Ni ( 0.000000,  0.000000,  0.561613)
  33 Cr ( 0.000000,  0.000000,  3.053707)
  34 Co ( 0.000000,  0.000000,  1.663276)
  35 Ni ( 0.000000,  0.000000,  0.608690)
  36 Ni ( 0.000000,  0.000000,  0.426216)
  37 Co ( 0.000000,  0.000000,  1.967159)
  38 Co ( 0.000000,  0.000000,  1.780525)
  39 Cr ( 0.000000,  0.000000, -3.217423)
  40 Fe ( 0.000000,  0.000000,  2.973385)
  41 Al ( 0.000000,  0.000000, -0.034183)
  42 Fe ( 0.000000,  0.000000,  2.962870)
  43 Ni ( 0.000000,  0.000000,  0.562645)
  44 Cr ( 0.000000,  0.000000, -3.226226)
  45 Co ( 0.000000,  0.000000,  1.904768)
  46 Co ( 0.000000,  0.000000,  1.912267)
  47 Ni ( 0.000000,  0.000000,  0.683174)
  48 Ni ( 0.000000,  0.000000,  0.447567)
  49 Cr ( 0.000000,  0.000000,  3.061207)
  50 Co ( 0.000000,  0.000000,  1.602989)
  51 Al ( 0.000000,  0.000000, -0.044725)
  52 Al ( 0.000000,  0.000000, -0.025288)
  53 Fe ( 0.000000,  0.000000,  2.718184)
  54 Fe ( 0.000000,  0.000000,  2.954912)
  55 Fe ( 0.000000,  0.000000,  2.767234)
  56 Ni ( 0.000000,  0.000000,  0.747458)
  57 Ni ( 0.000000,  0.000000,  0.186129)
  58 Co ( 0.000000,  0.000000,  1.867019)
  59 Co ( 0.000000,  0.000000,  1.833852)
[...]
  93 Cr ( 0.000000,  0.000000,  3.056648)
  94 Fe ( 0.000000,  0.000000,  2.843994)
  95 Cr ( 0.000000,  0.000000, -3.135254)
  96 Ni ( 0.000000,  0.000000,  0.507434)
  97 Fe ( 0.000000,  0.000000,  3.067853)
  98 Co ( 0.000000,  0.000000,  1.512006)
  99 Ni ( 0.000000,  0.000000,  0.558066)
 100 Cr ( 0.000000,  0.000000,  3.005593)
 101 Al ( 0.000000,  0.000000, -0.009633)
 102 Cr ( 0.000000,  0.000000, -3.149874)
 103 Co ( 0.000000,  0.000000,  1.507309)
 104 Al ( 0.000000,  0.000000, -0.015884)
 105 Ni ( 0.000000,  0.000000,  0.483761)
 106 Co ( 0.000000,  0.000000,  1.730845)
 107 Fe ( 0.000000,  0.000000,  2.999085)

Energy contributions relative to reference atoms: (reference = -3382523.201499)

Kinetic:       -304.229105
Potential:     +188.483648
External:        +0.000000
XC:            -689.316691
Entropy (-ST):   -4.757327
Local:          +29.121558
Free energy:   -780.697918
Extrapolated:  -778.319254

Spin contamination: 62.940143 electrons
Showing only first 2 kpts
                      Up                     Down
 Kpt  Band  Eigenvalues  Occupancy  Eigenvalues  Occupancy
  0   470      5.38190    0.99982      6.58921    0.03091
  0   471      5.39689    0.99979      6.59392    0.02953
  0   472      5.40490    0.99977      6.60658    0.02611
  0   473      5.41820    0.99974      6.61545    0.02395

  1   470      5.39042    0.99981      6.58991    0.03071
  1   471      5.40949    0.99976      6.59494    0.02924
  1   472      5.41325    0.99976      6.60310    0.02701
  1   473      5.41967    0.99974      6.61858    0.02323

Fermi level: 6.24469

No gap

Forces in eV/Ang:
  0 Fe   -0.30129    0.29780   -0.25613
  1 Cr   -0.79538   -0.01461   -0.00608
  2 Ni    0.03922    0.05270   -0.03700
  3 Cr    0.09340    0.31069   -0.33662
  4 Al   -0.14595    0.17640    0.39948
  5 Fe    0.03435    0.33654    0.00946
  6 Ni   -0.06127    0.20677   -0.13470
  7 Al   -0.36895    0.65058    0.54228
  8 Al    0.75851   -0.49775    0.38299
  9 Co    0.19097    0.31223    0.18266
 10 Ni   -0.06653    0.18466   -0.17362
 11 Co    0.18546    0.11926    0.07206
 12 Ni   -0.03127   -0.12001   -0.11807
 13 Cr   -0.30912   -0.32621   -0.04309
 14 Fe    0.10147   -0.36308   -0.29518
 15 Cr   -0.77950   -0.40380   -0.42981
 16 Co    0.00835    0.12487   -0.06012
 17 Cr    0.37735   -0.24347    0.10942
 18 Co    0.15616   -0.08662    0.13995
 19 Fe   -0.31105   -0.11223    0.42732
 20 Cr    0.06930    0.21521    0.20617
 21 Fe   -0.00456   -0.03952    0.15122
 22 Co   -0.21107   -0.17139    0.20050
 23 Al    0.24265    0.43500    0.02908
 24 Ni   -0.08843    0.08803   -0.10174
 25 Cr   -0.29496   -0.05272    0.23317
 26 Cr    0.47906    0.14149   -0.41960
 27 Al   -0.71606   -0.06831   -0.10637
 28 Cr    0.09973   -0.05517   -0.14256
 29 Cr    0.27596    0.45420    0.65969
 30 Fe   -0.05761   -0.21460   -0.19138
 31 Fe    0.06187   -0.37770    0.01219
 32 Ni   -0.03776    0.08347    0.06502
 33 Cr    0.14763    0.11357   -0.20313
 34 Co    0.03595   -0.09797   -0.07372
 35 Ni    0.12325   -0.08891   -0.06108
 36 Ni   -0.02530    0.02520    0.14542
 37 Co   -0.06828    0.07583    0.14296
 38 Co   -0.20265    0.01000    0.15530
 39 Cr   -0.15949   -0.17214    0.15960
 40 Fe    0.06616   -0.16808   -0.15019
 41 Al   -0.01787   -0.09530    0.49247
 42 Fe    0.17890    0.08171    0.10551
 43 Ni   -0.06679    0.10151   -0.00469
 44 Cr    0.00669    0.11074    0.02990
 45 Co   -0.03444    0.07506    0.07456
 46 Co    0.11534    0.18490    0.18747
 47 Ni   -0.02374    0.04936    0.08054
 48 Ni   -0.00972   -0.02493    0.06056
 49 Cr   -0.11982   -0.41097    0.26833
 50 Co    0.05716   -0.23824    0.09943
 51 Al   -0.75267   -0.54685    0.00806
 52 Al    0.47623   -0.07376   -0.04648
 53 Fe    0.23478   -0.46313    0.03123
 54 Fe    0.28015    0.04178   -0.02571
 55 Fe    0.17890   -0.34319   -0.18235
 56 Ni    0.03839   -0.11534   -0.06237
 57 Ni    0.05072    0.12140   -0.12114
 58 Co    0.00001   -0.27734   -0.26412
 59 Co   -0.21211   -0.22584   -0.08741
[...]
 93 Cr   -0.06792    0.18992    0.00078
 94 Fe    0.76166   -0.60864    0.04656
 95 Cr    0.41237   -0.39108    0.38913
 96 Ni   -0.01761    0.16629    0.19338
 97 Fe   -0.10971   -0.24254   -0.19097
 98 Co   -0.25377   -0.08223    0.03668
 99 Ni   -0.13706    0.10333    0.00187
100 Cr   -0.07132    0.24474    0.18381
101 Al   -0.28687   -0.13414   -0.77597
102 Cr    0.46057   -0.11491   -0.16159
103 Co    0.46576    0.41927   -0.08014
104 Al   -0.00476    0.18185    0.35857
105 Ni    0.09169   -0.01021   -0.00664
106 Co    0.24278    0.37378    0.07348
107 Fe    0.04610    0.17814    0.04189

Date: Sat Apr  8 17:21:22 2023