User:   c.zeng@d0150
Date:   Fri Apr 14 12:57:15 2023
Arch:   x86_64
Pid:    75013
CWD:    /home/c.zeng/projects/hea-corrosion/hea-mlp/data-curation/bulk-mcmc/dft-jobs/135
Python: 3.8.1
gpaw:   /home/c.zeng/usr/installs/gpaw/source/gpaw-22.8.0/gpaw
_gpaw:  /home/c.zeng/usr/installs/gpaw/source/gpaw-22.8.0/
        _gpaw.cpython-38-x86_64-linux-gnu.so
ase:    /home/c.zeng/.local/lib/python3.8/site-packages/ase-3.22.1-py3.8.egg/ase (version 3.22.1)
numpy:  /shared/centos7/python/3.8.1/lib/python3.8/site-packages/numpy (version 1.17.4)
scipy:  /shared/centos7/python/3.8.1/lib/python3.8/site-packages/scipy (version 1.4.1)
units:  Angstrom and eV
cores: 30
OpenMP: False
OMP_NUM_THREADS: 1

Input parameters:
  convergence: {energy: 0.0001}
  kpts: [2 2 2]
  maxiter: 666
  mode: {ecut: 350.0,
         name: pw}
  occupations: {fixmagmom: False,
                name: fermi-dirac,
                width: 0.1}
  spinpol: True
  xc: PBE

System changes: positions, numbers, cell, pbc, initial_charges, initial_magmoms

Initialize ...

species:
  Co:
    name: Cobalt
    id: 339d20d5b0b93d2de9531a1bee871d91
    Z: 27.0
    valence: 9
    core: 18
    charge: 0.0
    file: /home/c.zeng/usr/data/gpaw-setups-0.9.20000/Co.PBE.gz
    compensation charges: {type: gauss,
                           rc: 0.32,
                           lmax: 2}
    cutoffs: {filter: 1.87,
              core: 2.55}
    valence states:
      #              energy  rcut
      - 4s(2.00)    -5.469   1.005
      - 4p(0.00)    -1.277   1.058
      - 3d(7.00)    -8.205   1.005
      -  s          21.742   1.005
      -  p          25.934   1.058
      -  d          19.007   1.005

    # Using partial waves for Co as LCAO basis

  Fe:
    name: Iron
    id: 37abbd8d6c3c35915a9b583b742da910
    Z: 26.0
    valence: 8
    core: 18
    charge: 0.0
    file: /home/c.zeng/usr/data/gpaw-setups-0.9.20000/Fe.PBE.gz
    compensation charges: {type: gauss,
                           rc: 0.33,
                           lmax: 2}
    cutoffs: {filter: 2.06,
              core: 2.67}
    valence states:
      #              energy  rcut
      - 4s(2.00)    -5.291   1.164
      - 4p(0.00)    -1.326   1.058
      - 3d(6.00)    -7.505   1.058
      -  s          21.920   1.164
      -  p          25.885   1.058
      -  d          19.706   1.058

[...]

  Ni:
    name: Nickel
    id: 0d9f38a9d6e76a2886f07bb4381f212b
    Z: 28.0
    valence: 16
    core: 12
    charge: 0.0
    file: /home/c.zeng/usr/data/gpaw-setups-0.9.20000/Ni.PBE.gz
    compensation charges: {type: gauss,
                           rc: 0.36,
                           lmax: 2}
    cutoffs: {filter: 2.14,
              core: 1.98}
    valence states:
      #              energy  rcut
      - 4s(2.00)    -5.642   1.164
      - 3p(6.00)   -71.394   1.207
      - 4p(0.00)    -1.226   1.207
      - 3d(8.00)    -8.875   1.138
      -  s          21.570   1.164
      -  d          18.337   1.138

[...]

  Al:
    name: Aluminium
    id: 0292cae29f5d6237e50f6abdd43a7bdd
    Z: 13.0
    valence: 3
    core: 10
    charge: 0.0
    file: /home/c.zeng/usr/data/gpaw-setups-0.9.20000/Al.PBE.gz
    compensation charges: {type: gauss,
                           rc: 0.34,
                           lmax: 2}
    cutoffs: {filter: 1.91,
              core: 2.36}
    valence states:
      #              energy  rcut
      - 3s(2.00)    -7.753   1.085
      - 3p(1.00)    -2.712   1.085
      -  s          19.459   1.085
      -  p          24.499   1.085
      -  d           0.000   1.085

[...]

  Cr:
    name: Chromium
    id: 33f258bda2ca9f93018e70263a35547b
    Z: 24.0
    valence: 6
    core: 18
    charge: 0.0
    file: /home/c.zeng/usr/data/gpaw-setups-0.9.20000/Cr.PBE.gz
    compensation charges: {type: gauss,
                           rc: 0.35,
                           lmax: 2}
    cutoffs: {filter: 2.14,
              core: 3.04}
    valence states:
      #              energy  rcut
      - 4s(1.00)    -4.007   1.164
      - 4p(0.00)    -0.989   1.217
      - 3d(5.00)    -2.913   1.111
      -  s          23.205   1.164
      -  p          26.223   1.217
      -  d          24.299   1.111

    # Using partial waves for Cr as LCAO basis

Reference energy: -3548577.034362  # eV

Spin-polarized calculation.
Magnetic moment: 136.400000

Convergence criteria:
 Maximum [total energy] change in last 3 cyles: 0.0001 eV / electron
 Maximum integral of absolute [dens]ity change: 0.0001 electrons / valence electron
 Maximum integral of absolute [eigenst]ate change: 4e-08 eV^2 / valence electron
 Maximum number of scf [iter]ations: 666
 (Square brackets indicate name in SCF output, whereas a 'c' in
 the SCF output indicates the quantity has converged.)

Symmetries present (total): 1

  ( 1  0  0)
  ( 0  1  0)
  ( 0  0  1)

8 k-points: 2 x 2 x 2 Monkhorst-Pack grid
4 k-points in the irreducible part of the Brillouin zone
       k-points in crystal coordinates                weights
   0:     0.25000000   -0.25000000   -0.25000000          2/8
   1:     0.25000000   -0.25000000    0.25000000          2/8
   2:     0.25000000    0.25000000   -0.25000000          2/8
   3:     0.25000000    0.25000000    0.25000000          2/8

Wave functions: Plane wave expansion
  Cutoff energy: 350.000 eV
  Number of coefficients (min, max): 18331, 18331
  Pulay-stress correction: 0.000000 eV/Ang^3 (de/decut=0.000000)
  Using FFTW library
  ScaLapack parameters: grid=1x1, blocksize=None
  Wavefunction extrapolation:
    Improved wavefunction reuse through dual PAW basis

Occupation numbers: Fermi-Dirac:
  width: 0.1000  # eV

Eigensolver
   Davidson(niter=2)

Densities:
  Coarse grid: 48*48*48 grid
  Fine grid: 96*96*96 grid
  Total Charge: 0.000000

Density mixing:
  Method: difference
  Backend: pulay
  Linear mixing parameter: 0.05
  old densities: 5
  Damping of long wavelength oscillations: 50

Hamiltonian:
  XC and Coulomb potentials evaluated on a 96*96*96 grid
  Using the PBE Exchange-Correlation functional
  External potential:
    NoExternalPotential

XC parameters: PBE with 2 nearest neighbor stencil

Total number of cores used: 30
Parallelization over k-points: 2
Domain decomposition: 5 x 3 x 1

Number of atoms: 108
Number of atomic orbitals: 994
Number of bands in calculation: 674
Number of valence electrons: 980
Bands to converge: occupied

... initialized

Initializing position-dependent things.

Density initialized from atomic densities
Creating initial wave functions:
  674 bands from LCAO basis set

        Co-------Co---------------.
       /|  Co       Fe            |
      / |   AlCr     CrCo     CrCo|
     / Ni       CAl     Ni        |
    /   CCo      Ni      FAl      |
   /    | CoCo     Co      CoCo   |
  /   Co|  NiFeAl   NiNi    CrCr  |
 *      Cr  CrCoNi   CoNiNi   FeAl|
 |Fe   NiNiCr   CrNCr   FeCr      |
 | Fe   | NiAl   NiNiCr    Cr     |
 |     Co  CoFeNi   FeNiAl  NiNi  |
 |      Fe    FeNi   FeAlFe   AlCr|
 |Cr    |CoNi   NFeFe   FeFe     Fe
 |      .-FeCr-----FeCr--FeCoNi---.
 |     Cr    CoCr     FeCo  Cr Fe/
 |    / Al      Co       Cr     /
 Cr  /            Cr           /
 |  /      Ni      Cr       Fe/
 | / Co              Fe      /
 |/                     Co  /

Positions:
   0 Co    10.732479   -0.010418   10.721263    ( 0.0000,  0.0000,  2.1000)
   1 Fe    10.706231    1.787006    1.816653    ( 0.0000,  0.0000,  1.5000)
   2 Co     1.827923    0.046024    1.820803    ( 0.0000,  0.0000,  0.0000)
   3 Co     1.781666    1.794790   10.668295    ( 0.0000,  0.0000,  0.0000)
   4 Co     3.605675   -0.024615   10.696977    ( 0.0000,  0.0000,  0.0000)
   5 Ni     3.626284    1.755611    1.827590    ( 0.0000,  0.0000,  2.0000)
   6 Fe     5.347186   -0.032870    1.798425    ( 0.0000,  0.0000,  2.0000)
   7 Al     5.383406    1.755353   -0.004078    ( 0.0000,  0.0000,  2.0000)
   8 Fe     7.108694   -0.021619    0.052076    ( 0.0000,  0.0000,  0.0000)
   9 Cr     7.129131    1.783639    1.838109    ( 0.0000,  0.0000,  2.0000)
  10 Al     8.928414   -0.004386    1.840918    ( 0.0000,  0.0000,  2.0000)
  11 Co     8.945645    1.852509    0.063651    ( 0.0000,  0.0000,  0.0000)
  12 Co    10.721403    3.615743   10.707625    ( 0.0000,  0.0000,  2.1000)
  13 Fe    10.714905    5.407607    1.816064    ( 0.0000,  0.0000,  2.0000)
  14 Al     1.786931    3.537020    1.885127    ( 0.0000,  0.0000,  0.0000)
  15 Co     1.774396    5.426328   10.657058    ( 0.0000,  0.0000,  0.0000)
  16 Co     3.564340    3.564490   10.690115    ( 0.0000,  0.0000,  0.0000)
  17 Co     3.570334    5.434059    1.813919    ( 0.0000,  0.0000,  0.0000)
  18 Co     5.350145    3.574934    1.808708    ( 0.0000,  0.0000,  0.0000)
  19 Al     5.345084    5.410577   10.703464    ( 0.0000,  0.0000,  2.1000)
  20 Fe     7.157695    3.624514    0.002553    ( 0.0000,  0.0000,  2.1000)
  21 Fe     7.157792    5.380200    1.803904    ( 0.0000,  0.0000,  0.0000)
  22 Cr     8.944980    3.620622    1.842988    ( 0.0000,  0.0000,  0.0000)
  23 Al     8.940316    5.370571   -0.005231    ( 0.0000,  0.0000,  0.0000)
  24 Co    10.674578    7.138041   10.683446    ( 0.0000,  0.0000,  2.0000)
  25 Fe    10.668413    8.869012    1.800001    ( 0.0000,  0.0000,  0.0000)
  26 Fe     1.807904    7.157309    1.806960    ( 0.0000,  0.0000,  1.5000)
  27 Co     1.808086    8.895217   10.689064    ( 0.0000,  0.0000,  0.0000)
  28 Cr     3.612462    7.185391   10.698339    ( 0.0000,  0.0000,  2.0000)
  29 Ni     3.598277    8.905404    1.808097    ( 0.0000,  0.0000,  1.5000)
  30 Fe     5.362229    7.149643    1.778835    ( 0.0000,  0.0000,  2.1000)
  31 Fe     5.368084    8.904170   10.708750    ( 0.0000,  0.0000,  2.0000)
  32 Co     7.127640    7.124156   10.700741    ( 0.0000,  0.0000,  2.0000)
  33 Fe     7.139982    8.914904    1.783157    ( 0.0000,  0.0000,  0.0000)
  34 Co     8.884516    7.107975    1.798232    ( 0.0000,  0.0000,  2.0000)
  35 Cr     8.895410    8.880302    0.005476    ( 0.0000,  0.0000,  0.0000)
  36 Cr    10.737840    0.006469    3.587908    ( 0.0000,  0.0000,  1.5000)
  37 Cr     0.009110    1.816214    5.359506    ( 0.0000,  0.0000,  1.5000)
  38 Cr     1.833434   -0.010553    5.335488    ( 0.0000,  0.0000,  2.1000)
  39 Cr     1.814369    1.777409    3.664755    ( 0.0000,  0.0000,  1.5000)
  40 Ni     3.608002   -0.027958    3.615958    ( 0.0000,  0.0000,  2.1000)
  41 Ni     3.597397    1.774364    5.368180    ( 0.0000,  0.0000,  1.5000)
  42 Co     5.355185   -0.018813    5.365682    ( 0.0000,  0.0000,  2.1000)
  43 Cr     5.354005    1.762698    3.609396    ( 0.0000,  0.0000,  1.5000)
  44 Cr     7.096449    0.004839    3.553950    ( 0.0000,  0.0000,  0.0000)
  45 Fe     7.124574    1.817747    5.354692    ( 0.0000,  0.0000,  2.1000)
  46 Fe     8.888698   10.712332    5.289714    ( 0.0000,  0.0000,  0.0000)
  47 Co     8.931727    1.815495    3.558979    ( 0.0000,  0.0000,  1.5000)
  48 Ni    10.700248    3.599864    3.631730    ( 0.0000,  0.0000,  0.0000)
  49 Ni    -0.007893    5.382698    5.388017    ( 0.0000,  0.0000,  2.0000)
  50 Fe     1.794265    3.594073    5.365264    ( 0.0000,  0.0000,  2.0000)
  51 Co     1.782020    5.398675    3.628600    ( 0.0000,  0.0000,  1.5000)
  52 Cr     3.583351    3.582086    3.661657    ( 0.0000,  0.0000,  1.5000)
  53 Fe     3.572253    5.392895    5.375354    ( 0.0000,  0.0000,  1.5000)
  54 Ni     5.361747    3.593312    5.376780    ( 0.0000,  0.0000,  2.1000)
  55 Fe     5.348633    5.403146    3.628053    ( 0.0000,  0.0000,  0.0000)
  56 Cr     7.166745    3.584809    3.633875    ( 0.0000,  0.0000,  0.0000)
  57 Ni     7.149503    5.367108    5.369102    ( 0.0000,  0.0000,  2.1000)
  58 Fe     8.930869    3.577164    5.375332    ( 0.0000,  0.0000,  0.0000)
  59 Fe     8.940702    5.382345    3.619239    ( 0.0000,  0.0000,  2.0000)
[...]
  93 Ni     7.158199    5.390858    8.905983    ( 0.0000,  0.0000,  1.5000)
  94 Ni     8.930826    3.597912    8.885374    ( 0.0000,  0.0000,  0.0000)
  95 Cr     8.935737    5.388735    7.127651    ( 0.0000,  0.0000,  0.0000)
  96 Al    10.717929    7.165190    7.144378    ( 0.0000,  0.0000,  2.1000)
  97 Ni    10.739341    8.898756    8.943093    ( 0.0000,  0.0000,  1.5000)
  98 Co     1.793750    7.182882    8.888666    ( 0.0000,  0.0000,  1.5000)
  99 Ni     1.836501    8.904825    7.123094    ( 0.0000,  0.0000,  2.1000)
 100 Co     3.587511    7.157223    7.133645    ( 0.0000,  0.0000,  2.1000)
 101 Co     3.596025    8.923803    8.905018    ( 0.0000,  0.0000,  1.5000)
 102 Co     5.369413    7.149278    8.921112    ( 0.0000,  0.0000,  2.0000)
 103 Ni     5.343776    8.916533    7.143070    ( 0.0000,  0.0000,  2.1000)
 104 Ni     7.139778    7.140400    7.139349    ( 0.0000,  0.0000,  2.1000)
 105 Ni     7.106892    8.889835    8.908727    ( 0.0000,  0.0000,  1.5000)
 106 Co     8.907419    7.146362    8.906765    ( 0.0000,  0.0000,  2.0000)
 107 Cr     8.922313    8.892279    7.115031    ( 0.0000,  0.0000,  2.0000)

Unit cell:
           periodic     x           y           z      points  spacing
  1. axis:    yes   10.722400    0.000000    0.000000    48     0.2234
  2. axis:    yes    0.000000   10.722400    0.000000    48     0.2234
  3. axis:    yes    0.000000    0.000000   10.722400    48     0.2234

  Lengths:  10.722400  10.722400  10.722400
  Angles:   90.000000  90.000000  90.000000

Effective grid spacing dv^(1/3) = 0.2234

     iter     time        total  log10-change:  magmom
                         energy  eigst   dens
iter:   1 13:01:34  -927.412192                  +135.8703
iter:   2 13:03:18  -900.911096  -0.45  -1.32    +99.0326
iter:   3 13:05:01  -887.341098  -0.86  -1.29    +69.3409
iter:   4 13:06:45  -858.447206  -1.40  -1.32    +59.0657
iter:   5 13:08:29  -855.812234  -1.80  -1.44    +53.3311
iter:   6 13:10:14  -855.875745  -1.92  -1.46    +50.6989
iter:   7 13:11:58  -856.338913  -1.67  -1.50    +49.1608
iter:   8 13:13:42  -851.250112  -1.70  -1.52    +48.6107
iter:   9 13:15:26  -863.054444  -1.65  -1.68    +48.5651
iter:  10 13:17:10  -848.951426  -1.88  -1.59    +47.9006
iter:  11 13:18:54  -850.283565  -2.29  -1.86    +48.4770
iter:  12 13:20:38  -848.942845  -2.55  -1.84    +48.9010
iter:  13 13:22:22  -849.870283  -2.48  -1.91    +49.6467
iter:  14 13:24:06  -849.742202  -2.58  -1.91    +50.4456
iter:  15 13:25:50  -851.156697  -2.48  -1.98    +51.0394
iter:  16 13:27:34  -851.457398  -2.41  -1.98    +51.8632
iter:  17 13:29:18  -851.227053  -2.52  -1.99    +52.0218
iter:  18 13:31:02  -850.443157  -2.67  -2.06    +52.8394
iter:  19 13:32:46  -850.816242  -2.67  -2.13    +53.4308
iter:  20 13:34:30  -849.955017  -3.01  -2.11    +53.7093
iter:  21 13:36:15  -849.980532  -3.33  -2.25    +54.6990
iter:  22 13:37:59  -850.041997c -3.49  -2.30    +55.3107
iter:  23 13:39:43  -850.155843  -3.62  -2.32    +56.2663
iter:  24 13:41:27  -850.577993  -3.32  -2.36    +57.3503
iter:  25 13:43:12  -850.488348  -3.56  -2.33    +57.0455
iter:  26 13:44:56  -850.759103  -3.22  -2.36    +57.6707
iter:  27 13:46:40  -850.966738  -3.23  -2.36    +58.1214
iter:  28 13:48:24  -851.106757  -3.09  -2.35    +58.8243
iter:  29 13:50:09  -851.031153  -3.33  -2.40    +59.0603
iter:  30 13:51:53  -850.972586  -3.51  -2.42    +59.8237
iter:  31 13:53:37  -851.020729c -3.79  -2.51    +60.1707
iter:  32 13:55:22  -851.089499  -4.14  -2.54    +60.6616
iter:  33 13:57:06  -851.325781  -3.37  -2.55    +61.9402
iter:  34 13:58:50  -851.516930  -3.29  -2.57    +62.8771
iter:  35 14:00:34  -851.512294  -3.80  -2.56    +62.6872
iter:  36 14:02:18  -851.581714c -3.67  -2.66    +62.8037
iter:  37 14:04:03  -851.566808c -3.87  -2.74    +62.6399
iter:  38 14:05:47  -851.577493c -4.10  -2.77    +62.8283
iter:  39 14:07:31  -851.595209c -4.43  -2.93    +62.9452
iter:  40 14:09:15  -851.641923c -4.27  -3.00    +63.1047
iter:  41 14:11:00  -851.690352c -4.18  -3.00    +63.3027
iter:  42 14:12:44  -851.742595  -4.03  -3.03    +63.4535
iter:  43 14:14:28  -851.843944  -3.61  -3.02    +63.6958
iter:  44 14:16:12  -851.901929  -3.59  -2.86    +63.8528
iter:  45 14:17:56  -851.905029c -4.35  -2.82    +63.8979
iter:  46 14:19:40  -851.908085c -4.67  -2.81    +63.8755
iter:  47 14:21:25  -851.903806c -5.00  -2.82    +63.9019
iter:  48 14:23:09  -851.967214c -4.01  -2.84    +63.9604
iter:  49 14:24:54  -851.880808c -3.61  -2.71    +63.9713
iter:  50 14:26:38  -851.871910c -4.13  -2.84    +64.0111
iter:  51 14:28:23  -851.858691c -4.45  -2.93    +63.9889
iter:  52 14:30:07  -851.855587c -4.83  -2.99    +63.9796
iter:  53 14:31:51  -851.862104c -4.82  -3.05    +64.0347
iter:  54 14:33:35  -851.868665c -4.76  -3.06    +64.0476
iter:  55 14:35:19  -851.865624c -4.81  -3.07    +64.0357
iter:  56 14:37:03  -851.866731c -4.94  -3.12    +64.0470
iter:  57 14:38:47  -851.875472c -4.81  -3.18    +64.0847
iter:  58 14:40:31  -851.874709c -4.87  -3.16    +64.0897
iter:  59 14:42:14  -851.872542c -5.02  -3.19    +64.0593
iter:  60 14:43:58  -851.873266c -5.26  -3.28    +64.0602
iter:  61 14:45:43  -851.876501c -5.17  -3.31    +64.0979
iter:  62 14:47:26  -851.876356c -5.57  -3.31    +64.0933
iter:  63 14:49:10  -851.877636c -5.61  -3.36    +64.0674
iter:  64 14:50:54  -851.879408c -5.68  -3.39    +64.0672
iter:  65 14:52:38  -851.881551c -5.58  -3.38    +64.0743
iter:  66 14:54:22  -851.883737c -5.51  -3.40    +64.0452
iter:  67 14:56:06  -851.884640c -5.47  -3.41    +64.0436
iter:  68 14:57:50  -851.886649c -5.26  -3.42    +64.0342
iter:  69 14:59:34  -851.888823c -5.29  -3.39    +64.0411
iter:  70 15:01:18  -851.891900c -5.11  -3.47    +64.0050
iter:  71 15:03:02  -851.889253c -5.23  -3.37    +63.9807
iter:  72 15:04:46  -851.889360c -5.41  -3.51    +63.9857
iter:  73 15:06:30  -851.889907c -5.75  -3.56    +63.9869
iter:  74 15:08:14  -851.890511c -6.00  -3.65    +63.9700
iter:  75 15:09:58  -851.892106c -5.96  -3.70    +63.9472
iter:  76 15:11:42  -851.893522c -5.82  -3.66    +63.9043
iter:  77 15:13:26  -851.893549c -6.06  -3.62    +63.8917
iter:  78 15:15:09  -851.894201c -6.21  -3.65    +63.8761
iter:  79 15:16:53  -851.896112c -5.76  -3.67    +63.8346
iter:  80 15:18:37  -851.896797c -5.51  -3.60    +63.8617
iter:  81 15:20:21  -851.897483c -5.51  -3.54    +63.8175
iter:  82 15:22:05  -851.897336c -5.85  -3.77    +63.7980
iter:  83 15:23:49  -851.898051c -5.94  -3.89    +63.7771
iter:  84 15:25:33  -851.899206c -5.69  -3.99    +63.7607
iter:  85 15:27:16  -851.898544c -6.12  -3.77    +63.7374
iter:  86 15:29:01  -851.898920c -6.35  -4.13c   +63.7111
iter:  87 15:30:45  -851.899680c -6.24  -4.13c   +63.6880
iter:  88 15:32:29  -851.899247c -7.07  -4.12c   +63.7043
iter:  89 15:34:13  -851.897838c -5.77  -4.15c   +63.7581
iter:  90 15:35:57  -851.899182c -6.10  -4.11c   +63.7101
iter:  91 15:37:40  -851.898461c -6.74  -4.15c   +63.7325
iter:  92 15:39:24  -851.898800c -6.61  -4.26c   +63.7335
iter:  93 15:41:08  -851.899203c -6.29  -4.12c   +63.7078
iter:  94 15:42:52  -851.899376c -6.53  -4.18c   +63.6904
iter:  95 15:44:35  -851.899858c -6.58  -4.32c   +63.6778
iter:  96 15:46:19  -851.900062c -6.73  -4.38c   +63.6683
iter:  97 15:48:03  -851.900691c -6.37  -4.28c   +63.6398
iter:  98 15:49:46  -851.899231c -5.96  -4.28c   +63.6961
iter:  99 15:51:30  -851.897636c -5.49  -4.35c   +63.7729
iter: 100 15:53:14  -851.897653c -6.47  -4.41c   +63.7640
iter: 101 15:54:59  -851.898237c -6.62  -4.51c   +63.7386
iter: 102 15:56:43  -851.898666c -6.51  -4.60c   +63.7089
iter: 103 15:58:26  -851.898668c -7.64c -4.60c   +63.7104

Converged after 103 iterations.

Dipole moment: (-1.784338, 13.137125, 14.388465) |e|*Ang

Total magnetic moment: (0.000000, 0.000000, 63.710449)
Local magnetic moments:
   0 Co ( 0.000000,  0.000000,  1.062132)
   1 Fe ( 0.000000,  0.000000,  2.169271)
   2 Co ( 0.000000,  0.000000,  1.442171)
   3 Co ( 0.000000,  0.000000,  1.140337)
   4 Co ( 0.000000,  0.000000,  1.078437)
   5 Ni ( 0.000000,  0.000000,  0.201235)
   6 Fe ( 0.000000,  0.000000,  1.963660)
   7 Al ( 0.000000,  0.000000, -0.017749)
   8 Fe ( 0.000000,  0.000000, -1.506853)
   9 Cr ( 0.000000,  0.000000,  0.928382)
  10 Al ( 0.000000,  0.000000, -0.015100)
  11 Co ( 0.000000,  0.000000,  1.068593)
  12 Co ( 0.000000,  0.000000,  1.044914)
  13 Fe ( 0.000000,  0.000000,  2.271914)
  14 Al ( 0.000000,  0.000000, -0.030992)
  15 Co ( 0.000000,  0.000000,  1.224928)
  16 Co ( 0.000000,  0.000000,  1.283426)
  17 Co ( 0.000000,  0.000000,  1.138051)
  18 Co ( 0.000000,  0.000000,  1.067257)
  19 Al ( 0.000000,  0.000000, -0.041301)
  20 Fe ( 0.000000,  0.000000,  2.186868)
  21 Fe ( 0.000000,  0.000000,  2.067328)
  22 Cr ( 0.000000,  0.000000, -1.264986)
  23 Al ( 0.000000,  0.000000, -0.037342)
  24 Co ( 0.000000,  0.000000,  1.203214)
  25 Fe ( 0.000000,  0.000000,  2.240133)
  26 Fe ( 0.000000,  0.000000,  2.330712)
  27 Co ( 0.000000,  0.000000,  1.463939)
  28 Cr ( 0.000000,  0.000000, -2.068910)
  29 Ni ( 0.000000,  0.000000,  0.461720)
  30 Fe ( 0.000000,  0.000000,  1.973411)
  31 Fe ( 0.000000,  0.000000,  2.115897)
  32 Co ( 0.000000,  0.000000,  1.193861)
  33 Fe ( 0.000000,  0.000000,  1.825800)
  34 Co ( 0.000000,  0.000000,  1.221766)
  35 Cr ( 0.000000,  0.000000, -1.535175)
  36 Cr ( 0.000000,  0.000000, -1.623642)
  37 Cr ( 0.000000,  0.000000,  0.153096)
  38 Cr ( 0.000000,  0.000000,  0.861976)
  39 Cr ( 0.000000,  0.000000,  0.256162)
  40 Ni ( 0.000000,  0.000000,  0.280771)
  41 Ni ( 0.000000,  0.000000,  0.124375)
  42 Co ( 0.000000,  0.000000,  1.069515)
  43 Cr ( 0.000000,  0.000000,  0.506656)
  44 Cr ( 0.000000,  0.000000, -1.460803)
  45 Fe ( 0.000000,  0.000000,  1.615120)
  46 Fe ( 0.000000,  0.000000,  2.037601)
  47 Co ( 0.000000,  0.000000,  0.465822)
  48 Ni ( 0.000000,  0.000000,  0.293086)
  49 Ni ( 0.000000,  0.000000,  0.225289)
  50 Fe ( 0.000000,  0.000000,  2.045024)
  51 Co ( 0.000000,  0.000000,  1.179256)
  52 Cr ( 0.000000,  0.000000, -1.694529)
  53 Fe ( 0.000000,  0.000000,  2.227082)
  54 Ni ( 0.000000,  0.000000,  0.097418)
  55 Fe ( 0.000000,  0.000000,  2.203135)
  56 Cr ( 0.000000,  0.000000, -1.440829)
  57 Ni ( 0.000000,  0.000000,  0.205174)
  58 Fe ( 0.000000,  0.000000,  1.792100)
  59 Fe ( 0.000000,  0.000000,  1.753930)
[...]
  93 Ni ( 0.000000,  0.000000,  0.222988)
  94 Ni ( 0.000000,  0.000000,  0.193591)
  95 Cr ( 0.000000,  0.000000, -1.276882)
  96 Al ( 0.000000,  0.000000, -0.008143)
  97 Ni ( 0.000000,  0.000000,  0.184579)
  98 Co ( 0.000000,  0.000000,  1.185450)
  99 Ni ( 0.000000,  0.000000,  0.158663)
 100 Co ( 0.000000,  0.000000,  1.451448)
 101 Co ( 0.000000,  0.000000,  1.268596)
 102 Co ( 0.000000,  0.000000,  1.293189)
 103 Ni ( 0.000000,  0.000000,  0.348801)
 104 Ni ( 0.000000,  0.000000,  0.270679)
 105 Ni ( 0.000000,  0.000000,  0.236665)
 106 Co ( 0.000000,  0.000000,  0.795120)
 107 Cr ( 0.000000,  0.000000, -1.466147)

Energy contributions relative to reference atoms: (reference = -3548577.034362)

Kinetic:       +196.383227
Potential:     -225.746227
External:        +0.000000
XC:            -856.260441
Entropy (-ST):   -4.525689
Local:          +35.987618
Free energy:   -854.161513
Extrapolated:  -851.898668

Spin contamination: 27.686766 electrons
Showing only first 2 kpts
                      Up                     Down
 Kpt  Band  Eigenvalues  Occupancy  Eigenvalues  Occupancy
  0   488      9.48718    0.99390     10.36375    0.02481
  0   489      9.50049    0.99304     10.38313    0.02052
  0   490      9.51011    0.99235     10.38719    0.01972
  0   491      9.51965    0.99159     10.40432    0.01667

  1   488      9.47844    0.99441     10.37821    0.02154
  1   489      9.49325    0.99353     10.39263    0.01870
  1   490      9.51255    0.99216     10.40730    0.01619
  1   491      9.52364    0.99125     10.41321    0.01527

Fermi level: 9.99659

No gap

Forces in eV/Ang:
  0 Co   -0.15000    0.14883    0.20968
  1 Fe    0.13325    0.02699   -0.29036
  2 Co   -0.20647   -0.44033   -0.18982
  3 Co    0.10285    0.04296    0.49099
  4 Co   -0.32649   -0.09551    0.39192
  5 Ni   -0.45284    0.07975   -0.24177
  6 Fe   -0.22199   -0.51873    0.07782
  7 Al   -0.73566    0.78185    0.42099
  8 Fe    0.31497    0.26440   -0.53990
  9 Cr    0.07354    0.55054   -0.07745
 10 Al    0.31328   -0.02689   -0.83559
 11 Co   -0.01601    0.00777   -0.66670
 12 Co    0.15322   -0.36592    0.05121
 13 Fe    0.20544   -0.07664   -0.29090
 14 Al   -0.00450    0.68488   -1.35688
 15 Co    0.20103   -0.33892    0.26607
 16 Co   -0.29812    0.28577    0.29699
 17 Co   -0.17310   -0.41198   -0.01700
 18 Co   -0.01814    0.24719    0.14139
 19 Al    0.34707   -1.17023   -0.00845
 20 Fe    0.06149   -0.56518   -0.11761
 21 Fe   -0.18450   -0.49624    0.05692
 22 Cr    0.32009   -0.77485    0.10304
 23 Al   -0.27205    0.42372   -0.49448
 24 Co    0.46164    0.24799    0.11033
 25 Fe    0.57623    0.17022   -0.32118
 26 Fe   -0.06890    0.08859   -0.40061
 27 Co   -0.08121   -0.07062    0.55123
 28 Cr   -1.13448    0.53130   -0.14618
 29 Ni   -0.41267    0.43728   -0.13981
 30 Fe   -0.27399    0.26497   -0.00973
 31 Fe    0.01436    0.09394    0.10006
 32 Co    0.13670    0.60889    0.05954
 33 Fe   -0.02905    0.06506   -0.20333
 34 Co    0.36215    0.35114   -0.04273
 35 Cr    0.03932   -0.47631   -0.56278
 36 Cr    0.52675   -0.35287    0.72514
 37 Cr    0.17050   -0.00967   -0.24656
 38 Cr   -0.53432    0.34779    0.21587
 39 Cr    0.05449   -0.84137   -0.16155
 40 Ni   -0.11171    0.23315   -0.41155
 41 Ni   -0.05055   -0.16030   -0.06575
 42 Co    0.25191   -0.01200    0.03882
 43 Cr   -0.16357    0.13293   -0.08102
 44 Cr   -0.36840    0.04058    0.72007
 45 Fe    0.10447   -0.07978   -0.21342
 46 Fe    0.51767   -0.43616    0.21678
 47 Co    0.11088    0.20574    0.40367
 48 Ni    0.09941   -0.06025   -0.15344
 49 Ni    0.07228   -0.48435   -0.26842
 50 Fe   -0.39916   -0.03622   -0.21204
 51 Co    0.17262    0.07862   -0.11563
 52 Cr    0.68549    0.11590    0.03863
 53 Fe   -0.07562    0.27290   -0.22238
 54 Ni    0.27727    0.06123   -0.15463
 55 Fe   -0.35334   -1.00007   -0.55396
 56 Cr   -0.35090    0.05875    0.06656
 57 Ni   -0.12693   -0.07811   -0.05059
 58 Fe    0.00532    0.23966   -0.35335
 59 Fe    0.11005   -0.65146   -0.08608
[...]
 93 Ni   -0.08318   -0.22227   -0.13916
 94 Ni    0.10699   -0.29660    0.49990
 95 Cr   -0.38547   -0.49915    0.29700
 96 Al    1.30177    0.32594   -0.22382
 97 Ni   -0.14655    0.20573    0.05479
 98 Co    0.39441   -0.34316    0.64132
 99 Ni   -0.28801    0.22334    0.16421
100 Co   -0.11759    0.05274    0.25106
101 Co    0.21135   -0.34703    0.18846
102 Co   -0.26170    0.12417   -0.34199
103 Ni   -0.05266    0.11070    0.06020
104 Ni    0.05578    0.14079    0.14045
105 Ni    0.35712    0.26503    0.05055
106 Co   -0.06239    0.33114    0.10846
107 Cr   -1.02032    0.68742    0.28858

Date: Fri Apr 14 15:58:50 2023