User:   c.zeng@d0014
Date:   Fri Apr 14 00:31:23 2023
Arch:   x86_64
Pid:    160027
CWD:    /home/c.zeng/projects/hea-corrosion/hea-mlp/data-curation/bulk-md/dft-jobs/65
Python: 3.8.1
gpaw:   /home/c.zeng/usr/installs/gpaw/source/gpaw-22.8.0/gpaw
_gpaw:  /home/c.zeng/usr/installs/gpaw/source/gpaw-22.8.0/
        _gpaw.cpython-38-x86_64-linux-gnu.so
ase:    /home/c.zeng/.local/lib/python3.8/site-packages/ase-3.22.1-py3.8.egg/ase (version 3.22.1)
numpy:  /shared/centos7/python/3.8.1/lib/python3.8/site-packages/numpy (version 1.17.4)
scipy:  /shared/centos7/python/3.8.1/lib/python3.8/site-packages/scipy (version 1.4.1)
units:  Angstrom and eV
cores: 30
OpenMP: False
OMP_NUM_THREADS: 1

Input parameters:
  convergence: {energy: 0.0001}
  kpts: [2 2 2]
  maxiter: 666
  mode: {ecut: 350.0,
         name: pw}
  occupations: {fixmagmom: False,
                name: fermi-dirac,
                width: 0.1}
  spinpol: True
  xc: PBE

System changes: positions, numbers, cell, pbc, initial_charges, initial_magmoms

Initialize ...

species:
  Fe:
    name: Iron
    id: 37abbd8d6c3c35915a9b583b742da910
    Z: 26.0
    valence: 8
    core: 18
    charge: 0.0
    file: /home/c.zeng/usr/data/gpaw-setups-0.9.20000/Fe.PBE.gz
    compensation charges: {type: gauss,
                           rc: 0.33,
                           lmax: 2}
    cutoffs: {filter: 2.06,
              core: 2.67}
    valence states:
      #              energy  rcut
      - 4s(2.00)    -5.291   1.164
      - 4p(0.00)    -1.326   1.058
      - 3d(6.00)    -7.505   1.058
      -  s          21.920   1.164
      -  p          25.885   1.058
      -  d          19.706   1.058

    # Using partial waves for Fe as LCAO basis

  Cr:
    name: Chromium
    id: 33f258bda2ca9f93018e70263a35547b
    Z: 24.0
    valence: 6
    core: 18
    charge: 0.0
    file: /home/c.zeng/usr/data/gpaw-setups-0.9.20000/Cr.PBE.gz
    compensation charges: {type: gauss,
                           rc: 0.35,
                           lmax: 2}
    cutoffs: {filter: 2.14,
              core: 3.04}
    valence states:
      #              energy  rcut
      - 4s(1.00)    -4.007   1.164
      - 4p(0.00)    -0.989   1.217
      - 3d(5.00)    -2.913   1.111
      -  s          23.205   1.164
      -  p          26.223   1.217
      -  d          24.299   1.111

[...]

  Ni:
    name: Nickel
    id: 0d9f38a9d6e76a2886f07bb4381f212b
    Z: 28.0
    valence: 16
    core: 12
    charge: 0.0
    file: /home/c.zeng/usr/data/gpaw-setups-0.9.20000/Ni.PBE.gz
    compensation charges: {type: gauss,
                           rc: 0.36,
                           lmax: 2}
    cutoffs: {filter: 2.14,
              core: 1.98}
    valence states:
      #              energy  rcut
      - 4s(2.00)    -5.642   1.164
      - 3p(6.00)   -71.394   1.207
      - 4p(0.00)    -1.226   1.207
      - 3d(8.00)    -8.875   1.138
      -  s          21.570   1.164
      -  d          18.337   1.138

[...]

  Al:
    name: Aluminium
    id: 0292cae29f5d6237e50f6abdd43a7bdd
    Z: 13.0
    valence: 3
    core: 10
    charge: 0.0
    file: /home/c.zeng/usr/data/gpaw-setups-0.9.20000/Al.PBE.gz
    compensation charges: {type: gauss,
                           rc: 0.34,
                           lmax: 2}
    cutoffs: {filter: 1.91,
              core: 2.36}
    valence states:
      #              energy  rcut
      - 3s(2.00)    -7.753   1.085
      - 3p(1.00)    -2.712   1.085
      -  s          19.459   1.085
      -  p          24.499   1.085
      -  d           0.000   1.085

[...]

  Co:
    name: Cobalt
    id: 339d20d5b0b93d2de9531a1bee871d91
    Z: 27.0
    valence: 9
    core: 18
    charge: 0.0
    file: /home/c.zeng/usr/data/gpaw-setups-0.9.20000/Co.PBE.gz
    compensation charges: {type: gauss,
                           rc: 0.32,
                           lmax: 2}
    cutoffs: {filter: 1.87,
              core: 2.55}
    valence states:
      #              energy  rcut
      - 4s(2.00)    -5.469   1.005
      - 4p(0.00)    -1.277   1.058
      - 3d(7.00)    -8.205   1.005
      -  s          21.742   1.005
      -  p          25.934   1.058
      -  d          19.007   1.005

    # Using partial waves for Co as LCAO basis

Reference energy: -3382523.201499  # eV

Spin-polarized calculation.
Magnetic moment: 128.800000

Convergence criteria:
 Maximum [total energy] change in last 3 cyles: 0.0001 eV / electron
 Maximum integral of absolute [dens]ity change: 0.0001 electrons / valence electron
 Maximum integral of absolute [eigenst]ate change: 4e-08 eV^2 / valence electron
 Maximum number of scf [iter]ations: 666
 (Square brackets indicate name in SCF output, whereas a 'c' in
 the SCF output indicates the quantity has converged.)

Symmetries present (total): 1

  ( 1  0  0)
  ( 0  1  0)
  ( 0  0  1)

8 k-points: 2 x 2 x 2 Monkhorst-Pack grid
4 k-points in the irreducible part of the Brillouin zone
       k-points in crystal coordinates                weights
   0:     0.25000000   -0.25000000   -0.25000000          2/8
   1:     0.25000000   -0.25000000    0.25000000          2/8
   2:     0.25000000    0.25000000   -0.25000000          2/8
   3:     0.25000000    0.25000000    0.25000000          2/8

Wave functions: Plane wave expansion
  Cutoff energy: 350.000 eV
  Number of coefficients (min, max): 18865, 18865
  Pulay-stress correction: 0.000000 eV/Ang^3 (de/decut=0.000000)
  Using FFTW library
  ScaLapack parameters: grid=1x1, blocksize=None
  Wavefunction extrapolation:
    Improved wavefunction reuse through dual PAW basis

Occupation numbers: Fermi-Dirac:
  width: 0.1000  # eV

Eigensolver
   Davidson(niter=2)

Densities:
  Coarse grid: 48*48*48 grid
  Fine grid: 96*96*96 grid
  Total Charge: 0.000000

Density mixing:
  Method: difference
  Backend: pulay
  Linear mixing parameter: 0.05
  old densities: 5
  Damping of long wavelength oscillations: 50

Hamiltonian:
  XC and Coulomb potentials evaluated on a 96*96*96 grid
  Using the PBE Exchange-Correlation functional
  External potential:
    NoExternalPotential

XC parameters: PBE with 2 nearest neighbor stencil

Total number of cores used: 30
Parallelization over k-points: 2
Domain decomposition: 5 x 3 x 1

Number of atoms: 108
Number of atomic orbitals: 961
Number of bands in calculation: 649
Number of valence electrons: 945
Bands to converge: occupied

... initialized

Initializing position-dependent things.

Density initialized from atomic densities
Creating initial wave functions:
  649 bands from LCAO basis set

      / |            Cr        Ni  |
     /  |       Al       Ni      Fe|
    /   |         Fer      Alo     |
   /    | CoCo   Fe   Cr           |
  /   Cr|    Fe Al   CoCr     FFe  |
 *     CCoAlCoCr Ni   FeAFe   Co Ni|
 |Co    |CrAFe  CrCoAl   FeCrr     |
 |   Co |   Ni  Fe AlAl       Ni   Ni
 |   CrCo  NiFeFe   NiNi Ni  Cr    |
 |Fe    Co  Ni AFe Co   AlCo  NiFe |
 | Co   Al Al   CrFe Co  CrCo     Cr
 |  Ni  .Cr-Al------FeNi---ACo-----.
 |     Cr  Al   Ni   FeFeNi   NCr /
 |    / Fe    Cr  CoCr  Ni       /
 |   /Ni    Fe            Co    /
 |  /    Cr          Co      Cr/
 | /i          Ni             /
 |/                      Co  /
 *--------------------------Fe

Positions:
   0 Fe    10.748150   10.830850   10.974976    ( 0.0000,  0.0000,  2.0000)
   1 Cr    10.769493    1.600381    1.977307    ( 0.0000,  0.0000,  0.0000)
   2 Ni     1.558990   -0.146834    1.859418    ( 0.0000,  0.0000,  1.5000)
   3 Cr     1.681108    1.868611   10.575352    ( 0.0000,  0.0000,  0.0000)
   4 Al     3.667032    0.291661   -0.134170    ( 0.0000,  0.0000,  0.0000)
   5 Fe     3.717359    2.110032    1.829606    ( 0.0000,  0.0000,  2.0000)
   6 Ni     5.540445   10.977123    1.758703    ( 0.0000,  0.0000,  1.5000)
   7 Al     5.471034    2.188704   -0.003612    ( 0.0000,  0.0000,  0.0000)
   8 Al     7.491257   10.612215    0.229280    ( 0.0000,  0.0000,  0.0000)
   9 Co     7.327964    1.923487    1.681431    ( 0.0000,  0.0000,  2.1000)
  10 Ni     8.929264   -0.058750    2.019738    ( 0.0000,  0.0000,  1.5000)
  11 Co     9.175867    1.810511    0.062703    ( 0.0000,  0.0000,  2.1000)
  12 Ni     0.068250    3.562227   10.857312    ( 0.0000,  0.0000,  1.5000)
  13 Cr    10.642647    5.424328    1.762479    ( 0.0000,  0.0000,  0.0000)
  14 Fe     1.717933    3.521053    2.229338    ( 0.0000,  0.0000,  2.0000)
  15 Cr     1.935044    5.211718   10.922496    ( 0.0000,  0.0000,  0.0000)
  16 Co     3.475006    3.481359   10.715227    ( 0.0000,  0.0000,  2.1000)
  17 Cr     3.712348    5.333302    1.582657    ( 0.0000,  0.0000,  0.0000)
  18 Co     5.634255    3.815777    1.708545    ( 0.0000,  0.0000,  2.1000)
  19 Fe     5.422385    5.380568   -0.241556    ( 0.0000,  0.0000,  2.0000)
  20 Cr     7.345987    3.643011   -0.051819    ( 0.0000,  0.0000,  0.0000)
  21 Fe     7.280263    5.409492    1.708934    ( 0.0000,  0.0000,  2.0000)
  22 Co     9.054024    3.762510    1.603069    ( 0.0000,  0.0000,  2.1000)
  23 Al     9.034806    5.436004   10.668000    ( 0.0000,  0.0000,  0.0000)
  24 Ni    10.913479    6.884741   10.840139    ( 0.0000,  0.0000,  1.5000)
  25 Cr    10.753369    9.052263    1.953559    ( 0.0000,  0.0000,  0.0000)
  26 Cr     1.528318    7.089620    1.902756    ( 0.0000,  0.0000,  0.0000)
  27 Al     1.679514    8.757180    0.094110    ( 0.0000,  0.0000,  0.0000)
  28 Cr     3.452369    7.240533    0.061091    ( 0.0000,  0.0000,  0.0000)
  29 Cr     3.648117    9.364109    1.608703    ( 0.0000,  0.0000,  0.0000)
  30 Fe     5.578142    7.141588    1.611245    ( 0.0000,  0.0000,  2.0000)
  31 Fe     5.548578    9.247600    0.153860    ( 0.0000,  0.0000,  2.0000)
  32 Ni     7.393391    7.119143    0.126089    ( 0.0000,  0.0000,  1.5000)
  33 Cr     7.114458    8.895948    1.888036    ( 0.0000,  0.0000,  0.0000)
  34 Co     8.983579    7.031827    1.798855    ( 0.0000,  0.0000,  2.1000)
  35 Ni     9.154788    8.821628   11.175530    ( 0.0000,  0.0000,  1.5000)
  36 Ni    -0.099680   10.736697    3.784233    ( 0.0000,  0.0000,  1.5000)
  37 Co    10.986160    1.763242    5.511518    ( 0.0000,  0.0000,  2.1000)
  38 Co     1.849725   10.565407    5.332380    ( 0.0000,  0.0000,  2.1000)
  39 Cr     1.926429    1.753317    3.859682    ( 0.0000,  0.0000,  0.0000)
  40 Fe     3.410435   10.652994    3.607690    ( 0.0000,  0.0000,  2.0000)
  41 Al     3.584250    1.636490    5.534878    ( 0.0000,  0.0000,  0.0000)
  42 Fe     5.556474   10.807747    5.289809    ( 0.0000,  0.0000,  2.0000)
  43 Ni     5.669307    1.868464    3.572827    ( 0.0000,  0.0000,  1.5000)
  44 Cr     7.412881    0.183776    3.794700    ( 0.0000,  0.0000,  0.0000)
  45 Co     7.338813    1.929519    5.409485    ( 0.0000,  0.0000,  2.1000)
  46 Co     8.928768   10.690743    5.454470    ( 0.0000,  0.0000,  2.1000)
  47 Ni     9.087196    1.764957    3.681642    ( 0.0000,  0.0000,  1.5000)
  48 Ni    11.064247    3.812059    3.979241    ( 0.0000,  0.0000,  1.5000)
  49 Cr    10.902585    5.502914    5.745338    ( 0.0000,  0.0000,  0.0000)
  50 Co     1.909624    3.538780    5.566804    ( 0.0000,  0.0000,  2.1000)
  51 Al     1.483887    5.542579    3.771071    ( 0.0000,  0.0000,  0.0000)
  52 Al     3.677513    3.585242    3.592171    ( 0.0000,  0.0000,  0.0000)
  53 Fe     3.407893    5.373797    5.388120    ( 0.0000,  0.0000,  2.0000)
  54 Fe     5.191931    3.645927    5.373917    ( 0.0000,  0.0000,  2.0000)
  55 Fe     5.363157    5.394811    3.676809    ( 0.0000,  0.0000,  2.0000)
  56 Ni     7.332309    3.651096    3.728390    ( 0.0000,  0.0000,  1.5000)
  57 Ni     7.041255    5.348293    5.246841    ( 0.0000,  0.0000,  1.5000)
  58 Co     9.102924    3.768687    5.270557    ( 0.0000,  0.0000,  2.1000)
  59 Co     9.071139    5.319488    3.504299    ( 0.0000,  0.0000,  2.1000)
[...]
  93 Cr     7.224034    5.540384    8.689959    ( 0.0000,  0.0000,  0.0000)
  94 Fe     8.744912    3.275621    8.956231    ( 0.0000,  0.0000,  2.0000)
  95 Cr     8.967175    5.426978    7.064954    ( 0.0000,  0.0000,  0.0000)
  96 Ni    10.753442    7.299757    7.292485    ( 0.0000,  0.0000,  1.5000)
  97 Fe    10.620268    8.846753    9.136295    ( 0.0000,  0.0000,  2.0000)
  98 Co     1.686468    7.060165    9.035679    ( 0.0000,  0.0000,  2.1000)
  99 Ni     1.778855    9.015472    7.419694    ( 0.0000,  0.0000,  1.5000)
 100 Cr     3.369221    6.998608    7.465481    ( 0.0000,  0.0000,  0.0000)
 101 Al     3.649904    9.156222    8.998305    ( 0.0000,  0.0000,  0.0000)
 102 Cr     5.217272    7.263355    9.032413    ( 0.0000,  0.0000,  0.0000)
 103 Co     5.548848    9.031063    7.019000    ( 0.0000,  0.0000,  2.1000)
 104 Al     7.407492    7.342955    7.102981    ( 0.0000,  0.0000,  0.0000)
 105 Ni     7.337527    8.802200    9.157963    ( 0.0000,  0.0000,  1.5000)
 106 Co     9.075483    7.207320    9.211556    ( 0.0000,  0.0000,  2.1000)
 107 Fe     9.082153    9.103404    7.132971    ( 0.0000,  0.0000,  2.0000)

Unit cell:
           periodic     x           y           z      points  spacing
  1. axis:    yes   10.820500    0.000000    0.000000    48     0.2254
  2. axis:    yes    0.000000   10.820500    0.000000    48     0.2254
  3. axis:    yes    0.000000    0.000000   10.820500    48     0.2254

  Lengths:  10.820500  10.820500  10.820500
  Angles:   90.000000  90.000000  90.000000

Effective grid spacing dv^(1/3) = 0.2254

     iter     time        total  log10-change:  magmom
                         energy  eigst   dens
iter:   1 00:36:18  -974.056506                  +129.0868
iter:   2 00:38:28  -870.563174  -0.21  -1.18    +70.9953
iter:   3 00:40:38  -856.693806  -0.83  -1.19    +60.4534
iter:   4 00:42:47  -833.106916  -1.26  -1.26    +56.2535
iter:   5 00:44:55  -826.587584  -1.57  -1.30    +54.1167
iter:   6 00:47:04  -829.744299  -1.32  -1.34    +54.9447
iter:   7 00:49:32  -818.287901  -1.27  -1.38    +53.4328
iter:   8 00:52:05  -813.527602  -1.55  -1.52    +52.2161
iter:   9 00:54:14  -810.699287  -1.82  -1.62    +53.5993
iter:  10 00:56:22  -808.426182  -2.34  -1.71    +54.3030
iter:  11 00:58:31  -808.824900  -2.46  -1.78    +56.6057
iter:  12 01:00:39  -810.383405  -2.37  -1.83    +57.8465
iter:  13 01:02:48  -809.456663  -2.37  -1.82    +58.6606
iter:  14 01:04:57  -809.995255  -2.41  -1.93    +59.8270
iter:  15 01:07:05  -809.807499  -2.52  -1.94    +60.3825
iter:  16 01:09:14  -808.991127  -2.86  -1.99    +60.6454
iter:  17 01:11:22  -809.035700  -3.13  -2.09    +61.4381
iter:  18 01:13:31  -809.129796  -3.10  -2.14    +62.0468
iter:  19 01:15:39  -809.174901  -3.08  -2.20    +62.1437
iter:  20 01:17:47  -809.235912  -3.13  -2.27    +62.4740
iter:  21 01:19:56  -809.166642c -3.37  -2.30    +62.6513
iter:  22 01:22:04  -809.190887c -3.34  -2.36    +62.5177
iter:  23 01:24:13  -809.133695c -3.51  -2.41    +62.5850
iter:  24 01:26:20  -809.210528c -3.63  -2.49    +62.4978
iter:  25 01:28:28  -809.189173c -3.75  -2.50    +62.4800
iter:  26 01:30:38  -809.237074c -3.81  -2.54    +62.3378
iter:  27 01:32:46  -809.284216  -3.86  -2.58    +62.3829
iter:  28 01:34:54  -809.279816c -3.97  -2.57    +62.1502
iter:  29 01:37:02  -809.286683c -3.94  -2.63    +62.0294
iter:  30 01:39:10  -809.311304c -4.14  -2.68    +61.8526
iter:  31 01:41:58  -809.300464c -4.28  -2.70    +61.7531
iter:  32 01:44:17  -809.319051c -4.29  -2.76    +61.6434
iter:  33 01:46:26  -809.332536c -4.38  -2.78    +61.5672
iter:  34 01:48:34  -809.337417c -4.51  -2.80    +61.4751
iter:  35 01:50:43  -809.350189c -4.43  -2.85    +61.3999
iter:  36 01:52:52  -809.359929c -4.50  -2.87    +61.3186
iter:  37 01:55:00  -809.358071c -4.66  -2.90    +61.2514
iter:  38 01:57:08  -809.367137c -4.70  -2.95    +61.1959
iter:  39 01:59:16  -809.373348c -4.74  -2.98    +61.1297
iter:  40 02:01:27  -809.377186c -4.76  -3.01    +61.0806
iter:  41 02:03:36  -809.383174c -4.81  -3.04    +61.0212
iter:  42 02:05:44  -809.390987c -4.82  -3.09    +60.9774
iter:  43 02:07:52  -809.389018c -4.99  -3.10    +60.9432
iter:  44 02:10:02  -809.395453c -4.96  -3.14    +60.8885
iter:  45 02:12:10  -809.396545c -5.07  -3.17    +60.8675
iter:  46 02:14:20  -809.397595c -5.18  -3.21    +60.8219
iter:  47 02:16:29  -809.402997c -5.15  -3.26    +60.7544
iter:  48 02:18:39  -809.406685c -5.18  -3.28    +60.7382
iter:  49 02:20:49  -809.405124c -5.33  -3.30    +60.7056
iter:  50 02:23:26  -809.408786c -5.32  -3.34    +60.6637
iter:  51 02:25:44  -809.409147c -5.57  -3.37    +60.6524
iter:  52 02:27:55  -809.410617c -5.52  -3.41    +60.6146
iter:  53 02:30:04  -809.413929c -5.44  -3.43    +60.5739
iter:  54 02:32:14  -809.416382c -5.49  -3.45    +60.5523
iter:  55 02:34:23  -809.415725c -5.63  -3.47    +60.5299
iter:  56 02:36:33  -809.417847c -5.65  -3.51    +60.5029
iter:  57 02:38:44  -809.419195c -5.71  -3.54    +60.4826
iter:  58 02:40:53  -809.420164c -5.68  -3.57    +60.4584
iter:  59 02:43:03  -809.421805c -5.77  -3.60    +60.4306
iter:  60 02:45:12  -809.423904c -5.70  -3.64    +60.4079
iter:  61 02:47:21  -809.424010c -5.69  -3.66    +60.3812
iter:  62 02:49:31  -809.425522c -5.88  -3.66    +60.3713
iter:  63 02:51:41  -809.426218c -5.92  -3.72    +60.3519
iter:  64 02:53:54  -809.426740c -6.03  -3.79    +60.3368
iter:  65 02:56:43  -809.427830c -6.11  -3.82    +60.3148
iter:  66 02:58:54  -809.428795c -6.00  -3.85    +60.2987
iter:  67 03:01:02  -809.429563c -5.73  -3.89    +60.2528
iter:  68 03:03:11  -809.430373c -6.26  -3.89    +60.2652
iter:  69 03:05:21  -809.430750c -6.23  -3.93    +60.2475
iter:  70 03:07:29  -809.431435c -6.09  -4.04c   +60.2250
iter:  71 03:09:39  -809.431965c -6.35  -4.03c   +60.2150
iter:  72 03:11:49  -809.432665c -6.21  -4.07c   +60.2019
iter:  73 03:13:58  -809.433803c -5.86  -4.08c   +60.1747
iter:  74 03:16:06  -809.437691c -4.89  -4.04c   +60.0981
iter:  75 03:18:14  -809.436520c -6.07  -3.84    +60.1362
iter:  76 03:20:24  -809.438074c -5.85  -3.89    +60.1186
iter:  77 03:22:34  -809.438871c -6.09  -3.83    +60.1211
iter:  78 03:24:42  -809.437925c -6.42  -3.80    +60.1207
iter:  79 03:26:50  -809.438244c -6.21  -3.88    +60.1138
iter:  80 03:28:58  -809.438399c -6.34  -3.82    +60.1002
iter:  81 03:31:06  -809.439318c -5.87  -3.85    +60.0980
iter:  82 03:33:54  -809.438541c -6.21  -3.74    +60.1039
iter:  83 03:36:12  -809.439007c -6.37  -3.94    +60.0845
iter:  84 03:38:20  -809.439111c -6.53  -3.93    +60.0641
iter:  85 03:40:28  -809.439312c -6.82  -3.96    +60.0569
iter:  86 03:42:07  -809.440481c -5.86  -3.96    +60.0273
iter:  87 03:43:46  -809.439536c -6.15  -3.82    +60.0517
iter:  88 03:45:27  -809.441456c -5.27  -3.87    +60.0109
iter:  89 03:47:07  -809.441509c -6.28  -3.91    +60.0117
iter:  90 03:49:10  -809.441522c -6.38  -3.94    +60.0102
iter:  91 03:51:19  -809.441712c -6.53  -4.04c   +60.0045
iter:  92 03:53:26  -809.441902c -6.15  -4.06c   +59.9859
iter:  93 03:55:05  -809.442053c -6.45  -4.12c   +59.9796
iter:  94 03:56:44  -809.442055c -6.84  -4.22c   +59.9699
iter:  95 03:58:23  -809.442267c -6.81  -4.24c   +59.9615
iter:  96 04:00:17  -809.442445c -6.76  -4.27c   +59.9489
iter:  97 04:02:26  -809.442514c -6.91  -4.28c   +59.9456
iter:  98 04:04:13  -809.442630c -6.76  -4.34c   +59.9321
iter:  99 04:07:07  -809.442881c -7.12  -4.37c   +59.9332
iter: 100 04:08:54  -809.442752c -7.12  -4.42c   +59.9288
iter: 101 04:10:35  -809.442896c -7.46c -4.48c   +59.9264

Converged after 101 iterations.

Dipole moment: (15.013633, 23.045163, -16.278020) |e|*Ang

Total magnetic moment: (0.000000, 0.000000, 59.926449)
Local magnetic moments:
   0 Fe ( 0.000000,  0.000000,  2.220339)
   1 Cr ( 0.000000,  0.000000, -2.124437)
   2 Ni ( 0.000000,  0.000000, -0.062297)
   3 Cr ( 0.000000,  0.000000, -1.823853)
   4 Al ( 0.000000,  0.000000, -0.020568)
   5 Fe ( 0.000000,  0.000000,  2.358546)
   6 Ni ( 0.000000,  0.000000,  0.153205)
   7 Al ( 0.000000,  0.000000, -0.013783)
   8 Al ( 0.000000,  0.000000, -0.016594)
   9 Co ( 0.000000,  0.000000,  1.313275)
  10 Ni ( 0.000000,  0.000000,  0.019576)
  11 Co ( 0.000000,  0.000000,  1.274628)
  12 Ni ( 0.000000,  0.000000,  0.130155)
  13 Cr ( 0.000000,  0.000000,  0.356651)
  14 Fe ( 0.000000,  0.000000,  2.069709)
  15 Cr ( 0.000000,  0.000000, -1.175760)
  16 Co ( 0.000000,  0.000000,  0.937532)
  17 Cr ( 0.000000,  0.000000,  0.753941)
  18 Co ( 0.000000,  0.000000,  1.113862)
  19 Fe ( 0.000000,  0.000000,  2.025883)
  20 Cr ( 0.000000,  0.000000, -1.498149)
  21 Fe ( 0.000000,  0.000000,  2.171484)
  22 Co ( 0.000000,  0.000000,  0.801577)
  23 Al ( 0.000000,  0.000000, -0.030809)
  24 Ni ( 0.000000,  0.000000,  0.096752)
  25 Cr ( 0.000000,  0.000000,  0.094584)
  26 Cr ( 0.000000,  0.000000, -0.690501)
  27 Al ( 0.000000,  0.000000, -0.009291)
  28 Cr ( 0.000000,  0.000000, -0.743227)
  29 Cr ( 0.000000,  0.000000, -2.046637)
  30 Fe ( 0.000000,  0.000000,  1.835875)
  31 Fe ( 0.000000,  0.000000,  1.826403)
  32 Ni ( 0.000000,  0.000000,  0.285812)
  33 Cr ( 0.000000,  0.000000, -1.331382)
  34 Co ( 0.000000,  0.000000,  0.555967)
  35 Ni ( 0.000000,  0.000000,  0.216972)
  36 Ni ( 0.000000,  0.000000,  0.086395)
  37 Co ( 0.000000,  0.000000,  1.451073)
  38 Co ( 0.000000,  0.000000,  1.202847)
  39 Cr ( 0.000000,  0.000000, -1.647511)
  40 Fe ( 0.000000,  0.000000,  1.882917)
  41 Al ( 0.000000,  0.000000, -0.039153)
  42 Fe ( 0.000000,  0.000000,  2.103850)
  43 Ni ( 0.000000,  0.000000,  0.354710)
  44 Cr ( 0.000000,  0.000000, -1.214606)
  45 Co ( 0.000000,  0.000000,  1.308566)
  46 Co ( 0.000000,  0.000000,  1.036089)
  47 Ni ( 0.000000,  0.000000,  0.216646)
  48 Ni ( 0.000000,  0.000000,  0.331046)
  49 Cr ( 0.000000,  0.000000,  1.407385)
  50 Co ( 0.000000,  0.000000,  0.960374)
  51 Al ( 0.000000,  0.000000, -0.030586)
  52 Al ( 0.000000,  0.000000, -0.050803)
  53 Fe ( 0.000000,  0.000000,  1.862405)
  54 Fe ( 0.000000,  0.000000,  2.126903)
  55 Fe ( 0.000000,  0.000000,  1.980949)
  56 Ni ( 0.000000,  0.000000,  0.490526)
  57 Ni ( 0.000000,  0.000000,  0.239156)
  58 Co ( 0.000000,  0.000000,  1.222321)
  59 Co ( 0.000000,  0.000000,  1.110219)
[...]
  93 Cr ( 0.000000,  0.000000,  1.524776)
  94 Fe ( 0.000000,  0.000000,  1.992878)
  95 Cr ( 0.000000,  0.000000, -1.059439)
  96 Ni ( 0.000000,  0.000000,  0.277149)
  97 Fe ( 0.000000,  0.000000,  2.587611)
  98 Co ( 0.000000,  0.000000,  0.260728)
  99 Ni ( 0.000000,  0.000000,  0.310036)
 100 Cr ( 0.000000,  0.000000, -0.632765)
 101 Al ( 0.000000,  0.000000, -0.012967)
 102 Cr ( 0.000000,  0.000000,  1.349110)
 103 Co ( 0.000000,  0.000000,  0.877543)
 104 Al ( 0.000000,  0.000000, -0.018161)
 105 Ni ( 0.000000,  0.000000,  0.369265)
 106 Co ( 0.000000,  0.000000,  1.204456)
 107 Fe ( 0.000000,  0.000000,  2.002697)

Energy contributions relative to reference atoms: (reference = -3382523.201499)

Kinetic:       +431.932889
Potential:     -399.234935
External:        +0.000000
XC:            -873.160109
Entropy (-ST):   -4.254617
Local:          +33.146569
Free energy:   -811.570205
Extrapolated:  -809.442896

Spin contamination: 25.558634 electrons
Showing only first 2 kpts
                      Up                     Down
 Kpt  Band  Eigenvalues  Occupancy  Eigenvalues  Occupancy
  0   470      9.15582    0.99572     10.04543    0.03090
  0   471      9.17305    0.99492     10.06430    0.02572
  0   472      9.18120    0.99450     10.08226    0.02159
  0   473      9.20362    0.99312     10.09877    0.01836

  1   470      9.15328    0.99583     10.05776    0.02741
  1   471      9.17121    0.99502     10.07348    0.02352
  1   472      9.19490    0.99369     10.08155    0.02174
  1   473      9.20280    0.99318     10.09213    0.01960

Fermi level: 9.70087

No gap

Forces in eV/Ang:
  0 Fe   -0.39585    0.03498   -1.15319
  1 Cr    0.05126    1.44447   -0.59725
  2 Ni    1.59297    1.43171   -0.38015
  3 Cr    0.16578    0.03339    1.52682
  4 Al   -0.50912    0.46468    0.93102
  5 Fe   -0.54881   -1.57638   -0.51317
  6 Ni   -0.24479    0.63626    0.69027
  7 Al   -0.93879   -1.16390    0.17501
  8 Al    0.38607    1.56383   -1.92299
  9 Co    0.32266    0.05346    0.77581
 10 Ni    0.68836    0.22828   -0.36146
 11 Co   -0.59594   -0.36992   -0.01625
 12 Ni   -0.16195    0.04951   -0.04270
 13 Cr    1.28238   -0.88647    1.43433
 14 Fe   -0.22924   -0.31217   -2.71665
 15 Cr   -0.55335    0.16171   -0.24561
 16 Co    0.38285    0.35227    0.31355
 17 Cr   -0.78114   -0.08703   -0.27588
 18 Co   -0.84536   -0.56769    1.04994
 19 Fe    0.16995   -0.30412    0.59606
 20 Cr    0.30762    0.77466   -0.32545
 21 Fe   -0.17300   -0.83883    0.70692
 22 Co   -0.11450   -1.27879    1.17304
 23 Al   -0.02973   -0.85706   -0.30742
 24 Ni   -0.73674    1.10053   -0.74483
 25 Cr   -0.89949   -0.82691    0.01916
 26 Cr    0.46672    0.22322   -0.45610
 27 Al   -1.35963    2.11669   -0.87115
 28 Cr    2.07715   -1.35753    0.20765
 29 Cr   -0.01240   -1.48032    0.90177
 30 Fe   -1.37667   -0.16652   -0.26222
 31 Fe   -1.39365   -1.56351   -1.25395
 32 Ni   -1.38517    0.90586   -1.61311
 33 Cr    0.66019    0.76269   -0.58542
 34 Co    0.81403    0.69253    0.67793
 35 Ni   -0.34439    0.66703   -1.64273
 36 Ni    0.36886    0.07179   -0.22992
 37 Co   -0.43411   -0.02679   -0.70051
 38 Co   -0.51132    0.52250    0.94628
 39 Cr   -2.16059   -0.37979   -1.77606
 40 Fe    1.75198    1.10941   -0.87368
 41 Al    0.63951    0.74626   -0.54498
 42 Fe   -0.84508    0.44187   -0.31650
 43 Ni   -1.04768    0.26971   -0.16543
 44 Cr   -1.50363   -0.42836   -0.90393
 45 Co   -0.40137   -0.67862    0.42128
 46 Co    0.76029    0.82868   -0.26564
 47 Ni    0.34561    1.10093    0.10494
 48 Ni   -2.35069   -2.42740   -0.87611
 49 Cr   -0.70331   -0.24895   -0.42267
 50 Co   -0.67445   -0.37369   -0.87264
 51 Al    1.86916    0.65143   -0.61067
 52 Al    0.25116    0.83496    0.48648
 53 Fe    0.61050    1.18701   -0.07534
 54 Fe    1.10539   -0.19958    0.28519
 55 Fe    0.00850   -0.71354   -1.74351
 56 Ni   -0.58166   -0.64134   -1.73380
 57 Ni    1.40856    1.56550    0.86589
 58 Co   -0.61769   -0.71517    0.93949
 59 Co    0.27933    0.36542    1.02125
[...]
 93 Cr    0.46658   -0.44283    2.10531
 94 Fe    2.55049    2.04879   -0.27911
 95 Cr    0.91061   -0.07004    0.86515
 96 Ni    0.54680   -0.43897    0.87027
 97 Fe    1.25519    1.13182   -0.17753
 98 Co    0.08609    0.02959    0.30914
 99 Ni    0.13316   -0.03451   -0.08453
100 Cr    1.74242    1.27140   -0.28875
101 Al   -1.67835   -1.47205    0.10104
102 Cr    1.42755   -0.01882    0.19348
103 Co   -0.96304   -0.11761    1.05849
104 Al   -2.93889    0.61112    1.26830
105 Ni   -0.57322    1.03933   -0.60800
106 Co    0.09615   -0.10390   -1.69315
107 Fe   -0.24570    0.35675    0.74941

Date: Fri Apr 14 04:11:00 2023