User:   c.zeng@d0093
Date:   Thu Apr 13 20:07:07 2023
Arch:   x86_64
Pid:    284416
CWD:    /home/c.zeng/projects/hea-corrosion/hea-mlp/data-curation/bulk-md/dft-jobs/32
Python: 3.8.1
gpaw:   /home/c.zeng/usr/installs/gpaw/source/gpaw-22.8.0/gpaw
_gpaw:  /home/c.zeng/usr/installs/gpaw/source/gpaw-22.8.0/
        _gpaw.cpython-38-x86_64-linux-gnu.so
ase:    /home/c.zeng/.local/lib/python3.8/site-packages/ase-3.22.1-py3.8.egg/ase (version 3.22.1)
numpy:  /shared/centos7/python/3.8.1/lib/python3.8/site-packages/numpy (version 1.17.4)
scipy:  /shared/centos7/python/3.8.1/lib/python3.8/site-packages/scipy (version 1.4.1)
units:  Angstrom and eV
cores: 30
OpenMP: False
OMP_NUM_THREADS: 1

Input parameters:
  convergence: {energy: 0.0001}
  kpts: [2 2 2]
  maxiter: 666
  mode: {ecut: 350.0,
         name: pw}
  occupations: {fixmagmom: False,
                name: fermi-dirac,
                width: 0.1}
  spinpol: True
  xc: PBE

System changes: positions, numbers, cell, pbc, initial_charges, initial_magmoms

Initialize ...

species:
  Cr:
    name: Chromium
    id: 33f258bda2ca9f93018e70263a35547b
    Z: 24.0
    valence: 6
    core: 18
    charge: 0.0
    file: /home/c.zeng/usr/data/gpaw-setups-0.9.20000/Cr.PBE.gz
    compensation charges: {type: gauss,
                           rc: 0.35,
                           lmax: 2}
    cutoffs: {filter: 2.14,
              core: 3.04}
    valence states:
      #              energy  rcut
      - 4s(1.00)    -4.007   1.164
      - 4p(0.00)    -0.989   1.217
      - 3d(5.00)    -2.913   1.111
      -  s          23.205   1.164
      -  p          26.223   1.217
      -  d          24.299   1.111

    # Using partial waves for Cr as LCAO basis

  Al:
    name: Aluminium
    id: 0292cae29f5d6237e50f6abdd43a7bdd
    Z: 13.0
    valence: 3
    core: 10
    charge: 0.0
    file: /home/c.zeng/usr/data/gpaw-setups-0.9.20000/Al.PBE.gz
    compensation charges: {type: gauss,
                           rc: 0.34,
                           lmax: 2}
    cutoffs: {filter: 1.91,
              core: 2.36}
    valence states:
      #              energy  rcut
      - 3s(2.00)    -7.753   1.085
      - 3p(1.00)    -2.712   1.085
      -  s          19.459   1.085
      -  p          24.499   1.085
      -  d           0.000   1.085

[...]

  Co:
    name: Cobalt
    id: 339d20d5b0b93d2de9531a1bee871d91
    Z: 27.0
    valence: 9
    core: 18
    charge: 0.0
    file: /home/c.zeng/usr/data/gpaw-setups-0.9.20000/Co.PBE.gz
    compensation charges: {type: gauss,
                           rc: 0.32,
                           lmax: 2}
    cutoffs: {filter: 1.87,
              core: 2.55}
    valence states:
      #              energy  rcut
      - 4s(2.00)    -5.469   1.005
      - 4p(0.00)    -1.277   1.058
      - 3d(7.00)    -8.205   1.005
      -  s          21.742   1.005
      -  p          25.934   1.058
      -  d          19.007   1.005

[...]

  Fe:
    name: Iron
    id: 37abbd8d6c3c35915a9b583b742da910
    Z: 26.0
    valence: 8
    core: 18
    charge: 0.0
    file: /home/c.zeng/usr/data/gpaw-setups-0.9.20000/Fe.PBE.gz
    compensation charges: {type: gauss,
                           rc: 0.33,
                           lmax: 2}
    cutoffs: {filter: 2.06,
              core: 2.67}
    valence states:
      #              energy  rcut
      - 4s(2.00)    -5.291   1.164
      - 4p(0.00)    -1.326   1.058
      - 3d(6.00)    -7.505   1.058
      -  s          21.920   1.164
      -  p          25.885   1.058
      -  d          19.706   1.058

[...]

  Ni:
    name: Nickel
    id: 0d9f38a9d6e76a2886f07bb4381f212b
    Z: 28.0
    valence: 16
    core: 12
    charge: 0.0
    file: /home/c.zeng/usr/data/gpaw-setups-0.9.20000/Ni.PBE.gz
    compensation charges: {type: gauss,
                           rc: 0.36,
                           lmax: 2}
    cutoffs: {filter: 2.14,
              core: 1.98}
    valence states:
      #              energy  rcut
      - 4s(2.00)    -5.642   1.164
      - 3p(6.00)   -71.394   1.207
      - 4p(0.00)    -1.226   1.207
      - 3d(8.00)    -8.875   1.138
      -  s          21.570   1.164
      -  d          18.337   1.138

    # Using partial waves for Ni as LCAO basis

Reference energy: -3699400.456887  # eV

Spin-polarized calculation.
Magnetic moment: 143.500000

Convergence criteria:
 Maximum [total energy] change in last 3 cyles: 0.0001 eV / electron
 Maximum integral of absolute [dens]ity change: 0.0001 electrons / valence electron
 Maximum integral of absolute [eigenst]ate change: 4e-08 eV^2 / valence electron
 Maximum number of scf [iter]ations: 666
 (Square brackets indicate name in SCF output, whereas a 'c' in
 the SCF output indicates the quantity has converged.)

Symmetries present (total): 1

  ( 1  0  0)
  ( 0  1  0)
  ( 0  0  1)

8 k-points: 2 x 2 x 2 Monkhorst-Pack grid
4 k-points in the irreducible part of the Brillouin zone
       k-points in crystal coordinates                weights
   0:     0.25000000   -0.25000000   -0.25000000          2/8
   1:     0.25000000   -0.25000000    0.25000000          2/8
   2:     0.25000000    0.25000000   -0.25000000          2/8
   3:     0.25000000    0.25000000    0.25000000          2/8

Wave functions: Plane wave expansion
  Cutoff energy: 350.000 eV
  Number of coefficients (min, max): 18052, 18052
  Pulay-stress correction: 0.000000 eV/Ang^3 (de/decut=0.000000)
  Using FFTW library
  ScaLapack parameters: grid=1x1, blocksize=None
  Wavefunction extrapolation:
    Improved wavefunction reuse through dual PAW basis

Occupation numbers: Fermi-Dirac:
  width: 0.1000  # eV

Eigensolver
   Davidson(niter=2)

Densities:
  Coarse grid: 48*48*48 grid
  Fine grid: 96*96*96 grid
  Total Charge: 0.000000

Density mixing:
  Method: difference
  Backend: pulay
  Linear mixing parameter: 0.05
  old densities: 5
  Damping of long wavelength oscillations: 50

Hamiltonian:
  XC and Coulomb potentials evaluated on a 96*96*96 grid
  Using the PBE Exchange-Correlation functional
  External potential:
    NoExternalPotential

XC parameters: PBE with 2 nearest neighbor stencil

Total number of cores used: 30
Parallelization over k-points: 2
Domain decomposition: 5 x 3 x 1

Number of atoms: 108
Number of atomic orbitals: 1025
Number of bands in calculation: 703
Number of valence electrons: 1020
Bands to converge: occupied

... initialized

Initializing position-dependent things.

Density initialized from atomic densities
Creating initial wave functions:
  703 bands from LCAO basis set

       /|  Ni                     |
      / |                    Co   |
     /Cri       Cr      Fe        |
    /   |Fei              CrCr    Cr
   /Co  |   Fe    CrFe      Ni    |
  /  NCo|   FCoFe     Ni          |
 *    FeCo    NiNi Cr  CoCo      Ni
 |      |CoCr   CNi Co  AlCrFe    |
 |  NFe | FeCoAl  Ni Ni  FeNi     |
 |   FCr|  Ni CCo   FFeCr   Fe    |
 |      NCr    CFe     NiNi    Cr |
 |Co   NiNi    CoCrCo   CrFe      |
 |      .-FNi----FCoCo-Fe----Fe---Cr
 |   CFe     FNi   Cr   Ni Crr   /
 |    / Fe    CoAl   NiAl       /
 |   /   CoCr   Cro      CFe   /
 |Al/              Co         /
 | / Cr       Ni       Ni    /
 |/                     Fe  /

Positions:
   0 Cr    -0.047739   -0.108045   10.859050    ( 0.0000,  0.0000,  0.0000)
   1 Al    10.701650    1.811592    1.882483    ( 0.0000,  0.0000,  0.0000)
   2 Cr     1.670855   10.728343    1.962450    ( 0.0000,  0.0000,  0.0000)
   3 Co     1.733520    1.658097   10.658872    ( 0.0000,  0.0000,  2.1000)
   4 Fe     3.631498   -0.059399    0.029830    ( 0.0000,  0.0000,  2.0000)
   5 Cr     3.742840    1.791900    1.953184    ( 0.0000,  0.0000,  0.0000)
   6 Ni     5.336196   10.798663    1.450344    ( 0.0000,  0.0000,  1.5000)
   7 Fe     5.401180    1.810718   -0.288169    ( 0.0000,  0.0000,  2.0000)
   8 Cr     7.258376    0.047971   -0.137968    ( 0.0000,  0.0000,  0.0000)
   9 Co     6.982777    1.840969    1.640415    ( 0.0000,  0.0000,  2.1000)
  10 Ni     8.891150   10.810451    1.707338    ( 0.0000,  0.0000,  1.5000)
  11 Fe     8.924993    1.811397   10.712099    ( 0.0000,  0.0000,  2.0000)
  12 Co     0.148755    3.644448   10.527513    ( 0.0000,  0.0000,  2.1000)
  13 Co     0.097264    5.376240    1.701955    ( 0.0000,  0.0000,  2.1000)
  14 Fe     1.748802    3.434621    1.991785    ( 0.0000,  0.0000,  2.0000)
  15 Fe     1.903722    5.215149   -0.235748    ( 0.0000,  0.0000,  2.0000)
  16 Fe     3.699650    3.463382   -0.097111    ( 0.0000,  0.0000,  2.0000)
  17 Fe     3.439030    5.165726    1.836320    ( 0.0000,  0.0000,  2.0000)
  18 Cr     5.273358    3.407718    1.650690    ( 0.0000,  0.0000,  0.0000)
  19 Co     5.302891    5.429980    0.096555    ( 0.0000,  0.0000,  2.1000)
  20 Fe     7.012398    3.453079   10.570250    ( 0.0000,  0.0000,  2.0000)
  21 Ni     6.972584    5.218657    1.604596    ( 0.0000,  0.0000,  1.5000)
  22 Co     8.971576    3.457520    1.760610    ( 0.0000,  0.0000,  2.1000)
  23 Cr     8.903068    4.970004   -0.000797    ( 0.0000,  0.0000,  0.0000)
  24 Cr     0.060293    7.185500   -0.220544    ( 0.0000,  0.0000,  0.0000)
  25 Ni     0.066213    8.722990    1.573116    ( 0.0000,  0.0000,  1.5000)
  26 Fe     1.902896    7.064832    1.750769    ( 0.0000,  0.0000,  2.0000)
  27 Ni     1.845330    9.013322   10.608292    ( 0.0000,  0.0000,  1.5000)
  28 Co     3.369884    7.208950    0.089115    ( 0.0000,  0.0000,  2.1000)
  29 Co     3.452398    8.996481    1.888868    ( 0.0000,  0.0000,  2.1000)
  30 Co     5.159452    7.197383    1.565922    ( 0.0000,  0.0000,  2.1000)
  31 Cr     5.068825    8.768200    0.120787    ( 0.0000,  0.0000,  0.0000)
  32 Al     6.943056    7.174749   10.711737    ( 0.0000,  0.0000,  0.0000)
  33 Cr     7.128749    8.933473    1.601425    ( 0.0000,  0.0000,  0.0000)
  34 Cr     8.955476    7.032622    1.508462    ( 0.0000,  0.0000,  0.0000)
  35 Cr     8.861126    8.978351   10.801585    ( 0.0000,  0.0000,  0.0000)
  36 Fe    10.427270   10.691426    3.658478    ( 0.0000,  0.0000,  2.0000)
  37 Co    10.711955    1.746291    5.532263    ( 0.0000,  0.0000,  2.1000)
  38 Cr     1.621417   10.458367    5.508948    ( 0.0000,  0.0000,  0.0000)
  39 Fe     1.738619    1.652450    3.892026    ( 0.0000,  0.0000,  2.0000)
  40 Co     3.460581   10.675553    3.631179    ( 0.0000,  0.0000,  2.1000)
  41 Ni     3.559108    1.759921    5.192167    ( 0.0000,  0.0000,  1.5000)
  42 Ni     5.350120    0.005161    5.327733    ( 0.0000,  0.0000,  1.5000)
  43 Al     5.512478    1.697025    3.542552    ( 0.0000,  0.0000,  0.0000)
  44 Fe     7.173662   10.603773    3.373018    ( 0.0000,  0.0000,  2.0000)
  45 Co     7.085293    1.626072    5.454791    ( 0.0000,  0.0000,  2.1000)
  46 Fe     8.973017   10.744184    5.476563    ( 0.0000,  0.0000,  2.0000)
  47 Ni     8.795964    1.891412    3.971008    ( 0.0000,  0.0000,  1.5000)
  48 Fe    -0.230753    3.413722    3.618276    ( 0.0000,  0.0000,  2.0000)
  49 Fe    10.796378    5.426646    5.222592    ( 0.0000,  0.0000,  2.0000)
  50 Ni     1.916601    3.642994    5.541963    ( 0.0000,  0.0000,  1.5000)
  51 Ni     1.940480    5.371909    3.656194    ( 0.0000,  0.0000,  1.5000)
  52 Cr     3.187343    3.432569    3.656837    ( 0.0000,  0.0000,  0.0000)
  53 Co     3.734317    5.455698    5.198128    ( 0.0000,  0.0000,  2.1000)
  54 Fe     5.373285    3.556929    5.333457    ( 0.0000,  0.0000,  2.0000)
  55 Cr     5.309348    5.239734    3.475974    ( 0.0000,  0.0000,  0.0000)
  56 Co     7.030454    3.587522    3.468607    ( 0.0000,  0.0000,  2.1000)
  57 Fe     6.930488    5.296154    5.305537    ( 0.0000,  0.0000,  2.0000)
  58 Ni     8.917223    3.770859    5.447706    ( 0.0000,  0.0000,  1.5000)
  59 Fe     8.876040    5.227520    3.466162    ( 0.0000,  0.0000,  2.0000)
[...]
  93 Ni     7.183224    5.194421    9.004162    ( 0.0000,  0.0000,  1.5000)
  94 Co     8.824392    3.582208    9.019419    ( 0.0000,  0.0000,  2.1000)
  95 Cr     8.772435    5.350855    7.237171    ( 0.0000,  0.0000,  0.0000)
  96 Fe     0.079710    7.131684    6.941996    ( 0.0000,  0.0000,  2.0000)
  97 Ni     0.156484    9.001999    8.905442    ( 0.0000,  0.0000,  1.5000)
  98 Ni     1.805680    7.207766    8.865363    ( 0.0000,  0.0000,  1.5000)
  99 Fe     2.051635    8.848168    7.105116    ( 0.0000,  0.0000,  2.0000)
 100 Ni     3.480602    7.088605    7.205029    ( 0.0000,  0.0000,  1.5000)
 101 Cr     3.580335    8.955627    8.904986    ( 0.0000,  0.0000,  0.0000)
 102 Cr     5.271407    7.075366    8.799383    ( 0.0000,  0.0000,  0.0000)
 103 Cr     5.238119    9.025774    7.266983    ( 0.0000,  0.0000,  0.0000)
 104 Co     7.061377    7.139788    7.132606    ( 0.0000,  0.0000,  2.1000)
 105 Fe     7.055597    8.808583    8.859520    ( 0.0000,  0.0000,  2.0000)
 106 Cr     8.983278    7.207951    9.079919    ( 0.0000,  0.0000,  0.0000)
 107 Ni     8.739691    8.822712    7.242626    ( 0.0000,  0.0000,  1.5000)

Unit cell:
           periodic     x           y           z      points  spacing
  1. axis:    yes   10.671700    0.000000    0.000000    48     0.2223
  2. axis:    yes    0.000000   10.671700    0.000000    48     0.2223
  3. axis:    yes    0.000000    0.000000   10.671700    48     0.2223

  Lengths:  10.671700  10.671700  10.671700
  Angles:   90.000000  90.000000  90.000000

Effective grid spacing dv^(1/3) = 0.2223

     iter     time        total  log10-change:  magmom
                         energy  eigst   dens
iter:   1 20:13:25 -1034.135430                  +143.7779
iter:   2 20:16:16  -918.421389  -0.26  -1.21    +83.2205
iter:   3 20:19:08  -900.206353  -0.94  -1.24    +71.6226
iter:   4 20:22:00  -889.795233  -1.30  -1.31    +67.5356
iter:   5 20:24:52  -874.073908  -1.59  -1.31    +64.8446
iter:   6 20:27:44  -875.601540  -1.29  -1.39    +65.0701
iter:   7 20:30:34  -872.856070  -1.20  -1.46    +63.7967
iter:   8 20:33:26  -857.592054  -1.73  -1.55    +63.2515
iter:   9 20:36:17  -855.791106  -2.19  -1.75    +64.6657
iter:  10 20:39:09  -857.177536  -2.33  -1.82    +66.1277
iter:  11 20:42:02  -856.345282  -2.56  -1.82    +67.0334
iter:  12 20:44:53  -857.521702  -2.42  -1.87    +68.6726
iter:  13 20:47:44  -858.203807  -2.35  -1.90    +69.2782
iter:  14 20:50:35  -856.944642  -2.38  -1.94    +69.2844
iter:  15 20:53:26  -856.756542  -2.66  -2.08    +70.2493
iter:  16 20:56:16  -856.921739  -2.88  -2.13    +70.5630
iter:  17 20:59:08  -856.573100  -3.05  -2.15    +70.9300
iter:  18 21:02:00  -856.998723  -3.00  -2.22    +71.3342
iter:  19 21:04:51  -856.645745  -3.15  -2.22    +71.6613
iter:  20 21:07:42  -856.948314  -3.09  -2.29    +71.9202
iter:  21 21:10:34  -856.567311  -3.10  -2.29    +71.8487
iter:  22 21:13:26  -856.542891  -3.41  -2.47    +72.2768
iter:  23 21:16:18  -856.750863  -3.29  -2.53    +72.3063
iter:  24 21:19:09  -856.496784  -3.54  -2.47    +72.3816
iter:  25 21:22:01  -856.517911  -3.85  -2.67    +72.6569
iter:  26 21:24:52  -856.534862c -3.91  -2.70    +72.7705
iter:  27 21:27:44  -856.543779c -3.88  -2.74    +72.9205
iter:  28 21:30:36  -856.550067c -4.15  -2.78    +73.0660
iter:  29 21:33:26  -856.563703c -4.13  -2.81    +73.0513
iter:  30 21:36:11  -856.559740c -4.36  -2.83    +73.1027
iter:  31 21:39:02  -856.560968c -4.53  -2.87    +73.1873
iter:  32 21:41:55  -856.564177c -4.62  -2.92    +73.1977
iter:  33 21:44:46  -856.576944c -4.68  -2.97    +73.2601
iter:  34 21:47:38  -856.577574c -4.65  -2.98    +73.2755
iter:  35 21:50:29  -856.585332c -4.72  -3.02    +73.2706
iter:  36 21:53:21  -856.588282c -4.73  -3.04    +73.3246
iter:  37 21:56:13  -856.588433c -4.82  -3.07    +73.3258
iter:  38 21:59:04  -856.590167c -4.90  -3.12    +73.2869
iter:  39 22:01:55  -856.595035c -4.89  -3.19    +73.2911
iter:  40 22:04:47  -856.598071c -5.03  -3.22    +73.2833
iter:  41 22:07:39  -856.602344c -4.95  -3.24    +73.2645
iter:  42 22:10:30  -856.605176c -4.99  -3.26    +73.2895
iter:  43 22:13:14  -856.605576c -5.14  -3.28    +73.2847
iter:  44 22:15:52  -856.606880c -5.19  -3.34    +73.2508
iter:  45 22:18:28  -856.608859c -5.34  -3.40    +73.2501
iter:  46 22:21:03  -856.610948c -5.43  -3.43    +73.2426
iter:  47 22:23:37  -856.612213c -5.40  -3.44    +73.2318
iter:  48 22:26:11  -856.613454c -5.49  -3.45    +73.2353
iter:  49 22:28:44  -856.613671c -5.61  -3.50    +73.2298
iter:  50 22:31:18  -856.614626c -5.77  -3.55    +73.2180
iter:  51 22:33:52  -856.615918c -5.69  -3.58    +73.2100
iter:  52 22:36:51  -856.616573c -5.81  -3.59    +73.2091
iter:  53 22:40:04  -856.617438c -5.79  -3.64    +73.1922
iter:  54 22:42:38  -856.618642c -5.84  -3.64    +73.1951
iter:  55 22:45:14  -856.619067c -5.95  -3.67    +73.1868
iter:  56 22:47:48  -856.619874c -5.90  -3.70    +73.1725
iter:  57 22:50:22  -856.620641c -5.95  -3.74    +73.1666
iter:  58 22:52:56  -856.621665c -5.96  -3.76    +73.1595
iter:  59 22:55:31  -856.622361c -5.98  -3.79    +73.1486
iter:  60 22:58:06  -856.623399c -5.98  -3.81    +73.1437
iter:  61 23:00:40  -856.623935c -6.12  -3.85    +73.1388
iter:  62 23:03:16  -856.624572c -6.15  -3.87    +73.1296
iter:  63 23:05:51  -856.625210c -6.15  -3.92    +73.1241
iter:  64 23:08:25  -856.626053c -6.19  -3.95    +73.1210
iter:  65 23:11:01  -856.626555c -6.25  -3.98    +73.1124
iter:  66 23:13:35  -856.627360c -6.23  -4.01c   +73.1114
iter:  67 23:16:41  -856.627816c -6.36  -4.03c   +73.1070
iter:  68 23:19:50  -856.628345c -6.40  -4.05c   +73.1029
iter:  69 23:22:25  -856.628852c -6.37  -4.09c   +73.0993
iter:  70 23:25:00  -856.629473c -6.42  -4.11c   +73.0982
iter:  71 23:27:37  -856.629926c -6.34  -4.12c   +73.0924
iter:  72 23:30:14  -856.630419c -6.49  -4.16c   +73.0936
iter:  73 23:32:49  -856.631065c -6.29  -4.17c   +73.0906
iter:  74 23:35:25  -856.631258c -6.67  -4.15c   +73.0908
iter:  75 23:38:00  -856.631773c -6.41  -4.23c   +73.0901
iter:  76 23:40:35  -856.632255c -6.54  -4.25c   +73.0900
iter:  77 23:43:10  -856.633026c -6.15  -4.27c   +73.0877
iter:  78 23:45:46  -856.633784c -6.16  -4.28c   +73.0898
iter:  79 23:48:21  -856.637171c -5.12  -4.27c   +73.0966
iter:  80 23:50:56  -856.640700c -4.92  -4.08c   +73.1099
iter:  81 23:53:31  -856.646593c -4.31  -3.95    +73.1423
iter:  82 23:56:06  -856.646761c -5.21  -3.70    +73.1411
iter:  83 23:59:23  -856.647018c -5.62  -3.70    +73.1410
iter:  84 00:02:19  -856.647222c -5.91  -3.69    +73.1416
iter:  85 00:04:53  -856.647259c -6.12  -3.68    +73.1438
iter:  86 00:07:29  -856.647257c -5.31  -3.68    +73.1527
iter:  87 00:10:05  -856.645892c -5.80  -3.49    +73.1430
iter:  88 00:12:41  -856.646712c -5.90  -3.62    +73.1371
iter:  89 00:15:16  -856.646240c -5.95  -3.54    +73.1335
iter:  90 00:17:51  -856.645201c -5.88  -3.53    +73.1139
iter:  91 00:20:27  -856.644956c -6.05  -3.66    +73.0993
iter:  92 00:23:02  -856.646103c -5.62  -3.64    +73.0897
iter:  93 00:25:37  -856.644234c -5.60  -3.57    +73.0890
iter:  94 00:28:12  -856.644591c -5.77  -3.80    +73.0810
iter:  95 00:30:49  -856.643772c -6.09  -3.74    +73.0854
iter:  96 00:33:24  -856.643448c -6.25  -3.92    +73.0869
iter:  97 00:36:25  -856.643676c -6.58  -3.87    +73.0904
iter:  98 00:39:41  -856.643520c -6.76  -3.96    +73.0933
iter:  99 00:42:16  -856.643538c -6.85  -3.98    +73.0950
iter: 100 00:44:52  -856.643475c -6.77  -4.01c   +73.0993
iter: 101 00:47:27  -856.643493c -6.89  -4.02c   +73.0997
iter: 102 00:50:02  -856.643530c -6.89  -4.08c   +73.1049
iter: 103 00:52:36  -856.643318c -6.97  -4.09c   +73.1051
iter: 104 00:55:12  -856.643464c -7.10  -4.13c   +73.1074
iter: 105 00:57:46  -856.643328c -7.08  -4.18c   +73.1086
iter: 106 01:00:21  -856.643383c -7.04  -4.19c   +73.1109
iter: 107 01:02:56  -856.643319c -7.04  -4.20c   +73.1138
iter: 108 01:05:32  -856.643320c -7.09  -4.23c   +73.1126
iter: 109 01:08:07  -856.643436c -7.01  -4.27c   +73.1155
iter: 110 01:10:41  -856.643182c -7.08  -4.25c   +73.1157
iter: 111 01:13:16  -856.643301c -7.25  -4.29c   +73.1174
iter: 112 01:15:52  -856.643252c -7.34  -4.34c   +73.1173
iter: 113 01:18:27  -856.643283c -7.34  -4.34c   +73.1172
iter: 114 01:21:01  -856.643212c -7.56c -4.36c   +73.1201

Converged after 114 iterations.

Dipole moment: (-3.697952, 17.612294, 22.484507) |e|*Ang

Total magnetic moment: (0.000000, 0.000000, 73.120106)
Local magnetic moments:
   0 Cr ( 0.000000,  0.000000,  0.173196)
   1 Al ( 0.000000,  0.000000, -0.043266)
   2 Cr ( 0.000000,  0.000000, -1.585557)
   3 Co ( 0.000000,  0.000000,  1.105104)
   4 Fe ( 0.000000,  0.000000,  1.728526)
   5 Cr ( 0.000000,  0.000000,  0.843906)
   6 Ni ( 0.000000,  0.000000,  0.190766)
   7 Fe ( 0.000000,  0.000000,  1.518188)
   8 Cr ( 0.000000,  0.000000, -0.426791)
   9 Co ( 0.000000,  0.000000,  1.032661)
  10 Ni ( 0.000000,  0.000000,  0.218771)
  11 Fe ( 0.000000,  0.000000,  2.149063)
  12 Co ( 0.000000,  0.000000,  1.378435)
  13 Co ( 0.000000,  0.000000,  1.336870)
  14 Fe ( 0.000000,  0.000000,  2.044828)
  15 Fe ( 0.000000,  0.000000,  2.456199)
  16 Fe ( 0.000000,  0.000000,  2.132546)
  17 Fe ( 0.000000,  0.000000,  2.052704)
  18 Cr ( 0.000000,  0.000000, -0.920439)
  19 Co ( 0.000000,  0.000000,  1.215451)
  20 Fe ( 0.000000,  0.000000,  2.122702)
  21 Ni ( 0.000000,  0.000000,  0.282152)
  22 Co ( 0.000000,  0.000000,  1.160069)
  23 Cr ( 0.000000,  0.000000, -1.001086)
  24 Cr ( 0.000000,  0.000000, -0.904464)
  25 Ni ( 0.000000,  0.000000,  0.136420)
  26 Fe ( 0.000000,  0.000000,  2.484725)
  27 Ni ( 0.000000,  0.000000,  0.263453)
  28 Co ( 0.000000,  0.000000,  1.217401)
  29 Co ( 0.000000,  0.000000,  1.198629)
  30 Co ( 0.000000,  0.000000,  0.914661)
  31 Cr ( 0.000000,  0.000000,  0.307694)
  32 Al ( 0.000000,  0.000000, -0.010980)
  33 Cr ( 0.000000,  0.000000, -0.893159)
  34 Cr ( 0.000000,  0.000000,  1.361260)
  35 Cr ( 0.000000,  0.000000,  0.036397)
  36 Fe ( 0.000000,  0.000000,  2.271399)
  37 Co ( 0.000000,  0.000000,  0.998001)
  38 Cr ( 0.000000,  0.000000, -0.444061)
  39 Fe ( 0.000000,  0.000000,  1.852870)
  40 Co ( 0.000000,  0.000000,  1.208112)
  41 Ni ( 0.000000,  0.000000,  0.194276)
  42 Ni ( 0.000000,  0.000000,  0.259842)
  43 Al ( 0.000000,  0.000000, -0.022944)
  44 Fe ( 0.000000,  0.000000,  2.312165)
  45 Co ( 0.000000,  0.000000,  1.078286)
  46 Fe ( 0.000000,  0.000000,  1.434212)
  47 Ni ( 0.000000,  0.000000,  0.587055)
  48 Fe ( 0.000000,  0.000000,  2.364348)
  49 Fe ( 0.000000,  0.000000,  2.328554)
  50 Ni ( 0.000000,  0.000000,  0.470671)
  51 Ni ( 0.000000,  0.000000,  0.391465)
  52 Cr ( 0.000000,  0.000000, -1.003745)
  53 Co ( 0.000000,  0.000000,  1.248017)
  54 Fe ( 0.000000,  0.000000,  2.251760)
  55 Cr ( 0.000000,  0.000000, -1.735043)
  56 Co ( 0.000000,  0.000000,  1.124324)
  57 Fe ( 0.000000,  0.000000,  2.329773)
  58 Ni ( 0.000000,  0.000000,  0.351084)
  59 Fe ( 0.000000,  0.000000,  2.461722)
[...]
  93 Ni ( 0.000000,  0.000000,  0.165289)
  94 Co ( 0.000000,  0.000000,  0.936172)
  95 Cr ( 0.000000,  0.000000, -1.916621)
  96 Fe ( 0.000000,  0.000000,  2.492260)
  97 Ni ( 0.000000,  0.000000,  0.221031)
  98 Ni ( 0.000000,  0.000000,  0.339708)
  99 Fe ( 0.000000,  0.000000,  1.579969)
 100 Ni ( 0.000000,  0.000000,  0.367545)
 101 Cr ( 0.000000,  0.000000, -0.787993)
 102 Cr ( 0.000000,  0.000000, -1.322285)
 103 Cr ( 0.000000,  0.000000,  0.883012)
 104 Co ( 0.000000,  0.000000,  1.045305)
 105 Fe ( 0.000000,  0.000000,  1.107643)
 106 Cr ( 0.000000,  0.000000,  0.995618)
 107 Ni ( 0.000000,  0.000000,  0.113318)

Energy contributions relative to reference atoms: (reference = -3699400.456887)

Kinetic:       +386.803970
Potential:     -390.263398
External:        +0.000000
XC:            -888.857260
Entropy (-ST):   -4.447707
Local:          +37.897329
Free energy:   -858.867066
Extrapolated:  -856.643212

Spin contamination: 23.159627 electrons
Showing only first 2 kpts
                      Up                     Down
 Kpt  Band  Eigenvalues  Occupancy  Eigenvalues  Occupancy
  0   508      9.61051    0.99721     10.61272    0.01561
  0   509      9.62157    0.99688     10.62825    0.01339
  0   510      9.63699    0.99636     10.63618    0.01238
  0   511      9.64734    0.99597     10.65456    0.01033

  1   508      9.60471    0.99736     10.62545    0.01377
  1   509      9.61503    0.99708     10.63245    0.01285
  1   510      9.62860    0.99665     10.63514    0.01251
  1   511      9.64059    0.99623     10.64954    0.01085

Fermi level: 10.19828

No gap

Forces in eV/Ang:
  0 Cr    0.81158    1.05578   -1.86323
  1 Al   -0.92129    0.05843   -0.50073
  2 Cr    1.16174   -0.77527   -0.49453
  3 Co    0.22661    0.68050    0.31242
  4 Fe   -1.89696    1.28813   -0.53822
  5 Cr   -2.22657    0.37630   -1.67163
  6 Ni    1.00696   -0.98808    1.73554
  7 Fe   -0.56400   -0.03736    1.68893
  8 Cr   -0.45409    0.57372    1.82300
  9 Co    1.48464   -0.38926    0.18182
 10 Ni   -0.43306   -0.22236    1.08362
 11 Fe    0.09523   -0.01440   -0.84885
 12 Co   -0.29335   -1.04167    0.83915
 13 Co    0.19549   -0.60422    0.33397
 14 Fe   -0.00890    0.73724   -1.58251
 15 Fe   -0.65881    0.34902    1.68492
 16 Fe   -1.64997    0.36633    0.55306
 17 Fe    0.72051    0.14231   -0.84132
 18 Cr   -0.43817    0.44304    0.63593
 19 Co   -1.85189   -0.84851   -1.50350
 20 Fe    0.24680    0.48287    0.33811
 21 Ni    1.36447    0.45572    1.21832
 22 Co   -0.98962    0.54893    0.00698
 23 Cr    0.67211    1.93053    0.88952
 24 Cr    0.00365   -0.98828    1.07736
 25 Ni    0.34231    0.38584    1.91876
 26 Fe   -1.39961    0.11107    0.80090
 27 Ni   -0.44810   -0.27616    1.06942
 28 Co    0.60558   -1.39929   -1.26677
 29 Co   -0.72257    0.28619   -0.33925
 30 Co    0.44718   -1.20564    2.42877
 31 Cr    1.08740    1.72521   -1.35771
 32 Al    1.28739   -1.74018   -1.31958
 33 Cr   -0.34294    0.72514    1.72505
 34 Cr   -0.24505   -0.80330    0.74205
 35 Cr    0.32263   -0.76828   -0.50652
 36 Fe    1.00590   -0.35773   -0.52400
 37 Co   -0.29972    0.70449   -0.10769
 38 Cr    1.37456    0.95503   -1.09473
 39 Fe   -1.44092    0.02327   -1.34651
 40 Co    0.41049   -0.33972   -0.10835
 41 Ni    1.11193   -0.19855    2.04289
 42 Ni   -0.15556   -0.40048    0.18444
 43 Al   -0.27806   -0.18788    1.20879
 44 Fe    0.13955    0.24419    0.73003
 45 Co   -0.56726    1.22443    0.35289
 46 Fe   -0.92512   -0.87129    0.27090
 47 Ni   -0.26597   -0.72571   -2.02346
 48 Fe    2.06555    1.49051    0.87591
 49 Fe   -1.19160   -1.01360    0.52815
 50 Ni   -2.63332   -0.63557   -1.53317
 51 Ni   -1.49210    0.10110   -0.68074
 52 Cr    2.30683    0.47193   -0.95521
 53 Co   -1.07301   -0.70035    0.38218
 54 Fe   -0.48890   -0.72817   -0.03995
 55 Cr   -0.13942    0.35473    0.04048
 56 Co    0.68133   -0.10929    0.33725
 57 Fe    0.52257    0.11821   -0.11534
 58 Ni   -0.56111   -0.57789    0.44153
 59 Fe   -0.37044    0.47642   -0.83542
[...]
 93 Ni   -1.25416    2.68467    0.19810
 94 Co    1.32775   -0.92097   -1.73836
 95 Cr    0.83903    0.67921   -0.09819
 96 Fe   -0.84196   -0.06827    1.21635
 97 Ni   -1.41904   -1.15392   -0.46850
 98 Ni   -0.24787   -0.56778    0.01727
 99 Fe   -1.44245    0.67682    0.02249
100 Ni    0.99619   -0.10287   -1.07731
101 Cr   -0.53772   -0.03088   -0.05711
102 Cr    0.07534   -0.40747    0.14483
103 Cr   -0.47580   -0.83427   -1.12924
104 Co   -0.16577   -1.01172    0.62946
105 Fe   -0.21578    0.18203    0.77304
106 Cr   -0.27848   -0.69386   -0.21760
107 Ni    1.74592   -0.24019   -0.93440

Date: Fri Apr 14 01:21:26 2023