User:   c.zeng@d0060
Date:   Fri Apr 14 21:50:21 2023
Arch:   x86_64
Pid:    75604
CWD:    /home/c.zeng/projects/hea-corrosion/hea-mlp/data-curation/bulk-mcmc/dft-jobs/174
Python: 3.8.1
gpaw:   /home/c.zeng/usr/installs/gpaw/source/gpaw-22.8.0/gpaw
_gpaw:  /home/c.zeng/usr/installs/gpaw/source/gpaw-22.8.0/
        _gpaw.cpython-38-x86_64-linux-gnu.so
ase:    /home/c.zeng/.local/lib/python3.8/site-packages/ase-3.22.1-py3.8.egg/ase (version 3.22.1)
numpy:  /shared/centos7/python/3.8.1/lib/python3.8/site-packages/numpy (version 1.17.4)
scipy:  /shared/centos7/python/3.8.1/lib/python3.8/site-packages/scipy (version 1.4.1)
units:  Angstrom and eV
cores: 30
OpenMP: False
OMP_NUM_THREADS: 1

Input parameters:
  convergence: {energy: 0.0001}
  kpts: [2 2 2]
  maxiter: 666
  mode: {ecut: 350.0,
         name: pw}
  occupations: {fixmagmom: False,
                name: fermi-dirac,
                width: 0.1}
  spinpol: True
  xc: PBE

System changes: positions, numbers, cell, pbc, initial_charges, initial_magmoms

Initialize ...

species:
  Fe:
    name: Iron
    id: 37abbd8d6c3c35915a9b583b742da910
    Z: 26.0
    valence: 8
    core: 18
    charge: 0.0
    file: /home/c.zeng/usr/data/gpaw-setups-0.9.20000/Fe.PBE.gz
    compensation charges: {type: gauss,
                           rc: 0.33,
                           lmax: 2}
    cutoffs: {filter: 2.06,
              core: 2.67}
    valence states:
      #              energy  rcut
      - 4s(2.00)    -5.291   1.164
      - 4p(0.00)    -1.326   1.058
      - 3d(6.00)    -7.505   1.058
      -  s          21.920   1.164
      -  p          25.885   1.058
      -  d          19.706   1.058

    # Using partial waves for Fe as LCAO basis

  Co:
    name: Cobalt
    id: 339d20d5b0b93d2de9531a1bee871d91
    Z: 27.0
    valence: 9
    core: 18
    charge: 0.0
    file: /home/c.zeng/usr/data/gpaw-setups-0.9.20000/Co.PBE.gz
    compensation charges: {type: gauss,
                           rc: 0.32,
                           lmax: 2}
    cutoffs: {filter: 1.87,
              core: 2.55}
    valence states:
      #              energy  rcut
      - 4s(2.00)    -5.469   1.005
      - 4p(0.00)    -1.277   1.058
      - 3d(7.00)    -8.205   1.005
      -  s          21.742   1.005
      -  p          25.934   1.058
      -  d          19.007   1.005

[...]

  Al:
    name: Aluminium
    id: 0292cae29f5d6237e50f6abdd43a7bdd
    Z: 13.0
    valence: 3
    core: 10
    charge: 0.0
    file: /home/c.zeng/usr/data/gpaw-setups-0.9.20000/Al.PBE.gz
    compensation charges: {type: gauss,
                           rc: 0.34,
                           lmax: 2}
    cutoffs: {filter: 1.91,
              core: 2.36}
    valence states:
      #              energy  rcut
      - 3s(2.00)    -7.753   1.085
      - 3p(1.00)    -2.712   1.085
      -  s          19.459   1.085
      -  p          24.499   1.085
      -  d           0.000   1.085

[...]

  Cr:
    name: Chromium
    id: 33f258bda2ca9f93018e70263a35547b
    Z: 24.0
    valence: 6
    core: 18
    charge: 0.0
    file: /home/c.zeng/usr/data/gpaw-setups-0.9.20000/Cr.PBE.gz
    compensation charges: {type: gauss,
                           rc: 0.35,
                           lmax: 2}
    cutoffs: {filter: 2.14,
              core: 3.04}
    valence states:
      #              energy  rcut
      - 4s(1.00)    -4.007   1.164
      - 4p(0.00)    -0.989   1.217
      - 3d(5.00)    -2.913   1.111
      -  s          23.205   1.164
      -  p          26.223   1.217
      -  d          24.299   1.111

[...]

  Ni:
    name: Nickel
    id: 0d9f38a9d6e76a2886f07bb4381f212b
    Z: 28.0
    valence: 16
    core: 12
    charge: 0.0
    file: /home/c.zeng/usr/data/gpaw-setups-0.9.20000/Ni.PBE.gz
    compensation charges: {type: gauss,
                           rc: 0.36,
                           lmax: 2}
    cutoffs: {filter: 2.14,
              core: 1.98}
    valence states:
      #              energy  rcut
      - 4s(2.00)    -5.642   1.164
      - 3p(6.00)   -71.394   1.207
      - 4p(0.00)    -1.226   1.207
      - 3d(8.00)    -8.875   1.138
      -  s          21.570   1.164
      -  d          18.337   1.138

    # Using partial waves for Ni as LCAO basis

Reference energy: -3382523.201499  # eV

Spin-polarized calculation.
Magnetic moment: 128.800000

Convergence criteria:
 Maximum [total energy] change in last 3 cyles: 0.0001 eV / electron
 Maximum integral of absolute [dens]ity change: 0.0001 electrons / valence electron
 Maximum integral of absolute [eigenst]ate change: 4e-08 eV^2 / valence electron
 Maximum number of scf [iter]ations: 666
 (Square brackets indicate name in SCF output, whereas a 'c' in
 the SCF output indicates the quantity has converged.)

Symmetries present (total): 1

  ( 1  0  0)
  ( 0  1  0)
  ( 0  0  1)

8 k-points: 2 x 2 x 2 Monkhorst-Pack grid
4 k-points in the irreducible part of the Brillouin zone
       k-points in crystal coordinates                weights
   0:     0.25000000   -0.25000000   -0.25000000          2/8
   1:     0.25000000   -0.25000000    0.25000000          2/8
   2:     0.25000000    0.25000000   -0.25000000          2/8
   3:     0.25000000    0.25000000    0.25000000          2/8

Wave functions: Plane wave expansion
  Cutoff energy: 350.000 eV
  Number of coefficients (min, max): 18865, 18865
  Pulay-stress correction: 0.000000 eV/Ang^3 (de/decut=0.000000)
  Using FFTW library
  ScaLapack parameters: grid=1x1, blocksize=None
  Wavefunction extrapolation:
    Improved wavefunction reuse through dual PAW basis

Occupation numbers: Fermi-Dirac:
  width: 0.1000  # eV

Eigensolver
   Davidson(niter=2)

Densities:
  Coarse grid: 48*48*48 grid
  Fine grid: 96*96*96 grid
  Total Charge: 0.000000

Density mixing:
  Method: difference
  Backend: pulay
  Linear mixing parameter: 0.05
  old densities: 5
  Damping of long wavelength oscillations: 50

Hamiltonian:
  XC and Coulomb potentials evaluated on a 96*96*96 grid
  Using the PBE Exchange-Correlation functional
  External potential:
    NoExternalPotential

XC parameters: PBE with 2 nearest neighbor stencil

Total number of cores used: 30
Parallelization over k-points: 2
Domain decomposition: 5 x 3 x 1

Number of atoms: 108
Number of atomic orbitals: 961
Number of bands in calculation: 649
Number of valence electrons: 945
Bands to converge: occupied

... initialized

Initializing position-dependent things.

Density initialized from atomic densities
Creating initial wave functions:
  649 bands from LCAO basis set

       /|                     Co   |
      / |            Co Fe     CrFe|
     /  |       Cr       Ni       Cr
    /   |Fe       Fel     FFer     |
   /i   | Coo        Fe      Co    |
  /  CrAl   NCr       Ni           |
 *      Ni     FeCo   AlFeCrFe   Cr|
 |      |CoNi   CrNiAl   NiAlNi   Co
 | CrCo | AlNi   AlAlFe     Ni     |
 |     Co  FeCr Cr  Fe FeNi  CrNi  |
 |      CoNi   AlCr   FeCoCoNi  Co |
 |Al    |CoCr   AlCrCo   CrCo     Fe
 |      .-CrCo-----NiCr-FeCoCrNi---.
 |     /   Ni Co    Cr CoNi    Al /
 |    Fe       AFei       Al     /
 |   /  Co         Al       Cr  /
 |  /      Fe       Al       Fe/
 | / Co     Fe       Ni Ni    /
 |/             Cr       Ni  /
 *--------Fe----------------*

Positions:
   0 Fe    10.764147   10.861293   10.805330    ( 0.0000,  0.0000,  2.0000)
   1 Fe    10.786221    1.792513    1.813624    ( 0.0000,  0.0000,  0.0000)
   2 Co     1.744156    0.036560    1.851269    ( 0.0000,  0.0000,  1.5000)
   3 Al     1.736571    1.831142   10.798805    ( 0.0000,  0.0000,  0.0000)
   4 Fe     3.575126    0.057318    0.061759    ( 0.0000,  0.0000,  0.0000)
   5 Fe     3.594289    1.817617    1.845577    ( 0.0000,  0.0000,  2.0000)
   6 Fe     5.429813   10.817005    1.865054    ( 0.0000,  0.0000,  1.5000)
   7 Cr     5.429608    1.929425    0.057134    ( 0.0000,  0.0000,  0.0000)
   8 Co     7.316909   10.723332    0.087382    ( 0.0000,  0.0000,  0.0000)
   9 Al     7.263142    1.825786    1.869404    ( 0.0000,  0.0000,  2.1000)
  10 Ni     9.063554    0.025226    1.863474    ( 0.0000,  0.0000,  1.5000)
  11 Ni     9.049217    1.829703    0.033106    ( 0.0000,  0.0000,  2.1000)
  12 Ni     0.004792    3.558981   10.794801    ( 0.0000,  0.0000,  1.5000)
  13 Al    10.759710    5.390697    1.778165    ( 0.0000,  0.0000,  0.0000)
  14 Co     1.733585    3.561849    1.761112    ( 0.0000,  0.0000,  2.0000)
  15 Fe     1.776899    5.391834   10.795505    ( 0.0000,  0.0000,  0.0000)
  16 Fe     3.565452    3.619360   10.832619    ( 0.0000,  0.0000,  2.1000)
  17 Co     3.633221    5.394614    1.719551    ( 0.0000,  0.0000,  0.0000)
  18 Ni     5.471624    3.659114    1.836033    ( 0.0000,  0.0000,  2.1000)
  19 Fe     5.440212    5.373060   -0.002773    ( 0.0000,  0.0000,  2.0000)
  20 Ni     7.258997    3.609080    0.031294    ( 0.0000,  0.0000,  0.0000)
  21 Co     7.268941    5.378362    1.785274    ( 0.0000,  0.0000,  2.0000)
  22 Al     9.030724    3.577636    1.833728    ( 0.0000,  0.0000,  2.1000)
  23 Fe     9.040420    5.372281   10.801110    ( 0.0000,  0.0000,  0.0000)
  24 Fe    10.791663    7.196206   10.792486    ( 0.0000,  0.0000,  1.5000)
  25 Fe    10.758434    9.040387    1.848239    ( 0.0000,  0.0000,  0.0000)
  26 Cr     1.690487    7.202493    1.786032    ( 0.0000,  0.0000,  0.0000)
  27 Ni     1.652691    8.981047    0.027217    ( 0.0000,  0.0000,  0.0000)
  28 Al     3.631241    7.164437    0.034633    ( 0.0000,  0.0000,  0.0000)
  29 Al     3.625452    9.063759    1.801678    ( 0.0000,  0.0000,  0.0000)
  30 Ni     5.490852    7.187095    1.746342    ( 0.0000,  0.0000,  2.0000)
  31 Cr     5.426935    8.989152    0.009861    ( 0.0000,  0.0000,  2.0000)
  32 Fe     7.229122    7.237075   -0.008698    ( 0.0000,  0.0000,  1.5000)
  33 Cr     7.249194    8.995850    1.810713    ( 0.0000,  0.0000,  0.0000)
  34 Cr     9.052073    7.204300    1.764218    ( 0.0000,  0.0000,  2.1000)
  35 Co     9.092553    8.989639   10.808760    ( 0.0000,  0.0000,  1.5000)
  36 Cr    -0.000975   10.826235    3.639789    ( 0.0000,  0.0000,  1.5000)
  37 Al    10.822772    1.771770    5.422044    ( 0.0000,  0.0000,  2.1000)
  38 Ni     1.754263   10.802084    5.428872    ( 0.0000,  0.0000,  2.1000)
  39 Fe     1.741873    1.774270    3.610801    ( 0.0000,  0.0000,  0.0000)
  40 Al     3.591183   10.794152    3.612143    ( 0.0000,  0.0000,  2.0000)
  41 Cr     3.593088    1.736744    5.455177    ( 0.0000,  0.0000,  0.0000)
  42 Al     5.437150   10.794563    5.400804    ( 0.0000,  0.0000,  2.0000)
  43 Fe     5.451931    1.783251    3.601387    ( 0.0000,  0.0000,  1.5000)
  44 Al     7.226222    0.007781    3.626209    ( 0.0000,  0.0000,  0.0000)
  45 Co     7.236069    1.766512    5.381392    ( 0.0000,  0.0000,  2.1000)
  46 Fe     9.034587   10.848850    5.403844    ( 0.0000,  0.0000,  2.1000)
  47 Ni     9.031558    1.804946    3.616730    ( 0.0000,  0.0000,  1.5000)
  48 Ni    10.773885    3.543973    3.617867    ( 0.0000,  0.0000,  1.5000)
  49 Ni    10.772186    5.358409    5.454917    ( 0.0000,  0.0000,  0.0000)
  50 Co     1.757531    3.575678    5.428937    ( 0.0000,  0.0000,  2.1000)
  51 Co     1.621766    5.386986    3.572550    ( 0.0000,  0.0000,  0.0000)
[...]

Unit cell:
           periodic     x           y           z      points  spacing
  1. axis:    yes   10.820500    0.000000    0.000000    48     0.2254
  2. axis:    yes    0.000000   10.820500    0.000000    48     0.2254
  3. axis:    yes    0.000000    0.000000   10.820500    48     0.2254

  Lengths:  10.820500  10.820500  10.820500
  Angles:   90.000000  90.000000  90.000000

Effective grid spacing dv^(1/3) = 0.2254

     iter     time        total  log10-change:  magmom
                         energy  eigst   dens
iter:   1 21:53:45  -894.689784                  +128.4417
iter:   2 21:55:05  -861.343719  -0.41  -1.31    +95.8333
iter:   3 21:56:25  -844.759730  -0.95  -1.30    +67.3220
iter:   4 21:57:45  -833.225046  -1.26  -1.37    +57.1624
iter:   5 21:59:05  -825.951972  -1.85  -1.40    +52.3283
iter:   6 22:00:25  -827.064626  -1.98  -1.47    +50.1129
iter:   7 22:01:45  -827.147514  -1.65  -1.49    +48.7800
iter:   8 22:03:05  -824.724610  -1.72  -1.53    +48.2525
iter:   9 22:04:25  -828.944792  -1.80  -1.65    +48.8835
iter:  10 22:05:45  -823.370334  -1.95  -1.64    +48.5628
iter:  11 22:07:05  -823.868360  -2.25  -1.79    +48.9146
iter:  12 22:08:25  -822.582541  -2.38  -1.81    +49.5191
iter:  13 22:09:45  -823.117490  -2.52  -1.86    +50.5858
iter:  14 22:11:05  -823.082853  -2.50  -1.90    +51.7042
iter:  15 22:12:25  -824.510786  -2.47  -1.92    +52.3409
iter:  16 22:13:45  -823.682412  -2.44  -1.91    +53.6605
iter:  17 22:15:05  -824.507874  -2.58  -1.98    +54.4444
iter:  18 22:16:25  -823.770823  -2.63  -1.97    +55.2235
iter:  19 22:17:45  -823.987879  -2.79  -2.08    +55.9984
iter:  20 22:19:04  -823.646127  -2.92  -2.08    +56.8682
iter:  21 22:20:24  -823.828617  -3.15  -2.13    +57.6936
iter:  22 22:21:44  -823.953988  -3.19  -2.17    +58.1775
iter:  23 22:23:04  -824.036088  -3.26  -2.16    +58.8625
iter:  24 22:24:24  -824.091641  -3.32  -2.19    +59.3221
iter:  25 22:25:44  -824.439746  -3.20  -2.23    +59.7838
iter:  26 22:27:04  -824.630964  -3.01  -2.22    +60.0119
iter:  27 22:28:24  -824.814951  -3.00  -2.26    +60.1347
iter:  28 22:29:44  -824.891289  -2.98  -2.22    +60.4922
iter:  29 22:31:04  -824.871932c -3.04  -2.27    +60.6289
iter:  30 22:32:24  -824.646612  -3.36  -2.28    +61.0190
iter:  31 22:33:43  -824.670240  -3.53  -2.40    +61.2011
iter:  32 22:35:03  -824.685820c -3.93  -2.41    +61.4821
iter:  33 22:36:23  -824.832219  -3.72  -2.46    +61.8186
iter:  34 22:37:43  -824.832827  -4.17  -2.45    +61.8845
iter:  35 22:39:03  -825.147004  -3.45  -2.50    +62.0232
iter:  36 22:40:23  -825.033069  -3.52  -2.44    +62.0999
iter:  37 22:41:43  -825.169316  -3.41  -2.55    +62.2807
iter:  38 22:43:03  -825.176953  -3.56  -2.63    +62.2460
iter:  39 22:44:23  -825.237996c -3.58  -2.66    +62.2622
iter:  40 22:45:43  -825.192145c -3.80  -2.66    +62.2829
iter:  41 22:47:03  -825.203925c -4.15  -2.82    +62.2950
iter:  42 22:48:23  -825.237571c -4.26  -2.91    +62.3173
iter:  43 22:49:43  -825.293282c -4.12  -2.93    +62.3175
iter:  44 22:51:03  -825.360058  -4.00  -2.91    +62.1278
iter:  45 22:52:22  -825.393324  -4.24  -2.88    +62.1157
iter:  46 22:53:42  -825.401328c -4.57  -2.79    +62.0738
iter:  47 22:55:02  -825.441963c -4.44  -2.82    +62.0444
iter:  48 22:56:22  -825.457401c -4.48  -2.78    +62.0453
iter:  49 22:57:42  -825.475406c -3.92  -2.74    +62.0350
iter:  50 22:59:02  -825.540494c -3.72  -2.73    +61.9118
iter:  51 23:00:22  -825.423068  -4.18  -2.68    +61.8135
iter:  52 23:01:42  -825.469172  -4.02  -2.96    +61.7141
iter:  53 23:03:02  -825.431124c -4.27  -2.83    +61.6725
iter:  54 23:04:22  -825.432605c -4.58  -2.97    +61.5650
iter:  55 23:05:42  -825.431864c -4.80  -3.00    +61.5010
iter:  56 23:07:02  -825.430332c -4.80  -3.05    +61.4555
iter:  57 23:08:22  -825.439529c -4.67  -3.09    +61.4152
iter:  58 23:09:42  -825.434589c -4.87  -3.06    +61.3805
iter:  59 23:11:02  -825.442557c -4.63  -3.13    +61.3461
iter:  60 23:12:22  -825.440721c -4.71  -3.12    +61.3342
iter:  61 23:13:42  -825.437307c -4.79  -3.13    +61.3110
iter:  62 23:15:02  -825.436626c -5.12  -3.19    +61.2836
iter:  63 23:16:22  -825.437729c -5.12  -3.28    +61.2726
iter:  64 23:17:42  -825.436447c -5.58  -3.27    +61.2713
iter:  65 23:19:02  -825.437226c -5.83  -3.34    +61.2614
iter:  66 23:20:22  -825.438774c -5.89  -3.36    +61.2527
iter:  67 23:21:42  -825.439587c -6.07  -3.37    +61.2516
iter:  68 23:23:03  -825.442089c -5.34  -3.39    +61.2428
iter:  69 23:24:24  -825.441825c -5.21  -3.39    +61.2417
iter:  70 23:25:45  -825.441976c -5.59  -3.73    +61.2375
iter:  71 23:27:06  -825.441596c -6.07  -3.68    +61.2450
iter:  72 23:28:27  -825.442401c -6.19  -3.94    +61.2588
iter:  73 23:29:47  -825.442530c -6.49  -3.92    +61.2634
iter:  74 23:31:08  -825.443305c -6.22  -3.96    +61.2716
iter:  75 23:32:29  -825.443643c -6.26  -4.01c   +61.2800
iter:  76 23:33:50  -825.444159c -6.36  -4.07c   +61.2839
iter:  77 23:35:11  -825.444678c -6.26  -4.16c   +61.2892
iter:  78 23:36:32  -825.444566c -6.86  -4.17c   +61.2892
iter:  79 23:37:53  -825.445099c -6.52  -4.27c   +61.2936
iter:  80 23:39:13  -825.445490c -6.49  -4.24c   +61.3009
iter:  81 23:40:34  -825.446111c -6.31  -4.30c   +61.3102
iter:  82 23:41:55  -825.446033c -7.19  -4.22c   +61.3068
iter:  83 23:43:16  -825.446758c -6.09  -4.18c   +61.3225
iter:  84 23:44:37  -825.446885c -6.69  -4.17c   +61.3287
iter:  85 23:45:58  -825.447089c -6.74  -4.17c   +61.3329
iter:  86 23:47:19  -825.447075c -6.71  -4.08c   +61.3367
iter:  87 23:48:40  -825.447389c -6.60  -4.10c   +61.3371
iter:  88 23:50:00  -825.448009c -6.10  -4.08c   +61.3403
iter:  89 23:51:21  -825.448319c -6.37  -4.05c   +61.3413
iter:  90 23:52:42  -825.448741c -6.55  -4.01c   +61.3417
iter:  91 23:54:03  -825.448798c -6.44  -3.92    +61.3415
iter:  92 23:55:24  -825.449048c -6.76  -3.94    +61.3538
iter:  93 23:56:47  -825.449844c -6.07  -3.93    +61.3668
iter:  94 23:58:10  -825.449915c -6.30  -3.88    +61.3683
iter:  95 23:59:32  -825.449752c -6.12  -3.91    +61.3741
iter:  96 00:00:55  -825.450272c -6.42  -3.86    +61.3684
iter:  97 00:02:17  -825.450497c -6.17  -3.92    +61.3675
iter:  98 00:03:40  -825.450411c -6.56  -3.86    +61.3674
iter:  99 00:05:03  -825.450878c -6.42  -3.99    +61.3659
iter: 100 00:06:26  -825.450528c -6.43  -3.92    +61.3636
iter: 101 00:07:49  -825.450546c -6.26  -3.97    +61.3658
iter: 102 00:09:11  -825.451212c -6.43  -3.91    +61.3639
iter: 103 00:10:34  -825.451039c -5.98  -3.90    +61.3638
iter: 104 00:11:57  -825.451225c -6.20  -4.04c   +61.3611
iter: 105 00:13:19  -825.451223c -6.35  -4.01c   +61.3617
iter: 106 00:14:42  -825.451434c -6.48  -4.11c   +61.3615
iter: 107 00:16:05  -825.451602c -6.71  -4.25c   +61.3611
iter: 108 00:17:28  -825.451552c -7.31  -4.26c   +61.3621
iter: 109 00:18:51  -825.451883c -6.63  -4.29c   +61.3594
iter: 110 00:20:14  -825.451559c -6.69  -4.29c   +61.3599
iter: 111 00:21:37  -825.451369c -6.58  -4.32c   +61.3526
iter: 112 00:23:00  -825.451625c -6.82  -4.31c   +61.3523
iter: 113 00:24:23  -825.450962c -6.07  -4.35c   +61.3485
iter: 114 00:25:46  -825.451249c -7.15  -4.31c   +61.3486
iter: 115 00:27:09  -825.451089c -7.20  -4.38c   +61.3473
iter: 116 00:28:32  -825.451577c -6.33  -4.38c   +61.3514
iter: 117 00:29:55  -825.451543c -7.38  -4.38c   +61.3508
iter: 118 00:31:17  -825.451871c -6.79  -4.40c   +61.3543
iter: 119 00:32:40  -825.451657c -7.28  -4.49c   +61.3536
iter: 120 00:34:03  -825.452038c -6.69  -4.47c   +61.3552
iter: 121 00:35:26  -825.451755c -7.25  -4.68c   +61.3517
iter: 122 00:36:49  -825.450668c -5.74  -4.76c   +61.3296
iter: 123 00:38:13  -825.449972c -5.81  -4.49c   +61.3166
iter: 124 00:39:36  -825.447999c -4.84  -4.32c   +61.2750
iter: 125 00:40:59  -825.447926c -5.47  -3.92    +61.2776
iter: 126 00:42:22  -825.448062c -5.75  -3.88    +61.2932
iter: 127 00:43:45  -825.448604c -5.47  -3.86    +61.3318
iter: 128 00:45:08  -825.448935c -5.96  -3.79    +61.3497
iter: 129 00:46:31  -825.449512c -6.09  -3.78    +61.3611
iter: 130 00:47:54  -825.449528c -6.41  -3.67    +61.3595
iter: 131 00:49:18  -825.450937c -5.75  -3.67    +61.3723
iter: 132 00:50:40  -825.451916c -5.16  -3.61    +61.3741
iter: 133 00:52:04  -825.451839c -5.05  -3.45    +61.4210
iter: 134 00:53:27  -825.449332c -5.41  -3.49    +61.4120
iter: 135 00:54:50  -825.449306c -5.88  -3.73    +61.4104
iter: 136 00:56:13  -825.449052c -6.22  -4.01c   +61.4174
iter: 137 00:57:37  -825.449475c -6.20  -4.13c   +61.4186
iter: 138 00:59:00  -825.449459c -6.66  -4.11c   +61.4216
iter: 139 01:00:23  -825.449668c -6.67  -4.26c   +61.4254
iter: 140 01:01:47  -825.449645c -6.83  -4.16c   +61.4249
iter: 141 01:03:10  -825.449648c -6.58  -4.21c   +61.4247
iter: 142 01:04:34  -825.449959c -6.80  -4.23c   +61.4234
iter: 143 01:05:57  -825.449733c -6.79  -4.27c   +61.4244
iter: 144 01:07:20  -825.449907c -6.94  -4.30c   +61.4250
iter: 145 01:08:44  -825.449989c -7.10  -4.42c   +61.4225
iter: 146 01:10:07  -825.450045c -7.24  -4.43c   +61.4240
iter: 147 01:11:31  -825.450135c -7.21  -4.50c   +61.4245
iter: 148 01:12:54  -825.450355c -6.69  -4.50c   +61.4235
iter: 149 01:14:18  -825.449692c -5.96  -4.44c   +61.4255
iter: 150 01:15:41  -825.450137c -6.73  -4.44c   +61.4242
iter: 151 01:17:04  -825.449927c -7.14  -4.51c   +61.4248
iter: 152 01:18:27  -825.450012c -7.31  -4.58c   +61.4259
iter: 153 01:19:50  -825.450072c -7.75c -4.51c   +61.4257

Converged after 153 iterations.

Dipole moment: (28.634231, -2.936766, -10.652852) |e|*Ang

Total magnetic moment: (0.000000, 0.000000, 61.425743)
Local magnetic moments:
   0 Fe ( 0.000000,  0.000000,  2.228794)
   1 Fe ( 0.000000,  0.000000,  2.401157)
   2 Co ( 0.000000,  0.000000,  1.264498)
   3 Al ( 0.000000,  0.000000, -0.048938)
   4 Fe ( 0.000000,  0.000000,  2.444462)
   5 Fe ( 0.000000,  0.000000,  2.394122)
   6 Fe ( 0.000000,  0.000000,  1.930251)
   7 Cr ( 0.000000,  0.000000, -2.357425)
   8 Co ( 0.000000,  0.000000,  1.065151)
   9 Al ( 0.000000,  0.000000, -0.010535)
  10 Ni ( 0.000000,  0.000000,  0.208063)
  11 Ni ( 0.000000,  0.000000,  0.125581)
  12 Ni ( 0.000000,  0.000000,  0.219346)
  13 Al ( 0.000000,  0.000000, -0.027218)
  14 Co ( 0.000000,  0.000000,  1.264017)
  15 Fe ( 0.000000,  0.000000,  2.043863)
  16 Fe ( 0.000000,  0.000000,  2.333322)
  17 Co ( 0.000000,  0.000000,  1.131512)
  18 Ni ( 0.000000,  0.000000,  0.235972)
  19 Fe ( 0.000000,  0.000000,  2.231609)
  20 Ni ( 0.000000,  0.000000,  0.109767)
  21 Co ( 0.000000,  0.000000,  1.256977)
  22 Al ( 0.000000,  0.000000, -0.023243)
  23 Fe ( 0.000000,  0.000000,  2.021713)
  24 Fe ( 0.000000,  0.000000,  1.661380)
  25 Fe ( 0.000000,  0.000000,  2.007203)
  26 Cr ( 0.000000,  0.000000, -2.017085)
  27 Ni ( 0.000000,  0.000000,  0.114722)
  28 Al ( 0.000000,  0.000000, -0.005905)
  29 Al ( 0.000000,  0.000000, -0.025577)
  30 Ni ( 0.000000,  0.000000,  0.284250)
  31 Cr ( 0.000000,  0.000000,  1.506192)
  32 Fe ( 0.000000,  0.000000,  1.997478)
  33 Cr ( 0.000000,  0.000000, -1.156892)
  34 Cr ( 0.000000,  0.000000, -1.684122)
  35 Co ( 0.000000,  0.000000,  0.882091)
  36 Cr ( 0.000000,  0.000000, -1.576493)
  37 Al ( 0.000000,  0.000000, -0.025048)
  38 Ni ( 0.000000,  0.000000,  0.130032)
  39 Fe ( 0.000000,  0.000000,  2.233402)
  40 Al ( 0.000000,  0.000000, -0.037562)
  41 Cr ( 0.000000,  0.000000, -1.999102)
  42 Al ( 0.000000,  0.000000, -0.032182)
  43 Fe ( 0.000000,  0.000000,  1.851791)
  44 Al ( 0.000000,  0.000000, -0.029915)
  45 Co ( 0.000000,  0.000000,  0.842861)
  46 Fe ( 0.000000,  0.000000,  2.052374)
  47 Ni ( 0.000000,  0.000000,  0.191241)
  48 Ni ( 0.000000,  0.000000,  0.380180)
  49 Ni ( 0.000000,  0.000000,  0.292765)
  50 Co ( 0.000000,  0.000000,  1.124505)
  51 Co ( 0.000000,  0.000000,  1.238469)
  52 Co ( 0.000000,  0.000000,  1.255455)
  53 Cr ( 0.000000,  0.000000,  0.907671)
  54 Cr ( 0.000000,  0.000000, -1.371819)
  55 Cr ( 0.000000,  0.000000,  0.907392)
  56 Cr ( 0.000000,  0.000000, -1.077011)
  57 Fe ( 0.000000,  0.000000,  2.212869)
  58 Co ( 0.000000,  0.000000,  1.196351)
  59 Co ( 0.000000,  0.000000,  1.094997)
[...]
  93 Ni ( 0.000000,  0.000000,  0.279646)
  94 Cr ( 0.000000,  0.000000,  0.510617)
  95 Al ( 0.000000,  0.000000, -0.015774)
  96 Cr ( 0.000000,  0.000000,  1.264310)
  97 Cr ( 0.000000,  0.000000, -0.584450)
  98 Co ( 0.000000,  0.000000, -0.008547)
  99 Co ( 0.000000,  0.000000,  0.903026)
 100 Fe ( 0.000000,  0.000000,  2.017939)
 101 Cr ( 0.000000,  0.000000, -2.231897)
 102 Al ( 0.000000,  0.000000, -0.032365)
 103 Fe ( 0.000000,  0.000000,  2.137764)
 104 Fe ( 0.000000,  0.000000,  2.434805)
 105 Ni ( 0.000000,  0.000000,  0.292801)
 106 Cr ( 0.000000,  0.000000, -1.500168)
 107 Co ( 0.000000,  0.000000,  0.961896)

Energy contributions relative to reference atoms: (reference = -3382523.201499)

Kinetic:       +213.825035
Potential:     -223.654231
External:        +0.000000
XC:            -846.834961
Entropy (-ST):   -4.199461
Local:          +33.313816
Free energy:   -827.549802
Extrapolated:  -825.450072

Spin contamination: 27.341570 electrons
Showing only first 2 kpts
                      Up                     Down
 Kpt  Band  Eigenvalues  Occupancy  Eigenvalues  Occupancy
  0   470      9.11347    0.99670     10.05934    0.02305
  0   471      9.12779    0.99620     10.07237    0.02029
  0   472      9.14281    0.99559     10.08916    0.01721
  0   473      9.15746    0.99489     10.10019    0.01544

  1   470      9.12185    0.99642     10.05661    0.02367
  1   471      9.13562    0.99589     10.06088    0.02270
  1   472      9.15727    0.99490     10.08048    0.01874
  1   473      9.17805    0.99373     10.09152    0.01681

Fermi level: 9.68465

No gap

Forces in eV/Ang:
  0 Fe    0.22930   -0.78176    0.05579
  1 Fe    0.43161   -0.27087    0.19456
  2 Co    0.09498   -0.24546   -0.55065
  3 Al    0.25448   -0.17083   -0.23174
  4 Fe    0.17128   -0.05652   -0.80301
  5 Fe    0.03320    0.53358   -0.09929
  6 Fe    0.43354    0.25646   -0.82801
  7 Cr   -1.12882   -0.91095   -0.81015
  8 Co   -0.58335    0.27684   -0.48225
  9 Al   -0.24392   -0.58898   -1.35688
 10 Ni   -0.29346   -0.28175   -0.43471
 11 Ni   -0.23425   -0.20404   -0.43928
 12 Ni   -0.37502    0.50695    0.07079
 13 Al    0.94466   -0.41490    0.18831
 14 Co    0.62225    0.42489    0.80746
 15 Fe   -0.23297   -0.18615   -0.00193
 16 Fe    0.52788    0.10156    0.16230
 17 Co   -0.44494   -0.56324    0.81113
 18 Ni   -0.36608   -0.16621    0.09079
 19 Fe    0.35993   -0.47239    0.39022
 20 Ni   -0.16880   -0.01640   -0.45146
 21 Co    0.04580    0.55115    0.20895
 22 Al    0.18256    0.17352   -0.46825
 23 Fe   -0.54112    0.59110   -0.59023
 24 Fe    0.32165    0.08127   -0.26754
 25 Fe    0.26597   -0.10409   -0.34242
 26 Cr   -0.56020    0.06914    0.21767
 27 Ni    0.76804    0.48045   -0.28677
 28 Al   -0.98043    0.13568    0.26032
 29 Al   -0.63359    0.38754   -0.94485
 30 Ni   -0.14729    0.03344    0.54875
 31 Cr    0.79571    1.30309   -0.53429
 32 Fe    0.68144   -0.26982    0.25691
 33 Cr    0.10095    0.12579   -0.52677
 34 Cr   -0.58920    0.32728    0.07493
 35 Co   -0.27565    0.22134    0.22527
 36 Cr    0.01779   -0.70236   -0.68381
 37 Al    0.09397    0.41023    0.10904
 38 Ni    0.30114   -0.01133    0.12595
 39 Fe    0.61277    0.57532   -0.18783
 40 Al   -0.58585    0.73548   -0.29314
 41 Cr   -0.76549    1.37960    0.16626
 42 Al    0.26249   -0.02761    0.79178
 43 Fe   -0.55529    0.62410    0.20318
 44 Al    0.87311   -0.13754    0.06507
 45 Co    0.09418    0.58983    0.40611
 46 Fe    0.05600   -0.38548    0.16033
 47 Ni   -0.16461   -0.06803    0.09857
 48 Ni    0.57516    0.43328   -0.07439
 49 Ni    0.36355    0.17406   -0.43563
 50 Co    0.55754    0.28154   -0.16343
 51 Co    1.14904   -0.19871    0.19271
 52 Co   -0.39244    0.06285    0.20766
 53 Cr   -0.05255   -1.00443   -0.43478
 54 Cr    0.00675    0.32798    0.19411
 55 Cr   -0.05244   -0.67998   -0.19561
 56 Cr   -0.84573    0.73534    1.26857
 57 Fe    0.29621    0.07855   -0.07383
 58 Co   -0.59910    0.12581    0.24956
 59 Co   -0.40182    0.51474    0.46197
[...]
 93 Ni    0.34152   -0.22897   -0.22600
 94 Cr    0.44110    0.24210    0.50499
 95 Al   -1.18359   -0.13561   -0.87399
 96 Cr    0.11447    0.42981    0.92256
 97 Cr    0.66660    0.12617    0.34267
 98 Co    0.14323    0.33574   -0.09306
 99 Co    0.26947   -0.22352    0.32750
100 Fe   -0.42356    0.49417    0.21912
101 Cr   -0.55693    1.01317    0.08109
102 Al    1.23543    0.09231   -1.26027
103 Fe   -0.29244   -0.34170    0.60111
104 Fe   -0.06000   -0.08470   -0.49942
105 Ni   -0.04040    0.23465    0.10057
106 Cr   -0.90128    0.53331    0.35757
107 Co   -0.40294   -0.17214   -0.03759

Date: Sat Apr 15 01:20:08 2023