User:   c.zeng@d0143
Date:   Fri Apr 14 17:44:01 2023
Arch:   x86_64
Pid:    18289
CWD:    /home/c.zeng/projects/hea-corrosion/hea-mlp/data-curation/bulk-mcmc/dft-jobs/153
Python: 3.8.1
gpaw:   /home/c.zeng/usr/installs/gpaw/source/gpaw-22.8.0/gpaw
_gpaw:  /home/c.zeng/usr/installs/gpaw/source/gpaw-22.8.0/
        _gpaw.cpython-38-x86_64-linux-gnu.so
ase:    /home/c.zeng/.local/lib/python3.8/site-packages/ase-3.22.1-py3.8.egg/ase (version 3.22.1)
numpy:  /shared/centos7/python/3.8.1/lib/python3.8/site-packages/numpy (version 1.17.4)
scipy:  /shared/centos7/python/3.8.1/lib/python3.8/site-packages/scipy (version 1.4.1)
units:  Angstrom and eV
cores: 30
OpenMP: False
OMP_NUM_THREADS: 1

Input parameters:
  convergence: {energy: 0.0001}
  kpts: [2 2 2]
  maxiter: 666
  mode: {ecut: 350.0,
         name: pw}
  occupations: {fixmagmom: False,
                name: fermi-dirac,
                width: 0.1}
  spinpol: True
  xc: PBE

System changes: positions, numbers, cell, pbc, initial_charges, initial_magmoms

Initialize ...

species:
  Co:
    name: Cobalt
    id: 339d20d5b0b93d2de9531a1bee871d91
    Z: 27.0
    valence: 9
    core: 18
    charge: 0.0
    file: /home/c.zeng/usr/data/gpaw-setups-0.9.20000/Co.PBE.gz
    compensation charges: {type: gauss,
                           rc: 0.32,
                           lmax: 2}
    cutoffs: {filter: 1.87,
              core: 2.55}
    valence states:
      #              energy  rcut
      - 4s(2.00)    -5.469   1.005
      - 4p(0.00)    -1.277   1.058
      - 3d(7.00)    -8.205   1.005
      -  s          21.742   1.005
      -  p          25.934   1.058
      -  d          19.007   1.005

    # Using partial waves for Co as LCAO basis

  Fe:
    name: Iron
    id: 37abbd8d6c3c35915a9b583b742da910
    Z: 26.0
    valence: 8
    core: 18
    charge: 0.0
    file: /home/c.zeng/usr/data/gpaw-setups-0.9.20000/Fe.PBE.gz
    compensation charges: {type: gauss,
                           rc: 0.33,
                           lmax: 2}
    cutoffs: {filter: 2.06,
              core: 2.67}
    valence states:
      #              energy  rcut
      - 4s(2.00)    -5.291   1.164
      - 4p(0.00)    -1.326   1.058
      - 3d(6.00)    -7.505   1.058
      -  s          21.920   1.164
      -  p          25.885   1.058
      -  d          19.706   1.058

[...]

  Al:
    name: Aluminium
    id: 0292cae29f5d6237e50f6abdd43a7bdd
    Z: 13.0
    valence: 3
    core: 10
    charge: 0.0
    file: /home/c.zeng/usr/data/gpaw-setups-0.9.20000/Al.PBE.gz
    compensation charges: {type: gauss,
                           rc: 0.34,
                           lmax: 2}
    cutoffs: {filter: 1.91,
              core: 2.36}
    valence states:
      #              energy  rcut
      - 3s(2.00)    -7.753   1.085
      - 3p(1.00)    -2.712   1.085
      -  s          19.459   1.085
      -  p          24.499   1.085
      -  d           0.000   1.085

[...]

  Cr:
    name: Chromium
    id: 33f258bda2ca9f93018e70263a35547b
    Z: 24.0
    valence: 6
    core: 18
    charge: 0.0
    file: /home/c.zeng/usr/data/gpaw-setups-0.9.20000/Cr.PBE.gz
    compensation charges: {type: gauss,
                           rc: 0.35,
                           lmax: 2}
    cutoffs: {filter: 2.14,
              core: 3.04}
    valence states:
      #              energy  rcut
      - 4s(1.00)    -4.007   1.164
      - 4p(0.00)    -0.989   1.217
      - 3d(5.00)    -2.913   1.111
      -  s          23.205   1.164
      -  p          26.223   1.217
      -  d          24.299   1.111

[...]

  Ni:
    name: Nickel
    id: 0d9f38a9d6e76a2886f07bb4381f212b
    Z: 28.0
    valence: 16
    core: 12
    charge: 0.0
    file: /home/c.zeng/usr/data/gpaw-setups-0.9.20000/Ni.PBE.gz
    compensation charges: {type: gauss,
                           rc: 0.36,
                           lmax: 2}
    cutoffs: {filter: 2.14,
              core: 1.98}
    valence states:
      #              energy  rcut
      - 4s(2.00)    -5.642   1.164
      - 3p(6.00)   -71.394   1.207
      - 4p(0.00)    -1.226   1.207
      - 3d(8.00)    -8.875   1.138
      -  s          21.570   1.164
      -  d          18.337   1.138

    # Using partial waves for Ni as LCAO basis

Reference energy: -3382523.201499  # eV

Spin-polarized calculation.
Magnetic moment: 128.800000

Convergence criteria:
 Maximum [total energy] change in last 3 cyles: 0.0001 eV / electron
 Maximum integral of absolute [dens]ity change: 0.0001 electrons / valence electron
 Maximum integral of absolute [eigenst]ate change: 4e-08 eV^2 / valence electron
 Maximum number of scf [iter]ations: 666
 (Square brackets indicate name in SCF output, whereas a 'c' in
 the SCF output indicates the quantity has converged.)

Symmetries present (total): 1

  ( 1  0  0)
  ( 0  1  0)
  ( 0  0  1)

8 k-points: 2 x 2 x 2 Monkhorst-Pack grid
4 k-points in the irreducible part of the Brillouin zone
       k-points in crystal coordinates                weights
   0:     0.25000000   -0.25000000   -0.25000000          2/8
   1:     0.25000000   -0.25000000    0.25000000          2/8
   2:     0.25000000    0.25000000   -0.25000000          2/8
   3:     0.25000000    0.25000000    0.25000000          2/8

Wave functions: Plane wave expansion
  Cutoff energy: 350.000 eV
  Number of coefficients (min, max): 18865, 18865
  Pulay-stress correction: 0.000000 eV/Ang^3 (de/decut=0.000000)
  Using FFTW library
  ScaLapack parameters: grid=1x1, blocksize=None
  Wavefunction extrapolation:
    Improved wavefunction reuse through dual PAW basis

Occupation numbers: Fermi-Dirac:
  width: 0.1000  # eV

Eigensolver
   Davidson(niter=2)

Densities:
  Coarse grid: 48*48*48 grid
  Fine grid: 96*96*96 grid
  Total Charge: 0.000000

Density mixing:
  Method: difference
  Backend: pulay
  Linear mixing parameter: 0.05
  old densities: 5
  Damping of long wavelength oscillations: 50

Hamiltonian:
  XC and Coulomb potentials evaluated on a 96*96*96 grid
  Using the PBE Exchange-Correlation functional
  External potential:
    NoExternalPotential

XC parameters: PBE with 2 nearest neighbor stencil

Total number of cores used: 30
Parallelization over k-points: 2
Domain decomposition: 5 x 3 x 1

Number of atoms: 108
Number of atomic orbitals: 961
Number of bands in calculation: 649
Number of valence electrons: 945
Bands to converge: occupied

... initialized

Initializing position-dependent things.

Density initialized from atomic densities
Creating initial wave functions:
  649 bands from LCAO basis set

       /|                     Co   |
      / |            Fe Co     CrFe|
     /  |       Cr       Ni       Cr
    /   |Co       Fel     FCor     |
   /i   | Coo        Co      Co    |
  /  CrAl   NCr       Ni           |
 *      Ni     FeCo   AlFeCrCo   Cr|
 |      |FeNi   CrNiAl   NiAlNi   Co
 | CrFe | AlNi   AlAlFe     Ni     |
 |     Co  FeCr Cr  Fe CoNi  CrNi  |
 |      FeNi   AlCr   FeCoFeNi  Fe |
 |Al    |CoCr   AlCrCo   CrFe     Co
 |      .-CrCo-----NiCr-FeFeCrNi---.
 |     /   Ni Fe    Cr CoNi    Al /
 |    Fe       AFei       Al     /
 |   /  Co         Al       Cr  /
 |  /      Fe       Al       Fe/
 | / Co     Co       Ni Ni    /
 |/             Cr       Ni  /
 *--------Co----------------*

Positions:
   0 Co    10.764147   10.861293   10.805330    ( 0.0000,  0.0000,  2.0000)
   1 Fe    10.786221    1.792513    1.813624    ( 0.0000,  0.0000,  0.0000)
   2 Co     1.744156    0.036560    1.851269    ( 0.0000,  0.0000,  1.5000)
   3 Al     1.736571    1.831142   10.798805    ( 0.0000,  0.0000,  0.0000)
   4 Co     3.575126    0.057318    0.061759    ( 0.0000,  0.0000,  0.0000)
   5 Fe     3.594289    1.817617    1.845577    ( 0.0000,  0.0000,  2.0000)
   6 Fe     5.429813   10.817005    1.865054    ( 0.0000,  0.0000,  1.5000)
   7 Cr     5.429608    1.929425    0.057134    ( 0.0000,  0.0000,  0.0000)
   8 Fe     7.316909   10.723332    0.087382    ( 0.0000,  0.0000,  0.0000)
   9 Al     7.263142    1.825786    1.869404    ( 0.0000,  0.0000,  2.1000)
  10 Ni     9.063554    0.025226    1.863474    ( 0.0000,  0.0000,  1.5000)
  11 Ni     9.049217    1.829703    0.033106    ( 0.0000,  0.0000,  2.1000)
  12 Ni     0.004792    3.558981   10.794801    ( 0.0000,  0.0000,  1.5000)
  13 Al    10.759710    5.390697    1.778165    ( 0.0000,  0.0000,  0.0000)
  14 Co     1.733585    3.561849    1.761112    ( 0.0000,  0.0000,  2.0000)
  15 Co     1.776899    5.391834   10.795505    ( 0.0000,  0.0000,  0.0000)
  16 Co     3.565452    3.619360   10.832619    ( 0.0000,  0.0000,  2.1000)
  17 Fe     3.633221    5.394614    1.719551    ( 0.0000,  0.0000,  0.0000)
  18 Ni     5.471624    3.659114    1.836033    ( 0.0000,  0.0000,  2.1000)
  19 Fe     5.440212    5.373060   -0.002773    ( 0.0000,  0.0000,  2.0000)
  20 Ni     7.258997    3.609080    0.031294    ( 0.0000,  0.0000,  0.0000)
  21 Co     7.268941    5.378362    1.785274    ( 0.0000,  0.0000,  2.0000)
  22 Al     9.030724    3.577636    1.833728    ( 0.0000,  0.0000,  2.1000)
  23 Co     9.040420    5.372281   10.801110    ( 0.0000,  0.0000,  0.0000)
  24 Fe    10.791663    7.196206   10.792486    ( 0.0000,  0.0000,  1.5000)
  25 Co    10.758434    9.040387    1.848239    ( 0.0000,  0.0000,  0.0000)
  26 Cr     1.690487    7.202493    1.786032    ( 0.0000,  0.0000,  0.0000)
  27 Ni     1.652691    8.981047    0.027217    ( 0.0000,  0.0000,  0.0000)
  28 Al     3.631241    7.164437    0.034633    ( 0.0000,  0.0000,  0.0000)
  29 Al     3.625452    9.063759    1.801678    ( 0.0000,  0.0000,  0.0000)
  30 Ni     5.490852    7.187095    1.746342    ( 0.0000,  0.0000,  2.0000)
  31 Cr     5.426935    8.989152    0.009861    ( 0.0000,  0.0000,  2.0000)
  32 Co     7.229122    7.237075   -0.008698    ( 0.0000,  0.0000,  1.5000)
  33 Cr     7.249194    8.995850    1.810713    ( 0.0000,  0.0000,  0.0000)
  34 Cr     9.052073    7.204300    1.764218    ( 0.0000,  0.0000,  2.1000)
  35 Co     9.092553    8.989639   10.808760    ( 0.0000,  0.0000,  1.5000)
  36 Cr    -0.000975   10.826235    3.639789    ( 0.0000,  0.0000,  1.5000)
  37 Al    10.822772    1.771770    5.422044    ( 0.0000,  0.0000,  2.1000)
  38 Ni     1.754263   10.802084    5.428872    ( 0.0000,  0.0000,  2.1000)
  39 Fe     1.741873    1.774270    3.610801    ( 0.0000,  0.0000,  0.0000)
  40 Al     3.591183   10.794152    3.612143    ( 0.0000,  0.0000,  2.0000)
  41 Cr     3.593088    1.736744    5.455177    ( 0.0000,  0.0000,  0.0000)
  42 Al     5.437150   10.794563    5.400804    ( 0.0000,  0.0000,  2.0000)
  43 Fe     5.451931    1.783251    3.601387    ( 0.0000,  0.0000,  1.5000)
  44 Al     7.226222    0.007781    3.626209    ( 0.0000,  0.0000,  0.0000)
  45 Co     7.236069    1.766512    5.381392    ( 0.0000,  0.0000,  2.1000)
  46 Fe     9.034587   10.848850    5.403844    ( 0.0000,  0.0000,  2.1000)
  47 Ni     9.031558    1.804946    3.616730    ( 0.0000,  0.0000,  1.5000)
  48 Ni    10.773885    3.543973    3.617867    ( 0.0000,  0.0000,  1.5000)
  49 Ni    10.772186    5.358409    5.454917    ( 0.0000,  0.0000,  0.0000)
  50 Fe     1.757531    3.575678    5.428937    ( 0.0000,  0.0000,  2.1000)
  51 Co     1.621766    5.386986    3.572550    ( 0.0000,  0.0000,  0.0000)
  52 Co     3.634303    3.633188    3.540792    ( 0.0000,  0.0000,  0.0000)
  53 Cr     3.550606    5.397969    5.404753    ( 0.0000,  0.0000,  2.0000)
  54 Cr     5.402221    3.610887    5.370193    ( 0.0000,  0.0000,  2.0000)
  55 Cr     5.460241    5.433590    3.575613    ( 0.0000,  0.0000,  2.0000)
  56 Cr     7.250157    3.615183    3.623169    ( 0.0000,  0.0000,  1.5000)
  57 Co     7.248707    5.410715    5.362099    ( 0.0000,  0.0000,  1.5000)
  58 Fe     9.058230    3.565236    5.380082    ( 0.0000,  0.0000,  2.1000)
  59 Fe     9.074071    5.365323    3.589008    ( 0.0000,  0.0000,  2.1000)
[...]
  93 Ni     7.211073    5.388295    9.040181    ( 0.0000,  0.0000,  0.0000)
  94 Cr     9.095052    3.598119    8.980636    ( 0.0000,  0.0000,  2.0000)
  95 Al     9.078205    5.402416    7.227759    ( 0.0000,  0.0000,  0.0000)
  96 Cr    10.763411    7.244682    7.260285    ( 0.0000,  0.0000,  1.5000)
  97 Cr    10.795093    9.034566    8.977574    ( 0.0000,  0.0000,  2.0000)
  98 Co     1.740045    7.178947    8.984662    ( 0.0000,  0.0000,  2.1000)
  99 Co     1.734429    9.080207    7.236696    ( 0.0000,  0.0000,  1.5000)
 100 Fe     3.580482    7.154277    7.248285    ( 0.0000,  0.0000,  0.0000)
 101 Cr     3.612835    8.970898    8.958086    ( 0.0000,  0.0000,  0.0000)
 102 Al     5.410943    7.155878    9.067049    ( 0.0000,  0.0000,  0.0000)
 103 Co     5.466441    9.064062    7.220963    ( 0.0000,  0.0000,  2.1000)
 104 Fe     7.307203    7.271549    7.289738    ( 0.0000,  0.0000,  0.0000)
 105 Ni     7.271073    9.044683    9.027879    ( 0.0000,  0.0000,  1.5000)
 106 Cr     9.081743    7.219805    9.041166    ( 0.0000,  0.0000,  2.1000)
 107 Co     9.063684    9.083009    7.213865    ( 0.0000,  0.0000,  2.0000)

Unit cell:
           periodic     x           y           z      points  spacing
  1. axis:    yes   10.820500    0.000000    0.000000    48     0.2254
  2. axis:    yes    0.000000   10.820500    0.000000    48     0.2254
  3. axis:    yes    0.000000    0.000000   10.820500    48     0.2254

  Lengths:  10.820500  10.820500  10.820500
  Angles:   90.000000  90.000000  90.000000

Effective grid spacing dv^(1/3) = 0.2254

     iter     time        total  log10-change:  magmom
                         energy  eigst   dens
iter:   1 17:48:03  -895.116749                  +128.4417
iter:   2 17:49:41  -861.503397  -0.41  -1.31    +96.1921
iter:   3 17:51:20  -844.480202  -0.94  -1.30    +67.6756
iter:   4 17:52:58  -833.156157  -1.26  -1.37    +58.0829
iter:   5 17:54:36  -826.150914  -1.85  -1.40    +53.2230
iter:   6 17:56:15  -826.883394  -1.98  -1.47    +51.0187
iter:   7 17:57:54  -826.517747  -1.67  -1.49    +49.5516
iter:   8 17:59:33  -824.621317  -1.77  -1.54    +49.4367
iter:   9 18:01:12  -828.681004  -1.80  -1.65    +49.7826
iter:  10 18:02:52  -824.147539  -1.95  -1.65    +49.3131
iter:  11 18:04:32  -824.431783  -2.21  -1.78    +50.0145
iter:  12 18:06:11  -822.830855  -2.38  -1.80    +50.4872
iter:  13 18:07:51  -823.182589  -2.57  -1.87    +51.4493
iter:  14 18:09:31  -823.574353  -2.55  -1.92    +52.4093
iter:  15 18:11:10  -824.713565  -2.51  -1.92    +52.9119
iter:  16 18:12:49  -824.281598  -2.44  -1.93    +54.0654
iter:  17 18:14:28  -824.678691  -2.59  -1.96    +54.4286
iter:  18 18:16:07  -823.912573  -2.68  -1.98    +55.2706
iter:  19 18:17:46  -824.105136  -2.80  -2.09    +55.8565
iter:  20 18:19:25  -823.901290  -3.02  -2.09    +56.4234
iter:  21 18:21:04  -824.165385  -3.14  -2.15    +56.9745
iter:  22 18:22:44  -824.374802  -3.05  -2.17    +57.2336
iter:  23 18:24:23  -824.335421  -3.22  -2.15    +57.6328
iter:  24 18:26:02  -824.437589  -3.24  -2.20    +57.7542
iter:  25 18:27:41  -824.727063  -3.17  -2.24    +57.9780
iter:  26 18:29:19  -824.856029  -3.07  -2.23    +57.9741
iter:  27 18:30:58  -824.974278  -3.13  -2.25    +58.0171
iter:  28 18:32:38  -825.212297  -2.97  -2.26    +58.0938
iter:  29 18:34:18  -825.005982  -3.14  -2.25    +57.9097
iter:  30 18:35:57  -824.825274  -3.49  -2.31    +58.0141
iter:  31 18:37:36  -824.851381  -3.66  -2.41    +57.8837
iter:  32 18:39:16  -824.849338c -4.14  -2.41    +57.9014
iter:  33 18:40:56  -824.961610  -3.89  -2.45    +57.8391
iter:  34 18:42:35  -825.074384  -3.78  -2.45    +57.8597
iter:  35 18:44:14  -825.311096  -3.38  -2.46    +57.8285
iter:  36 18:45:53  -825.192884  -3.41  -2.41    +57.7270
iter:  37 18:47:32  -825.406268  -3.34  -2.51    +57.7495
iter:  38 18:49:11  -825.290894  -3.46  -2.48    +57.7097
iter:  39 18:50:49  -825.291076  -3.53  -2.59    +57.6573
iter:  40 18:52:29  -825.238407c -3.91  -2.59    +57.6830
iter:  41 18:54:07  -825.239908c -4.17  -2.72    +57.6344
iter:  42 18:55:46  -825.255290c -4.43  -2.79    +57.6385
iter:  43 18:57:25  -825.272483c -4.59  -2.81    +57.6002
iter:  44 18:59:04  -825.326382c -4.16  -2.85    +57.4076
iter:  45 19:00:43  -825.322828c -4.31  -2.82    +57.4287
iter:  46 19:02:21  -825.336588c -4.26  -3.00    +57.3307
iter:  47 19:04:00  -825.334280c -4.58  -3.12    +57.2655
iter:  48 19:05:39  -825.337677c -4.80  -3.21    +57.1728
iter:  49 19:07:17  -825.347342c -4.96  -3.36    +57.0995
iter:  50 19:08:55  -825.354306c -5.08  -3.36    +57.0422
iter:  51 19:10:33  -825.364014c -5.12  -3.40    +56.9525
iter:  52 19:12:12  -825.394582c -4.40  -3.37    +56.7107
iter:  53 19:13:50  -825.385994c -5.43  -3.21    +56.7749
iter:  54 19:15:28  -825.396718c -5.02  -3.27    +56.6728
iter:  55 19:17:07  -825.404377c -5.07  -3.23    +56.5969
iter:  56 19:18:45  -825.412344c -5.17  -3.20    +56.5495
iter:  57 19:20:24  -825.420080c -4.74  -3.17    +56.4994
iter:  58 19:22:02  -825.418864c -5.16  -3.10    +56.4820
iter:  59 19:23:40  -825.421444c -5.01  -3.14    +56.4273
iter:  60 19:25:18  -825.427393c -4.80  -3.16    +56.3766
iter:  61 19:26:56  -825.426945c -4.81  -3.12    +56.3173
iter:  62 19:28:35  -825.423382c -5.10  -3.12    +56.2598
iter:  63 19:30:14  -825.426110c -5.50  -3.25    +56.2045
iter:  64 19:31:51  -825.431934c -5.21  -3.25    +56.1191
iter:  65 19:33:30  -825.452495c -4.64  -3.23    +55.9982
iter:  66 19:35:08  -825.449732c -4.92  -3.08    +56.0893
iter:  67 19:36:46  -825.462204c -4.78  -3.05    +56.0397
iter:  68 19:38:25  -825.446864c -4.78  -3.01    +56.0768
iter:  69 19:40:03  -825.440589c -4.61  -3.13    +56.0363
iter:  70 19:41:40  -825.437364c -4.56  -3.27    +56.0237
iter:  71 19:43:18  -825.437664c -5.31  -3.48    +55.9999
iter:  72 19:44:56  -825.437489c -5.57  -3.49    +55.9911
iter:  73 19:46:35  -825.438067c -5.80  -3.58    +55.9785
iter:  74 19:48:13  -825.438573c -5.78  -3.62    +55.9697
iter:  75 19:49:51  -825.439010c -5.65  -3.69    +55.9503
iter:  76 19:51:29  -825.439854c -5.89  -3.76    +55.9463
iter:  77 19:53:08  -825.439953c -6.05  -3.83    +55.9414
iter:  78 19:54:47  -825.440812c -6.22  -3.94    +55.9343
iter:  79 19:56:25  -825.441747c -6.18  -3.98    +55.9285
iter:  80 19:58:03  -825.442225c -6.48  -4.00c   +55.9234
iter:  81 19:59:42  -825.443256c -6.15  -4.05c   +55.9154
iter:  82 20:01:20  -825.443858c -6.51  -4.08c   +55.9092
iter:  83 20:02:58  -825.444641c -6.25  -4.12c   +55.8994
iter:  84 20:04:36  -825.445088c -6.59  -4.12c   +55.8950
iter:  85 20:06:14  -825.446176c -6.25  -4.18c   +55.8840
iter:  86 20:07:53  -825.446550c -6.70  -4.20c   +55.8792
iter:  87 20:09:31  -825.448058c -6.07  -4.23c   +55.8659
iter:  88 20:11:09  -825.447408c -6.63  -4.13c   +55.8731
iter:  89 20:12:48  -825.449471c -5.84  -4.06c   +55.8549
iter:  90 20:14:27  -825.449993c -6.47  -4.05c   +55.8551
iter:  91 20:16:05  -825.450618c -6.62  -4.04c   +55.8522
iter:  92 20:17:44  -825.450637c -6.66  -4.00c   +55.8533
iter:  93 20:19:22  -825.451671c -6.44  -3.91    +55.8517
iter:  94 20:21:00  -825.452574c -6.32  -3.89    +55.8523
iter:  95 20:22:38  -825.452883c -6.45  -3.82    +55.8492
iter:  96 20:24:16  -825.453438c -6.28  -3.91    +55.8461
iter:  97 20:25:54  -825.454105c -5.91  -3.83    +55.8436
iter:  98 20:27:33  -825.454100c -5.91  -3.74    +55.8316
iter:  99 20:29:13  -825.454431c -6.38  -3.83    +55.8190
iter: 100 20:30:54  -825.455212c -6.44  -3.95    +55.8046
iter: 101 20:32:12  -825.457734c -5.84  -3.91    +55.7838
iter: 102 20:33:30  -825.456379c -6.29  -3.69    +55.7911
iter: 103 20:34:50  -825.456648c -6.04  -3.77    +55.7795
iter: 104 20:36:08  -825.457668c -6.24  -3.94    +55.7733
iter: 105 20:37:27  -825.458080c -6.20  -3.82    +55.7715
iter: 106 20:38:46  -825.458219c -6.33  -3.85    +55.7654
iter: 107 20:40:04  -825.458569c -6.27  -3.92    +55.7619
iter: 108 20:41:23  -825.459558c -6.19  -3.89    +55.7550
iter: 109 20:42:41  -825.459209c -6.07  -3.84    +55.7525
iter: 110 20:44:00  -825.459601c -6.36  -3.95    +55.7520
iter: 111 20:45:18  -825.459764c -6.24  -4.03c   +55.7503
iter: 112 20:46:37  -825.460118c -6.34  -3.93    +55.7490
iter: 113 20:47:56  -825.460710c -6.31  -4.02c   +55.7464
iter: 114 20:49:15  -825.460472c -6.56  -3.98    +55.7490
iter: 115 20:50:34  -825.460878c -6.60  -4.09c   +55.7493
iter: 116 20:51:53  -825.461036c -6.62  -4.13c   +55.7500
iter: 117 20:53:12  -825.461316c -6.72  -4.12c   +55.7523
iter: 118 20:54:30  -825.461462c -6.66  -4.17c   +55.7530
iter: 119 20:55:49  -825.461548c -6.68  -4.15c   +55.7555
iter: 120 20:57:08  -825.461936c -6.77  -4.16c   +55.7546
iter: 121 20:58:27  -825.462000c -7.01  -4.25c   +55.7562
iter: 122 20:59:47  -825.462252c -6.93  -4.30c   +55.7596
iter: 123 21:01:06  -825.462373c -7.45c -4.30c   +55.7605

Converged after 123 iterations.

Dipole moment: (28.929292, -4.349746, -10.100362) |e|*Ang

Total magnetic moment: (0.000000, 0.000000, 55.760491)
Local magnetic moments:
   0 Co ( 0.000000,  0.000000,  1.209766)
   1 Fe ( 0.000000,  0.000000,  2.446106)
   2 Co ( 0.000000,  0.000000,  1.332475)
   3 Al ( 0.000000,  0.000000, -0.044563)
   4 Co ( 0.000000,  0.000000,  1.321556)
   5 Fe ( 0.000000,  0.000000,  2.465893)
   6 Fe ( 0.000000,  0.000000,  1.920287)
   7 Cr ( 0.000000,  0.000000, -2.355992)
   8 Fe ( 0.000000,  0.000000,  2.187302)
   9 Al ( 0.000000,  0.000000, -0.013041)
  10 Ni ( 0.000000,  0.000000,  0.170108)
  11 Ni ( 0.000000,  0.000000,  0.153234)
  12 Ni ( 0.000000,  0.000000,  0.202723)
  13 Al ( 0.000000,  0.000000, -0.027458)
  14 Co ( 0.000000,  0.000000,  1.273286)
  15 Co ( 0.000000,  0.000000,  0.699971)
  16 Co ( 0.000000,  0.000000,  1.212569)
  17 Fe ( 0.000000,  0.000000,  2.232043)
  18 Ni ( 0.000000,  0.000000,  0.241289)
  19 Fe ( 0.000000,  0.000000,  2.308987)
  20 Ni ( 0.000000,  0.000000,  0.073244)
  21 Co ( 0.000000,  0.000000,  1.194923)
  22 Al ( 0.000000,  0.000000, -0.021757)
  23 Co ( 0.000000,  0.000000,  0.862423)
  24 Fe ( 0.000000,  0.000000,  1.751515)
  25 Co ( 0.000000,  0.000000,  1.041708)
  26 Cr ( 0.000000,  0.000000, -1.947475)
  27 Ni ( 0.000000,  0.000000,  0.141328)
  28 Al ( 0.000000,  0.000000, -0.015652)
  29 Al ( 0.000000,  0.000000, -0.018936)
  30 Ni ( 0.000000,  0.000000,  0.333946)
  31 Cr ( 0.000000,  0.000000,  1.662642)
  32 Co ( 0.000000,  0.000000,  0.981503)
  33 Cr ( 0.000000,  0.000000, -1.318538)
  34 Cr ( 0.000000,  0.000000, -1.653526)
  35 Co ( 0.000000,  0.000000,  0.987267)
  36 Cr ( 0.000000,  0.000000, -1.557153)
  37 Al ( 0.000000,  0.000000, -0.032535)
  38 Ni ( 0.000000,  0.000000,  0.110633)
  39 Fe ( 0.000000,  0.000000,  2.213945)
  40 Al ( 0.000000,  0.000000, -0.040187)
  41 Cr ( 0.000000,  0.000000, -1.941110)
  42 Al ( 0.000000,  0.000000, -0.025095)
  43 Fe ( 0.000000,  0.000000,  1.873809)
  44 Al ( 0.000000,  0.000000, -0.030563)
  45 Co ( 0.000000,  0.000000,  0.769152)
  46 Fe ( 0.000000,  0.000000,  2.070120)
  47 Ni ( 0.000000,  0.000000,  0.168872)
  48 Ni ( 0.000000,  0.000000,  0.389247)
  49 Ni ( 0.000000,  0.000000,  0.187247)
  50 Fe ( 0.000000,  0.000000,  2.275103)
  51 Co ( 0.000000,  0.000000,  1.201988)
  52 Co ( 0.000000,  0.000000,  1.063225)
  53 Cr ( 0.000000,  0.000000, -1.584027)
  54 Cr ( 0.000000,  0.000000, -1.189487)
  55 Cr ( 0.000000,  0.000000,  1.393655)
  56 Cr ( 0.000000,  0.000000, -1.575733)
  57 Co ( 0.000000,  0.000000,  1.099284)
  58 Fe ( 0.000000,  0.000000,  2.202896)
  59 Fe ( 0.000000,  0.000000,  2.149857)
[...]
  93 Ni ( 0.000000,  0.000000,  0.321177)
  94 Cr ( 0.000000,  0.000000,  1.277445)
  95 Al ( 0.000000,  0.000000, -0.021494)
  96 Cr ( 0.000000,  0.000000,  1.009004)
  97 Cr ( 0.000000,  0.000000, -0.270116)
  98 Co ( 0.000000,  0.000000,  0.563612)
  99 Co ( 0.000000,  0.000000,  0.695065)
 100 Fe ( 0.000000,  0.000000, -1.752631)
 101 Cr ( 0.000000,  0.000000, -2.115091)
 102 Al ( 0.000000,  0.000000, -0.011399)
 103 Co ( 0.000000,  0.000000,  0.991160)
 104 Fe ( 0.000000,  0.000000,  2.530796)
 105 Ni ( 0.000000,  0.000000,  0.240441)
 106 Cr ( 0.000000,  0.000000, -1.178593)
 107 Co ( 0.000000,  0.000000,  0.957202)

Energy contributions relative to reference atoms: (reference = -3382523.201499)

Kinetic:       +213.420736
Potential:     -223.177213
External:        +0.000000
XC:            -846.905891
Entropy (-ST):   -4.219116
Local:          +33.309553
Free energy:   -827.571932
Extrapolated:  -825.462373

Spin contamination: 30.352922 electrons
Showing only first 2 kpts
                      Up                     Down
 Kpt  Band  Eigenvalues  Occupancy  Eigenvalues  Occupancy
  0   470      9.18395    0.99317     10.02774    0.03052
  0   471      9.18997    0.99275     10.04028    0.02702
  0   472      9.20071    0.99193     10.05078    0.02439
  0   473      9.21694    0.99052     10.05611    0.02315

  1   470      9.17596    0.99369     10.01667    0.03397
  1   471      9.19328    0.99251     10.03051    0.02971
  1   472      9.19992    0.99200     10.04550    0.02568
  1   473      9.21951    0.99028     10.05248    0.02399

Fermi level: 9.68189

No gap

Forces in eV/Ang:
  0 Co    0.19732   -0.62979    0.24285
  1 Fe    0.48543   -0.36737    0.10934
  2 Co    0.05413   -0.22568   -0.56234
  3 Al    0.41705   -0.14733   -0.10777
  4 Co    0.23840   -0.19026   -0.49439
  5 Fe    0.01899    0.65219   -0.39802
  6 Fe    0.35184    0.37765   -0.84395
  7 Cr   -1.11760   -0.88287   -0.89034
  8 Fe   -0.41606    0.46775   -0.38219
  9 Al   -0.24409   -0.50055   -1.26812
 10 Ni   -0.20029   -0.28144   -0.42123
 11 Ni   -0.18019   -0.35962   -0.39478
 12 Ni   -0.26252    0.61493    0.03242
 13 Al    1.08246   -0.53392   -0.44788
 14 Co    0.59891    0.33147    0.69257
 15 Co   -0.18937   -0.10728   -0.09649
 16 Co    0.38039    0.11148    0.15043
 17 Fe   -0.80109   -0.91564    0.70607
 18 Ni   -0.41298   -0.21159   -0.03941
 19 Fe    0.51264   -0.56332    0.38295
 20 Ni   -0.12475   -0.11423   -0.42380
 21 Co    0.05733    0.60235    0.00171
 22 Al    0.22803    0.14224   -0.83352
 23 Co   -0.34446    0.49039   -0.41864
 24 Fe    0.38962    0.06284   -0.16209
 25 Co    0.25325    0.14381   -0.34830
 26 Cr   -0.60903    0.15992    0.06823
 27 Ni    0.71852    0.53495   -0.21118
 28 Al   -1.18248    0.06337   -0.04036
 29 Al   -0.66099    0.53622   -1.12542
 30 Ni   -0.11529    0.07711    0.44240
 31 Cr    0.47956    1.05722   -0.41467
 32 Co    0.59965   -0.19956    0.20004
 33 Cr    0.04459   -0.01622   -0.52687
 34 Cr   -0.62901    0.27955   -0.11456
 35 Co   -0.12590    0.06650    0.20939
 36 Cr    0.00799   -0.77809   -0.75160
 37 Al    0.12914   -0.00812    0.06608
 38 Ni    0.31268   -0.04521    0.13050
 39 Fe    0.63724    0.43136   -0.22347
 40 Al   -0.58683    0.74717   -0.27793
 41 Cr   -0.67092    1.24122    0.12242
 42 Al    0.26583   -0.18783    1.00372
 43 Fe   -0.59888    0.69326    0.18726
 44 Al    0.88870   -0.14350    0.05435
 45 Co   -0.01092    0.48481    0.46475
 46 Fe    0.01275   -0.31620    0.19978
 47 Ni   -0.10388   -0.13405    0.05972
 48 Ni    0.52625    0.42726   -0.12634
 49 Ni    0.39981    0.25640   -0.35158
 50 Fe    0.78413    0.43698   -0.34623
 51 Co    1.00143   -0.14147    0.24228
 52 Co   -0.36299   -0.01071    0.31410
 53 Cr   -0.25158   -0.75763   -0.09846
 54 Cr    0.17561    0.19615    0.22676
 55 Cr    0.14119   -0.66787    0.19615
 56 Cr   -0.71128    0.59874    1.18448
 57 Co    0.18544    0.25032    0.22817
 58 Fe   -0.67356    0.05730    0.24869
 59 Fe   -0.83816    0.77883    0.80730
[...]
 93 Ni    0.35776   -0.15228   -0.20193
 94 Cr    0.34510    0.48762    0.62724
 95 Al   -1.27201    0.01716   -0.90912
 96 Cr    0.06633    0.40302    0.76419
 97 Cr    0.32867   -0.05124    0.30553
 98 Co   -0.10260    0.46105   -0.02309
 99 Co    0.17485   -0.31307    0.38733
100 Fe   -0.62782    0.27584   -0.14854
101 Cr   -0.45172    0.98215    0.24405
102 Al    1.20675    0.18969   -1.29771
103 Co   -0.19891   -0.42040    0.34254
104 Fe   -0.03546    0.03882   -0.58009
105 Ni    0.09390    0.07251    0.07057
106 Cr   -0.71268    0.39500    0.40708
107 Co   -0.32764   -0.15573   -0.01585

Date: Fri Apr 14 21:01:25 2023