User:   c.zeng@d0086
Date:   Sat Apr 15 05:53:37 2023
Arch:   x86_64
Pid:    129627
CWD:    /home/c.zeng/projects/hea-corrosion/hea-mlp/data-curation/bulk-mcmc/dft-jobs/220
Python: 3.8.1
gpaw:   /home/c.zeng/usr/installs/gpaw/source/gpaw-22.8.0/gpaw
_gpaw:  /home/c.zeng/usr/installs/gpaw/source/gpaw-22.8.0/
        _gpaw.cpython-38-x86_64-linux-gnu.so
ase:    /home/c.zeng/.local/lib/python3.8/site-packages/ase-3.22.1-py3.8.egg/ase (version 3.22.1)
numpy:  /shared/centos7/python/3.8.1/lib/python3.8/site-packages/numpy (version 1.17.4)
scipy:  /shared/centos7/python/3.8.1/lib/python3.8/site-packages/scipy (version 1.4.1)
units:  Angstrom and eV
cores: 30
OpenMP: False
OMP_NUM_THREADS: 1

Input parameters:
  convergence: {energy: 0.0001}
  kpts: [2 2 2]
  maxiter: 666
  mode: {ecut: 350.0,
         name: pw}
  occupations: {fixmagmom: False,
                name: fermi-dirac,
                width: 0.1}
  spinpol: True
  xc: PBE

System changes: positions, numbers, cell, pbc, initial_charges, initial_magmoms

Initialize ...

species:
  Ni:
    name: Nickel
    id: 0d9f38a9d6e76a2886f07bb4381f212b
    Z: 28.0
    valence: 16
    core: 12
    charge: 0.0
    file: /home/c.zeng/usr/data/gpaw-setups-0.9.20000/Ni.PBE.gz
    compensation charges: {type: gauss,
                           rc: 0.36,
                           lmax: 2}
    cutoffs: {filter: 2.14,
              core: 1.98}
    valence states:
      #              energy  rcut
      - 4s(2.00)    -5.642   1.164
      - 3p(6.00)   -71.394   1.207
      - 4p(0.00)    -1.226   1.207
      - 3d(8.00)    -8.875   1.138
      -  s          21.570   1.164
      -  d          18.337   1.138

    # Using partial waves for Ni as LCAO basis

  Al:
    name: Aluminium
    id: 0292cae29f5d6237e50f6abdd43a7bdd
    Z: 13.0
    valence: 3
    core: 10
    charge: 0.0
    file: /home/c.zeng/usr/data/gpaw-setups-0.9.20000/Al.PBE.gz
    compensation charges: {type: gauss,
                           rc: 0.34,
                           lmax: 2}
    cutoffs: {filter: 1.91,
              core: 2.36}
    valence states:
      #              energy  rcut
      - 3s(2.00)    -7.753   1.085
      - 3p(1.00)    -2.712   1.085
      -  s          19.459   1.085
      -  p          24.499   1.085
      -  d           0.000   1.085

[...]

  Co:
    name: Cobalt
    id: 339d20d5b0b93d2de9531a1bee871d91
    Z: 27.0
    valence: 9
    core: 18
    charge: 0.0
    file: /home/c.zeng/usr/data/gpaw-setups-0.9.20000/Co.PBE.gz
    compensation charges: {type: gauss,
                           rc: 0.32,
                           lmax: 2}
    cutoffs: {filter: 1.87,
              core: 2.55}
    valence states:
      #              energy  rcut
      - 4s(2.00)    -5.469   1.005
      - 4p(0.00)    -1.277   1.058
      - 3d(7.00)    -8.205   1.005
      -  s          21.742   1.005
      -  p          25.934   1.058
      -  d          19.007   1.005

[...]

  Cr:
    name: Chromium
    id: 33f258bda2ca9f93018e70263a35547b
    Z: 24.0
    valence: 6
    core: 18
    charge: 0.0
    file: /home/c.zeng/usr/data/gpaw-setups-0.9.20000/Cr.PBE.gz
    compensation charges: {type: gauss,
                           rc: 0.35,
                           lmax: 2}
    cutoffs: {filter: 2.14,
              core: 3.04}
    valence states:
      #              energy  rcut
      - 4s(1.00)    -4.007   1.164
      - 4p(0.00)    -0.989   1.217
      - 3d(5.00)    -2.913   1.111
      -  s          23.205   1.164
      -  p          26.223   1.217
      -  d          24.299   1.111

[...]

  Fe:
    name: Iron
    id: 37abbd8d6c3c35915a9b583b742da910
    Z: 26.0
    valence: 8
    core: 18
    charge: 0.0
    file: /home/c.zeng/usr/data/gpaw-setups-0.9.20000/Fe.PBE.gz
    compensation charges: {type: gauss,
                           rc: 0.33,
                           lmax: 2}
    cutoffs: {filter: 2.06,
              core: 2.67}
    valence states:
      #              energy  rcut
      - 4s(2.00)    -5.291   1.164
      - 4p(0.00)    -1.326   1.058
      - 3d(6.00)    -7.505   1.058
      -  s          21.920   1.164
      -  p          25.885   1.058
      -  d          19.706   1.058

    # Using partial waves for Fe as LCAO basis

Reference energy: -3235165.067515  # eV

Spin-polarized calculation.
Magnetic moment: 121.100000

Convergence criteria:
 Maximum [total energy] change in last 3 cyles: 0.0001 eV / electron
 Maximum integral of absolute [dens]ity change: 0.0001 electrons / valence electron
 Maximum integral of absolute [eigenst]ate change: 4e-08 eV^2 / valence electron
 Maximum number of scf [iter]ations: 666
 (Square brackets indicate name in SCF output, whereas a 'c' in
 the SCF output indicates the quantity has converged.)

Symmetries present (total): 1

  ( 1  0  0)
  ( 0  1  0)
  ( 0  0  1)

8 k-points: 2 x 2 x 2 Monkhorst-Pack grid
4 k-points in the irreducible part of the Brillouin zone
       k-points in crystal coordinates                weights
   0:     0.25000000   -0.25000000   -0.25000000          2/8
   1:     0.25000000   -0.25000000    0.25000000          2/8
   2:     0.25000000    0.25000000   -0.25000000          2/8
   3:     0.25000000    0.25000000    0.25000000          2/8

Wave functions: Plane wave expansion
  Cutoff energy: 350.000 eV
  Number of coefficients (min, max): 19084, 19084
  Pulay-stress correction: 0.000000 eV/Ang^3 (de/decut=0.000000)
  Using FFTW library
  ScaLapack parameters: grid=1x1, blocksize=None
  Wavefunction extrapolation:
    Improved wavefunction reuse through dual PAW basis

Occupation numbers: Fermi-Dirac:
  width: 0.1000  # eV

Eigensolver
   Davidson(niter=2)

Densities:
  Coarse grid: 48*48*48 grid
  Fine grid: 96*96*96 grid
  Total Charge: 0.000000

Density mixing:
  Method: difference
  Backend: pulay
  Linear mixing parameter: 0.05
  old densities: 5
  Damping of long wavelength oscillations: 50

Hamiltonian:
  XC and Coulomb potentials evaluated on a 96*96*96 grid
  Using the PBE Exchange-Correlation functional
  External potential:
    NoExternalPotential

XC parameters: PBE with 2 nearest neighbor stencil

Total number of cores used: 30
Parallelization over k-points: 2
Domain decomposition: 5 x 3 x 1

Number of atoms: 108
Number of atomic orbitals: 933
Number of bands in calculation: 624
Number of valence electrons: 912
Bands to converge: occupied

... initialized

Initializing position-dependent things.

Density initialized from atomic densities
Creating initial wave functions:
  624 bands from LCAO basis set

        .--------Al----------------.
       /|           Fe             |
      / |    FeFe     Ni           |
     / Cr       Ni       Al        |
    /   |Fe      CrCo       Fe     |
   /    | CrNi      ACo            |
  /    Co  FeiAlAl    Co Fe  CoAl  |
 *      Fe     AlCoAl   CrFe     Ni|
 |      |FeCr   NiFeFe   AlNiNi   Co
 |      | CoCr   AlCoCoAl CrNiFe   |
 |     Fe  Al CoCo  NiCr Cr  CrCr  |
 |      Cr  Ni CrCrCo CoCrCoAl   Fe|
 |      |CrCo   CoAlAl   CoNiFe   Fe
 |      .-FeNi-----CrNi-Al--NiFe---.
 |     Al  Ni CoCr    Al Co  Ni Cr/
 |    / Co              Ni       Ni
 |   /           Ali      NiFe  /
 |  /      Cr       Fe     CrAl/
 | /                   Fe     /r
 *--------------------------Ni

Positions:
   0 Ni    10.797848    0.093654    0.085777    ( 0.0000,  0.0000,  0.0000)
   1 Al    10.831824    1.844742    1.870716    ( 0.0000,  0.0000,  2.0000)
   2 Ni     1.786803   10.847372    1.827335    ( 0.0000,  0.0000,  0.0000)
   3 Co     1.769614    1.870531   -0.031264    ( 0.0000,  0.0000,  0.0000)
   4 Al     3.620857   10.822050   10.833629    ( 0.0000,  0.0000,  1.5000)
   5 Cr     3.571246    1.883176    1.708402    ( 0.0000,  0.0000,  0.0000)
   6 Co     5.521103   10.788063    1.666217    ( 0.0000,  0.0000,  0.0000)
   7 Al     5.520831    1.813973   10.830911    ( 0.0000,  0.0000,  1.5000)
   8 Al     7.330846    0.011025   10.815657    ( 0.0000,  0.0000,  2.0000)
   9 Fe     7.282018    1.809483    1.793250    ( 0.0000,  0.0000,  2.1000)
  10 Fe     9.029996    0.022005    1.811918    ( 0.0000,  0.0000,  1.5000)
  11 Fe     9.007196    1.868639   10.825714    ( 0.0000,  0.0000,  2.0000)
  12 Cr    10.861310    3.649723    0.014171    ( 0.0000,  0.0000,  2.0000)
  13 Cr    10.867442    5.463468    1.819235    ( 0.0000,  0.0000,  2.1000)
  14 Co     1.756088    3.650267    1.845949    ( 0.0000,  0.0000,  0.0000)
  15 Fe     1.790358    5.439092   10.869084    ( 0.0000,  0.0000,  2.1000)
  16 Ni     3.687842    3.622792   -0.049287    ( 0.0000,  0.0000,  2.0000)
  17 Co     3.667347    5.391145    1.745368    ( 0.0000,  0.0000,  0.0000)
  18 Al     5.497977    3.634415    1.792370    ( 0.0000,  0.0000,  2.0000)
  19 Ni     5.524908    5.448029    0.002551    ( 0.0000,  0.0000,  2.0000)
  20 Co     7.223340    3.611877   10.834270    ( 0.0000,  0.0000,  0.0000)
  21 Al     7.217762    5.474830    1.807776    ( 0.0000,  0.0000,  2.1000)
  22 Ni     9.073442    3.654344    1.775148    ( 0.0000,  0.0000,  0.0000)
  23 Cr     9.008740    5.418608    0.007692    ( 0.0000,  0.0000,  2.0000)
  24 Ni    10.859190    7.178720    0.014480    ( 0.0000,  0.0000,  1.5000)
  25 Fe    -0.018106    8.970948    1.875391    ( 0.0000,  0.0000,  0.0000)
  26 Fe     1.817615    7.224025    1.802546    ( 0.0000,  0.0000,  1.5000)
  27 Ni     1.880729    8.993464   10.874031    ( 0.0000,  0.0000,  0.0000)
  28 Fe     3.684428    7.260447   -0.001356    ( 0.0000,  0.0000,  2.0000)
  29 Co     3.612616    9.025636    1.761807    ( 0.0000,  0.0000,  1.5000)
  30 Cr     5.481440    7.275114    1.811211    ( 0.0000,  0.0000,  1.5000)
  31 Fe     5.461261    9.048153   10.833988    ( 0.0000,  0.0000,  1.5000)
  32 Ni     7.245704    7.257881    0.056891    ( 0.0000,  0.0000,  2.1000)
  33 Co     7.301969    9.004609    1.790315    ( 0.0000,  0.0000,  0.0000)
  34 Ni     9.029343    7.181775    1.815549    ( 0.0000,  0.0000,  2.0000)
  35 Ni     9.030561    9.042010    0.020232    ( 0.0000,  0.0000,  1.5000)
  36 Fe    -0.031046    0.001947    3.645701    ( 0.0000,  0.0000,  2.0000)
  37 Fe    10.825910    1.804351    5.434602    ( 0.0000,  0.0000,  2.1000)
  38 Ni     1.743552   10.849296    5.484376    ( 0.0000,  0.0000,  0.0000)
  39 Al     1.769755    1.791891    3.636068    ( 0.0000,  0.0000,  1.5000)
  40 Al     3.516667   10.719828    3.663227    ( 0.0000,  0.0000,  0.0000)
  41 Co     3.644244    1.785205    5.586728    ( 0.0000,  0.0000,  0.0000)
  42 Al     5.484778   10.815439    5.504022    ( 0.0000,  0.0000,  0.0000)
  43 Cr     5.457934    1.842230    3.658769    ( 0.0000,  0.0000,  0.0000)
  44 Cr     7.360615   10.815439    3.672229    ( 0.0000,  0.0000,  0.0000)
  45 Al     7.266884    1.811614    5.485528    ( 0.0000,  0.0000,  2.1000)
  46 Al     9.077986    0.023590    5.491921    ( 0.0000,  0.0000,  0.0000)
  47 Co     9.066788    1.824226    3.671175    ( 0.0000,  0.0000,  1.5000)
  48 Fe    -0.047135    3.649615    3.617291    ( 0.0000,  0.0000,  2.0000)
  49 Cr    10.809264    5.435993    5.379805    ( 0.0000,  0.0000,  2.0000)
  50 Cr     1.752316    3.624989    5.344676    ( 0.0000,  0.0000,  0.0000)
  51 Cr     1.805786    5.472046    3.619389    ( 0.0000,  0.0000,  2.1000)
  52 Ni     3.649408    3.633491    3.631251    ( 0.0000,  0.0000,  2.1000)
  53 Co     3.657628    5.433797    5.434015    ( 0.0000,  0.0000,  1.5000)
  54 Cr     5.413368    3.672642    5.480309    ( 0.0000,  0.0000,  1.5000)
  55 Al     5.413835    5.465588    3.639666    ( 0.0000,  0.0000,  2.1000)
  56 Ni     7.223449    3.731734    3.720829    ( 0.0000,  0.0000,  0.0000)
  57 Cr     7.220557    5.483180    5.485572    ( 0.0000,  0.0000,  0.0000)
  58 Co     9.069039    3.623673    5.469720    ( 0.0000,  0.0000,  1.5000)
  59 Ni     9.064766    5.503837    3.636731    ( 0.0000,  0.0000,  0.0000)
[...]
  93 Co     7.214631    5.385893    9.048577    ( 0.0000,  0.0000,  2.1000)
  94 Fe     8.994291    3.655975    9.039237    ( 0.0000,  0.0000,  1.5000)
  95 Ni     9.006577    5.423262    7.223296    ( 0.0000,  0.0000,  2.0000)
  96 Ni    -0.070637    7.291956    7.110419    ( 0.0000,  0.0000,  0.0000)
  97 Cr     0.073012    9.104570    9.068375    ( 0.0000,  0.0000,  0.0000)
  98 Cr     1.863247    7.257381    9.054785    ( 0.0000,  0.0000,  2.0000)
  99 Fe     1.858343    9.053708    7.225808    ( 0.0000,  0.0000,  2.1000)
 100 Al     3.683906    7.292456    7.235550    ( 0.0000,  0.0000,  2.0000)
 101 Ni     3.628218    9.069550    9.051262    ( 0.0000,  0.0000,  2.1000)
 102 Co     5.530605    7.331890    9.040129    ( 0.0000,  0.0000,  0.0000)
 103 Al     5.476232    9.097209    7.250467    ( 0.0000,  0.0000,  2.0000)
 104 Cr     7.256827    7.264242    7.208456    ( 0.0000,  0.0000,  2.1000)
 105 Al     7.272548    9.136437    9.056861    ( 0.0000,  0.0000,  1.5000)
 106 Fe     8.936493    7.190875    9.109767    ( 0.0000,  0.0000,  0.0000)
 107 Co     8.994682    9.112169    7.218480    ( 0.0000,  0.0000,  0.0000)

Unit cell:
           periodic     x           y           z      points  spacing
  1. axis:    yes   10.872400    0.000000    0.000000    48     0.2265
  2. axis:    yes    0.000000   10.872400    0.000000    48     0.2265
  3. axis:    yes    0.000000    0.000000   10.872400    48     0.2265

  Lengths:  10.872400  10.872400  10.872400
  Angles:   90.000000  90.000000  90.000000

Effective grid spacing dv^(1/3) = 0.2265

     iter     time        total  log10-change:  magmom
                         energy  eigst   dens
iter:   1 05:58:01  -902.724070                  +120.1075
iter:   2 05:59:56  -832.135964  -0.32  -1.27    +83.0960
iter:   3 06:02:22  -827.194176  -0.82  -1.30    +51.9260
iter:   4 06:04:42  -814.512793  -1.22  -1.32    +46.3986
iter:   5 06:06:38  -807.004794  -1.77  -1.37    +44.0775
iter:   6 06:08:34  -806.787834  -1.73  -1.44    +42.9776
iter:   7 06:10:29  -810.400747  -1.48  -1.49    +42.9952
iter:   8 06:12:25  -805.491782  -1.65  -1.53    +43.0318
iter:   9 06:14:20  -804.334913  -1.93  -1.63    +43.4510
iter:  10 06:16:16  -803.307444  -2.10  -1.69    +44.2228
iter:  11 06:18:11  -801.911414  -2.36  -1.75    +44.7480
iter:  12 06:20:40  -802.066668  -2.46  -1.83    +46.2214
iter:  13 06:22:53  -803.553419  -2.43  -1.89    +47.6574
iter:  14 06:24:49  -803.760755  -2.40  -1.89    +48.3706
iter:  15 06:26:44  -802.997300  -2.59  -1.91    +49.6097
iter:  16 06:28:40  -804.019269  -2.49  -2.01    +50.5857
iter:  17 06:30:35  -803.145558  -2.68  -1.96    +51.8765
iter:  18 06:32:30  -803.118954  -2.94  -2.08    +52.6352
iter:  19 06:34:25  -803.540067  -2.94  -2.17    +53.4200
iter:  20 06:36:20  -803.840256  -2.80  -2.15    +54.5379
iter:  21 06:38:38  -803.536380  -3.09  -2.15    +55.2927
iter:  22 06:41:03  -803.816627  -3.10  -2.24    +56.1226
iter:  23 06:42:59  -803.963854  -3.10  -2.26    +56.7057
iter:  24 06:44:55  -803.928125  -3.24  -2.26    +57.4799
iter:  25 06:46:50  -804.005617c -3.40  -2.31    +57.7830
iter:  26 06:48:45  -804.178574  -3.30  -2.36    +58.2239
iter:  27 06:50:41  -804.292197  -3.25  -2.39    +58.3565
iter:  28 06:52:36  -804.270921  -3.40  -2.37    +58.7011
iter:  29 06:54:31  -804.415854  -3.40  -2.47    +58.8232
iter:  30 06:56:34  -804.461778  -3.38  -2.46    +58.8044
iter:  31 06:59:09  -804.428204c -3.57  -2.46    +59.0141
iter:  32 07:01:10  -804.420590c -3.83  -2.54    +59.0783
iter:  33 07:03:05  -804.480636c -3.87  -2.60    +59.1175
iter:  34 07:05:00  -804.481386c -4.37  -2.59    +59.0594
iter:  35 07:06:55  -804.545244c -4.10  -2.65    +58.9113
iter:  36 07:08:50  -804.626789  -3.83  -2.64    +58.6515
iter:  37 07:10:45  -804.641019  -3.97  -2.66    +58.4261
iter:  38 07:12:41  -804.667502c -3.93  -2.70    +58.3012
iter:  39 07:14:55  -804.684233c -3.92  -2.79    +58.0651
iter:  40 07:17:24  -804.692527c -4.18  -2.89    +57.8697
iter:  41 07:19:19  -804.702183c -4.44  -2.94    +57.7263
iter:  42 07:21:15  -804.731375c -4.35  -3.04    +57.5493
iter:  43 07:23:10  -804.740979c -4.64  -3.00    +57.4151
iter:  44 07:25:05  -804.762788c -4.66  -3.08    +57.1709
iter:  45 07:27:00  -804.828235c -3.94  -3.07    +56.6379
iter:  46 07:28:55  -804.899972  -3.53  -2.96    +56.0447
iter:  47 07:31:03  -804.919597  -4.12  -2.85    +56.0410
iter:  48 07:33:34  -804.918420c -4.82  -2.82    +56.1470
iter:  49 07:35:31  -804.923292c -4.84  -2.82    +56.2208
iter:  50 07:37:26  -804.941791c -4.58  -2.81    +56.2288
iter:  51 07:39:21  -804.909924c -4.23  -2.77    +56.2353
iter:  52 07:41:16  -804.918432c -4.12  -2.81    +56.2169
iter:  53 07:43:12  -804.901535c -4.58  -2.79    +56.1591
iter:  54 07:45:07  -804.904813c -4.41  -2.86    +55.9532
iter:  55 07:47:03  -804.898950c -4.57  -2.85    +55.9264
iter:  56 07:48:58  -804.899327c -4.44  -2.91    +55.8612
iter:  57 07:51:34  -804.888874c -4.41  -2.90    +55.8146
iter:  58 07:53:43  -804.896811c -4.43  -2.96    +55.7270
iter:  59 07:55:39  -804.893472c -4.50  -2.95    +55.7244
iter:  60 07:57:34  -804.887949c -4.74  -2.99    +55.7242
iter:  61 07:59:31  -804.884221c -4.96  -3.03    +55.6603
iter:  62 08:01:26  -804.891285c -4.85  -3.07    +55.6277
iter:  63 08:03:22  -804.889341c -4.81  -3.07    +55.6287
iter:  64 08:05:17  -804.886820c -4.83  -3.09    +55.6090
iter:  65 08:07:13  -804.885362c -4.94  -3.12    +55.5532
iter:  66 08:09:08  -804.893001c -4.70  -3.24    +55.5182
iter:  67 08:11:36  -804.888321c -4.85  -3.13    +55.5269
iter:  68 08:13:50  -804.884378c -5.05  -3.25    +55.5062
iter:  69 08:15:45  -804.884269c -5.18  -3.30    +55.4543
iter:  70 08:17:41  -804.884563c -5.38  -3.34    +55.4311
iter:  71 08:19:36  -804.883269c -5.92  -3.37    +55.4176
iter:  72 08:21:31  -804.883830c -6.14  -3.44    +55.3829
iter:  73 08:23:26  -804.884567c -6.29  -3.45    +55.3515
iter:  74 08:25:22  -804.884759c -6.27  -3.45    +55.3156
iter:  75 08:27:17  -804.885397c -6.26  -3.45    +55.2765
iter:  76 08:29:16  -804.885767c -6.42  -3.45    +55.2444
iter:  77 08:31:51  -804.887420c -5.68  -3.45    +55.1457
iter:  78 08:33:56  -804.889022c -5.52  -3.42    +55.0915
iter:  79 08:35:51  -804.889817c -5.67  -3.37    +55.1032
iter:  80 08:37:47  -804.888103c -5.52  -3.39    +55.0609
iter:  81 08:39:42  -804.888475c -5.61  -3.45    +55.0318
iter:  82 08:41:36  -804.889295c -5.29  -3.56    +55.0177
iter:  83 08:43:32  -804.888739c -5.38  -3.51    +55.0131
iter:  84 08:45:27  -804.888378c -5.63  -3.50    +54.9851
iter:  85 08:47:44  -804.887850c -5.94  -3.68    +54.9677
iter:  86 08:50:11  -804.890095c -5.64  -3.73    +54.9599
iter:  87 08:52:07  -804.888190c -5.92  -3.59    +54.9551
iter:  88 08:54:03  -804.888474c -6.36  -3.74    +54.9322
iter:  89 08:55:58  -804.888429c -6.21  -3.80    +54.9274
iter:  90 08:57:53  -804.888387c -6.42  -3.82    +54.9198
iter:  91 08:59:48  -804.888596c -6.59  -3.82    +54.9158
iter:  92 09:01:43  -804.888519c -6.37  -3.87    +54.9130
iter:  93 09:03:38  -804.888586c -6.27  -3.87    +54.9103
iter:  94 09:05:41  -804.888349c -6.53  -3.84    +54.9003
iter:  95 09:08:16  -804.888376c -7.12  -4.01c   +54.8974
iter:  96 09:10:19  -804.888327c -6.92  -4.03c   +54.8976
iter:  97 09:12:14  -804.888713c -6.52  -4.02c   +54.8945
iter:  98 09:14:10  -804.888369c -6.77  -4.04c   +54.8946
iter:  99 09:16:06  -804.888511c -6.82  -4.25c   +54.8971
iter: 100 09:18:02  -804.888472c -7.24  -4.18c   +54.8927
iter: 101 09:19:57  -804.888525c -7.42c -4.34c   +54.8898

Converged after 101 iterations.

Dipole moment: (27.718584, 18.215194, 8.735557) |e|*Ang

Total magnetic moment: (0.000000, 0.000000, 54.889757)
Local magnetic moments:
   0 Ni ( 0.000000,  0.000000,  0.433999)
   1 Al ( 0.000000,  0.000000, -0.031265)
   2 Ni ( 0.000000,  0.000000,  0.286944)
   3 Co ( 0.000000,  0.000000,  0.993093)
   4 Al ( 0.000000,  0.000000, -0.026982)
   5 Cr ( 0.000000,  0.000000,  2.156194)
   6 Co ( 0.000000,  0.000000,  1.105705)
   7 Al ( 0.000000,  0.000000, -0.031461)
   8 Al ( 0.000000,  0.000000, -0.047239)
   9 Fe ( 0.000000,  0.000000,  2.244976)
  10 Fe ( 0.000000,  0.000000,  2.254747)
  11 Fe ( 0.000000,  0.000000,  2.301092)
  12 Cr ( 0.000000,  0.000000, -1.911234)
  13 Cr ( 0.000000,  0.000000, -1.745037)
  14 Co ( 0.000000,  0.000000,  0.446575)
  15 Fe ( 0.000000,  0.000000,  2.039641)
  16 Ni ( 0.000000,  0.000000,  0.239720)
  17 Co ( 0.000000,  0.000000,  0.690759)
  18 Al ( 0.000000,  0.000000, -0.019332)
  19 Ni ( 0.000000,  0.000000,  0.261682)
  20 Co ( 0.000000,  0.000000,  0.933940)
  21 Al ( 0.000000,  0.000000, -0.010349)
  22 Ni ( 0.000000,  0.000000,  0.192158)
  23 Cr ( 0.000000,  0.000000,  1.299488)
  24 Ni ( 0.000000,  0.000000,  0.188982)
  25 Fe ( 0.000000,  0.000000,  2.513684)
  26 Fe ( 0.000000,  0.000000,  2.204421)
  27 Ni ( 0.000000,  0.000000,  0.284375)
  28 Fe ( 0.000000,  0.000000,  2.286969)
  29 Co ( 0.000000,  0.000000,  1.081646)
  30 Cr ( 0.000000,  0.000000, -1.673695)
  31 Fe ( 0.000000,  0.000000,  2.319190)
  32 Ni ( 0.000000,  0.000000,  0.322299)
  33 Co ( 0.000000,  0.000000,  1.149103)
  34 Ni ( 0.000000,  0.000000,  0.160231)
  35 Ni ( 0.000000,  0.000000,  0.230708)
  36 Fe ( 0.000000,  0.000000,  2.297636)
  37 Fe ( 0.000000,  0.000000,  1.923095)
  38 Ni ( 0.000000,  0.000000,  0.249860)
  39 Al ( 0.000000,  0.000000, -0.026397)
  40 Al ( 0.000000,  0.000000, -0.011151)
  41 Co ( 0.000000,  0.000000,  0.111458)
  42 Al ( 0.000000,  0.000000, -0.000168)
  43 Cr ( 0.000000,  0.000000, -2.185585)
  44 Cr ( 0.000000,  0.000000,  1.420625)
  45 Al ( 0.000000,  0.000000, -0.006840)
  46 Al ( 0.000000,  0.000000, -0.019696)
  47 Co ( 0.000000,  0.000000,  1.154149)
  48 Fe ( 0.000000,  0.000000,  1.953772)
  49 Cr ( 0.000000,  0.000000, -1.807596)
  50 Cr ( 0.000000,  0.000000, -1.630091)
  51 Cr ( 0.000000,  0.000000,  1.326839)
  52 Ni ( 0.000000,  0.000000, -0.036934)
  53 Co ( 0.000000,  0.000000, -0.279494)
  54 Cr ( 0.000000,  0.000000,  1.438189)
  55 Al ( 0.000000,  0.000000,  0.003607)
  56 Ni ( 0.000000,  0.000000,  0.089233)
  57 Cr ( 0.000000,  0.000000, -1.450471)
  58 Co ( 0.000000,  0.000000,  0.815703)
  59 Ni ( 0.000000,  0.000000,  0.168292)
[...]
  93 Co ( 0.000000,  0.000000,  1.343648)
  94 Fe ( 0.000000,  0.000000,  2.093137)
  95 Ni ( 0.000000,  0.000000,  0.364602)
  96 Ni ( 0.000000,  0.000000,  0.270531)
  97 Cr ( 0.000000,  0.000000, -2.343515)
  98 Cr ( 0.000000,  0.000000,  1.398020)
  99 Fe ( 0.000000,  0.000000,  2.265973)
 100 Al ( 0.000000,  0.000000, -0.028959)
 101 Ni ( 0.000000,  0.000000,  0.092466)
 102 Co ( 0.000000,  0.000000,  1.028161)
 103 Al ( 0.000000,  0.000000, -0.002868)
 104 Cr ( 0.000000,  0.000000,  1.172365)
 105 Al ( 0.000000,  0.000000, -0.031986)
 106 Fe ( 0.000000,  0.000000,  2.431909)
 107 Co ( 0.000000,  0.000000,  0.618964)

Energy contributions relative to reference atoms: (reference = -3235165.067515)

Kinetic:       +264.100020
Potential:     -251.284873
External:        +0.000000
XC:            -846.694674
Entropy (-ST):   -4.112161
Local:          +31.047082
Free energy:   -806.944605
Extrapolated:  -804.888525

Spin contamination: 28.908969 electrons
Showing only first 2 kpts
                      Up                     Down
 Kpt  Band  Eigenvalues  Occupancy  Eigenvalues  Occupancy
  0   454      9.02969    0.99360      9.89532    0.02633
  0   455      9.05115    0.99209      9.90647    0.02362
  0   456      9.05771    0.99155      9.91976    0.02074
  0   457      9.07980    0.98949      9.93695    0.01752

  1   454      9.03590    0.99320      9.89878    0.02545
  1   455      9.04170    0.99279      9.90350    0.02431
  1   456      9.06636    0.99080      9.91978    0.02073
  1   457      9.08059    0.98941      9.93330    0.01816

Fermi level: 9.53427

No gap

Forces in eV/Ang:
  0 Ni    0.32278   -0.54916   -0.52239
  1 Al   -0.32862   -0.20957   -0.79317
  2 Ni   -0.04780    0.07183    0.07964
  3 Co    0.16108   -0.18464   -0.28445
  4 Al   -0.49016   -0.48117    0.36078
  5 Cr    0.12836   -0.24638    0.69453
  6 Co   -0.12371    0.13534    0.90710
  7 Al   -0.34576    0.19204   -0.23938
  8 Al   -0.66208   -0.25843    1.93714
  9 Fe    0.14998    0.08173    0.77109
 10 Fe    0.09725   -0.35669    0.28248
 11 Fe    0.51923    0.53621   -0.01019
 12 Cr    0.08504   -0.72095   -0.29332
 13 Cr   -0.02749    0.06214    0.41570
 14 Co    0.31054    0.06239   -0.34481
 15 Fe    0.45638   -0.18887    0.75732
 16 Ni   -0.38745   -0.09322    0.25115
 17 Co   -0.52921    0.45524    0.23122
 18 Al   -0.78090   -0.10544   -0.20492
 19 Ni   -0.22097    0.09759   -0.16997
 20 Co    0.53204    0.11343    0.05385
 21 Al    1.63968   -0.42294   -0.29838
 22 Ni   -0.44890   -0.21351    0.51011
 23 Cr    0.34041   -0.32849   -0.06315
 24 Ni   -0.10837    0.61762   -0.42405
 25 Fe   -0.35811    0.50256   -0.99647
 26 Fe    0.34985    0.05837   -0.30792
 27 Ni   -0.64346    0.17187    0.12656
 28 Fe   -0.00232    0.04389    0.53199
 29 Co    0.38875   -0.38210    0.46446
 30 Cr   -0.95564    0.94994   -0.47630
 31 Fe   -0.07384   -0.50831    0.41303
 32 Ni    0.10559    0.05944   -0.44113
 33 Co   -0.22983    0.34859    0.33513
 34 Ni    0.27794    0.42952   -0.07772
 35 Ni    0.17825    0.07756   -0.27402
 36 Fe   -0.40622   -0.31072   -0.11932
 37 Fe    0.18256    0.53461   -0.14115
 38 Ni    0.71305    0.09355   -0.23241
 39 Al    0.91678    0.20980    0.44764
 40 Al    1.50890    0.76491   -0.46240
 41 Co   -0.22419    0.14312   -0.54650
 42 Al   -1.04400    1.36940   -0.92053
 43 Cr   -0.18767   -0.46676   -0.38163
 44 Cr   -0.57423   -0.01639   -1.56223
 45 Al   -0.16008    1.12058   -0.52894
 46 Al    0.06796   -0.55492   -0.71281
 47 Co   -0.40782    0.37718   -0.18243
 48 Fe   -0.47055    0.24467    0.37601
 49 Cr   -0.14606    0.14303    0.47763
 50 Cr    0.77636    0.44392    0.90199
 51 Cr    0.87934   -0.56869    0.14763
 52 Ni   -0.40064   -0.07566    0.07395
 53 Co   -0.38746   -0.11109    0.19885
 54 Cr   -0.54562   -0.77965    0.46703
 55 Al   -1.05647   -0.05564    0.73544
 56 Ni    0.28872   -0.43114   -0.74804
 57 Cr    0.58525   -0.31488    0.62001
 58 Co    0.07397    0.27212   -0.20224
 59 Ni   -0.17912   -0.55361   -0.04428
[...]
 93 Co   -0.07420    0.42340   -0.06867
 94 Fe   -0.13208   -0.26187   -0.10842
 95 Ni    0.09806    0.10500    0.08766
 96 Ni    0.09952    0.02113    0.90278
 97 Cr    0.11024   -1.29661    0.33057
 98 Cr   -0.91615    0.50616    0.35935
 99 Fe   -0.62492   -0.01174   -0.23998
100 Al   -0.36560   -0.66012   -0.47631
101 Ni    0.10260   -0.38094    0.13394
102 Co   -0.05727   -0.68571    0.20268
103 Al   -0.58452   -0.67018    1.21670
104 Cr    0.37531   -1.07751    0.53385
105 Al    0.01495   -1.85088   -0.17814
106 Fe    0.75787    0.35173   -0.57679
107 Co    0.91408   -0.91653    0.49628

Date: Sat Apr 15 09:20:17 2023