User:   c.zeng@d0112
Date:   Fri Apr 14 23:11:11 2023
Arch:   x86_64
Pid:    268337
CWD:    /home/c.zeng/projects/hea-corrosion/hea-mlp/data-curation/bulk-mcmc/dft-jobs/180
Python: 3.8.1
gpaw:   /home/c.zeng/usr/installs/gpaw/source/gpaw-22.8.0/gpaw
_gpaw:  /home/c.zeng/usr/installs/gpaw/source/gpaw-22.8.0/
        _gpaw.cpython-38-x86_64-linux-gnu.so
ase:    /home/c.zeng/.local/lib/python3.8/site-packages/ase-3.22.1-py3.8.egg/ase (version 3.22.1)
numpy:  /shared/centos7/python/3.8.1/lib/python3.8/site-packages/numpy (version 1.17.4)
scipy:  /shared/centos7/python/3.8.1/lib/python3.8/site-packages/scipy (version 1.4.1)
units:  Angstrom and eV
cores: 30
OpenMP: False
OMP_NUM_THREADS: 1

Input parameters:
  convergence: {energy: 0.0001}
  kpts: [2 2 2]
  maxiter: 666
  mode: {ecut: 350.0,
         name: pw}
  occupations: {fixmagmom: False,
                name: fermi-dirac,
                width: 0.1}
  spinpol: True
  xc: PBE

System changes: positions, numbers, cell, pbc, initial_charges, initial_magmoms

Initialize ...

species:
  Co:
    name: Cobalt
    id: 339d20d5b0b93d2de9531a1bee871d91
    Z: 27.0
    valence: 9
    core: 18
    charge: 0.0
    file: /home/c.zeng/usr/data/gpaw-setups-0.9.20000/Co.PBE.gz
    compensation charges: {type: gauss,
                           rc: 0.32,
                           lmax: 2}
    cutoffs: {filter: 1.87,
              core: 2.55}
    valence states:
      #              energy  rcut
      - 4s(2.00)    -5.469   1.005
      - 4p(0.00)    -1.277   1.058
      - 3d(7.00)    -8.205   1.005
      -  s          21.742   1.005
      -  p          25.934   1.058
      -  d          19.007   1.005

    # Using partial waves for Co as LCAO basis

  Fe:
    name: Iron
    id: 37abbd8d6c3c35915a9b583b742da910
    Z: 26.0
    valence: 8
    core: 18
    charge: 0.0
    file: /home/c.zeng/usr/data/gpaw-setups-0.9.20000/Fe.PBE.gz
    compensation charges: {type: gauss,
                           rc: 0.33,
                           lmax: 2}
    cutoffs: {filter: 2.06,
              core: 2.67}
    valence states:
      #              energy  rcut
      - 4s(2.00)    -5.291   1.164
      - 4p(0.00)    -1.326   1.058
      - 3d(6.00)    -7.505   1.058
      -  s          21.920   1.164
      -  p          25.885   1.058
      -  d          19.706   1.058

[...]

  Al:
    name: Aluminium
    id: 0292cae29f5d6237e50f6abdd43a7bdd
    Z: 13.0
    valence: 3
    core: 10
    charge: 0.0
    file: /home/c.zeng/usr/data/gpaw-setups-0.9.20000/Al.PBE.gz
    compensation charges: {type: gauss,
                           rc: 0.34,
                           lmax: 2}
    cutoffs: {filter: 1.91,
              core: 2.36}
    valence states:
      #              energy  rcut
      - 3s(2.00)    -7.753   1.085
      - 3p(1.00)    -2.712   1.085
      -  s          19.459   1.085
      -  p          24.499   1.085
      -  d           0.000   1.085

[...]

  Cr:
    name: Chromium
    id: 33f258bda2ca9f93018e70263a35547b
    Z: 24.0
    valence: 6
    core: 18
    charge: 0.0
    file: /home/c.zeng/usr/data/gpaw-setups-0.9.20000/Cr.PBE.gz
    compensation charges: {type: gauss,
                           rc: 0.35,
                           lmax: 2}
    cutoffs: {filter: 2.14,
              core: 3.04}
    valence states:
      #              energy  rcut
      - 4s(1.00)    -4.007   1.164
      - 4p(0.00)    -0.989   1.217
      - 3d(5.00)    -2.913   1.111
      -  s          23.205   1.164
      -  p          26.223   1.217
      -  d          24.299   1.111

[...]

  Ni:
    name: Nickel
    id: 0d9f38a9d6e76a2886f07bb4381f212b
    Z: 28.0
    valence: 16
    core: 12
    charge: 0.0
    file: /home/c.zeng/usr/data/gpaw-setups-0.9.20000/Ni.PBE.gz
    compensation charges: {type: gauss,
                           rc: 0.36,
                           lmax: 2}
    cutoffs: {filter: 2.14,
              core: 1.98}
    valence states:
      #              energy  rcut
      - 4s(2.00)    -5.642   1.164
      - 3p(6.00)   -71.394   1.207
      - 4p(0.00)    -1.226   1.207
      - 3d(8.00)    -8.875   1.138
      -  s          21.570   1.164
      -  d          18.337   1.138

    # Using partial waves for Ni as LCAO basis

Reference energy: -3382523.201499  # eV

Spin-polarized calculation.
Magnetic moment: 128.800000

Convergence criteria:
 Maximum [total energy] change in last 3 cyles: 0.0001 eV / electron
 Maximum integral of absolute [dens]ity change: 0.0001 electrons / valence electron
 Maximum integral of absolute [eigenst]ate change: 4e-08 eV^2 / valence electron
 Maximum number of scf [iter]ations: 666
 (Square brackets indicate name in SCF output, whereas a 'c' in
 the SCF output indicates the quantity has converged.)

Symmetries present (total): 1

  ( 1  0  0)
  ( 0  1  0)
  ( 0  0  1)

8 k-points: 2 x 2 x 2 Monkhorst-Pack grid
4 k-points in the irreducible part of the Brillouin zone
       k-points in crystal coordinates                weights
   0:     0.25000000   -0.25000000   -0.25000000          2/8
   1:     0.25000000   -0.25000000    0.25000000          2/8
   2:     0.25000000    0.25000000   -0.25000000          2/8
   3:     0.25000000    0.25000000    0.25000000          2/8

Wave functions: Plane wave expansion
  Cutoff energy: 350.000 eV
  Number of coefficients (min, max): 18865, 18865
  Pulay-stress correction: 0.000000 eV/Ang^3 (de/decut=0.000000)
  Using FFTW library
  ScaLapack parameters: grid=1x1, blocksize=None
  Wavefunction extrapolation:
    Improved wavefunction reuse through dual PAW basis

Occupation numbers: Fermi-Dirac:
  width: 0.1000  # eV

Eigensolver
   Davidson(niter=2)

Densities:
  Coarse grid: 48*48*48 grid
  Fine grid: 96*96*96 grid
  Total Charge: 0.000000

Density mixing:
  Method: difference
  Backend: pulay
  Linear mixing parameter: 0.05
  old densities: 5
  Damping of long wavelength oscillations: 50

Hamiltonian:
  XC and Coulomb potentials evaluated on a 96*96*96 grid
  Using the PBE Exchange-Correlation functional
  External potential:
    NoExternalPotential

XC parameters: PBE with 2 nearest neighbor stencil

Total number of cores used: 30
Parallelization over k-points: 2
Domain decomposition: 5 x 3 x 1

Number of atoms: 108
Number of atomic orbitals: 961
Number of bands in calculation: 649
Number of valence electrons: 945
Bands to converge: occupied

... initialized

Initializing position-dependent things.

Density initialized from atomic densities
Creating initial wave functions:
  649 bands from LCAO basis set

       /|                     Co   |
      / |            Fe Fe     CrCo|
     /  |       Cr       Ni       Cr
    /   |Fe       Fel     CFer     |
   /i   | Coo        Fe      Co    |
  /  CrAl   NCr       Ni           |
 *      Ni     FeCo   AlFeCrCo   Cr|
 |      |CoNi   CrNiAl   NiAlNi   Fe
 | CrCo | AlNi   AlAlCo     Ni     |
 |     Fe  FeCr Cr  Fe FeNi  CrNi  |
 |      CoNi   AlCr   FeCoFeNi  Co |
 |Al    |CoCr   AlCrFe   CrCo     Co
 |      .-CrCo-----NiCr-CoFeCrNi---.
 |     /   Ni Fe    Cr CoNi    Al /
 |    Co       AFei       Al     /
 |   /  Fe         Al       Cr  /
 |  /      Fe       Al       Co/
 | / Fe     Co       Ni Ni    /
 |/             Cr       Ni  /
 *--------Fe----------------*

Positions:
   0 Co    10.764147   10.861293   10.805330    ( 0.0000,  0.0000,  2.0000)
   1 Co    10.786221    1.792513    1.813624    ( 0.0000,  0.0000,  0.0000)
   2 Fe     1.744156    0.036560    1.851269    ( 0.0000,  0.0000,  1.5000)
   3 Al     1.736571    1.831142   10.798805    ( 0.0000,  0.0000,  0.0000)
   4 Fe     3.575126    0.057318    0.061759    ( 0.0000,  0.0000,  0.0000)
   5 Fe     3.594289    1.817617    1.845577    ( 0.0000,  0.0000,  2.0000)
   6 Fe     5.429813   10.817005    1.865054    ( 0.0000,  0.0000,  1.5000)
   7 Cr     5.429608    1.929425    0.057134    ( 0.0000,  0.0000,  0.0000)
   8 Fe     7.316909   10.723332    0.087382    ( 0.0000,  0.0000,  0.0000)
   9 Al     7.263142    1.825786    1.869404    ( 0.0000,  0.0000,  2.1000)
  10 Ni     9.063554    0.025226    1.863474    ( 0.0000,  0.0000,  1.5000)
  11 Ni     9.049217    1.829703    0.033106    ( 0.0000,  0.0000,  2.1000)
  12 Ni     0.004792    3.558981   10.794801    ( 0.0000,  0.0000,  1.5000)
  13 Al    10.759710    5.390697    1.778165    ( 0.0000,  0.0000,  0.0000)
  14 Fe     1.733585    3.561849    1.761112    ( 0.0000,  0.0000,  2.0000)
  15 Fe     1.776899    5.391834   10.795505    ( 0.0000,  0.0000,  0.0000)
  16 Co     3.565452    3.619360   10.832619    ( 0.0000,  0.0000,  2.1000)
  17 Fe     3.633221    5.394614    1.719551    ( 0.0000,  0.0000,  0.0000)
  18 Ni     5.471624    3.659114    1.836033    ( 0.0000,  0.0000,  2.1000)
  19 Fe     5.440212    5.373060   -0.002773    ( 0.0000,  0.0000,  2.0000)
  20 Ni     7.258997    3.609080    0.031294    ( 0.0000,  0.0000,  0.0000)
  21 Co     7.268941    5.378362    1.785274    ( 0.0000,  0.0000,  2.0000)
  22 Al     9.030724    3.577636    1.833728    ( 0.0000,  0.0000,  2.1000)
  23 Fe     9.040420    5.372281   10.801110    ( 0.0000,  0.0000,  0.0000)
  24 Co    10.791663    7.196206   10.792486    ( 0.0000,  0.0000,  1.5000)
  25 Co    10.758434    9.040387    1.848239    ( 0.0000,  0.0000,  0.0000)
  26 Cr     1.690487    7.202493    1.786032    ( 0.0000,  0.0000,  0.0000)
  27 Ni     1.652691    8.981047    0.027217    ( 0.0000,  0.0000,  0.0000)
  28 Al     3.631241    7.164437    0.034633    ( 0.0000,  0.0000,  0.0000)
  29 Al     3.625452    9.063759    1.801678    ( 0.0000,  0.0000,  0.0000)
  30 Ni     5.490852    7.187095    1.746342    ( 0.0000,  0.0000,  2.0000)
  31 Cr     5.426935    8.989152    0.009861    ( 0.0000,  0.0000,  2.0000)
  32 Fe     7.229122    7.237075   -0.008698    ( 0.0000,  0.0000,  1.5000)
  33 Cr     7.249194    8.995850    1.810713    ( 0.0000,  0.0000,  0.0000)
  34 Cr     9.052073    7.204300    1.764218    ( 0.0000,  0.0000,  2.1000)
  35 Co     9.092553    8.989639   10.808760    ( 0.0000,  0.0000,  1.5000)
  36 Cr    -0.000975   10.826235    3.639789    ( 0.0000,  0.0000,  1.5000)
  37 Al    10.822772    1.771770    5.422044    ( 0.0000,  0.0000,  2.1000)
  38 Ni     1.754263   10.802084    5.428872    ( 0.0000,  0.0000,  2.1000)
  39 Co     1.741873    1.774270    3.610801    ( 0.0000,  0.0000,  0.0000)
  40 Al     3.591183   10.794152    3.612143    ( 0.0000,  0.0000,  2.0000)
  41 Cr     3.593088    1.736744    5.455177    ( 0.0000,  0.0000,  0.0000)
  42 Al     5.437150   10.794563    5.400804    ( 0.0000,  0.0000,  2.0000)
  43 Fe     5.451931    1.783251    3.601387    ( 0.0000,  0.0000,  1.5000)
  44 Al     7.226222    0.007781    3.626209    ( 0.0000,  0.0000,  0.0000)
  45 Fe     7.236069    1.766512    5.381392    ( 0.0000,  0.0000,  2.1000)
  46 Co     9.034587   10.848850    5.403844    ( 0.0000,  0.0000,  2.1000)
  47 Ni     9.031558    1.804946    3.616730    ( 0.0000,  0.0000,  1.5000)
  48 Ni    10.773885    3.543973    3.617867    ( 0.0000,  0.0000,  1.5000)
  49 Ni    10.772186    5.358409    5.454917    ( 0.0000,  0.0000,  0.0000)
  50 Co     1.757531    3.575678    5.428937    ( 0.0000,  0.0000,  2.1000)
  51 Co     1.621766    5.386986    3.572550    ( 0.0000,  0.0000,  0.0000)
[...]
iter:  47 00:18:26  -825.018493c -4.69  -2.92    +63.8027
iter:  48 00:19:52  -825.033362c -4.83  -2.87    +63.8112
iter:  49 00:21:17  -825.065903c -4.31  -2.86    +63.8577
iter:  50 00:22:42  -825.049156c -4.22  -2.80    +63.9380
iter:  51 00:24:08  -825.041050c -4.23  -2.86    +63.9913
iter:  52 00:25:33  -825.096298c -3.90  -2.93    +64.0314
iter:  53 00:26:58  -825.021787c -4.38  -2.78    +63.9367
iter:  54 00:28:23  -825.027649c -4.79  -3.08    +63.8594
iter:  55 00:29:48  -825.030245c -4.84  -3.08    +63.8285
iter:  56 00:31:13  -825.030458c -4.98  -3.09    +63.7787
iter:  57 00:32:39  -825.037785c -4.79  -3.10    +63.7093
iter:  58 00:34:04  -825.031115c -4.70  -3.12    +63.6793
iter:  59 00:35:29  -825.039178c -4.77  -3.27    +63.6496
iter:  60 00:36:54  -825.031226c -5.17  -3.18    +63.6200
iter:  61 00:38:19  -825.034199c -5.33  -3.41    +63.5677
iter:  62 00:39:45  -825.034936c -5.54  -3.39    +63.5405
iter:  63 00:41:10  -825.036701c -5.43  -3.44    +63.4871
iter:  64 00:42:35  -825.038999c -5.46  -3.47    +63.4284
iter:  65 00:44:00  -825.038723c -5.69  -3.54    +63.4069
iter:  66 00:45:25  -825.041492c -5.63  -3.60    +63.3605
iter:  67 00:46:50  -825.041203c -6.00  -3.61    +63.3499
iter:  68 00:48:16  -825.043400c -5.78  -3.68    +63.3012
iter:  69 00:49:41  -825.043595c -6.27  -3.71    +63.2942
iter:  70 00:51:06  -825.045679c -5.83  -3.75    +63.2391
iter:  71 00:52:31  -825.047228c -5.94  -3.73    +63.1977
iter:  72 00:53:57  -825.048466c -5.99  -3.79    +63.1645
iter:  73 00:55:22  -825.050009c -6.04  -3.81    +63.1299
iter:  74 00:56:47  -825.051270c -6.08  -3.85    +63.0977
iter:  75 00:58:13  -825.052655c -6.02  -3.82    +63.0531
iter:  76 00:59:38  -825.054349c -6.06  -3.90    +63.0135
iter:  77 01:01:04  -825.052502c -6.38  -3.93    +63.0580
iter:  78 01:02:29  -825.049908c -5.66  -3.96    +63.1293
iter:  79 01:03:55  -825.054205c -5.59  -3.97    +63.0147
iter:  80 01:05:21  -825.049873c -5.58  -4.04c   +63.1348
iter:  81 01:06:46  -825.046103c -5.33  -4.03c   +63.2527
iter:  82 01:08:12  -825.044199c -5.50  -3.91    +63.3066
iter:  83 01:09:37  -825.036451c -4.06  -3.82    +63.6643
iter:  84 01:11:03  -825.037055c -4.93  -3.41    +63.6715
iter:  85 01:12:29  -825.038138c -5.46  -3.39    +63.6412
iter:  86 01:13:54  -825.039087c -5.81  -3.39    +63.6053
iter:  87 01:15:20  -825.040855c -5.79  -3.39    +63.5650
iter:  88 01:16:45  -825.050775c -4.76  -3.38    +63.5410
iter:  89 01:18:11  -825.042070c -4.62  -3.14    +63.5477
iter:  90 01:19:37  -825.038269c -5.10  -3.31    +63.4805
iter:  91 01:21:03  -825.041235c -5.35  -3.55    +63.4372
iter:  92 01:22:28  -825.042494c -5.20  -3.55    +63.4352
iter:  93 01:23:54  -825.040320c -5.54  -3.45    +63.4282
iter:  94 01:25:19  -825.041503c -5.95  -3.74    +63.4061
iter:  95 01:26:45  -825.041681c -5.95  -3.78    +63.4008
iter:  96 01:28:11  -825.042435c -5.88  -3.71    +63.3788
iter:  97 01:29:37  -825.042698c -5.96  -3.85    +63.3644
iter:  98 01:31:02  -825.043769c -5.96  -3.83    +63.3491
iter:  99 01:32:28  -825.043788c -6.30  -3.89    +63.3371
iter: 100 01:33:53  -825.044370c -6.22  -3.94    +63.3102
iter: 101 01:35:19  -825.045484c -6.21  -3.98    +63.2858
iter: 102 01:36:45  -825.045163c -7.31  -3.98    +63.2920
iter: 103 01:38:11  -825.041341c -5.32  -4.00c   +63.3820
iter: 104 01:39:36  -825.043253c -6.25  -4.03c   +63.3396
iter: 105 01:41:02  -825.042016c -6.35  -4.06c   +63.3693
iter: 106 01:42:28  -825.042962c -6.62  -4.10c   +63.3580
iter: 107 01:43:54  -825.042654c -7.09  -4.11c   +63.3613
iter: 108 01:45:19  -825.043376c -6.27  -4.20c   +63.3348
iter: 109 01:46:45  -825.044464c -6.21  -4.13c   +63.3141
iter: 110 01:48:11  -825.044846c -6.45  -4.27c   +63.3024
iter: 111 01:49:36  -825.045437c -6.31  -4.25c   +63.2820
iter: 112 01:51:02  -825.046741c -6.11  -4.35c   +63.2544
iter: 113 01:52:28  -825.045706c -6.52  -4.27c   +63.2869
iter: 114 01:53:54  -825.043168c -5.60  -4.28c   +63.3495
iter: 115 01:55:19  -825.043193c -6.55  -4.37c   +63.3515
iter: 116 01:56:45  -825.044102c -6.51  -4.49c   +63.3228
iter: 117 01:58:11  -825.042630c -6.08  -4.57c   +63.3682
iter: 118 01:59:37  -825.038519c -4.85  -4.45c   +63.5431
iter: 119 02:01:03  -825.035497c -4.56  -3.95    +63.7638
iter: 120 02:02:29  -825.035334c -5.17  -3.67    +63.8208
iter: 121 02:03:55  -825.035565c -5.05  -3.62    +63.9271
iter: 122 02:05:21  -825.035800c -5.78  -3.54    +63.9285
iter: 123 02:06:47  -825.035480c -6.20  -3.54    +63.9229
iter: 124 02:08:13  -825.036473c -5.96  -3.55    +63.9198
iter: 125 02:09:39  -825.036054c -5.83  -3.49    +63.9196
iter: 126 02:11:05  -825.040116c -4.77  -3.51    +63.9252
iter: 127 02:12:31  -825.037026c -5.02  -3.32    +63.9314
iter: 128 02:13:56  -825.034569c -5.26  -3.43    +63.8914
iter: 129 02:15:22  -825.034150c -5.88  -3.63    +63.8861
iter: 130 02:16:48  -825.035164c -5.89  -3.84    +63.8660
iter: 131 02:18:14  -825.034746c -6.04  -3.77    +63.8461
iter: 132 02:19:40  -825.035928c -5.98  -3.94    +63.8279
iter: 133 02:21:06  -825.035768c -6.02  -3.88    +63.8116
iter: 134 02:22:32  -825.036367c -6.08  -3.93    +63.8030
iter: 135 02:23:58  -825.036293c -6.14  -3.92    +63.7876
iter: 136 02:25:24  -825.036907c -6.09  -4.07c   +63.7788
iter: 137 02:26:50  -825.037057c -6.56  -4.05c   +63.7742
iter: 138 02:28:16  -825.037415c -6.44  -4.22c   +63.7537
iter: 139 02:29:42  -825.037771c -6.69  -4.28c   +63.7451
iter: 140 02:31:08  -825.038607c -6.17  -4.33c   +63.7176
iter: 141 02:32:34  -825.036121c -5.46  -4.28c   +63.7941
iter: 142 02:34:00  -825.029510c -4.32  -4.27c   +64.0414
iter: 143 02:35:26  -825.034331c -4.86  -3.78    +63.8517
iter: 144 02:36:52  -825.034761c -5.95  -4.16c   +63.8354
iter: 145 02:38:18  -825.035669c -5.92  -4.19c   +63.8033
iter: 146 02:39:44  -825.034135c -5.78  -4.30c   +63.8558
iter: 147 02:41:10  -825.030042c -4.73  -4.15c   +63.9919
iter: 148 02:42:36  -825.033499c -5.13  -3.81    +63.8729
iter: 149 02:44:02  -825.032621c -6.58  -4.02c   +63.8935
iter: 150 02:45:28  -825.033048c -6.61  -4.00c   +63.8742
iter: 151 02:46:55  -825.033088c -7.12  -4.07c   +63.8685
iter: 152 02:48:21  -825.033371c -7.06  -4.06c   +63.8596
iter: 153 02:49:47  -825.034383c -6.02  -4.08c   +63.8495
iter: 154 02:51:13  -825.033697c -6.27  -3.85    +63.8523
iter: 155 02:52:39  -825.034153c -6.12  -4.03c   +63.8425
iter: 156 02:54:05  -825.033910c -6.40  -4.00c   +63.8454
iter: 157 02:55:31  -825.034686c -6.33  -4.09c   +63.8352
iter: 158 02:56:57  -825.034915c -6.56  -4.29c   +63.8228
iter: 159 02:58:24  -825.035425c -6.50  -4.36c   +63.8095
iter: 160 02:59:50  -825.036384c -6.04  -4.45c   +63.7835
iter: 161 03:01:16  -825.037675c -5.83  -4.43c   +63.7536
iter: 162 03:02:42  -825.036049c -5.95  -4.36c   +63.7941
iter: 163 03:04:09  -825.027287c -4.17  -4.54c   +64.0534
iter: 164 03:05:35  -825.035549c -4.41  -3.75    +63.8026
iter: 165 03:07:01  -825.035791c -5.71  -4.55c   +63.7976
iter: 166 03:08:27  -825.036538c -6.01  -4.60c   +63.7784
iter: 167 03:09:53  -825.030661c -4.58  -4.58c   +63.9330
iter: 168 03:11:20  -825.026125c -4.50  -3.97    +64.0577
iter: 169 03:12:46  -825.033371c -4.43  -3.68    +63.8587
iter: 170 03:14:13  -825.033645c -5.68  -4.21c   +63.8501
iter: 171 03:15:40  -825.033998c -6.20  -4.27c   +63.8374
iter: 172 03:17:06  -825.033629c -6.98  -4.35c   +63.8470
iter: 173 03:18:33  -825.030162c -4.94  -4.30c   +63.9395
iter: 174 03:20:00  -825.033341c -5.21  -3.91    +63.8532
iter: 175 03:21:27  -825.033042c -7.05  -4.23c   +63.8605
iter: 176 03:22:53  -825.033417c -6.81  -4.19c   +63.8504
iter: 177 03:24:20  -825.033716c -6.75  -4.22c   +63.8408
iter: 178 03:25:48  -825.033095c -6.48  -4.28c   +63.8573
iter: 179 03:27:14  -825.027228c -4.42  -4.18c   +64.0069
iter: 180 03:28:40  -825.036943c -4.22  -3.65    +63.7853
iter: 181 03:30:06  -825.028277c -4.38  -4.11c   +63.9706
iter: 182 03:31:31  -825.028583c -5.77  -3.74    +63.9568
iter: 183 03:32:57  -825.029464c -6.04  -3.75    +63.9157
iter: 184 03:34:22  -825.030672c -5.67  -3.79    +63.8688
iter: 185 03:35:48  -825.030982c -5.79  -3.84    +63.8482
iter: 186 03:37:13  -825.032472c -5.42  -3.74    +63.8613
iter: 187 03:38:38  -825.031160c -5.73  -3.62    +63.8414
iter: 188 03:40:04  -825.031787c -6.00  -3.88    +63.8467
iter: 189 03:41:29  -825.032235c -6.02  -4.10c   +63.8451
iter: 190 03:42:54  -825.032500c -6.20  -3.87    +63.8422
iter: 191 03:44:19  -825.033397c -6.07  -4.03c   +63.8366
iter: 192 03:45:44  -825.033050c -6.27  -4.05c   +63.8351
iter: 193 03:47:09  -825.034016c -6.24  -4.04c   +63.8282
iter: 194 03:48:34  -825.034152c -6.48  -4.21c   +63.8199
iter: 195 03:49:58  -825.035156c -5.96  -4.40c   +63.8132
iter: 196 03:51:23  -825.035380c -6.62  -4.30c   +63.8072
iter: 197 03:52:48  -825.035989c -6.44  -4.78c   +63.7979
iter: 198 03:54:14  -825.036007c -7.15  -4.71c   +63.7971
iter: 199 03:55:39  -825.037067c -6.09  -4.76c   +63.7811
iter: 200 03:57:04  -825.033760c -5.20  -4.51c   +63.8317
iter: 201 03:58:29  -825.029847c -4.77  -4.43c   +63.9032
iter: 202 03:59:54  -825.031172c -6.08  -3.97    +63.8768
iter: 203 04:01:20  -825.031730c -6.37  -4.08c   +63.8639
iter: 204 04:02:45  -825.032948c -5.82  -4.15c   +63.8411
iter: 205 04:04:11  -825.031137c -5.68  -4.33c   +63.8736
iter: 206 04:05:36  -825.031695c -6.96  -4.09c   +63.8634
iter: 207 04:07:01  -825.032183c -6.65  -4.11c   +63.8570
iter: 208 04:08:27  -825.031923c -7.47c -4.13c   +63.8594

Converged after 208 iterations.

Dipole moment: (29.584651, -3.727721, -9.886601) |e|*Ang

Total magnetic moment: (0.000000, 0.000000, 63.859395)
Local magnetic moments:
   0 Co ( 0.000000,  0.000000,  1.249448)
   1 Co ( 0.000000,  0.000000,  1.357461)
   2 Fe ( 0.000000,  0.000000,  2.313173)
   3 Al ( 0.000000,  0.000000, -0.046478)
   4 Fe ( 0.000000,  0.000000,  2.372491)
   5 Fe ( 0.000000,  0.000000,  2.382327)
   6 Fe ( 0.000000,  0.000000,  1.939656)
   7 Cr ( 0.000000,  0.000000, -2.417149)
   8 Fe ( 0.000000,  0.000000,  2.128516)
   9 Al ( 0.000000,  0.000000, -0.014310)
  10 Ni ( 0.000000,  0.000000,  0.166938)
  11 Ni ( 0.000000,  0.000000,  0.181818)
  12 Ni ( 0.000000,  0.000000,  0.163266)
  13 Al ( 0.000000,  0.000000, -0.020771)
  14 Fe ( 0.000000,  0.000000,  2.323692)
  15 Fe ( 0.000000,  0.000000, -1.772910)
  16 Co ( 0.000000,  0.000000,  1.177080)
  17 Fe ( 0.000000,  0.000000,  2.181720)
  18 Ni ( 0.000000,  0.000000,  0.211461)
  19 Fe ( 0.000000,  0.000000,  2.260916)
  20 Ni ( 0.000000,  0.000000,  0.100444)
  21 Co ( 0.000000,  0.000000,  1.186468)
  22 Al ( 0.000000,  0.000000, -0.020367)
  23 Fe ( 0.000000,  0.000000,  2.022310)
  24 Co ( 0.000000,  0.000000, -0.250258)
  25 Co ( 0.000000,  0.000000,  0.799895)
  26 Cr ( 0.000000,  0.000000,  1.114104)
  27 Ni ( 0.000000,  0.000000,  0.099405)
  28 Al ( 0.000000,  0.000000, -0.002525)
  29 Al ( 0.000000,  0.000000, -0.034115)
  30 Ni ( 0.000000,  0.000000,  0.322928)
  31 Cr ( 0.000000,  0.000000,  1.389596)
  32 Fe ( 0.000000,  0.000000,  2.035640)
  33 Cr ( 0.000000,  0.000000, -1.487228)
  34 Cr ( 0.000000,  0.000000,  0.184917)
  35 Co ( 0.000000,  0.000000,  0.940466)
  36 Cr ( 0.000000,  0.000000, -1.480954)
  37 Al ( 0.000000,  0.000000, -0.024273)
  38 Ni ( 0.000000,  0.000000,  0.105690)
  39 Co ( 0.000000,  0.000000,  1.166561)
  40 Al ( 0.000000,  0.000000, -0.041182)
  41 Cr ( 0.000000,  0.000000, -1.973513)
  42 Al ( 0.000000,  0.000000, -0.030110)
  43 Fe ( 0.000000,  0.000000,  1.837678)
  44 Al ( 0.000000,  0.000000, -0.030159)
  45 Fe ( 0.000000,  0.000000,  1.874754)
  46 Co ( 0.000000,  0.000000,  0.993002)
  47 Ni ( 0.000000,  0.000000,  0.144691)
  48 Ni ( 0.000000,  0.000000,  0.380590)
  49 Ni ( 0.000000,  0.000000,  0.307934)
  50 Co ( 0.000000,  0.000000,  1.172011)
  51 Co ( 0.000000,  0.000000,  1.258918)
  52 Co ( 0.000000,  0.000000,  1.157760)
  53 Cr ( 0.000000,  0.000000,  0.878084)
  54 Cr ( 0.000000,  0.000000, -1.377278)
  55 Cr ( 0.000000,  0.000000,  0.304512)
  56 Cr ( 0.000000,  0.000000, -1.402026)
  57 Fe ( 0.000000,  0.000000,  2.240235)
  58 Fe ( 0.000000,  0.000000,  2.178984)
  59 Co ( 0.000000,  0.000000,  1.103665)
[...]
  93 Ni ( 0.000000,  0.000000,  0.317713)
  94 Cr ( 0.000000,  0.000000,  1.384426)
  95 Al ( 0.000000,  0.000000, -0.018826)
  96 Cr ( 0.000000,  0.000000,  1.115997)
  97 Cr ( 0.000000,  0.000000, -0.810379)
  98 Co ( 0.000000,  0.000000, -0.374633)
  99 Co ( 0.000000,  0.000000,  0.957869)
 100 Fe ( 0.000000,  0.000000,  1.928620)
 101 Cr ( 0.000000,  0.000000, -2.194621)
 102 Al ( 0.000000,  0.000000, -0.033690)
 103 Fe ( 0.000000,  0.000000,  2.151547)
 104 Fe ( 0.000000,  0.000000,  2.420210)
 105 Ni ( 0.000000,  0.000000,  0.260438)
 106 Cr ( 0.000000,  0.000000, -1.347512)
 107 Co ( 0.000000,  0.000000,  0.922621)

Energy contributions relative to reference atoms: (reference = -3382523.201499)

Kinetic:       +195.028999
Potential:     -208.403874
External:        +0.000000
XC:            -842.844186
Entropy (-ST):   -4.274948
Local:          +33.324613
Free energy:   -827.169397
Extrapolated:  -825.031923

Spin contamination: 23.398079 electrons
Showing only first 2 kpts
                      Up                     Down
 Kpt  Band  Eigenvalues  Occupancy  Eigenvalues  Occupancy
  0   470      9.13617    0.99524     10.08076    0.01625
  0   471      9.14276    0.99492     10.08519    0.01555
  0   472      9.15621    0.99419     10.09256    0.01446
  0   473      9.17236    0.99318     10.11481    0.01161

  1   470      9.13761    0.99517     10.07512    0.01717
  1   471      9.15284    0.99438     10.09104    0.01468
  1   472      9.16341    0.99376     10.10632    0.01263
  1   473      9.18143    0.99253     10.11703    0.01136

Fermi level: 9.67041

No gap

Forces in eV/Ang:
  0 Co    0.08056   -0.51105    0.15672
  1 Co    0.51577   -0.30281    0.07162
  2 Fe   -0.36972   -0.21306   -0.59294
  3 Al    0.12839   -0.26932   -0.41551
  4 Fe    0.15574   -0.18909   -0.77881
  5 Fe    0.15365    0.70612   -0.17303
  6 Fe    0.18071    0.29888   -0.82708
  7 Cr   -1.03223   -0.93857   -0.90697
  8 Fe   -0.45443    0.43591   -0.45079
  9 Al   -0.23017   -0.49783   -1.20383
 10 Ni   -0.17009   -0.26807   -0.37129
 11 Ni   -0.18859   -0.38974   -0.45828
 12 Ni   -0.27693    0.60255    0.04541
 13 Al    0.84538    0.04392    0.09385
 14 Fe    0.57143    0.29888    0.96001
 15 Fe   -0.19266    0.17969   -0.36336
 16 Co    0.38084    0.12137    0.14412
 17 Fe   -0.37840   -0.84729    0.92859
 18 Ni   -0.47614   -0.09004    0.10336
 19 Fe    0.41601   -0.58432    0.17122
 20 Ni   -0.10350   -0.08381   -0.41743
 21 Co   -0.03364    0.59294    0.19808
 22 Al    0.47094   -0.05509   -0.47537
 23 Fe   -0.52993    0.69510   -0.54314
 24 Co    0.24791   -0.04758   -0.08022
 25 Co    0.21143   -0.13932   -0.22854
 26 Cr   -0.69492    0.19630   -0.16378
 27 Ni    0.77276    0.37472   -0.26607
 28 Al   -1.05345    0.14875    0.08244
 29 Al   -0.58008    0.20682   -0.91612
 30 Ni   -0.04223    0.08423    0.59070
 31 Cr    0.54957    1.02204   -0.55388
 32 Fe    0.66082   -0.07519    0.20275
 33 Cr    0.28414   -0.21153   -0.46068
 34 Cr   -0.41385    0.57286    0.00791
 35 Co   -0.09277    0.08088    0.06258
 36 Cr    0.02557   -0.66215   -0.87217
 37 Al    0.03221   -0.02560   -0.24217
 38 Ni    0.29740   -0.01100    0.10092
 39 Co    0.36296    0.49773   -0.16358
 40 Al   -0.63330    0.83703   -0.15015
 41 Cr   -0.53687    1.45143    0.03276
 42 Al    0.28182   -0.12378    0.89636
 43 Fe   -0.49897    0.54589    0.20941
 44 Al    0.98106   -0.24647    0.04900
 45 Fe    0.27201    0.75201    0.59495
 46 Co   -0.21986   -0.36912    0.03842
 47 Ni    0.02605   -0.23597    0.04529
 48 Ni    0.61026    0.33800   -0.06437
 49 Ni    0.35008    0.22924   -0.50682
 50 Co    0.69471    0.35284   -0.36583
 51 Co    1.03929   -0.07986    0.27703
 52 Co   -0.35039    0.05015    0.40957
 53 Cr    0.01191   -1.06680   -0.48354
 54 Cr   -0.10057    0.39788    0.30690
 55 Cr    0.07557   -0.69866   -0.08261
 56 Cr   -0.84901    0.76302    1.01891
 57 Fe    0.06005   -0.01711    0.00228
 58 Fe   -0.67194    0.26891    0.14396
 59 Co   -0.42176    0.53307    0.47035
[...]
 93 Ni    0.23873   -0.27192   -0.22207
 94 Cr    0.16553    0.18984    0.44502
 95 Al   -1.35478   -0.06582   -0.74442
 96 Cr    0.19611    0.36305    0.95207
 97 Cr    0.32447    0.27407    0.54565
 98 Co    0.04820    0.04304   -0.14891
 99 Co    0.20506   -0.20493    0.22124
100 Fe   -0.44640    0.54247    0.17470
101 Cr   -0.62141    0.94480    0.21345
102 Al    1.11261   -0.02051   -1.25155
103 Fe   -0.06489   -0.36823    0.48000
104 Fe    0.02529   -0.10009   -0.50723
105 Ni    0.06836    0.18085    0.02705
106 Cr   -0.61472    0.38632    0.38252
107 Co   -0.43024   -0.06152   -0.07821

Date: Sat Apr 15 04:08:45 2023