User:   c.zeng@d0075
Date:   Sat Apr 15 00:15:53 2023
Arch:   x86_64
Pid:    196234
CWD:    /home/c.zeng/projects/hea-corrosion/hea-mlp/data-curation/bulk-mcmc/dft-jobs/192
Python: 3.8.1
gpaw:   /home/c.zeng/usr/installs/gpaw/source/gpaw-22.8.0/gpaw
_gpaw:  /home/c.zeng/usr/installs/gpaw/source/gpaw-22.8.0/
        _gpaw.cpython-38-x86_64-linux-gnu.so
ase:    /home/c.zeng/.local/lib/python3.8/site-packages/ase-3.22.1-py3.8.egg/ase (version 3.22.1)
numpy:  /shared/centos7/python/3.8.1/lib/python3.8/site-packages/numpy (version 1.17.4)
scipy:  /shared/centos7/python/3.8.1/lib/python3.8/site-packages/scipy (version 1.4.1)
units:  Angstrom and eV
cores: 30
OpenMP: False
OMP_NUM_THREADS: 1

Input parameters:
  convergence: {energy: 0.0001}
  kpts: [2 2 2]
  maxiter: 666
  mode: {ecut: 350.0,
         name: pw}
  occupations: {fixmagmom: False,
                name: fermi-dirac,
                width: 0.1}
  spinpol: True
  xc: PBE

System changes: positions, numbers, cell, pbc, initial_charges, initial_magmoms

Initialize ...

species:
  Fe:
    name: Iron
    id: 37abbd8d6c3c35915a9b583b742da910
    Z: 26.0
    valence: 8
    core: 18
    charge: 0.0
    file: /home/c.zeng/usr/data/gpaw-setups-0.9.20000/Fe.PBE.gz
    compensation charges: {type: gauss,
                           rc: 0.33,
                           lmax: 2}
    cutoffs: {filter: 2.06,
              core: 2.67}
    valence states:
      #              energy  rcut
      - 4s(2.00)    -5.291   1.164
      - 4p(0.00)    -1.326   1.058
      - 3d(6.00)    -7.505   1.058
      -  s          21.920   1.164
      -  p          25.885   1.058
      -  d          19.706   1.058

    # Using partial waves for Fe as LCAO basis

  Co:
    name: Cobalt
    id: 339d20d5b0b93d2de9531a1bee871d91
    Z: 27.0
    valence: 9
    core: 18
    charge: 0.0
    file: /home/c.zeng/usr/data/gpaw-setups-0.9.20000/Co.PBE.gz
    compensation charges: {type: gauss,
                           rc: 0.32,
                           lmax: 2}
    cutoffs: {filter: 1.87,
              core: 2.55}
    valence states:
      #              energy  rcut
      - 4s(2.00)    -5.469   1.005
      - 4p(0.00)    -1.277   1.058
      - 3d(7.00)    -8.205   1.005
      -  s          21.742   1.005
      -  p          25.934   1.058
      -  d          19.007   1.005

[...]

  Al:
    name: Aluminium
    id: 0292cae29f5d6237e50f6abdd43a7bdd
    Z: 13.0
    valence: 3
    core: 10
    charge: 0.0
    file: /home/c.zeng/usr/data/gpaw-setups-0.9.20000/Al.PBE.gz
    compensation charges: {type: gauss,
                           rc: 0.34,
                           lmax: 2}
    cutoffs: {filter: 1.91,
              core: 2.36}
    valence states:
      #              energy  rcut
      - 3s(2.00)    -7.753   1.085
      - 3p(1.00)    -2.712   1.085
      -  s          19.459   1.085
      -  p          24.499   1.085
      -  d           0.000   1.085

[...]

  Cr:
    name: Chromium
    id: 33f258bda2ca9f93018e70263a35547b
    Z: 24.0
    valence: 6
    core: 18
    charge: 0.0
    file: /home/c.zeng/usr/data/gpaw-setups-0.9.20000/Cr.PBE.gz
    compensation charges: {type: gauss,
                           rc: 0.35,
                           lmax: 2}
    cutoffs: {filter: 2.14,
              core: 3.04}
    valence states:
      #              energy  rcut
      - 4s(1.00)    -4.007   1.164
      - 4p(0.00)    -0.989   1.217
      - 3d(5.00)    -2.913   1.111
      -  s          23.205   1.164
      -  p          26.223   1.217
      -  d          24.299   1.111

[...]

  Ni:
    name: Nickel
    id: 0d9f38a9d6e76a2886f07bb4381f212b
    Z: 28.0
    valence: 16
    core: 12
    charge: 0.0
    file: /home/c.zeng/usr/data/gpaw-setups-0.9.20000/Ni.PBE.gz
    compensation charges: {type: gauss,
                           rc: 0.36,
                           lmax: 2}
    cutoffs: {filter: 2.14,
              core: 1.98}
    valence states:
      #              energy  rcut
      - 4s(2.00)    -5.642   1.164
      - 3p(6.00)   -71.394   1.207
      - 4p(0.00)    -1.226   1.207
      - 3d(8.00)    -8.875   1.138
      -  s          21.570   1.164
      -  d          18.337   1.138

    # Using partial waves for Ni as LCAO basis

Reference energy: -3382523.201499  # eV

Spin-polarized calculation.
Magnetic moment: 128.800000

Convergence criteria:
 Maximum [total energy] change in last 3 cyles: 0.0001 eV / electron
 Maximum integral of absolute [dens]ity change: 0.0001 electrons / valence electron
 Maximum integral of absolute [eigenst]ate change: 4e-08 eV^2 / valence electron
 Maximum number of scf [iter]ations: 666
 (Square brackets indicate name in SCF output, whereas a 'c' in
 the SCF output indicates the quantity has converged.)

Symmetries present (total): 1

  ( 1  0  0)
  ( 0  1  0)
  ( 0  0  1)

8 k-points: 2 x 2 x 2 Monkhorst-Pack grid
4 k-points in the irreducible part of the Brillouin zone
       k-points in crystal coordinates                weights
   0:     0.25000000   -0.25000000   -0.25000000          2/8
   1:     0.25000000   -0.25000000    0.25000000          2/8
   2:     0.25000000    0.25000000   -0.25000000          2/8
   3:     0.25000000    0.25000000    0.25000000          2/8

Wave functions: Plane wave expansion
  Cutoff energy: 350.000 eV
  Number of coefficients (min, max): 18865, 18865
  Pulay-stress correction: 0.000000 eV/Ang^3 (de/decut=0.000000)
  Using FFTW library
  ScaLapack parameters: grid=1x1, blocksize=None
  Wavefunction extrapolation:
    Improved wavefunction reuse through dual PAW basis

Occupation numbers: Fermi-Dirac:
  width: 0.1000  # eV

Eigensolver
   Davidson(niter=2)

Densities:
  Coarse grid: 48*48*48 grid
  Fine grid: 96*96*96 grid
  Total Charge: 0.000000

Density mixing:
  Method: difference
  Backend: pulay
  Linear mixing parameter: 0.05
  old densities: 5
  Damping of long wavelength oscillations: 50

Hamiltonian:
  XC and Coulomb potentials evaluated on a 96*96*96 grid
  Using the PBE Exchange-Correlation functional
  External potential:
    NoExternalPotential

XC parameters: PBE with 2 nearest neighbor stencil

Total number of cores used: 30
Parallelization over k-points: 2
Domain decomposition: 5 x 3 x 1

Number of atoms: 108
Number of atomic orbitals: 961
Number of bands in calculation: 649
Number of valence electrons: 945
Bands to converge: occupied

... initialized

Initializing position-dependent things.

Density initialized from atomic densities
Creating initial wave functions:
  649 bands from LCAO basis set

       /|                     Co   |
      / |            Co Co     CrCo|
     /  |       Cr       Ni       Cr
    /   |Co       Col     FFer     |
   /i   | Coe        Fe      Fe    |
  /  CrAl   NCr       Ni           |
 *      Ni     FeCo   AlFeCrFe   Cr|
 |      |CoNi   CrNiAl   NiAlNi   Co
 | CrFe | AlNi   AlAlFe     Ni     |
 |     Co  FeCr Cr  Fe FeNi  CrNi  |
 |      FeNi   AlCr   CoCoFeNi  Co |
 |Al    |FeCr   AlCrCo   CrCo     Co
 |      .-CrCo-----NiCr-CoCoCrNi---.
 |     /   Ni Fe    Cr FeNi    Al /
 |    Co       AFei       Al     /
 |   /  Fe         Al       Cr  /
 |  /      Fe       Al       Co/
 | / Fe     Co       Ni Ni    /
 |/             Cr       Ni  /
 *--------Fe----------------*

Positions:
   0 Fe    10.764147   10.861293   10.805330    ( 0.0000,  0.0000,  2.0000)
   1 Co    10.786221    1.792513    1.813624    ( 0.0000,  0.0000,  0.0000)
   2 Fe     1.744156    0.036560    1.851269    ( 0.0000,  0.0000,  1.5000)
   3 Al     1.736571    1.831142   10.798805    ( 0.0000,  0.0000,  0.0000)
   4 Fe     3.575126    0.057318    0.061759    ( 0.0000,  0.0000,  0.0000)
   5 Fe     3.594289    1.817617    1.845577    ( 0.0000,  0.0000,  2.0000)
   6 Co     5.429813   10.817005    1.865054    ( 0.0000,  0.0000,  1.5000)
   7 Cr     5.429608    1.929425    0.057134    ( 0.0000,  0.0000,  0.0000)
   8 Co     7.316909   10.723332    0.087382    ( 0.0000,  0.0000,  0.0000)
   9 Al     7.263142    1.825786    1.869404    ( 0.0000,  0.0000,  2.1000)
  10 Ni     9.063554    0.025226    1.863474    ( 0.0000,  0.0000,  1.5000)
  11 Ni     9.049217    1.829703    0.033106    ( 0.0000,  0.0000,  2.1000)
  12 Ni     0.004792    3.558981   10.794801    ( 0.0000,  0.0000,  1.5000)
  13 Al    10.759710    5.390697    1.778165    ( 0.0000,  0.0000,  0.0000)
  14 Fe     1.733585    3.561849    1.761112    ( 0.0000,  0.0000,  2.0000)
  15 Co     1.776899    5.391834   10.795505    ( 0.0000,  0.0000,  0.0000)
  16 Co     3.565452    3.619360   10.832619    ( 0.0000,  0.0000,  2.1000)
  17 Fe     3.633221    5.394614    1.719551    ( 0.0000,  0.0000,  0.0000)
  18 Ni     5.471624    3.659114    1.836033    ( 0.0000,  0.0000,  2.1000)
  19 Co     5.440212    5.373060   -0.002773    ( 0.0000,  0.0000,  2.0000)
  20 Ni     7.258997    3.609080    0.031294    ( 0.0000,  0.0000,  0.0000)
  21 Fe     7.268941    5.378362    1.785274    ( 0.0000,  0.0000,  2.0000)
  22 Al     9.030724    3.577636    1.833728    ( 0.0000,  0.0000,  2.1000)
  23 Fe     9.040420    5.372281   10.801110    ( 0.0000,  0.0000,  0.0000)
  24 Co    10.791663    7.196206   10.792486    ( 0.0000,  0.0000,  1.5000)
  25 Co    10.758434    9.040387    1.848239    ( 0.0000,  0.0000,  0.0000)
  26 Cr     1.690487    7.202493    1.786032    ( 0.0000,  0.0000,  0.0000)
  27 Ni     1.652691    8.981047    0.027217    ( 0.0000,  0.0000,  0.0000)
  28 Al     3.631241    7.164437    0.034633    ( 0.0000,  0.0000,  0.0000)
  29 Al     3.625452    9.063759    1.801678    ( 0.0000,  0.0000,  0.0000)
  30 Ni     5.490852    7.187095    1.746342    ( 0.0000,  0.0000,  2.0000)
  31 Cr     5.426935    8.989152    0.009861    ( 0.0000,  0.0000,  2.0000)
  32 Co     7.229122    7.237075   -0.008698    ( 0.0000,  0.0000,  1.5000)
  33 Cr     7.249194    8.995850    1.810713    ( 0.0000,  0.0000,  0.0000)
  34 Cr     9.052073    7.204300    1.764218    ( 0.0000,  0.0000,  2.1000)
  35 Co     9.092553    8.989639   10.808760    ( 0.0000,  0.0000,  1.5000)
  36 Cr    -0.000975   10.826235    3.639789    ( 0.0000,  0.0000,  1.5000)
  37 Al    10.822772    1.771770    5.422044    ( 0.0000,  0.0000,  2.1000)
  38 Ni     1.754263   10.802084    5.428872    ( 0.0000,  0.0000,  2.1000)
  39 Co     1.741873    1.774270    3.610801    ( 0.0000,  0.0000,  0.0000)
  40 Al     3.591183   10.794152    3.612143    ( 0.0000,  0.0000,  2.0000)
  41 Cr     3.593088    1.736744    5.455177    ( 0.0000,  0.0000,  0.0000)
  42 Al     5.437150   10.794563    5.400804    ( 0.0000,  0.0000,  2.0000)
  43 Fe     5.451931    1.783251    3.601387    ( 0.0000,  0.0000,  1.5000)
  44 Al     7.226222    0.007781    3.626209    ( 0.0000,  0.0000,  0.0000)
  45 Co     7.236069    1.766512    5.381392    ( 0.0000,  0.0000,  2.1000)
  46 Co     9.034587   10.848850    5.403844    ( 0.0000,  0.0000,  2.1000)
  47 Ni     9.031558    1.804946    3.616730    ( 0.0000,  0.0000,  1.5000)
  48 Ni    10.773885    3.543973    3.617867    ( 0.0000,  0.0000,  1.5000)
  49 Ni    10.772186    5.358409    5.454917    ( 0.0000,  0.0000,  0.0000)
  50 Fe     1.757531    3.575678    5.428937    ( 0.0000,  0.0000,  2.1000)
  51 Fe     1.621766    5.386986    3.572550    ( 0.0000,  0.0000,  0.0000)
[...]
iter: 225 06:07:28  -825.468790c -4.08  -3.94    +57.5883
iter: 226 06:09:28  -825.462250c -4.20  -3.91    +57.8674
iter: 227 06:11:25  -825.481929c -3.71  -3.59    +57.1362
iter: 228 06:13:25  -825.394178c -2.94  -3.88    +58.8488
iter: 229 06:15:24  -825.513314  -2.73  -3.12    +56.5692
iter: 230 06:17:23  -825.661610  -2.67  -3.37    +55.0045
iter: 231 06:19:22  -825.512597  -3.09  -2.95    +56.6178
iter: 232 06:21:21  -825.517597  -4.59  -3.39    +56.5974
iter: 233 06:23:20  -825.521918c -5.67  -3.36    +56.5814
iter: 234 06:25:20  -825.520583c -4.65  -3.30    +56.5645
iter: 235 06:27:19  -825.516361c -4.85  -3.13    +56.5099
iter: 236 06:29:18  -825.515610c -5.52  -3.36    +56.4709
iter: 237 06:31:17  -825.521109c -4.75  -3.44    +56.4147
iter: 238 06:33:17  -825.518152c -5.21  -3.32    +56.3868
iter: 239 06:35:16  -825.523325c -5.31  -3.54    +56.2964
iter: 240 06:37:16  -825.523681c -5.85  -3.57    +56.2705
iter: 241 06:39:15  -825.530464c -5.36  -3.65    +56.1784
iter: 242 06:41:15  -825.520468c -5.22  -3.64    +56.2987
iter: 243 06:43:14  -825.520502c -5.40  -3.71    +56.2709
iter: 244 06:45:14  -825.526255c -5.50  -3.86    +56.1951
iter: 245 06:47:13  -825.520358c -5.60  -3.90    +56.2700
iter: 246 06:49:12  -825.501920c -4.26  -3.96    +56.5340
iter: 247 06:51:12  -825.494951c -4.38  -3.65    +56.7172
iter: 248 06:53:10  -825.491887c -4.02  -3.49    +57.0572
iter: 249 06:55:09  -825.493082c -4.85  -3.28    +57.1004
iter: 250 06:57:09  -825.495711c -4.99  -3.27    +57.1495
iter: 251 06:59:08  -825.499023c -5.65  -3.23    +57.1324
iter: 252 07:01:07  -825.495094c -5.53  -3.23    +57.1434
iter: 253 07:03:04  -825.508078c -4.25  -3.24    +57.1415
iter: 254 07:05:03  -825.485254c -4.62  -3.04    +57.1590
iter: 255 07:07:02  -825.503540c -4.22  -3.26    +57.1424
iter: 256 07:09:02  -825.477327c -4.73  -3.08    +57.1061
iter: 257 07:11:01  -825.479339c -5.29  -3.53    +57.0743
iter: 258 07:13:00  -825.480527c -5.41  -3.70    +57.0560
iter: 259 07:15:00  -825.481879c -5.40  -3.75    +56.9971
iter: 260 07:16:59  -825.481387c -5.92  -3.80    +57.0040
iter: 261 07:18:58  -825.483378c -5.77  -3.89    +56.9819
iter: 262 07:20:58  -825.483937c -6.07  -3.90    +56.9649
iter: 263 07:22:57  -825.484327c -5.91  -3.96    +56.9454
iter: 264 07:24:57  -825.486465c -5.67  -3.96    +56.8907
iter: 265 07:26:55  -825.483554c -5.71  -3.96    +56.9535
iter: 266 07:28:55  -825.475178c -4.27  -4.12c   +57.2294
iter: 267 07:30:54  -825.473014c -4.65  -3.63    +57.3605
iter: 268 07:32:53  -825.471427c -4.45  -3.52    +57.5796
iter: 269 07:34:52  -825.470942c -4.45  -3.37    +57.7853
iter: 270 07:36:52  -825.471362c -5.26  -3.28    +57.7924
iter: 271 07:38:50  -825.470491c -5.23  -3.28    +57.7865
iter: 272 07:40:49  -825.470188c -5.54  -3.25    +57.7736
iter: 273 07:42:48  -825.472054c -5.86  -3.30    +57.7632
iter: 274 07:44:47  -825.472640c -4.40  -3.29    +57.7587
iter: 275 07:46:47  -825.471876c -4.53  -3.16    +57.7703
iter: 276 07:48:46  -825.463743c -4.91  -3.19    +57.6662
iter: 277 07:50:46  -825.460773c -5.40  -3.37    +57.6572
iter: 278 07:52:45  -825.463823c -5.30  -3.60    +57.5907
iter: 279 07:54:44  -825.463570c -5.36  -3.54    +57.5895
iter: 280 07:56:43  -825.467450c -5.33  -3.63    +57.5461
iter: 281 07:58:42  -825.466374c -5.61  -3.65    +57.5308
iter: 282 08:00:41  -825.467893c -5.53  -3.85    +57.4983
iter: 283 08:02:40  -825.470088c -5.53  -3.85    +57.4632
iter: 284 08:04:39  -825.468889c -6.23  -3.82    +57.4788
iter: 285 08:06:38  -825.468169c -6.02  -3.98    +57.4782
iter: 286 08:08:38  -825.469846c -5.55  -4.01c   +57.4462
iter: 287 08:10:36  -825.469786c -6.46  -3.90    +57.4418
iter: 288 08:12:35  -825.471457c -5.94  -4.08c   +57.4111
iter: 289 08:14:35  -825.470642c -6.70  -3.97    +57.4235
iter: 290 08:16:34  -825.470155c -5.99  -3.98    +57.4419
iter: 291 08:18:33  -825.472210c -5.68  -3.95    +57.3874
iter: 292 08:20:31  -825.474334c -5.42  -3.94    +57.3221
iter: 293 08:22:29  -825.474452c -6.00  -3.90    +57.3546
iter: 294 08:24:28  -825.476882c -5.52  -3.77    +57.2791
iter: 295 08:26:27  -825.475359c -5.90  -3.76    +57.3190
iter: 296 08:28:26  -825.474925c -6.04  -3.79    +57.3208
iter: 297 08:30:25  -825.477019c -5.89  -3.98    +57.2875
iter: 298 08:32:25  -825.475824c -6.02  -3.77    +57.2770
iter: 299 08:34:24  -825.477010c -5.92  -3.98    +57.2414
iter: 300 08:36:23  -825.477042c -6.01  -4.01c   +57.2347
iter: 301 08:38:22  -825.478122c -5.96  -3.85    +57.2037
iter: 302 08:40:22  -825.477833c -6.74  -3.96    +57.2013
iter: 303 08:42:21  -825.478836c -6.15  -4.04c   +57.1708
iter: 304 08:44:19  -825.469321c -4.23  -3.98    +57.5162
iter: 305 08:46:18  -825.467059c -4.73  -3.84    +57.6333
iter: 306 08:48:17  -825.468160c -5.69  -3.81    +57.5601
iter: 307 08:50:14  -825.463496c -4.81  -4.08c   +57.7467
iter: 308 08:52:14  -825.472859c -4.32  -3.78    +57.3790
iter: 309 08:54:13  -825.457921c -4.02  -4.12c   +57.9122
iter: 310 08:56:12  -825.490212c -3.49  -3.64    +56.9653
iter: 311 08:58:12  -825.385894  -2.83  -3.53    +58.9536
iter: 312 09:00:11  -825.547336  -2.57  -3.12    +56.1515
iter: 313 09:02:10  -825.719950  -2.51  -3.14    +54.2802
iter: 314 09:04:09  -825.596136  -3.22  -2.78    +55.8604
iter: 315 09:06:08  -825.657228  -4.26  -3.03    +55.5296
iter: 316 09:08:07  -825.604286c -4.16  -2.94    +55.8822
iter: 317 09:10:06  -825.580541c -4.64  -3.02    +55.8915
iter: 318 09:12:05  -825.611194c -4.29  -3.06    +55.8033
iter: 319 09:14:05  -825.595881c -4.31  -2.92    +55.7650
iter: 320 09:16:04  -825.594528c -4.62  -3.00    +55.7030
iter: 321 09:18:03  -825.590917c -4.15  -3.06    +55.6346
iter: 322 09:20:02  -825.591382c -4.77  -3.16    +55.5373
iter: 323 09:22:01  -825.603290c -4.85  -3.27    +55.3215
iter: 324 09:24:00  -825.622225c -4.65  -3.32    +55.0840
iter: 325 09:26:00  -825.662990c -3.97  -3.30    +54.5088
iter: 326 09:27:59  -825.691282c -3.81  -3.17    +53.9839
iter: 327 09:29:58  -825.689453c -4.84  -3.03    +54.1082
iter: 328 09:31:56  -825.695288c -4.79  -3.05    +54.0905
iter: 329 09:33:55  -825.690844c -5.13  -3.02    +54.0987
iter: 330 09:35:54  -825.693476c -4.54  -3.05    +54.0858
iter: 331 09:37:53  -825.688358c -3.91  -2.95    +54.0883
iter: 332 09:39:49  -825.665410c -4.35  -2.97    +54.1137
iter: 333 09:41:49  -825.657965c -5.18  -3.11    +54.0871
iter: 334 09:43:47  -825.658934c -5.04  -3.28    +54.1168
iter: 335 09:45:46  -825.662686c -4.66  -3.27    +54.1289
iter: 336 09:47:46  -825.659735c -5.04  -3.29    +54.1680
iter: 337 09:49:44  -825.660769c -5.24  -3.42    +54.1924
iter: 338 09:51:44  -825.661127c -5.21  -3.43    +54.1974
iter: 339 09:53:43  -825.659744c -5.39  -3.45    +54.2188
iter: 340 09:55:42  -825.660657c -5.77  -3.56    +54.2302
iter: 341 09:57:42  -825.660304c -6.12  -3.66    +54.2383
iter: 342 09:59:41  -825.661412c -5.82  -3.72    +54.2527
iter: 343 10:01:40  -825.661241c -6.07  -3.68    +54.2525
iter: 344 10:03:39  -825.661726c -5.88  -3.74    +54.2569
iter: 345 10:05:38  -825.661170c -6.22  -3.77    +54.2592
iter: 346 10:07:37  -825.662101c -6.08  -3.88    +54.2716
iter: 347 10:09:36  -825.661536c -6.44  -3.90    +54.2666
iter: 348 10:11:35  -825.661475c -6.25  -3.94    +54.2691
iter: 349 10:13:32  -825.662014c -6.40  -3.99    +54.2694
iter: 350 10:15:31  -825.662655c -6.19  -4.00c   +54.2718
iter: 351 10:17:30  -825.662228c -6.92  -4.02c   +54.2706
iter: 352 10:19:29  -825.662540c -6.48  -4.08c   +54.2787
iter: 353 10:21:28  -825.662856c -6.06  -4.03c   +54.2791
iter: 354 10:23:28  -825.663677c -6.32  -4.02c   +54.2796
iter: 355 10:25:27  -825.663618c -6.67  -4.08c   +54.2777
iter: 356 10:27:26  -825.664829c -5.95  -4.19c   +54.2677
iter: 357 10:29:25  -825.664344c -6.77  -4.01c   +54.2762
iter: 358 10:31:24  -825.664982c -6.29  -4.18c   +54.2814
iter: 359 10:33:23  -825.665084c -6.47  -4.07c   +54.2671
iter: 360 10:35:22  -825.665917c -6.31  -4.29c   +54.2563
iter: 361 10:37:21  -825.664391c -6.22  -4.20c   +54.2819
iter: 362 10:39:19  -825.658210c -4.54  -4.31c   +54.4505
iter: 363 10:41:18  -825.657170c -4.92  -3.94    +54.5374
iter: 364 10:43:16  -825.657310c -5.58  -3.81    +54.5681
iter: 365 10:45:15  -825.657587c -6.03  -3.78    +54.5921
iter: 366 10:47:14  -825.657669c -6.41  -3.76    +54.6053
iter: 367 10:49:13  -825.659127c -5.58  -3.76    +54.6732
iter: 368 10:51:12  -825.657810c -5.70  -3.54    +54.6202
iter: 369 10:53:11  -825.659064c -5.39  -3.65    +54.6521
iter: 370 10:55:10  -825.658255c -5.26  -3.55    +54.6424
iter: 371 10:57:10  -825.656752c -5.73  -3.56    +54.6576
iter: 372 10:59:09  -825.656299c -6.30  -3.79    +54.6498
iter: 373 11:01:08  -825.657139c -5.96  -3.94    +54.6555
iter: 374 11:03:07  -825.656664c -6.06  -3.83    +54.6510
iter: 375 11:05:06  -825.656378c -6.13  -3.90    +54.6487
iter: 376 11:07:05  -825.656369c -6.28  -3.92    +54.6479
iter: 377 11:09:05  -825.656677c -6.47  -4.14c   +54.6441
iter: 378 11:11:03  -825.656552c -6.64  -4.07c   +54.6467
iter: 379 11:13:02  -825.656536c -6.78  -4.14c   +54.6366
iter: 380 11:15:01  -825.656752c -7.10  -4.27c   +54.6345
iter: 381 11:16:58  -825.656805c -6.82  -4.29c   +54.6288
iter: 382 11:18:56  -825.656854c -7.18  -4.31c   +54.6276
iter: 383 11:20:55  -825.657180c -6.82  -4.42c   +54.6211
iter: 384 11:22:54  -825.657011c -7.06  -4.42c   +54.6221
iter: 385 11:24:53  -825.657187c -6.97  -4.46c   +54.6139
iter: 386 11:26:52  -825.657106c -7.73c -4.62c   +54.6150

Converged after 386 iterations.

Dipole moment: (29.452083, -2.405698, -10.286088) |e|*Ang

Total magnetic moment: (0.000000, 0.000000, 54.615027)
Local magnetic moments:
   0 Fe ( 0.000000,  0.000000,  2.210942)
   1 Co ( 0.000000,  0.000000,  1.317438)
   2 Fe ( 0.000000,  0.000000,  2.272182)
   3 Al ( 0.000000,  0.000000, -0.052581)
   4 Fe ( 0.000000,  0.000000,  2.398994)
   5 Fe ( 0.000000,  0.000000,  2.407124)
   6 Co ( 0.000000,  0.000000,  0.959809)
   7 Cr ( 0.000000,  0.000000, -2.473284)
   8 Co ( 0.000000,  0.000000,  1.031754)
   9 Al ( 0.000000,  0.000000, -0.006296)
  10 Ni ( 0.000000,  0.000000,  0.158301)
  11 Ni ( 0.000000,  0.000000,  0.105393)
  12 Ni ( 0.000000,  0.000000,  0.255960)
  13 Al ( 0.000000,  0.000000, -0.025135)
  14 Fe ( 0.000000,  0.000000,  2.343936)
  15 Co ( 0.000000,  0.000000,  0.900573)
  16 Co ( 0.000000,  0.000000,  1.298336)
  17 Fe ( 0.000000,  0.000000,  2.302016)
  18 Ni ( 0.000000,  0.000000,  0.228364)
  19 Co ( 0.000000,  0.000000,  1.080880)
  20 Ni ( 0.000000,  0.000000,  0.086693)
  21 Fe ( 0.000000,  0.000000,  2.245244)
  22 Al ( 0.000000,  0.000000, -0.022267)
  23 Fe ( 0.000000,  0.000000,  2.058541)
  24 Co ( 0.000000,  0.000000,  0.369734)
  25 Co ( 0.000000,  0.000000,  1.038534)
  26 Cr ( 0.000000,  0.000000, -1.819852)
  27 Ni ( 0.000000,  0.000000,  0.086397)
  28 Al ( 0.000000,  0.000000, -0.005842)
  29 Al ( 0.000000,  0.000000, -0.028662)
  30 Ni ( 0.000000,  0.000000,  0.293956)
  31 Cr ( 0.000000,  0.000000,  1.756685)
  32 Co ( 0.000000,  0.000000,  0.916134)
  33 Cr ( 0.000000,  0.000000, -1.343115)
  34 Cr ( 0.000000,  0.000000, -1.585073)
  35 Co ( 0.000000,  0.000000,  1.012447)
  36 Cr ( 0.000000,  0.000000, -1.472049)
  37 Al ( 0.000000,  0.000000, -0.027228)
  38 Ni ( 0.000000,  0.000000,  0.095790)
  39 Co ( 0.000000,  0.000000,  1.065551)
  40 Al ( 0.000000,  0.000000, -0.028943)
  41 Cr ( 0.000000,  0.000000, -1.985822)
  42 Al ( 0.000000,  0.000000, -0.026464)
  43 Fe ( 0.000000,  0.000000,  1.912428)
  44 Al ( 0.000000,  0.000000, -0.025094)
  45 Co ( 0.000000,  0.000000,  0.766569)
  46 Co ( 0.000000,  0.000000,  0.820441)
  47 Ni ( 0.000000,  0.000000,  0.119991)
  48 Ni ( 0.000000,  0.000000,  0.362950)
  49 Ni ( 0.000000,  0.000000,  0.283690)
  50 Fe ( 0.000000,  0.000000,  2.350989)
  51 Fe ( 0.000000,  0.000000,  2.294845)
  52 Co ( 0.000000,  0.000000,  1.157043)
  53 Cr ( 0.000000,  0.000000, -1.908431)
  54 Cr ( 0.000000,  0.000000,  0.667892)
  55 Cr ( 0.000000,  0.000000, -0.250916)
  56 Cr ( 0.000000,  0.000000, -1.506372)
  57 Fe ( 0.000000,  0.000000,  2.178957)
  58 Fe ( 0.000000,  0.000000,  2.209729)
  59 Co ( 0.000000,  0.000000,  1.064796)
[...]
  93 Ni ( 0.000000,  0.000000,  0.289513)
  94 Cr ( 0.000000,  0.000000,  1.319026)
  95 Al ( 0.000000,  0.000000, -0.018122)
  96 Cr ( 0.000000,  0.000000,  0.999692)
  97 Cr ( 0.000000,  0.000000, -0.601890)
  98 Co ( 0.000000,  0.000000, -0.063990)
  99 Fe ( 0.000000,  0.000000,  1.918607)
 100 Fe ( 0.000000,  0.000000,  1.866977)
 101 Cr ( 0.000000,  0.000000, -2.264123)
 102 Al ( 0.000000,  0.000000, -0.023318)
 103 Fe ( 0.000000,  0.000000,  2.122481)
 104 Fe ( 0.000000,  0.000000,  2.391134)
 105 Ni ( 0.000000,  0.000000,  0.303450)
 106 Cr ( 0.000000,  0.000000, -1.374912)
 107 Fe ( 0.000000,  0.000000,  1.989324)

Energy contributions relative to reference atoms: (reference = -3382523.201499)

Kinetic:       +222.202560
Potential:     -230.258376
External:        +0.000000
XC:            -848.735186
Entropy (-ST):   -4.257748
Local:          +33.262769
Free energy:   -827.785980
Extrapolated:  -825.657106

Spin contamination: 31.394269 electrons
Showing only first 2 kpts
                      Up                     Down
 Kpt  Band  Eigenvalues  Occupancy  Eigenvalues  Occupancy
  0   470      9.17025    0.99453     10.00392    0.04174
  0   471      9.17413    0.99432     10.02605    0.03374
  0   472      9.20278    0.99244     10.03121    0.03209
  0   473      9.21479    0.99149     10.05177    0.02629

  1   470      9.16178    0.99497     10.02055    0.03557
  1   471      9.17112    0.99448     10.02664    0.03354
  1   472      9.20010    0.99264     10.03171    0.03194
  1   473      9.20670    0.99214     10.04986    0.02678

Fermi level: 9.69056

No gap

Forces in eV/Ang:
  0 Fe   -0.07091   -0.56896    0.32232
  1 Co    0.51275   -0.26335    0.16172
  2 Fe   -0.26314   -0.17082   -0.45347
  3 Al    0.27856   -0.04047   -0.21811
  4 Fe    0.35759   -0.12853   -0.70333
  5 Fe    0.20707    0.60688   -0.14301
  6 Co    0.22171    0.20000   -0.53273
  7 Cr   -1.13488   -1.00387   -0.83870
  8 Co   -0.56959    0.28648   -0.56375
  9 Al   -0.30569   -0.79441   -1.42083
 10 Ni   -0.23489   -0.26690   -0.35753
 11 Ni   -0.24725   -0.20817   -0.41866
 12 Ni   -0.29692    0.60457    0.08569
 13 Al    0.74414   -0.11477   -0.23564
 14 Fe    0.50930    0.22842    0.84706
 15 Co   -0.17589    0.00247   -0.01677
 16 Co    0.39674    0.18282    0.24790
 17 Fe   -0.23488   -0.82440    0.65526
 18 Ni   -0.53125   -0.13699    0.06710
 19 Co    0.03173   -0.23913    0.11048
 20 Ni   -0.17808   -0.00774   -0.43628
 21 Fe   -0.24236    0.62918    0.15718
 22 Al    0.62708   -0.20842   -0.50729
 23 Fe   -0.40637    0.82304   -0.63085
 24 Co    0.38758   -0.14881   -0.16020
 25 Co    0.32828   -0.24741   -0.27057
 26 Cr   -0.68682    0.07863    0.06850
 27 Ni    0.75376    0.32381   -0.27262
 28 Al   -0.98571    0.04687    0.06054
 29 Al   -0.39606    0.42744   -0.98237
 30 Ni   -0.15941    0.11241    0.49401
 31 Cr    0.90120    1.35857   -0.45815
 32 Co    0.53372   -0.24577    0.16834
 33 Cr    0.03185    0.05486   -0.57044
 34 Cr   -0.45706    0.49423   -0.11160
 35 Co   -0.32463    0.07959    0.15883
 36 Cr    0.05750   -0.69324   -0.92227
 37 Al    0.02598   -0.21468   -0.08026
 38 Ni    0.35460    0.05647    0.12227
 39 Co    0.31735    0.55105   -0.25395
 40 Al   -0.57950    1.04706   -0.39669
 41 Cr   -0.50926    1.45240    0.12372
 42 Al    0.35832    0.19928    0.82237
 43 Fe   -0.49189    0.63568    0.20042
 44 Al    0.91271   -0.12123    0.13289
 45 Co    0.07362    0.42956    0.41024
 46 Co   -0.07415   -0.23302   -0.04035
 47 Ni   -0.11193   -0.19612    0.02820
 48 Ni    0.52409    0.29714   -0.06683
 49 Ni    0.25011    0.30630   -0.45961
 50 Fe    0.82241    0.34589   -0.28310
 51 Fe    1.11057   -0.02076    0.35736
 52 Co   -0.23072    0.03774    0.16873
 53 Cr   -0.13056   -0.88563   -0.12417
 54 Cr   -0.07423    0.34149    0.03041
 55 Cr    0.04346   -0.69700    0.05858
 56 Cr   -0.93009    0.55104    1.33393
 57 Fe    0.20309    0.25883   -0.14413
 58 Fe   -0.56827    0.10668    0.11890
 59 Co   -0.28404    0.61314    0.46137
[...]
 93 Ni    0.30462   -0.21733   -0.15228
 94 Cr    0.31980    0.21588    0.39035
 95 Al   -1.23813    0.06343   -0.75121
 96 Cr    0.12496    0.17920    0.79080
 97 Cr    0.65326   -0.23122    0.59318
 98 Co    0.08535    0.21526   -0.08661
 99 Fe    0.33588   -0.10429    0.17256
100 Fe   -0.49402    0.44719    0.07845
101 Cr   -0.43871    0.95115    0.31351
102 Al    1.38084   -0.15086   -1.00600
103 Fe   -0.29863   -0.34053    0.51388
104 Fe   -0.19966   -0.21974   -0.45887
105 Ni   -0.02170    0.21839    0.20935
106 Cr   -0.81454    0.45043    0.55112
107 Fe   -0.30956    0.01493   -0.35280

Date: Sat Apr 15 11:27:14 2023