User:   c.zeng@d0147
Date:   Fri Apr 14 20:07:17 2023
Arch:   x86_64
Pid:    48624
CWD:    /home/c.zeng/projects/hea-corrosion/hea-mlp/data-curation/bulk-mcmc/dft-jobs/163
Python: 3.8.1
gpaw:   /home/c.zeng/usr/installs/gpaw/source/gpaw-22.8.0/gpaw
_gpaw:  /home/c.zeng/usr/installs/gpaw/source/gpaw-22.8.0/
        _gpaw.cpython-38-x86_64-linux-gnu.so
ase:    /home/c.zeng/.local/lib/python3.8/site-packages/ase-3.22.1-py3.8.egg/ase (version 3.22.1)
numpy:  /shared/centos7/python/3.8.1/lib/python3.8/site-packages/numpy (version 1.17.4)
scipy:  /shared/centos7/python/3.8.1/lib/python3.8/site-packages/scipy (version 1.4.1)
units:  Angstrom and eV
cores: 30
OpenMP: False
OMP_NUM_THREADS: 1

Input parameters:
  convergence: {energy: 0.0001}
  kpts: [2 2 2]
  maxiter: 666
  mode: {ecut: 350.0,
         name: pw}
  occupations: {fixmagmom: False,
                name: fermi-dirac,
                width: 0.1}
  spinpol: True
  xc: PBE

System changes: positions, numbers, cell, pbc, initial_charges, initial_magmoms

Initialize ...

species:
  Fe:
    name: Iron
    id: 37abbd8d6c3c35915a9b583b742da910
    Z: 26.0
    valence: 8
    core: 18
    charge: 0.0
    file: /home/c.zeng/usr/data/gpaw-setups-0.9.20000/Fe.PBE.gz
    compensation charges: {type: gauss,
                           rc: 0.33,
                           lmax: 2}
    cutoffs: {filter: 2.06,
              core: 2.67}
    valence states:
      #              energy  rcut
      - 4s(2.00)    -5.291   1.164
      - 4p(0.00)    -1.326   1.058
      - 3d(6.00)    -7.505   1.058
      -  s          21.920   1.164
      -  p          25.885   1.058
      -  d          19.706   1.058

    # Using partial waves for Fe as LCAO basis

  Co:
    name: Cobalt
    id: 339d20d5b0b93d2de9531a1bee871d91
    Z: 27.0
    valence: 9
    core: 18
    charge: 0.0
    file: /home/c.zeng/usr/data/gpaw-setups-0.9.20000/Co.PBE.gz
    compensation charges: {type: gauss,
                           rc: 0.32,
                           lmax: 2}
    cutoffs: {filter: 1.87,
              core: 2.55}
    valence states:
      #              energy  rcut
      - 4s(2.00)    -5.469   1.005
      - 4p(0.00)    -1.277   1.058
      - 3d(7.00)    -8.205   1.005
      -  s          21.742   1.005
      -  p          25.934   1.058
      -  d          19.007   1.005

[...]

  Al:
    name: Aluminium
    id: 0292cae29f5d6237e50f6abdd43a7bdd
    Z: 13.0
    valence: 3
    core: 10
    charge: 0.0
    file: /home/c.zeng/usr/data/gpaw-setups-0.9.20000/Al.PBE.gz
    compensation charges: {type: gauss,
                           rc: 0.34,
                           lmax: 2}
    cutoffs: {filter: 1.91,
              core: 2.36}
    valence states:
      #              energy  rcut
      - 3s(2.00)    -7.753   1.085
      - 3p(1.00)    -2.712   1.085
      -  s          19.459   1.085
      -  p          24.499   1.085
      -  d           0.000   1.085

[...]

  Cr:
    name: Chromium
    id: 33f258bda2ca9f93018e70263a35547b
    Z: 24.0
    valence: 6
    core: 18
    charge: 0.0
    file: /home/c.zeng/usr/data/gpaw-setups-0.9.20000/Cr.PBE.gz
    compensation charges: {type: gauss,
                           rc: 0.35,
                           lmax: 2}
    cutoffs: {filter: 2.14,
              core: 3.04}
    valence states:
      #              energy  rcut
      - 4s(1.00)    -4.007   1.164
      - 4p(0.00)    -0.989   1.217
      - 3d(5.00)    -2.913   1.111
      -  s          23.205   1.164
      -  p          26.223   1.217
      -  d          24.299   1.111

[...]

  Ni:
    name: Nickel
    id: 0d9f38a9d6e76a2886f07bb4381f212b
    Z: 28.0
    valence: 16
    core: 12
    charge: 0.0
    file: /home/c.zeng/usr/data/gpaw-setups-0.9.20000/Ni.PBE.gz
    compensation charges: {type: gauss,
                           rc: 0.36,
                           lmax: 2}
    cutoffs: {filter: 2.14,
              core: 1.98}
    valence states:
      #              energy  rcut
      - 4s(2.00)    -5.642   1.164
      - 3p(6.00)   -71.394   1.207
      - 4p(0.00)    -1.226   1.207
      - 3d(8.00)    -8.875   1.138
      -  s          21.570   1.164
      -  d          18.337   1.138

    # Using partial waves for Ni as LCAO basis

Reference energy: -3382523.201499  # eV

Spin-polarized calculation.
Magnetic moment: 128.800000

Convergence criteria:
 Maximum [total energy] change in last 3 cyles: 0.0001 eV / electron
 Maximum integral of absolute [dens]ity change: 0.0001 electrons / valence electron
 Maximum integral of absolute [eigenst]ate change: 4e-08 eV^2 / valence electron
 Maximum number of scf [iter]ations: 666
 (Square brackets indicate name in SCF output, whereas a 'c' in
 the SCF output indicates the quantity has converged.)

Symmetries present (total): 1

  ( 1  0  0)
  ( 0  1  0)
  ( 0  0  1)

8 k-points: 2 x 2 x 2 Monkhorst-Pack grid
4 k-points in the irreducible part of the Brillouin zone
       k-points in crystal coordinates                weights
   0:     0.25000000   -0.25000000   -0.25000000          2/8
   1:     0.25000000   -0.25000000    0.25000000          2/8
   2:     0.25000000    0.25000000   -0.25000000          2/8
   3:     0.25000000    0.25000000    0.25000000          2/8

Wave functions: Plane wave expansion
  Cutoff energy: 350.000 eV
  Number of coefficients (min, max): 18865, 18865
  Pulay-stress correction: 0.000000 eV/Ang^3 (de/decut=0.000000)
  Using FFTW library
  ScaLapack parameters: grid=1x1, blocksize=None
  Wavefunction extrapolation:
    Improved wavefunction reuse through dual PAW basis

Occupation numbers: Fermi-Dirac:
  width: 0.1000  # eV

Eigensolver
   Davidson(niter=2)

Densities:
  Coarse grid: 48*48*48 grid
  Fine grid: 96*96*96 grid
  Total Charge: 0.000000

Density mixing:
  Method: difference
  Backend: pulay
  Linear mixing parameter: 0.05
  old densities: 5
  Damping of long wavelength oscillations: 50

Hamiltonian:
  XC and Coulomb potentials evaluated on a 96*96*96 grid
  Using the PBE Exchange-Correlation functional
  External potential:
    NoExternalPotential

XC parameters: PBE with 2 nearest neighbor stencil

Total number of cores used: 30
Parallelization over k-points: 2
Domain decomposition: 5 x 3 x 1

Number of atoms: 108
Number of atomic orbitals: 961
Number of bands in calculation: 649
Number of valence electrons: 945
Bands to converge: occupied

... initialized

Initializing position-dependent things.

Density initialized from atomic densities
Creating initial wave functions:
  649 bands from LCAO basis set

       /|                     Fe   |
      / |            Co Fe     CrCo|
     /  |       Cr       Ni       Cr
    /   |Fe       Col     FCor     |
   /i   | Coe        Co      Co    |
  /  CrAl   NCr       Ni           |
 *      Ni     FeCo   AlFeCrFe   Cr|
 |      |FeNi   CrNiAl   NiAlNi   Co
 | CrCo | AlNi   AlAlCo     Ni     |
 |     Fe  CoCr Cr  Fe CoNi  CrNi  |
 |      CoNi   AlCr   FeFeCoNi  Co |
 |Al    |FeCr   AlCrFe   CrFe     Co
 |      .-CrCo-----NiCr-FeFeCrNi---.
 |     /   Ni Fe    Cr CoNi    Al /
 |    Fe       ACoi       Al     /
 |   /  Fe         Al       Cr  /
 |  /      Co       Al       Co/
 | / Fe     Co       Ni Ni    /
 |/             Cr       Ni  /
 *--------Fe----------------*

Positions:
   0 Fe    10.764147   10.861293   10.805330    ( 0.0000,  0.0000,  2.0000)
   1 Co    10.786221    1.792513    1.813624    ( 0.0000,  0.0000,  0.0000)
   2 Fe     1.744156    0.036560    1.851269    ( 0.0000,  0.0000,  1.5000)
   3 Al     1.736571    1.831142   10.798805    ( 0.0000,  0.0000,  0.0000)
   4 Fe     3.575126    0.057318    0.061759    ( 0.0000,  0.0000,  0.0000)
   5 Co     3.594289    1.817617    1.845577    ( 0.0000,  0.0000,  2.0000)
   6 Fe     5.429813   10.817005    1.865054    ( 0.0000,  0.0000,  1.5000)
   7 Cr     5.429608    1.929425    0.057134    ( 0.0000,  0.0000,  0.0000)
   8 Fe     7.316909   10.723332    0.087382    ( 0.0000,  0.0000,  0.0000)
   9 Al     7.263142    1.825786    1.869404    ( 0.0000,  0.0000,  2.1000)
  10 Ni     9.063554    0.025226    1.863474    ( 0.0000,  0.0000,  1.5000)
  11 Ni     9.049217    1.829703    0.033106    ( 0.0000,  0.0000,  2.1000)
  12 Ni     0.004792    3.558981   10.794801    ( 0.0000,  0.0000,  1.5000)
  13 Al    10.759710    5.390697    1.778165    ( 0.0000,  0.0000,  0.0000)
  14 Fe     1.733585    3.561849    1.761112    ( 0.0000,  0.0000,  2.0000)
  15 Fe     1.776899    5.391834   10.795505    ( 0.0000,  0.0000,  0.0000)
  16 Co     3.565452    3.619360   10.832619    ( 0.0000,  0.0000,  2.1000)
  17 Fe     3.633221    5.394614    1.719551    ( 0.0000,  0.0000,  0.0000)
  18 Ni     5.471624    3.659114    1.836033    ( 0.0000,  0.0000,  2.1000)
  19 Co     5.440212    5.373060   -0.002773    ( 0.0000,  0.0000,  2.0000)
  20 Ni     7.258997    3.609080    0.031294    ( 0.0000,  0.0000,  0.0000)
  21 Co     7.268941    5.378362    1.785274    ( 0.0000,  0.0000,  2.0000)
  22 Al     9.030724    3.577636    1.833728    ( 0.0000,  0.0000,  2.1000)
  23 Co     9.040420    5.372281   10.801110    ( 0.0000,  0.0000,  0.0000)
  24 Co    10.791663    7.196206   10.792486    ( 0.0000,  0.0000,  1.5000)
  25 Co    10.758434    9.040387    1.848239    ( 0.0000,  0.0000,  0.0000)
  26 Cr     1.690487    7.202493    1.786032    ( 0.0000,  0.0000,  0.0000)
  27 Ni     1.652691    8.981047    0.027217    ( 0.0000,  0.0000,  0.0000)
  28 Al     3.631241    7.164437    0.034633    ( 0.0000,  0.0000,  0.0000)
  29 Al     3.625452    9.063759    1.801678    ( 0.0000,  0.0000,  0.0000)
  30 Ni     5.490852    7.187095    1.746342    ( 0.0000,  0.0000,  2.0000)
  31 Cr     5.426935    8.989152    0.009861    ( 0.0000,  0.0000,  2.0000)
  32 Fe     7.229122    7.237075   -0.008698    ( 0.0000,  0.0000,  1.5000)
  33 Cr     7.249194    8.995850    1.810713    ( 0.0000,  0.0000,  0.0000)
  34 Cr     9.052073    7.204300    1.764218    ( 0.0000,  0.0000,  2.1000)
  35 Fe     9.092553    8.989639   10.808760    ( 0.0000,  0.0000,  1.5000)
  36 Cr    -0.000975   10.826235    3.639789    ( 0.0000,  0.0000,  1.5000)
  37 Al    10.822772    1.771770    5.422044    ( 0.0000,  0.0000,  2.1000)
  38 Ni     1.754263   10.802084    5.428872    ( 0.0000,  0.0000,  2.1000)
  39 Fe     1.741873    1.774270    3.610801    ( 0.0000,  0.0000,  0.0000)
  40 Al     3.591183   10.794152    3.612143    ( 0.0000,  0.0000,  2.0000)
  41 Cr     3.593088    1.736744    5.455177    ( 0.0000,  0.0000,  0.0000)
  42 Al     5.437150   10.794563    5.400804    ( 0.0000,  0.0000,  2.0000)
  43 Co     5.451931    1.783251    3.601387    ( 0.0000,  0.0000,  1.5000)
  44 Al     7.226222    0.007781    3.626209    ( 0.0000,  0.0000,  0.0000)
  45 Fe     7.236069    1.766512    5.381392    ( 0.0000,  0.0000,  2.1000)
  46 Fe     9.034587   10.848850    5.403844    ( 0.0000,  0.0000,  2.1000)
  47 Ni     9.031558    1.804946    3.616730    ( 0.0000,  0.0000,  1.5000)
  48 Ni    10.773885    3.543973    3.617867    ( 0.0000,  0.0000,  1.5000)
  49 Ni    10.772186    5.358409    5.454917    ( 0.0000,  0.0000,  0.0000)
  50 Co     1.757531    3.575678    5.428937    ( 0.0000,  0.0000,  2.1000)
  51 Fe     1.621766    5.386986    3.572550    ( 0.0000,  0.0000,  0.0000)
[...]
  57 Co     7.248707    5.410715    5.362099    ( 0.0000,  0.0000,  1.5000)
  58 Co     9.058230    3.565236    5.380082    ( 0.0000,  0.0000,  2.1000)
  59 Fe     9.074071    5.365323    3.589008    ( 0.0000,  0.0000,  2.1000)
[...]
  93 Ni     7.211073    5.388295    9.040181    ( 0.0000,  0.0000,  0.0000)
  94 Cr     9.095052    3.598119    8.980636    ( 0.0000,  0.0000,  2.0000)
  95 Al     9.078205    5.402416    7.227759    ( 0.0000,  0.0000,  0.0000)
  96 Cr    10.763411    7.244682    7.260285    ( 0.0000,  0.0000,  1.5000)
  97 Cr    10.795093    9.034566    8.977574    ( 0.0000,  0.0000,  2.0000)
  98 Co     1.740045    7.178947    8.984662    ( 0.0000,  0.0000,  2.1000)
  99 Fe     1.734429    9.080207    7.236696    ( 0.0000,  0.0000,  1.5000)
 100 Fe     3.580482    7.154277    7.248285    ( 0.0000,  0.0000,  0.0000)
 101 Cr     3.612835    8.970898    8.958086    ( 0.0000,  0.0000,  0.0000)
 102 Al     5.410943    7.155878    9.067049    ( 0.0000,  0.0000,  0.0000)
 103 Co     5.466441    9.064062    7.220963    ( 0.0000,  0.0000,  2.1000)
 104 Fe     7.307203    7.271549    7.289738    ( 0.0000,  0.0000,  0.0000)
 105 Ni     7.271073    9.044683    9.027879    ( 0.0000,  0.0000,  1.5000)
 106 Cr     9.081743    7.219805    9.041166    ( 0.0000,  0.0000,  2.1000)
 107 Co     9.063684    9.083009    7.213865    ( 0.0000,  0.0000,  2.0000)

Unit cell:
           periodic     x           y           z      points  spacing
  1. axis:    yes   10.820500    0.000000    0.000000    48     0.2254
  2. axis:    yes    0.000000   10.820500    0.000000    48     0.2254
  3. axis:    yes    0.000000    0.000000   10.820500    48     0.2254

  Lengths:  10.820500  10.820500  10.820500
  Angles:   90.000000  90.000000  90.000000

Effective grid spacing dv^(1/3) = 0.2254

     iter     time        total  log10-change:  magmom
                         energy  eigst   dens
iter:   1 20:11:18  -894.577943                  +128.4417
iter:   2 20:12:53  -865.234717  -0.40  -1.31    +95.2891
iter:   3 20:14:29  -844.049011  -0.94  -1.28    +67.4811
iter:   4 20:16:05  -832.748236  -1.27  -1.37    +56.7150
iter:   5 20:17:41  -826.073352  -1.81  -1.40    +51.5855
iter:   6 20:19:17  -826.919663  -1.99  -1.46    +49.3572
iter:   7 20:20:53  -824.980113  -1.71  -1.49    +47.7730
iter:   8 20:22:29  -826.655604  -1.74  -1.55    +47.5263
iter:   9 20:24:05  -827.970478  -1.78  -1.62    +47.6519
iter:  10 20:25:40  -822.008792  -2.00  -1.65    +47.1487
iter:  11 20:27:16  -823.712382  -2.31  -1.83    +47.8859
iter:  12 20:28:52  -822.654629  -2.40  -1.82    +48.6771
iter:  13 20:30:28  -822.724320  -2.68  -1.89    +49.7197
iter:  14 20:32:04  -823.656016  -2.54  -1.95    +50.6863
iter:  15 20:33:43  -823.938438  -2.53  -1.97    +51.6186
iter:  16 20:35:21  -824.647663  -2.48  -1.99    +53.0223
iter:  17 20:36:57  -823.467575  -2.79  -2.00    +53.5802
iter:  18 20:38:33  -824.058069  -2.90  -2.18    +54.8035
iter:  19 20:40:09  -824.063956  -3.04  -2.18    +55.5537
iter:  20 20:41:45  -824.054930c -3.26  -2.23    +56.4015
iter:  21 20:43:21  -824.396222  -2.97  -2.33    +57.6614
iter:  22 20:44:56  -824.432273  -3.37  -2.40    +58.1813
iter:  23 20:46:32  -824.576320  -3.34  -2.44    +58.7406
iter:  24 20:48:08  -824.613336  -3.50  -2.46    +59.4014
iter:  25 20:49:44  -824.721581  -3.65  -2.54    +59.8857
iter:  26 20:51:20  -824.778120  -3.68  -2.54    +60.4282
iter:  27 20:52:55  -824.840464  -3.84  -2.57    +60.7371
iter:  28 20:54:31  -824.920673  -3.73  -2.60    +61.0436
iter:  29 20:56:07  -824.911053c -3.98  -2.61    +61.1215
iter:  30 20:57:42  -824.942197c -4.01  -2.69    +61.3175
iter:  31 20:59:18  -824.990680c -4.00  -2.76    +61.5346
iter:  32 21:00:54  -825.003484c -4.43  -2.78    +61.6636
iter:  33 21:02:29  -825.054786c -4.24  -2.85    +61.8845
iter:  34 21:04:05  -825.144229  -3.86  -2.87    +62.3095
iter:  35 21:05:41  -825.217830  -3.91  -2.86    +62.5708
iter:  36 21:07:18  -825.431924  -3.06  -2.81    +63.2835
iter:  37 21:08:53  -825.441761  -4.24  -2.67    +63.0425
iter:  38 21:10:29  -825.468984c -4.42  -2.66    +63.0554
iter:  39 21:12:05  -825.469329c -4.39  -2.64    +62.9758
iter:  40 21:13:42  -825.425425c -4.02  -2.66    +62.9600
iter:  41 21:15:19  -825.349395  -3.78  -2.71    +62.8284
iter:  42 21:16:55  -825.361719c -4.24  -2.89    +62.6091
iter:  43 21:18:31  -825.358577c -4.31  -2.90    +62.3758
iter:  44 21:20:06  -825.371805c -4.40  -2.98    +62.1209
iter:  45 21:21:42  -825.368076c -4.74  -2.99    +61.9274
iter:  46 21:23:18  -825.377593c -4.70  -3.10    +61.6872
iter:  47 21:24:54  -825.384797c -4.78  -3.12    +61.5476
iter:  48 21:26:29  -825.386457c -4.94  -3.19    +61.4259
iter:  49 21:28:05  -825.397715c -4.73  -3.24    +61.3141
iter:  50 21:29:40  -825.394996c -5.03  -3.17    +61.2524
iter:  51 21:31:16  -825.398673c -5.12  -3.30    +61.1146
iter:  52 21:32:51  -825.402963c -5.30  -3.36    +61.0079
iter:  53 21:34:27  -825.419391c -4.55  -3.36    +60.6630
iter:  54 21:36:03  -825.447081c -4.15  -3.29    +60.2084
iter:  55 21:37:38  -825.439574c -5.24  -3.10    +60.3630
iter:  56 21:39:14  -825.446888c -5.23  -3.15    +60.2754
iter:  57 21:40:50  -825.453281c -5.00  -3.11    +60.1984
iter:  58 21:42:25  -825.461898c -5.15  -3.10    +60.1307
iter:  59 21:44:01  -825.456403c -5.13  -3.05    +60.1553
iter:  60 21:45:36  -825.474762c -4.88  -3.05    +60.1328
iter:  61 21:47:12  -825.489207c -4.27  -2.96    +60.1407
iter:  62 21:48:48  -825.461968c -4.34  -2.91    +60.0505
iter:  63 21:50:23  -825.466285c -4.50  -3.06    +59.9989
iter:  64 21:51:59  -825.453171c -5.13  -3.02    +59.9926
iter:  65 21:53:34  -825.453748c -4.98  -3.19    +59.9315
iter:  66 21:55:10  -825.456673c -4.68  -3.18    +59.9104
iter:  67 21:56:46  -825.451815c -4.96  -3.12    +59.8808
iter:  68 21:58:22  -825.460170c -4.79  -3.27    +59.8450
iter:  69 21:59:57  -825.448730c -5.21  -3.15    +59.8214
iter:  70 22:01:33  -825.450616c -5.69  -3.35    +59.7830
iter:  71 22:03:09  -825.450144c -5.68  -3.35    +59.7660
iter:  72 22:04:44  -825.451244c -5.49  -3.36    +59.7296
iter:  73 22:06:20  -825.452475c -5.50  -3.38    +59.7194
iter:  74 22:07:56  -825.452058c -5.63  -3.40    +59.6986
iter:  75 22:09:32  -825.452348c -5.57  -3.42    +59.6663
iter:  76 22:11:07  -825.452909c -5.70  -3.47    +59.6521
iter:  77 22:12:43  -825.452688c -6.16  -3.53    +59.6391
iter:  78 22:14:19  -825.453475c -5.85  -3.59    +59.6127
iter:  79 22:15:55  -825.453886c -5.94  -3.60    +59.6061
iter:  80 22:17:30  -825.453672c -6.06  -3.64    +59.5872
iter:  81 22:19:06  -825.454111c -6.09  -3.70    +59.5690
iter:  82 22:20:41  -825.454607c -6.16  -3.72    +59.5530
iter:  83 22:22:17  -825.454345c -6.33  -3.76    +59.5346
iter:  84 22:23:53  -825.454819c -6.27  -3.83    +59.5146
iter:  85 22:25:28  -825.455085c -6.44  -3.86    +59.4995
iter:  86 22:27:04  -825.455049c -6.51  -3.91    +59.4790
iter:  87 22:28:40  -825.455647c -6.47  -3.94    +59.4614
iter:  88 22:30:16  -825.456192c -6.29  -3.95    +59.4490
iter:  89 22:31:51  -825.455957c -6.49  -3.92    +59.4282
iter:  90 22:33:27  -825.456393c -6.54  -4.05c   +59.4045
iter:  91 22:35:04  -825.456566c -6.90  -4.06c   +59.3993
iter:  92 22:36:42  -825.456775c -6.56  -4.09c   +59.3749
iter:  93 22:38:17  -825.456958c -6.88  -4.09c   +59.3754
iter:  94 22:39:53  -825.457651c -6.41  -4.12c   +59.3493
iter:  95 22:41:29  -825.457373c -6.93  -4.09c   +59.3482
iter:  96 22:43:04  -825.457900c -6.57  -4.19c   +59.3203
iter:  97 22:44:40  -825.456985c -6.20  -4.21c   +59.3731
iter:  98 22:46:17  -825.455042c -5.31  -4.22c   +59.4765
iter:  99 22:47:53  -825.453784c -5.25  -4.08c   +59.5539
iter: 100 22:49:29  -825.453237c -5.16  -3.93    +59.6100
iter: 101 22:51:05  -825.453446c -5.69  -3.80    +59.5988
iter: 102 22:52:42  -825.454301c -5.34  -3.77    +59.5505
iter: 103 22:54:18  -825.454767c -5.81  -3.69    +59.5265
iter: 104 22:55:54  -825.455595c -5.62  -3.66    +59.4786
iter: 105 22:57:31  -825.454728c -6.04  -3.62    +59.4992
iter: 106 22:59:07  -825.455325c -5.90  -3.62    +59.4750
iter: 107 23:00:43  -825.456618c -5.51  -3.55    +59.4857
iter: 108 23:02:21  -825.457070c -5.13  -3.53    +59.4788
iter: 109 23:03:57  -825.454542c -5.05  -3.44    +59.4730
iter: 110 23:05:34  -825.453227c -5.48  -3.50    +59.5085
iter: 111 23:07:12  -825.453101c -5.93  -3.68    +59.5250
iter: 112 23:08:49  -825.453389c -6.21  -3.90    +59.5350
iter: 113 23:10:24  -825.453512c -6.05  -3.90    +59.5393
iter: 114 23:12:02  -825.453483c -6.22  -3.86    +59.5522
iter: 115 23:13:39  -825.453741c -6.23  -3.98    +59.5593
iter: 116 23:15:18  -825.454057c -6.42  -4.10c   +59.5528
iter: 117 23:16:59  -825.453540c -6.25  -3.97    +59.5531
iter: 118 23:18:35  -825.453882c -6.41  -3.98    +59.5532
iter: 119 23:20:12  -825.453923c -6.56  -4.08c   +59.5584
iter: 120 23:21:49  -825.453942c -6.66  -4.15c   +59.5521
iter: 121 23:23:25  -825.453836c -6.76  -4.28c   +59.5519
iter: 122 23:25:02  -825.454101c -6.93  -4.26c   +59.5515
iter: 123 23:26:39  -825.454363c -6.82  -4.28c   +59.5497
iter: 124 23:28:16  -825.454209c -6.76  -4.27c   +59.5482
iter: 125 23:29:54  -825.454240c -6.93  -4.26c   +59.5420
iter: 126 23:31:31  -825.454360c -6.81  -4.52c   +59.5376
iter: 127 23:33:09  -825.454406c -7.35  -4.34c   +59.5410
iter: 128 23:34:46  -825.454430c -7.17  -4.60c   +59.5384
iter: 129 23:36:23  -825.454343c -7.79c -4.60c   +59.5352

Converged after 129 iterations.

Dipole moment: (29.453949, -3.344583, -9.910478) |e|*Ang

Total magnetic moment: (0.000000, 0.000000, 59.535169)
Local magnetic moments:
   0 Fe ( 0.000000,  0.000000,  2.221658)
   1 Co ( 0.000000,  0.000000,  1.303441)
   2 Fe ( 0.000000,  0.000000,  2.315912)
   3 Al ( 0.000000,  0.000000, -0.044387)
   4 Fe ( 0.000000,  0.000000,  2.426696)
   5 Co ( 0.000000,  0.000000,  1.447867)
   6 Fe ( 0.000000,  0.000000,  1.959695)
   7 Cr ( 0.000000,  0.000000, -2.461829)
   8 Fe ( 0.000000,  0.000000,  2.207993)
   9 Al ( 0.000000,  0.000000, -0.010079)
  10 Ni ( 0.000000,  0.000000,  0.177749)
  11 Ni ( 0.000000,  0.000000,  0.130979)
  12 Ni ( 0.000000,  0.000000,  0.109684)
  13 Al ( 0.000000,  0.000000, -0.025216)
  14 Fe ( 0.000000,  0.000000,  2.313498)
  15 Fe ( 0.000000,  0.000000, -1.639335)
  16 Co ( 0.000000,  0.000000,  1.219171)
  17 Fe ( 0.000000,  0.000000,  2.238093)
  18 Ni ( 0.000000,  0.000000,  0.229956)
  19 Co ( 0.000000,  0.000000,  1.253080)
  20 Ni ( 0.000000,  0.000000,  0.063167)
  21 Co ( 0.000000,  0.000000,  1.177338)
  22 Al ( 0.000000,  0.000000, -0.021531)
  23 Co ( 0.000000,  0.000000,  0.806048)
  24 Co ( 0.000000,  0.000000,  0.316001)
  25 Co ( 0.000000,  0.000000,  0.715058)
  26 Cr ( 0.000000,  0.000000,  1.081668)
  27 Ni ( 0.000000,  0.000000,  0.125037)
  28 Al ( 0.000000,  0.000000,  0.001650)
  29 Al ( 0.000000,  0.000000, -0.031023)
  30 Ni ( 0.000000,  0.000000,  0.311369)
  31 Cr ( 0.000000,  0.000000,  1.498209)
  32 Fe ( 0.000000,  0.000000,  2.058937)
  33 Cr ( 0.000000,  0.000000, -1.461578)
  34 Cr ( 0.000000,  0.000000, -1.604911)
  35 Fe ( 0.000000,  0.000000,  1.828072)
  36 Cr ( 0.000000,  0.000000, -1.452547)
  37 Al ( 0.000000,  0.000000, -0.028731)
  38 Ni ( 0.000000,  0.000000,  0.147985)
  39 Fe ( 0.000000,  0.000000,  2.262238)
  40 Al ( 0.000000,  0.000000, -0.032632)
  41 Cr ( 0.000000,  0.000000, -2.073428)
  42 Al ( 0.000000,  0.000000, -0.028770)
  43 Co ( 0.000000,  0.000000,  0.760937)
  44 Al ( 0.000000,  0.000000, -0.028114)
  45 Fe ( 0.000000,  0.000000,  1.821081)
  46 Fe ( 0.000000,  0.000000,  1.984671)
  47 Ni ( 0.000000,  0.000000,  0.166526)
  48 Ni ( 0.000000,  0.000000,  0.394286)
  49 Ni ( 0.000000,  0.000000,  0.296757)
  50 Co ( 0.000000,  0.000000,  1.184044)
  51 Fe ( 0.000000,  0.000000,  2.333985)
  52 Co ( 0.000000,  0.000000,  1.202645)
  53 Cr ( 0.000000,  0.000000, -1.929723)
  54 Cr ( 0.000000,  0.000000, -1.023790)
  55 Cr ( 0.000000,  0.000000,  1.322789)
  56 Cr ( 0.000000,  0.000000, -1.514043)
  57 Co ( 0.000000,  0.000000,  1.184031)
  58 Co ( 0.000000,  0.000000,  1.127380)
  59 Fe ( 0.000000,  0.000000,  2.175689)
[...]
  93 Ni ( 0.000000,  0.000000,  0.305081)
  94 Cr ( 0.000000,  0.000000,  1.437724)
  95 Al ( 0.000000,  0.000000, -0.011140)
  96 Cr ( 0.000000,  0.000000,  1.037408)
  97 Cr ( 0.000000,  0.000000, -0.551069)
  98 Co ( 0.000000,  0.000000, -0.330972)
  99 Fe ( 0.000000,  0.000000,  2.022298)
 100 Fe ( 0.000000,  0.000000,  1.883273)
 101 Cr ( 0.000000,  0.000000, -2.223706)
 102 Al ( 0.000000,  0.000000, -0.025837)
 103 Co ( 0.000000,  0.000000,  1.119941)
 104 Fe ( 0.000000,  0.000000,  2.523246)
 105 Ni ( 0.000000,  0.000000,  0.274106)
 106 Cr ( 0.000000,  0.000000, -1.373151)
 107 Co ( 0.000000,  0.000000,  0.942473)

Energy contributions relative to reference atoms: (reference = -3382523.201499)

Kinetic:       +211.422884
Potential:     -221.624293
External:        +0.000000
XC:            -846.468276
Entropy (-ST):   -4.213885
Local:          +33.322284
Free energy:   -827.561285
Extrapolated:  -825.454343

Spin contamination: 27.970468 electrons
Showing only first 2 kpts
                      Up                     Down
 Kpt  Band  Eigenvalues  Occupancy  Eigenvalues  Occupancy
  0   470      9.14675    0.99521     10.04962    0.02430
  0   471      9.15805    0.99464     10.05478    0.02310
  0   472      9.18019    0.99332     10.06926    0.02005
  0   473      9.19282    0.99242     10.07858    0.01830

  1   470      9.14588    0.99525     10.04082    0.02647
  1   471      9.16869    0.99404     10.06559    0.02079
  1   472      9.18033    0.99331     10.07242    0.01944
  1   473      9.19143    0.99253     10.08373    0.01740

Fermi level: 9.68034

No gap

Forces in eV/Ang:
  0 Fe    0.04671   -0.53425    0.18590
  1 Co    0.48182   -0.24310    0.05302
  2 Fe   -0.25797   -0.18319   -0.51006
  3 Al    0.30531   -0.11702   -0.32257
  4 Fe    0.30381   -0.05976   -0.83892
  5 Co    0.17759    0.42971   -0.18082
  6 Fe    0.08714    0.31725   -0.79565
  7 Cr   -1.07138   -0.95117   -0.83676
  8 Fe   -0.57271    0.51314   -0.50657
  9 Al   -0.38096   -0.48491   -1.10744
 10 Ni   -0.16365   -0.20632   -0.26342
 11 Ni   -0.27994   -0.28109   -0.41993
 12 Ni   -0.26711    0.57518    0.00080
 13 Al    0.72600   -0.05043   -0.56521
 14 Fe    0.62217    0.25350    0.66021
 15 Fe   -0.07543    0.16245   -0.24476
 16 Co    0.42917    0.02249    0.23637
 17 Fe   -0.32371   -0.77936    0.60856
 18 Ni   -0.50649   -0.23451    0.01504
 19 Co    0.03041   -0.26772    0.12614
 20 Ni   -0.13230    0.01292   -0.42594
 21 Co   -0.06244    0.44989   -0.00298
 22 Al    0.48256   -0.08664   -0.84523
 23 Co   -0.23396    0.58114   -0.47318
 24 Co    0.27263   -0.03923   -0.19704
 25 Co    0.28482   -0.23613   -0.05612
 26 Cr   -0.64302    0.30391   -0.30678
 27 Ni    0.77309    0.33115   -0.27722
 28 Al   -0.93382    0.05321    0.07997
 29 Al   -0.62835    0.19366   -0.83300
 30 Ni   -0.17694    0.02239    0.38264
 31 Cr    0.53091    1.17430   -0.56593
 32 Fe    0.74471   -0.43609    0.38333
 33 Cr   -0.09529    0.15434   -0.42869
 34 Cr   -0.30047    0.33381   -0.18470
 35 Fe   -0.10653   -0.02128    0.25354
 36 Cr    0.02271   -0.71527   -0.86489
 37 Al   -0.13959    0.31713   -0.09455
 38 Ni    0.21201   -0.07196    0.00807
 39 Fe    0.51333    0.65199   -0.08225
 40 Al   -0.45557    0.82454   -0.27835
 41 Cr   -0.56394    1.38844    0.05905
 42 Al    0.17266   -0.17600    0.75091
 43 Co   -0.44535    0.49464    0.05031
 44 Al    0.67203   -0.17076   -0.04964
 45 Fe    0.22024    1.02028    0.52927
 46 Fe    0.04583   -0.44517    0.15537
 47 Ni   -0.04813   -0.17933    0.07259
 48 Ni    0.49094    0.42488   -0.05811
 49 Ni    0.36002    0.21277   -0.36557
 50 Co    0.63390    0.26080   -0.37950
 51 Fe    1.14446   -0.31768    0.62527
 52 Co   -0.19329   -0.12770    0.29616
 53 Cr   -0.28948   -0.76090   -0.09005
 54 Cr    0.34316    0.20307    0.08756
 55 Cr    0.07146   -0.71578    0.29848
 56 Cr   -0.84927    0.66092    1.23449
 57 Co    0.15609    0.05003    0.16243
 58 Co   -0.71964    0.14079    0.30508
 59 Fe   -0.58671    0.63681    0.92036
[...]
 93 Ni    0.25622   -0.24675   -0.24503
 94 Cr    0.21350    0.36113    0.63518
 95 Al   -1.43230   -0.21822   -1.00297
 96 Cr   -0.11834    0.37057    0.85097
 97 Cr    0.71471   -0.03019    0.43443
 98 Co   -0.01162    0.12118    0.00469
 99 Fe    0.13172    0.04362    0.60694
100 Fe   -0.47068    0.29699    0.19224
101 Cr   -0.41071    0.97154    0.16942
102 Al    1.15504   -0.07104   -1.18760
103 Co   -0.30109   -0.38744    0.32966
104 Fe   -0.02270    0.07787   -0.61793
105 Ni   -0.08505    0.15566   -0.03301
106 Cr   -0.68984    0.18103    0.31768
107 Co   -0.34766   -0.18928   -0.01584

Date: Fri Apr 14 23:36:46 2023