User:   c.zeng@d0085
Date:   Fri Apr 14 04:30:12 2023
Arch:   x86_64
Pid:    203548
CWD:    /home/c.zeng/projects/hea-corrosion/hea-mlp/data-curation/bulk-mcmc/dft-jobs/10
Python: 3.8.1
gpaw:   /home/c.zeng/usr/installs/gpaw/source/gpaw-22.8.0/gpaw
_gpaw:  /home/c.zeng/usr/installs/gpaw/source/gpaw-22.8.0/
        _gpaw.cpython-38-x86_64-linux-gnu.so
ase:    /home/c.zeng/.local/lib/python3.8/site-packages/ase-3.22.1-py3.8.egg/ase (version 3.22.1)
numpy:  /shared/centos7/python/3.8.1/lib/python3.8/site-packages/numpy (version 1.17.4)
scipy:  /shared/centos7/python/3.8.1/lib/python3.8/site-packages/scipy (version 1.4.1)
units:  Angstrom and eV
cores: 30
OpenMP: False
OMP_NUM_THREADS: 1

Input parameters:
  convergence: {energy: 0.0001}
  kpts: [2 2 2]
  maxiter: 666
  mode: {ecut: 350.0,
         name: pw}
  occupations: {fixmagmom: False,
                name: fermi-dirac,
                width: 0.1}
  spinpol: True
  xc: PBE

System changes: positions, numbers, cell, pbc, initial_charges, initial_magmoms

Initialize ...

species:
  Co:
    name: Cobalt
    id: 339d20d5b0b93d2de9531a1bee871d91
    Z: 27.0
    valence: 9
    core: 18
    charge: 0.0
    file: /home/c.zeng/usr/data/gpaw-setups-0.9.20000/Co.PBE.gz
    compensation charges: {type: gauss,
                           rc: 0.32,
                           lmax: 2}
    cutoffs: {filter: 1.87,
              core: 2.55}
    valence states:
      #              energy  rcut
      - 4s(2.00)    -5.469   1.005
      - 4p(0.00)    -1.277   1.058
      - 3d(7.00)    -8.205   1.005
      -  s          21.742   1.005
      -  p          25.934   1.058
      -  d          19.007   1.005

    # Using partial waves for Co as LCAO basis

  Fe:
    name: Iron
    id: 37abbd8d6c3c35915a9b583b742da910
    Z: 26.0
    valence: 8
    core: 18
    charge: 0.0
    file: /home/c.zeng/usr/data/gpaw-setups-0.9.20000/Fe.PBE.gz
    compensation charges: {type: gauss,
                           rc: 0.33,
                           lmax: 2}
    cutoffs: {filter: 2.06,
              core: 2.67}
    valence states:
      #              energy  rcut
      - 4s(2.00)    -5.291   1.164
      - 4p(0.00)    -1.326   1.058
      - 3d(6.00)    -7.505   1.058
      -  s          21.920   1.164
      -  p          25.885   1.058
      -  d          19.706   1.058

[...]

  Ni:
    name: Nickel
    id: 0d9f38a9d6e76a2886f07bb4381f212b
    Z: 28.0
    valence: 16
    core: 12
    charge: 0.0
    file: /home/c.zeng/usr/data/gpaw-setups-0.9.20000/Ni.PBE.gz
    compensation charges: {type: gauss,
                           rc: 0.36,
                           lmax: 2}
    cutoffs: {filter: 2.14,
              core: 1.98}
    valence states:
      #              energy  rcut
      - 4s(2.00)    -5.642   1.164
      - 3p(6.00)   -71.394   1.207
      - 4p(0.00)    -1.226   1.207
      - 3d(8.00)    -8.875   1.138
      -  s          21.570   1.164
      -  d          18.337   1.138

[...]

  Cr:
    name: Chromium
    id: 33f258bda2ca9f93018e70263a35547b
    Z: 24.0
    valence: 6
    core: 18
    charge: 0.0
    file: /home/c.zeng/usr/data/gpaw-setups-0.9.20000/Cr.PBE.gz
    compensation charges: {type: gauss,
                           rc: 0.35,
                           lmax: 2}
    cutoffs: {filter: 2.14,
              core: 3.04}
    valence states:
      #              energy  rcut
      - 4s(1.00)    -4.007   1.164
      - 4p(0.00)    -0.989   1.217
      - 3d(5.00)    -2.913   1.111
      -  s          23.205   1.164
      -  p          26.223   1.217
      -  d          24.299   1.111

    # Using partial waves for Cr as LCAO basis

Reference energy: -3846758.590871  # eV

Spin-polarized calculation.
Magnetic moment: 151.200000

Convergence criteria:
 Maximum [total energy] change in last 3 cyles: 0.0001 eV / electron
 Maximum integral of absolute [dens]ity change: 0.0001 electrons / valence electron
 Maximum integral of absolute [eigenst]ate change: 4e-08 eV^2 / valence electron
 Maximum number of scf [iter]ations: 666
 (Square brackets indicate name in SCF output, whereas a 'c' in
 the SCF output indicates the quantity has converged.)

Symmetries present (total): 1

  ( 1  0  0)
  ( 0  1  0)
  ( 0  0  1)

8 k-points: 2 x 2 x 2 Monkhorst-Pack grid
4 k-points in the irreducible part of the Brillouin zone
       k-points in crystal coordinates                weights
   0:     0.25000000   -0.25000000   -0.25000000          2/8
   1:     0.25000000   -0.25000000    0.25000000          2/8
   2:     0.25000000    0.25000000   -0.25000000          2/8
   3:     0.25000000    0.25000000    0.25000000          2/8

Wave functions: Plane wave expansion
  Cutoff energy: 350.000 eV
  Number of coefficients (min, max): 17755, 17755
  Pulay-stress correction: 0.000000 eV/Ang^3 (de/decut=0.000000)
  Using FFTW library
  ScaLapack parameters: grid=1x1, blocksize=None
  Wavefunction extrapolation:
    Improved wavefunction reuse through dual PAW basis

Occupation numbers: Fermi-Dirac:
  width: 0.1000  # eV

Eigensolver
   Davidson(niter=2)

Densities:
  Coarse grid: 48*48*48 grid
  Fine grid: 96*96*96 grid
  Total Charge: 0.000000

Density mixing:
  Method: difference
  Backend: pulay
  Linear mixing parameter: 0.05
  old densities: 5
  Damping of long wavelength oscillations: 50

Hamiltonian:
  XC and Coulomb potentials evaluated on a 96*96*96 grid
  Using the PBE Exchange-Correlation functional
  External potential:
    NoExternalPotential

XC parameters: PBE with 2 nearest neighbor stencil

Total number of cores used: 30
Parallelization over k-points: 2
Domain decomposition: 5 x 3 x 1

Number of atoms: 108
Number of atomic orbitals: 1053
Number of bands in calculation: 727
Number of valence electrons: 1053
Bands to converge: occupied

... initialized

Initializing position-dependent things.

Density initialized from atomic densities
Creating initial wave functions:
  727 bands from LCAO basis set

       /|  Ni       Cr      Ni    |
      / |   CrFe     Cr           |
     /  |       Co      Fe       Fe
    /   |Cr      CFe       Co     Ni
   /    | Co       Cr       CFe   |
  /  CCo|  FeNi     CoNi          |
 *    CrNi    FeNi   FeNiCo       |
 |      |CoNi   FeFeCr  CoNiFe   Ni
 |      | CrCo     CoCrFeCrNiCr   |
 |    Co|  CoFeCr   CoCrFe   NiCo |
 |      Cr    NiCrCr NiNiNi     Cr|
 |      |FeFe  CoFeNi   FeCrFe   Cr
 |      .-FeCo-----NiNiFe--NiNi---Co
 |   Cro     Fe       Cr         /
 |    NiCo     Cor     CCre     /
 |   /    Co               Cr  /
 |  /      Fe       Fe    CrFe/
 | / Fe     Ni       NiNi    /
 |/            Co       Cr  /
 *--------Co------Co-------*

Positions:
   0 Co    -0.012479   -0.003723   10.616104    ( 0.0000,  0.0000,  2.1000)
   1 Fe    -0.011321    1.761305    1.763386    ( 0.0000,  0.0000,  2.1000)
   2 Fe     1.758365    0.001326    1.769011    ( 0.0000,  0.0000,  2.0000)
   3 Co     1.752686    1.779222   10.610436    ( 0.0000,  0.0000,  2.0000)
   4 Co     3.541196    0.004726   10.616104    ( 0.0000,  0.0000,  0.0000)
   5 Fe     3.534711    1.782438    1.778999    ( 0.0000,  0.0000,  0.0000)
   6 Ni     5.305717   10.600629    1.767950    ( 0.0000,  0.0000,  2.1000)
   7 Co     5.324780    1.765604   10.614618    ( 0.0000,  0.0000,  0.0000)
   8 Co     7.089121    0.014598   10.619926    ( 0.0000,  0.0000,  2.0000)
   9 Fe     7.085279    1.771219    1.773543    ( 0.0000,  0.0000,  1.5000)
  10 Ni     8.850554    0.011470    1.768756    ( 0.0000,  0.0000,  1.5000)
  11 Cr     8.842381    1.777333   10.615680    ( 0.0000,  0.0000,  2.1000)
  12 Fe    10.590535    3.538203   -0.001956    ( 0.0000,  0.0000,  0.0000)
  13 Ni    10.624277    5.310674    1.769786    ( 0.0000,  0.0000,  2.0000)
  14 Co     1.761379    3.535623    1.784572    ( 0.0000,  0.0000,  0.0000)
  15 Cr     1.770200    5.301408   10.611753    ( 0.0000,  0.0000,  2.0000)
  16 Ni     3.556003    3.551407   10.618333    ( 0.0000,  0.0000,  1.5000)
  17 Fe     3.539370    5.311290    1.775199    ( 0.0000,  0.0000,  2.1000)
  18 Cr     5.320142    3.545059    1.779678    ( 0.0000,  0.0000,  1.5000)
  19 Fe     5.306980    5.314654   10.602720    ( 0.0000,  0.0000,  0.0000)
  20 Ni     7.081585    3.529127   10.614725    ( 0.0000,  0.0000,  2.1000)
  21 Cr     7.069241    5.303361    1.781271    ( 0.0000,  0.0000,  1.5000)
  22 Fe     8.841447    3.542671    1.781600    ( 0.0000,  0.0000,  2.1000)
  23 Cr     8.850893    5.290379    0.000220    ( 0.0000,  0.0000,  0.0000)
  24 Ni     0.005868    7.083411   10.614937    ( 0.0000,  0.0000,  2.0000)
  25 Cr    10.601043    8.849694    1.772960    ( 0.0000,  0.0000,  2.1000)
  26 Fe     1.773713    7.072329    1.777184    ( 0.0000,  0.0000,  0.0000)
  27 Ni     1.755520    8.842943   10.608324    ( 0.0000,  0.0000,  0.0000)
  28 Fe     3.544009    7.063116   10.610489    ( 0.0000,  0.0000,  2.0000)
  29 Co     3.542225    8.826820    1.785580    ( 0.0000,  0.0000,  0.0000)
  30 Ni     5.309835    7.081776    1.776600    ( 0.0000,  0.0000,  2.1000)
  31 Cr     5.331945    8.840321   10.604673    ( 0.0000,  0.0000,  2.1000)
  32 Co     7.068434    7.069028   10.623110    ( 0.0000,  0.0000,  0.0000)
  33 Fe     7.083750    8.846796    1.774509    ( 0.0000,  0.0000,  1.5000)
  34 Ni     8.841404    7.058180    1.777173    ( 0.0000,  0.0000,  1.5000)
  35 Ni     8.835524    8.853600   10.611753    ( 0.0000,  0.0000,  0.0000)
  36 Cr    -0.009351   10.618864    3.531070    ( 0.0000,  0.0000,  2.0000)
  37 Fe    10.602508    1.764818    5.300452    ( 0.0000,  0.0000,  1.5000)
  38 Cr     1.756720    0.001379    5.295867    ( 0.0000,  0.0000,  0.0000)
  39 Co     1.766506    1.767154    3.539222    ( 0.0000,  0.0000,  2.0000)
  40 Co     3.539742    0.013881    3.542873    ( 0.0000,  0.0000,  2.0000)
  41 Fe     3.548944    1.788658    5.306237    ( 0.0000,  0.0000,  2.1000)
  42 Fe     5.320174   -0.004685    5.301386    ( 0.0000,  0.0000,  0.0000)
  43 Co     5.316862    1.765551    3.538935    ( 0.0000,  0.0000,  2.0000)
  44 Cr     7.081086   -0.000289    3.531325    ( 0.0000,  0.0000,  2.0000)
  45 Ni     7.072902    1.777407    5.300537    ( 0.0000,  0.0000,  2.0000)
  46 Fe     8.840544    0.012372    5.307851    ( 0.0000,  0.0000,  1.5000)
  47 Cr     8.833592    1.767928    3.534318    ( 0.0000,  0.0000,  2.1000)
  48 Ni    -0.004066    3.525285    3.545951    ( 0.0000,  0.0000,  0.0000)
  49 Co    -0.001689    5.317934    5.307787    ( 0.0000,  0.0000,  1.5000)
  50 Cr     1.769043    3.555101    5.297279    ( 0.0000,  0.0000,  2.0000)
  51 Fe     1.773692    5.305929    3.538266    ( 0.0000,  0.0000,  2.1000)
  52 Co     3.542746    3.537364    3.547575    ( 0.0000,  0.0000,  2.1000)
  53 Fe     3.548477    5.306927    5.301153    ( 0.0000,  0.0000,  2.0000)
  54 Cr     5.316246    3.553031    5.303637    ( 0.0000,  0.0000,  2.0000)
  55 Fe     5.303286    5.303531    3.542385    ( 0.0000,  0.0000,  1.5000)
  56 Ni     7.074962    3.533023    3.537215    ( 0.0000,  0.0000,  1.5000)
  57 Cr     7.066046    5.306046    5.300081    ( 0.0000,  0.0000,  2.0000)
  58 Ni     8.834526    3.538160    5.294530    ( 0.0000,  0.0000,  2.1000)
  59 Cr     8.846255    5.300452    3.537672    ( 0.0000,  0.0000,  1.5000)
[...]
  93 Ni     7.071130    5.304220    8.839313    ( 0.0000,  0.0000,  1.5000)
  94 Co     8.837997    3.524669    8.843389    ( 0.0000,  0.0000,  1.5000)
  95 Ni     8.833772    5.299051    7.076862    ( 0.0000,  0.0000,  0.0000)
  96 Cr     0.012168    7.080333    7.083835    ( 0.0000,  0.0000,  1.5000)
  97 Fe    -0.017034    8.848707    8.843941    ( 0.0000,  0.0000,  2.1000)
  98 Co     1.777938    7.075503    8.840194    ( 0.0000,  0.0000,  2.0000)
  99 Fe     1.758800    8.840035    7.069803    ( 0.0000,  0.0000,  0.0000)
 100 Fe     3.549921    7.066194    7.070090    ( 0.0000,  0.0000,  2.1000)
 101 Co     3.553137    8.839111    8.836776    ( 0.0000,  0.0000,  0.0000)
 102 Cr     5.304189    7.079929    8.840215    ( 0.0000,  0.0000,  2.0000)
 103 Co     5.321946    8.832180    7.082997    ( 0.0000,  0.0000,  2.1000)
 104 Ni     7.057077    7.072149    7.064167    ( 0.0000,  0.0000,  1.5000)
 105 Fe     7.082402    8.855500    8.837487    ( 0.0000,  0.0000,  2.1000)
 106 Co     8.846786    7.077881    8.846732    ( 0.0000,  0.0000,  0.0000)
 107 Cr     8.839313    8.848272    7.075153    ( 0.0000,  0.0000,  0.0000)

Unit cell:
           periodic     x           y           z      points  spacing
  1. axis:    yes   10.614300    0.000000    0.000000    48     0.2211
  2. axis:    yes    0.000000   10.614300    0.000000    48     0.2211
  3. axis:    yes    0.000000    0.000000   10.614300    48     0.2211

  Lengths:  10.614300  10.614300  10.614300
  Angles:   90.000000  90.000000  90.000000

Effective grid spacing dv^(1/3) = 0.2211

     iter     time        total  log10-change:  magmom
                         energy  eigst   dens
iter:   1 04:34:34  -938.584750                  +151.0942
iter:   2 04:36:13  -935.534341  -0.62  -1.38    +114.2786
iter:   3 04:37:52  -917.176092  -1.00  -1.36    +86.3663
iter:   4 04:39:32  -893.767003  -1.45  -1.39    +71.8241
iter:   5 04:41:12  -890.144453  -1.95  -1.50    +64.1177
iter:   6 04:42:51  -892.346589  -2.04  -1.54    +58.7671
iter:   7 04:44:30  -899.515362  -1.68  -1.58    +56.3158
iter:   8 04:46:09  -889.893754  -1.75  -1.56    +55.1179
iter:   9 04:47:49  -896.329512  -1.82  -1.75    +54.3197
iter:  10 04:49:27  -888.522825  -2.05  -1.71    +53.8277
iter:  11 04:51:07  -887.783368  -2.50  -1.89    +53.1686
iter:  12 04:52:46  -887.354867  -2.79  -1.94    +53.8164
iter:  13 04:54:25  -888.689366  -2.75  -2.00    +54.2376
iter:  14 04:56:04  -890.003391  -2.58  -2.00    +54.6731
iter:  15 04:57:43  -889.829546  -2.55  -1.99    +54.9546
iter:  16 04:59:22  -891.187591  -2.53  -2.04    +55.5970
iter:  17 05:01:01  -889.551622  -2.65  -1.99    +55.9816
iter:  18 05:02:40  -889.478254  -2.87  -2.18    +56.0111
iter:  19 05:04:19  -889.615160  -2.93  -2.23    +56.5901
iter:  20 05:05:58  -889.787698  -3.06  -2.24    +57.0247
iter:  21 05:07:37  -889.708024  -3.18  -2.28    +57.5885
iter:  22 05:09:15  -889.891176  -3.12  -2.34    +57.7307
iter:  23 05:10:54  -889.645953  -3.48  -2.32    +57.9872
iter:  24 05:12:33  -889.865092  -3.35  -2.45    +58.6582
iter:  25 05:14:13  -889.907123  -3.45  -2.46    +58.8037
iter:  26 05:15:53  -890.098016  -3.37  -2.50    +59.1225
iter:  27 05:17:32  -890.080779  -3.47  -2.48    +59.2212
iter:  28 05:19:12  -890.303094  -3.36  -2.52    +59.6321
iter:  29 05:20:51  -890.081802  -3.61  -2.47    +59.6042
iter:  30 05:22:31  -890.128940  -3.80  -2.63    +59.6453
iter:  31 05:24:10  -890.105674c -4.18  -2.63    +59.8897
iter:  32 05:25:49  -890.170137c -4.19  -2.71    +60.2105
iter:  33 05:27:29  -890.216201  -4.20  -2.71    +60.4095
iter:  34 05:29:08  -890.237040c -4.28  -2.70    +60.4019
iter:  35 05:30:48  -890.302569c -4.02  -2.77    +60.5201
iter:  36 05:32:28  -890.292045c -3.95  -2.77    +60.4812
iter:  37 05:34:07  -890.319024c -4.14  -2.94    +60.5439
iter:  38 05:35:47  -890.307783c -4.45  -2.96    +60.5827
iter:  39 05:37:27  -890.324020c -4.67  -3.10    +60.6363
iter:  40 05:39:06  -890.329026c -5.10  -3.16    +60.6848
iter:  41 05:40:46  -890.350645c -4.80  -3.19    +60.7127
iter:  42 05:42:25  -890.354361c -5.23  -3.21    +60.7739
iter:  43 05:44:05  -890.370600c -4.81  -3.24    +60.8494
iter:  44 05:45:44  -890.381645c -4.95  -3.33    +60.9035
iter:  45 05:47:24  -890.389527c -4.95  -3.39    +60.9717
iter:  46 05:49:03  -890.398902c -5.15  -3.48    +60.9849
iter:  47 05:50:43  -890.410473c -5.23  -3.57    +61.0743
iter:  48 05:52:22  -890.426290c -5.17  -3.58    +61.1229
iter:  49 05:54:02  -890.378962c -4.41  -3.57    +60.8540
iter:  50 05:55:41  -890.354349c -4.63  -3.55    +60.6950
iter:  51 05:57:21  -890.331747c -4.38  -3.64    +60.4592
iter:  52 05:59:01  -890.325635c -4.06  -3.62    +60.0825
iter:  53 06:00:41  -890.332508c -4.88  -3.46    +60.0075
iter:  54 06:02:20  -890.346327c -4.63  -3.42    +59.7700
iter:  55 06:03:59  -890.357078c -4.79  -3.31    +59.6229
iter:  56 06:05:39  -890.356775c -5.69  -3.24    +59.6932
iter:  57 06:07:18  -890.359097c -5.04  -3.23    +59.5657
iter:  58 06:08:57  -890.365114c -5.19  -3.26    +59.4515
iter:  59 06:10:36  -890.379437c -4.68  -3.22    +59.4252
iter:  60 06:12:15  -890.382194c -4.38  -3.03    +59.4269
iter:  61 06:13:55  -890.364228c -4.69  -3.06    +59.4007
iter:  62 06:15:34  -890.366984c -5.12  -3.20    +59.3319
iter:  63 06:17:14  -890.368084c -4.75  -3.18    +59.3659
iter:  64 06:18:53  -890.362648c -5.01  -3.15    +59.3058
iter:  65 06:20:33  -890.358576c -5.21  -3.29    +59.2864
iter:  66 06:22:12  -890.359411c -5.51  -3.40    +59.2447
iter:  67 06:23:51  -890.361393c -5.17  -3.46    +59.1947
iter:  68 06:25:31  -890.363790c -5.07  -3.40    +59.1952
iter:  69 06:27:11  -890.360915c -5.37  -3.40    +59.1543
iter:  70 06:28:51  -890.359887c -5.46  -3.58    +59.1064
iter:  71 06:30:31  -890.359996c -5.72  -3.54    +59.0880
iter:  72 06:32:13  -890.359355c -5.99  -3.65    +59.0556
iter:  73 06:33:54  -890.359754c -6.40  -3.74    +59.0322
iter:  74 06:35:36  -890.361279c -5.82  -3.78    +58.9663
iter:  75 06:37:17  -890.360210c -6.11  -3.74    +58.9858
iter:  76 06:38:59  -890.361606c -5.94  -3.82    +58.9535
iter:  77 06:40:41  -890.361041c -6.19  -3.88    +58.9518
iter:  78 06:42:22  -890.361442c -6.47  -3.99    +58.9260
iter:  79 06:44:05  -890.361680c -6.67  -4.07c   +58.9078
iter:  80 06:45:47  -890.362495c -6.21  -4.08c   +58.8647
iter:  81 06:47:29  -890.362468c -7.30  -4.06c   +58.8734
iter:  82 06:49:12  -890.363193c -6.41  -4.06c   +58.8303
iter:  83 06:50:54  -890.363417c -7.07  -4.04c   +58.8359
iter:  84 06:52:37  -890.363529c -6.87  -4.02c   +58.7965
iter:  85 06:54:19  -890.363965c -6.38  -3.99    +58.8710
iter:  86 06:56:02  -890.364197c -6.28  -3.94    +58.7869
iter:  87 06:57:45  -890.364612c -6.46  -3.90    +58.7645
iter:  88 06:59:27  -890.365426c -6.02  -3.99    +58.7402
iter:  89 07:01:10  -890.366007c -5.88  -3.82    +58.7053
iter:  90 07:02:52  -890.365377c -6.35  -3.81    +58.6972
iter:  91 07:04:35  -890.366139c -6.35  -3.94    +58.6967
iter:  92 07:06:18  -890.367353c -6.06  -4.02c   +58.6820
iter:  93 07:08:00  -890.366357c -6.50  -3.83    +58.6809
iter:  94 07:09:43  -890.367003c -6.46  -4.07c   +58.6590
iter:  95 07:11:25  -890.366987c -6.37  -4.07c   +58.6662
iter:  96 07:13:08  -890.367597c -6.40  -3.99    +58.6541
iter:  97 07:14:51  -890.367759c -6.84  -4.10c   +58.6409
iter:  98 07:16:33  -890.368285c -6.65  -4.17c   +58.6316
iter:  99 07:18:15  -890.366457c -5.87  -4.12c   +58.6693
iter: 100 07:19:58  -890.365780c -5.96  -4.21c   +58.6818
iter: 101 07:21:40  -890.366708c -6.31  -4.25c   +58.6621
iter: 102 07:23:23  -890.366361c -7.00  -4.30c   +58.6734
iter: 103 07:25:06  -890.366837c -6.83  -4.36c   +58.6669
iter: 104 07:26:48  -890.366946c -6.80  -4.45c   +58.6583
iter: 105 07:28:31  -890.367673c -6.55  -4.31c   +58.6315
iter: 106 07:30:13  -890.367474c -7.12  -4.30c   +58.6382
iter: 107 07:31:56  -890.367285c -7.09  -4.61c   +58.6385
iter: 108 07:33:38  -890.367771c -6.91  -4.52c   +58.6313
iter: 109 07:35:21  -890.368541c -6.30  -4.65c   +58.6151
iter: 110 07:37:03  -890.367075c -5.93  -4.48c   +58.6473
iter: 111 07:38:46  -890.365355c -5.41  -4.71c   +58.6969
iter: 112 07:40:29  -890.364256c -5.39  -4.15c   +58.7379
iter: 113 07:42:11  -890.364353c -6.23  -3.95    +58.7470
iter: 114 07:43:54  -890.365209c -5.65  -3.93    +58.7950
iter: 115 07:45:37  -890.365543c -6.41  -3.87    +58.8039
iter: 116 07:47:19  -890.365945c -6.59  -3.87    +58.8087
iter: 117 07:49:02  -890.366474c -6.17  -3.86    +58.7975
iter: 118 07:50:45  -890.365687c -6.16  -3.73    +58.8230
iter: 119 07:52:28  -890.367335c -5.36  -3.84    +58.8224
iter: 120 07:54:10  -890.367049c -5.18  -3.57    +58.8261
iter: 121 07:55:53  -890.365079c -5.76  -3.58    +58.7993
iter: 122 07:57:35  -890.364799c -6.17  -3.99    +58.7858
iter: 123 07:59:18  -890.364995c -6.43  -4.07c   +58.7504
iter: 124 08:01:01  -890.365287c -6.44  -4.26c   +58.7387
iter: 125 08:02:44  -890.365825c -6.55  -4.17c   +58.7308
iter: 126 08:04:27  -890.365631c -6.61  -4.27c   +58.7120
iter: 127 08:06:09  -890.366104c -6.70  -4.39c   +58.7020
iter: 128 08:07:52  -890.366191c -7.07  -4.33c   +58.6997
iter: 129 08:09:35  -890.366472c -6.75  -4.45c   +58.6860
iter: 130 08:11:17  -890.366480c -7.59c -4.51c   +58.6904

Converged after 130 iterations.

Dipole moment: (6.525231, -2.071035, 0.806929) |e|*Ang

Total magnetic moment: (0.000000, 0.000000, 58.690434)
Local magnetic moments:
   0 Co ( 0.000000,  0.000000,  1.125439)
   1 Fe ( 0.000000,  0.000000,  1.945832)
   2 Fe ( 0.000000,  0.000000,  2.196610)
   3 Co ( 0.000000,  0.000000,  1.257802)
   4 Co ( 0.000000,  0.000000,  1.207578)
   5 Fe ( 0.000000,  0.000000,  2.341606)
   6 Ni ( 0.000000,  0.000000,  0.399336)
   7 Co ( 0.000000,  0.000000,  1.191093)
   8 Co ( 0.000000,  0.000000,  0.625755)
   9 Fe ( 0.000000,  0.000000,  2.072222)
  10 Ni ( 0.000000,  0.000000,  0.163374)
  11 Cr ( 0.000000,  0.000000, -1.339609)
  12 Fe ( 0.000000,  0.000000, -1.163548)
  13 Ni ( 0.000000,  0.000000,  0.122445)
  14 Co ( 0.000000,  0.000000,  1.306873)
  15 Cr ( 0.000000,  0.000000, -1.643182)
  16 Ni ( 0.000000,  0.000000,  0.327581)
  17 Fe ( 0.000000,  0.000000,  2.170055)
  18 Cr ( 0.000000,  0.000000, -1.721285)
  19 Fe ( 0.000000,  0.000000,  2.178723)
  20 Ni ( 0.000000,  0.000000,  0.136954)
  21 Cr ( 0.000000,  0.000000,  0.452081)
  22 Fe ( 0.000000,  0.000000,  0.780035)
  23 Cr ( 0.000000,  0.000000, -0.447011)
  24 Ni ( 0.000000,  0.000000,  0.290227)
  25 Cr ( 0.000000,  0.000000,  1.133881)
  26 Fe ( 0.000000,  0.000000,  2.162472)
  27 Ni ( 0.000000,  0.000000,  0.392194)
  28 Fe ( 0.000000,  0.000000,  2.060835)
  29 Co ( 0.000000,  0.000000,  1.481109)
  30 Ni ( 0.000000,  0.000000,  0.388100)
  31 Cr ( 0.000000,  0.000000, -1.367359)
  32 Co ( 0.000000,  0.000000,  0.893111)
  33 Fe ( 0.000000,  0.000000,  2.445536)
  34 Ni ( 0.000000,  0.000000,  0.096562)
  35 Ni ( 0.000000,  0.000000,  0.349598)
  36 Cr ( 0.000000,  0.000000, -1.079264)
  37 Fe ( 0.000000,  0.000000,  1.841059)
  38 Cr ( 0.000000,  0.000000, -1.564151)
  39 Co ( 0.000000,  0.000000,  1.048021)
  40 Co ( 0.000000,  0.000000,  1.339332)
  41 Fe ( 0.000000,  0.000000,  1.966970)
  42 Fe ( 0.000000,  0.000000,  2.177300)
  43 Co ( 0.000000,  0.000000,  1.126550)
  44 Cr ( 0.000000,  0.000000, -1.739660)
  45 Ni ( 0.000000,  0.000000,  0.081875)
  46 Fe ( 0.000000,  0.000000,  1.627093)
  47 Cr ( 0.000000,  0.000000, -0.081080)
  48 Ni ( 0.000000,  0.000000,  0.185657)
  49 Co ( 0.000000,  0.000000,  0.263290)
  50 Cr ( 0.000000,  0.000000, -1.555112)
  51 Fe ( 0.000000,  0.000000,  2.048486)
  52 Co ( 0.000000,  0.000000,  1.020864)
  53 Fe ( 0.000000,  0.000000,  1.890407)
  54 Cr ( 0.000000,  0.000000, -1.228337)
  55 Fe ( 0.000000,  0.000000,  1.798118)
  56 Ni ( 0.000000,  0.000000,  0.080205)
  57 Cr ( 0.000000,  0.000000, -0.810167)
  58 Ni ( 0.000000,  0.000000,  0.070108)
  59 Cr ( 0.000000,  0.000000,  0.987937)
[...]
  93 Ni ( 0.000000,  0.000000,  0.236429)
  94 Co ( 0.000000,  0.000000,  0.602614)
  95 Ni ( 0.000000,  0.000000,  0.105495)
  96 Cr ( 0.000000,  0.000000, -0.729254)
  97 Fe ( 0.000000,  0.000000,  2.162280)
  98 Co ( 0.000000,  0.000000,  1.274378)
  99 Fe ( 0.000000,  0.000000,  1.880222)
 100 Fe ( 0.000000,  0.000000,  2.042490)
 101 Co ( 0.000000,  0.000000,  0.869540)
 102 Cr ( 0.000000,  0.000000, -1.538464)
 103 Co ( 0.000000,  0.000000,  1.089684)
 104 Ni ( 0.000000,  0.000000,  0.349029)
 105 Fe ( 0.000000,  0.000000,  1.818513)
 106 Co ( 0.000000,  0.000000,  1.092856)
 107 Cr ( 0.000000,  0.000000, -0.985216)

Energy contributions relative to reference atoms: (reference = -3846758.590871)

Kinetic:        +95.409504
Potential:     -167.422486
External:        +0.000000
XC:            -856.091929
Entropy (-ST):   -4.666055
Local:          +40.071459
Free energy:   -892.699508
Extrapolated:  -890.366480

Spin contamination: 31.167740 electrons
Showing only first 2 kpts
                      Up                     Down
 Kpt  Band  Eigenvalues  Occupancy  Eigenvalues  Occupancy
  0   524      9.86518    0.99176     10.68449    0.03220
  0   525      9.87297    0.99110     10.69193    0.02996
  0   526      9.88691    0.98978     10.69818    0.02820
  0   527      9.90359    0.98794     10.72457    0.02180

  1   524      9.88035    0.99042     10.68682    0.03148
  1   525      9.89325    0.98911     10.69628    0.02872
  1   526      9.90142    0.98820     10.70539    0.02629
  1   527      9.91179    0.98693     10.71537    0.02385

Fermi level: 10.34419

No gap

Forces in eV/Ang:
  0 Co    0.10576    0.03092   -0.01405
  1 Fe    0.28729    0.32384   -0.09874
  2 Fe    0.31422   -0.09361   -0.17927
  3 Co   -0.04078   -0.06385    0.19040
  4 Co   -0.06337   -0.10966   -0.08550
  5 Fe   -0.00707    0.10993    0.02229
  6 Ni   -0.01349    0.09880   -0.15525
  7 Co   -0.10633   -0.23730   -0.10211
  8 Co   -0.14125   -0.09707   -0.17161
  9 Fe   -0.24168    0.07632   -0.30398
 10 Ni   -0.00804   -0.26949   -0.05165
 11 Cr    0.19778    0.25778    0.07511
 12 Fe   -0.17097    0.06628    0.10618
 13 Ni   -0.15116   -0.23815   -0.08632
 14 Co   -0.03663   -0.06531   -0.24489
 15 Cr   -0.23196    0.07402   -0.03296
 16 Ni   -0.19425   -0.21081    0.01587
 17 Fe   -0.04552   -0.31925    0.03802
 18 Cr    0.02306   -0.18083    0.01061
 19 Fe    0.16601    0.08145    0.03221
 20 Ni    0.06558    0.09701   -0.07618
 21 Cr    0.21125    0.14331    0.01063
 22 Fe    0.10949   -0.01435   -0.38748
 23 Cr    0.24641   -0.22071   -0.13163
 24 Ni   -0.14725   -0.16372   -0.09408
 25 Cr   -0.04059    0.15930   -0.03006
 26 Fe    0.06963    0.16149   -0.05596
 27 Ni    0.32727    0.06338    0.00930
 28 Fe    0.05593    0.43090   -0.13389
 29 Co   -0.17841    0.30571    0.03225
 30 Ni    0.05129    0.07135    0.01258
 31 Cr   -0.15394    0.35817    0.34263
 32 Co   -0.01835   -0.05852   -0.10843
 33 Fe    0.07933   -0.12096   -0.19340
 34 Ni    0.01328    0.11611   -0.11524
 35 Ni   -0.05168   -0.10083   -0.07943
 36 Cr   -0.11795   -0.31164   -0.12288
 37 Fe    0.30665   -0.03152    0.06081
 38 Cr    0.42392    0.11249    0.23992
 39 Co    0.06792    0.07596    0.09577
 40 Co   -0.02031   -0.21304    0.01103
 41 Fe   -0.32932   -0.05522   -0.18659
 42 Fe    0.20224   -0.04619   -0.00451
 43 Co   -0.28120    0.14640    0.12256
 44 Cr   -0.21736   -0.12855    0.21304
 45 Ni    0.17151   -0.02335    0.17156
 46 Fe   -0.19196   -0.19659   -0.06310
 47 Cr    0.23413    0.65820   -0.09588
 48 Ni   -0.06033    0.01707   -0.10922
 49 Co    0.06966    0.05521    0.12235
 50 Cr    0.40891    0.02687   -0.25618
 51 Fe   -0.17915   -0.17463    0.31223
 52 Co   -0.06970    0.00378    0.05718
 53 Fe   -0.08573   -0.20486   -0.03511
 54 Cr   -0.35690   -0.46271   -0.42569
 55 Fe    0.18534   -0.00119    0.29449
 56 Ni   -0.08675   -0.01169    0.02651
 57 Cr    0.07323    0.35264   -0.01628
 58 Ni    0.09970   -0.03325    0.17113
 59 Cr   -0.10013   -0.40700   -0.10005
[...]
 93 Ni    0.13900   -0.03188    0.13047
 94 Co    0.27785    0.16179   -0.02403
 95 Ni    0.16389    0.20958   -0.04291
 96 Cr   -0.09148   -0.48546    0.12945
 97 Fe    0.10078   -0.03126    0.30581
 98 Co   -0.11495   -0.07182   -0.04787
 99 Fe    0.05848    0.00682   -0.04277
100 Fe   -0.22759    0.05701    0.37879
101 Co    0.06494    0.03379   -0.09254
102 Cr    0.19366   -0.09392   -0.08335
103 Co   -0.03038    0.21318    0.01845
104 Ni    0.23031    0.15468    0.07851
105 Fe    0.03477   -0.04954    0.30471
106 Co   -0.10487   -0.16768    0.03317
107 Cr   -0.05308    0.05781   -0.09364

Date: Fri Apr 14 08:11:38 2023