User:   c.zeng@d0118
Date:   Sat Apr 15 04:14:55 2023
Arch:   x86_64
Pid:    99760
CWD:    /home/c.zeng/projects/hea-corrosion/hea-mlp/data-curation/bulk-mcmc/dft-jobs/216
Python: 3.8.1
gpaw:   /home/c.zeng/usr/installs/gpaw/source/gpaw-22.8.0/gpaw
_gpaw:  /home/c.zeng/usr/installs/gpaw/source/gpaw-22.8.0/
        _gpaw.cpython-38-x86_64-linux-gnu.so
ase:    /home/c.zeng/.local/lib/python3.8/site-packages/ase-3.22.1-py3.8.egg/ase (version 3.22.1)
numpy:  /shared/centos7/python/3.8.1/lib/python3.8/site-packages/numpy (version 1.17.4)
scipy:  /shared/centos7/python/3.8.1/lib/python3.8/site-packages/scipy (version 1.4.1)
units:  Angstrom and eV
cores: 30
OpenMP: False
OMP_NUM_THREADS: 1

Input parameters:
  convergence: {energy: 0.0001}
  kpts: [2 2 2]
  maxiter: 666
  mode: {ecut: 350.0,
         name: pw}
  occupations: {fixmagmom: False,
                name: fermi-dirac,
                width: 0.1}
  spinpol: True
  xc: PBE

System changes: positions, numbers, cell, pbc, initial_charges, initial_magmoms

Initialize ...

species:
  Ni:
    name: Nickel
    id: 0d9f38a9d6e76a2886f07bb4381f212b
    Z: 28.0
    valence: 16
    core: 12
    charge: 0.0
    file: /home/c.zeng/usr/data/gpaw-setups-0.9.20000/Ni.PBE.gz
    compensation charges: {type: gauss,
                           rc: 0.36,
                           lmax: 2}
    cutoffs: {filter: 2.14,
              core: 1.98}
    valence states:
      #              energy  rcut
      - 4s(2.00)    -5.642   1.164
      - 3p(6.00)   -71.394   1.207
      - 4p(0.00)    -1.226   1.207
      - 3d(8.00)    -8.875   1.138
      -  s          21.570   1.164
      -  d          18.337   1.138

    # Using partial waves for Ni as LCAO basis

  Al:
    name: Aluminium
    id: 0292cae29f5d6237e50f6abdd43a7bdd
    Z: 13.0
    valence: 3
    core: 10
    charge: 0.0
    file: /home/c.zeng/usr/data/gpaw-setups-0.9.20000/Al.PBE.gz
    compensation charges: {type: gauss,
                           rc: 0.34,
                           lmax: 2}
    cutoffs: {filter: 1.91,
              core: 2.36}
    valence states:
      #              energy  rcut
      - 3s(2.00)    -7.753   1.085
      - 3p(1.00)    -2.712   1.085
      -  s          19.459   1.085
      -  p          24.499   1.085
      -  d           0.000   1.085

[...]

  Co:
    name: Cobalt
    id: 339d20d5b0b93d2de9531a1bee871d91
    Z: 27.0
    valence: 9
    core: 18
    charge: 0.0
    file: /home/c.zeng/usr/data/gpaw-setups-0.9.20000/Co.PBE.gz
    compensation charges: {type: gauss,
                           rc: 0.32,
                           lmax: 2}
    cutoffs: {filter: 1.87,
              core: 2.55}
    valence states:
      #              energy  rcut
      - 4s(2.00)    -5.469   1.005
      - 4p(0.00)    -1.277   1.058
      - 3d(7.00)    -8.205   1.005
      -  s          21.742   1.005
      -  p          25.934   1.058
      -  d          19.007   1.005

[...]

  Fe:
    name: Iron
    id: 37abbd8d6c3c35915a9b583b742da910
    Z: 26.0
    valence: 8
    core: 18
    charge: 0.0
    file: /home/c.zeng/usr/data/gpaw-setups-0.9.20000/Fe.PBE.gz
    compensation charges: {type: gauss,
                           rc: 0.33,
                           lmax: 2}
    cutoffs: {filter: 2.06,
              core: 2.67}
    valence states:
      #              energy  rcut
      - 4s(2.00)    -5.291   1.164
      - 4p(0.00)    -1.326   1.058
      - 3d(6.00)    -7.505   1.058
      -  s          21.920   1.164
      -  p          25.885   1.058
      -  d          19.706   1.058

[...]

  Cr:
    name: Chromium
    id: 33f258bda2ca9f93018e70263a35547b
    Z: 24.0
    valence: 6
    core: 18
    charge: 0.0
    file: /home/c.zeng/usr/data/gpaw-setups-0.9.20000/Cr.PBE.gz
    compensation charges: {type: gauss,
                           rc: 0.35,
                           lmax: 2}
    cutoffs: {filter: 2.14,
              core: 3.04}
    valence states:
      #              energy  rcut
      - 4s(1.00)    -4.007   1.164
      - 4p(0.00)    -0.989   1.217
      - 3d(5.00)    -2.913   1.111
      -  s          23.205   1.164
      -  p          26.223   1.217
      -  d          24.299   1.111

    # Using partial waves for Cr as LCAO basis

Reference energy: -3235165.067515  # eV

Spin-polarized calculation.
Magnetic moment: 121.100000

Convergence criteria:
 Maximum [total energy] change in last 3 cyles: 0.0001 eV / electron
 Maximum integral of absolute [dens]ity change: 0.0001 electrons / valence electron
 Maximum integral of absolute [eigenst]ate change: 4e-08 eV^2 / valence electron
 Maximum number of scf [iter]ations: 666
 (Square brackets indicate name in SCF output, whereas a 'c' in
 the SCF output indicates the quantity has converged.)

Symmetries present (total): 1

  ( 1  0  0)
  ( 0  1  0)
  ( 0  0  1)

8 k-points: 2 x 2 x 2 Monkhorst-Pack grid
4 k-points in the irreducible part of the Brillouin zone
       k-points in crystal coordinates                weights
   0:     0.25000000   -0.25000000   -0.25000000          2/8
   1:     0.25000000   -0.25000000    0.25000000          2/8
   2:     0.25000000    0.25000000   -0.25000000          2/8
   3:     0.25000000    0.25000000    0.25000000          2/8

Wave functions: Plane wave expansion
  Cutoff energy: 350.000 eV
  Number of coefficients (min, max): 19084, 19084
  Pulay-stress correction: 0.000000 eV/Ang^3 (de/decut=0.000000)
  Using FFTW library
  ScaLapack parameters: grid=1x1, blocksize=None
  Wavefunction extrapolation:
    Improved wavefunction reuse through dual PAW basis

Occupation numbers: Fermi-Dirac:
  width: 0.1000  # eV

Eigensolver
   Davidson(niter=2)

Densities:
  Coarse grid: 48*48*48 grid
  Fine grid: 96*96*96 grid
  Total Charge: 0.000000

Density mixing:
  Method: difference
  Backend: pulay
  Linear mixing parameter: 0.05
  old densities: 5
  Damping of long wavelength oscillations: 50

Hamiltonian:
  XC and Coulomb potentials evaluated on a 96*96*96 grid
  Using the PBE Exchange-Correlation functional
  External potential:
    NoExternalPotential

XC parameters: PBE with 2 nearest neighbor stencil

Total number of cores used: 30
Parallelization over k-points: 2
Domain decomposition: 5 x 3 x 1

Number of atoms: 108
Number of atomic orbitals: 933
Number of bands in calculation: 624
Number of valence electrons: 912
Bands to converge: occupied

... initialized

Initializing position-dependent things.

Density initialized from atomic densities
Creating initial wave functions:
  624 bands from LCAO basis set

        .--------Al----------------.
       /|           Fe             |
      / |    FeFe     Ni           |
     / Ni       Ni       Al        |
    /   |Fe      CrCo       Fe     |
   /    | CrNi      ACo            |
  /    Co  FeiAlAl    Co Fe  CoAl  |
 *      Fe     AlCoAl   NiFe     Cr|
 |      |FeCr   NiFeFe   AlCrCr   Co
 |      | CoCr   AlCoCoAl CrCrFe   |
 |     Fe  Al CoCo  CrNi Ni  NiCr  |
 |      Cr  Ni NiCrCo CoCrCoAl   Fe|
 |      |CrCo   CoAlAl   CoNiFe   Fe
 |      .-FeNi-----CrCr-Al--CrFe---.
 |     Al  Ni CoCr    Al Co  Ni Ni/
 |    / Co              Cr       Cr
 |   /           Ali      NiFe  /
 |  /      Ni       Fe     CrAl/
 | /                   Fe     /i
 *--------------------------Ni

Positions:
   0 Ni    10.797848    0.093654    0.085777    ( 0.0000,  0.0000,  0.0000)
   1 Al    10.831824    1.844742    1.870716    ( 0.0000,  0.0000,  2.0000)
   2 Ni     1.786803   10.847372    1.827335    ( 0.0000,  0.0000,  0.0000)
   3 Co     1.769614    1.870531   -0.031264    ( 0.0000,  0.0000,  0.0000)
   4 Al     3.620857   10.822050   10.833629    ( 0.0000,  0.0000,  1.5000)
   5 Ni     3.571246    1.883176    1.708402    ( 0.0000,  0.0000,  0.0000)
   6 Co     5.521103   10.788063    1.666217    ( 0.0000,  0.0000,  0.0000)
   7 Al     5.520831    1.813973   10.830911    ( 0.0000,  0.0000,  1.5000)
   8 Al     7.330846    0.011025   10.815657    ( 0.0000,  0.0000,  2.0000)
   9 Fe     7.282018    1.809483    1.793250    ( 0.0000,  0.0000,  2.1000)
  10 Fe     9.029996    0.022005    1.811918    ( 0.0000,  0.0000,  1.5000)
  11 Fe     9.007196    1.868639   10.825714    ( 0.0000,  0.0000,  2.0000)
  12 Ni    10.861310    3.649723    0.014171    ( 0.0000,  0.0000,  2.0000)
  13 Ni    10.867442    5.463468    1.819235    ( 0.0000,  0.0000,  2.1000)
  14 Co     1.756088    3.650267    1.845949    ( 0.0000,  0.0000,  0.0000)
  15 Fe     1.790358    5.439092   10.869084    ( 0.0000,  0.0000,  2.1000)
  16 Ni     3.687842    3.622792   -0.049287    ( 0.0000,  0.0000,  2.0000)
  17 Co     3.667347    5.391145    1.745368    ( 0.0000,  0.0000,  0.0000)
  18 Al     5.497977    3.634415    1.792370    ( 0.0000,  0.0000,  2.0000)
  19 Ni     5.524908    5.448029    0.002551    ( 0.0000,  0.0000,  2.0000)
  20 Co     7.223340    3.611877   10.834270    ( 0.0000,  0.0000,  0.0000)
  21 Al     7.217762    5.474830    1.807776    ( 0.0000,  0.0000,  2.1000)
  22 Ni     9.073442    3.654344    1.775148    ( 0.0000,  0.0000,  0.0000)
  23 Cr     9.008740    5.418608    0.007692    ( 0.0000,  0.0000,  2.0000)
  24 Cr    10.859190    7.178720    0.014480    ( 0.0000,  0.0000,  1.5000)
  25 Fe    -0.018106    8.970948    1.875391    ( 0.0000,  0.0000,  0.0000)
  26 Fe     1.817615    7.224025    1.802546    ( 0.0000,  0.0000,  1.5000)
  27 Ni     1.880729    8.993464   10.874031    ( 0.0000,  0.0000,  0.0000)
  28 Fe     3.684428    7.260447   -0.001356    ( 0.0000,  0.0000,  2.0000)
  29 Co     3.612616    9.025636    1.761807    ( 0.0000,  0.0000,  1.5000)
  30 Cr     5.481440    7.275114    1.811211    ( 0.0000,  0.0000,  1.5000)
  31 Fe     5.461261    9.048153   10.833988    ( 0.0000,  0.0000,  1.5000)
  32 Cr     7.245704    7.257881    0.056891    ( 0.0000,  0.0000,  2.1000)
  33 Co     7.301969    9.004609    1.790315    ( 0.0000,  0.0000,  0.0000)
  34 Cr     9.029343    7.181775    1.815549    ( 0.0000,  0.0000,  2.0000)
  35 Ni     9.030561    9.042010    0.020232    ( 0.0000,  0.0000,  1.5000)
  36 Fe    -0.031046    0.001947    3.645701    ( 0.0000,  0.0000,  2.0000)
  37 Fe    10.825910    1.804351    5.434602    ( 0.0000,  0.0000,  2.1000)
  38 Ni     1.743552   10.849296    5.484376    ( 0.0000,  0.0000,  0.0000)
  39 Al     1.769755    1.791891    3.636068    ( 0.0000,  0.0000,  1.5000)
  40 Al     3.516667   10.719828    3.663227    ( 0.0000,  0.0000,  0.0000)
  41 Co     3.644244    1.785205    5.586728    ( 0.0000,  0.0000,  0.0000)
  42 Al     5.484778   10.815439    5.504022    ( 0.0000,  0.0000,  0.0000)
  43 Cr     5.457934    1.842230    3.658769    ( 0.0000,  0.0000,  0.0000)
  44 Cr     7.360615   10.815439    3.672229    ( 0.0000,  0.0000,  0.0000)
  45 Al     7.266884    1.811614    5.485528    ( 0.0000,  0.0000,  2.1000)
  46 Al     9.077986    0.023590    5.491921    ( 0.0000,  0.0000,  0.0000)
  47 Co     9.066788    1.824226    3.671175    ( 0.0000,  0.0000,  1.5000)
  48 Fe    -0.047135    3.649615    3.617291    ( 0.0000,  0.0000,  2.0000)
  49 Cr    10.809264    5.435993    5.379805    ( 0.0000,  0.0000,  2.0000)
  50 Cr     1.752316    3.624989    5.344676    ( 0.0000,  0.0000,  0.0000)
  51 Cr     1.805786    5.472046    3.619389    ( 0.0000,  0.0000,  2.1000)
  52 Ni     3.649408    3.633491    3.631251    ( 0.0000,  0.0000,  2.1000)
  53 Co     3.657628    5.433797    5.434015    ( 0.0000,  0.0000,  1.5000)
  54 Cr     5.413368    3.672642    5.480309    ( 0.0000,  0.0000,  1.5000)
  55 Al     5.413835    5.465588    3.639666    ( 0.0000,  0.0000,  2.1000)
  56 Cr     7.223449    3.731734    3.720829    ( 0.0000,  0.0000,  0.0000)
  57 Ni     7.220557    5.483180    5.485572    ( 0.0000,  0.0000,  0.0000)
  58 Co     9.069039    3.623673    5.469720    ( 0.0000,  0.0000,  1.5000)
  59 Ni     9.064766    5.503837    3.636731    ( 0.0000,  0.0000,  0.0000)
[...]
  93 Co     7.214631    5.385893    9.048577    ( 0.0000,  0.0000,  2.1000)
  94 Fe     8.994291    3.655975    9.039237    ( 0.0000,  0.0000,  1.5000)
  95 Cr     9.006577    5.423262    7.223296    ( 0.0000,  0.0000,  2.0000)
  96 Cr    -0.070637    7.291956    7.110419    ( 0.0000,  0.0000,  0.0000)
  97 Ni     0.073012    9.104570    9.068375    ( 0.0000,  0.0000,  0.0000)
  98 Cr     1.863247    7.257381    9.054785    ( 0.0000,  0.0000,  2.0000)
  99 Fe     1.858343    9.053708    7.225808    ( 0.0000,  0.0000,  2.1000)
 100 Al     3.683906    7.292456    7.235550    ( 0.0000,  0.0000,  2.0000)
 101 Ni     3.628218    9.069550    9.051262    ( 0.0000,  0.0000,  2.1000)
 102 Co     5.530605    7.331890    9.040129    ( 0.0000,  0.0000,  0.0000)
 103 Al     5.476232    9.097209    7.250467    ( 0.0000,  0.0000,  2.0000)
 104 Ni     7.256827    7.264242    7.208456    ( 0.0000,  0.0000,  2.1000)
 105 Al     7.272548    9.136437    9.056861    ( 0.0000,  0.0000,  1.5000)
 106 Fe     8.936493    7.190875    9.109767    ( 0.0000,  0.0000,  0.0000)
 107 Co     8.994682    9.112169    7.218480    ( 0.0000,  0.0000,  0.0000)

Unit cell:
           periodic     x           y           z      points  spacing
  1. axis:    yes   10.872400    0.000000    0.000000    48     0.2265
  2. axis:    yes    0.000000   10.872400    0.000000    48     0.2265
  3. axis:    yes    0.000000    0.000000   10.872400    48     0.2265

  Lengths:  10.872400  10.872400  10.872400
  Angles:   90.000000  90.000000  90.000000

Effective grid spacing dv^(1/3) = 0.2265

     iter     time        total  log10-change:  magmom
                         energy  eigst   dens
iter:   1 04:19:21  -895.576013                  +120.0894
iter:   2 04:21:17  -864.115575  -0.27  -1.28    +84.5615
iter:   3 04:23:13  -835.196871  -0.78  -1.24    +53.2107
iter:   4 04:25:09  -812.420357  -1.30  -1.31    +47.5235
iter:   5 04:27:05  -808.911203  -1.78  -1.39    +44.3100
iter:   6 04:29:02  -811.280494  -1.80  -1.43    +43.0360
iter:   7 04:31:07  -804.669170  -1.73  -1.43    +42.3594
iter:   8 04:33:06  -802.773955  -1.80  -1.54    +42.6897
iter:   9 04:35:04  -807.695163  -1.69  -1.66    +43.1544
iter:  10 04:37:01  -805.348925  -1.95  -1.68    +43.4567
iter:  11 04:38:58  -803.882101  -2.28  -1.74    +44.4328
iter:  12 04:40:56  -803.093734  -2.47  -1.82    +45.4197
iter:  13 04:42:54  -803.261633  -2.69  -1.88    +46.6259
iter:  14 04:44:51  -804.349851  -2.49  -1.96    +47.3916
iter:  15 04:46:48  -804.341519  -2.59  -1.94    +48.4505
iter:  16 04:48:45  -805.587683  -2.42  -1.99    +49.3931
iter:  17 04:50:45  -804.038894  -2.67  -1.94    +50.2296
iter:  18 04:52:42  -804.621233  -2.71  -2.11    +51.0486
iter:  19 04:54:39  -804.060685  -2.95  -2.09    +51.8497
iter:  20 04:56:40  -804.390231  -2.98  -2.23    +52.9867
iter:  21 04:58:39  -804.446942  -3.03  -2.26    +53.2935
iter:  22 05:00:45  -804.514958  -3.00  -2.27    +54.2410
iter:  23 05:02:46  -804.838834  -3.03  -2.37    +54.9425
iter:  24 05:04:44  -804.686834  -3.25  -2.32    +55.5214
iter:  25 05:06:42  -804.828992  -3.43  -2.50    +56.0847
iter:  26 05:08:40  -804.898024  -3.58  -2.49    +56.6420
iter:  27 05:10:46  -805.067705  -3.59  -2.55    +57.3696
iter:  28 05:12:44  -805.366942  -3.39  -2.54    +58.1783
iter:  29 05:14:42  -805.490847  -3.56  -2.45    +58.6329
iter:  30 05:16:42  -805.566305  -3.22  -2.45    +59.1420
iter:  31 05:18:47  -805.571224c -3.44  -2.47    +58.9666
iter:  32 05:20:48  -805.476546  -3.83  -2.49    +58.7822
iter:  33 05:22:46  -805.712389  -3.20  -2.62    +58.4764
iter:  34 05:24:45  -805.406912  -3.63  -2.47    +58.3281
iter:  35 05:26:43  -805.418529  -4.17  -2.80    +57.7015
iter:  36 05:28:41  -805.442056c -4.26  -2.88    +57.1265
iter:  37 05:30:39  -805.466682c -4.15  -2.91    +56.5020
iter:  38 05:32:45  -805.477364c -4.43  -2.93    +56.2794
iter:  39 05:34:43  -805.484783c -4.75  -2.95    +56.1602
iter:  40 05:36:43  -805.497386c -4.75  -2.98    +56.0165
iter:  41 05:38:43  -805.499452c -4.76  -2.97    +55.9597
iter:  42 05:40:49  -805.506876c -4.45  -3.01    +55.8785
iter:  43 05:42:56  -805.511396c -4.44  -3.10    +55.7794
iter:  44 05:44:59  -805.511614c -4.86  -3.18    +55.7273
iter:  45 05:46:57  -805.519693c -4.97  -3.31    +55.6579
iter:  46 05:48:55  -805.523222c -5.19  -3.32    +55.6213
iter:  47 05:50:52  -805.527807c -5.18  -3.36    +55.5647
iter:  48 05:52:56  -805.533772c -5.16  -3.41    +55.5238
iter:  49 05:54:54  -805.538988c -5.20  -3.51    +55.4697
iter:  50 05:57:12  -805.544664c -5.17  -3.52    +55.4176
iter:  51 05:59:11  -805.549090c -5.36  -3.56    +55.3817
iter:  52 06:01:18  -805.558115c -5.02  -3.59    +55.3038
iter:  53 06:03:22  -805.603713c -3.72  -3.55    +54.9075
iter:  54 06:05:21  -805.622859c -3.95  -3.26    +54.7254
iter:  55 06:07:18  -805.640510c -3.91  -3.15    +54.5407
iter:  56 06:09:16  -805.644498c -4.48  -3.05    +54.5265
iter:  57 06:11:24  -805.639778c -4.90  -3.03    +54.5419
iter:  58 06:13:22  -805.641793c -5.11  -3.07    +54.5493
iter:  59 06:15:29  -805.636183c -5.33  -3.06    +54.5566
iter:  60 06:17:32  -805.632739c -4.70  -3.12    +54.5606
iter:  61 06:19:30  -805.629240c -4.36  -3.13    +54.5598
iter:  62 06:21:27  -805.625759c -4.96  -3.15    +54.5331
iter:  63 06:23:28  -805.626478c -4.88  -3.24    +54.5130
iter:  64 06:25:28  -805.624805c -5.11  -3.22    +54.5167
iter:  65 06:27:26  -805.623688c -5.10  -3.29    +54.5246
iter:  66 06:29:34  -805.623445c -5.20  -3.41    +54.5451
iter:  67 06:31:41  -805.625582c -5.17  -3.46    +54.5619
iter:  68 06:33:48  -805.622827c -5.49  -3.42    +54.5652
iter:  69 06:35:54  -805.622836c -5.63  -3.52    +54.5780
iter:  70 06:37:52  -805.623028c -5.68  -3.60    +54.6039
iter:  71 06:39:50  -805.623040c -5.69  -3.64    +54.6210
iter:  72 06:41:48  -805.622864c -5.91  -3.62    +54.6317
iter:  73 06:43:45  -805.622636c -5.87  -3.73    +54.6480
iter:  74 06:45:52  -805.623618c -5.87  -3.72    +54.6610
iter:  75 06:47:52  -805.623180c -5.95  -3.74    +54.6778
iter:  76 06:49:55  -805.623233c -6.02  -3.77    +54.6875
iter:  77 06:51:50  -805.623197c -6.07  -3.80    +54.6970
iter:  78 06:53:46  -805.623511c -5.85  -3.91    +54.7163
iter:  79 06:55:44  -805.623730c -6.13  -3.79    +54.7211
iter:  80 06:57:49  -805.623334c -6.19  -3.93    +54.7297
iter:  81 06:59:53  -805.623716c -6.31  -3.98    +54.7387
iter:  82 07:01:54  -805.623932c -6.32  -3.98    +54.7491
iter:  83 07:04:01  -805.623939c -6.61  -3.98    +54.7601
iter:  84 07:06:05  -805.624183c -6.62  -4.07c   +54.7700
iter:  85 07:08:03  -805.624339c -7.07  -4.07c   +54.7697
iter:  86 07:10:01  -805.624362c -6.41  -4.03c   +54.7813
iter:  87 07:12:07  -805.624576c -6.67  -3.93    +54.7852
iter:  88 07:14:10  -805.624922c -6.47  -3.95    +54.7986
iter:  89 07:16:28  -805.624979c -6.87  -3.94    +54.8060
iter:  90 07:18:28  -805.625431c -6.19  -3.99    +54.8194
iter:  91 07:20:31  -805.625853c -6.33  -3.89    +54.8195
iter:  92 07:22:28  -805.625567c -6.35  -3.93    +54.8235
iter:  93 07:24:26  -805.625880c -6.60  -3.99    +54.8298
iter:  94 07:26:23  -805.626049c -6.90  -4.00c   +54.8344
iter:  95 07:28:20  -805.623753c -5.09  -3.98    +54.7639
iter:  96 07:30:18  -805.621923c -4.96  -4.18c   +54.7084
iter:  97 07:32:14  -805.623204c -5.56  -4.11c   +54.7558
iter:  98 07:34:16  -805.622183c -5.84  -4.23c   +54.7210
iter:  99 07:36:17  -805.621629c -5.92  -4.24c   +54.7033
iter: 100 07:38:23  -805.621467c -6.36  -4.27c   +54.7025
iter: 101 07:40:30  -805.620914c -5.75  -4.25c   +54.7041
iter: 102 07:42:32  -805.620457c -5.76  -4.09c   +54.7048
iter: 103 07:44:30  -805.619918c -5.69  -3.98    +54.7078
iter: 104 07:46:28  -805.620556c -6.07  -3.88    +54.7077
iter: 105 07:48:26  -805.620245c -6.55  -3.99    +54.7137
iter: 106 07:50:26  -805.620482c -6.79  -3.94    +54.7194
iter: 107 07:52:24  -805.621220c -5.96  -4.01c   +54.7245
iter: 108 07:54:21  -805.620448c -6.17  -3.77    +54.7259
iter: 109 07:56:26  -805.620541c -5.97  -4.02c   +54.7328
iter: 110 07:58:26  -805.620836c -6.27  -3.87    +54.7347
iter: 111 08:00:33  -805.620839c -6.28  -4.13c   +54.7398
iter: 112 08:02:33  -805.620819c -6.83  -4.07c   +54.7426
iter: 113 08:04:31  -805.621073c -6.61  -4.28c   +54.7556
iter: 114 08:06:29  -805.621534c -6.55  -4.35c   +54.7636
iter: 115 08:08:28  -805.621585c -6.77  -4.33c   +54.7692
iter: 116 08:10:25  -805.621699c -6.71  -4.37c   +54.7742
iter: 117 08:12:24  -805.621998c -6.95  -4.53c   +54.7788
iter: 118 08:14:22  -805.622095c -7.00  -4.58c   +54.7833
iter: 119 08:16:31  -805.622217c -7.20  -4.52c   +54.7859
iter: 120 08:18:30  -805.622393c -6.90  -4.65c   +54.7918
iter: 121 08:20:37  -805.622375c -7.87c -4.65c   +54.7911

Converged after 121 iterations.

Dipole moment: (29.670427, 17.934438, 8.187143) |e|*Ang

Total magnetic moment: (0.000000, 0.000000, 54.791110)
Local magnetic moments:
   0 Ni ( 0.000000,  0.000000,  0.428174)
   1 Al ( 0.000000,  0.000000, -0.039982)
   2 Ni ( 0.000000,  0.000000,  0.274428)
   3 Co ( 0.000000,  0.000000,  1.357195)
   4 Al ( 0.000000,  0.000000, -0.029073)
   5 Ni ( 0.000000,  0.000000,  0.174244)
   6 Co ( 0.000000,  0.000000,  1.018070)
   7 Al ( 0.000000,  0.000000, -0.024534)
   8 Al ( 0.000000,  0.000000, -0.045672)
   9 Fe ( 0.000000,  0.000000,  2.127607)
  10 Fe ( 0.000000,  0.000000,  2.313319)
  11 Fe ( 0.000000,  0.000000,  2.274910)
  12 Ni ( 0.000000,  0.000000,  0.336399)
  13 Ni ( 0.000000,  0.000000,  0.253084)
  14 Co ( 0.000000,  0.000000,  1.248232)
  15 Fe ( 0.000000,  0.000000,  2.303327)
  16 Ni ( 0.000000,  0.000000,  0.162876)
  17 Co ( 0.000000,  0.000000,  1.167882)
  18 Al ( 0.000000,  0.000000, -0.017509)
  19 Ni ( 0.000000,  0.000000,  0.237303)
  20 Co ( 0.000000,  0.000000,  1.056443)
  21 Al ( 0.000000,  0.000000,  0.005443)
  22 Ni ( 0.000000,  0.000000,  0.196759)
  23 Cr ( 0.000000,  0.000000,  0.806112)
  24 Cr ( 0.000000,  0.000000, -1.686383)
  25 Fe ( 0.000000,  0.000000,  2.323940)
  26 Fe ( 0.000000,  0.000000,  2.376697)
  27 Ni ( 0.000000,  0.000000,  0.300464)
  28 Fe ( 0.000000,  0.000000,  2.276895)
  29 Co ( 0.000000,  0.000000,  1.058479)
  30 Cr ( 0.000000,  0.000000, -1.544434)
  31 Fe ( 0.000000,  0.000000,  2.109484)
  32 Cr ( 0.000000,  0.000000,  0.049006)
  33 Co ( 0.000000,  0.000000,  0.652220)
  34 Cr ( 0.000000,  0.000000, -0.961566)
  35 Ni ( 0.000000,  0.000000,  0.071815)
  36 Fe ( 0.000000,  0.000000,  2.400644)
  37 Fe ( 0.000000,  0.000000,  2.016493)
  38 Ni ( 0.000000,  0.000000,  0.243942)
  39 Al ( 0.000000,  0.000000, -0.026681)
  40 Al ( 0.000000,  0.000000, -0.020362)
  41 Co ( 0.000000,  0.000000,  0.379073)
  42 Al ( 0.000000,  0.000000, -0.007176)
  43 Cr ( 0.000000,  0.000000,  2.077484)
  44 Cr ( 0.000000,  0.000000, -1.929242)
  45 Al ( 0.000000,  0.000000, -0.012536)
  46 Al ( 0.000000,  0.000000, -0.025975)
  47 Co ( 0.000000,  0.000000,  1.005028)
  48 Fe ( 0.000000,  0.000000,  2.071452)
  49 Cr ( 0.000000,  0.000000,  0.038366)
  50 Cr ( 0.000000,  0.000000, -1.505280)
  51 Cr ( 0.000000,  0.000000, -1.573918)
  52 Ni ( 0.000000,  0.000000,  0.108678)
  53 Co ( 0.000000,  0.000000,  0.757651)
  54 Cr ( 0.000000,  0.000000,  0.797557)
  55 Al ( 0.000000,  0.000000, -0.000327)
  56 Cr ( 0.000000,  0.000000, -1.847118)
  57 Ni ( 0.000000,  0.000000,  0.119231)
  58 Co ( 0.000000,  0.000000,  0.994586)
  59 Ni ( 0.000000,  0.000000,  0.123698)
[...]
  93 Co ( 0.000000,  0.000000,  1.289957)
  94 Fe ( 0.000000,  0.000000,  2.148147)
  95 Cr ( 0.000000,  0.000000, -1.255034)
  96 Cr ( 0.000000,  0.000000, -1.013558)
  97 Ni ( 0.000000,  0.000000,  0.289024)
  98 Cr ( 0.000000,  0.000000,  1.488138)
  99 Fe ( 0.000000,  0.000000,  2.175253)
 100 Al ( 0.000000,  0.000000, -0.038107)
 101 Ni ( 0.000000,  0.000000,  0.080698)
 102 Co ( 0.000000,  0.000000,  0.942601)
 103 Al ( 0.000000,  0.000000, -0.006917)
 104 Ni ( 0.000000,  0.000000,  0.185574)
 105 Al ( 0.000000,  0.000000, -0.021406)
 106 Fe ( 0.000000,  0.000000,  2.221674)
 107 Co ( 0.000000,  0.000000,  0.819384)

Energy contributions relative to reference atoms: (reference = -3235165.067515)

Kinetic:       +231.492365
Potential:     -225.776827
External:        +0.000000
XC:            -840.653745
Entropy (-ST):   -4.030886
Local:          +31.331274
Free energy:   -807.637818
Extrapolated:  -805.622375

Spin contamination: 26.189953 electrons
Showing only first 2 kpts
                      Up                     Down
 Kpt  Band  Eigenvalues  Occupancy  Eigenvalues  Occupancy
  0   454      9.00773    0.99472      9.87629    0.03086
  0   455      9.01366    0.99440      9.89369    0.02606
  0   456      9.04056    0.99268      9.90065    0.02435
  0   457      9.05522    0.99154      9.92753    0.01872

  1   454      8.99586    0.99531      9.88984    0.02706
  1   455      9.01253    0.99446      9.90042    0.02441
  1   456      9.02936    0.99345      9.90752    0.02277
  1   457      9.04341    0.99247      9.92696    0.01882

Fermi level: 9.53160

No gap

Forces in eV/Ang:
  0 Ni    0.38662   -0.43765   -0.45115
  1 Al   -0.44756    0.11405   -1.20096
  2 Ni   -0.08208    0.03809    0.06682
  3 Co    0.17728   -0.08470   -0.33402
  4 Al   -0.50956   -0.17584    0.76715
  5 Ni    0.46660   -0.42401    0.63590
  6 Co   -0.24301    0.30755    1.03191
  7 Al   -0.65518    0.23169    0.13794
  8 Al   -0.65914   -0.27533    2.01852
  9 Fe    0.48717    0.02671    0.52841
 10 Fe   -0.08342   -0.56815    0.51535
 11 Fe    0.33378    0.43890    0.13662
 12 Ni   -0.00545   -0.22776   -0.09554
 13 Ni   -0.05432   -0.27915    0.06639
 14 Co    0.46500    0.02902   -0.40955
 15 Fe    0.34341   -0.38254    0.73464
 16 Ni   -0.43785   -0.10656    0.17152
 17 Co   -0.70741    0.52871    0.13791
 18 Al   -1.28757   -0.38805   -0.37450
 19 Ni   -0.20620    0.07564   -0.19395
 20 Co    0.47825    0.14439   -0.16237
 21 Al    1.03384   -1.02534   -0.25180
 22 Ni   -0.45232   -0.00808    0.27859
 23 Cr   -0.02741    0.02721    0.26072
 24 Cr    0.05944    1.01433   -0.17407
 25 Fe   -0.26476    0.42631   -0.94007
 26 Fe    0.36976   -0.26272   -0.05917
 27 Ni   -0.78400    0.28657   -0.05981
 28 Fe    0.20933    0.02562    0.41038
 29 Co    0.19098   -0.22853    0.29826
 30 Cr   -0.99554    1.10700   -0.31727
 31 Fe    0.01176   -0.54442    0.56842
 32 Cr    0.07557    0.01147   -0.53129
 33 Co    0.07810    0.12563    0.49462
 34 Cr    0.35816    0.85351    0.03965
 35 Ni    0.41711    0.20549   -0.28835
 36 Fe   -0.34897   -0.30915   -0.16907
 37 Fe    0.10226    0.80499   -0.21593
 38 Ni    0.80981    0.11555   -0.25087
 39 Al    1.25288    0.17729    0.09285
 40 Al    1.16505    1.20658   -0.63192
 41 Co   -0.00887    0.20725   -0.68925
 42 Al   -0.94195    1.55630   -0.64097
 43 Cr   -0.27031   -0.77179   -0.24667
 44 Cr   -1.13610    0.26858   -1.85117
 45 Al    0.28243    0.84950    0.27118
 46 Al    0.18170   -0.54753   -0.36679
 47 Co   -0.37490    0.28308   -0.20214
 48 Fe   -0.09586    0.37811    0.33072
 49 Cr   -0.02769    0.00320    0.39154
 50 Cr    0.48205    0.37170    1.24436
 51 Cr    0.53350    0.14000    0.03239
 52 Ni   -0.33297   -0.03782    0.08605
 53 Co   -0.63852   -0.07094   -0.04723
 54 Cr   -0.16446   -0.52799    0.61240
 55 Al   -1.54614    0.57526    0.93095
 56 Cr    0.59753   -1.18486    0.13439
 57 Ni    0.31825   -0.31221   -0.00642
 58 Co    0.11178    0.38827   -0.32410
 59 Ni   -0.16621   -0.53251    0.00300
[...]
 93 Co   -0.00042    0.38657   -0.18297
 94 Fe   -0.19048   -0.20148   -0.02755
 95 Cr   -0.50837   -0.11293   -0.12912
 96 Cr    0.00048    0.41105    0.36282
 97 Ni   -0.44597   -0.39721    0.01365
 98 Cr   -1.10399    0.49460    0.30371
 99 Fe   -0.69058    0.06686   -0.09798
100 Al   -0.47368   -0.64290   -0.41435
101 Ni    0.25245   -0.38120    0.07551
102 Co   -0.19703   -0.61932    0.42649
103 Al   -0.28684   -0.90237    1.20806
104 Ni    0.09002   -0.17393    0.46192
105 Al    0.05407   -1.79950   -0.64356
106 Fe    0.73687    0.21251   -0.58045
107 Co    0.98302   -0.94607    0.35468

Date: Sat Apr 15 08:20:59 2023