User:   c.zeng@d0088
Date:   Fri Apr 14 15:09:51 2023
Arch:   x86_64
Pid:    81546
CWD:    /home/c.zeng/projects/hea-corrosion/hea-mlp/data-curation/bulk-mcmc/dft-jobs/141
Python: 3.8.1
gpaw:   /home/c.zeng/usr/installs/gpaw/source/gpaw-22.8.0/gpaw
_gpaw:  /home/c.zeng/usr/installs/gpaw/source/gpaw-22.8.0/
        _gpaw.cpython-38-x86_64-linux-gnu.so
ase:    /home/c.zeng/.local/lib/python3.8/site-packages/ase-3.22.1-py3.8.egg/ase (version 3.22.1)
numpy:  /shared/centos7/python/3.8.1/lib/python3.8/site-packages/numpy (version 1.17.4)
scipy:  /shared/centos7/python/3.8.1/lib/python3.8/site-packages/scipy (version 1.4.1)
units:  Angstrom and eV
cores: 30
OpenMP: False
OMP_NUM_THREADS: 1

Input parameters:
  convergence: {energy: 0.0001}
  kpts: [2 2 2]
  maxiter: 666
  mode: {ecut: 350.0,
         name: pw}
  occupations: {fixmagmom: False,
                name: fermi-dirac,
                width: 0.1}
  spinpol: True
  xc: PBE

System changes: positions, numbers, cell, pbc, initial_charges, initial_magmoms

Initialize ...

species:
  Co:
    name: Cobalt
    id: 339d20d5b0b93d2de9531a1bee871d91
    Z: 27.0
    valence: 9
    core: 18
    charge: 0.0
    file: /home/c.zeng/usr/data/gpaw-setups-0.9.20000/Co.PBE.gz
    compensation charges: {type: gauss,
                           rc: 0.32,
                           lmax: 2}
    cutoffs: {filter: 1.87,
              core: 2.55}
    valence states:
      #              energy  rcut
      - 4s(2.00)    -5.469   1.005
      - 4p(0.00)    -1.277   1.058
      - 3d(7.00)    -8.205   1.005
      -  s          21.742   1.005
      -  p          25.934   1.058
      -  d          19.007   1.005

    # Using partial waves for Co as LCAO basis

  Fe:
    name: Iron
    id: 37abbd8d6c3c35915a9b583b742da910
    Z: 26.0
    valence: 8
    core: 18
    charge: 0.0
    file: /home/c.zeng/usr/data/gpaw-setups-0.9.20000/Fe.PBE.gz
    compensation charges: {type: gauss,
                           rc: 0.33,
                           lmax: 2}
    cutoffs: {filter: 2.06,
              core: 2.67}
    valence states:
      #              energy  rcut
      - 4s(2.00)    -5.291   1.164
      - 4p(0.00)    -1.326   1.058
      - 3d(6.00)    -7.505   1.058
      -  s          21.920   1.164
      -  p          25.885   1.058
      -  d          19.706   1.058

[...]

  Ni:
    name: Nickel
    id: 0d9f38a9d6e76a2886f07bb4381f212b
    Z: 28.0
    valence: 16
    core: 12
    charge: 0.0
    file: /home/c.zeng/usr/data/gpaw-setups-0.9.20000/Ni.PBE.gz
    compensation charges: {type: gauss,
                           rc: 0.36,
                           lmax: 2}
    cutoffs: {filter: 2.14,
              core: 1.98}
    valence states:
      #              energy  rcut
      - 4s(2.00)    -5.642   1.164
      - 3p(6.00)   -71.394   1.207
      - 4p(0.00)    -1.226   1.207
      - 3d(8.00)    -8.875   1.138
      -  s          21.570   1.164
      -  d          18.337   1.138

[...]

  Al:
    name: Aluminium
    id: 0292cae29f5d6237e50f6abdd43a7bdd
    Z: 13.0
    valence: 3
    core: 10
    charge: 0.0
    file: /home/c.zeng/usr/data/gpaw-setups-0.9.20000/Al.PBE.gz
    compensation charges: {type: gauss,
                           rc: 0.34,
                           lmax: 2}
    cutoffs: {filter: 1.91,
              core: 2.36}
    valence states:
      #              energy  rcut
      - 3s(2.00)    -7.753   1.085
      - 3p(1.00)    -2.712   1.085
      -  s          19.459   1.085
      -  p          24.499   1.085
      -  d           0.000   1.085

[...]

  Cr:
    name: Chromium
    id: 33f258bda2ca9f93018e70263a35547b
    Z: 24.0
    valence: 6
    core: 18
    charge: 0.0
    file: /home/c.zeng/usr/data/gpaw-setups-0.9.20000/Cr.PBE.gz
    compensation charges: {type: gauss,
                           rc: 0.35,
                           lmax: 2}
    cutoffs: {filter: 2.14,
              core: 3.04}
    valence states:
      #              energy  rcut
      - 4s(1.00)    -4.007   1.164
      - 4p(0.00)    -0.989   1.217
      - 3d(5.00)    -2.913   1.111
      -  s          23.205   1.164
      -  p          26.223   1.217
      -  d          24.299   1.111

    # Using partial waves for Cr as LCAO basis

Reference energy: -3548577.034362  # eV

Spin-polarized calculation.
Magnetic moment: 136.400000

Convergence criteria:
 Maximum [total energy] change in last 3 cyles: 0.0001 eV / electron
 Maximum integral of absolute [dens]ity change: 0.0001 electrons / valence electron
 Maximum integral of absolute [eigenst]ate change: 4e-08 eV^2 / valence electron
 Maximum number of scf [iter]ations: 666
 (Square brackets indicate name in SCF output, whereas a 'c' in
 the SCF output indicates the quantity has converged.)

Symmetries present (total): 1

  ( 1  0  0)
  ( 0  1  0)
  ( 0  0  1)

8 k-points: 2 x 2 x 2 Monkhorst-Pack grid
4 k-points in the irreducible part of the Brillouin zone
       k-points in crystal coordinates                weights
   0:     0.25000000   -0.25000000   -0.25000000          2/8
   1:     0.25000000   -0.25000000    0.25000000          2/8
   2:     0.25000000    0.25000000   -0.25000000          2/8
   3:     0.25000000    0.25000000    0.25000000          2/8

Wave functions: Plane wave expansion
  Cutoff energy: 350.000 eV
  Number of coefficients (min, max): 18331, 18331
  Pulay-stress correction: 0.000000 eV/Ang^3 (de/decut=0.000000)
  Using FFTW library
  ScaLapack parameters: grid=1x1, blocksize=None
  Wavefunction extrapolation:
    Improved wavefunction reuse through dual PAW basis

Occupation numbers: Fermi-Dirac:
  width: 0.1000  # eV

Eigensolver
   Davidson(niter=2)

Densities:
  Coarse grid: 48*48*48 grid
  Fine grid: 96*96*96 grid
  Total Charge: 0.000000

Density mixing:
  Method: difference
  Backend: pulay
  Linear mixing parameter: 0.05
  old densities: 5
  Damping of long wavelength oscillations: 50

Hamiltonian:
  XC and Coulomb potentials evaluated on a 96*96*96 grid
  Using the PBE Exchange-Correlation functional
  External potential:
    NoExternalPotential

XC parameters: PBE with 2 nearest neighbor stencil

Total number of cores used: 30
Parallelization over k-points: 2
Domain decomposition: 5 x 3 x 1

Number of atoms: 108
Number of atomic orbitals: 994
Number of bands in calculation: 674
Number of valence electrons: 980
Bands to converge: occupied

... initialized

Initializing position-dependent things.

Density initialized from atomic densities
Creating initial wave functions:
  674 bands from LCAO basis set

        Co-------Co---------------.
       /|  Co       Fe            |
      / |   AlCr     CrCo     CrCo|
     / Ni       CAl     Ni        |
    /   CCo      Ni      FAl      |
   /    | CoCo     Co      CoCo   |
  /   Co|  NiFeAl   NiNi    CrCr  |
 *      Cr  CrCoNi   CoNiNi   FeNi|
 |Fe   NiAlCr   CrNCr   FeCr      |
 | Fe   | NiNi   NiNiCr    Cr     |
 |     Co  CoFeAl   FeNiAl  NiNi  |
 |      Fe    FeNi   FeAlFe   AlCr|
 |Cr    |CoNi   NFeFe   FeFe     Fe
 |      .-FeCr-----FeCr--FeCoNi---.
 |     Cr    CoCr     FeCo  Cr Fe/
 |    / Al      Co       Cr     /
 Cr  /            Cr           /
 |  /      Ni      Cr       Fe/
 | / Co              Fe      /
 |/                     Co  /

Positions:
   0 Co    10.732479   -0.010418   10.721263    ( 0.0000,  0.0000,  2.1000)
   1 Fe    10.706231    1.787006    1.816653    ( 0.0000,  0.0000,  1.5000)
   2 Co     1.827923    0.046024    1.820803    ( 0.0000,  0.0000,  0.0000)
   3 Co     1.781666    1.794790   10.668295    ( 0.0000,  0.0000,  0.0000)
   4 Co     3.605675   -0.024615   10.696977    ( 0.0000,  0.0000,  0.0000)
   5 Ni     3.626284    1.755611    1.827590    ( 0.0000,  0.0000,  2.0000)
   6 Fe     5.347186   -0.032870    1.798425    ( 0.0000,  0.0000,  2.0000)
   7 Al     5.383406    1.755353   -0.004078    ( 0.0000,  0.0000,  2.0000)
   8 Fe     7.108694   -0.021619    0.052076    ( 0.0000,  0.0000,  0.0000)
   9 Cr     7.129131    1.783639    1.838109    ( 0.0000,  0.0000,  2.0000)
  10 Al     8.928414   -0.004386    1.840918    ( 0.0000,  0.0000,  2.0000)
  11 Co     8.945645    1.852509    0.063651    ( 0.0000,  0.0000,  0.0000)
  12 Co    10.721403    3.615743   10.707625    ( 0.0000,  0.0000,  2.1000)
  13 Fe    10.714905    5.407607    1.816064    ( 0.0000,  0.0000,  2.0000)
  14 Al     1.786931    3.537020    1.885127    ( 0.0000,  0.0000,  0.0000)
  15 Co     1.774396    5.426328   10.657058    ( 0.0000,  0.0000,  0.0000)
  16 Co     3.564340    3.564490   10.690115    ( 0.0000,  0.0000,  0.0000)
  17 Co     3.570334    5.434059    1.813919    ( 0.0000,  0.0000,  0.0000)
  18 Co     5.350145    3.574934    1.808708    ( 0.0000,  0.0000,  0.0000)
  19 Al     5.345084    5.410577   10.703464    ( 0.0000,  0.0000,  2.1000)
  20 Fe     7.157695    3.624514    0.002553    ( 0.0000,  0.0000,  2.1000)
  21 Fe     7.157792    5.380200    1.803904    ( 0.0000,  0.0000,  0.0000)
  22 Cr     8.944980    3.620622    1.842988    ( 0.0000,  0.0000,  0.0000)
  23 Al     8.940316    5.370571   -0.005231    ( 0.0000,  0.0000,  0.0000)
  24 Co    10.674578    7.138041   10.683446    ( 0.0000,  0.0000,  2.0000)
  25 Fe    10.668413    8.869012    1.800001    ( 0.0000,  0.0000,  0.0000)
  26 Fe     1.807904    7.157309    1.806960    ( 0.0000,  0.0000,  1.5000)
  27 Co     1.808086    8.895217   10.689064    ( 0.0000,  0.0000,  0.0000)
  28 Cr     3.612462    7.185391   10.698339    ( 0.0000,  0.0000,  2.0000)
  29 Ni     3.598277    8.905404    1.808097    ( 0.0000,  0.0000,  1.5000)
  30 Fe     5.362229    7.149643    1.778835    ( 0.0000,  0.0000,  2.1000)
  31 Fe     5.368084    8.904170   10.708750    ( 0.0000,  0.0000,  2.0000)
  32 Co     7.127640    7.124156   10.700741    ( 0.0000,  0.0000,  2.0000)
  33 Fe     7.139982    8.914904    1.783157    ( 0.0000,  0.0000,  0.0000)
  34 Co     8.884516    7.107975    1.798232    ( 0.0000,  0.0000,  2.0000)
  35 Cr     8.895410    8.880302    0.005476    ( 0.0000,  0.0000,  0.0000)
  36 Cr    10.737840    0.006469    3.587908    ( 0.0000,  0.0000,  1.5000)
  37 Cr     0.009110    1.816214    5.359506    ( 0.0000,  0.0000,  1.5000)
  38 Cr     1.833434   -0.010553    5.335488    ( 0.0000,  0.0000,  2.1000)
  39 Cr     1.814369    1.777409    3.664755    ( 0.0000,  0.0000,  1.5000)
  40 Ni     3.608002   -0.027958    3.615958    ( 0.0000,  0.0000,  2.1000)
  41 Ni     3.597397    1.774364    5.368180    ( 0.0000,  0.0000,  1.5000)
  42 Co     5.355185   -0.018813    5.365682    ( 0.0000,  0.0000,  2.1000)
  43 Cr     5.354005    1.762698    3.609396    ( 0.0000,  0.0000,  1.5000)
  44 Cr     7.096449    0.004839    3.553950    ( 0.0000,  0.0000,  0.0000)
  45 Fe     7.124574    1.817747    5.354692    ( 0.0000,  0.0000,  2.1000)
  46 Fe     8.888698   10.712332    5.289714    ( 0.0000,  0.0000,  0.0000)
  47 Co     8.931727    1.815495    3.558979    ( 0.0000,  0.0000,  1.5000)
  48 Ni    10.700248    3.599864    3.631730    ( 0.0000,  0.0000,  0.0000)
  49 Ni    -0.007893    5.382698    5.388017    ( 0.0000,  0.0000,  2.0000)
  50 Fe     1.794265    3.594073    5.365264    ( 0.0000,  0.0000,  2.0000)
  51 Co     1.782020    5.398675    3.628600    ( 0.0000,  0.0000,  1.5000)
[...]
  57 Ni     7.149503    5.367108    5.369102    ( 0.0000,  0.0000,  2.1000)
  58 Fe     8.930869    3.577164    5.375332    ( 0.0000,  0.0000,  0.0000)
  59 Fe     8.940702    5.382345    3.619239    ( 0.0000,  0.0000,  2.0000)
[...]
  93 Ni     7.158199    5.390858    8.905983    ( 0.0000,  0.0000,  1.5000)
  94 Ni     8.930826    3.597912    8.885374    ( 0.0000,  0.0000,  0.0000)
  95 Cr     8.935737    5.388735    7.127651    ( 0.0000,  0.0000,  0.0000)
  96 Ni    10.717929    7.165190    7.144378    ( 0.0000,  0.0000,  2.1000)
  97 Ni    10.739341    8.898756    8.943093    ( 0.0000,  0.0000,  1.5000)
  98 Co     1.793750    7.182882    8.888666    ( 0.0000,  0.0000,  1.5000)
  99 Ni     1.836501    8.904825    7.123094    ( 0.0000,  0.0000,  2.1000)
 100 Co     3.587511    7.157223    7.133645    ( 0.0000,  0.0000,  2.1000)
 101 Co     3.596025    8.923803    8.905018    ( 0.0000,  0.0000,  1.5000)
 102 Co     5.369413    7.149278    8.921112    ( 0.0000,  0.0000,  2.0000)
 103 Ni     5.343776    8.916533    7.143070    ( 0.0000,  0.0000,  2.1000)
 104 Ni     7.139778    7.140400    7.139349    ( 0.0000,  0.0000,  2.1000)
 105 Ni     7.106892    8.889835    8.908727    ( 0.0000,  0.0000,  1.5000)
 106 Co     8.907419    7.146362    8.906765    ( 0.0000,  0.0000,  2.0000)
 107 Cr     8.922313    8.892279    7.115031    ( 0.0000,  0.0000,  2.0000)

Unit cell:
           periodic     x           y           z      points  spacing
  1. axis:    yes   10.722400    0.000000    0.000000    48     0.2234
  2. axis:    yes    0.000000   10.722400    0.000000    48     0.2234
  3. axis:    yes    0.000000    0.000000   10.722400    48     0.2234

  Lengths:  10.722400  10.722400  10.722400
  Angles:   90.000000  90.000000  90.000000

Effective grid spacing dv^(1/3) = 0.2234

     iter     time        total  log10-change:  magmom
                         energy  eigst   dens
iter:   1 15:13:54  -927.756268                  +135.9320
iter:   2 15:15:27  -905.474006  -0.44  -1.32    +99.3049
iter:   3 15:17:00  -886.375248  -0.86  -1.28    +71.9374
iter:   4 15:18:32  -857.835074  -1.41  -1.32    +60.9345
iter:   5 15:20:05  -855.762533  -1.79  -1.44    +54.7707
iter:   6 15:21:38  -855.792249  -1.92  -1.46    +51.8890
iter:   7 15:23:10  -856.166197  -1.69  -1.50    +50.2083
iter:   8 15:24:43  -851.221441  -1.73  -1.52    +49.5964
iter:   9 15:26:16  -862.644732  -1.66  -1.67    +49.5609
iter:  10 15:27:49  -848.851173  -1.85  -1.59    +48.8982
iter:  11 15:29:21  -850.202462  -2.29  -1.86    +49.3433
iter:  12 15:30:54  -848.679901  -2.56  -1.84    +49.8309
iter:  13 15:32:26  -849.578739  -2.52  -1.92    +50.5686
iter:  14 15:33:59  -849.707090  -2.57  -1.92    +51.4159
iter:  15 15:35:31  -851.051667  -2.49  -1.98    +52.0190
iter:  16 15:37:04  -851.373250  -2.41  -1.97    +52.9246
iter:  17 15:38:37  -850.926528  -2.55  -1.97    +53.1090
iter:  18 15:40:09  -850.309817  -2.66  -2.05    +53.7816
iter:  19 15:41:40  -850.408093  -2.68  -2.11    +54.3441
iter:  20 15:43:12  -849.803044  -3.04  -2.13    +54.6629
iter:  21 15:44:43  -849.882208  -3.23  -2.24    +55.7720
iter:  22 15:46:14  -849.940322  -3.33  -2.28    +56.3806
iter:  23 15:47:45  -849.973966c -3.52  -2.29    +57.3152
iter:  24 15:49:17  -850.297925  -3.38  -2.35    +58.3022
iter:  25 15:50:48  -850.268121  -3.59  -2.34    +58.3208
iter:  26 15:52:19  -850.497346  -3.34  -2.36    +59.0967
iter:  27 15:53:51  -850.727992  -3.32  -2.39    +59.5821
iter:  28 15:55:22  -850.881787  -3.17  -2.36    +60.3354
iter:  29 15:56:54  -850.866103  -3.37  -2.39    +60.6431
iter:  30 15:58:25  -850.832223c -3.46  -2.41    +61.3656
iter:  31 15:59:56  -850.884642c -3.71  -2.47    +61.6865
iter:  32 16:01:28  -850.927367c -3.97  -2.50    +62.2363
iter:  33 16:02:59  -851.023719  -4.00  -2.53    +62.7087
iter:  34 16:04:31  -851.297786  -3.28  -2.53    +63.8898
iter:  35 16:06:02  -851.479549  -3.59  -2.48    +64.2150
iter:  36 16:07:34  -851.577714  -3.61  -2.45    +64.1105
iter:  37 16:09:05  -851.703405  -3.42  -2.44    +64.3870
iter:  38 16:10:36  -851.698206  -3.41  -2.43    +64.3548
iter:  39 16:12:08  -851.847838  -3.07  -2.42    +64.3810
iter:  40 16:13:39  -851.561776  -3.41  -2.38    +64.4960
iter:  41 16:15:11  -851.565515  -3.57  -2.55    +64.3264
iter:  42 16:16:42  -851.496633c -3.92  -2.56    +64.3451
iter:  43 16:18:13  -851.477993c -4.11  -2.62    +64.0866
iter:  44 16:19:45  -851.504291c -4.35  -2.68    +64.1872
iter:  45 16:21:16  -851.514991c -4.38  -2.69    +64.1842
iter:  46 16:22:48  -851.535541c -4.29  -2.69    +64.1705
iter:  47 16:24:19  -851.599393c -3.84  -2.70    +64.1691
iter:  48 16:25:51  -851.605687c -3.89  -2.66    +64.1423
iter:  49 16:27:23  -851.618908c -3.81  -2.70    +64.2637
iter:  50 16:28:54  -851.611474c -3.86  -2.68    +64.1448
iter:  51 16:30:25  -851.591744c -3.93  -2.69    +64.0349
iter:  52 16:31:57  -851.548908c -4.31  -2.74    +64.0646
iter:  53 16:33:28  -851.552582c -4.71  -2.88    +64.0229
iter:  54 16:35:00  -851.552580c -5.07  -2.89    +64.0163
iter:  55 16:36:31  -851.568812c -4.60  -2.92    +63.9369
iter:  56 16:38:03  -851.581533c -4.64  -2.90    +63.9685
iter:  57 16:39:34  -851.607716c -4.22  -2.93    +63.9618
iter:  58 16:41:06  -851.617905c -4.08  -2.88    +63.9381
iter:  59 16:42:37  -851.606308c -4.10  -2.86    +63.9429
iter:  60 16:44:09  -851.588028c -4.35  -2.95    +63.9032
iter:  61 16:45:40  -851.584114c -4.62  -3.08    +63.9838
iter:  62 16:47:12  -851.578310c -5.20  -3.12    +63.9418
iter:  63 16:48:43  -851.583394c -5.30  -3.26    +63.9201
iter:  64 16:50:14  -851.586726c -5.44  -3.28    +63.9024
iter:  65 16:51:46  -851.590034c -5.34  -3.29    +63.8815
iter:  66 16:53:18  -851.596220c -4.97  -3.38    +63.8432
iter:  67 16:54:49  -851.599643c -4.95  -3.36    +63.8446
iter:  68 16:56:20  -851.599427c -5.10  -3.33    +63.8227
iter:  69 16:57:51  -851.602420c -5.23  -3.54    +63.8128
iter:  70 16:59:23  -851.603297c -5.39  -3.52    +63.7832
iter:  71 17:00:54  -851.606418c -5.53  -3.62    +63.7657
iter:  72 17:02:26  -851.608098c -5.96  -3.68    +63.7523
iter:  73 17:03:57  -851.607912c -6.15  -3.68    +63.7761
iter:  74 17:05:28  -851.613038c -5.49  -3.67    +63.7597
iter:  75 17:07:00  -851.613999c -5.78  -3.67    +63.7504
iter:  76 17:08:31  -851.617813c -5.49  -3.63    +63.7121
iter:  77 17:10:03  -851.619910c -5.82  -3.68    +63.6920
iter:  78 17:11:34  -851.622419c -5.91  -3.71    +63.6748
iter:  79 17:13:05  -851.618762c -5.55  -3.63    +63.6992
iter:  80 17:14:36  -851.624541c -5.44  -3.61    +63.6787
iter:  81 17:16:07  -851.624928c -6.00  -3.67    +63.6758
iter:  82 17:17:39  -851.631307c -5.36  -3.69    +63.6251
iter:  83 17:19:10  -851.630010c -5.94  -3.62    +63.6320
iter:  84 17:20:41  -851.634765c -5.38  -3.83    +63.5804
iter:  85 17:22:12  -851.636861c -5.47  -3.69    +63.5784
iter:  86 17:23:43  -851.640549c -5.50  -3.73    +63.5713
iter:  87 17:25:15  -851.643814c -5.73  -3.88    +63.5501
iter:  88 17:26:46  -851.644725c -5.97  -3.92    +63.5384
iter:  89 17:28:17  -851.647723c -5.56  -3.79    +63.5068
iter:  90 17:29:48  -851.653423c -5.38  -3.69    +63.4877
iter:  91 17:31:20  -851.654668c -5.65  -3.68    +63.4790
iter:  92 17:32:51  -851.660537c -5.38  -3.78    +63.4767
iter:  93 17:34:22  -851.661329c -5.61  -3.81    +63.4765
iter:  94 17:35:54  -851.666046c -5.44  -3.61    +63.4293
iter:  95 17:37:25  -851.669414c -5.68  -3.77    +63.4035
iter:  96 17:38:56  -851.673414c -5.71  -3.72    +63.3975
iter:  97 17:40:27  -851.674838c -5.83  -3.61    +63.3724
iter:  98 17:41:58  -851.689257c -4.93  -3.69    +63.3210
iter:  99 17:43:30  -851.683021c -5.64  -3.37    +63.3417
iter: 100 17:45:01  -851.690687c -5.47  -3.44    +63.3438
iter: 101 17:46:32  -851.704485c -4.62  -3.39    +63.3330
[...]
iter: 119 18:13:57  -851.755624c -4.72  -3.43    +63.8613
iter: 120 18:15:30  -851.742663c -5.16  -3.23    +63.8459
iter: 121 18:17:02  -851.744399c -5.38  -3.58    +63.7494
iter: 122 18:18:34  -851.743318c -5.78  -3.49    +63.7395
iter: 123 18:20:07  -851.745402c -5.45  -3.64    +63.6652
iter: 124 18:21:40  -851.744387c -5.50  -3.54    +63.6553
iter: 125 18:23:12  -851.744780c -5.37  -3.64    +63.6097
iter: 126 18:24:44  -851.744407c -5.45  -3.53    +63.5985
iter: 127 18:26:17  -851.744812c -5.50  -3.64    +63.5653
iter: 128 18:27:49  -851.743386c -5.76  -3.67    +63.5574
iter: 129 18:29:22  -851.742878c -6.13  -3.77    +63.5503
iter: 130 18:30:55  -851.743032c -6.18  -3.86    +63.5101
iter: 131 18:32:28  -851.742923c -6.30  -3.90    +63.5012
iter: 132 18:34:00  -851.742786c -6.04  -3.97    +63.4853
iter: 133 18:35:33  -851.742471c -6.52  -3.82    +63.4852
iter: 134 18:37:05  -851.743203c -6.06  -4.10c   +63.4736
iter: 135 18:38:38  -851.742751c -6.38  -3.85    +63.4700
iter: 136 18:40:11  -851.742438c -6.49  -4.06c   +63.4733
iter: 137 18:41:43  -851.742326c -6.59  -4.11c   +63.4644
iter: 138 18:43:15  -851.742462c -6.65  -4.12c   +63.4549
iter: 139 18:44:48  -851.742194c -6.82  -4.15c   +63.4459
iter: 140 18:46:21  -851.742151c -7.05  -4.29c   +63.4426
iter: 141 18:47:54  -851.742095c -7.13  -4.26c   +63.4425
iter: 142 18:49:26  -851.742192c -7.02  -4.32c   +63.4359
iter: 143 18:50:59  -851.742180c -6.87  -4.28c   +63.4359
iter: 144 18:52:32  -851.742008c -7.16  -4.29c   +63.4346
iter: 145 18:54:04  -851.742058c -7.00  -4.59c   +63.4309
iter: 146 18:55:37  -851.741989c -7.56c -4.40c   +63.4305

Converged after 146 iterations.

Dipole moment: (-1.899668, 12.943046, 14.410780) |e|*Ang

Total magnetic moment: (0.000000, 0.000000, 63.430502)
Local magnetic moments:
   0 Co ( 0.000000,  0.000000,  1.084520)
   1 Fe ( 0.000000,  0.000000,  2.164036)
   2 Co ( 0.000000,  0.000000,  1.443751)
   3 Co ( 0.000000,  0.000000,  1.111810)
   4 Co ( 0.000000,  0.000000,  1.106751)
   5 Ni ( 0.000000,  0.000000,  0.206458)
   6 Fe ( 0.000000,  0.000000,  1.943323)
   7 Al ( 0.000000,  0.000000, -0.020293)
   8 Fe ( 0.000000,  0.000000, -1.480675)
   9 Cr ( 0.000000,  0.000000,  0.939926)
  10 Al ( 0.000000,  0.000000, -0.015802)
  11 Co ( 0.000000,  0.000000,  0.976964)
  12 Co ( 0.000000,  0.000000,  1.073532)
  13 Fe ( 0.000000,  0.000000,  2.257720)
  14 Al ( 0.000000,  0.000000, -0.030860)
  15 Co ( 0.000000,  0.000000,  1.224676)
  16 Co ( 0.000000,  0.000000,  1.284577)
  17 Co ( 0.000000,  0.000000,  1.132417)
  18 Co ( 0.000000,  0.000000,  1.064171)
  19 Al ( 0.000000,  0.000000, -0.042026)
  20 Fe ( 0.000000,  0.000000,  2.109526)
  21 Fe ( 0.000000,  0.000000,  2.074782)
  22 Cr ( 0.000000,  0.000000, -1.302333)
  23 Al ( 0.000000,  0.000000, -0.038571)
  24 Co ( 0.000000,  0.000000,  1.235816)
  25 Fe ( 0.000000,  0.000000,  2.251426)
  26 Fe ( 0.000000,  0.000000,  2.322909)
  27 Co ( 0.000000,  0.000000,  1.488745)
  28 Cr ( 0.000000,  0.000000, -2.061476)
  29 Ni ( 0.000000,  0.000000,  0.478943)
  30 Fe ( 0.000000,  0.000000,  1.991718)
  31 Fe ( 0.000000,  0.000000,  2.116315)
  32 Co ( 0.000000,  0.000000,  1.198434)
  33 Fe ( 0.000000,  0.000000,  1.850288)
  34 Co ( 0.000000,  0.000000,  1.236805)
  35 Cr ( 0.000000,  0.000000, -1.550744)
  36 Cr ( 0.000000,  0.000000, -1.642905)
  37 Cr ( 0.000000,  0.000000,  0.501584)
  38 Cr ( 0.000000,  0.000000,  0.926609)
  39 Cr ( 0.000000,  0.000000,  0.120341)
  40 Ni ( 0.000000,  0.000000,  0.264732)
  41 Ni ( 0.000000,  0.000000,  0.089710)
  42 Co ( 0.000000,  0.000000,  1.011959)
  43 Cr ( 0.000000,  0.000000,  0.564902)
  44 Cr ( 0.000000,  0.000000, -1.466643)
  45 Fe ( 0.000000,  0.000000,  1.641200)
  46 Fe ( 0.000000,  0.000000,  2.009408)
  47 Co ( 0.000000,  0.000000,  0.507646)
  48 Ni ( 0.000000,  0.000000,  0.270717)
  49 Ni ( 0.000000,  0.000000,  0.265127)
  50 Fe ( 0.000000,  0.000000,  2.027183)
  51 Co ( 0.000000,  0.000000,  1.184208)
  52 Cr ( 0.000000,  0.000000, -1.693606)
  53 Fe ( 0.000000,  0.000000,  2.238806)
  54 Ni ( 0.000000,  0.000000,  0.077052)
  55 Fe ( 0.000000,  0.000000,  2.208462)
  56 Cr ( 0.000000,  0.000000, -1.431953)
  57 Ni ( 0.000000,  0.000000,  0.170478)
  58 Fe ( 0.000000,  0.000000,  1.770475)
  59 Fe ( 0.000000,  0.000000,  1.785514)
[...]
  93 Ni ( 0.000000,  0.000000,  0.218670)
  94 Ni ( 0.000000,  0.000000,  0.219740)
  95 Cr ( 0.000000,  0.000000, -1.073491)
  96 Ni ( 0.000000,  0.000000,  0.034827)
  97 Ni ( 0.000000,  0.000000,  0.235696)
  98 Co ( 0.000000,  0.000000,  1.293517)
  99 Ni ( 0.000000,  0.000000,  0.164793)
 100 Co ( 0.000000,  0.000000,  1.440854)
 101 Co ( 0.000000,  0.000000,  1.262765)
 102 Co ( 0.000000,  0.000000,  1.282840)
 103 Ni ( 0.000000,  0.000000,  0.357833)
 104 Ni ( 0.000000,  0.000000,  0.253595)
 105 Ni ( 0.000000,  0.000000,  0.221316)
 106 Co ( 0.000000,  0.000000,  1.023030)
 107 Cr ( 0.000000,  0.000000, -1.513598)

Energy contributions relative to reference atoms: (reference = -3548577.034362)

Kinetic:       +209.541190
Potential:     -236.265313
External:        +0.000000
XC:            -858.665639
Entropy (-ST):   -4.521027
Local:          +35.908286
Free energy:   -854.002503
Extrapolated:  -851.741989

Spin contamination: 29.413062 electrons
Showing only first 2 kpts
                      Up                     Down
 Kpt  Band  Eigenvalues  Occupancy  Eigenvalues  Occupancy
  0   488      9.47868    0.99465     10.36318    0.02607
  0   489      9.49271    0.99384     10.38033    0.02205
  0   490      9.50071    0.99334     10.39453    0.01919
  0   491      9.51313    0.99246     10.40062    0.01808

  1   488      9.49210    0.99388     10.37609    0.02299
  1   489      9.49766    0.99353     10.39106    0.01986
  1   490      9.50888    0.99277     10.40205    0.01782
  1   491      9.52640    0.99140     10.40907    0.01664

Fermi level: 10.00113

No gap

Forces in eV/Ang:
  0 Co   -0.14756    0.11545    0.14323
  1 Fe    0.14478    0.05081   -0.30242
  2 Co   -0.18359   -0.45573   -0.17987
  3 Co    0.10815    0.12057    0.41899
  4 Co   -0.36758   -0.11577    0.48155
  5 Ni   -0.46071    0.09062   -0.23915
  6 Fe   -0.21862   -0.51071    0.07307
  7 Al   -0.70615    0.82619    0.46935
  8 Fe    0.41198    0.25972   -0.44951
  9 Cr    0.04543    0.52911   -0.12702
 10 Al    0.29869   -0.02075   -0.85245
 11 Co   -0.06041   -0.02475   -0.70770
 12 Co    0.10892   -0.41535    0.13465
 13 Fe    0.22415   -0.07336   -0.29598
 14 Al   -0.01209    0.67571   -1.34384
 15 Co    0.21105   -0.32456    0.26053
 16 Co   -0.24264    0.32338    0.32294
 17 Co   -0.19570   -0.39445   -0.02535
 18 Co   -0.01794    0.26696    0.18456
 19 Al    0.36306   -1.16799    0.00780
 20 Fe    0.01918   -0.42493   -0.00011
 21 Fe   -0.18238   -0.55755    0.01464
 22 Cr    0.31553   -0.75629    0.05172
 23 Al   -0.26821    0.42174   -0.53240
 24 Co    0.48617    0.29328    0.21416
 25 Fe    0.58214    0.17661   -0.32854
 26 Fe   -0.05991    0.06697   -0.40120
 27 Co   -0.09206   -0.11960    0.54581
 28 Cr   -1.09657    0.56988   -0.06007
 29 Ni   -0.42123    0.42888   -0.13381
 30 Fe   -0.27188    0.24135    0.00555
 31 Fe    0.04970    0.16034    0.04061
 32 Co    0.14087    0.59876    0.07247
 33 Fe   -0.03159    0.04046   -0.19002
 34 Co    0.34507    0.34901   -0.05336
 35 Cr    0.02005   -0.46490   -0.58247
 36 Cr    0.49494   -0.34847    0.76065
 37 Cr    0.06414   -0.07371   -0.24400
 38 Cr   -0.47822    0.31808    0.20922
 39 Cr    0.05276   -0.78591   -0.15228
 40 Ni   -0.12266    0.26833   -0.39121
 41 Ni   -0.21279   -0.05265   -0.06577
 42 Co    0.26234   -0.36348   -0.27377
 43 Cr   -0.17616    0.11733    0.02232
 44 Cr   -0.35242   -0.02145    0.69325
 45 Fe    0.50897   -0.20701   -0.37574
 46 Fe    0.50105   -0.42006    0.21949
 47 Co    0.11496    0.19239    0.42716
 48 Ni    0.10489   -0.01884   -0.14274
 49 Ni   -0.12016   -0.43399   -0.21158
 50 Fe   -0.03902   -0.48290   -0.03776
 51 Co    0.17440    0.06650   -0.11397
 52 Cr    0.70260    0.12458   -0.05235
 53 Fe    0.31897   -0.01683   -0.17956
 54 Ni    0.09646    0.16249   -0.13433
 55 Fe   -0.36666   -0.99744   -0.51575
 56 Cr   -0.38049    0.10696    0.05264
 57 Ni   -0.06671   -0.00333   -0.09467
 58 Fe   -0.00879    0.27261   -0.27129
 59 Fe    0.06147   -0.60028   -0.05676
[...]
 93 Ni   -0.01218   -0.18746   -0.10453
 94 Ni    0.13349   -0.20106    0.41963
 95 Cr    0.27911   -0.07673    0.22851
 96 Ni   -0.13888    0.15823    0.01417
 97 Ni   -0.17660    0.06198   -0.09309
 98 Co    0.20649   -0.13604    0.57977
 99 Ni   -0.43526    0.05222    0.17103
100 Co    0.18260    0.19646    0.26844
101 Co    0.18942   -0.34188    0.20060
102 Co   -0.26036    0.09482   -0.29094
103 Ni   -0.06456    0.10023    0.03924
104 Ni    0.00611    0.10590    0.11075
105 Ni    0.35807    0.27641    0.06467
106 Co    0.07519    0.36343   -0.01347
107 Cr   -0.22629    0.17770    0.26339

Date: Fri Apr 14 18:55:57 2023