User:   c.zeng@d0018
Date:   Thu Apr 13 23:57:08 2023
Arch:   x86_64
Pid:    202182
CWD:    /home/c.zeng/projects/hea-corrosion/hea-mlp/data-curation/bulk-md/dft-jobs/60
Python: 3.8.1
gpaw:   /home/c.zeng/usr/installs/gpaw/source/gpaw-22.8.0/gpaw
_gpaw:  /home/c.zeng/usr/installs/gpaw/source/gpaw-22.8.0/
        _gpaw.cpython-38-x86_64-linux-gnu.so
ase:    /home/c.zeng/.local/lib/python3.8/site-packages/ase-3.22.1-py3.8.egg/ase (version 3.22.1)
numpy:  /shared/centos7/python/3.8.1/lib/python3.8/site-packages/numpy (version 1.17.4)
scipy:  /shared/centos7/python/3.8.1/lib/python3.8/site-packages/scipy (version 1.4.1)
units:  Angstrom and eV
cores: 30
OpenMP: False
OMP_NUM_THREADS: 1

Input parameters:
  convergence: {energy: 0.0001}
  kpts: [2 2 2]
  maxiter: 666
  mode: {ecut: 350.0,
         name: pw}
  occupations: {fixmagmom: False,
                name: fermi-dirac,
                width: 0.1}
  spinpol: True
  xc: PBE

System changes: positions, numbers, cell, pbc, initial_charges, initial_magmoms

Initialize ...

species:
  Fe:
    name: Iron
    id: 37abbd8d6c3c35915a9b583b742da910
    Z: 26.0
    valence: 8
    core: 18
    charge: 0.0
    file: /home/c.zeng/usr/data/gpaw-setups-0.9.20000/Fe.PBE.gz
    compensation charges: {type: gauss,
                           rc: 0.33,
                           lmax: 2}
    cutoffs: {filter: 2.06,
              core: 2.67}
    valence states:
      #              energy  rcut
      - 4s(2.00)    -5.291   1.164
      - 4p(0.00)    -1.326   1.058
      - 3d(6.00)    -7.505   1.058
      -  s          21.920   1.164
      -  p          25.885   1.058
      -  d          19.706   1.058

    # Using partial waves for Fe as LCAO basis

  Cr:
    name: Chromium
    id: 33f258bda2ca9f93018e70263a35547b
    Z: 24.0
    valence: 6
    core: 18
    charge: 0.0
    file: /home/c.zeng/usr/data/gpaw-setups-0.9.20000/Cr.PBE.gz
    compensation charges: {type: gauss,
                           rc: 0.35,
                           lmax: 2}
    cutoffs: {filter: 2.14,
              core: 3.04}
    valence states:
      #              energy  rcut
      - 4s(1.00)    -4.007   1.164
      - 4p(0.00)    -0.989   1.217
      - 3d(5.00)    -2.913   1.111
      -  s          23.205   1.164
      -  p          26.223   1.217
      -  d          24.299   1.111

[...]

  Ni:
    name: Nickel
    id: 0d9f38a9d6e76a2886f07bb4381f212b
    Z: 28.0
    valence: 16
    core: 12
    charge: 0.0
    file: /home/c.zeng/usr/data/gpaw-setups-0.9.20000/Ni.PBE.gz
    compensation charges: {type: gauss,
                           rc: 0.36,
                           lmax: 2}
    cutoffs: {filter: 2.14,
              core: 1.98}
    valence states:
      #              energy  rcut
      - 4s(2.00)    -5.642   1.164
      - 3p(6.00)   -71.394   1.207
      - 4p(0.00)    -1.226   1.207
      - 3d(8.00)    -8.875   1.138
      -  s          21.570   1.164
      -  d          18.337   1.138

[...]

  Al:
    name: Aluminium
    id: 0292cae29f5d6237e50f6abdd43a7bdd
    Z: 13.0
    valence: 3
    core: 10
    charge: 0.0
    file: /home/c.zeng/usr/data/gpaw-setups-0.9.20000/Al.PBE.gz
    compensation charges: {type: gauss,
                           rc: 0.34,
                           lmax: 2}
    cutoffs: {filter: 1.91,
              core: 2.36}
    valence states:
      #              energy  rcut
      - 3s(2.00)    -7.753   1.085
      - 3p(1.00)    -2.712   1.085
      -  s          19.459   1.085
      -  p          24.499   1.085
      -  d           0.000   1.085

[...]

  Co:
    name: Cobalt
    id: 339d20d5b0b93d2de9531a1bee871d91
    Z: 27.0
    valence: 9
    core: 18
    charge: 0.0
    file: /home/c.zeng/usr/data/gpaw-setups-0.9.20000/Co.PBE.gz
    compensation charges: {type: gauss,
                           rc: 0.32,
                           lmax: 2}
    cutoffs: {filter: 1.87,
              core: 2.55}
    valence states:
      #              energy  rcut
      - 4s(2.00)    -5.469   1.005
      - 4p(0.00)    -1.277   1.058
      - 3d(7.00)    -8.205   1.005
      -  s          21.742   1.005
      -  p          25.934   1.058
      -  d          19.007   1.005

    # Using partial waves for Co as LCAO basis

Reference energy: -3382523.201499  # eV

Spin-polarized calculation.
Magnetic moment: 128.800000

Convergence criteria:
 Maximum [total energy] change in last 3 cyles: 0.0001 eV / electron
 Maximum integral of absolute [dens]ity change: 0.0001 electrons / valence electron
 Maximum integral of absolute [eigenst]ate change: 4e-08 eV^2 / valence electron
 Maximum number of scf [iter]ations: 666
 (Square brackets indicate name in SCF output, whereas a 'c' in
 the SCF output indicates the quantity has converged.)

Symmetries present (total): 1

  ( 1  0  0)
  ( 0  1  0)
  ( 0  0  1)

8 k-points: 2 x 2 x 2 Monkhorst-Pack grid
4 k-points in the irreducible part of the Brillouin zone
       k-points in crystal coordinates                weights
   0:     0.25000000   -0.25000000   -0.25000000          2/8
   1:     0.25000000   -0.25000000    0.25000000          2/8
   2:     0.25000000    0.25000000   -0.25000000          2/8
   3:     0.25000000    0.25000000    0.25000000          2/8

Wave functions: Plane wave expansion
  Cutoff energy: 350.000 eV
  Number of coefficients (min, max): 18865, 18865
  Pulay-stress correction: 0.000000 eV/Ang^3 (de/decut=0.000000)
  Using FFTW library
  ScaLapack parameters: grid=1x1, blocksize=None
  Wavefunction extrapolation:
    Improved wavefunction reuse through dual PAW basis

Occupation numbers: Fermi-Dirac:
  width: 0.1000  # eV

Eigensolver
   Davidson(niter=2)

Densities:
  Coarse grid: 48*48*48 grid
  Fine grid: 96*96*96 grid
  Total Charge: 0.000000

Density mixing:
  Method: difference
  Backend: pulay
  Linear mixing parameter: 0.05
  old densities: 5
  Damping of long wavelength oscillations: 50

Hamiltonian:
  XC and Coulomb potentials evaluated on a 96*96*96 grid
  Using the PBE Exchange-Correlation functional
  External potential:
    NoExternalPotential

XC parameters: PBE with 2 nearest neighbor stencil

Total number of cores used: 30
Parallelization over k-points: 2
Domain decomposition: 5 x 3 x 1

Number of atoms: 108
Number of atomic orbitals: 961
Number of bands in calculation: 649
Number of valence electrons: 945
Bands to converge: occupied

... initialized

Initializing position-dependent things.

Density initialized from atomic densities
Creating initial wave functions:
  649 bands from LCAO basis set

       /|                     Ni   |
      / |            Cr Ni     NiNi|
     /  |       Al       Ni       Fe
    /   |Cr       Fer     CAlo     |
   /i   | Coi        Co      Fe    |
  /  FeCr   CFe       Cr           |
 *      Co     CrNi   FeAlFeFe   Ni|
 |      |CrFe   CrCoAl   FeCrCo   Co
 | NiCo | AlNi   FeAlAl     Cr     |
 |     Co  NiFe Fe  Ni NiNi  CrCr  |
 |      CoFe   AlFe   NiAlCoFe  Fe |
 |Co    |AlAl   CrFeCo   CrCo     Cr
 |      .-CrAl-----FeNi-CoAlCoNi---.
 |     /   Al Cr    Fe FeNi    Cr /
 |    Cr       CNio       Co     /
 |   /  Fe         Cr       Ni  /
 |  /      Fe       Co       Cr/
 | / Ni     Co       Cr Ni    /
 |/             Al       Co  /
 *--------Al----------------*

Positions:
   0 Fe    10.764147   10.861293   10.805330    ( 0.0000,  0.0000,  2.0000)
   1 Cr    10.786221    1.792513    1.813624    ( 0.0000,  0.0000,  0.0000)
   2 Ni     1.744156    0.036560    1.851269    ( 0.0000,  0.0000,  1.5000)
   3 Cr     1.736571    1.831142   10.798805    ( 0.0000,  0.0000,  0.0000)
   4 Al     3.575126    0.057318    0.061759    ( 0.0000,  0.0000,  0.0000)
   5 Fe     3.594289    1.817617    1.845577    ( 0.0000,  0.0000,  2.0000)
   6 Ni     5.429813   10.817005    1.865054    ( 0.0000,  0.0000,  1.5000)
   7 Al     5.429608    1.929425    0.057134    ( 0.0000,  0.0000,  0.0000)
   8 Al     7.316909   10.723332    0.087382    ( 0.0000,  0.0000,  0.0000)
   9 Co     7.263142    1.825786    1.869404    ( 0.0000,  0.0000,  2.1000)
  10 Ni     9.063554    0.025226    1.863474    ( 0.0000,  0.0000,  1.5000)
  11 Co     9.049217    1.829703    0.033106    ( 0.0000,  0.0000,  2.1000)
  12 Ni     0.004792    3.558981   10.794801    ( 0.0000,  0.0000,  1.5000)
  13 Cr    10.759710    5.390697    1.778165    ( 0.0000,  0.0000,  0.0000)
  14 Fe     1.733585    3.561849    1.761112    ( 0.0000,  0.0000,  2.0000)
  15 Cr     1.776899    5.391834   10.795505    ( 0.0000,  0.0000,  0.0000)
  16 Co     3.565452    3.619360   10.832619    ( 0.0000,  0.0000,  2.1000)
  17 Cr     3.633221    5.394614    1.719551    ( 0.0000,  0.0000,  0.0000)
  18 Co     5.471624    3.659114    1.836033    ( 0.0000,  0.0000,  2.1000)
  19 Fe     5.440212    5.373060   -0.002773    ( 0.0000,  0.0000,  2.0000)
  20 Cr     7.258997    3.609080    0.031294    ( 0.0000,  0.0000,  0.0000)
  21 Fe     7.268941    5.378362    1.785274    ( 0.0000,  0.0000,  2.0000)
  22 Co     9.030724    3.577636    1.833728    ( 0.0000,  0.0000,  2.1000)
  23 Al     9.040420    5.372281   10.801110    ( 0.0000,  0.0000,  0.0000)
  24 Ni    10.791663    7.196206   10.792486    ( 0.0000,  0.0000,  1.5000)
  25 Cr    10.758434    9.040387    1.848239    ( 0.0000,  0.0000,  0.0000)
  26 Cr     1.690487    7.202493    1.786032    ( 0.0000,  0.0000,  0.0000)
  27 Al     1.652691    8.981047    0.027217    ( 0.0000,  0.0000,  0.0000)
  28 Cr     3.631241    7.164437    0.034633    ( 0.0000,  0.0000,  0.0000)
  29 Cr     3.625452    9.063759    1.801678    ( 0.0000,  0.0000,  0.0000)
  30 Fe     5.490852    7.187095    1.746342    ( 0.0000,  0.0000,  2.0000)
  31 Fe     5.426935    8.989152    0.009861    ( 0.0000,  0.0000,  2.0000)
  32 Ni     7.229122    7.237075   -0.008698    ( 0.0000,  0.0000,  1.5000)
  33 Cr     7.249194    8.995850    1.810713    ( 0.0000,  0.0000,  0.0000)
  34 Co     9.052073    7.204300    1.764218    ( 0.0000,  0.0000,  2.1000)
  35 Ni     9.092553    8.989639   10.808760    ( 0.0000,  0.0000,  1.5000)
  36 Ni    -0.000975   10.826235    3.639789    ( 0.0000,  0.0000,  1.5000)
  37 Co    10.822772    1.771770    5.422044    ( 0.0000,  0.0000,  2.1000)
  38 Co     1.754263   10.802084    5.428872    ( 0.0000,  0.0000,  2.1000)
  39 Cr     1.741873    1.774270    3.610801    ( 0.0000,  0.0000,  0.0000)
  40 Fe     3.591183   10.794152    3.612143    ( 0.0000,  0.0000,  2.0000)
  41 Al     3.593088    1.736744    5.455177    ( 0.0000,  0.0000,  0.0000)
  42 Fe     5.437150   10.794563    5.400804    ( 0.0000,  0.0000,  2.0000)
  43 Ni     5.451931    1.783251    3.601387    ( 0.0000,  0.0000,  1.5000)
  44 Cr     7.226222    0.007781    3.626209    ( 0.0000,  0.0000,  0.0000)
  45 Co     7.236069    1.766512    5.381392    ( 0.0000,  0.0000,  2.1000)
  46 Co     9.034587   10.848850    5.403844    ( 0.0000,  0.0000,  2.1000)
  47 Ni     9.031558    1.804946    3.616730    ( 0.0000,  0.0000,  1.5000)
  48 Ni    10.773885    3.543973    3.617867    ( 0.0000,  0.0000,  1.5000)
  49 Cr    10.772186    5.358409    5.454917    ( 0.0000,  0.0000,  0.0000)
  50 Co     1.757531    3.575678    5.428937    ( 0.0000,  0.0000,  2.1000)
  51 Al     1.621766    5.386986    3.572550    ( 0.0000,  0.0000,  0.0000)
  52 Al     3.634303    3.633188    3.540792    ( 0.0000,  0.0000,  0.0000)
  53 Fe     3.550606    5.397969    5.404753    ( 0.0000,  0.0000,  2.0000)
  54 Fe     5.402221    3.610887    5.370193    ( 0.0000,  0.0000,  2.0000)
  55 Fe     5.460241    5.433590    3.575613    ( 0.0000,  0.0000,  2.0000)
  56 Ni     7.250157    3.615183    3.623169    ( 0.0000,  0.0000,  1.5000)
  57 Ni     7.248707    5.410715    5.362099    ( 0.0000,  0.0000,  1.5000)
  58 Co     9.058230    3.565236    5.380082    ( 0.0000,  0.0000,  2.1000)
  59 Co     9.074071    5.365323    3.589008    ( 0.0000,  0.0000,  2.1000)
[...]
  93 Cr     7.211073    5.388295    9.040181    ( 0.0000,  0.0000,  0.0000)
  94 Fe     9.095052    3.598119    8.980636    ( 0.0000,  0.0000,  2.0000)
  95 Cr     9.078205    5.402416    7.227759    ( 0.0000,  0.0000,  0.0000)
  96 Ni    10.763411    7.244682    7.260285    ( 0.0000,  0.0000,  1.5000)
  97 Fe    10.795093    9.034566    8.977574    ( 0.0000,  0.0000,  2.0000)
  98 Co     1.740045    7.178947    8.984662    ( 0.0000,  0.0000,  2.1000)
  99 Ni     1.734429    9.080207    7.236696    ( 0.0000,  0.0000,  1.5000)
 100 Cr     3.580482    7.154277    7.248285    ( 0.0000,  0.0000,  0.0000)
 101 Al     3.612835    8.970898    8.958086    ( 0.0000,  0.0000,  0.0000)
 102 Cr     5.410943    7.155878    9.067049    ( 0.0000,  0.0000,  0.0000)
 103 Co     5.466441    9.064062    7.220963    ( 0.0000,  0.0000,  2.1000)
 104 Al     7.307203    7.271549    7.289738    ( 0.0000,  0.0000,  0.0000)
 105 Ni     7.271073    9.044683    9.027879    ( 0.0000,  0.0000,  1.5000)
 106 Co     9.081743    7.219805    9.041166    ( 0.0000,  0.0000,  2.1000)
 107 Fe     9.063684    9.083009    7.213865    ( 0.0000,  0.0000,  2.0000)

Unit cell:
           periodic     x           y           z      points  spacing
  1. axis:    yes   10.820500    0.000000    0.000000    48     0.2254
  2. axis:    yes    0.000000   10.820500    0.000000    48     0.2254
  3. axis:    yes    0.000000    0.000000   10.820500    48     0.2254

  Lengths:  10.820500  10.820500  10.820500
  Angles:   90.000000  90.000000  90.000000

Effective grid spacing dv^(1/3) = 0.2254

     iter     time        total  log10-change:  magmom
                         energy  eigst   dens
iter:   1 00:03:34  -996.853431                  +129.0863
iter:   2 00:06:47  -888.901013  -0.19  -1.18    +70.8549
iter:   3 00:10:05  -876.062865  -0.82  -1.19    +61.2234
iter:   4 00:13:26  -851.788976  -1.23  -1.26    +57.0189
iter:   5 00:16:39  -843.645093  -1.55  -1.30    +54.8555
iter:   6 00:19:51  -844.609313  -1.33  -1.35    +55.5244
iter:   7 00:23:03  -834.908322  -1.30  -1.39    +54.2147
iter:   8 00:26:15  -828.008024  -1.64  -1.53    +54.1038
iter:   9 00:29:24  -827.449863  -1.86  -1.66    +55.6110
iter:  10 00:32:35  -824.997953  -2.41  -1.72    +56.4657
iter:  11 00:35:47  -825.451665  -2.49  -1.80    +59.0762
iter:  12 00:38:57  -827.060403  -2.41  -1.86    +60.4106
iter:  13 00:42:09  -826.482188  -2.43  -1.86    +61.1725
iter:  14 00:45:19  -826.753025  -2.49  -1.93    +62.4899
iter:  15 00:48:30  -826.575327  -2.66  -1.96    +62.9153
iter:  16 00:51:39  -826.208440  -2.90  -2.02    +63.1050
iter:  17 00:54:51  -826.742564  -2.93  -2.08    +64.0796
iter:  18 00:57:59  -826.207710  -3.06  -2.06    +64.1024
iter:  19 01:01:12  -826.315285  -3.03  -2.19    +64.2775
iter:  20 01:04:19  -826.502932  -3.00  -2.24    +64.4879
iter:  21 01:07:32  -826.239861  -3.21  -2.25    +64.7855
iter:  22 01:10:39  -826.301790  -3.36  -2.37    +64.9356
iter:  23 01:13:49  -826.233211c -3.52  -2.39    +65.0262
iter:  24 01:16:59  -826.275491c -3.63  -2.49    +65.1936
iter:  25 01:20:10  -826.324644c -3.68  -2.51    +65.2334
iter:  26 01:23:20  -826.345147c -3.81  -2.55    +65.3650
iter:  27 01:26:33  -826.354598c -3.96  -2.54    +65.3781
iter:  28 01:29:41  -826.394457c -3.93  -2.60    +65.3023
iter:  29 01:32:51  -826.417458c -4.19  -2.63    +65.3916
iter:  30 01:36:00  -826.450961c -4.03  -2.67    +65.3455
iter:  31 01:39:09  -826.477724c -4.10  -2.70    +65.3241
iter:  32 01:42:20  -826.496894c -4.28  -2.74    +65.4495
iter:  33 01:45:28  -826.509404c -4.23  -2.75    +65.4292
iter:  34 01:48:39  -826.526089c -4.43  -2.80    +65.3517
iter:  35 01:51:47  -826.550925c -4.38  -2.85    +65.4088
iter:  36 01:54:58  -826.559977c -4.50  -2.86    +65.3643
iter:  37 01:58:09  -826.586127c -4.42  -2.91    +65.3053
iter:  38 02:01:17  -826.599120c -4.44  -2.95    +65.3402
iter:  39 02:04:28  -826.605559c -4.62  -2.95    +65.2877
iter:  40 02:07:37  -826.616385c -4.56  -3.00    +65.2385
iter:  41 02:10:47  -826.624185c -4.83  -3.06    +65.2420
iter:  42 02:14:04  -826.632176c -4.77  -3.09    +65.2122
iter:  43 02:17:25  -826.649990c -4.62  -3.13    +65.2047
iter:  44 02:20:34  -826.658999c -4.59  -3.14    +65.2000
iter:  45 02:23:44  -826.660416c -4.95  -3.18    +65.1784
iter:  46 02:26:54  -826.663333c -5.11  -3.21    +65.1721
iter:  47 02:30:05  -826.668582c -5.10  -3.26    +65.1375
iter:  48 02:33:14  -826.666873c -5.17  -3.28    +65.1433
iter:  49 02:36:24  -826.669365c -5.31  -3.32    +65.1291
iter:  50 02:39:34  -826.671091c -5.37  -3.37    +65.1156
iter:  51 02:42:43  -826.671470c -5.58  -3.37    +65.1089
iter:  52 02:45:53  -826.672873c -5.53  -3.41    +65.1097
iter:  53 02:49:00  -826.675020c -5.45  -3.46    +65.0872
iter:  54 02:52:11  -826.675255c -5.66  -3.49    +65.0817
iter:  55 02:55:18  -826.676932c -5.73  -3.52    +65.0716
iter:  56 02:58:29  -826.678614c -5.64  -3.55    +65.0584
iter:  57 03:01:36  -826.679472c -5.73  -3.57    +65.0488
iter:  58 03:04:47  -826.680555c -5.66  -3.58    +65.0372
iter:  59 03:07:54  -826.681353c -5.78  -3.67    +65.0208
iter:  60 03:11:07  -826.682541c -5.94  -3.75    +64.9997
iter:  61 03:14:12  -826.683297c -6.12  -3.77    +64.9886
iter:  62 03:17:22  -826.685652c -5.66  -3.81    +64.9408
iter:  63 03:20:31  -826.685755c -6.08  -3.80    +64.9480
iter:  64 03:23:40  -826.686922c -5.91  -3.84    +64.9307
iter:  65 03:26:50  -826.687789c -6.04  -3.86    +64.8968
iter:  66 03:30:02  -826.689286c -5.81  -3.97    +64.8568
iter:  67 03:33:09  -826.690648c -5.92  -3.96    +64.8289
iter:  68 03:36:18  -826.692836c -5.65  -3.96    +64.7900
iter:  69 03:39:15  -826.703587c -4.38  -3.89    +64.6022
iter:  70 03:42:12  -826.705851c -4.92  -3.66    +64.5519
iter:  71 03:45:15  -826.706894c -5.36  -3.58    +64.5581
iter:  72 03:48:06  -826.708504c -5.74  -3.58    +64.5447
iter:  73 03:50:43  -826.709167c -6.06  -3.51    +64.5460
iter:  74 03:53:10  -826.708167c -5.79  -3.50    +64.5361
iter:  75 03:56:02  -826.711043c -5.11  -3.51    +64.5219
iter:  76 03:57:32  -826.708782c -5.17  -3.34    +64.4910
iter:  77 03:59:03  -826.711051c -4.84  -3.45    +64.4712
iter:  78 04:02:00  -826.706413c -5.17  -3.30    +64.4852
iter:  79 04:05:36  -826.704205c -5.65  -3.52    +64.4332
iter:  80 04:09:14  -826.704118c -5.81  -3.75    +64.4161
iter:  81 04:12:51  -826.704501c -5.93  -3.69    +64.4094
iter:  82 04:16:28  -826.704122c -6.12  -3.71    +64.4190
iter:  83 04:20:07  -826.705143c -5.91  -3.78    +64.4071
iter:  84 04:23:42  -826.704641c -6.01  -3.75    +64.4028
iter:  85 04:27:20  -826.704056c -5.99  -3.79    +64.4115
iter:  86 04:30:58  -826.704594c -6.19  -3.83    +64.4047
iter:  87 04:34:34  -826.704338c -6.27  -3.88    +64.4034
iter:  88 04:38:12  -826.704508c -6.34  -3.92    +64.3971
iter:  89 04:41:50  -826.704228c -6.54  -3.93    +64.4021
iter:  90 04:45:25  -826.704399c -6.61  -4.00    +64.4049
iter:  91 04:49:03  -826.704740c -6.70  -4.03c   +64.4045
iter:  92 04:52:40  -826.704591c -6.89  -4.02c   +64.4080
iter:  93 04:56:17  -826.704791c -6.78  -4.07c   +64.4103
iter:  94 04:59:54  -826.704776c -6.58  -4.07c   +64.4135
iter:  95 05:03:32  -826.704936c -6.74  -4.03c   +64.4082
iter:  96 05:07:07  -826.705042c -6.45  -4.14c   +64.4067
iter:  97 05:10:45  -826.704902c -6.39  -4.06c   +64.4094
iter:  98 05:14:23  -826.705171c -6.50  -4.08c   +64.4059
iter:  99 05:17:58  -826.705133c -6.58  -4.22c   +64.4044
iter: 100 05:21:35  -826.705417c -6.74  -4.21c   +64.4031
iter: 101 05:25:14  -826.705340c -6.83  -4.26c   +64.4080
iter: 102 05:28:50  -826.705473c -6.87  -4.37c   +64.4073
iter: 103 05:32:29  -826.705418c -7.00  -4.38c   +64.4065
iter: 104 05:36:09  -826.705775c -6.74  -4.21c   +64.4076
iter: 105 05:39:45  -826.705772c -6.74  -4.24c   +64.4061
iter: 106 05:43:24  -826.706090c -6.82  -4.27c   +64.4060
iter: 107 05:47:05  -826.705974c -6.82  -4.25c   +64.4083
iter: 108 05:50:42  -826.706195c -6.73  -4.32c   +64.4068
iter: 109 05:54:21  -826.706021c -6.75  -4.20c   +64.4065
iter: 110 05:58:01  -826.706417c -6.56  -4.16c   +64.4023
iter: 111 06:01:37  -826.706366c -6.69  -4.23c   +64.3987
iter: 112 06:05:17  -826.706734c -6.74  -4.25c   +64.3967
iter: 113 06:08:57  -826.706641c -7.03  -4.22c   +64.3974
iter: 114 06:12:33  -826.706858c -6.68  -4.36c   +64.3939
iter: 115 06:16:11  -826.706190c -5.90  -4.23c   +64.4063
iter: 116 06:19:50  -826.706342c -7.15  -4.44c   +64.4034
iter: 117 06:23:29  -826.706363c -7.10  -4.50c   +64.4018
iter: 118 06:27:08  -826.706479c -7.38  -4.44c   +64.4005
iter: 119 06:30:47  -826.706676c -6.80  -4.63c   +64.4026
iter: 120 06:34:26  -826.706611c -7.44c -4.59c   +64.4039

Converged after 120 iterations.

Dipole moment: (27.517941, -2.561006, -8.722153) |e|*Ang

Total magnetic moment: (0.000000, 0.000000, 64.403870)
Local magnetic moments:
   0 Fe ( 0.000000,  0.000000,  2.162954)
   1 Cr ( 0.000000,  0.000000,  1.391143)
   2 Ni ( 0.000000,  0.000000, -0.008848)
   3 Cr ( 0.000000,  0.000000, -1.884849)
   4 Al ( 0.000000,  0.000000, -0.013431)
   5 Fe ( 0.000000,  0.000000,  2.197243)
   6 Ni ( 0.000000,  0.000000,  0.174307)
   7 Al ( 0.000000,  0.000000, -0.017810)
   8 Al ( 0.000000,  0.000000, -0.014858)
   9 Co ( 0.000000,  0.000000,  1.418676)
  10 Ni ( 0.000000,  0.000000,  0.201406)
  11 Co ( 0.000000,  0.000000,  1.112149)
  12 Ni ( 0.000000,  0.000000,  0.247895)
  13 Cr ( 0.000000,  0.000000,  1.244573)
  14 Fe ( 0.000000,  0.000000,  1.470931)
  15 Cr ( 0.000000,  0.000000, -1.578142)
  16 Co ( 0.000000,  0.000000,  0.749520)
  17 Cr ( 0.000000,  0.000000,  0.398197)
  18 Co ( 0.000000,  0.000000,  1.065368)
  19 Fe ( 0.000000,  0.000000,  1.832545)
  20 Cr ( 0.000000,  0.000000, -1.986088)
  21 Fe ( 0.000000,  0.000000,  2.342780)
  22 Co ( 0.000000,  0.000000,  1.047103)
  23 Al ( 0.000000,  0.000000, -0.028587)
  24 Ni ( 0.000000,  0.000000,  0.194535)
  25 Cr ( 0.000000,  0.000000,  0.403808)
  26 Cr ( 0.000000,  0.000000, -0.543899)
  27 Al ( 0.000000,  0.000000, -0.017928)
  28 Cr ( 0.000000,  0.000000, -0.558797)
  29 Cr ( 0.000000,  0.000000, -1.834774)
  30 Fe ( 0.000000,  0.000000,  1.735568)
  31 Fe ( 0.000000,  0.000000,  1.594326)
  32 Ni ( 0.000000,  0.000000,  0.259719)
  33 Cr ( 0.000000,  0.000000,  1.556938)
  34 Co ( 0.000000,  0.000000,  0.894767)
  35 Ni ( 0.000000,  0.000000,  0.340145)
  36 Ni ( 0.000000,  0.000000,  0.173498)
  37 Co ( 0.000000,  0.000000,  1.559987)
  38 Co ( 0.000000,  0.000000,  1.258217)
  39 Cr ( 0.000000,  0.000000, -1.888490)
  40 Fe ( 0.000000,  0.000000,  2.186546)
  41 Al ( 0.000000,  0.000000, -0.039380)
  42 Fe ( 0.000000,  0.000000,  2.242369)
  43 Ni ( 0.000000,  0.000000,  0.394896)
  44 Cr ( 0.000000,  0.000000, -1.691366)
  45 Co ( 0.000000,  0.000000,  1.496378)
  46 Co ( 0.000000,  0.000000,  1.299351)
  47 Ni ( 0.000000,  0.000000,  0.420225)
  48 Ni ( 0.000000,  0.000000,  0.293360)
  49 Cr ( 0.000000,  0.000000,  1.528311)
  50 Co ( 0.000000,  0.000000,  0.979583)
  51 Al ( 0.000000,  0.000000, -0.027172)
  52 Al ( 0.000000,  0.000000, -0.039420)
  53 Fe ( 0.000000,  0.000000,  2.070002)
  54 Fe ( 0.000000,  0.000000,  2.384424)
  55 Fe ( 0.000000,  0.000000,  2.213189)
  56 Ni ( 0.000000,  0.000000,  0.551101)
  57 Ni ( 0.000000,  0.000000,  0.180526)
  58 Co ( 0.000000,  0.000000,  1.210288)
  59 Co ( 0.000000,  0.000000,  0.854939)
[...]
  93 Cr ( 0.000000,  0.000000,  1.694223)
  94 Fe ( 0.000000,  0.000000,  2.122517)
  95 Cr ( 0.000000,  0.000000, -1.435164)
  96 Ni ( 0.000000,  0.000000,  0.225396)
  97 Fe ( 0.000000,  0.000000,  2.424861)
  98 Co ( 0.000000,  0.000000,  0.515198)
  99 Ni ( 0.000000,  0.000000,  0.380028)
 100 Cr ( 0.000000,  0.000000,  1.532114)
 101 Al ( 0.000000,  0.000000, -0.009951)
 102 Cr ( 0.000000,  0.000000, -1.470964)
 103 Co ( 0.000000,  0.000000,  0.769839)
 104 Al ( 0.000000,  0.000000, -0.019970)
 105 Ni ( 0.000000,  0.000000,  0.276617)
 106 Co ( 0.000000,  0.000000,  1.113382)
 107 Fe ( 0.000000,  0.000000,  2.193944)

Energy contributions relative to reference atoms: (reference = -3382523.201499)

Kinetic:       +216.882079
Potential:     -227.276338
External:        +0.000000
XC:            -847.565628
Entropy (-ST):   -4.178874
Local:          +33.342713
Free energy:   -828.796048
Extrapolated:  -826.706611

Spin contamination: 27.667840 electrons
Showing only first 2 kpts
                      Up                     Down
 Kpt  Band  Eigenvalues  Occupancy  Eigenvalues  Occupancy
  0   470      9.12121    0.99656     10.07932    0.01959
  0   471      9.12823    0.99631     10.09358    0.01703
  0   472      9.13734    0.99596     10.10443    0.01530
  0   473      9.15088    0.99537     10.11358    0.01398

  1   470      9.12057    0.99658     10.08423    0.01867
  1   471      9.13872    0.99590     10.09580    0.01666
  1   472      9.15959    0.99495     10.09723    0.01643
  1   473      9.17240    0.99427     10.12300    0.01274

Fermi level: 9.68801

No gap

Forces in eV/Ang:
  0 Fe   -0.02488    0.13076   -0.16830
  1 Cr    0.05245    0.21063    0.01862
  2 Ni    0.12446   -0.35728   -0.39468
  3 Cr   -0.18063    0.40039    0.19122
  4 Al    0.10042   -0.16745   -0.19768
  5 Fe   -0.26965    0.34192    0.01312
  6 Ni    0.01158    0.40426   -0.42742
  7 Al   -0.43760   -0.15481    0.12848
  8 Al    0.28913    0.65304   -0.38673
  9 Co    0.09443    0.25585   -0.15969
 10 Ni   -0.14935   -0.06286   -0.26422
 11 Co   -0.17636    0.00898   -0.00344
 12 Ni   -0.08959    0.13642    0.05210
 13 Cr    0.04861   -0.06874    0.18893
 14 Fe    0.51781    0.08965   -0.04486
 15 Cr   -0.20296   -0.32358   -0.21746
 16 Co   -0.15175    0.26059    0.09782
 17 Cr   -0.28701    0.24070   -0.76380
 18 Co    0.01569   -0.28535    0.11309
 19 Fe   -0.36472   -0.06531    0.32113
 20 Cr    0.28957    0.43142    0.06290
 21 Fe    0.00725   -0.14908   -0.01539
 22 Co   -0.10390   -0.16260   -0.11758
 23 Al    0.26008    0.67814   -0.11002
 24 Ni    0.02710   -0.09165    0.06113
 25 Cr   -0.44305   -0.35793    0.29466
 26 Cr   -0.21580    0.08805    0.12095
 27 Al    0.22782    0.27232   -0.53112
 28 Cr   -0.16707   -0.14973    0.44423
 29 Cr    0.24552   -0.01068    0.16297
 30 Fe   -0.36914    0.18493   -0.02386
 31 Fe   -0.32722    0.02710   -0.07361
 32 Ni    0.14330    0.05756   -0.18300
 33 Cr    0.08820   -0.20328    0.31490
 34 Co    0.27548    0.28311    0.13468
 35 Ni   -0.13355    0.00919    0.29386
 36 Ni   -0.10835    0.03831   -0.03415
 37 Co    0.20360    0.36226   -0.07574
 38 Co    0.12790   -0.10729   -0.07356
 39 Cr   -0.41464    0.18499   -0.42604
 40 Fe   -0.01672   -0.23231   -0.30275
 41 Al   -0.13981    0.45588    0.05393
 42 Fe    0.17234   -0.14279   -0.00985
 43 Ni   -0.21126    0.28553   -0.01188
 44 Cr   -0.11863    0.10385    0.04302
 45 Co   -0.21235    0.01088    0.18664
 46 Co   -0.16672   -0.07789   -0.26933
 47 Ni   -0.13875   -0.13666    0.06759
 48 Ni    0.33032    0.19885    0.01795
 49 Cr   -0.72719   -0.31868    0.31965
 50 Co    0.27476   -0.14009   -0.17563
 51 Al    0.56110   -0.55395    0.28136
 52 Al    0.00960   -0.15696    0.32889
 53 Fe   -0.00334   -0.03406   -0.44153
 54 Fe    0.13310    0.18207    0.06605
 55 Fe   -0.24538   -0.21588   -0.15416
 56 Ni    0.03445   -0.20941   -0.09430
 57 Ni   -0.00414    0.40090    0.16401
 58 Co    0.04902    0.19939    0.04874
 59 Co    0.03613    0.00562    0.16339
[...]
 93 Cr   -0.19730    0.12429   -0.28733
 94 Fe    0.07187   -0.47483   -0.09784
 95 Cr    0.63026    0.02414    0.02958
 96 Ni    0.18322   -0.19735   -0.05348
 97 Fe    0.11450   -0.24646    0.00873
 98 Co    0.27634    0.02695    0.28582
 99 Ni    0.41459   -0.27296    0.04535
100 Cr    0.04393    0.06535   -0.02684
101 Al   -0.60475    0.13441   -0.02282
102 Cr    0.33897    0.15854    0.12177
103 Co    0.05742   -0.00953    0.07221
104 Al   -0.50189   -0.03005   -0.10981
105 Ni   -0.19308   -0.06871   -0.05679
106 Co   -0.28355    0.01310   -0.06610
107 Fe   -0.05093   -0.18574   -0.18600

Date: Fri Apr 14 06:34:58 2023