User:   c.zeng@d0111
Date:   Sat Apr 15 14:18:34 2023
Arch:   x86_64
Pid:    121403
CWD:    /home/c.zeng/projects/hea-corrosion/hea-mlp/data-curation/bulk-mcmc/dft-jobs/46
Python: 3.8.1
gpaw:   /home/c.zeng/usr/installs/gpaw/source/gpaw-22.8.0/gpaw
_gpaw:  /home/c.zeng/usr/installs/gpaw/source/gpaw-22.8.0/
        _gpaw.cpython-38-x86_64-linux-gnu.so
ase:    /home/c.zeng/.local/lib/python3.8/site-packages/ase-3.22.1-py3.8.egg/ase (version 3.22.1)
numpy:  /shared/centos7/python/3.8.1/lib/python3.8/site-packages/numpy (version 1.17.4)
scipy:  /shared/centos7/python/3.8.1/lib/python3.8/site-packages/scipy (version 1.4.1)
units:  Angstrom and eV
cores: 30
OpenMP: False
OMP_NUM_THREADS: 1

Input parameters:
  convergence: {energy: 0.0001}
  kpts: [2 2 2]
  maxiter: 666
  mode: {ecut: 350.0,
         name: pw}
  occupations: {fixmagmom: False,
                name: fermi-dirac,
                width: 0.1}
  spinpol: True
  xc: PBE

System changes: positions, numbers, cell, pbc, initial_charges, initial_magmoms

Initialize ...

species:
  Co:
    name: Cobalt
    id: 339d20d5b0b93d2de9531a1bee871d91
    Z: 27.0
    valence: 9
    core: 18
    charge: 0.0
    file: /home/c.zeng/usr/data/gpaw-setups-0.9.20000/Co.PBE.gz
    compensation charges: {type: gauss,
                           rc: 0.32,
                           lmax: 2}
    cutoffs: {filter: 1.87,
              core: 2.55}
    valence states:
      #              energy  rcut
      - 4s(2.00)    -5.469   1.005
      - 4p(0.00)    -1.277   1.058
      - 3d(7.00)    -8.205   1.005
      -  s          21.742   1.005
      -  p          25.934   1.058
      -  d          19.007   1.005

    # Using partial waves for Co as LCAO basis

  Fe:
    name: Iron
    id: 37abbd8d6c3c35915a9b583b742da910
    Z: 26.0
    valence: 8
    core: 18
    charge: 0.0
    file: /home/c.zeng/usr/data/gpaw-setups-0.9.20000/Fe.PBE.gz
    compensation charges: {type: gauss,
                           rc: 0.33,
                           lmax: 2}
    cutoffs: {filter: 2.06,
              core: 2.67}
    valence states:
      #              energy  rcut
      - 4s(2.00)    -5.291   1.164
      - 4p(0.00)    -1.326   1.058
      - 3d(6.00)    -7.505   1.058
      -  s          21.920   1.164
      -  p          25.885   1.058
      -  d          19.706   1.058

[...]

  Ni:
    name: Nickel
    id: 0d9f38a9d6e76a2886f07bb4381f212b
    Z: 28.0
    valence: 16
    core: 12
    charge: 0.0
    file: /home/c.zeng/usr/data/gpaw-setups-0.9.20000/Ni.PBE.gz
    compensation charges: {type: gauss,
                           rc: 0.36,
                           lmax: 2}
    cutoffs: {filter: 2.14,
              core: 1.98}
    valence states:
      #              energy  rcut
      - 4s(2.00)    -5.642   1.164
      - 3p(6.00)   -71.394   1.207
      - 4p(0.00)    -1.226   1.207
      - 3d(8.00)    -8.875   1.138
      -  s          21.570   1.164
      -  d          18.337   1.138

[...]

  Cr:
    name: Chromium
    id: 33f258bda2ca9f93018e70263a35547b
    Z: 24.0
    valence: 6
    core: 18
    charge: 0.0
    file: /home/c.zeng/usr/data/gpaw-setups-0.9.20000/Cr.PBE.gz
    compensation charges: {type: gauss,
                           rc: 0.35,
                           lmax: 2}
    cutoffs: {filter: 2.14,
              core: 3.04}
    valence states:
      #              energy  rcut
      - 4s(1.00)    -4.007   1.164
      - 4p(0.00)    -0.989   1.217
      - 3d(5.00)    -2.913   1.111
      -  s          23.205   1.164
      -  p          26.223   1.217
      -  d          24.299   1.111

    # Using partial waves for Cr as LCAO basis

Reference energy: -3846758.590871  # eV

Spin-polarized calculation.
Magnetic moment: 151.200000

Convergence criteria:
 Maximum [total energy] change in last 3 cyles: 0.0001 eV / electron
 Maximum integral of absolute [dens]ity change: 0.0001 electrons / valence electron
 Maximum integral of absolute [eigenst]ate change: 4e-08 eV^2 / valence electron
 Maximum number of scf [iter]ations: 666
 (Square brackets indicate name in SCF output, whereas a 'c' in
 the SCF output indicates the quantity has converged.)

Symmetries present (total): 1

  ( 1  0  0)
  ( 0  1  0)
  ( 0  0  1)

8 k-points: 2 x 2 x 2 Monkhorst-Pack grid
4 k-points in the irreducible part of the Brillouin zone
       k-points in crystal coordinates                weights
   0:     0.25000000   -0.25000000   -0.25000000          2/8
   1:     0.25000000   -0.25000000    0.25000000          2/8
   2:     0.25000000    0.25000000   -0.25000000          2/8
   3:     0.25000000    0.25000000    0.25000000          2/8

Wave functions: Plane wave expansion
  Cutoff energy: 350.000 eV
  Number of coefficients (min, max): 17755, 17755
  Pulay-stress correction: 0.000000 eV/Ang^3 (de/decut=0.000000)
  Using FFTW library
  ScaLapack parameters: grid=1x1, blocksize=None
  Wavefunction extrapolation:
    Improved wavefunction reuse through dual PAW basis

Occupation numbers: Fermi-Dirac:
  width: 0.1000  # eV

Eigensolver
   Davidson(niter=2)

Densities:
  Coarse grid: 48*48*48 grid
  Fine grid: 96*96*96 grid
  Total Charge: 0.000000

Density mixing:
  Method: difference
  Backend: pulay
  Linear mixing parameter: 0.05
  old densities: 5
  Damping of long wavelength oscillations: 50

Hamiltonian:
  XC and Coulomb potentials evaluated on a 96*96*96 grid
  Using the PBE Exchange-Correlation functional
  External potential:
    NoExternalPotential

XC parameters: PBE with 2 nearest neighbor stencil

Total number of cores used: 30
Parallelization over k-points: 2
Domain decomposition: 5 x 3 x 1

Number of atoms: 108
Number of atomic orbitals: 1053
Number of bands in calculation: 727
Number of valence electrons: 1053
Bands to converge: occupied

... initialized

Initializing position-dependent things.

Density initialized from atomic densities
Creating initial wave functions:
  727 bands from LCAO basis set

       /|  Cr       Cr      Ni    |
      / |   NiFe     Ni           |
     /  |       Co      Fe       Fe
    /   |Ni      CFe       Co     Ni
   /    | Co       Cr       NFe   |
  /  CCo|  FeCr     CoCr          |
 *    CrCr    FeNi   FeCrCo       |
 |      |CoCr   FeFeCr  CoNiFe   Ni
 |      | CrCo     CoNiFeNiNiCr   |
 |    Co|  CoFeCr   CoCrFe   NiCo |
 |      Cr    CrCrNi NiNiCr     Ni|
 |      |FeFe  CoFeNi   FeNiFe   Ni
 |      .-FeCo-----CrNiFe--NiNi---Co
 |   Cro     Fe       Ni         /
 |    NiCo     Cor     CCre     /
 |   /    Co               Cr  /
 |  /      Fe       Fe    NiFe/
 | / Fe     Ni       CrCr    /
 |/            Co       Cr  /
 *--------Co------Co-------*

Positions:
   0 Co    -0.012479   -0.003723   10.616104    ( 0.0000,  0.0000,  2.1000)
   1 Fe    -0.011321    1.761305    1.763386    ( 0.0000,  0.0000,  2.1000)
   2 Fe     1.758365    0.001326    1.769011    ( 0.0000,  0.0000,  2.0000)
   3 Co     1.752686    1.779222   10.610436    ( 0.0000,  0.0000,  2.0000)
   4 Co     3.541196    0.004726   10.616104    ( 0.0000,  0.0000,  0.0000)
   5 Fe     3.534711    1.782438    1.778999    ( 0.0000,  0.0000,  0.0000)
   6 Ni     5.305717   10.600629    1.767950    ( 0.0000,  0.0000,  2.1000)
   7 Co     5.324780    1.765604   10.614618    ( 0.0000,  0.0000,  0.0000)
   8 Co     7.089121    0.014598   10.619926    ( 0.0000,  0.0000,  2.0000)
   9 Fe     7.085279    1.771219    1.773543    ( 0.0000,  0.0000,  1.5000)
  10 Cr     8.850554    0.011470    1.768756    ( 0.0000,  0.0000,  1.5000)
  11 Cr     8.842381    1.777333   10.615680    ( 0.0000,  0.0000,  2.1000)
  12 Fe    10.590535    3.538203   -0.001956    ( 0.0000,  0.0000,  0.0000)
  13 Cr    10.624277    5.310674    1.769786    ( 0.0000,  0.0000,  2.0000)
  14 Co     1.761379    3.535623    1.784572    ( 0.0000,  0.0000,  0.0000)
  15 Ni     1.770200    5.301408   10.611753    ( 0.0000,  0.0000,  2.0000)
  16 Ni     3.556003    3.551407   10.618333    ( 0.0000,  0.0000,  1.5000)
  17 Fe     3.539370    5.311290    1.775199    ( 0.0000,  0.0000,  2.1000)
  18 Cr     5.320142    3.545059    1.779678    ( 0.0000,  0.0000,  1.5000)
  19 Fe     5.306980    5.314654   10.602720    ( 0.0000,  0.0000,  0.0000)
  20 Cr     7.081585    3.529127   10.614725    ( 0.0000,  0.0000,  2.1000)
  21 Ni     7.069241    5.303361    1.781271    ( 0.0000,  0.0000,  1.5000)
  22 Fe     8.841447    3.542671    1.781600    ( 0.0000,  0.0000,  2.1000)
  23 Ni     8.850893    5.290379    0.000220    ( 0.0000,  0.0000,  0.0000)
  24 Ni     0.005868    7.083411   10.614937    ( 0.0000,  0.0000,  2.0000)
  25 Ni    10.601043    8.849694    1.772960    ( 0.0000,  0.0000,  2.1000)
  26 Fe     1.773713    7.072329    1.777184    ( 0.0000,  0.0000,  0.0000)
  27 Cr     1.755520    8.842943   10.608324    ( 0.0000,  0.0000,  0.0000)
  28 Fe     3.544009    7.063116   10.610489    ( 0.0000,  0.0000,  2.0000)
  29 Co     3.542225    8.826820    1.785580    ( 0.0000,  0.0000,  0.0000)
  30 Cr     5.309835    7.081776    1.776600    ( 0.0000,  0.0000,  2.1000)
  31 Cr     5.331945    8.840321   10.604673    ( 0.0000,  0.0000,  2.1000)
  32 Co     7.068434    7.069028   10.623110    ( 0.0000,  0.0000,  0.0000)
  33 Fe     7.083750    8.846796    1.774509    ( 0.0000,  0.0000,  1.5000)
  34 Ni     8.841404    7.058180    1.777173    ( 0.0000,  0.0000,  1.5000)
  35 Ni     8.835524    8.853600   10.611753    ( 0.0000,  0.0000,  0.0000)
  36 Cr    -0.009351   10.618864    3.531070    ( 0.0000,  0.0000,  2.0000)
  37 Fe    10.602508    1.764818    5.300452    ( 0.0000,  0.0000,  1.5000)
  38 Cr     1.756720    0.001379    5.295867    ( 0.0000,  0.0000,  0.0000)
  39 Co     1.766506    1.767154    3.539222    ( 0.0000,  0.0000,  2.0000)
  40 Co     3.539742    0.013881    3.542873    ( 0.0000,  0.0000,  2.0000)
  41 Fe     3.548944    1.788658    5.306237    ( 0.0000,  0.0000,  2.1000)
  42 Fe     5.320174   -0.004685    5.301386    ( 0.0000,  0.0000,  0.0000)
  43 Co     5.316862    1.765551    3.538935    ( 0.0000,  0.0000,  2.0000)
  44 Ni     7.081086   -0.000289    3.531325    ( 0.0000,  0.0000,  2.0000)
  45 Ni     7.072902    1.777407    5.300537    ( 0.0000,  0.0000,  2.0000)
  46 Fe     8.840544    0.012372    5.307851    ( 0.0000,  0.0000,  1.5000)
  47 Cr     8.833592    1.767928    3.534318    ( 0.0000,  0.0000,  2.1000)
  48 Ni    -0.004066    3.525285    3.545951    ( 0.0000,  0.0000,  0.0000)
  49 Co    -0.001689    5.317934    5.307787    ( 0.0000,  0.0000,  1.5000)
  50 Cr     1.769043    3.555101    5.297279    ( 0.0000,  0.0000,  2.0000)
  51 Fe     1.773692    5.305929    3.538266    ( 0.0000,  0.0000,  2.1000)
  52 Co     3.542746    3.537364    3.547575    ( 0.0000,  0.0000,  2.1000)
  53 Fe     3.548477    5.306927    5.301153    ( 0.0000,  0.0000,  2.0000)
  54 Cr     5.316246    3.553031    5.303637    ( 0.0000,  0.0000,  2.0000)
  55 Fe     5.303286    5.303531    3.542385    ( 0.0000,  0.0000,  1.5000)
  56 Ni     7.074962    3.533023    3.537215    ( 0.0000,  0.0000,  1.5000)
  57 Cr     7.066046    5.306046    5.300081    ( 0.0000,  0.0000,  2.0000)
  58 Cr     8.834526    3.538160    5.294530    ( 0.0000,  0.0000,  2.1000)
  59 Ni     8.846255    5.300452    3.537672    ( 0.0000,  0.0000,  1.5000)
[...]
  93 Cr     7.071130    5.304220    8.839313    ( 0.0000,  0.0000,  1.5000)
  94 Co     8.837997    3.524669    8.843389    ( 0.0000,  0.0000,  1.5000)
  95 Ni     8.833772    5.299051    7.076862    ( 0.0000,  0.0000,  0.0000)
  96 Cr     0.012168    7.080333    7.083835    ( 0.0000,  0.0000,  1.5000)
  97 Fe    -0.017034    8.848707    8.843941    ( 0.0000,  0.0000,  2.1000)
  98 Co     1.777938    7.075503    8.840194    ( 0.0000,  0.0000,  2.0000)
  99 Fe     1.758800    8.840035    7.069803    ( 0.0000,  0.0000,  0.0000)
 100 Fe     3.549921    7.066194    7.070090    ( 0.0000,  0.0000,  2.1000)
 101 Co     3.553137    8.839111    8.836776    ( 0.0000,  0.0000,  0.0000)
 102 Cr     5.304189    7.079929    8.840215    ( 0.0000,  0.0000,  2.0000)
 103 Co     5.321946    8.832180    7.082997    ( 0.0000,  0.0000,  2.1000)
 104 Cr     7.057077    7.072149    7.064167    ( 0.0000,  0.0000,  1.5000)
 105 Fe     7.082402    8.855500    8.837487    ( 0.0000,  0.0000,  2.1000)
 106 Co     8.846786    7.077881    8.846732    ( 0.0000,  0.0000,  0.0000)
 107 Ni     8.839313    8.848272    7.075153    ( 0.0000,  0.0000,  0.0000)

Unit cell:
           periodic     x           y           z      points  spacing
  1. axis:    yes   10.614300    0.000000    0.000000    48     0.2211
  2. axis:    yes    0.000000   10.614300    0.000000    48     0.2211
  3. axis:    yes    0.000000    0.000000   10.614300    48     0.2211

  Lengths:  10.614300  10.614300  10.614300
  Angles:   90.000000  90.000000  90.000000

Effective grid spacing dv^(1/3) = 0.2211

     iter     time        total  log10-change:  magmom
                         energy  eigst   dens
iter:   1 14:25:06  -940.829322                  +151.1119
iter:   2 14:28:04  -949.814969  -0.54  -1.37    +117.6400
iter:   3 14:31:02  -911.883749  -1.01  -1.32    +88.4778
iter:   4 14:34:00  -894.066787  -1.48  -1.42    +73.5937
iter:   5 14:36:58  -889.740796  -2.02  -1.49    +66.1419
iter:   6 14:39:57  -892.242241  -2.05  -1.54    +61.6793
iter:   7 14:42:54  -902.063380  -1.65  -1.57    +59.8398
iter:   8 14:45:52  -886.887285  -1.79  -1.56    +58.1309
iter:   9 14:48:53  -893.171144  -1.91  -1.81    +57.6935
iter:  10 14:51:41  -887.459086  -2.15  -1.78    +57.5704
iter:  11 14:54:24  -887.453381  -2.71  -1.92    +57.8609
iter:  12 14:57:07  -888.090251  -2.70  -1.98    +58.6972
iter:  13 14:59:49  -888.991925  -2.72  -1.98    +59.4213
iter:  14 15:02:31  -888.955040  -2.73  -2.01    +59.8971
iter:  15 15:05:14  -889.883985  -2.67  -2.16    +60.7864
iter:  16 15:09:01  -890.408549  -2.62  -2.13    +61.3766
iter:  17 15:11:48  -889.046931  -2.97  -2.13    +61.5034
iter:  18 15:14:31  -889.340890  -3.28  -2.38    +62.1676
iter:  19 15:17:14  -889.410781  -3.31  -2.37    +62.6929
iter:  20 15:19:56  -889.453593  -3.51  -2.41    +63.1822
iter:  21 15:22:38  -889.532633  -3.54  -2.47    +63.5705
iter:  22 15:25:20  -889.642598  -3.42  -2.52    +63.9711
iter:  23 15:28:02  -889.871711  -3.41  -2.58    +64.2947
iter:  24 15:30:44  -889.731580  -3.62  -2.49    +64.3548
iter:  25 15:33:27  -889.777188  -3.82  -2.65    +64.5286
iter:  26 15:36:09  -889.834970c -3.90  -2.69    +64.6295
iter:  27 15:39:38  -889.850310c -4.07  -2.70    +64.7095
iter:  28 15:42:19  -889.898157c -4.22  -2.74    +64.7911
iter:  29 15:45:02  -889.970803  -3.94  -2.77    +64.7520
iter:  30 15:47:46  -889.990655c -4.09  -2.78    +64.8129
iter:  31 15:50:30  -890.013933c -4.21  -2.81    +64.7526
iter:  32 15:53:13  -890.009969c -4.31  -2.86    +64.7000
iter:  33 15:56:01  -890.019724c -4.60  -2.95    +64.6529
iter:  34 15:58:50  -890.027416c -4.76  -2.98    +64.6310
iter:  35 16:01:39  -890.046523c -4.74  -3.04    +64.5263
iter:  36 16:04:47  -890.073450c -4.49  -3.05    +64.4628
iter:  37 16:07:30  -890.085279c -4.64  -3.06    +64.3130
iter:  38 16:10:14  -890.097351c -4.70  -3.11    +64.2178
iter:  39 16:13:05  -890.101707c -4.93  -3.15    +64.1376
iter:  40 16:15:49  -890.109584c -4.94  -3.21    +64.0783
iter:  41 16:18:37  -890.118041c -4.92  -3.24    +63.9793
iter:  42 16:21:37  -890.125407c -5.05  -3.26    +63.9082
iter:  43 16:24:27  -890.130650c -5.13  -3.30    +63.8387
iter:  44 16:27:26  -890.141890c -5.03  -3.35    +63.7235
iter:  45 16:30:24  -890.146616c -5.13  -3.34    +63.6236
iter:  46 16:33:10  -890.154068c -5.18  -3.41    +63.5279
iter:  47 16:35:54  -890.162382c -5.07  -3.43    +63.4051
iter:  48 16:38:37  -890.173159c -4.90  -3.45    +63.2025
iter:  49 16:41:41  -890.192359c -4.39  -3.47    +62.8383
iter:  50 16:44:29  -890.214359c -4.03  -3.45    +62.3019
iter:  51 16:47:26  -890.214000c -5.09  -3.30    +62.3675
iter:  52 16:50:12  -890.216603c -5.25  -3.32    +62.2868
iter:  53 16:52:57  -890.217167c -5.25  -3.30    +62.2554
iter:  54 16:55:45  -890.217469c -5.44  -3.35    +62.2265
iter:  55 16:58:38  -890.218997c -4.85  -3.38    +62.1947
iter:  56 17:01:43  -890.217508c -5.27  -3.36    +62.1682
iter:  57 17:04:36  -890.218198c -5.56  -3.42    +62.1382
iter:  58 17:07:34  -890.219942c -5.64  -3.50    +62.1076
iter:  59 17:10:25  -890.223964c -5.34  -3.52    +62.0891
iter:  60 17:13:10  -890.222801c -5.68  -3.43    +62.0769
iter:  61 17:16:04  -890.225363c -5.66  -3.56    +62.0381
iter:  62 17:18:57  -890.225539c -6.14  -3.60    +62.0339
iter:  63 17:22:04  -890.228407c -5.78  -3.62    +61.9922
iter:  64 17:24:57  -890.228814c -6.24  -3.66    +61.9871
iter:  65 17:27:47  -890.232032c -5.71  -3.70    +61.9553
iter:  66 17:30:32  -890.231598c -6.12  -3.71    +61.9590
iter:  67 17:33:17  -890.234354c -5.80  -3.74    +61.9374
iter:  68 17:36:06  -890.234393c -6.37  -3.77    +61.9315
iter:  69 17:38:49  -890.237941c -5.72  -3.87    +61.9031
iter:  70 17:41:44  -890.233900c -5.80  -3.89    +61.9341
iter:  71 17:44:39  -890.225128c -4.95  -3.93    +62.0107
iter:  72 17:47:24  -890.235081c -5.05  -3.91    +61.9183
iter:  73 17:50:22  -890.228733c -5.47  -3.95    +61.9783
iter:  74 17:53:19  -890.232446c -5.92  -3.99    +61.9448
iter:  75 17:56:15  -890.230303c -6.38  -4.03c   +61.9629
iter:  76 17:59:10  -890.232367c -6.23  -4.03c   +61.9489
iter:  77 18:02:07  -890.233358c -6.45  -4.18c   +61.9372
iter:  78 18:04:59  -890.236494c -5.84  -4.22c   +61.9031
iter:  79 18:07:56  -890.242619c -5.30  -4.22c   +61.8390
iter:  80 18:10:50  -890.254665c -4.72  -4.11c   +61.7082
iter:  81 18:13:34  -890.277473c -3.97  -3.84    +61.3936
iter:  82 18:16:29  -890.278370c -5.10  -3.48    +61.4091
iter:  83 18:19:22  -890.279527c -5.48  -3.47    +61.4311
iter:  84 18:22:14  -890.280228c -5.68  -3.46    +61.4427
iter:  85 18:25:18  -890.281815c -5.78  -3.44    +61.4479
iter:  86 18:28:11  -890.301206c -4.65  -3.43    +61.4525
iter:  87 18:31:09  -890.282338c -4.78  -3.05    +61.4457
iter:  88 18:34:05  -890.288867c -4.95  -3.23    +61.5023
iter:  89 18:36:49  -890.294561c -4.58  -3.14    +61.4973
iter:  90 18:39:43  -890.291411c -4.32  -3.10    +61.5263
iter:  91 18:42:39  -890.269081c -4.97  -3.09    +61.5058
iter:  92 18:45:26  -890.268379c -5.58  -3.43    +61.4840
iter:  93 18:48:11  -890.269116c -5.48  -3.49    +61.4874
iter:  94 18:51:02  -890.270774c -5.43  -3.46    +61.4952
iter:  95 18:53:57  -890.269461c -5.45  -3.43    +61.4836
iter:  96 18:56:56  -890.269563c -5.38  -3.49    +61.4713
iter:  97 18:59:51  -890.269899c -5.32  -3.57    +61.4819
iter:  98 19:02:45  -890.268807c -5.47  -3.48    +61.4878
iter:  99 19:05:36  -890.268353c -5.76  -3.59    +61.4807
iter: 100 19:08:34  -890.267617c -5.85  -3.70    +61.4706
iter: 101 19:11:27  -890.267325c -6.07  -3.71    +61.4762
iter: 102 19:14:25  -890.267005c -6.51  -3.78    +61.4816
iter: 103 19:17:14  -890.267531c -6.36  -3.87    +61.4783
iter: 104 19:20:07  -890.267387c -6.25  -3.83    +61.4794
iter: 105 19:22:45  -890.267136c -6.40  -3.82    +61.4829
iter: 106 19:25:43  -890.267743c -6.20  -3.88    +61.4858
iter: 107 19:28:42  -890.267572c -6.08  -3.85    +61.4781
iter: 108 19:31:28  -890.267199c -6.33  -3.85    +61.4733
iter: 109 19:34:10  -890.266962c -6.72  -3.96    +61.4798
iter: 110 19:37:06  -890.267133c -6.72  -4.00c   +61.4800
iter: 111 19:40:00  -890.267041c -6.98  -4.01c   +61.4785
iter: 112 19:42:58  -890.266995c -7.18  -4.07c   +61.4771
iter: 113 19:45:48  -890.267199c -6.79  -4.08c   +61.4787
iter: 114 19:48:43  -890.267182c -6.49  -4.05c   +61.4786
iter: 115 19:51:28  -890.267381c -6.54  -4.02c   +61.4732
iter: 116 19:54:19  -890.267123c -6.59  -4.05c   +61.4721
iter: 117 19:57:10  -890.267033c -6.49  -4.13c   +61.4740
iter: 118 19:59:58  -890.267090c -6.90  -4.09c   +61.4745
iter: 119 20:02:57  -890.266970c -7.10  -4.21c   +61.4679
iter: 120 20:05:52  -890.266979c -7.17  -4.30c   +61.4675
iter: 121 20:08:38  -890.266912c -7.55c -4.31c   +61.4689

Converged after 121 iterations.

Dipole moment: (6.268783, -2.331095, 0.787117) |e|*Ang

Total magnetic moment: (0.000000, 0.000000, 61.468874)
Local magnetic moments:
   0 Co ( 0.000000,  0.000000,  1.044252)
   1 Fe ( 0.000000,  0.000000,  1.736173)
   2 Fe ( 0.000000,  0.000000,  2.302091)
   3 Co ( 0.000000,  0.000000,  1.222924)
   4 Co ( 0.000000,  0.000000,  1.244824)
   5 Fe ( 0.000000,  0.000000,  2.411200)
   6 Ni ( 0.000000,  0.000000,  0.409341)
   7 Co ( 0.000000,  0.000000,  0.923512)
   8 Co ( 0.000000,  0.000000,  0.856946)
   9 Fe ( 0.000000,  0.000000,  1.862416)
  10 Cr ( 0.000000,  0.000000, -0.744883)
  11 Cr ( 0.000000,  0.000000, -1.386983)
  12 Fe ( 0.000000,  0.000000,  2.091478)
  13 Cr ( 0.000000,  0.000000, -1.671151)
  14 Co ( 0.000000,  0.000000,  1.442560)
  15 Ni ( 0.000000,  0.000000,  0.308594)
  16 Ni ( 0.000000,  0.000000,  0.266284)
  17 Fe ( 0.000000,  0.000000,  1.979544)
  18 Cr ( 0.000000,  0.000000, -1.637116)
  19 Fe ( 0.000000,  0.000000,  1.518609)
  20 Cr ( 0.000000,  0.000000, -0.725478)
  21 Ni ( 0.000000,  0.000000,  0.204883)
  22 Fe ( 0.000000,  0.000000,  2.101947)
  23 Ni ( 0.000000,  0.000000,  0.288666)
  24 Ni ( 0.000000,  0.000000,  0.394603)
  25 Ni ( 0.000000,  0.000000,  0.312701)
  26 Fe ( 0.000000,  0.000000,  2.297320)
  27 Cr ( 0.000000,  0.000000, -1.855293)
  28 Fe ( 0.000000,  0.000000,  1.661548)
  29 Co ( 0.000000,  0.000000,  1.111942)
  30 Cr ( 0.000000,  0.000000, -1.260384)
  31 Cr ( 0.000000,  0.000000, -1.390772)
  32 Co ( 0.000000,  0.000000,  0.587383)
  33 Fe ( 0.000000,  0.000000,  2.364054)
  34 Ni ( 0.000000,  0.000000,  0.359642)
  35 Ni ( 0.000000,  0.000000,  0.353131)
  36 Cr ( 0.000000,  0.000000, -0.412909)
  37 Fe ( 0.000000,  0.000000,  1.893325)
  38 Cr ( 0.000000,  0.000000, -1.546609)
  39 Co ( 0.000000,  0.000000,  1.081549)
  40 Co ( 0.000000,  0.000000,  1.212233)
  41 Fe ( 0.000000,  0.000000,  2.041496)
  42 Fe ( 0.000000,  0.000000,  2.450134)
  43 Co ( 0.000000,  0.000000,  1.164541)
  44 Ni ( 0.000000,  0.000000,  0.316452)
  45 Ni ( 0.000000,  0.000000,  0.181346)
  46 Fe ( 0.000000,  0.000000,  2.260101)
  47 Cr ( 0.000000,  0.000000, -0.690317)
  48 Ni ( 0.000000,  0.000000,  0.243898)
  49 Co ( 0.000000,  0.000000,  0.702791)
  50 Cr ( 0.000000,  0.000000, -1.318216)
  51 Fe ( 0.000000,  0.000000,  1.907959)
  52 Co ( 0.000000,  0.000000,  0.825284)
  53 Fe ( 0.000000,  0.000000,  1.758026)
  54 Cr ( 0.000000,  0.000000, -1.222354)
  55 Fe ( 0.000000,  0.000000,  1.659582)
  56 Ni ( 0.000000,  0.000000,  0.164161)
  57 Cr ( 0.000000,  0.000000,  1.165003)
  58 Cr ( 0.000000,  0.000000, -0.829331)
  59 Ni ( 0.000000,  0.000000,  0.227727)
[...]
  93 Cr ( 0.000000,  0.000000,  0.913101)
  94 Co ( 0.000000,  0.000000,  0.236862)
  95 Ni ( 0.000000,  0.000000,  0.099240)
  96 Cr ( 0.000000,  0.000000, -1.368101)
  97 Fe ( 0.000000,  0.000000,  2.376841)
  98 Co ( 0.000000,  0.000000,  1.140166)
  99 Fe ( 0.000000,  0.000000,  2.070100)
 100 Fe ( 0.000000,  0.000000,  1.668403)
 101 Co ( 0.000000,  0.000000,  1.145667)
 102 Cr ( 0.000000,  0.000000, -0.895665)
 103 Co ( 0.000000,  0.000000,  1.083651)
 104 Cr ( 0.000000,  0.000000, -1.342293)
 105 Fe ( 0.000000,  0.000000,  2.202281)
 106 Co ( 0.000000,  0.000000,  1.104255)
 107 Ni ( 0.000000,  0.000000,  0.390752)

Energy contributions relative to reference atoms: (reference = -3846758.590871)

Kinetic:       +110.862970
Potential:     -179.657878
External:        +0.000000
XC:            -859.020805
Entropy (-ST):   -4.650608
Local:          +39.874104
Free energy:   -892.592216
Extrapolated:  -890.266912

Spin contamination: 30.963197 electrons
Showing only first 2 kpts
                      Up                     Down
 Kpt  Band  Eigenvalues  Occupancy  Eigenvalues  Occupancy
  0   524      9.85916    0.99187     10.69710    0.02723
  0   525      9.86695    0.99121     10.70967    0.02409
  0   526      9.87746    0.99025     10.72436    0.02087
  0   527      9.89692    0.98818     10.73537    0.01873

  1   524      9.84026    0.99326     10.70094    0.02623
  1   525      9.85248    0.99239     10.70461    0.02531
  1   526      9.86876    0.99105     10.71425    0.02304
  1   527      9.88212    0.98979     10.72935    0.01987

Fermi level: 10.33951

No gap

Forces in eV/Ang:
  0 Co   -0.04071    0.12946    0.16701
  1 Fe    0.14692    0.26191    0.11521
  2 Fe   -0.03957   -0.27763    0.07211
  3 Co   -0.01271   -0.03465    0.07320
  4 Co    0.00096   -0.14048   -0.12270
  5 Fe    0.16069   -0.00271    0.06468
  6 Ni   -0.03417    0.05595   -0.15623
  7 Co    0.10065   -0.01394   -0.09341
  8 Co   -0.19937    0.13809    0.06247
  9 Fe   -0.24001   -0.31320   -0.16622
 10 Cr    0.23302   -0.13940    0.12183
 11 Cr    0.21721    0.11786   -0.30219
 12 Fe    0.19365    0.21700   -0.10084
 13 Cr    0.08284   -0.23749    0.11250
 14 Co    0.02435   -0.00608   -0.22632
 15 Ni   -0.05198    0.10377    0.04911
 16 Ni   -0.16143   -0.13783   -0.02868
 17 Fe    0.06428   -0.29894   -0.06370
 18 Cr   -0.44942   -0.00626    0.24171
 19 Fe    0.15285    0.11107    0.41186
 20 Cr    0.03098    0.30725   -0.17424
 21 Ni   -0.00011   -0.04931   -0.17002
 22 Fe    0.06520   -0.10902    0.03546
 23 Ni   -0.00764    0.26012   -0.21338
 24 Ni   -0.13110   -0.19314   -0.07964
 25 Ni    0.14551    0.01231    0.03542
 26 Fe    0.03642    0.35827   -0.00832
 27 Cr    0.42029   -0.08294    0.03260
 28 Fe    0.21822    0.43555    0.14054
 29 Co    0.10426    0.18604    0.09314
 30 Cr    0.01824   -0.34992   -0.25128
 31 Cr   -0.34398    0.31687    0.13849
 32 Co   -0.03274   -0.07495   -0.10704
 33 Fe   -0.16854    0.07504   -0.05106
 34 Ni   -0.00377    0.10523   -0.19178
 35 Ni    0.03755   -0.20713    0.04821
 36 Cr   -0.01181   -0.27758   -0.31215
 37 Fe    0.31025    0.10783    0.12574
 38 Cr    0.19690   -0.07445   -0.09549
 39 Co   -0.08769    0.24977    0.03357
 40 Co   -0.08166   -0.28627   -0.02288
 41 Fe   -0.24987   -0.05796    0.01236
 42 Fe    0.08864   -0.11730    0.09605
 43 Co   -0.14481    0.23129    0.01925
 44 Ni   -0.00986    0.07649    0.04902
 45 Ni    0.02636   -0.04808    0.01704
 46 Fe   -0.03336   -0.17100   -0.07569
 47 Cr   -0.06985    0.04972   -0.20800
 48 Ni    0.04864    0.00861   -0.09607
 49 Co    0.07699   -0.20358   -0.01215
 50 Cr    0.15361   -0.00476    0.31569
 51 Fe   -0.26284   -0.17191    0.15642
 52 Co   -0.01141    0.00823   -0.00637
 53 Fe    0.08288   -0.18128    0.34212
 54 Cr   -0.16965    0.13152   -0.42579
 55 Fe   -0.08808    0.04877   -0.19111
 56 Ni   -0.05698   -0.07287   -0.04090
 57 Cr   -0.26520    0.05904    0.11530
 58 Cr    0.40235   -0.08215    0.39305
 59 Ni    0.16028    0.16321    0.11396
[...]
 93 Cr    0.22342    0.23559   -0.29017
 94 Co    0.18351    0.19809    0.02578
 95 Ni    0.24949    0.18899    0.13035
 96 Cr   -0.21924   -0.54675    0.13304
 97 Fe    0.01061   -0.05418    0.03923
 98 Co   -0.03589   -0.15735    0.01193
 99 Fe    0.05919    0.01793   -0.01426
100 Fe   -0.02364    0.17125   -0.01572
101 Co   -0.05740   -0.00230   -0.00730
102 Cr   -0.36710   -0.05614    0.05181
103 Co   -0.17426   -0.02067   -0.12259
104 Cr    0.60763    0.37139    0.10892
105 Fe    0.08500   -0.36518    0.11324
106 Co   -0.12682   -0.11492   -0.07955
107 Ni    0.06244   -0.19239   -0.10560

Date: Sat Apr 15 20:09:03 2023