User:   c.zeng@d0148
Date:   Fri Apr  7 21:37:27 2023
Arch:   x86_64
Pid:    11186
CWD:    /home/c.zeng/projects/hea-corrosion/hea-mlp/data-curation/volume/dft-jobs/10
Python: 3.8.1
gpaw:   /home/c.zeng/usr/installs/gpaw/source/gpaw-22.8.0/gpaw
_gpaw:  /home/c.zeng/usr/installs/gpaw/source/gpaw-22.8.0/
        _gpaw.cpython-38-x86_64-linux-gnu.so
ase:    /home/c.zeng/.local/lib/python3.8/site-packages/ase-3.22.1-py3.8.egg/ase (version 3.22.1)
numpy:  /shared/centos7/python/3.8.1/lib/python3.8/site-packages/numpy (version 1.17.4)
scipy:  /shared/centos7/python/3.8.1/lib/python3.8/site-packages/scipy (version 1.4.1)
units:  Angstrom and eV
cores: 64
OpenMP: False
OMP_NUM_THREADS: 1

Input parameters:
  convergence: {energy: 0.0001}
  kpts: [2 2 2]
  maxiter: 666
  mode: {ecut: 350.0,
         name: pw}
  occupations: {fixmagmom: False,
                name: fermi-dirac,
                width: 0.1}
  spinpol: True
  xc: PBE

System changes: positions, numbers, cell, pbc, initial_charges, initial_magmoms

Initialize ...

species:
  Co:
    name: Cobalt
    id: 339d20d5b0b93d2de9531a1bee871d91
    Z: 27.0
    valence: 9
    core: 18
    charge: 0.0
    file: /home/c.zeng/usr/data/gpaw-setups-0.9.20000/Co.PBE.gz
    compensation charges: {type: gauss,
                           rc: 0.32,
                           lmax: 2}
    cutoffs: {filter: 1.87,
              core: 2.55}
    valence states:
      #              energy  rcut
      - 4s(2.00)    -5.469   1.005
      - 4p(0.00)    -1.277   1.058
      - 3d(7.00)    -8.205   1.005
      -  s          21.742   1.005
      -  p          25.934   1.058
      -  d          19.007   1.005

    # Using partial waves for Co as LCAO basis

  Fe:
    name: Iron
    id: 37abbd8d6c3c35915a9b583b742da910
    Z: 26.0
    valence: 8
    core: 18
    charge: 0.0
    file: /home/c.zeng/usr/data/gpaw-setups-0.9.20000/Fe.PBE.gz
    compensation charges: {type: gauss,
                           rc: 0.33,
                           lmax: 2}
    cutoffs: {filter: 2.06,
              core: 2.67}
    valence states:
      #              energy  rcut
      - 4s(2.00)    -5.291   1.164
      - 4p(0.00)    -1.326   1.058
      - 3d(6.00)    -7.505   1.058
      -  s          21.920   1.164
      -  p          25.885   1.058
      -  d          19.706   1.058

[...]

  Cr:
    name: Chromium
    id: 33f258bda2ca9f93018e70263a35547b
    Z: 24.0
    valence: 6
    core: 18
    charge: 0.0
    file: /home/c.zeng/usr/data/gpaw-setups-0.9.20000/Cr.PBE.gz
    compensation charges: {type: gauss,
                           rc: 0.35,
                           lmax: 2}
    cutoffs: {filter: 2.14,
              core: 3.04}
    valence states:
      #              energy  rcut
      - 4s(1.00)    -4.007   1.164
      - 4p(0.00)    -0.989   1.217
      - 3d(5.00)    -2.913   1.111
      -  s          23.205   1.164
      -  p          26.223   1.217
      -  d          24.299   1.111

[...]

  Ni:
    name: Nickel
    id: 0d9f38a9d6e76a2886f07bb4381f212b
    Z: 28.0
    valence: 16
    core: 12
    charge: 0.0
    file: /home/c.zeng/usr/data/gpaw-setups-0.9.20000/Ni.PBE.gz
    compensation charges: {type: gauss,
                           rc: 0.36,
                           lmax: 2}
    cutoffs: {filter: 2.14,
              core: 1.98}
    valence states:
      #              energy  rcut
      - 4s(2.00)    -5.642   1.164
      - 3p(6.00)   -71.394   1.207
      - 4p(0.00)    -1.226   1.207
      - 3d(8.00)    -8.875   1.138
      -  s          21.570   1.164
      -  d          18.337   1.138

    # Using partial waves for Ni as LCAO basis

Reference energy: -3846758.590871  # eV

Spin-polarized calculation.
Magnetic moment: 151.200000

Convergence criteria:
 Maximum [total energy] change in last 3 cyles: 0.0001 eV / electron
 Maximum integral of absolute [dens]ity change: 0.0001 electrons / valence electron
 Maximum integral of absolute [eigenst]ate change: 4e-08 eV^2 / valence electron
 Maximum number of scf [iter]ations: 666
 (Square brackets indicate name in SCF output, whereas a 'c' in
 the SCF output indicates the quantity has converged.)

Symmetries present (total): 1

  ( 1  0  0)
  ( 0  1  0)
  ( 0  0  1)

8 k-points: 2 x 2 x 2 Monkhorst-Pack grid
4 k-points in the irreducible part of the Brillouin zone
       k-points in crystal coordinates                weights
   0:     0.25000000   -0.25000000   -0.25000000          2/8
   1:     0.25000000   -0.25000000    0.25000000          2/8
   2:     0.25000000    0.25000000   -0.25000000          2/8
   3:     0.25000000    0.25000000    0.25000000          2/8

Wave functions: Plane wave expansion
  Cutoff energy: 350.000 eV
  Number of coefficients (min, max): 19468, 19468
  Pulay-stress correction: 0.000000 eV/Ang^3 (de/decut=0.000000)
  Using FFTW library
  ScaLapack parameters: grid=1x1, blocksize=None
  Wavefunction extrapolation:
    Improved wavefunction reuse through dual PAW basis

Occupation numbers: Fermi-Dirac:
  width: 0.1000  # eV

Eigensolver
   Davidson(niter=2)

Densities:
  Coarse grid: 48*48*48 grid
  Fine grid: 96*96*96 grid
  Total Charge: 0.000000

Density mixing:
  Method: difference
  Backend: pulay
  Linear mixing parameter: 0.05
  old densities: 5
  Damping of long wavelength oscillations: 50

Hamiltonian:
  XC and Coulomb potentials evaluated on a 96*96*96 grid
  Using the PBE Exchange-Correlation functional
  External potential:
    NoExternalPotential

XC parameters: PBE with 2 nearest neighbor stencil

Total number of cores used: 64
Parallelization over k-points: 4
Domain decomposition: 4 x 2 x 2

Number of atoms: 108
Number of atomic orbitals: 1053
Number of bands in calculation: 727
Number of valence electrons: 1053
Bands to converge: occupied

... initialized

Initializing position-dependent things.

Density initialized from atomic densities
Creating initial wave functions:
  727 bands from LCAO basis set

       /|  Cr       Co       Cr    |
      / |      Fe     Fe           |
     / CoFe     Cr       Co        |
    /   CoFe      Cr        Cr     |
   /    |   Ni     FeCo      Cr    |
  /  Co |  Cr FeCr    Ni Co        |
 *    NiCrCr   CoNiFe   NiNi       |
 |Co   FeNiCo   NiCoFe   CoCr      |
 |   Fe FeFeCr     CoNiCo   CrCr   |
 |   NiCr  NiFe Cr  NiFe Ni  Ni    |
 |    NiFeCr   FeFeNi   FeCo       |
 |Ni   CoCoCo   CrNiFe   NiNi      |
 | Cr   .-CrCo-----CoNi-----Ni-----.
 |   Cr/     CoCre     NNi        /
 |    FFer       Ni     CCoo     /
 |   /    Fe       Fe      Cr   /
 |Co/      Cr       Ni         /
 | /rFe        Co       Ni    /
 |/    Fe                    /
 Co-------------------------*

Positions:
   0 Co     0.000017    0.000013   10.935000    ( 0.0000,  0.0000,  2.1000)
   1 Co     0.000018    1.822471    1.822504    ( 0.0000,  0.0000,  2.1000)
   2 Fe     1.822482    0.000033    1.822515    ( 0.0000,  0.0000,  2.0000)
   3 Fe     1.822482    1.822482   10.935000    ( 0.0000,  0.0000,  2.0000)
   4 Cr     3.644985    0.000023   10.934978    ( 0.0000,  0.0000,  0.0000)
   5 Cr     3.644964    1.822482    1.822547    ( 0.0000,  0.0000,  0.0000)
   6 Co     5.467522   10.935000    1.822515    ( 0.0000,  0.0000,  2.1000)
   7 Cr     5.467544    1.822471   10.934967    ( 0.0000,  0.0000,  0.0000)
   8 Fe     7.289993    0.000012   10.934989    ( 0.0000,  0.0000,  2.0000)
   9 Ni     7.290004    1.822482    1.822515    ( 0.0000,  0.0000,  1.5000)
  10 Ni     9.112507    0.000022    1.822515    ( 0.0000,  0.0000,  1.5000)
  11 Co     9.112485    1.822493   10.934989    ( 0.0000,  0.0000,  2.1000)
  12 Cr    10.935000    3.645007    0.000005    ( 0.0000,  0.0000,  0.0000)
  13 Fe    10.935000    5.467533    1.822471    ( 0.0000,  0.0000,  2.0000)
  14 Cr     1.822493    3.644996    1.822515    ( 0.0000,  0.0000,  0.0000)
  15 Fe     1.822504    5.467522   10.934989    ( 0.0000,  0.0000,  2.0000)
  16 Ni     3.644985    3.645029   10.934978    ( 0.0000,  0.0000,  1.5000)
  17 Co     3.644985    5.467522    1.822493    ( 0.0000,  0.0000,  2.1000)
  18 Ni     5.467522    3.645007    1.822526    ( 0.0000,  0.0000,  1.5000)
  19 Cr     5.467456    5.467533   10.934967    ( 0.0000,  0.0000,  0.0000)
  20 Co     7.290015    3.644974   10.934989    ( 0.0000,  0.0000,  2.1000)
  21 Ni     7.290015    5.467511    1.822526    ( 0.0000,  0.0000,  1.5000)
  22 Co     9.112485    3.645007    1.822504    ( 0.0000,  0.0000,  2.1000)
  23 Cr     9.112540    5.467489    0.000020    ( 0.0000,  0.0000,  0.0000)
  24 Fe     0.000026    7.289982   10.935000    ( 0.0000,  0.0000,  2.0000)
  25 Co    10.935000    9.112507    1.822515    ( 0.0000,  0.0000,  2.1000)
  26 Cr     1.822493    7.289960    1.822482    ( 0.0000,  0.0000,  0.0000)
  27 Cr     1.822460    9.112496   10.934978    ( 0.0000,  0.0000,  0.0000)
  28 Fe     3.644996    7.289949   10.934978    ( 0.0000,  0.0000,  2.0000)
  29 Cr     3.645018    9.112496    1.822526    ( 0.0000,  0.0000,  0.0000)
  30 Co     5.467500    7.290004    1.822515    ( 0.0000,  0.0000,  2.1000)
  31 Co     5.467522    9.112496   10.934978    ( 0.0000,  0.0000,  2.1000)
  32 Cr     7.289960    7.290015   10.935000    ( 0.0000,  0.0000,  0.0000)
  33 Ni     7.289993    9.112507    1.822526    ( 0.0000,  0.0000,  1.5000)
  34 Ni     9.112507    7.289971    1.822526    ( 0.0000,  0.0000,  1.5000)
  35 Cr     9.112507    9.112529   10.934989    ( 0.0000,  0.0000,  0.0000)
  36 Fe     0.000013   10.934989    3.644985    ( 0.0000,  0.0000,  2.0000)
  37 Ni    10.935000    1.822482    5.467478    ( 0.0000,  0.0000,  1.5000)
  38 Cr     1.822471    0.000008    5.467445    ( 0.0000,  0.0000,  0.0000)
  39 Fe     1.822504    1.822471    3.644996    ( 0.0000,  0.0000,  2.0000)
  40 Fe     3.644996    0.000012    3.644985    ( 0.0000,  0.0000,  2.0000)
  41 Co     3.645007    1.822536    5.467445    ( 0.0000,  0.0000,  2.1000)
  42 Cr     5.467533    0.000023    5.467456    ( 0.0000,  0.0000,  0.0000)
  43 Fe     5.467511    1.822482    3.645018    ( 0.0000,  0.0000,  2.0000)
  44 Fe     7.289993    0.000008    3.644996    ( 0.0000,  0.0000,  2.0000)
  45 Fe     7.289993    1.822526    5.467489    ( 0.0000,  0.0000,  2.0000)
  46 Ni     9.112496    0.000014    5.467467    ( 0.0000,  0.0000,  1.5000)
  47 Co     9.112485    1.822482    3.645007    ( 0.0000,  0.0000,  2.1000)
  48 Cr     0.000010    3.644985    3.645007    ( 0.0000,  0.0000,  0.0000)
  49 Ni     0.000034    5.467511    5.467489    ( 0.0000,  0.0000,  1.5000)
  50 Fe     1.822515    3.645018    5.467478    ( 0.0000,  0.0000,  2.0000)
  51 Co     1.822515    5.467500    3.645029    ( 0.0000,  0.0000,  2.1000)
  52 Co     3.645007    3.644996    3.645040    ( 0.0000,  0.0000,  2.1000)
  53 Fe     3.644996    5.467500    5.467489    ( 0.0000,  0.0000,  2.0000)
  54 Fe     5.467511    3.645007    5.467478    ( 0.0000,  0.0000,  2.0000)
  55 Ni     5.467489    5.467511    3.645040    ( 0.0000,  0.0000,  1.5000)
  56 Ni     7.289982    3.644985    3.645040    ( 0.0000,  0.0000,  1.5000)
  57 Fe     7.289982    5.467489    5.467489    ( 0.0000,  0.0000,  2.0000)
  58 Co     9.112464    3.644996    5.467489    ( 0.0000,  0.0000,  2.1000)
  59 Ni     9.112485    5.467500    3.644996    ( 0.0000,  0.0000,  1.5000)
[...]
  93 Ni     7.289971    5.467489    9.112485    ( 0.0000,  0.0000,  1.5000)
  94 Ni     9.112474    3.644964    9.112507    ( 0.0000,  0.0000,  1.5000)
  95 Cr     9.112485    5.467478    7.289982    ( 0.0000,  0.0000,  0.0000)
  96 Ni     0.000045    7.290015    7.290015    ( 0.0000,  0.0000,  1.5000)
  97 Co     0.000012    9.112507    9.112496    ( 0.0000,  0.0000,  2.1000)
  98 Fe     1.822515    7.289971    9.112518    ( 0.0000,  0.0000,  2.0000)
  99 Cr     1.822471    9.112474    7.289993    ( 0.0000,  0.0000,  0.0000)
 100 Co     3.645007    7.289971    7.290004    ( 0.0000,  0.0000,  2.1000)
 101 Cr     3.645029    9.112464    9.112507    ( 0.0000,  0.0000,  0.0000)
 102 Fe     5.467478    7.290004    9.112496    ( 0.0000,  0.0000,  2.0000)
 103 Co     5.467522    9.112474    7.290026    ( 0.0000,  0.0000,  2.1000)
 104 Ni     7.289949    7.289993    7.289982    ( 0.0000,  0.0000,  1.5000)
 105 Co     7.289971    9.112529    9.112496    ( 0.0000,  0.0000,  2.1000)
 106 Cr     9.112529    7.289993    9.112507    ( 0.0000,  0.0000,  0.0000)
 107 Cr     9.112507    9.112518    7.289993    ( 0.0000,  0.0000,  0.0000)

Unit cell:
           periodic     x           y           z      points  spacing
  1. axis:    yes   10.935000    0.000000    0.000000    48     0.2278
  2. axis:    yes    0.000000   10.935000    0.000000    48     0.2278
  3. axis:    yes    0.000000    0.000000   10.935000    48     0.2278

  Lengths:  10.935000  10.935000  10.935000
  Angles:   90.000000  90.000000  90.000000

Effective grid spacing dv^(1/3) = 0.2278

     iter     time        total  log10-change:  magmom
                         energy  eigst   dens
iter:   1 21:40:16 -1104.351003                  +151.4724
iter:   2 21:41:44  -952.382701  -0.22  -1.19    +84.9261
iter:   3 21:43:11  -952.183669  -0.82  -1.22    +76.4923
iter:   4 21:44:39  -926.697489  -1.14  -1.27    +71.7879
iter:   5 21:46:09  -905.554373  -1.61  -1.28    +67.9834
iter:   6 21:47:37  -905.692248  -1.37  -1.37    +70.5362
iter:   7 21:49:06  -896.952598  -1.24  -1.43    +70.7271
iter:   8 21:50:35  -886.205391  -1.54  -1.55    +70.9640
iter:   9 21:52:03  -883.822042  -2.07  -1.77    +72.4408
iter:  10 21:53:31  -883.762497  -2.27  -1.81    +75.2740
iter:  11 21:55:00  -883.654959  -2.55  -1.86    +77.0978
iter:  12 21:56:29  -883.993830  -2.71  -1.89    +78.5802
iter:  13 21:57:59  -884.794880  -2.66  -1.93    +79.8473
iter:  14 21:59:28  -885.508748  -2.47  -1.97    +80.8094
iter:  15 22:00:58  -885.819526  -2.59  -2.04    +80.8058
iter:  16 22:02:27  -886.269316  -2.53  -2.09    +80.0225
iter:  17 22:03:56  -885.438777  -2.77  -2.09    +80.9333
iter:  18 22:05:25  -885.407692  -3.03  -2.21    +80.8971
iter:  19 22:06:54  -885.451247c -3.31  -2.27    +80.3407
iter:  20 22:08:26  -885.522433  -3.31  -2.31    +79.8725
iter:  21 22:09:54  -885.579187  -3.37  -2.37    +79.7778
iter:  22 22:11:22  -885.687907  -3.40  -2.37    +79.5716
iter:  23 22:12:50  -885.963778  -3.23  -2.42    +78.9187
iter:  24 22:14:20  -885.789143  -3.32  -2.39    +78.6658
iter:  25 22:15:49  -885.903016  -3.37  -2.49    +78.4089
iter:  26 22:17:18  -885.839093  -3.55  -2.49    +78.2354
iter:  27 22:18:47  -885.907052c -3.72  -2.59    +77.8415
iter:  28 22:20:14  -885.888027c -3.96  -2.59    +77.4630
iter:  29 22:21:43  -885.943044c -4.09  -2.65    +77.2139
iter:  30 22:23:11  -886.007560  -4.30  -2.66    +76.7562
iter:  31 22:24:41  -886.377030  -3.07  -2.65    +74.0780
iter:  32 22:26:09  -886.421103  -3.72  -2.50    +73.9049
iter:  33 22:27:37  -886.361524c -3.61  -2.52    +73.9155
iter:  34 22:29:05  -886.304820  -3.81  -2.63    +73.8391
iter:  35 22:30:34  -886.319059c -4.38  -2.75    +73.7420
iter:  36 22:32:04  -886.373358c -3.50  -2.76    +73.5272
iter:  37 22:33:32  -886.281246c -4.24  -2.69    +73.5164
iter:  38 22:35:01  -886.304569c -4.39  -2.88    +73.1848
iter:  39 22:36:30  -886.313522c -4.42  -2.86    +73.1157
iter:  40 22:37:58  -886.312048c -4.78  -2.87    +73.0507
iter:  41 22:39:27  -886.320096c -4.73  -2.92    +72.9325
iter:  42 22:40:55  -886.343482c -4.44  -2.97    +72.7998
iter:  43 22:42:23  -886.332479c -4.38  -2.95    +72.7293
iter:  44 22:43:52  -886.343868c -4.35  -3.13    +72.6733
iter:  45 22:45:20  -886.340059c -4.33  -3.09    +72.6174
iter:  46 22:46:49  -886.337978c -4.66  -3.14    +72.5408
iter:  47 22:48:17  -886.338782c -5.11  -3.27    +72.5113
iter:  48 22:49:44  -886.342674c -5.19  -3.32    +72.4514
iter:  49 22:51:13  -886.344770c -5.40  -3.35    +72.4329
iter:  50 22:52:41  -886.346821c -5.28  -3.35    +72.3610
iter:  51 22:54:09  -886.347454c -5.09  -3.45    +72.3615
iter:  52 22:55:38  -886.348890c -5.27  -3.59    +72.3230
iter:  53 22:57:06  -886.349699c -5.62  -3.57    +72.3105
iter:  54 22:58:35  -886.350580c -5.78  -3.71    +72.2942
iter:  55 23:00:03  -886.352051c -5.96  -3.77    +72.2804
iter:  56 23:01:31  -886.353899c -6.00  -3.77    +72.2670
iter:  57 23:03:00  -886.356316c -5.86  -3.80    +72.2253
iter:  58 23:04:29  -886.362713c -5.14  -3.76    +72.1080
iter:  59 23:05:58  -886.367390c -5.24  -3.65    +72.0324
iter:  60 23:07:27  -886.373555c -5.00  -3.57    +71.9541
iter:  61 23:08:55  -886.374356c -5.70  -3.48    +71.9602
iter:  62 23:10:24  -886.375909c -5.95  -3.47    +71.9697
iter:  63 23:11:54  -886.375930c -6.17  -3.43    +71.9712
iter:  64 23:13:23  -886.380279c -5.31  -3.46    +71.9847
iter:  65 23:14:52  -886.379903c -5.01  -3.30    +71.9933
iter:  66 23:16:20  -886.381550c -4.89  -3.30    +71.9525
iter:  67 23:17:49  -886.379367c -4.93  -3.24    +71.8858
iter:  68 23:19:17  -886.376373c -5.01  -3.29    +71.8545
iter:  69 23:20:47  -886.373682c -5.39  -3.40    +71.8814
iter:  70 23:22:15  -886.374180c -5.61  -3.51    +71.8830
iter:  71 23:23:43  -886.372751c -5.58  -3.53    +71.8693
iter:  72 23:25:12  -886.374427c -5.69  -3.58    +71.8762
iter:  73 23:26:40  -886.373616c -5.66  -3.55    +71.8816
iter:  74 23:28:08  -886.374788c -5.39  -3.58    +71.8785
iter:  75 23:29:38  -886.374894c -5.47  -3.46    +71.8676
iter:  76 23:31:07  -886.373642c -5.54  -3.52    +71.8547
iter:  77 23:32:36  -886.374027c -5.71  -3.59    +71.8734
iter:  78 23:34:04  -886.371938c -5.75  -3.63    +71.8616
iter:  79 23:35:33  -886.372277c -6.23  -3.70    +71.8570
iter:  80 23:37:01  -886.372695c -6.04  -3.79    +71.8539
iter:  81 23:38:29  -886.372080c -6.04  -3.74    +71.8597
iter:  82 23:39:56  -886.372406c -6.03  -3.73    +71.8628
iter:  83 23:41:25  -886.372063c -5.94  -3.75    +71.8518
iter:  84 23:42:53  -886.373601c -5.82  -3.74    +71.8584
iter:  85 23:44:21  -886.372138c -6.00  -3.69    +71.8634
iter:  86 23:45:51  -886.371955c -6.16  -3.81    +71.8651
iter:  87 23:47:20  -886.372095c -6.24  -3.83    +71.8564
iter:  88 23:48:47  -886.371774c -6.44  -3.87    +71.8539
iter:  89 23:50:15  -886.371987c -6.72  -3.96    +71.8618
iter:  90 23:51:43  -886.371431c -6.29  -3.95    +71.8599
iter:  91 23:53:12  -886.372072c -6.28  -3.88    +71.8598
iter:  92 23:54:41  -886.372167c -6.28  -3.92    +71.8585
iter:  93 23:56:09  -886.371947c -6.17  -3.88    +71.8660
iter:  94 23:57:38  -886.371815c -6.20  -3.87    +71.8689
iter:  95 23:59:06  -886.371443c -6.56  -3.93    +71.8586
iter:  96 00:00:34  -886.371818c -6.65  -4.05c   +71.8608
iter:  97 00:02:03  -886.371360c -6.68  -4.06c   +71.8615
iter:  98 00:03:33  -886.371403c -6.99  -4.12c   +71.8638
iter:  99 00:05:01  -886.371469c -6.76  -4.14c   +71.8592
iter: 100 00:06:30  -886.371588c -6.45  -4.07c   +71.8603
iter: 101 00:07:41  -886.371610c -6.64  -4.03c   +71.8680
iter: 102 00:09:06  -886.371218c -6.63  -4.09c   +71.8668
iter: 103 00:10:32  -886.371571c -6.59  -4.11c   +71.8659
iter: 104 00:11:57  -886.371382c -6.97  -4.15c   +71.8627
iter: 105 00:13:23  -886.371383c -7.23  -4.25c   +71.8683
iter: 106 00:14:49  -886.371327c -7.12  -4.32c   +71.8681
iter: 107 00:16:17  -886.371276c -7.30  -4.28c   +71.8663
iter: 108 00:17:41  -886.371414c -7.30  -4.34c   +71.8675
iter: 109 00:19:04  -886.371232c -6.84  -4.34c   +71.8688
iter: 110 00:20:31  -886.371315c -6.92  -4.21c   +71.8706
iter: 111 00:21:56  -886.371207c -7.08  -4.29c   +71.8654
iter: 112 00:23:23  -886.371273c -7.12  -4.34c   +71.8660
iter: 113 00:24:50  -886.371261c -7.40c -4.37c   +71.8694

Converged after 113 iterations.

Dipole moment: (-0.150426, 0.134105, -0.019759) |e|*Ang

Total magnetic moment: (0.000000, 0.000000, 71.869359)
Local magnetic moments:
   0 Co ( 0.000000,  0.000000,  1.530050)
   1 Co ( 0.000000,  0.000000,  1.239142)
   2 Fe ( 0.000000,  0.000000,  2.302585)
   3 Fe ( 0.000000,  0.000000,  2.100299)
   4 Cr ( 0.000000,  0.000000,  1.309941)
   5 Cr ( 0.000000,  0.000000, -1.920912)
   6 Co ( 0.000000,  0.000000,  1.136618)
   7 Cr ( 0.000000,  0.000000, -2.052115)
   8 Fe ( 0.000000,  0.000000,  2.592883)
   9 Ni ( 0.000000,  0.000000,  0.500316)
  10 Ni ( 0.000000,  0.000000,  0.587682)
  11 Co ( 0.000000,  0.000000,  1.716738)
  12 Cr ( 0.000000,  0.000000, -1.637889)
  13 Fe ( 0.000000,  0.000000,  2.180142)
  14 Cr ( 0.000000,  0.000000, -1.840525)
  15 Fe ( 0.000000,  0.000000,  2.130565)
  16 Ni ( 0.000000,  0.000000,  0.145378)
  17 Co ( 0.000000,  0.000000,  1.338412)
  18 Ni ( 0.000000,  0.000000,  0.332467)
  19 Cr ( 0.000000,  0.000000, -2.300078)
  20 Co ( 0.000000,  0.000000,  1.461378)
  21 Ni ( 0.000000,  0.000000,  0.363701)
  22 Co ( 0.000000,  0.000000,  1.464156)
  23 Cr ( 0.000000,  0.000000, -1.923161)
  24 Fe ( 0.000000,  0.000000,  2.231914)
  25 Co ( 0.000000,  0.000000,  1.386122)
  26 Cr ( 0.000000,  0.000000, -1.874811)
  27 Cr ( 0.000000,  0.000000, -1.661947)
  28 Fe ( 0.000000,  0.000000,  2.207090)
  29 Cr ( 0.000000,  0.000000, -1.814493)
  30 Co ( 0.000000,  0.000000,  1.435476)
  31 Co ( 0.000000,  0.000000,  1.066621)
  32 Cr ( 0.000000,  0.000000,  1.735398)
  33 Ni ( 0.000000,  0.000000,  0.487766)
  34 Ni ( 0.000000,  0.000000,  0.352661)
  35 Cr ( 0.000000,  0.000000, -2.239379)
  36 Fe ( 0.000000,  0.000000,  2.632886)
  37 Ni ( 0.000000,  0.000000,  0.337777)
  38 Cr ( 0.000000,  0.000000, -1.839569)
  39 Fe ( 0.000000,  0.000000,  2.197087)
  40 Fe ( 0.000000,  0.000000,  2.444113)
  41 Co ( 0.000000,  0.000000,  0.849318)
  42 Cr ( 0.000000,  0.000000, -2.065352)
  43 Fe ( 0.000000,  0.000000,  2.480594)
  44 Fe ( 0.000000,  0.000000,  2.704892)
  45 Fe ( 0.000000,  0.000000,  2.534318)
  46 Ni ( 0.000000,  0.000000,  0.522259)
  47 Co ( 0.000000,  0.000000,  1.672776)
  48 Cr ( 0.000000,  0.000000, -2.120915)
  49 Ni ( 0.000000,  0.000000,  0.220309)
  50 Fe ( 0.000000,  0.000000,  2.337400)
  51 Co ( 0.000000,  0.000000,  1.326852)
  52 Co ( 0.000000,  0.000000,  1.320284)
  53 Fe ( 0.000000,  0.000000,  2.574510)
  54 Fe ( 0.000000,  0.000000,  2.444921)
  55 Ni ( 0.000000,  0.000000,  0.602384)
  56 Ni ( 0.000000,  0.000000,  0.565757)
  57 Fe ( 0.000000,  0.000000,  2.554704)
  58 Co ( 0.000000,  0.000000,  1.407707)
  59 Ni ( 0.000000,  0.000000,  0.412823)
[...]
  93 Ni ( 0.000000,  0.000000,  0.248408)
  94 Ni ( 0.000000,  0.000000,  0.192949)
  95 Cr ( 0.000000,  0.000000, -2.069576)
  96 Ni ( 0.000000,  0.000000,  0.194316)
  97 Co ( 0.000000,  0.000000,  0.978823)
  98 Fe ( 0.000000,  0.000000,  2.239815)
  99 Cr ( 0.000000,  0.000000, -1.968085)
 100 Co ( 0.000000,  0.000000,  1.425249)
 101 Cr ( 0.000000,  0.000000, -1.821830)
 102 Fe ( 0.000000,  0.000000,  2.484959)
 103 Co ( 0.000000,  0.000000,  1.402661)
 104 Ni ( 0.000000,  0.000000,  0.245999)
 105 Co ( 0.000000,  0.000000,  1.269622)
 106 Cr ( 0.000000,  0.000000,  1.832356)
 107 Cr ( 0.000000,  0.000000, -2.152746)

Energy contributions relative to reference atoms: (reference = -3846758.590871)

Kinetic:       -135.340062
Potential:      +19.114363
External:        +0.000000
XC:            -806.593086
Entropy (-ST):   -4.657158
Local:          +38.776103
Free energy:   -888.699840
Extrapolated:  -886.371261

Spin contamination: 48.360226 electrons
Showing only first 2 kpts
                      Up                     Down
 Kpt  Band  Eigenvalues  Occupancy  Eigenvalues  Occupancy
  0   524      8.52665    0.99866      9.55213    0.02562
  0   525      8.54341    0.99842      9.56633    0.02231
  0   526      8.55531    0.99822      9.56881    0.02177
  0   527      8.56795    0.99798      9.58359    0.01884

  1   524      8.52243    0.99872      9.54479    0.02752
  1   525      8.53630    0.99853      9.56067    0.02358
  1   526      8.54676    0.99837      9.56755    0.02204
  1   527      8.55613    0.99821      9.57775    0.01995

Fermi level: 9.18830

No gap

Forces in eV/Ang:
  0 Co   -0.01892   -0.10228   -0.06026
  1 Co   -0.19687    0.15784   -0.00899
  2 Fe   -0.34761   -0.09656   -0.07973
  3 Fe   -0.16357    0.23788    0.17440
  4 Cr    0.14558   -0.32391    0.03478
  5 Cr    0.11240   -0.25106    0.35959
  6 Co    0.08801   -0.13903    0.01637
  7 Cr    0.21522    0.09084   -0.26950
  8 Fe   -0.13710   -0.21924    0.27884
  9 Ni    0.14442    0.12514   -0.01925
 10 Ni    0.02848    0.13096   -0.03652
 11 Co    0.18147   -0.05066    0.14214
 12 Cr   -0.10215   -0.21885   -0.46966
 13 Fe    0.00476   -0.10407    0.16823
 14 Cr    0.33992    0.45944   -0.22570
 15 Fe    0.07180   -0.13211    0.28884
 16 Ni   -0.10362   -0.08981    0.02935
 17 Co    0.05019   -0.11063    0.17645
 18 Ni    0.03775   -0.03538    0.02395
 19 Cr    0.06614   -0.05616    0.18144
 20 Co    0.06967   -0.06151    0.03957
 21 Ni    0.14467   -0.04474    0.07539
 22 Co    0.00440   -0.26927   -0.17388
 23 Cr   -0.24358    0.23408   -0.13341
 24 Fe    0.21378    0.27000    0.22558
 25 Co    0.02098    0.00047    0.04591
 26 Cr   -0.27690   -0.52164    0.14212
 27 Cr   -0.86863    0.37433   -0.03836
 28 Fe    0.10938    0.35418    0.48481
 29 Cr    0.69414    0.34694    0.02192
 30 Co   -0.20358    0.08226    0.01348
 31 Co   -0.06969   -0.11048    0.26225
 32 Cr   -0.05991    0.09737    0.62706
 33 Ni   -0.15849    0.05778    0.06691
 34 Ni    0.01050    0.04002   -0.01871
 35 Cr    0.20320   -0.13838    0.06233
 36 Fe   -0.28540    0.02361   -0.18294
 37 Ni   -0.08048   -0.04960    0.01753
 38 Cr    0.15141    0.45859   -0.22122
 39 Fe    0.02450    0.38709    0.05434
 40 Fe    0.10253   -0.38643    0.05804
 41 Co    0.07883    0.26512   -0.12210
 42 Cr   -0.20298   -0.37656   -0.16840
 43 Fe   -0.03228    0.35110   -0.20317
 44 Fe    0.16092   -0.32093   -0.24759
 45 Fe    0.29315    0.29610    0.28721
 46 Ni    0.03672   -0.05038   -0.02041
 47 Co   -0.00933    0.14791   -0.14715
 48 Cr   -0.38380   -0.06248    0.24265
 49 Ni   -0.01518   -0.00853    0.02229
 50 Fe   -0.09940    0.00260   -0.05292
 51 Co    0.12334   -0.15802   -0.00844
 52 Co   -0.10779    0.05975   -0.18422
 53 Fe    0.19357    0.04762    0.05850
 54 Fe   -0.20719    0.00261    0.10305
 55 Ni   -0.09268   -0.01446   -0.10440
 56 Ni    0.05112   -0.06735    0.07117
 57 Fe   -0.10566   -0.15458    0.10202
 58 Co   -0.11386   -0.06514   -0.04262
 59 Ni    0.00399   -0.03404    0.02414
[...]
 93 Ni   -0.08111   -0.21577   -0.09070
 94 Ni    0.04604    0.01219    0.14410
 95 Cr   -0.15042   -0.04757    0.37933
 96 Ni   -0.08598   -0.02806    0.08395
 97 Co    0.20756    0.19513   -0.07934
 98 Fe   -0.30552    0.15620   -0.29543
 99 Cr   -0.28652   -0.06501    0.12398
100 Co    0.22794    0.26084    0.07328
101 Cr    0.91217   -0.20850    0.01958
102 Fe    0.03889    0.20889   -0.49893
103 Co    0.10280   -0.09823   -0.13787
104 Ni    0.00355    0.16791   -0.05031
105 Co   -0.24709    0.25095   -0.37421
106 Cr    0.02149   -0.04513   -0.65477
107 Cr   -0.03207    0.40578    0.54806

Date: Sat Apr  8 00:25:15 2023