User:   c.zeng@d0102
Date:   Fri Apr 14 21:39:08 2023
Arch:   x86_64
Pid:    259733
CWD:    /home/c.zeng/projects/hea-corrosion/hea-mlp/data-curation/bulk-mcmc/dft-jobs/173
Python: 3.8.1
gpaw:   /home/c.zeng/usr/installs/gpaw/source/gpaw-22.8.0/gpaw
_gpaw:  /home/c.zeng/usr/installs/gpaw/source/gpaw-22.8.0/
        _gpaw.cpython-38-x86_64-linux-gnu.so
ase:    /home/c.zeng/.local/lib/python3.8/site-packages/ase-3.22.1-py3.8.egg/ase (version 3.22.1)
numpy:  /shared/centos7/python/3.8.1/lib/python3.8/site-packages/numpy (version 1.17.4)
scipy:  /shared/centos7/python/3.8.1/lib/python3.8/site-packages/scipy (version 1.4.1)
units:  Angstrom and eV
cores: 30
OpenMP: False
OMP_NUM_THREADS: 1

Input parameters:
  convergence: {energy: 0.0001}
  kpts: [2 2 2]
  maxiter: 666
  mode: {ecut: 350.0,
         name: pw}
  occupations: {fixmagmom: False,
                name: fermi-dirac,
                width: 0.1}
  spinpol: True
  xc: PBE

System changes: positions, numbers, cell, pbc, initial_charges, initial_magmoms

Initialize ...

species:
  Fe:
    name: Iron
    id: 37abbd8d6c3c35915a9b583b742da910
    Z: 26.0
    valence: 8
    core: 18
    charge: 0.0
    file: /home/c.zeng/usr/data/gpaw-setups-0.9.20000/Fe.PBE.gz
    compensation charges: {type: gauss,
                           rc: 0.33,
                           lmax: 2}
    cutoffs: {filter: 2.06,
              core: 2.67}
    valence states:
      #              energy  rcut
      - 4s(2.00)    -5.291   1.164
      - 4p(0.00)    -1.326   1.058
      - 3d(6.00)    -7.505   1.058
      -  s          21.920   1.164
      -  p          25.885   1.058
      -  d          19.706   1.058

    # Using partial waves for Fe as LCAO basis

  Co:
    name: Cobalt
    id: 339d20d5b0b93d2de9531a1bee871d91
    Z: 27.0
    valence: 9
    core: 18
    charge: 0.0
    file: /home/c.zeng/usr/data/gpaw-setups-0.9.20000/Co.PBE.gz
    compensation charges: {type: gauss,
                           rc: 0.32,
                           lmax: 2}
    cutoffs: {filter: 1.87,
              core: 2.55}
    valence states:
      #              energy  rcut
      - 4s(2.00)    -5.469   1.005
      - 4p(0.00)    -1.277   1.058
      - 3d(7.00)    -8.205   1.005
      -  s          21.742   1.005
      -  p          25.934   1.058
      -  d          19.007   1.005

[...]

  Al:
    name: Aluminium
    id: 0292cae29f5d6237e50f6abdd43a7bdd
    Z: 13.0
    valence: 3
    core: 10
    charge: 0.0
    file: /home/c.zeng/usr/data/gpaw-setups-0.9.20000/Al.PBE.gz
    compensation charges: {type: gauss,
                           rc: 0.34,
                           lmax: 2}
    cutoffs: {filter: 1.91,
              core: 2.36}
    valence states:
      #              energy  rcut
      - 3s(2.00)    -7.753   1.085
      - 3p(1.00)    -2.712   1.085
      -  s          19.459   1.085
      -  p          24.499   1.085
      -  d           0.000   1.085

[...]

  Cr:
    name: Chromium
    id: 33f258bda2ca9f93018e70263a35547b
    Z: 24.0
    valence: 6
    core: 18
    charge: 0.0
    file: /home/c.zeng/usr/data/gpaw-setups-0.9.20000/Cr.PBE.gz
    compensation charges: {type: gauss,
                           rc: 0.35,
                           lmax: 2}
    cutoffs: {filter: 2.14,
              core: 3.04}
    valence states:
      #              energy  rcut
      - 4s(1.00)    -4.007   1.164
      - 4p(0.00)    -0.989   1.217
      - 3d(5.00)    -2.913   1.111
      -  s          23.205   1.164
      -  p          26.223   1.217
      -  d          24.299   1.111

[...]

  Ni:
    name: Nickel
    id: 0d9f38a9d6e76a2886f07bb4381f212b
    Z: 28.0
    valence: 16
    core: 12
    charge: 0.0
    file: /home/c.zeng/usr/data/gpaw-setups-0.9.20000/Ni.PBE.gz
    compensation charges: {type: gauss,
                           rc: 0.36,
                           lmax: 2}
    cutoffs: {filter: 2.14,
              core: 1.98}
    valence states:
      #              energy  rcut
      - 4s(2.00)    -5.642   1.164
      - 3p(6.00)   -71.394   1.207
      - 4p(0.00)    -1.226   1.207
      - 3d(8.00)    -8.875   1.138
      -  s          21.570   1.164
      -  d          18.337   1.138

    # Using partial waves for Ni as LCAO basis

Reference energy: -3382523.201499  # eV

Spin-polarized calculation.
Magnetic moment: 128.800000

Convergence criteria:
 Maximum [total energy] change in last 3 cyles: 0.0001 eV / electron
 Maximum integral of absolute [dens]ity change: 0.0001 electrons / valence electron
 Maximum integral of absolute [eigenst]ate change: 4e-08 eV^2 / valence electron
 Maximum number of scf [iter]ations: 666
 (Square brackets indicate name in SCF output, whereas a 'c' in
 the SCF output indicates the quantity has converged.)

Symmetries present (total): 1

  ( 1  0  0)
  ( 0  1  0)
  ( 0  0  1)

8 k-points: 2 x 2 x 2 Monkhorst-Pack grid
4 k-points in the irreducible part of the Brillouin zone
       k-points in crystal coordinates                weights
   0:     0.25000000   -0.25000000   -0.25000000          2/8
   1:     0.25000000   -0.25000000    0.25000000          2/8
   2:     0.25000000    0.25000000   -0.25000000          2/8
   3:     0.25000000    0.25000000    0.25000000          2/8

Wave functions: Plane wave expansion
  Cutoff energy: 350.000 eV
  Number of coefficients (min, max): 18865, 18865
  Pulay-stress correction: 0.000000 eV/Ang^3 (de/decut=0.000000)
  Using FFTW library
  ScaLapack parameters: grid=1x1, blocksize=None
  Wavefunction extrapolation:
    Improved wavefunction reuse through dual PAW basis

Occupation numbers: Fermi-Dirac:
  width: 0.1000  # eV

Eigensolver
   Davidson(niter=2)

Densities:
  Coarse grid: 48*48*48 grid
  Fine grid: 96*96*96 grid
  Total Charge: 0.000000

Density mixing:
  Method: difference
  Backend: pulay
  Linear mixing parameter: 0.05
  old densities: 5
  Damping of long wavelength oscillations: 50

Hamiltonian:
  XC and Coulomb potentials evaluated on a 96*96*96 grid
  Using the PBE Exchange-Correlation functional
  External potential:
    NoExternalPotential

XC parameters: PBE with 2 nearest neighbor stencil

Total number of cores used: 30
Parallelization over k-points: 2
Domain decomposition: 5 x 3 x 1

Number of atoms: 108
Number of atomic orbitals: 961
Number of bands in calculation: 649
Number of valence electrons: 945
Bands to converge: occupied

... initialized

Initializing position-dependent things.

Density initialized from atomic densities
Creating initial wave functions:
  649 bands from LCAO basis set

       /|                     Fe   |
      / |            Co Co     CrCo|
     /  |       Cr       Ni       Cr
    /   |Fe       Fel     CFer     |
   /i   | Feo        Co      Co    |
  /  CrAl   NCr       Ni           |
 *      Ni     FeFe   AlFeCrFe   Cr|
 |      |CoNi   CrNiAl   NiAlNi   Fe
 | CrFe | AlNi   AlAlCo     Ni     |
 |     Fe  FeCr Cr  Fe FeNi  CrNi  |
 |      CoNi   AlCr   CoFeFeNi  Co |
 |Al    |CoCr   AlCrCo   CrFe     Co
 |      .-CrCo-----NiCr-CoFeCrNi---.
 |     /   Ni Fe    Cr CoNi    Al /
 |    Fe       AFei       Al     /
 |   /  Co         Al       Cr  /
 |  /      Co       Al       Co/
 | / Co     Co       Ni Ni    /
 |/             Cr       Ni  /
 *--------Fe----------------*

Positions:
   0 Fe    10.764147   10.861293   10.805330    ( 0.0000,  0.0000,  2.0000)
   1 Co    10.786221    1.792513    1.813624    ( 0.0000,  0.0000,  0.0000)
   2 Co     1.744156    0.036560    1.851269    ( 0.0000,  0.0000,  1.5000)
   3 Al     1.736571    1.831142   10.798805    ( 0.0000,  0.0000,  0.0000)
   4 Fe     3.575126    0.057318    0.061759    ( 0.0000,  0.0000,  0.0000)
   5 Co     3.594289    1.817617    1.845577    ( 0.0000,  0.0000,  2.0000)
   6 Co     5.429813   10.817005    1.865054    ( 0.0000,  0.0000,  1.5000)
   7 Cr     5.429608    1.929425    0.057134    ( 0.0000,  0.0000,  0.0000)
   8 Fe     7.316909   10.723332    0.087382    ( 0.0000,  0.0000,  0.0000)
   9 Al     7.263142    1.825786    1.869404    ( 0.0000,  0.0000,  2.1000)
  10 Ni     9.063554    0.025226    1.863474    ( 0.0000,  0.0000,  1.5000)
  11 Ni     9.049217    1.829703    0.033106    ( 0.0000,  0.0000,  2.1000)
  12 Ni     0.004792    3.558981   10.794801    ( 0.0000,  0.0000,  1.5000)
  13 Al    10.759710    5.390697    1.778165    ( 0.0000,  0.0000,  0.0000)
  14 Co     1.733585    3.561849    1.761112    ( 0.0000,  0.0000,  2.0000)
  15 Fe     1.776899    5.391834   10.795505    ( 0.0000,  0.0000,  0.0000)
  16 Co     3.565452    3.619360   10.832619    ( 0.0000,  0.0000,  2.1000)
  17 Fe     3.633221    5.394614    1.719551    ( 0.0000,  0.0000,  0.0000)
  18 Ni     5.471624    3.659114    1.836033    ( 0.0000,  0.0000,  2.1000)
  19 Fe     5.440212    5.373060   -0.002773    ( 0.0000,  0.0000,  2.0000)
  20 Ni     7.258997    3.609080    0.031294    ( 0.0000,  0.0000,  0.0000)
  21 Co     7.268941    5.378362    1.785274    ( 0.0000,  0.0000,  2.0000)
  22 Al     9.030724    3.577636    1.833728    ( 0.0000,  0.0000,  2.1000)
  23 Fe     9.040420    5.372281   10.801110    ( 0.0000,  0.0000,  0.0000)
  24 Co    10.791663    7.196206   10.792486    ( 0.0000,  0.0000,  1.5000)
  25 Co    10.758434    9.040387    1.848239    ( 0.0000,  0.0000,  0.0000)
  26 Cr     1.690487    7.202493    1.786032    ( 0.0000,  0.0000,  0.0000)
  27 Ni     1.652691    8.981047    0.027217    ( 0.0000,  0.0000,  0.0000)
  28 Al     3.631241    7.164437    0.034633    ( 0.0000,  0.0000,  0.0000)
  29 Al     3.625452    9.063759    1.801678    ( 0.0000,  0.0000,  0.0000)
  30 Ni     5.490852    7.187095    1.746342    ( 0.0000,  0.0000,  2.0000)
  31 Cr     5.426935    8.989152    0.009861    ( 0.0000,  0.0000,  2.0000)
  32 Co     7.229122    7.237075   -0.008698    ( 0.0000,  0.0000,  1.5000)
  33 Cr     7.249194    8.995850    1.810713    ( 0.0000,  0.0000,  0.0000)
  34 Cr     9.052073    7.204300    1.764218    ( 0.0000,  0.0000,  2.1000)
  35 Fe     9.092553    8.989639   10.808760    ( 0.0000,  0.0000,  1.5000)
  36 Cr    -0.000975   10.826235    3.639789    ( 0.0000,  0.0000,  1.5000)
  37 Al    10.822772    1.771770    5.422044    ( 0.0000,  0.0000,  2.1000)
  38 Ni     1.754263   10.802084    5.428872    ( 0.0000,  0.0000,  2.1000)
  39 Fe     1.741873    1.774270    3.610801    ( 0.0000,  0.0000,  0.0000)
  40 Al     3.591183   10.794152    3.612143    ( 0.0000,  0.0000,  2.0000)
  41 Cr     3.593088    1.736744    5.455177    ( 0.0000,  0.0000,  0.0000)
  42 Al     5.437150   10.794563    5.400804    ( 0.0000,  0.0000,  2.0000)
  43 Fe     5.451931    1.783251    3.601387    ( 0.0000,  0.0000,  1.5000)
  44 Al     7.226222    0.007781    3.626209    ( 0.0000,  0.0000,  0.0000)
  45 Co     7.236069    1.766512    5.381392    ( 0.0000,  0.0000,  2.1000)
  46 Co     9.034587   10.848850    5.403844    ( 0.0000,  0.0000,  2.1000)
  47 Ni     9.031558    1.804946    3.616730    ( 0.0000,  0.0000,  1.5000)
  48 Ni    10.773885    3.543973    3.617867    ( 0.0000,  0.0000,  1.5000)
  49 Ni    10.772186    5.358409    5.454917    ( 0.0000,  0.0000,  0.0000)
  50 Co     1.757531    3.575678    5.428937    ( 0.0000,  0.0000,  2.1000)
  51 Co     1.621766    5.386986    3.572550    ( 0.0000,  0.0000,  0.0000)
  52 Co     3.634303    3.633188    3.540792    ( 0.0000,  0.0000,  0.0000)
  53 Cr     3.550606    5.397969    5.404753    ( 0.0000,  0.0000,  2.0000)
  54 Cr     5.402221    3.610887    5.370193    ( 0.0000,  0.0000,  2.0000)
  55 Cr     5.460241    5.433590    3.575613    ( 0.0000,  0.0000,  2.0000)
  56 Cr     7.250157    3.615183    3.623169    ( 0.0000,  0.0000,  1.5000)
  57 Fe     7.248707    5.410715    5.362099    ( 0.0000,  0.0000,  1.5000)
  58 Fe     9.058230    3.565236    5.380082    ( 0.0000,  0.0000,  2.1000)
  59 Fe     9.074071    5.365323    3.589008    ( 0.0000,  0.0000,  2.1000)
[...]
  93 Ni     7.211073    5.388295    9.040181    ( 0.0000,  0.0000,  0.0000)
  94 Cr     9.095052    3.598119    8.980636    ( 0.0000,  0.0000,  2.0000)
  95 Al     9.078205    5.402416    7.227759    ( 0.0000,  0.0000,  0.0000)
  96 Cr    10.763411    7.244682    7.260285    ( 0.0000,  0.0000,  1.5000)
  97 Cr    10.795093    9.034566    8.977574    ( 0.0000,  0.0000,  2.0000)
  98 Fe     1.740045    7.178947    8.984662    ( 0.0000,  0.0000,  2.1000)
  99 Co     1.734429    9.080207    7.236696    ( 0.0000,  0.0000,  1.5000)
 100 Fe     3.580482    7.154277    7.248285    ( 0.0000,  0.0000,  0.0000)
 101 Cr     3.612835    8.970898    8.958086    ( 0.0000,  0.0000,  0.0000)
 102 Al     5.410943    7.155878    9.067049    ( 0.0000,  0.0000,  0.0000)
 103 Co     5.466441    9.064062    7.220963    ( 0.0000,  0.0000,  2.1000)
 104 Fe     7.307203    7.271549    7.289738    ( 0.0000,  0.0000,  0.0000)
 105 Ni     7.271073    9.044683    9.027879    ( 0.0000,  0.0000,  1.5000)
 106 Cr     9.081743    7.219805    9.041166    ( 0.0000,  0.0000,  2.1000)
 107 Co     9.063684    9.083009    7.213865    ( 0.0000,  0.0000,  2.0000)

Unit cell:
           periodic     x           y           z      points  spacing
  1. axis:    yes   10.820500    0.000000    0.000000    48     0.2254
  2. axis:    yes    0.000000   10.820500    0.000000    48     0.2254
  3. axis:    yes    0.000000    0.000000   10.820500    48     0.2254

  Lengths:  10.820500  10.820500  10.820500
  Angles:   90.000000  90.000000  90.000000

Effective grid spacing dv^(1/3) = 0.2254

     iter     time        total  log10-change:  magmom
                         energy  eigst   dens
iter:   1 21:42:30  -895.353369                  +128.4417
iter:   2 21:43:50  -867.216156  -0.39  -1.31    +95.5328
iter:   3 21:45:09  -844.009219  -0.94  -1.28    +66.7500
iter:   4 21:46:29  -832.498469  -1.27  -1.37    +56.2696
iter:   5 21:47:48  -826.032648  -1.84  -1.41    +51.4997
iter:   6 21:49:08  -827.200475  -1.99  -1.47    +49.1016
iter:   7 21:50:27  -826.910057  -1.71  -1.49    +47.6070
iter:   8 21:51:47  -826.225423  -1.73  -1.53    +47.0237
iter:   9 21:53:07  -828.333026  -1.78  -1.62    +47.4152
iter:  10 21:54:26  -823.441701  -1.98  -1.66    +46.8325
iter:  11 21:55:46  -825.181088  -2.18  -1.79    +47.3594
iter:  12 21:57:05  -822.662361  -2.36  -1.78    +47.7634
iter:  13 21:58:25  -823.244894  -2.54  -1.87    +48.6950
iter:  14 21:59:45  -823.295331  -2.54  -1.89    +49.5713
iter:  15 22:01:04  -824.338671  -2.51  -1.92    +50.2560
iter:  16 22:02:24  -823.524390  -2.54  -1.89    +51.9569
iter:  17 22:03:43  -824.208516  -2.65  -1.97    +52.7580
iter:  18 22:05:03  -823.962861  -2.67  -1.97    +53.4857
iter:  19 22:06:23  -824.152888  -2.79  -2.04    +54.3512
iter:  20 22:07:42  -824.017703  -2.93  -2.04    +55.3861
iter:  21 22:09:02  -824.518970  -2.97  -2.09    +56.1432
iter:  22 22:10:21  -824.452956  -3.02  -2.09    +56.4188
iter:  23 22:11:41  -824.622312  -3.11  -2.12    +57.3456
iter:  24 22:13:01  -824.823898  -3.07  -2.15    +57.9055
iter:  25 22:14:21  -825.053118  -3.10  -2.16    +58.2702
iter:  26 22:15:40  -825.090834  -3.08  -2.17    +58.3132
iter:  27 22:17:00  -825.486588  -2.99  -2.24    +58.5403
iter:  28 22:18:19  -825.534520  -2.93  -2.17    +58.9762
iter:  29 22:19:38  -825.506198c -3.05  -2.22    +58.7355
iter:  30 22:20:58  -825.354424  -3.15  -2.25    +58.7756
iter:  31 22:22:17  -825.337510  -3.30  -2.32    +58.7179
iter:  32 22:23:37  -825.237658  -3.64  -2.33    +58.9443
iter:  33 22:24:56  -825.336425  -3.65  -2.40    +58.8483
iter:  34 22:26:15  -825.322946  -3.88  -2.39    +58.7992
iter:  35 22:27:35  -825.433251  -3.64  -2.43    +58.9107
iter:  36 22:28:55  -825.520110  -3.57  -2.41    +58.8256
iter:  37 22:30:14  -825.677851  -3.34  -2.44    +58.7423
iter:  38 22:31:34  -825.579862  -3.45  -2.44    +58.3271
iter:  39 22:32:53  -825.690634  -3.33  -2.52    +58.2343
iter:  40 22:34:13  -825.607846  -3.57  -2.44    +58.3420
iter:  41 22:35:32  -825.563204  -3.69  -2.55    +58.0346
iter:  42 22:36:51  -825.507641  -4.07  -2.60    +57.9483
iter:  43 22:38:11  -825.527661c -4.50  -2.67    +57.7592
iter:  44 22:39:30  -825.561301c -4.27  -2.72    +57.6765
iter:  45 22:40:50  -825.618306c -4.07  -2.71    +57.4859
iter:  46 22:42:09  -825.627502c -4.04  -2.69    +57.2883
iter:  47 22:43:28  -825.690282c -3.75  -2.77    +57.2301
iter:  48 22:44:48  -825.699909c -3.78  -2.71    +57.0714
iter:  49 22:46:07  -825.622616c -4.09  -2.76    +56.9404
iter:  50 22:47:26  -825.642247c -4.21  -3.01    +56.6946
iter:  51 22:48:46  -825.628247c -4.57  -2.95    +56.6932
iter:  52 22:50:05  -825.633243c -4.87  -3.06    +56.6328
iter:  53 22:51:24  -825.642380c -5.12  -3.15    +56.5527
iter:  54 22:52:44  -825.683407c -4.10  -3.15    +56.2501
iter:  55 22:54:03  -825.714759c -4.03  -3.04    +56.0927
iter:  56 22:55:23  -825.716828c -4.38  -2.98    +56.1122
iter:  57 22:56:42  -825.712321c -4.64  -3.07    +56.1534
iter:  58 22:58:02  -825.712289c -4.87  -3.14    +56.1576
iter:  59 22:59:21  -825.714674c -4.59  -3.16    +56.1586
iter:  60 23:00:41  -825.701127c -4.71  -3.15    +56.1143
iter:  61 23:02:00  -825.702465c -5.38  -3.36    +56.0667
iter:  62 23:03:20  -825.702744c -5.45  -3.43    +56.0550
iter:  63 23:04:39  -825.704003c -5.46  -3.44    +56.0602
iter:  64 23:05:59  -825.705857c -5.45  -3.49    +56.0797
iter:  65 23:07:18  -825.704754c -5.49  -3.46    +56.0819
iter:  66 23:08:38  -825.704561c -5.50  -3.54    +56.0948
iter:  67 23:09:57  -825.704673c -5.77  -3.65    +56.1028
iter:  68 23:11:17  -825.705476c -5.79  -3.80    +56.1329
iter:  69 23:12:36  -825.704557c -6.20  -3.75    +56.1350
iter:  70 23:13:56  -825.704816c -6.33  -3.90    +56.1452
iter:  71 23:15:16  -825.705222c -6.23  -3.94    +56.1727
iter:  72 23:16:35  -825.705091c -6.40  -3.96    +56.1790
iter:  73 23:17:55  -825.705062c -6.54  -3.96    +56.1934
iter:  74 23:19:15  -825.705293c -6.44  -4.04c   +56.2028
iter:  75 23:20:34  -825.705558c -6.43  -4.11c   +56.2245
iter:  76 23:21:54  -825.705354c -6.69  -4.08c   +56.2263
iter:  77 23:23:14  -825.705500c -6.70  -4.18c   +56.2328
iter:  78 23:24:34  -825.705725c -6.70  -4.28c   +56.2469
iter:  79 23:25:54  -825.705646c -7.08  -4.26c   +56.2501
iter:  80 23:27:14  -825.705710c -6.98  -4.33c   +56.2607
iter:  81 23:28:34  -825.705845c -7.06  -4.33c   +56.2661
iter:  82 23:29:54  -825.706007c -6.97  -4.38c   +56.2799
iter:  83 23:31:14  -825.706076c -6.97  -4.37c   +56.2923
iter:  84 23:32:34  -825.706165c -7.15  -4.37c   +56.2986
iter:  85 23:33:54  -825.706444c -6.43  -4.41c   +56.3216
iter:  86 23:35:14  -825.706686c -6.25  -4.36c   +56.3525
iter:  87 23:36:34  -825.706869c -6.35  -4.28c   +56.3756
iter:  88 23:37:54  -825.707114c -6.10  -4.20c   +56.4119
iter:  89 23:39:13  -825.707212c -7.03  -4.12c   +56.4122
iter:  90 23:40:33  -825.707248c -7.06  -4.10c   +56.4175
iter:  91 23:41:53  -825.707192c -7.22  -4.03c   +56.4185
iter:  92 23:43:13  -825.707604c -6.53  -4.09c   +56.4244
iter:  93 23:44:33  -825.707444c -6.10  -3.94    +56.4250
iter:  94 23:45:53  -825.707058c -6.19  -3.90    +56.4296
iter:  95 23:47:13  -825.707095c -6.56  -3.96    +56.4154
iter:  96 23:48:32  -825.706849c -6.75  -4.17c   +56.4094
iter:  97 23:49:52  -825.706863c -7.23  -4.16c   +56.4076
iter:  98 23:51:12  -825.706957c -7.17  -4.18c   +56.4067
iter:  99 23:52:33  -825.706869c -6.77  -4.25c   +56.4041
iter: 100 23:53:53  -825.707165c -6.55  -4.14c   +56.4044
iter: 101 23:55:13  -825.706847c -6.92  -4.12c   +56.4090
iter: 102 23:56:35  -825.707098c -6.75  -4.38c   +56.4073
iter: 103 23:57:56  -825.706953c -6.94  -4.23c   +56.4063
iter: 104 23:59:19  -825.706782c -7.28  -4.34c   +56.4039
iter: 105 00:00:41  -825.706856c -7.59c -4.49c   +56.4049

Converged after 105 iterations.

Dipole moment: (29.259364, -3.441453, -9.824379) |e|*Ang

Total magnetic moment: (0.000000, 0.000000, 56.404939)
Local magnetic moments:
   0 Fe ( 0.000000,  0.000000,  2.199086)
   1 Co ( 0.000000,  0.000000,  1.369095)
   2 Co ( 0.000000,  0.000000,  1.290710)
   3 Al ( 0.000000,  0.000000, -0.043476)
   4 Fe ( 0.000000,  0.000000,  2.444143)
   5 Co ( 0.000000,  0.000000,  1.442109)
   6 Co ( 0.000000,  0.000000,  0.867554)
   7 Cr ( 0.000000,  0.000000, -2.415769)
   8 Fe ( 0.000000,  0.000000,  2.225081)
   9 Al ( 0.000000,  0.000000, -0.010341)
  10 Ni ( 0.000000,  0.000000,  0.180672)
  11 Ni ( 0.000000,  0.000000,  0.114277)
  12 Ni ( 0.000000,  0.000000,  0.203491)
  13 Al ( 0.000000,  0.000000, -0.028757)
  14 Co ( 0.000000,  0.000000,  1.325848)
  15 Fe ( 0.000000,  0.000000,  2.049518)
  16 Co ( 0.000000,  0.000000,  1.295561)
  17 Fe ( 0.000000,  0.000000,  2.225842)
  18 Ni ( 0.000000,  0.000000,  0.258398)
  19 Fe ( 0.000000,  0.000000,  2.214502)
  20 Ni ( 0.000000,  0.000000,  0.085403)
  21 Co ( 0.000000,  0.000000,  1.190505)
  22 Al ( 0.000000,  0.000000, -0.023975)
  23 Fe ( 0.000000,  0.000000,  2.104001)
  24 Co ( 0.000000,  0.000000,  0.476320)
  25 Co ( 0.000000,  0.000000,  0.979038)
  26 Cr ( 0.000000,  0.000000, -1.918259)
  27 Ni ( 0.000000,  0.000000,  0.091700)
  28 Al ( 0.000000,  0.000000, -0.020335)
  29 Al ( 0.000000,  0.000000, -0.021400)
  30 Ni ( 0.000000,  0.000000,  0.305368)
  31 Cr ( 0.000000,  0.000000,  1.714429)
  32 Co ( 0.000000,  0.000000,  0.934257)
  33 Cr ( 0.000000,  0.000000, -1.501255)
  34 Cr ( 0.000000,  0.000000, -1.695928)
  35 Fe ( 0.000000,  0.000000,  1.910757)
  36 Cr ( 0.000000,  0.000000, -1.564526)
  37 Al ( 0.000000,  0.000000, -0.027221)
  38 Ni ( 0.000000,  0.000000,  0.124720)
  39 Fe ( 0.000000,  0.000000,  2.298750)
  40 Al ( 0.000000,  0.000000, -0.032110)
  41 Cr ( 0.000000,  0.000000, -2.040477)
  42 Al ( 0.000000,  0.000000, -0.026952)
  43 Fe ( 0.000000,  0.000000,  1.939223)
  44 Al ( 0.000000,  0.000000, -0.022540)
  45 Co ( 0.000000,  0.000000,  0.763560)
  46 Co ( 0.000000,  0.000000,  0.909629)
  47 Ni ( 0.000000,  0.000000,  0.159920)
  48 Ni ( 0.000000,  0.000000,  0.395051)
  49 Ni ( 0.000000,  0.000000,  0.298031)
  50 Co ( 0.000000,  0.000000,  1.085809)
  51 Co ( 0.000000,  0.000000,  1.244200)
  52 Co ( 0.000000,  0.000000,  1.218875)
  53 Cr ( 0.000000,  0.000000,  1.312722)
  54 Cr ( 0.000000,  0.000000, -1.394382)
  55 Cr ( 0.000000,  0.000000,  0.149707)
  56 Cr ( 0.000000,  0.000000, -1.262061)
  57 Fe ( 0.000000,  0.000000,  2.149746)
  58 Fe ( 0.000000,  0.000000,  2.223190)
  59 Fe ( 0.000000,  0.000000,  2.153327)
[...]
  93 Ni ( 0.000000,  0.000000,  0.276456)
  94 Cr ( 0.000000,  0.000000,  1.502505)
  95 Al ( 0.000000,  0.000000, -0.015642)
  96 Cr ( 0.000000,  0.000000,  0.765061)
  97 Cr ( 0.000000,  0.000000, -0.532450)
  98 Fe ( 0.000000,  0.000000,  1.749884)
  99 Co ( 0.000000,  0.000000,  0.700487)
 100 Fe ( 0.000000,  0.000000, -1.715882)
 101 Cr ( 0.000000,  0.000000, -2.068417)
 102 Al ( 0.000000,  0.000000, -0.005129)
 103 Co ( 0.000000,  0.000000,  1.090750)
 104 Fe ( 0.000000,  0.000000,  2.472257)
 105 Ni ( 0.000000,  0.000000,  0.236913)
 106 Cr ( 0.000000,  0.000000, -1.407571)
 107 Co ( 0.000000,  0.000000,  0.906678)

Energy contributions relative to reference atoms: (reference = -3382523.201499)

Kinetic:       +218.257201
Potential:     -227.019434
External:        +0.000000
XC:            -848.125037
Entropy (-ST):   -4.239079
Local:          +33.299954
Free energy:   -827.826395
Extrapolated:  -825.706856

Spin contamination: 30.480888 electrons
Showing only first 2 kpts
                      Up                     Down
 Kpt  Band  Eigenvalues  Occupancy  Eigenvalues  Occupancy
  0   470      9.16102    0.99465     10.03143    0.02991
  0   471      9.18197    0.99341     10.03845    0.02794
  0   472      9.18950    0.99290     10.06292    0.02201
  0   473      9.20130    0.99201     10.07594    0.01937

  1   470      9.16685    0.99433     10.02913    0.03058
  1   471      9.18030    0.99352     10.05730    0.02325
  1   472      9.19382    0.99259     10.05984    0.02268
  1   473      9.19841    0.99224     10.07633    0.01930

Fermi level: 9.68351

No gap

Forces in eV/Ang:
  0 Fe    0.08068   -0.47814    0.39665
  1 Co    0.50283   -0.24483    0.12805
  2 Co    0.04497   -0.17460   -0.46944
  3 Al    0.34620    0.07916    0.12774
  4 Fe    0.34913    0.02033   -0.55047
  5 Co    0.08471    0.49050   -0.16069
  6 Co    0.20874    0.23361   -0.63787
  7 Cr   -1.05284   -0.93903   -0.75304
  8 Fe   -0.54595    0.56588   -0.44212
  9 Al   -0.32920   -0.59835   -1.24592
 10 Ni   -0.19402   -0.15573   -0.37498
 11 Ni   -0.27970   -0.28985   -0.38620
 12 Ni   -0.33421    0.51229    0.11196
 13 Al    1.15435   -0.26257   -0.07136
 14 Co    0.53251    0.23590    0.73745
 15 Fe   -0.20282   -0.15701   -0.02407
 16 Co    0.41781   -0.00045    0.42808
 17 Fe   -0.56994   -0.84247    1.00512
 18 Ni   -0.47240   -0.20169    0.01880
 19 Fe    0.40910   -0.50528    0.38073
 20 Ni   -0.09071   -0.02694   -0.36261
 21 Co   -0.12179    0.48975    0.13672
 22 Al    0.43661   -0.21820   -0.65857
 23 Fe   -0.44250    0.84804   -0.45653
 24 Co    0.33954   -0.00419   -0.05572
 25 Co    0.35139   -0.20453   -0.19990
 26 Cr   -0.67891    0.21203    0.13162
 27 Ni    0.72551    0.39502   -0.18481
 28 Al   -0.89995    0.32652    0.10806
 29 Al   -0.50751    0.50297   -0.94166
 30 Ni   -0.16960    0.02053    0.37295
 31 Cr    0.69299    1.09127   -0.47135
 32 Co    0.41594   -0.22436    0.21109
 33 Cr   -0.04602    0.08157   -0.50145
 34 Cr   -0.41550    0.27553   -0.09798
 35 Fe   -0.18459   -0.23097    0.22247
 36 Cr   -0.01754   -0.70518   -0.96934
 37 Al   -0.12414   -0.03113   -0.06773
 38 Ni    0.35031   -0.00281    0.16884
 39 Fe    0.50429    0.61853   -0.39601
 40 Al   -0.49242    0.87589   -0.58543
 41 Cr   -0.56966    1.41541    0.10942
 42 Al    0.42756   -0.20184    1.10311
 43 Fe   -0.74404    0.85033    0.12513
 44 Al    0.88911   -0.12887    0.06273
 45 Co    0.05925    0.51209    0.44311
 46 Co   -0.26552   -0.40991    0.08516
 47 Ni   -0.06166   -0.19300    0.02563
 48 Ni    0.61369    0.41930   -0.08517
 49 Ni    0.42297    0.25121   -0.39602
 50 Co    0.54773    0.27372   -0.31166
 51 Co    1.08577   -0.19031    0.22603
 52 Co   -0.29438    0.03032    0.24177
 53 Cr   -0.11062   -0.96016   -0.25206
 54 Cr    0.06060    0.32945    0.22173
 55 Cr    0.11234   -0.70415   -0.11797
 56 Cr   -0.90877    0.66496    1.10492
 57 Fe   -0.08224    0.04559    0.19491
 58 Fe   -0.79364    0.04014    0.30327
 59 Fe   -0.47186    0.73520    0.62412
[...]
 93 Ni    0.36814   -0.13338   -0.24408
 94 Cr    0.20423    0.21804    0.41182
 95 Al   -1.35684   -0.05903   -0.78075
 96 Cr   -0.09146    0.32970    0.77747
 97 Cr    0.45851   -0.06991    0.23016
 98 Fe    0.06647    0.33282   -0.21627
 99 Co    0.23992   -0.27385    0.32384
100 Fe   -0.45263    0.39889   -0.34189
101 Cr   -0.31547    1.05156    0.26899
102 Al    1.17809    0.19297   -1.39362
103 Co   -0.12556   -0.31057    0.42035
104 Fe   -0.02618    0.02768   -0.57103
105 Ni   -0.07284    0.21301   -0.04337
106 Cr   -0.84146    0.47832    0.25238
107 Co   -0.31615   -0.11703   -0.02517

Date: Sat Apr 15 00:00:58 2023