User:   c.zeng@d0127
Date:   Thu Apr 13 20:07:06 2023
Arch:   x86_64
Pid:    132005
CWD:    /home/c.zeng/projects/hea-corrosion/hea-mlp/data-curation/bulk-md/dft-jobs/33
Python: 3.8.1
gpaw:   /home/c.zeng/usr/installs/gpaw/source/gpaw-22.8.0/gpaw
_gpaw:  /home/c.zeng/usr/installs/gpaw/source/gpaw-22.8.0/
        _gpaw.cpython-38-x86_64-linux-gnu.so
ase:    /home/c.zeng/.local/lib/python3.8/site-packages/ase-3.22.1-py3.8.egg/ase (version 3.22.1)
numpy:  /shared/centos7/python/3.8.1/lib/python3.8/site-packages/numpy (version 1.17.4)
scipy:  /shared/centos7/python/3.8.1/lib/python3.8/site-packages/scipy (version 1.4.1)
units:  Angstrom and eV
cores: 30
OpenMP: False
OMP_NUM_THREADS: 1

Input parameters:
  convergence: {energy: 0.0001}
  kpts: [2 2 2]
  maxiter: 666
  mode: {ecut: 350.0,
         name: pw}
  occupations: {fixmagmom: False,
                name: fermi-dirac,
                width: 0.1}
  spinpol: True
  xc: PBE

System changes: positions, numbers, cell, pbc, initial_charges, initial_magmoms

Initialize ...

species:
  Cr:
    name: Chromium
    id: 33f258bda2ca9f93018e70263a35547b
    Z: 24.0
    valence: 6
    core: 18
    charge: 0.0
    file: /home/c.zeng/usr/data/gpaw-setups-0.9.20000/Cr.PBE.gz
    compensation charges: {type: gauss,
                           rc: 0.35,
                           lmax: 2}
    cutoffs: {filter: 2.14,
              core: 3.04}
    valence states:
      #              energy  rcut
      - 4s(1.00)    -4.007   1.164
      - 4p(0.00)    -0.989   1.217
      - 3d(5.00)    -2.913   1.111
      -  s          23.205   1.164
      -  p          26.223   1.217
      -  d          24.299   1.111

    # Using partial waves for Cr as LCAO basis

  Al:
    name: Aluminium
    id: 0292cae29f5d6237e50f6abdd43a7bdd
    Z: 13.0
    valence: 3
    core: 10
    charge: 0.0
    file: /home/c.zeng/usr/data/gpaw-setups-0.9.20000/Al.PBE.gz
    compensation charges: {type: gauss,
                           rc: 0.34,
                           lmax: 2}
    cutoffs: {filter: 1.91,
              core: 2.36}
    valence states:
      #              energy  rcut
      - 3s(2.00)    -7.753   1.085
      - 3p(1.00)    -2.712   1.085
      -  s          19.459   1.085
      -  p          24.499   1.085
      -  d           0.000   1.085

[...]

  Co:
    name: Cobalt
    id: 339d20d5b0b93d2de9531a1bee871d91
    Z: 27.0
    valence: 9
    core: 18
    charge: 0.0
    file: /home/c.zeng/usr/data/gpaw-setups-0.9.20000/Co.PBE.gz
    compensation charges: {type: gauss,
                           rc: 0.32,
                           lmax: 2}
    cutoffs: {filter: 1.87,
              core: 2.55}
    valence states:
      #              energy  rcut
      - 4s(2.00)    -5.469   1.005
      - 4p(0.00)    -1.277   1.058
      - 3d(7.00)    -8.205   1.005
      -  s          21.742   1.005
      -  p          25.934   1.058
      -  d          19.007   1.005

[...]

  Fe:
    name: Iron
    id: 37abbd8d6c3c35915a9b583b742da910
    Z: 26.0
    valence: 8
    core: 18
    charge: 0.0
    file: /home/c.zeng/usr/data/gpaw-setups-0.9.20000/Fe.PBE.gz
    compensation charges: {type: gauss,
                           rc: 0.33,
                           lmax: 2}
    cutoffs: {filter: 2.06,
              core: 2.67}
    valence states:
      #              energy  rcut
      - 4s(2.00)    -5.291   1.164
      - 4p(0.00)    -1.326   1.058
      - 3d(6.00)    -7.505   1.058
      -  s          21.920   1.164
      -  p          25.885   1.058
      -  d          19.706   1.058

[...]

  Ni:
    name: Nickel
    id: 0d9f38a9d6e76a2886f07bb4381f212b
    Z: 28.0
    valence: 16
    core: 12
    charge: 0.0
    file: /home/c.zeng/usr/data/gpaw-setups-0.9.20000/Ni.PBE.gz
    compensation charges: {type: gauss,
                           rc: 0.36,
                           lmax: 2}
    cutoffs: {filter: 2.14,
              core: 1.98}
    valence states:
      #              energy  rcut
      - 4s(2.00)    -5.642   1.164
      - 3p(6.00)   -71.394   1.207
      - 4p(0.00)    -1.226   1.207
      - 3d(8.00)    -8.875   1.138
      -  s          21.570   1.164
      -  d          18.337   1.138

    # Using partial waves for Ni as LCAO basis

Reference energy: -3699400.456887  # eV

Spin-polarized calculation.
Magnetic moment: 143.500000

Convergence criteria:
 Maximum [total energy] change in last 3 cyles: 0.0001 eV / electron
 Maximum integral of absolute [dens]ity change: 0.0001 electrons / valence electron
 Maximum integral of absolute [eigenst]ate change: 4e-08 eV^2 / valence electron
 Maximum number of scf [iter]ations: 666
 (Square brackets indicate name in SCF output, whereas a 'c' in
 the SCF output indicates the quantity has converged.)

Symmetries present (total): 1

  ( 1  0  0)
  ( 0  1  0)
  ( 0  0  1)

8 k-points: 2 x 2 x 2 Monkhorst-Pack grid
4 k-points in the irreducible part of the Brillouin zone
       k-points in crystal coordinates                weights
   0:     0.25000000   -0.25000000   -0.25000000          2/8
   1:     0.25000000   -0.25000000    0.25000000          2/8
   2:     0.25000000    0.25000000   -0.25000000          2/8
   3:     0.25000000    0.25000000    0.25000000          2/8

Wave functions: Plane wave expansion
  Cutoff energy: 350.000 eV
  Number of coefficients (min, max): 18052, 18052
  Pulay-stress correction: 0.000000 eV/Ang^3 (de/decut=0.000000)
  Using FFTW library
  ScaLapack parameters: grid=1x1, blocksize=None
  Wavefunction extrapolation:
    Improved wavefunction reuse through dual PAW basis

Occupation numbers: Fermi-Dirac:
  width: 0.1000  # eV

Eigensolver
   Davidson(niter=2)

Densities:
  Coarse grid: 48*48*48 grid
  Fine grid: 96*96*96 grid
  Total Charge: 0.000000

Density mixing:
  Method: difference
  Backend: pulay
  Linear mixing parameter: 0.05
  old densities: 5
  Damping of long wavelength oscillations: 50

Hamiltonian:
  XC and Coulomb potentials evaluated on a 96*96*96 grid
  Using the PBE Exchange-Correlation functional
  External potential:
    NoExternalPotential

XC parameters: PBE with 2 nearest neighbor stencil

Total number of cores used: 30
Parallelization over k-points: 2
Domain decomposition: 5 x 3 x 1

Number of atoms: 108
Number of atomic orbitals: 1025
Number of bands in calculation: 703
Number of valence electrons: 1020
Bands to converge: occupied

... initialized

Initializing position-dependent things.

Density initialized from atomic densities
Creating initial wave functions:
  703 bands from LCAO basis set

        Cr-------Fe---------------.
       /|  Ni               Cr    |
      / |     Co                  |
     /Cr|             AlFe       Ni
    /   |      Cr Cr              |
   /Co  | Ni               Cri    |
  /     |  FeCo     CrNi Fe  FeNi |
 *     Co     Ni Ni    CoCo    Fe |
 |      Co Cr  Co NCo     CrFe  Ni|
 |    Fe| FeCAl  CNiNi Co  NiNi   Fe
 |     Cr  NiCo Co  FeFCr   FeFe  |
 |    CrNiCrCrCoFeCr NiNiNi  Ni   |
 |      Ni Ni  CoCr     CrFCr    Ni
 |   Cr .-FeCr----CCoCo--CrCCoe---.
 |   Co/     FNil   CrNi         /
 |    Fee               NiCo    /
 |   /   FeCr   CrFe      Cr   /
 |Al/               Co        /
 | /        Fe Fe    Fe      /
 |/    Co                   /

Positions:
   0 Cr     0.005246   -0.088725   10.598244    ( 0.0000,  0.0000,  0.0000)
   1 Al    10.738383    1.714619    1.724330    ( 0.0000,  0.0000,  0.0000)
   2 Cr     1.815948   10.468844    1.786177    ( 0.0000,  0.0000,  0.0000)
   3 Co     1.965168    1.855205   10.745402    ( 0.0000,  0.0000,  2.1000)
   4 Fe     3.558999   -0.208143   -0.038557    ( 0.0000,  0.0000,  2.0000)
   5 Cr     3.460019    1.918883    1.971843    ( 0.0000,  0.0000,  0.0000)
   6 Ni     5.366756   10.474479    1.746352    ( 0.0000,  0.0000,  1.5000)
   7 Fe     5.177204    1.736795    0.368427    ( 0.0000,  0.0000,  2.0000)
   8 Cr     6.967686   -0.212194    0.215114    ( 0.0000,  0.0000,  0.0000)
   9 Co     7.285855    1.636307    1.827447    ( 0.0000,  0.0000,  2.1000)
  10 Ni     8.829213   10.476861    1.797732    ( 0.0000,  0.0000,  1.5000)
  11 Fe     9.213152    1.770727   10.652674    ( 0.0000,  0.0000,  2.0000)
  12 Co     0.247122    3.851928   10.632834    ( 0.0000,  0.0000,  2.1000)
  13 Co     0.171514    5.456281    1.939796    ( 0.0000,  0.0000,  2.1000)
  14 Fe     1.650737    3.627638    1.969761    ( 0.0000,  0.0000,  2.0000)
  15 Fe     1.789600    5.487108    0.020944    ( 0.0000,  0.0000,  2.0000)
  16 Fe     3.404936    3.535663    0.134802    ( 0.0000,  0.0000,  2.0000)
  17 Fe     3.477361    5.645117    1.741990    ( 0.0000,  0.0000,  2.0000)
  18 Cr     5.266524    3.589703    1.631806    ( 0.0000,  0.0000,  0.0000)
  19 Co     5.173347    5.262503    0.063428    ( 0.0000,  0.0000,  2.1000)
  20 Fe     7.199691    3.499712   10.822264    ( 0.0000,  0.0000,  2.0000)
  21 Ni     7.039572    5.567972    1.832942    ( 0.0000,  0.0000,  1.5000)
  22 Co     9.110881    3.618470    1.757020    ( 0.0000,  0.0000,  2.1000)
  23 Cr     8.650446    5.675635    0.071424    ( 0.0000,  0.0000,  0.0000)
  24 Cr     0.184915    7.120857   -0.196576    ( 0.0000,  0.0000,  0.0000)
  25 Ni    -0.054708    8.851820    1.633231    ( 0.0000,  0.0000,  1.5000)
  26 Fe     1.622448    7.347036    1.733073    ( 0.0000,  0.0000,  2.0000)
  27 Ni     1.835489    8.798970   10.531343    ( 0.0000,  0.0000,  1.5000)
  28 Co     3.531169    7.263017   -0.055316    ( 0.0000,  0.0000,  2.1000)
  29 Co     3.593291    8.657197    1.800379    ( 0.0000,  0.0000,  2.1000)
  30 Co     5.278573    7.014693    2.009631    ( 0.0000,  0.0000,  2.1000)
  31 Cr     5.367716    8.578892    0.175073    ( 0.0000,  0.0000,  0.0000)
  32 Al     6.905797    7.116526   10.398186    ( 0.0000,  0.0000,  0.0000)
  33 Cr     6.981377    8.614099    1.797526    ( 0.0000,  0.0000,  0.0000)
  34 Cr     8.809732    7.026217    1.709176    ( 0.0000,  0.0000,  0.0000)
  35 Cr     8.821346    8.769849   10.488251    ( 0.0000,  0.0000,  0.0000)
  36 Fe    10.541367   10.560982    3.650956    ( 0.0000,  0.0000,  2.0000)
  37 Co    10.559910    1.749484    5.201289    ( 0.0000,  0.0000,  2.1000)
  38 Cr     1.683420   10.681778    5.419914    ( 0.0000,  0.0000,  0.0000)
  39 Fe     1.680598    1.834325    3.496304    ( 0.0000,  0.0000,  2.0000)
  40 Co     3.602529   10.585230    3.513408    ( 0.0000,  0.0000,  2.1000)
  41 Ni     3.608581    1.880532    5.293160    ( 0.0000,  0.0000,  1.5000)
  42 Ni     5.506581    0.011638    5.262520    ( 0.0000,  0.0000,  1.5000)
  43 Al     5.290102    2.194122    3.356442    ( 0.0000,  0.0000,  0.0000)
  44 Fe     6.909754   10.887334    3.480200    ( 0.0000,  0.0000,  2.0000)
  45 Co     7.036817    2.019151    5.045785    ( 0.0000,  0.0000,  2.1000)
  46 Fe     8.700597   10.597661    5.407998    ( 0.0000,  0.0000,  2.0000)
  47 Ni     8.983082    1.651676    3.476582    ( 0.0000,  0.0000,  1.5000)
  48 Fe    -0.026270    3.491557    3.555823    ( 0.0000,  0.0000,  2.0000)
  49 Fe    10.600323    5.094601    5.356268    ( 0.0000,  0.0000,  2.0000)
  50 Ni     2.102518    3.533052    5.235957    ( 0.0000,  0.0000,  1.5000)
  51 Ni     1.648469    5.240733    3.666184    ( 0.0000,  0.0000,  1.5000)
  52 Cr     3.403649    3.776287    3.461386    ( 0.0000,  0.0000,  0.0000)
  53 Co     3.529794    5.210499    5.704370    ( 0.0000,  0.0000,  2.1000)
  54 Fe     5.291925    3.464029    5.331566    ( 0.0000,  0.0000,  2.0000)
  55 Cr     5.196974    5.419336    3.580100    ( 0.0000,  0.0000,  0.0000)
  56 Co     7.290458    3.828068    3.402301    ( 0.0000,  0.0000,  2.1000)
  57 Fe     7.134703    5.301387    5.263089    ( 0.0000,  0.0000,  2.0000)
  58 Ni     8.866328    3.394964    5.402341    ( 0.0000,  0.0000,  1.5000)
  59 Fe     8.917623    5.474986    3.372935    ( 0.0000,  0.0000,  2.0000)
[...]
  93 Ni     7.261952    5.238932    8.701501    ( 0.0000,  0.0000,  1.5000)
  94 Co     8.891619    3.425738    8.881814    ( 0.0000,  0.0000,  2.1000)
  95 Cr     8.878340    5.325293    6.971158    ( 0.0000,  0.0000,  0.0000)
  96 Fe    -0.097801    7.003762    7.081970    ( 0.0000,  0.0000,  2.0000)
  97 Ni    -0.047743    8.921315    9.031364    ( 0.0000,  0.0000,  1.5000)
  98 Ni     1.799485    7.045550    8.815083    ( 0.0000,  0.0000,  1.5000)
  99 Fe     1.600296    8.671312    6.951604    ( 0.0000,  0.0000,  2.0000)
 100 Ni     3.549351    7.203339    7.117010    ( 0.0000,  0.0000,  1.5000)
 101 Cr     3.238547    8.924171    8.589398    ( 0.0000,  0.0000,  0.0000)
 102 Cr     5.116297    7.358358    8.932181    ( 0.0000,  0.0000,  0.0000)
 103 Cr     5.210463    9.018372    7.008321    ( 0.0000,  0.0000,  0.0000)
 104 Co     7.007590    7.095604    7.102767    ( 0.0000,  0.0000,  2.1000)
 105 Fe     6.911885    8.924583    8.878625    ( 0.0000,  0.0000,  2.0000)
 106 Cr     8.776441    7.024795    8.725285    ( 0.0000,  0.0000,  0.0000)
 107 Ni     8.839321    8.964498    7.346445    ( 0.0000,  0.0000,  1.5000)

Unit cell:
           periodic     x           y           z      points  spacing
  1. axis:    yes   10.671700    0.000000    0.000000    48     0.2223
  2. axis:    yes    0.000000   10.671700    0.000000    48     0.2223
  3. axis:    yes    0.000000    0.000000   10.671700    48     0.2223

  Lengths:  10.671700  10.671700  10.671700
  Angles:   90.000000  90.000000  90.000000

Effective grid spacing dv^(1/3) = 0.2223

     iter     time        total  log10-change:  magmom
                         energy  eigst   dens
iter:   1 20:12:01 -1025.083646                  +143.7777
iter:   2 20:13:50  -916.999001  -0.26  -1.21    +83.6730
iter:   3 20:15:40  -898.599454  -0.93  -1.24    +71.2652
iter:   4 20:17:29  -883.932900  -1.33  -1.30    +67.5195
iter:   5 20:19:19  -869.385289  -1.62  -1.32    +64.4306
iter:   6 20:21:09  -865.986488  -1.29  -1.39    +64.8727
iter:   7 20:22:59  -871.917119  -1.22  -1.50    +64.3519
iter:   8 20:24:48  -853.794722  -1.72  -1.53    +64.1541
iter:   9 20:26:38  -852.022627  -2.14  -1.74    +65.6008
iter:  10 20:28:28  -852.379025  -2.54  -1.83    +66.7582
iter:  11 20:30:17  -853.270267  -2.50  -1.85    +68.1074
iter:  12 20:32:07  -853.877255  -2.43  -1.87    +69.3975
iter:  13 20:33:57  -854.383652  -2.35  -1.91    +70.0923
iter:  14 20:35:47  -853.139625  -2.47  -1.97    +70.5475
iter:  15 20:37:37  -853.522561  -2.72  -2.10    +71.4130
iter:  16 20:39:27  -852.922509  -2.96  -2.10    +71.9549
iter:  17 20:41:16  -853.097352  -3.22  -2.22    +72.6050
iter:  18 20:43:07  -852.924877  -3.32  -2.23    +73.0265
iter:  19 20:44:56  -852.998959  -3.25  -2.33    +73.5795
iter:  20 20:46:46  -852.993826c -3.35  -2.37    +73.7637
iter:  21 20:48:36  -853.041485c -3.36  -2.43    +74.0589
iter:  22 20:50:26  -852.954520c -3.53  -2.44    +74.1661
iter:  23 20:52:16  -852.972623c -3.64  -2.53    +74.4011
iter:  24 20:54:05  -852.935950c -3.70  -2.55    +74.4899
iter:  25 20:55:55  -852.956061c -3.80  -2.62    +74.6215
iter:  26 20:57:45  -852.949499c -3.89  -2.64    +74.7190
iter:  27 20:59:35  -852.956570c -4.03  -2.68    +74.7900
iter:  28 21:01:25  -852.962197c -4.13  -2.71    +74.8289
iter:  29 21:03:15  -852.970009c -4.19  -2.73    +74.8984
iter:  30 21:05:04  -852.959596c -4.40  -2.75    +74.9298
iter:  31 21:06:54  -852.976047c -4.45  -2.81    +74.9703
iter:  32 21:08:44  -852.972281c -4.59  -2.82    +74.9920
iter:  33 21:10:33  -852.978759c -4.59  -2.87    +75.0190
iter:  34 21:12:23  -852.984729c -4.66  -2.91    +75.0248
iter:  35 21:14:13  -852.989950c -4.67  -2.95    +75.0427
iter:  36 21:16:02  -852.992563c -4.70  -2.97    +75.0595
iter:  37 21:17:52  -853.000871c -4.72  -3.02    +75.0660
iter:  38 21:19:41  -853.001714c -4.79  -3.04    +75.0679
iter:  39 21:21:31  -853.006471c -4.79  -3.08    +75.0719
iter:  40 21:23:21  -853.012304c -4.80  -3.12    +75.0770
iter:  41 21:25:11  -853.012847c -4.89  -3.14    +75.0730
iter:  42 21:27:01  -853.015821c -4.96  -3.18    +75.0723
iter:  43 21:28:50  -853.019018c -5.01  -3.22    +75.0778
iter:  44 21:30:40  -853.019832c -5.19  -3.25    +75.0702
iter:  45 21:32:29  -853.021350c -5.22  -3.28    +75.0634
iter:  46 21:34:19  -853.023795c -5.26  -3.31    +75.0698
iter:  47 21:36:08  -853.024530c -5.36  -3.35    +75.0614
iter:  48 21:37:58  -853.025173c -5.47  -3.37    +75.0537
iter:  49 21:39:48  -853.027340c -5.44  -3.41    +75.0512
iter:  50 21:41:37  -853.027498c -5.56  -3.42    +75.0445
iter:  51 21:43:27  -853.027526c -5.57  -3.45    +75.0394
iter:  52 21:45:17  -853.029246c -5.64  -3.49    +75.0426
iter:  53 21:47:07  -853.029436c -5.76  -3.52    +75.0368
iter:  54 21:48:56  -853.030371c -5.82  -3.55    +75.0326
iter:  55 21:50:46  -853.031684c -5.72  -3.58    +75.0287
iter:  56 21:52:36  -853.032055c -5.86  -3.59    +75.0246
iter:  57 21:54:26  -853.032514c -5.92  -3.63    +75.0202
iter:  58 21:56:16  -853.033626c -5.96  -3.67    +75.0153
iter:  59 21:58:06  -853.034111c -6.01  -3.71    +75.0104
iter:  60 21:59:55  -853.034756c -6.05  -3.72    +75.0068
iter:  61 22:01:45  -853.035473c -6.09  -3.78    +75.0009
iter:  62 22:03:35  -853.036078c -6.13  -3.80    +74.9958
iter:  63 22:05:24  -853.036363c -6.27  -3.83    +74.9928
iter:  64 22:07:14  -853.037267c -6.23  -3.88    +74.9845
iter:  65 22:09:04  -853.037241c -6.36  -3.91    +74.9805
iter:  66 22:10:54  -853.037764c -6.44  -3.93    +74.9772
iter:  67 22:12:44  -853.038241c -6.47  -3.97    +74.9714
iter:  68 22:14:34  -853.038531c -6.52  -3.99    +74.9654
iter:  69 22:16:23  -853.038718c -6.62  -4.00c   +74.9620
iter:  70 22:18:13  -853.039195c -6.62  -4.02c   +74.9568
iter:  71 22:20:03  -853.039253c -6.63  -4.06c   +74.9516
iter:  72 22:21:52  -853.039544c -6.75  -4.06c   +74.9490
iter:  73 22:23:42  -853.039821c -6.75  -4.09c   +74.9443
iter:  74 22:25:32  -853.040037c -6.72  -4.12c   +74.9392
iter:  75 22:27:21  -853.040092c -6.90  -4.13c   +74.9371
iter:  76 22:29:11  -853.040423c -6.83  -4.16c   +74.9330
iter:  77 22:31:01  -853.040455c -6.91  -4.19c   +74.9301
iter:  78 22:32:51  -853.040680c -6.99  -4.21c   +74.9276
iter:  79 22:34:40  -853.040843c -7.00  -4.24c   +74.9245
iter:  80 22:36:30  -853.041052c -6.90  -4.26c   +74.9215
iter:  81 22:38:20  -853.041116c -7.06  -4.28c   +74.9199
iter:  82 22:40:10  -853.041305c -7.17  -4.31c   +74.9178
iter:  83 22:41:59  -853.041366c -7.15  -4.35c   +74.9160
iter:  84 22:43:49  -853.041544c -7.20  -4.37c   +74.9151
iter:  85 22:45:39  -853.041646c -7.30  -4.41c   +74.9138
iter:  86 22:47:29  -853.041755c -7.24  -4.45c   +74.9125
iter:  87 22:49:19  -853.041796c -7.36  -4.48c   +74.9120
iter:  88 22:51:08  -853.041936c -7.42c -4.48c   +74.9112

Converged after 88 iterations.

Dipole moment: (4.388816, 16.687738, -13.150130) |e|*Ang

Total magnetic moment: (0.000000, 0.000000, 74.911207)
Local magnetic moments:
   0 Cr ( 0.000000,  0.000000, -0.518864)
   1 Al ( 0.000000,  0.000000, -0.039804)
   2 Cr ( 0.000000,  0.000000, -1.818003)
   3 Co ( 0.000000,  0.000000,  0.785608)
   4 Fe ( 0.000000,  0.000000,  2.099820)
   5 Cr ( 0.000000,  0.000000, -0.259640)
   6 Ni ( 0.000000,  0.000000,  0.306892)
   7 Fe ( 0.000000,  0.000000,  1.966335)
   8 Cr ( 0.000000,  0.000000, -0.650668)
   9 Co ( 0.000000,  0.000000,  1.283442)
  10 Ni ( 0.000000,  0.000000,  0.307993)
  11 Fe ( 0.000000,  0.000000,  2.081368)
  12 Co ( 0.000000,  0.000000,  1.628809)
  13 Co ( 0.000000,  0.000000,  1.127850)
  14 Fe ( 0.000000,  0.000000,  1.568495)
  15 Fe ( 0.000000,  0.000000,  2.194349)
  16 Fe ( 0.000000,  0.000000,  2.045577)
  17 Fe ( 0.000000,  0.000000,  2.032263)
  18 Cr ( 0.000000,  0.000000, -1.056532)
  19 Co ( 0.000000,  0.000000,  1.355677)
  20 Fe ( 0.000000,  0.000000,  2.482634)
  21 Ni ( 0.000000,  0.000000,  0.359407)
  22 Co ( 0.000000,  0.000000,  1.483587)
  23 Cr ( 0.000000,  0.000000,  0.947409)
  24 Cr ( 0.000000,  0.000000, -1.191410)
  25 Ni ( 0.000000,  0.000000,  0.147558)
  26 Fe ( 0.000000,  0.000000,  2.115873)
  27 Ni ( 0.000000,  0.000000,  0.201600)
  28 Co ( 0.000000,  0.000000,  1.021857)
  29 Co ( 0.000000,  0.000000,  1.182011)
  30 Co ( 0.000000,  0.000000,  0.923440)
  31 Cr ( 0.000000,  0.000000,  0.095620)
  32 Al ( 0.000000,  0.000000,  0.001163)
  33 Cr ( 0.000000,  0.000000, -0.227347)
  34 Cr ( 0.000000,  0.000000, -0.762020)
  35 Cr ( 0.000000,  0.000000,  1.236826)
  36 Fe ( 0.000000,  0.000000,  2.403839)
  37 Co ( 0.000000,  0.000000,  1.196495)
  38 Cr ( 0.000000,  0.000000, -0.061443)
  39 Fe ( 0.000000,  0.000000,  1.963661)
  40 Co ( 0.000000,  0.000000,  1.354999)
  41 Ni ( 0.000000,  0.000000,  0.310042)
  42 Ni ( 0.000000,  0.000000,  0.285708)
  43 Al ( 0.000000,  0.000000, -0.025598)
  44 Fe ( 0.000000,  0.000000,  2.409791)
  45 Co ( 0.000000,  0.000000,  1.378585)
  46 Fe ( 0.000000,  0.000000,  1.944655)
  47 Ni ( 0.000000,  0.000000,  0.523615)
  48 Fe ( 0.000000,  0.000000,  2.091077)
  49 Fe ( 0.000000,  0.000000,  2.217515)
  50 Ni ( 0.000000,  0.000000,  0.355442)
  51 Ni ( 0.000000,  0.000000,  0.344646)
  52 Cr ( 0.000000,  0.000000, -0.347499)
  53 Co ( 0.000000,  0.000000,  1.532098)
  54 Fe ( 0.000000,  0.000000,  2.191996)
  55 Cr ( 0.000000,  0.000000, -0.010631)
  56 Co ( 0.000000,  0.000000,  1.468913)
  57 Fe ( 0.000000,  0.000000,  2.387366)
  58 Ni ( 0.000000,  0.000000,  0.371486)
  59 Fe ( 0.000000,  0.000000,  2.025909)
[...]
  93 Ni ( 0.000000,  0.000000,  0.105025)
  94 Co ( 0.000000,  0.000000,  1.444773)
  95 Cr ( 0.000000,  0.000000, -1.575136)
  96 Fe ( 0.000000,  0.000000,  2.074548)
  97 Ni ( 0.000000,  0.000000,  0.132908)
  98 Ni ( 0.000000,  0.000000,  0.319314)
  99 Fe ( 0.000000,  0.000000,  1.894910)
 100 Ni ( 0.000000,  0.000000,  0.296053)
 101 Cr ( 0.000000,  0.000000, -0.940021)
 102 Cr ( 0.000000,  0.000000, -0.212228)
 103 Cr ( 0.000000,  0.000000, -0.496278)
 104 Co ( 0.000000,  0.000000,  0.735465)
 105 Fe ( 0.000000,  0.000000,  1.304762)
 106 Cr ( 0.000000,  0.000000, -0.920474)
 107 Ni ( 0.000000,  0.000000,  0.178146)

Energy contributions relative to reference atoms: (reference = -3699400.456887)

Kinetic:       +415.853909
Potential:     -412.910705
External:        +0.000000
XC:            -891.091198
Entropy (-ST):   -4.512154
Local:          +37.362133
Free energy:   -855.298013
Extrapolated:  -853.041936

Spin contamination: 21.370927 electrons
Showing only first 2 kpts
                      Up                     Down
 Kpt  Band  Eigenvalues  Occupancy  Eigenvalues  Occupancy
  0   508      9.60045    0.99729     10.61378    0.01439
  0   509      9.60767    0.99708     10.62639    0.01270
  0   510      9.61493    0.99686     10.63311    0.01189
  0   511      9.62842    0.99641     10.65385    0.00968

  1   508      9.59550    0.99742     10.62672    0.01266
  1   509      9.60650    0.99712     10.63293    0.01191
  1   510      9.61886    0.99674     10.64658    0.01041
  1   511      9.63892    0.99602     10.65792    0.00930

Fermi level: 10.19108

No gap

Forces in eV/Ang:
  0 Cr    0.42887    0.48152    0.28091
  1 Al   -0.02341   -0.09719    0.37472
  2 Cr    0.45168    0.37403   -0.15580
  3 Co   -1.52597   -1.31961   -0.21855
  4 Fe   -0.67000    0.76446    1.14015
  5 Cr   -1.45826   -1.42131   -1.22948
  6 Ni   -1.60851    0.69113    0.79900
  7 Fe    0.40736   -0.07083   -1.43105
  8 Cr    1.49145    0.38114   -1.79646
  9 Co   -0.66458    1.57097   -1.59572
 10 Ni    0.16902    0.57237   -0.96725
 11 Fe   -1.77596    0.15483    0.08552
 12 Co   -1.21709   -1.52963    0.28228
 13 Co   -1.14753    0.15951   -1.51983
 14 Fe    0.72330    0.15070   -1.92183
 15 Fe    0.72845   -0.30022   -0.58228
 16 Fe    0.60092    1.29762   -0.71044
 17 Fe   -0.89549   -2.21899   -0.43674
 18 Cr    0.87011    2.77033   -1.15067
 19 Co    0.22990    0.84844   -0.79766
 20 Fe    0.17505    0.57820   -0.16324
 21 Ni   -0.66868   -1.80627   -0.75556
 22 Co   -0.53292    0.00214   -0.64175
 23 Cr    3.52605   -2.03061   -0.55783
 24 Cr   -1.62388   -0.59299    1.65982
 25 Ni   -0.68121    0.34947    0.71578
 26 Fe    0.48775   -1.27240    0.72757
 27 Ni   -0.63607    1.57051    0.25122
 28 Co   -0.03394   -1.65292   -0.25299
 29 Co   -0.57672    1.60396    0.68544
 30 Co   -0.10645    0.65209   -0.70579
 31 Cr   -2.27153    3.61233   -0.18283
 32 Al    1.40360   -2.43482    0.90859
 33 Cr    0.34826    1.64335   -0.47160
 34 Cr    1.35637    1.31264   -0.36774
 35 Cr   -0.14952    0.01200    1.00557
 36 Fe    0.58139   -0.26747   -0.22334
 37 Co    0.52465   -0.16638    0.92671
 38 Cr    0.39767   -0.15399   -0.55007
 39 Fe    0.85601   -1.54672    1.26242
 40 Co   -0.43159    0.29785    0.32101
 41 Ni    0.52908   -1.45596   -0.87033
 42 Ni   -1.20696    0.64456    0.25703
 43 Al    1.58889   -3.03942    2.09774
 44 Fe    1.51511   -1.56421    0.36721
 45 Co    0.33930   -1.12841    0.68738
 46 Fe    0.75901    1.36926   -0.38573
 47 Ni   -0.83289    0.59353    0.04785
 48 Fe   -0.85066    0.41230    0.72730
 49 Fe   -0.06356    1.24403   -0.91159
 50 Ni   -3.06930   -0.05589    1.57045
 51 Ni    0.70019    0.92866    0.17147
 52 Cr    1.41416    0.16313   -0.40624
 53 Co    0.55515    1.20274   -1.62283
 54 Fe    0.13654    1.81526    0.47216
 55 Cr    0.16561   -1.64330    0.38759
 56 Co   -0.65900   -1.49575    0.23522
 57 Fe   -0.38674   -0.26148    0.35505
 58 Ni   -0.51431    0.55165   -0.68730
 59 Fe    0.57141   -0.57139    0.93934
[...]
 93 Ni   -1.38824   -0.34771    1.02421
 94 Co   -0.10989    0.57589    0.18004
 95 Cr   -0.20662   -1.11774    0.52052
 96 Fe   -0.16687    0.33320    0.01005
 97 Ni    1.40178   -0.40970   -2.31304
 98 Ni    0.21709   -0.25771   -0.77336
 99 Fe    0.78182    1.59524    0.57390
100 Ni    0.29894   -1.37235   -0.83898
101 Cr    0.35765    0.92079    1.14283
102 Cr   -0.31818   -0.58017   -2.04136
103 Cr   -0.45019   -0.66845    0.33584
104 Co   -0.22443   -0.79952    1.20972
105 Fe    0.45204    1.13132   -0.97013
106 Cr    0.70130    0.88384   -0.03886
107 Ni    0.50792   -0.09154   -0.53307

Date: Thu Apr 13 22:51:30 2023