User:   c.zeng@d0117
Date:   Thu Apr 13 20:21:15 2023
Arch:   x86_64
Pid:    57171
CWD:    /home/c.zeng/projects/hea-corrosion/hea-mlp/data-curation/bulk-md/dft-jobs/43
Python: 3.8.1
gpaw:   /home/c.zeng/usr/installs/gpaw/source/gpaw-22.8.0/gpaw
_gpaw:  /home/c.zeng/usr/installs/gpaw/source/gpaw-22.8.0/
        _gpaw.cpython-38-x86_64-linux-gnu.so
ase:    /home/c.zeng/.local/lib/python3.8/site-packages/ase-3.22.1-py3.8.egg/ase (version 3.22.1)
numpy:  /shared/centos7/python/3.8.1/lib/python3.8/site-packages/numpy (version 1.17.4)
scipy:  /shared/centos7/python/3.8.1/lib/python3.8/site-packages/scipy (version 1.4.1)
units:  Angstrom and eV
cores: 30
OpenMP: False
OMP_NUM_THREADS: 1

Input parameters:
  convergence: {energy: 0.0001}
  kpts: [2 2 2]
  maxiter: 666
  mode: {ecut: 350.0,
         name: pw}
  occupations: {fixmagmom: False,
                name: fermi-dirac,
                width: 0.1}
  spinpol: True
  xc: PBE

System changes: positions, numbers, cell, pbc, initial_charges, initial_magmoms

Initialize ...

species:
  Co:
    name: Cobalt
    id: 339d20d5b0b93d2de9531a1bee871d91
    Z: 27.0
    valence: 9
    core: 18
    charge: 0.0
    file: /home/c.zeng/usr/data/gpaw-setups-0.9.20000/Co.PBE.gz
    compensation charges: {type: gauss,
                           rc: 0.32,
                           lmax: 2}
    cutoffs: {filter: 1.87,
              core: 2.55}
    valence states:
      #              energy  rcut
      - 4s(2.00)    -5.469   1.005
      - 4p(0.00)    -1.277   1.058
      - 3d(7.00)    -8.205   1.005
      -  s          21.742   1.005
      -  p          25.934   1.058
      -  d          19.007   1.005

    # Using partial waves for Co as LCAO basis

  Ni:
    name: Nickel
    id: 0d9f38a9d6e76a2886f07bb4381f212b
    Z: 28.0
    valence: 16
    core: 12
    charge: 0.0
    file: /home/c.zeng/usr/data/gpaw-setups-0.9.20000/Ni.PBE.gz
    compensation charges: {type: gauss,
                           rc: 0.36,
                           lmax: 2}
    cutoffs: {filter: 2.14,
              core: 1.98}
    valence states:
      #              energy  rcut
      - 4s(2.00)    -5.642   1.164
      - 3p(6.00)   -71.394   1.207
      - 4p(0.00)    -1.226   1.207
      - 3d(8.00)    -8.875   1.138
      -  s          21.570   1.164
      -  d          18.337   1.138

[...]

  Al:
    name: Aluminium
    id: 0292cae29f5d6237e50f6abdd43a7bdd
    Z: 13.0
    valence: 3
    core: 10
    charge: 0.0
    file: /home/c.zeng/usr/data/gpaw-setups-0.9.20000/Al.PBE.gz
    compensation charges: {type: gauss,
                           rc: 0.34,
                           lmax: 2}
    cutoffs: {filter: 1.91,
              core: 2.36}
    valence states:
      #              energy  rcut
      - 3s(2.00)    -7.753   1.085
      - 3p(1.00)    -2.712   1.085
      -  s          19.459   1.085
      -  p          24.499   1.085
      -  d           0.000   1.085

[...]

  Cr:
    name: Chromium
    id: 33f258bda2ca9f93018e70263a35547b
    Z: 24.0
    valence: 6
    core: 18
    charge: 0.0
    file: /home/c.zeng/usr/data/gpaw-setups-0.9.20000/Cr.PBE.gz
    compensation charges: {type: gauss,
                           rc: 0.35,
                           lmax: 2}
    cutoffs: {filter: 2.14,
              core: 3.04}
    valence states:
      #              energy  rcut
      - 4s(1.00)    -4.007   1.164
      - 4p(0.00)    -0.989   1.217
      - 3d(5.00)    -2.913   1.111
      -  s          23.205   1.164
      -  p          26.223   1.217
      -  d          24.299   1.111

[...]

  Fe:
    name: Iron
    id: 37abbd8d6c3c35915a9b583b742da910
    Z: 26.0
    valence: 8
    core: 18
    charge: 0.0
    file: /home/c.zeng/usr/data/gpaw-setups-0.9.20000/Fe.PBE.gz
    compensation charges: {type: gauss,
                           rc: 0.33,
                           lmax: 2}
    cutoffs: {filter: 2.06,
              core: 2.67}
    valence states:
      #              energy  rcut
      - 4s(2.00)    -5.291   1.164
      - 4p(0.00)    -1.326   1.058
      - 3d(6.00)    -7.505   1.058
      -  s          21.920   1.164
      -  p          25.885   1.058
      -  d          19.706   1.058

    # Using partial waves for Fe as LCAO basis

Reference energy: -3548577.034362  # eV

Spin-polarized calculation.
Magnetic moment: 136.400000

Convergence criteria:
 Maximum [total energy] change in last 3 cyles: 0.0001 eV / electron
 Maximum integral of absolute [dens]ity change: 0.0001 electrons / valence electron
 Maximum integral of absolute [eigenst]ate change: 4e-08 eV^2 / valence electron
 Maximum number of scf [iter]ations: 666
 (Square brackets indicate name in SCF output, whereas a 'c' in
 the SCF output indicates the quantity has converged.)

Symmetries present (total): 1

  ( 1  0  0)
  ( 0  1  0)
  ( 0  0  1)

8 k-points: 2 x 2 x 2 Monkhorst-Pack grid
4 k-points in the irreducible part of the Brillouin zone
       k-points in crystal coordinates                weights
   0:     0.25000000   -0.25000000   -0.25000000          2/8
   1:     0.25000000   -0.25000000    0.25000000          2/8
   2:     0.25000000    0.25000000   -0.25000000          2/8
   3:     0.25000000    0.25000000    0.25000000          2/8

Wave functions: Plane wave expansion
  Cutoff energy: 350.000 eV
  Number of coefficients (min, max): 18331, 18331
  Pulay-stress correction: 0.000000 eV/Ang^3 (de/decut=0.000000)
  Using FFTW library
  ScaLapack parameters: grid=1x1, blocksize=None
  Wavefunction extrapolation:
    Improved wavefunction reuse through dual PAW basis

Occupation numbers: Fermi-Dirac:
  width: 0.1000  # eV

Eigensolver
   Davidson(niter=2)

Densities:
  Coarse grid: 48*48*48 grid
  Fine grid: 96*96*96 grid
  Total Charge: 0.000000

Density mixing:
  Method: difference
  Backend: pulay
  Linear mixing parameter: 0.05
  old densities: 5
  Damping of long wavelength oscillations: 50

Hamiltonian:
  XC and Coulomb potentials evaluated on a 96*96*96 grid
  Using the PBE Exchange-Correlation functional
  External potential:
    NoExternalPotential

XC parameters: PBE with 2 nearest neighbor stencil

Total number of cores used: 30
Parallelization over k-points: 2
Domain decomposition: 5 x 3 x 1

Number of atoms: 108
Number of atomic orbitals: 994
Number of bands in calculation: 674
Number of valence electrons: 980
Bands to converge: occupied

... initialized

Initializing position-dependent things.

Density initialized from atomic densities
Creating initial wave functions:
  674 bands from LCAO basis set

        Co------------------------.
       /|          Fe       Cr    |
      Fe|   Co                    |
     /  |         Co    Ni        |
    /  NiAl    Ni Fe       Fe     |
   /    | NiCr  Fe    Ni Ni Fe    |
  /    Cr   CFeFe   Co CAl    Co  |
 *    CNi Cr   CoAl      Cr  Al   |
 |Co   Ni FFe  Co CoCr  CrCr      |
 |      NiCrCoFe CoCoFeAl   FCr   |
 |   FFe|  NiNiCr  Cr CoNi  Ni    |
 |    NiFe    CoCo   FeCrCrAl     |
 | Ni   |NiNi  Ni CrCo  Cr Fe    Al
 |      .-NiNi-----CCr---Cr-FCr---.
 |   FeNi   CrCo     Cr          /
 |    / Al    FNil Cr  FNi      /
 |   /             Fe     Cr   /
 |  /      Fe               Nio
 | /  Al             CFe     /

Positions:
   0 Co    10.879154   -0.139238   10.660723    ( 0.0000,  0.0000,  2.1000)
   1 Ni    10.606112    1.834521    1.795112    ( 0.0000,  0.0000,  1.5000)
   2 Al     1.956703    0.209581    1.634847    ( 0.0000,  0.0000,  0.0000)
   3 Cr     1.919584    1.974232   10.562210    ( 0.0000,  0.0000,  0.0000)
   4 Cr     3.519986    0.083760   10.345804    ( 0.0000,  0.0000,  0.0000)
   5 Fe     3.758969    1.706385    1.822575    ( 0.0000,  0.0000,  2.0000)
   6 Fe     5.204406   -0.112428    1.761588    ( 0.0000,  0.0000,  2.0000)
   7 Fe     5.284418    1.759022   -0.108755    ( 0.0000,  0.0000,  2.0000)
   8 Cr     7.188457   -0.056589    0.027848    ( 0.0000,  0.0000,  0.0000)
   9 Fe     7.063437    1.916022    1.865923    ( 0.0000,  0.0000,  2.0000)
  10 Fe     8.754396    0.173933    1.721136    ( 0.0000,  0.0000,  2.0000)
  11 Al     8.974233    1.929104   -0.072403    ( 0.0000,  0.0000,  0.0000)
  12 Co    10.631205    3.692747   10.830099    ( 0.0000,  0.0000,  2.1000)
  13 Fe    10.761293    5.509351    1.684174    ( 0.0000,  0.0000,  2.0000)
  14 Al     1.787500    3.451931    1.918282    ( 0.0000,  0.0000,  0.0000)
  15 Al     1.763157    5.444226   10.507506    ( 0.0000,  0.0000,  0.0000)
  16 Cr     3.563540    3.571380   10.700181    ( 0.0000,  0.0000,  0.0000)
  17 Cr     3.756105    5.473249    1.753813    ( 0.0000,  0.0000,  0.0000)
  18 Al     5.336320    3.466409    1.950912    ( 0.0000,  0.0000,  0.0000)
  19 Co     5.401784    5.565067   10.687633    ( 0.0000,  0.0000,  2.1000)
  20 Co     7.229549    3.543053    0.092590    ( 0.0000,  0.0000,  2.1000)
  21 Cr     6.939469    5.495626    1.925750    ( 0.0000,  0.0000,  0.0000)
  22 Cr     8.502135    3.819291    1.913966    ( 0.0000,  0.0000,  0.0000)
  23 Cr     9.042417    5.405534    0.092878    ( 0.0000,  0.0000,  0.0000)
  24 Fe    10.740764    7.254108   10.712676    ( 0.0000,  0.0000,  2.0000)
  25 Al    10.636958    8.949025    1.766917    ( 0.0000,  0.0000,  0.0000)
  26 Ni     1.715969    6.992406    1.809946    ( 0.0000,  0.0000,  1.5000)
  27 Cr     2.061545    8.758952   10.763566    ( 0.0000,  0.0000,  0.0000)
  28 Fe     3.608044    7.096247   10.955324    ( 0.0000,  0.0000,  2.0000)
  29 Ni     3.446406    8.665219    1.978857    ( 0.0000,  0.0000,  1.5000)
  30 Co     5.296008    7.235399    1.880052    ( 0.0000,  0.0000,  2.1000)
  31 Fe     5.000551    8.927488   10.719615    ( 0.0000,  0.0000,  2.0000)
  32 Fe     7.121440    7.192501   10.769326    ( 0.0000,  0.0000,  2.0000)
  33 Cr     6.916218    9.041980    1.628039    ( 0.0000,  0.0000,  0.0000)
  34 Fe     9.038354    7.151405    1.595177    ( 0.0000,  0.0000,  2.0000)
  35 Cr     8.854242    8.856115   -0.133572    ( 0.0000,  0.0000,  0.0000)
  36 Ni    10.737033   -0.032900    3.676017    ( 0.0000,  0.0000,  1.5000)
  37 Ni     0.235329    1.868481    5.188712    ( 0.0000,  0.0000,  1.5000)
  38 Co     1.869636   -0.089227    5.436450    ( 0.0000,  0.0000,  2.1000)
  39 Ni     1.970167    1.680152    3.674809    ( 0.0000,  0.0000,  1.5000)
  40 Co     3.689769   -0.015948    3.596343    ( 0.0000,  0.0000,  2.1000)
  41 Ni     3.574394    1.681539    5.389302    ( 0.0000,  0.0000,  1.5000)
  42 Co     5.364843    0.072845    5.277507    ( 0.0000,  0.0000,  2.1000)
  43 Ni     5.425287    1.669630    3.584600    ( 0.0000,  0.0000,  1.5000)
  44 Cr     7.252223    0.035210    3.779124    ( 0.0000,  0.0000,  0.0000)
  45 Co     7.277206    1.714808    5.550632    ( 0.0000,  0.0000,  2.1000)
  46 Al     8.847758   10.500447    5.282117    ( 0.0000,  0.0000,  0.0000)
  47 Ni     8.874486    1.898033    3.334559    ( 0.0000,  0.0000,  1.5000)
  48 Cr    10.393451    3.879617    3.548965    ( 0.0000,  0.0000,  0.0000)
  49 Fe     0.076498    5.483138    5.370375    ( 0.0000,  0.0000,  2.0000)
  50 Fe     1.818559    3.745479    5.467230    ( 0.0000,  0.0000,  2.0000)
  51 Ni     1.763227    5.374042    3.632807    ( 0.0000,  0.0000,  1.5000)
[...]
  58 Cr     8.666938    3.846748    5.324238    ( 0.0000,  0.0000,  0.0000)
  59 Fe     9.024699    5.705748    3.495269    ( 0.0000,  0.0000,  2.0000)
[...]
  93 Ni     7.296592    5.343506    9.223092    ( 0.0000,  0.0000,  1.5000)
  94 Cr     8.854476    3.611005    9.124609    ( 0.0000,  0.0000,  0.0000)
  95 Cr     9.006610    5.553756    7.118519    ( 0.0000,  0.0000,  0.0000)
  96 Co    10.772669    7.013389    7.177665    ( 0.0000,  0.0000,  2.1000)
  97 Ni    10.857354    8.714998    8.767934    ( 0.0000,  0.0000,  1.5000)
  98 Ni     1.893297    7.067650    8.809565    ( 0.0000,  0.0000,  1.5000)
  99 Co     1.665912    8.966231    7.150597    ( 0.0000,  0.0000,  2.1000)
 100 Co     3.699523    7.205277    6.978430    ( 0.0000,  0.0000,  2.1000)
 101 Ni     3.499045    8.732775    8.899985    ( 0.0000,  0.0000,  1.5000)
 102 Fe     5.264067    7.178866    9.091401    ( 0.0000,  0.0000,  2.0000)
 103 Co     5.347246    8.905613    7.100759    ( 0.0000,  0.0000,  2.1000)
 104 Co     7.029338    7.148286    7.360143    ( 0.0000,  0.0000,  2.1000)
 105 Ni     6.952665    8.967795    8.949542    ( 0.0000,  0.0000,  1.5000)
 106 Fe     8.888036    7.204837    9.047049    ( 0.0000,  0.0000,  2.0000)
 107 Fe     8.844954    8.992071    7.219264    ( 0.0000,  0.0000,  2.0000)

Unit cell:
           periodic     x           y           z      points  spacing
  1. axis:    yes   10.722400    0.000000    0.000000    48     0.2234
  2. axis:    yes    0.000000   10.722400    0.000000    48     0.2234
  3. axis:    yes    0.000000    0.000000   10.722400    48     0.2234

  Lengths:  10.722400  10.722400  10.722400
  Angles:   90.000000  90.000000  90.000000

Effective grid spacing dv^(1/3) = 0.2234

     iter     time        total  log10-change:  magmom
                         energy  eigst   dens
iter:   1 20:27:13 -1012.125724                  +136.6833
iter:   2 20:29:29  -898.506664  -0.24  -1.19    +75.7392
iter:   3 20:31:45  -893.164585  -0.82  -1.21    +62.7266
iter:   4 20:34:02  -870.108779  -1.21  -1.27    +58.4826
iter:   5 20:36:18  -855.576726  -1.60  -1.29    +54.7024
iter:   6 20:38:34  -855.119726  -1.25  -1.37    +54.7802
iter:   7 20:40:53  -852.051173  -1.26  -1.45    +53.4997
iter:   8 20:43:09  -840.379443  -1.64  -1.54    +52.4084
iter:   9 20:45:28  -838.982644  -2.07  -1.72    +52.9711
iter:  10 20:47:45  -838.898410  -2.26  -1.77    +53.9558
iter:  11 20:50:02  -838.716218  -2.46  -1.81    +54.3400
iter:  12 20:52:19  -838.304922  -2.48  -1.83    +55.8425
iter:  13 20:54:37  -840.208900  -2.41  -1.90    +56.6022
iter:  14 20:56:56  -839.102008  -2.30  -1.88    +56.6738
iter:  15 20:59:13  -839.308835  -2.51  -2.01    +57.4179
iter:  16 21:01:56  -839.142736  -2.57  -2.00    +57.7604
iter:  17 21:04:14  -838.372357  -2.84  -2.05    +58.4161
iter:  18 21:06:30  -838.918454  -2.77  -2.16    +58.5289
iter:  19 21:08:47  -838.485367  -2.93  -2.12    +59.1884
iter:  20 21:11:04  -838.580950  -2.97  -2.21    +59.6740
iter:  21 21:13:21  -838.519334c -3.03  -2.21    +59.6596
iter:  22 21:15:42  -838.518295c -2.99  -2.27    +59.9451
iter:  23 21:18:05  -838.355047  -3.06  -2.32    +60.0900
iter:  24 21:20:22  -838.198209  -3.24  -2.33    +60.6553
iter:  25 21:22:44  -838.432294  -3.24  -2.46    +60.6714
iter:  26 21:25:21  -838.249780  -3.33  -2.39    +60.8755
iter:  27 21:27:34  -838.175664  -3.63  -2.47    +61.4922
iter:  28 21:29:52  -838.134580  -3.82  -2.56    +61.6814
iter:  29 21:32:09  -838.165166c -3.81  -2.63    +61.9331
iter:  30 21:34:25  -838.122288c -4.20  -2.60    +61.9857
iter:  31 21:36:42  -838.182596c -4.05  -2.69    +62.3094
iter:  32 21:38:58  -838.221779  -3.88  -2.65    +62.3057
iter:  33 21:41:23  -838.197953c -3.94  -2.64    +62.2725
iter:  34 21:43:50  -838.189171c -4.08  -2.68    +62.4255
iter:  35 21:46:09  -838.249479c -3.87  -2.74    +62.5516
iter:  36 21:48:28  -838.191873c -4.12  -2.69    +62.6512
iter:  37 21:50:50  -838.189932c -4.35  -2.78    +62.5832
iter:  38 21:53:12  -838.190601c -4.58  -2.80    +62.6901
iter:  39 21:55:34  -838.197705c -4.59  -2.84    +62.8176
iter:  40 21:58:05  -838.201733c -4.83  -2.86    +62.8510
iter:  41 22:00:51  -838.233778c -4.48  -2.87    +62.8933
iter:  42 22:03:07  -838.240201c -4.19  -2.85    +62.8822
iter:  43 22:05:25  -838.265948c -4.16  -2.85    +62.9722
iter:  44 22:07:43  -838.267529c -4.17  -2.82    +62.9550
iter:  45 22:10:12  -838.261550c -4.15  -2.87    +62.8861
iter:  46 22:12:31  -838.242761c -4.34  -2.89    +62.9778
iter:  47 22:14:55  -838.247596c -4.75  -2.97    +63.0523
iter:  48 22:17:14  -838.244181c -4.66  -3.05    +63.1008
iter:  49 22:19:44  -838.247559c -4.90  -3.05    +63.0505
iter:  50 22:22:20  -838.249539c -4.99  -3.07    +63.0888
iter:  51 22:24:49  -838.263848c -4.69  -3.12    +63.0926
iter:  52 22:27:09  -838.269951c -4.53  -3.10    +63.0663
iter:  53 22:29:39  -838.258155c -4.77  -3.05    +63.0310
iter:  54 22:32:09  -838.279796c -4.46  -3.24    +63.0167
iter:  55 22:34:40  -838.266629c -4.71  -3.07    +63.0542
iter:  56 22:37:11  -838.262044c -4.96  -3.23    +62.9897
iter:  57 22:39:41  -838.259709c -5.34  -3.35    +62.9939
iter:  58 22:42:09  -838.261114c -5.64  -3.42    +63.0264
iter:  59 22:44:40  -838.263417c -5.81  -3.46    +63.0596
iter:  60 22:47:10  -838.268019c -5.15  -3.49    +63.1030
iter:  61 22:49:40  -838.271070c -5.30  -3.47    +63.0952
iter:  62 22:52:10  -838.270435c -5.98  -3.47    +63.0641
iter:  63 22:54:35  -838.271516c -5.79  -3.53    +63.0440
iter:  64 22:57:09  -838.272686c -5.38  -3.51    +63.0444
iter:  65 22:59:33  -838.272939c -5.70  -3.72    +63.0190
iter:  66 23:02:04  -838.273230c -6.07  -3.96    +63.0180
iter:  67 23:04:34  -838.273405c -6.28  -3.91    +63.0239
iter:  68 23:07:01  -838.274195c -6.34  -4.06c   +63.0152
iter:  69 23:09:23  -838.274438c -6.49  -4.08c   +63.0157
iter:  70 23:11:53  -838.274927c -6.36  -4.11c   +63.0115
iter:  71 23:14:24  -838.276175c -6.10  -4.18c   +63.0009
iter:  72 23:16:52  -838.275958c -6.89  -4.13c   +63.0003
iter:  73 23:19:15  -838.276614c -6.52  -4.20c   +62.9975
iter:  74 23:21:46  -838.276837c -6.81  -4.18c   +62.9948
iter:  75 23:24:16  -838.277346c -6.43  -4.25c   +62.9888
iter:  76 23:26:40  -838.277616c -6.74  -4.18c   +62.9818
iter:  77 23:28:59  -838.278378c -6.19  -4.25c   +62.9746
iter:  78 23:31:17  -838.278516c -6.80  -4.18c   +62.9688
iter:  79 23:33:47  -838.279208c -6.35  -4.23c   +62.9576
iter:  80 23:36:10  -838.279436c -6.84  -4.17c   +62.9606
iter:  81 23:38:40  -838.279821c -6.36  -4.08c   +62.9472
iter:  82 23:40:56  -838.280486c -6.42  -4.09c   +62.9402
iter:  83 23:43:22  -838.280887c -6.48  -4.07c   +62.9342
iter:  84 23:45:43  -838.281263c -6.32  -4.04c   +62.9296
iter:  85 23:48:14  -838.281471c -6.51  -3.99    +62.9344
iter:  86 23:50:44  -838.282084c -6.40  -3.88    +62.9305
iter:  87 23:53:14  -838.281558c -6.41  -3.88    +62.9249
iter:  88 23:55:41  -838.282151c -6.28  -3.88    +62.9199
iter:  89 23:58:11  -838.282516c -6.58  -3.99    +62.9101
iter:  90 00:00:29  -838.282877c -6.05  -3.99    +62.9031
iter:  91 00:02:58  -838.282678c -6.44  -3.88    +62.9071
iter:  92 00:05:27  -838.282948c -6.38  -4.08c   +62.8999
iter:  93 00:07:58  -838.283668c -6.57  -4.00    +62.8969
iter:  94 00:10:28  -838.283434c -6.70  -4.06c   +62.8926
iter:  95 00:12:50  -838.283775c -6.70  -4.13c   +62.8935
iter:  96 00:15:20  -838.284146c -6.69  -4.15c   +62.8914
iter:  97 00:17:51  -838.283952c -6.93  -3.98    +62.8847
iter:  98 00:20:23  -838.284344c -6.47  -4.06c   +62.8701
iter:  99 00:22:41  -838.285112c -6.54  -4.00    +62.8756
iter: 100 00:25:10  -838.284472c -6.42  -4.01c   +62.8713
iter: 101 00:27:30  -838.284845c -6.86  -4.04c   +62.8797
iter: 102 00:29:49  -838.285323c -6.25  -4.11c   +62.8826
iter: 103 00:32:15  -838.285085c -6.69  -3.98    +62.8747
iter: 104 00:34:34  -838.286038c -6.26  -4.14c   +62.8739
iter: 105 00:36:54  -838.285429c -6.57  -4.00c   +62.8746
iter: 106 00:39:25  -838.286155c -6.50  -4.29c   +62.8681
iter: 107 00:41:46  -838.285728c -6.88  -4.17c   +62.8640
iter: 108 00:44:16  -838.285967c -6.86  -4.40c   +62.8626
iter: 109 00:46:47  -838.286081c -7.16  -4.35c   +62.8661
iter: 110 00:49:10  -838.286255c -7.17  -4.52c   +62.8625
iter: 111 00:51:41  -838.288707c -4.99  -4.48c   +62.8184
iter: 112 00:54:11  -838.288715c -6.16  -4.03c   +62.8304
iter: 113 00:56:41  -838.288733c -6.64  -4.04c   +62.8429
iter: 114 00:58:56  -838.288828c -6.90  -4.04c   +62.8465
iter: 115 01:01:23  -838.288944c -6.82  -4.02c   +62.8568
iter: 116 01:03:54  -838.288770c -6.03  -4.01c   +62.8695
iter: 117 01:06:24  -838.289811c -6.11  -3.78    +62.8621
iter: 118 01:08:54  -838.289908c -6.11  -3.83    +62.8844
iter: 119 01:11:24  -838.289508c -5.89  -3.80    +62.8833
iter: 120 01:13:55  -838.289642c -5.87  -3.72    +62.8753
iter: 121 01:16:25  -838.288790c -6.43  -3.86    +62.8540
iter: 122 01:18:56  -838.288582c -6.85  -4.12c   +62.8538
iter: 123 01:21:27  -838.288981c -6.90  -4.11c   +62.8546
iter: 124 01:23:57  -838.288959c -6.78  -4.11c   +62.8495
iter: 125 01:26:28  -838.289393c -6.22  -4.12c   +62.8477
iter: 126 01:28:58  -838.288637c -6.41  -3.95    +62.8560
iter: 127 01:31:25  -838.289060c -6.52  -4.09c   +62.8578
iter: 128 01:33:55  -838.289171c -6.74  -4.10c   +62.8500
iter: 129 01:36:24  -838.288693c -6.80  -4.21c   +62.8486
iter: 130 01:38:54  -838.288733c -7.38  -4.25c   +62.8549
iter: 131 01:41:25  -838.288776c -7.67c -4.45c   +62.8579

Converged after 131 iterations.

Dipole moment: (-2.689381, 1.687478, 16.343081) |e|*Ang

Total magnetic moment: (0.000000, 0.000000, 62.857899)
Local magnetic moments:
   0 Co ( 0.000000,  0.000000,  0.842042)
   1 Ni ( 0.000000,  0.000000,  0.144422)
   2 Al ( 0.000000,  0.000000, -0.013454)
   3 Cr ( 0.000000,  0.000000,  1.072835)
   4 Cr ( 0.000000,  0.000000, -0.910324)
   5 Fe ( 0.000000,  0.000000,  1.722135)
   6 Fe ( 0.000000,  0.000000,  1.899443)
   7 Fe ( 0.000000,  0.000000,  1.737582)
   8 Cr ( 0.000000,  0.000000,  0.024223)
   9 Fe ( 0.000000,  0.000000,  1.370594)
  10 Fe ( 0.000000,  0.000000,  1.725772)
  11 Al ( 0.000000,  0.000000, -0.016841)
  12 Co ( 0.000000,  0.000000,  0.420013)
  13 Fe ( 0.000000,  0.000000,  1.666621)
  14 Al ( 0.000000,  0.000000, -0.009662)
  15 Al ( 0.000000,  0.000000, -0.027860)
  16 Cr ( 0.000000,  0.000000, -1.200634)
  17 Cr ( 0.000000,  0.000000,  0.193605)
  18 Al ( 0.000000,  0.000000, -0.013515)
  19 Co ( 0.000000,  0.000000,  1.126899)
  20 Co ( 0.000000,  0.000000,  0.374756)
  21 Cr ( 0.000000,  0.000000, -0.401831)
  22 Cr ( 0.000000,  0.000000,  0.437745)
  23 Cr ( 0.000000,  0.000000, -1.092827)
  24 Fe ( 0.000000,  0.000000,  1.871699)
  25 Al ( 0.000000,  0.000000, -0.022157)
  26 Ni ( 0.000000,  0.000000,  0.253774)
  27 Cr ( 0.000000,  0.000000, -1.513501)
  28 Fe ( 0.000000,  0.000000,  1.252941)
  29 Ni ( 0.000000,  0.000000,  0.189461)
  30 Co ( 0.000000,  0.000000,  0.428784)
  31 Fe ( 0.000000,  0.000000,  1.878708)
  32 Fe ( 0.000000,  0.000000,  1.737054)
  33 Cr ( 0.000000,  0.000000, -1.034121)
  34 Fe ( 0.000000,  0.000000,  1.469400)
  35 Cr ( 0.000000,  0.000000, -1.281095)
  36 Ni ( 0.000000,  0.000000,  0.307744)
  37 Ni ( 0.000000,  0.000000,  0.281420)
  38 Co ( 0.000000,  0.000000,  1.404205)
  39 Ni ( 0.000000,  0.000000,  0.372608)
  40 Co ( 0.000000,  0.000000,  1.274844)
  41 Ni ( 0.000000,  0.000000,  0.426727)
  42 Co ( 0.000000,  0.000000,  1.261042)
  43 Ni ( 0.000000,  0.000000,  0.272819)
  44 Cr ( 0.000000,  0.000000,  1.390477)
  45 Co ( 0.000000,  0.000000,  0.999127)
  46 Al ( 0.000000,  0.000000, -0.007510)
  47 Ni ( 0.000000,  0.000000,  0.147228)
  48 Cr ( 0.000000,  0.000000, -1.460022)
  49 Fe ( 0.000000,  0.000000,  1.650240)
  50 Fe ( 0.000000,  0.000000,  2.538523)
  51 Ni ( 0.000000,  0.000000,  0.342252)
  52 Ni ( 0.000000,  0.000000,  0.200825)
  53 Ni ( 0.000000,  0.000000,  0.389252)
  54 Co ( 0.000000,  0.000000,  1.328871)
  55 Cr ( 0.000000,  0.000000,  0.267326)
  56 Cr ( 0.000000,  0.000000, -0.499257)
  57 Co ( 0.000000,  0.000000,  0.663083)
  58 Cr ( 0.000000,  0.000000,  0.378376)
  59 Fe ( 0.000000,  0.000000,  1.208277)
[...]
  93 Ni ( 0.000000,  0.000000,  0.226851)
  94 Cr ( 0.000000,  0.000000,  0.776160)
  95 Cr ( 0.000000,  0.000000, -0.621793)
  96 Co ( 0.000000,  0.000000,  1.040236)
  97 Ni ( 0.000000,  0.000000,  0.394385)
  98 Ni ( 0.000000,  0.000000,  0.366958)
  99 Co ( 0.000000,  0.000000,  1.457943)
 100 Co ( 0.000000,  0.000000,  1.434873)
 101 Ni ( 0.000000,  0.000000,  0.347251)
 102 Fe ( 0.000000,  0.000000,  2.160395)
 103 Co ( 0.000000,  0.000000,  1.375886)
 104 Co ( 0.000000,  0.000000,  1.319370)
 105 Ni ( 0.000000,  0.000000,  0.280681)
 106 Fe ( 0.000000,  0.000000,  1.810383)
 107 Fe ( 0.000000,  0.000000,  2.112367)

Energy contributions relative to reference atoms: (reference = -3548577.034362)

Kinetic:       +363.597898
Potential:     -361.226217
External:        +0.000000
XC:            -874.390164
Entropy (-ST):   -4.470767
Local:          +35.965090
Free energy:   -840.524159
Extrapolated:  -838.288776

Spin contamination: 20.940728 electrons
Showing only first 2 kpts
                      Up                     Down
 Kpt  Band  Eigenvalues  Occupancy  Eigenvalues  Occupancy
  0   488      9.50382    0.99445     10.39634    0.02328
  0   489      9.51221    0.99397     10.40633    0.02112
  0   490      9.53368    0.99254     10.41690    0.01904
  0   491      9.54311    0.99180     10.42874    0.01695

  1   488      9.51242    0.99396     10.39896    0.02270
  1   489      9.53095    0.99274     10.41087    0.02020
  1   490      9.54463    0.99168     10.42110    0.01827
  1   491      9.55518    0.99076     10.43098    0.01658

Fermi level: 10.02270

No gap

Forces in eV/Ang:
  0 Co   -0.63703   -0.03963    0.12380
  1 Ni    0.94587   -0.11695   -0.19383
  2 Al   -1.03762   -1.09778    1.21854
  3 Cr   -1.02961    0.22428   -0.22909
  4 Cr    1.08308   -0.11670    0.83007
  5 Fe   -0.59277    0.25680   -0.51330
  6 Fe    0.37323    0.36154   -0.23780
  7 Fe    0.39948   -0.22503    1.01983
  8 Cr   -1.07838    0.18458    0.32686
  9 Fe    0.16126   -1.97688   -1.20642
 10 Fe    0.39944   -1.05722    0.26558
 11 Al    0.20483   -1.69466    2.41098
 12 Co    0.95960   -0.58285   -0.57311
 13 Fe   -0.55087   -1.22682    1.10340
 14 Al   -0.77352    0.43204   -0.43913
 15 Al   -0.33400   -0.77677    0.62129
 16 Cr    0.27512   -0.15029   -0.19855
 17 Cr   -0.88157   -0.78940    0.56172
 18 Al   -0.97986    1.09017   -2.04759
 19 Co   -0.03605   -1.63196    0.70493
 20 Co   -1.14827    0.32835   -0.53467
 21 Cr    0.50207   -0.13233   -1.10616
 22 Cr    1.44749   -0.23437    0.16291
 23 Cr   -0.41575    0.36437   -0.48908
 24 Fe    0.47307    0.16346   -1.21541
 25 Al    0.68683    0.69906    1.19294
 26 Ni    0.88740    0.80281   -0.13923
 27 Cr   -1.74355    0.48211   -0.84702
 28 Fe   -0.51281   -0.40308   -1.86696
 29 Ni    0.49429    2.06391   -1.07541
 30 Co    0.50517    0.12780   -0.33242
 31 Fe    1.34633    0.62263    0.32544
 32 Fe   -0.30355    0.66214    0.23638
 33 Cr    1.25351    0.02033    0.49531
 34 Fe   -1.12694    0.14519    0.08112
 35 Cr    0.54834    0.81670    0.20233
 36 Ni   -0.26056    0.44926   -1.04303
 37 Ni   -1.58232    0.28376    0.57401
 38 Co   -0.63319    0.98958   -1.04439
 39 Ni   -0.89510    0.27121   -0.89653
 40 Co   -0.68986   -0.31368    0.34251
 41 Ni   -0.25881    0.75003   -0.08961
 42 Co   -0.25611   -1.13677    0.61800
 43 Ni   -0.46385    0.10682    0.46520
 44 Cr   -2.33232   -0.72202   -2.71471
 45 Co   -0.18003    1.16608   -0.94384
 46 Al    2.61857    1.07976    0.82797
 47 Ni    0.45043   -0.07607    2.37088
 48 Cr    0.69903   -0.97497    0.35091
 49 Fe    0.05028   -1.23993    0.19213
 50 Fe   -0.23192   -1.19083   -0.57510
 51 Ni    0.34994   -0.71448   -0.55927
 52 Ni    1.30664   -0.31311    1.53744
 53 Ni    0.72975   -0.16801    0.96013
 54 Co   -0.19604    1.60651    0.10302
 55 Cr   -0.46668   -0.16427   -0.15072
 56 Cr    2.33191    0.49199    1.75648
 57 Co   -1.65789    0.56196   -0.89260
 58 Cr    0.84321   -1.78971   -0.71744
 59 Fe   -0.70841   -0.84560    0.60214
[...]
 93 Ni   -1.07685    0.45345   -1.98357
 94 Cr    0.82969    1.12977   -2.00593
 95 Cr   -0.80114   -0.22385    1.28045
 96 Co    0.35474    0.81562    0.10228
 97 Ni   -1.06535    1.54736    1.62226
 98 Ni   -0.16056   -0.11732    0.46038
 99 Co    1.33215   -0.59021   -0.43281
100 Co   -0.02920   -0.03302    0.84677
101 Ni    0.16589    1.23489   -0.86928
102 Fe    0.64507   -0.06326   -1.16620
103 Co   -0.15727    0.32170   -0.07745
104 Co    0.20840   -0.39454   -0.35651
105 Ni    0.38402    0.23722    0.19484
106 Fe   -0.04496   -0.35012   -0.62138
107 Fe    0.57085   -1.40189    0.07928

Date: Fri Apr 14 01:41:47 2023