User:   c.zeng@d0131
Date:   Sat Apr  8 08:12:57 2023
Arch:   x86_64
Pid:    55303
CWD:    /home/c.zeng/projects/hea-corrosion/hea-mlp/data-curation/volume/dft-jobs/33
Python: 3.8.1
gpaw:   /home/c.zeng/usr/installs/gpaw/source/gpaw-22.8.0/gpaw
_gpaw:  /home/c.zeng/usr/installs/gpaw/source/gpaw-22.8.0/
        _gpaw.cpython-38-x86_64-linux-gnu.so
ase:    /home/c.zeng/.local/lib/python3.8/site-packages/ase-3.22.1-py3.8.egg/ase (version 3.22.1)
numpy:  /shared/centos7/python/3.8.1/lib/python3.8/site-packages/numpy (version 1.17.4)
scipy:  /shared/centos7/python/3.8.1/lib/python3.8/site-packages/scipy (version 1.4.1)
units:  Angstrom and eV
cores: 64
OpenMP: False
OMP_NUM_THREADS: 1

Input parameters:
  convergence: {energy: 0.0001}
  kpts: [2 2 2]
  maxiter: 666
  mode: {ecut: 350.0,
         name: pw}
  occupations: {fixmagmom: False,
                name: fermi-dirac,
                width: 0.1}
  spinpol: True
  xc: PBE

System changes: positions, numbers, cell, pbc, initial_charges, initial_magmoms

Initialize ...

species:
  Cr:
    name: Chromium
    id: 33f258bda2ca9f93018e70263a35547b
    Z: 24.0
    valence: 6
    core: 18
    charge: 0.0
    file: /home/c.zeng/usr/data/gpaw-setups-0.9.20000/Cr.PBE.gz
    compensation charges: {type: gauss,
                           rc: 0.35,
                           lmax: 2}
    cutoffs: {filter: 2.14,
              core: 3.04}
    valence states:
      #              energy  rcut
      - 4s(1.00)    -4.007   1.164
      - 4p(0.00)    -0.989   1.217
      - 3d(5.00)    -2.913   1.111
      -  s          23.205   1.164
      -  p          26.223   1.217
      -  d          24.299   1.111

    # Using partial waves for Cr as LCAO basis

  Al:
    name: Aluminium
    id: 0292cae29f5d6237e50f6abdd43a7bdd
    Z: 13.0
    valence: 3
    core: 10
    charge: 0.0
    file: /home/c.zeng/usr/data/gpaw-setups-0.9.20000/Al.PBE.gz
    compensation charges: {type: gauss,
                           rc: 0.34,
                           lmax: 2}
    cutoffs: {filter: 1.91,
              core: 2.36}
    valence states:
      #              energy  rcut
      - 3s(2.00)    -7.753   1.085
      - 3p(1.00)    -2.712   1.085
      -  s          19.459   1.085
      -  p          24.499   1.085
      -  d           0.000   1.085

[...]

  Co:
    name: Cobalt
    id: 339d20d5b0b93d2de9531a1bee871d91
    Z: 27.0
    valence: 9
    core: 18
    charge: 0.0
    file: /home/c.zeng/usr/data/gpaw-setups-0.9.20000/Co.PBE.gz
    compensation charges: {type: gauss,
                           rc: 0.32,
                           lmax: 2}
    cutoffs: {filter: 1.87,
              core: 2.55}
    valence states:
      #              energy  rcut
      - 4s(2.00)    -5.469   1.005
      - 4p(0.00)    -1.277   1.058
      - 3d(7.00)    -8.205   1.005
      -  s          21.742   1.005
      -  p          25.934   1.058
      -  d          19.007   1.005

[...]

  Fe:
    name: Iron
    id: 37abbd8d6c3c35915a9b583b742da910
    Z: 26.0
    valence: 8
    core: 18
    charge: 0.0
    file: /home/c.zeng/usr/data/gpaw-setups-0.9.20000/Fe.PBE.gz
    compensation charges: {type: gauss,
                           rc: 0.33,
                           lmax: 2}
    cutoffs: {filter: 2.06,
              core: 2.67}
    valence states:
      #              energy  rcut
      - 4s(2.00)    -5.291   1.164
      - 4p(0.00)    -1.326   1.058
      - 3d(6.00)    -7.505   1.058
      -  s          21.920   1.164
      -  p          25.885   1.058
      -  d          19.706   1.058

[...]

  Ni:
    name: Nickel
    id: 0d9f38a9d6e76a2886f07bb4381f212b
    Z: 28.0
    valence: 16
    core: 12
    charge: 0.0
    file: /home/c.zeng/usr/data/gpaw-setups-0.9.20000/Ni.PBE.gz
    compensation charges: {type: gauss,
                           rc: 0.36,
                           lmax: 2}
    cutoffs: {filter: 2.14,
              core: 1.98}
    valence states:
      #              energy  rcut
      - 4s(2.00)    -5.642   1.164
      - 3p(6.00)   -71.394   1.207
      - 4p(0.00)    -1.226   1.207
      - 3d(8.00)    -8.875   1.138
      -  s          21.570   1.164
      -  d          18.337   1.138

    # Using partial waves for Ni as LCAO basis

Reference energy: -3699400.456887  # eV

Spin-polarized calculation.
Magnetic moment: 143.500000

Convergence criteria:
 Maximum [total energy] change in last 3 cyles: 0.0001 eV / electron
 Maximum integral of absolute [dens]ity change: 0.0001 electrons / valence electron
 Maximum integral of absolute [eigenst]ate change: 4e-08 eV^2 / valence electron
 Maximum number of scf [iter]ations: 666
 (Square brackets indicate name in SCF output, whereas a 'c' in
 the SCF output indicates the quantity has converged.)

Symmetries present (total): 1

  ( 1  0  0)
  ( 0  1  0)
  ( 0  0  1)

8 k-points: 2 x 2 x 2 Monkhorst-Pack grid
4 k-points in the irreducible part of the Brillouin zone
       k-points in crystal coordinates                weights
   0:     0.25000000   -0.25000000   -0.25000000          2/8
   1:     0.25000000   -0.25000000    0.25000000          2/8
   2:     0.25000000    0.25000000   -0.25000000          2/8
   3:     0.25000000    0.25000000    0.25000000          2/8

Wave functions: Plane wave expansion
  Cutoff energy: 350.000 eV
  Number of coefficients (min, max): 20795, 20795
  Pulay-stress correction: 0.000000 eV/Ang^3 (de/decut=0.000000)
  Using FFTW library
  ScaLapack parameters: grid=1x1, blocksize=None
  Wavefunction extrapolation:
    Improved wavefunction reuse through dual PAW basis

Occupation numbers: Fermi-Dirac:
  width: 0.1000  # eV

Eigensolver
   Davidson(niter=2)

Densities:
  Coarse grid: 49*49*49 grid
  Fine grid: 98*98*98 grid
  Total Charge: 0.000000

Density mixing:
  Method: difference
  Backend: pulay
  Linear mixing parameter: 0.05
  old densities: 5
  Damping of long wavelength oscillations: 50

Hamiltonian:
  XC and Coulomb potentials evaluated on a 98*98*98 grid
  Using the PBE Exchange-Correlation functional
  External potential:
    NoExternalPotential

XC parameters: PBE with 2 nearest neighbor stencil

Total number of cores used: 64
Parallelization over k-points: 4
Domain decomposition: 4 x 2 x 2

Number of atoms: 108
Number of atomic orbitals: 1025
Number of bands in calculation: 703
Number of valence electrons: 1020
Bands to converge: occupied

... initialized

Initializing position-dependent things.

Density initialized from atomic densities
Creating initial wave functions:
  703 bands from LCAO basis set

       /|  Ni                Cr    |
      / |   Fe          Al         |
     /  |       Cr                 |
    /  Ni                Fe        |
   /o   CrNi     CrCrFe     Cr     |
  /  NiCo  FeCo     CrNi Fe  Ni    |
 Cr   FeCo  Cr NiNi     CoCo       |
 |     NiCoCr   CoNiCo   AlCrFe    |
 | Ni   | FeCo AlCoNiNi CoFeNi     |
 |     Cr  NiCo     Fe   Cr  FeFe  |
 |      |       Co     Fe          |
 |    CrNi   CrCoFeCrNi NiNi  Ni   |
 |Co   NiNiNi   CoCrCo   CrFe      |
 | Fe   .-FeCr-Ni--CoCo-Fe--Cr-----.
 |   CoFe    Fe Al  CrNi Ni       /
 |    CrFe     CoCr       CoFe   /
 |   /   Fe                  Al /
 |  /      Cr     CoCo     Cr  /
 | /        Fe                /
 |/             Fe           /
 *--------Fe-------Cr-------*

Positions:
   0 Cr     0.000012    0.000010   11.177955    ( 0.0000,  0.0000,  0.0000)
   1 Al    -0.000003    1.863037    1.863026    ( 0.0000,  0.0000,  0.0000)
   2 Cr     1.863026   11.177978    1.863004    ( 0.0000,  0.0000,  0.0000)
   3 Co     1.863015    1.863015   11.177978    ( 0.0000,  0.0000,  2.1000)
   4 Fe     3.725996    0.000010    0.000002    ( 0.0000,  0.0000,  2.0000)
   5 Cr     3.725974    1.863004    1.862959    ( 0.0000,  0.0000,  0.0000)
   6 Ni     5.588989   11.177978    1.863004    ( 0.0000,  0.0000,  1.5000)
   7 Fe     5.589000    1.863015    0.000004    ( 0.0000,  0.0000,  2.0000)
   8 Cr     7.452015    0.000040   11.178000    ( 0.0000,  0.0000,  0.0000)
   9 Co     7.452026    1.863004    1.862981    ( 0.0000,  0.0000,  2.1000)
  10 Ni     9.314985   11.177989    1.863037    ( 0.0000,  0.0000,  1.5000)
  11 Fe     9.314985    1.863015   11.177978    ( 0.0000,  0.0000,  2.0000)
  12 Co     0.000010    3.725996   11.177989    ( 0.0000,  0.0000,  2.1000)
  13 Co     0.000030    5.588978    1.863015    ( 0.0000,  0.0000,  2.1000)
  14 Fe     1.863004    3.726041    1.862993    ( 0.0000,  0.0000,  2.0000)
  15 Fe     1.863026    5.588989    0.000019    ( 0.0000,  0.0000,  2.0000)
  16 Fe     3.725996    3.726019    0.000006    ( 0.0000,  0.0000,  2.0000)
  17 Fe     3.725963    5.589022    1.862970    ( 0.0000,  0.0000,  2.0000)
  18 Cr     5.589011    3.726030    1.862937    ( 0.0000,  0.0000,  0.0000)
  19 Co     5.588966    5.588966    0.000004    ( 0.0000,  0.0000,  2.1000)
  20 Fe     7.451993    3.725996   11.177989    ( 0.0000,  0.0000,  2.0000)
  21 Ni     7.452004    5.588966    1.863015    ( 0.0000,  0.0000,  1.5000)
  22 Co     9.314996    3.726007    1.863004    ( 0.0000,  0.0000,  2.1000)
  23 Cr     9.315007    5.588944    0.000010    ( 0.0000,  0.0000,  0.0000)
  24 Cr     0.000045    7.451993    0.000004    ( 0.0000,  0.0000,  0.0000)
  25 Ni     0.000004    9.314996    1.863037    ( 0.0000,  0.0000,  1.5000)
  26 Fe     1.863026    7.451981    1.862993    ( 0.0000,  0.0000,  2.0000)
  27 Ni     1.863026    9.314996   11.177989    ( 0.0000,  0.0000,  1.5000)
  28 Co     3.725985    7.451970    0.000028    ( 0.0000,  0.0000,  2.1000)
  29 Co     3.725996    9.314985    1.863004    ( 0.0000,  0.0000,  2.1000)
  30 Co     5.588966    7.451993    1.863015    ( 0.0000,  0.0000,  2.1000)
  31 Cr     5.588966    9.315007    0.000025    ( 0.0000,  0.0000,  0.0000)
  32 Al     7.451959    7.451981   11.177966    ( 0.0000,  0.0000,  0.0000)
  33 Cr     7.451993    9.315030    1.863060    ( 0.0000,  0.0000,  0.0000)
  34 Cr     9.315019    7.451993    1.863048    ( 0.0000,  0.0000,  0.0000)
  35 Cr     9.315007    9.315030   11.177978    ( 0.0000,  0.0000,  0.0000)
  36 Fe    11.177978   11.178000    3.726019    ( 0.0000,  0.0000,  2.0000)
  37 Co    11.178000    1.863004    5.588966    ( 0.0000,  0.0000,  2.1000)
  38 Cr     1.862981   11.177989    5.588978    ( 0.0000,  0.0000,  0.0000)
  39 Fe     1.862993    1.863004    3.726007    ( 0.0000,  0.0000,  2.0000)
  40 Co     3.725996   11.177978    3.725996    ( 0.0000,  0.0000,  2.1000)
  41 Ni     3.726007    1.863015    5.589000    ( 0.0000,  0.0000,  1.5000)
  42 Ni     5.589000    0.000004    5.588978    ( 0.0000,  0.0000,  1.5000)
  43 Al     5.589034    1.862948    3.726041    ( 0.0000,  0.0000,  0.0000)
  44 Fe     7.452026   11.177989    3.726007    ( 0.0000,  0.0000,  2.0000)
  45 Co     7.452004    1.863004    5.589000    ( 0.0000,  0.0000,  2.1000)
  46 Fe     9.315007   11.178000    5.588966    ( 0.0000,  0.0000,  2.0000)
  47 Ni     9.314996    1.862970    3.726019    ( 0.0000,  0.0000,  1.5000)
  48 Fe     0.000004    3.726007    3.726019    ( 0.0000,  0.0000,  2.0000)
  49 Fe    -0.000001    5.589000    5.589000    ( 0.0000,  0.0000,  2.0000)
  50 Ni     1.862981    3.726019    5.588989    ( 0.0000,  0.0000,  1.5000)
  51 Ni     1.862981    5.589000    3.725985    ( 0.0000,  0.0000,  1.5000)
  52 Cr     3.725952    3.726019    3.726007    ( 0.0000,  0.0000,  0.0000)
  53 Co     3.725996    5.589011    5.589011    ( 0.0000,  0.0000,  2.1000)
  54 Fe     5.589011    3.726019    5.589022    ( 0.0000,  0.0000,  2.0000)
  55 Cr     5.589011    5.589011    3.726019    ( 0.0000,  0.0000,  0.0000)
  56 Co     7.452026    3.726019    3.726019    ( 0.0000,  0.0000,  2.1000)
  57 Fe     7.452004    5.588989    5.589000    ( 0.0000,  0.0000,  2.0000)
  58 Ni     9.314996    3.726019    5.588966    ( 0.0000,  0.0000,  1.5000)
  59 Fe     9.314996    5.588989    3.726019    ( 0.0000,  0.0000,  2.0000)
[...]
  93 Ni     7.451993    5.588978    9.314985    ( 0.0000,  0.0000,  1.5000)
  94 Co     9.315007    3.725974    9.315019    ( 0.0000,  0.0000,  2.1000)
  95 Cr     9.315007    5.589011    7.451970    ( 0.0000,  0.0000,  0.0000)
  96 Fe     0.000031    7.452004    7.451981    ( 0.0000,  0.0000,  2.0000)
  97 Ni     0.000017    9.315007    9.314974    ( 0.0000,  0.0000,  1.5000)
  98 Ni     1.862993    7.452004    9.314985    ( 0.0000,  0.0000,  1.5000)
  99 Fe     1.862993    9.314974    7.452004    ( 0.0000,  0.0000,  2.0000)
 100 Ni     3.725963    7.451993    7.451970    ( 0.0000,  0.0000,  1.5000)
 101 Cr     3.725952    9.314996    9.315007    ( 0.0000,  0.0000,  0.0000)
 102 Cr     5.589011    7.451993    9.314996    ( 0.0000,  0.0000,  0.0000)
 103 Cr     5.588989    9.314974    7.451993    ( 0.0000,  0.0000,  0.0000)
 104 Co     7.452004    7.451981    7.452015    ( 0.0000,  0.0000,  2.1000)
 105 Fe     7.452026    9.314996    9.314974    ( 0.0000,  0.0000,  2.0000)
 106 Cr     9.315007    7.452026    9.314963    ( 0.0000,  0.0000,  0.0000)
 107 Ni     9.315019    9.314996    7.452015    ( 0.0000,  0.0000,  1.5000)

Unit cell:
           periodic     x           y           z      points  spacing
  1. axis:    yes   11.178000    0.000000    0.000000    49     0.2281
  2. axis:    yes    0.000000   11.178000    0.000000    49     0.2281
  3. axis:    yes    0.000000    0.000000   11.178000    49     0.2281

  Lengths:  11.178000  11.178000  11.178000
  Angles:   90.000000  90.000000  90.000000

Effective grid spacing dv^(1/3) = 0.2281

     iter     time        total  log10-change:  magmom
                         energy  eigst   dens
iter:   1 08:15:02 -1074.420563                  +143.7778
iter:   2 08:15:57  -936.620670  -0.13  -1.18    +81.2901
iter:   3 08:16:53  -926.336326  -0.73  -1.17    +79.3923
iter:   4 08:17:48  -884.984283  -1.21  -1.25    +74.9570
iter:   5 08:18:44  -873.655477  -1.70  -1.32    +75.4981
iter:   6 08:19:39  -880.146225  -1.35  -1.37    +80.0174
iter:   7 08:20:33  -869.171786  -1.23  -1.37    +82.0627
iter:   8 08:21:28  -863.196957  -1.56  -1.51    +84.2087
iter:   9 08:22:22  -857.428932  -1.65  -1.62    +85.1227
iter:  10 08:23:16  -857.260017  -2.28  -1.79    +85.7816
iter:  11 08:24:10  -856.905463  -2.51  -1.80    +87.6311
iter:  12 08:25:06  -858.353235  -2.55  -1.87    +89.0991
iter:  13 08:26:02  -859.294958  -2.43  -1.87    +89.0858
iter:  14 08:26:56  -858.140762  -2.39  -1.86    +89.3474
iter:  15 08:27:52  -858.579516  -2.67  -2.07    +88.9146
iter:  16 08:28:47  -858.687958  -2.77  -2.07    +88.4985
iter:  17 08:29:42  -858.679698  -3.01  -2.13    +88.3187
iter:  18 08:30:37  -858.922966  -3.07  -2.21    +88.0115
iter:  19 08:31:32  -858.943215  -3.30  -2.22    +87.1730
iter:  20 08:32:27  -859.075506  -3.36  -2.29    +86.4175
iter:  21 08:33:21  -859.172217  -3.32  -2.34    +85.9395
iter:  22 08:34:16  -859.358076  -3.32  -2.44    +85.1766
iter:  23 08:35:11  -859.500998  -3.35  -2.46    +84.4409
iter:  24 08:36:06  -859.482848  -3.55  -2.48    +83.9632
iter:  25 08:37:01  -859.635695  -3.63  -2.60    +83.2678
iter:  26 08:37:56  -859.767511  -3.73  -2.60    +82.4658
iter:  27 08:38:52  -859.927910  -3.83  -2.62    +81.8086
iter:  28 08:39:46  -860.124638  -3.75  -2.58    +81.3750
iter:  29 08:40:41  -860.055352  -3.82  -2.51    +81.2372
iter:  30 08:41:35  -860.196045  -3.85  -2.55    +80.8532
iter:  31 08:42:28  -860.554419  -3.40  -2.53    +80.1153
iter:  32 08:43:23  -860.833805  -3.37  -2.44    +79.5370
iter:  33 08:44:16  -860.861621  -3.71  -2.38    +79.3087
iter:  34 08:45:12  -860.827307c -3.84  -2.38    +79.0078
iter:  35 08:46:05  -860.907222c -4.14  -2.40    +78.8012
iter:  36 08:47:00  -860.974685  -3.30  -2.38    +78.3835
iter:  37 08:47:55  -861.032406  -3.64  -2.35    +78.3442
iter:  38 08:48:50  -860.903903  -3.56  -2.36    +77.7808
iter:  39 08:49:45  -860.810504  -3.79  -2.43    +77.7087
iter:  40 08:50:40  -861.149313  -3.13  -2.48    +77.5569
iter:  41 08:51:34  -860.709330  -3.53  -2.34    +77.3866
iter:  42 08:52:29  -860.767613  -3.71  -2.60    +77.2094
iter:  43 08:53:25  -860.755926c -3.96  -2.60    +77.1511
iter:  44 08:54:21  -860.793478c -3.85  -2.63    +77.0233
iter:  45 08:55:17  -860.756107c -4.08  -2.66    +77.0672
iter:  46 08:56:13  -860.771146c -4.24  -2.74    +77.0848
iter:  47 08:57:09  -860.789616c -4.36  -2.76    +77.0552
iter:  48 08:58:07  -860.788872c -4.54  -2.76    +77.0565
iter:  49 08:59:00  -860.805848c -4.61  -2.80    +77.0449
iter:  50 08:59:56  -860.811824c -4.63  -2.82    +77.0000
iter:  51 09:00:52  -860.827248c -4.53  -2.85    +76.9679
iter:  52 09:01:50  -860.824108c -4.64  -2.88    +76.9382
iter:  53 09:02:46  -860.837976c -4.68  -2.94    +76.8837
iter:  54 09:03:41  -860.845246c -4.55  -2.95    +76.8630
iter:  55 09:04:37  -860.840788c -4.77  -2.95    +76.8321
iter:  56 09:05:32  -860.843083c -4.92  -3.02    +76.7658
iter:  57 09:06:32  -860.845492c -5.14  -3.06    +76.7429
iter:  58 09:07:29  -860.847489c -5.12  -3.12    +76.6929
iter:  59 09:08:29  -860.849590c -5.19  -3.15    +76.6615
iter:  60 09:09:27  -860.854818c -5.05  -3.19    +76.6261
iter:  61 09:10:23  -860.850787c -5.11  -3.19    +76.6024
iter:  62 09:11:20  -860.850788c -5.51  -3.26    +76.5522
iter:  63 09:12:17  -860.852913c -5.41  -3.33    +76.5004
iter:  64 09:13:16  -860.852290c -5.74  -3.34    +76.4742
iter:  65 09:14:13  -860.853767c -5.67  -3.38    +76.4190
iter:  66 09:15:04  -860.854991c -5.66  -3.40    +76.3997
iter:  67 09:15:56  -860.855232c -5.63  -3.40    +76.3691
iter:  68 09:16:47  -860.855009c -5.67  -3.41    +76.3350
iter:  69 09:17:38  -860.855586c -6.08  -3.48    +76.3149
iter:  70 09:18:30  -860.856198c -6.05  -3.51    +76.2855
iter:  71 09:19:21  -860.856626c -6.02  -3.53    +76.2707
iter:  72 09:20:12  -860.857864c -5.87  -3.55    +76.2552
iter:  73 09:21:04  -860.857240c -5.84  -3.56    +76.2433
iter:  74 09:22:01  -860.857239c -6.17  -3.59    +76.2242
iter:  75 09:23:00  -860.857669c -6.31  -3.66    +76.2143
iter:  76 09:23:56  -860.857563c -6.54  -3.69    +76.2036
iter:  77 09:24:54  -860.857974c -6.48  -3.72    +76.1923
iter:  78 09:25:52  -860.858062c -6.36  -3.74    +76.1891
iter:  79 09:26:50  -860.857920c -6.29  -3.76    +76.1854
iter:  80 09:27:47  -860.857906c -6.48  -3.77    +76.1784
iter:  81 09:28:44  -860.857861c -6.81  -3.83    +76.1777
iter:  82 09:29:41  -860.857898c -6.83  -3.89    +76.1752
iter:  83 09:30:37  -860.857803c -6.81  -3.90    +76.1734
iter:  84 09:31:34  -860.857980c -6.74  -3.94    +76.1732
iter:  85 09:32:30  -860.857704c -6.69  -3.97    +76.1733
iter:  86 09:33:28  -860.857706c -6.96  -3.98    +76.1709
iter:  87 09:34:26  -860.857661c -6.99  -4.04c   +76.1724
iter:  88 09:35:25  -860.857613c -7.18  -4.08c   +76.1714
iter:  89 09:36:23  -860.857591c -7.18  -4.10c   +76.1694
iter:  90 09:37:21  -860.857661c -7.05  -4.12c   +76.1696
iter:  91 09:38:18  -860.857524c -7.13  -4.13c   +76.1691
iter:  92 09:39:15  -860.857587c -6.98  -4.15c   +76.1672
iter:  93 09:40:11  -860.857545c -7.34  -4.15c   +76.1688
iter:  94 09:41:08  -860.857516c -7.52c -4.22c   +76.1690

Converged after 94 iterations.

Dipole moment: (0.154529, -0.162536, 0.006798) |e|*Ang

Total magnetic moment: (0.000000, 0.000000, 76.169045)
Local magnetic moments:
   0 Cr ( 0.000000,  0.000000, -2.268670)
   1 Al ( 0.000000,  0.000000, -0.037110)
   2 Cr ( 0.000000,  0.000000, -2.227126)
   3 Co ( 0.000000,  0.000000,  1.214350)
   4 Fe ( 0.000000,  0.000000,  2.331987)
   5 Cr ( 0.000000,  0.000000, -2.155425)
   6 Ni ( 0.000000,  0.000000,  0.267101)
   7 Fe ( 0.000000,  0.000000,  2.464501)
   8 Cr ( 0.000000,  0.000000, -2.195178)
   9 Co ( 0.000000,  0.000000,  1.459811)
  10 Ni ( 0.000000,  0.000000,  0.283071)
  11 Fe ( 0.000000,  0.000000,  2.654021)
  12 Co ( 0.000000,  0.000000,  1.654950)
  13 Co ( 0.000000,  0.000000,  1.431375)
  14 Fe ( 0.000000,  0.000000,  2.505029)
  15 Fe ( 0.000000,  0.000000,  2.760068)
  16 Fe ( 0.000000,  0.000000,  2.579442)
  17 Fe ( 0.000000,  0.000000,  2.542706)
  18 Cr ( 0.000000,  0.000000, -1.677365)
  19 Co ( 0.000000,  0.000000,  1.570469)
  20 Fe ( 0.000000,  0.000000,  2.722003)
  21 Ni ( 0.000000,  0.000000,  0.312224)
  22 Co ( 0.000000,  0.000000,  1.600400)
  23 Cr ( 0.000000,  0.000000, -2.299258)
  24 Cr ( 0.000000,  0.000000, -2.286755)
  25 Ni ( 0.000000,  0.000000,  0.188931)
  26 Fe ( 0.000000,  0.000000,  2.726392)
  27 Ni ( 0.000000,  0.000000,  0.359483)
  28 Co ( 0.000000,  0.000000,  1.545074)
  29 Co ( 0.000000,  0.000000,  1.548087)
  30 Co ( 0.000000,  0.000000,  1.516267)
  31 Cr ( 0.000000,  0.000000,  1.995867)
  32 Al ( 0.000000,  0.000000, -0.021913)
  33 Cr ( 0.000000,  0.000000, -2.302459)
  34 Cr ( 0.000000,  0.000000,  2.200834)
  35 Cr ( 0.000000,  0.000000,  1.999951)
  36 Fe ( 0.000000,  0.000000,  2.660320)
  37 Co ( 0.000000,  0.000000,  1.288978)
  38 Cr ( 0.000000,  0.000000, -2.129751)
  39 Fe ( 0.000000,  0.000000,  2.419370)
  40 Co ( 0.000000,  0.000000,  1.384550)
  41 Ni ( 0.000000,  0.000000,  0.190827)
  42 Ni ( 0.000000,  0.000000,  0.335501)
  43 Al ( 0.000000,  0.000000, -0.017827)
  44 Fe ( 0.000000,  0.000000,  2.634676)
  45 Co ( 0.000000,  0.000000,  1.488119)
  46 Fe ( 0.000000,  0.000000,  2.468243)
  47 Ni ( 0.000000,  0.000000,  0.607950)
  48 Fe ( 0.000000,  0.000000,  2.743442)
  49 Fe ( 0.000000,  0.000000,  2.699984)
  50 Ni ( 0.000000,  0.000000,  0.518957)
  51 Ni ( 0.000000,  0.000000,  0.503277)
  52 Cr ( 0.000000,  0.000000, -1.835997)
  53 Co ( 0.000000,  0.000000,  1.634017)
  54 Fe ( 0.000000,  0.000000,  2.617584)
  55 Cr ( 0.000000,  0.000000, -2.370970)
  56 Co ( 0.000000,  0.000000,  1.555158)
  57 Fe ( 0.000000,  0.000000,  2.742637)
  58 Ni ( 0.000000,  0.000000,  0.486507)
  59 Fe ( 0.000000,  0.000000,  2.684577)
[...]
  93 Ni ( 0.000000,  0.000000,  0.244368)
  94 Co ( 0.000000,  0.000000,  1.588050)
  95 Cr ( 0.000000,  0.000000, -2.646193)
  96 Fe ( 0.000000,  0.000000,  2.729362)
  97 Ni ( 0.000000,  0.000000,  0.330837)
  98 Ni ( 0.000000,  0.000000,  0.517387)
  99 Fe ( 0.000000,  0.000000,  2.523941)
 100 Ni ( 0.000000,  0.000000,  0.514241)
 101 Cr ( 0.000000,  0.000000, -2.244704)
 102 Cr ( 0.000000,  0.000000, -2.315014)
 103 Cr ( 0.000000,  0.000000,  2.055415)
 104 Co ( 0.000000,  0.000000,  1.378539)
 105 Fe ( 0.000000,  0.000000,  2.100303)
 106 Cr ( 0.000000,  0.000000,  2.067327)
 107 Ni ( 0.000000,  0.000000,  0.262217)

Energy contributions relative to reference atoms: (reference = -3699400.456887)

Kinetic:       -187.581955
Potential:      +72.163373
External:        +0.000000
XC:            -779.073979
Entropy (-ST):   -4.645244
Local:          +35.957667
Free energy:   -863.180138
Extrapolated:  -860.857516

Spin contamination: 53.218431 electrons
Showing only first 2 kpts
                      Up                     Down
 Kpt  Band  Eigenvalues  Occupancy  Eigenvalues  Occupancy
  0   508      7.70552    0.99932      8.79958    0.02549
  0   509      7.72133    0.99921      8.81826    0.02124
  0   510      7.74526    0.99899      8.82020    0.02084
  0   511      7.75439    0.99890      8.84323    0.01662

  1   508      7.69936    0.99936      8.80523    0.02412
  1   509      7.71703    0.99924      8.82207    0.02046
  1   510      7.72867    0.99915      8.82694    0.01951
  1   511      7.75248    0.99892      8.84060    0.01706

Fermi level: 8.43520

No gap

Forces in eV/Ang:
  0 Cr   -0.20673   -0.39683   -0.76391
  1 Al   -0.35618    0.43336    0.11847
  2 Cr    0.44543   -0.77942    0.24477
  3 Co    0.27221    0.00723   -0.05975
  4 Fe   -0.36845    0.20567    0.35414
  5 Cr   -0.34212   -0.12758   -0.64188
  6 Ni   -0.08322    0.04548   -0.03908
  7 Fe    0.22263    0.02969    0.19068
  8 Cr    0.41076    0.21484    0.04202
  9 Co    0.26826    0.06739   -0.04585
 10 Ni   -0.13836   -0.04697    0.09088
 11 Fe   -0.33571   -0.07761   -0.10131
 12 Co   -0.03173    0.22984   -0.23600
 13 Co    0.15264   -0.36672    0.06730
 14 Fe    0.09700    0.23800   -0.11795
 15 Fe   -0.09983    0.03722   -0.41925
 16 Fe    0.18213    0.09701   -0.28045
 17 Fe    0.18540    0.09367    0.23131
 18 Cr    0.22743    0.32844   -0.35347
 19 Co   -0.48152   -0.09513    0.06826
 20 Fe   -0.08118    0.22802   -0.04525
 21 Ni   -0.05417   -0.09826    0.21452
 22 Co   -0.12032    0.15442    0.05910
 23 Cr    0.22319   -0.71370   -0.08277
 24 Cr    0.30571    0.48655   -0.08932
 25 Ni    0.03689    0.14941   -0.02968
 26 Fe   -0.00870    0.13274    0.23911
 27 Ni    0.06189    0.00005    0.03927
 28 Co   -0.03927   -0.25934    0.07308
 29 Co   -0.16251    0.03466    0.17769
 30 Co   -0.16437   -0.20924    0.22810
 31 Cr   -0.34310    0.01970    0.54280
 32 Al   -0.42948   -0.62291    0.07095
 33 Cr    0.01191    0.02355    0.70586
 34 Cr    0.14256   -0.45922    0.01482
 35 Cr    0.29148    0.92307    0.11728
 36 Fe    0.01546   -0.14319    0.28320
 37 Co   -0.01674   -0.01515    0.05409
 38 Cr    0.29432   -0.20948   -0.53237
 39 Fe    0.40004   -0.06803    0.31918
 40 Co   -0.21121   -0.35824    0.00826
 41 Ni   -0.02640    0.08934    0.05316
 42 Ni   -0.06960    0.10945    0.05870
 43 Al    0.29341   -0.52580    0.32333
 44 Fe    0.29754    0.32964   -0.28147
 45 Co    0.10327    0.15470   -0.03036
 46 Fe    0.24530    0.23195    0.12355
 47 Ni   -0.17412    0.00163    0.06948
 48 Fe   -0.12892    0.10083    0.27355
 49 Fe    0.12540   -0.27784    0.15273
 50 Ni    0.05447    0.09127    0.04938
 51 Ni    0.23410   -0.08005    0.03084
 52 Cr   -0.73678    0.42234    0.24772
 53 Co   -0.06807   -0.01295   -0.01624
 54 Fe   -0.11018   -0.02080    0.36906
 55 Cr    0.27511    0.43489    0.03449
 56 Co    0.19599    0.02514    0.02689
 57 Fe    0.02040    0.18729    0.18763
 58 Ni   -0.05402   -0.10881   -0.10743
 59 Fe   -0.10344   -0.25370   -0.00983
[...]
 93 Ni   -0.12339   -0.02903   -0.05322
 94 Co    0.05541   -0.14551    0.08630
 95 Cr    0.02009   -0.15380    0.12800
 96 Fe    0.24288    0.02591   -0.22473
 97 Ni    0.00572    0.03370   -0.09241
 98 Ni    0.09691   -0.12065   -0.11681
 99 Fe    0.09717   -0.10806   -0.02902
100 Ni   -0.04367   -0.11085   -0.01407
101 Cr   -0.79818    0.00624    0.00189
102 Cr    0.20550   -0.33803   -0.50818
103 Cr   -0.45595   -0.36883   -0.14801
104 Co   -0.14289   -0.17549    0.24938
105 Fe    0.49340    0.06647   -0.57043
106 Cr    0.14467   -0.23700   -0.17829
107 Ni    0.04021    0.11384    0.16942

Date: Sat Apr  8 09:41:22 2023