User:   c.zeng@d0135
Date:   Sat Apr  8 02:35:25 2023
Arch:   x86_64
Pid:    43085
CWD:    /home/c.zeng/projects/hea-corrosion/hea-mlp/data-curation/volume/dft-jobs/121
Python: 3.8.1
gpaw:   /home/c.zeng/usr/installs/gpaw/source/gpaw-22.8.0/gpaw
_gpaw:  /home/c.zeng/usr/installs/gpaw/source/gpaw-22.8.0/
        _gpaw.cpython-38-x86_64-linux-gnu.so
ase:    /home/c.zeng/.local/lib/python3.8/site-packages/ase-3.22.1-py3.8.egg/ase (version 3.22.1)
numpy:  /shared/centos7/python/3.8.1/lib/python3.8/site-packages/numpy (version 1.17.4)
scipy:  /shared/centos7/python/3.8.1/lib/python3.8/site-packages/scipy (version 1.4.1)
units:  Angstrom and eV
cores: 64
OpenMP: False
OMP_NUM_THREADS: 1

Input parameters:
  convergence: {energy: 0.0001}
  kpts: [2 2 2]
  maxiter: 666
  mode: {ecut: 350.0,
         name: pw}
  occupations: {fixmagmom: False,
                name: fermi-dirac,
                width: 0.1}
  spinpol: True
  xc: PBE

System changes: positions, numbers, cell, pbc, initial_charges, initial_magmoms

Initialize ...

species:
  Al:
    name: Aluminium
    id: 0292cae29f5d6237e50f6abdd43a7bdd
    Z: 13.0
    valence: 3
    core: 10
    charge: 0.0
    file: /home/c.zeng/usr/data/gpaw-setups-0.9.20000/Al.PBE.gz
    compensation charges: {type: gauss,
                           rc: 0.34,
                           lmax: 2}
    cutoffs: {filter: 1.91,
              core: 2.36}
    valence states:
      #              energy  rcut
      - 3s(2.00)    -7.753   1.085
      - 3p(1.00)    -2.712   1.085
      -  s          19.459   1.085
      -  p          24.499   1.085
      -  d           0.000   1.085

    # Using partial waves for Al as LCAO basis

  Fe:
    name: Iron
    id: 37abbd8d6c3c35915a9b583b742da910
    Z: 26.0
    valence: 8
    core: 18
    charge: 0.0
    file: /home/c.zeng/usr/data/gpaw-setups-0.9.20000/Fe.PBE.gz
    compensation charges: {type: gauss,
                           rc: 0.33,
                           lmax: 2}
    cutoffs: {filter: 2.06,
              core: 2.67}
    valence states:
      #              energy  rcut
      - 4s(2.00)    -5.291   1.164
      - 4p(0.00)    -1.326   1.058
      - 3d(6.00)    -7.505   1.058
      -  s          21.920   1.164
      -  p          25.885   1.058
      -  d          19.706   1.058

[...]

  Cr:
    name: Chromium
    id: 33f258bda2ca9f93018e70263a35547b
    Z: 24.0
    valence: 6
    core: 18
    charge: 0.0
    file: /home/c.zeng/usr/data/gpaw-setups-0.9.20000/Cr.PBE.gz
    compensation charges: {type: gauss,
                           rc: 0.35,
                           lmax: 2}
    cutoffs: {filter: 2.14,
              core: 3.04}
    valence states:
      #              energy  rcut
      - 4s(1.00)    -4.007   1.164
      - 4p(0.00)    -0.989   1.217
      - 3d(5.00)    -2.913   1.111
      -  s          23.205   1.164
      -  p          26.223   1.217
      -  d          24.299   1.111

[...]

  Ni:
    name: Nickel
    id: 0d9f38a9d6e76a2886f07bb4381f212b
    Z: 28.0
    valence: 16
    core: 12
    charge: 0.0
    file: /home/c.zeng/usr/data/gpaw-setups-0.9.20000/Ni.PBE.gz
    compensation charges: {type: gauss,
                           rc: 0.36,
                           lmax: 2}
    cutoffs: {filter: 2.14,
              core: 1.98}
    valence states:
      #              energy  rcut
      - 4s(2.00)    -5.642   1.164
      - 3p(6.00)   -71.394   1.207
      - 4p(0.00)    -1.226   1.207
      - 3d(8.00)    -8.875   1.138
      -  s          21.570   1.164
      -  d          18.337   1.138

[...]

  Co:
    name: Cobalt
    id: 339d20d5b0b93d2de9531a1bee871d91
    Z: 27.0
    valence: 9
    core: 18
    charge: 0.0
    file: /home/c.zeng/usr/data/gpaw-setups-0.9.20000/Co.PBE.gz
    compensation charges: {type: gauss,
                           rc: 0.32,
                           lmax: 2}
    cutoffs: {filter: 1.87,
              core: 2.55}
    valence states:
      #              energy  rcut
      - 4s(2.00)    -5.469   1.005
      - 4p(0.00)    -1.277   1.058
      - 3d(7.00)    -8.205   1.005
      -  s          21.742   1.005
      -  p          25.934   1.058
      -  d          19.007   1.005

    # Using partial waves for Co as LCAO basis

Reference energy: -3235165.067515  # eV

Spin-polarized calculation.
Magnetic moment: 121.100000

Convergence criteria:
 Maximum [total energy] change in last 3 cyles: 0.0001 eV / electron
 Maximum integral of absolute [dens]ity change: 0.0001 electrons / valence electron
 Maximum integral of absolute [eigenst]ate change: 4e-08 eV^2 / valence electron
 Maximum number of scf [iter]ations: 666
 (Square brackets indicate name in SCF output, whereas a 'c' in
 the SCF output indicates the quantity has converged.)

Symmetries present (total): 1

  ( 1  0  0)
  ( 0  1  0)
  ( 0  0  1)

8 k-points: 2 x 2 x 2 Monkhorst-Pack grid
4 k-points in the irreducible part of the Brillouin zone
       k-points in crystal coordinates                weights
   0:     0.25000000   -0.25000000   -0.25000000          2/8
   1:     0.25000000   -0.25000000    0.25000000          2/8
   2:     0.25000000    0.25000000   -0.25000000          2/8
   3:     0.25000000    0.25000000    0.25000000          2/8

Wave functions: Plane wave expansion
  Cutoff energy: 350.000 eV
  Number of coefficients (min, max): 21428, 21428
  Pulay-stress correction: 0.000000 eV/Ang^3 (de/decut=0.000000)
  Using FFTW library
  ScaLapack parameters: grid=1x1, blocksize=None
  Wavefunction extrapolation:
    Improved wavefunction reuse through dual PAW basis

Occupation numbers: Fermi-Dirac:
  width: 0.1000  # eV

Eigensolver
   Davidson(niter=2)

Densities:
  Coarse grid: 49*49*49 grid
  Fine grid: 98*98*98 grid
  Total Charge: 0.000000

Density mixing:
  Method: difference
  Backend: pulay
  Linear mixing parameter: 0.05
  old densities: 5
  Damping of long wavelength oscillations: 50

Hamiltonian:
  XC and Coulomb potentials evaluated on a 98*98*98 grid
  Using the PBE Exchange-Correlation functional
  External potential:
    NoExternalPotential

XC parameters: PBE with 2 nearest neighbor stencil

Total number of cores used: 64
Parallelization over k-points: 4
Domain decomposition: 4 x 2 x 2

Number of atoms: 108
Number of atomic orbitals: 933
Number of bands in calculation: 624
Number of valence electrons: 912
Bands to converge: occupied

... initialized

Initializing position-dependent things.

Density initialized from atomic densities
Creating initial wave functions:
  624 bands from LCAO basis set

        .--------Ni-----------------.
       /|   Cr       Ni             |
      / |    Cr       Co            |
     / Al                Ni         |
    /   |       Co                  |
   /    | Fe     Co AlCr     Al     |
  /     |   CoAlNi   FeCoFe   CrCr  |
 *    AlCr   CrFeCo FeCrCo Ni       |
 |     CrAl Al  Ni NiFe  Ni FeAl    |
 |      | Fe Cr  Al CoCrNi AlFeCr   |
 |      |  Fe NiCr   CrCrFe         |
 |     Co                     CrFe  |
 |    CoAl   CrAlNi NiAlNi NiCo     |
 |      |Co Al  Ni CoCo   CrCrCo   Al
 | Fe   .-Ni-Co-----NiAlCr---Fe-----.
 |     Ni     AlAl     Co Ni  NiCo /
 Fe   / Cr     FeFe     Co Al     Ni
 |   /   Co       Fe        FeFe /
 |  /      Al        Co         /
 | /         Fe         Ni     /e
 |/    Cr                     /
 *---------------------------Al

Positions:
   0 Al    11.299432    0.000110    0.000087    ( 0.0000,  0.0000,  0.0000)
   1 Fe    11.299489    1.883254    1.883254    ( 0.0000,  0.0000,  2.0000)
   2 Cr     1.883220   11.299489    1.883288    ( 0.0000,  0.0000,  0.0000)
   3 Cr     1.883220    1.883299    0.000029    ( 0.0000,  0.0000,  0.0000)
   4 Ni     3.766519   11.299466   11.299477    ( 0.0000,  0.0000,  1.5000)
   5 Al     3.766428    1.883355    1.883152    ( 0.0000,  0.0000,  0.0000)
   6 Al     5.649806   11.299432    1.883062    ( 0.0000,  0.0000,  0.0000)
   7 Ni     5.649795    1.883276   11.299477    ( 0.0000,  0.0000,  1.5000)
   8 Fe     7.533026    0.000013   11.299477    ( 0.0000,  0.0000,  2.0000)
   9 Co     7.533026    1.883242    1.883197    ( 0.0000,  0.0000,  2.1000)
  10 Ni     9.416246    0.000041    1.883231    ( 0.0000,  0.0000,  1.5000)
  11 Fe     9.416246    1.883254   11.299477    ( 0.0000,  0.0000,  2.0000)
  12 Fe    11.299489    3.766485    0.000032    ( 0.0000,  0.0000,  2.0000)
  13 Co    11.299489    5.649761    1.883242    ( 0.0000,  0.0000,  2.1000)
  14 Cr     1.883197    3.766496    1.883231    ( 0.0000,  0.0000,  0.0000)
  15 Co     1.883231    5.649761   11.299500    ( 0.0000,  0.0000,  2.1000)
  16 Fe     3.766519    3.766519    0.000006    ( 0.0000,  0.0000,  2.0000)
  17 Al     3.766553    5.649694    1.883163    ( 0.0000,  0.0000,  0.0000)
  18 Fe     5.649750    3.766519    1.883220    ( 0.0000,  0.0000,  2.0000)
  19 Fe     5.649750    5.649739    0.000018    ( 0.0000,  0.0000,  2.0000)
  20 Cr     7.532970    3.766496   11.299477    ( 0.0000,  0.0000,  0.0000)
  21 Co     7.532981    5.649784    1.883220    ( 0.0000,  0.0000,  2.1000)
  22 Al     9.416348    3.766474    1.883152    ( 0.0000,  0.0000,  0.0000)
  23 Fe     9.416246    5.649750    0.000006    ( 0.0000,  0.0000,  2.0000)
  24 Ni    -0.000001    7.532947    0.000035    ( 0.0000,  0.0000,  1.5000)
  25 Al    -0.000000    9.416212    1.883355    ( 0.0000,  0.0000,  0.0000)
  26 Ni     1.883231    7.533004    1.883242    ( 0.0000,  0.0000,  1.5000)
  27 Cr     1.883322    9.416190   11.299489    ( 0.0000,  0.0000,  0.0000)
  28 Fe     3.766496    7.533004    0.000003    ( 0.0000,  0.0000,  2.0000)
  29 Ni     3.766485    9.416224    1.883220    ( 0.0000,  0.0000,  1.5000)
  30 Ni     5.649784    7.532981    1.883209    ( 0.0000,  0.0000,  1.5000)
  31 Ni     5.649739    9.416246   11.299489    ( 0.0000,  0.0000,  1.5000)
  32 Co     7.533004    7.532981    0.000032    ( 0.0000,  0.0000,  2.1000)
  33 Cr     7.533026    9.416212    1.883197    ( 0.0000,  0.0000,  0.0000)
  34 Fe     9.416246    7.532970    1.883231    ( 0.0000,  0.0000,  2.0000)
  35 Ni     9.416190    9.416246    0.000022    ( 0.0000,  0.0000,  1.5000)
  36 Fe     0.000010    0.000027    3.766485    ( 0.0000,  0.0000,  2.0000)
  37 Co    11.299477    1.883242    5.649739    ( 0.0000,  0.0000,  2.1000)
  38 Cr     1.883209   11.299466    5.649761    ( 0.0000,  0.0000,  0.0000)
  39 Ni     1.883163    1.883242    3.766496    ( 0.0000,  0.0000,  1.5000)
  40 Al     3.766338   11.299353    3.766541    ( 0.0000,  0.0000,  0.0000)
  41 Al     3.766496    1.883265    5.649840    ( 0.0000,  0.0000,  0.0000)
  42 Cr     5.649773   11.299455    5.649829    ( 0.0000,  0.0000,  0.0000)
  43 Al     5.649795    1.883401    3.766530    ( 0.0000,  0.0000,  0.0000)
  44 Al     7.533128   11.299466    3.766530    ( 0.0000,  0.0000,  0.0000)
  45 Co     7.533038    1.883254    5.649795    ( 0.0000,  0.0000,  2.1000)
  46 Cr     9.416269    0.000030    5.649773    ( 0.0000,  0.0000,  0.0000)
  47 Ni     9.416325    1.883231    3.766508    ( 0.0000,  0.0000,  1.5000)
  48 Fe    11.299500    3.766485    3.766496    ( 0.0000,  0.0000,  2.0000)
  49 Fe    11.299477    5.649761    5.649727    ( 0.0000,  0.0000,  2.0000)
  50 Al     1.883186    3.766530    5.649660    ( 0.0000,  0.0000,  0.0000)
  51 Co     1.883197    5.649761    3.766530    ( 0.0000,  0.0000,  2.1000)
  52 Co     3.766508    3.766530    3.766496    ( 0.0000,  0.0000,  2.1000)
  53 Ni     3.766519    5.649784    5.649750    ( 0.0000,  0.0000,  1.5000)
  54 Ni     5.649750    3.766530    5.649750    ( 0.0000,  0.0000,  1.5000)
  55 Co     5.649761    5.649750    3.766496    ( 0.0000,  0.0000,  2.1000)
  56 Al     7.532947    3.766530    3.766530    ( 0.0000,  0.0000,  0.0000)
  57 Cr     7.533026    5.649795    5.649784    ( 0.0000,  0.0000,  0.0000)
  58 Ni     9.416291    3.766496    5.649784    ( 0.0000,  0.0000,  1.5000)
  59 Cr     9.416314    5.649806    3.766519    ( 0.0000,  0.0000,  0.0000)
[...]
  93 Co     7.533004    5.649727    9.416258    ( 0.0000,  0.0000,  2.1000)
  94 Ni     9.416224    3.766496    9.416258    ( 0.0000,  0.0000,  1.5000)
  95 Fe     9.416246    5.649750    7.532981    ( 0.0000,  0.0000,  2.0000)
  96 Al     0.000020    7.532970    7.532846    ( 0.0000,  0.0000,  0.0000)
  97 Al     0.000083    9.416280    9.416235    ( 0.0000,  0.0000,  0.0000)
  98 Fe     1.883288    7.533015    9.416258    ( 0.0000,  0.0000,  2.0000)
  99 Co     1.883299    9.416224    7.532981    ( 0.0000,  0.0000,  2.1000)
 100 Fe     3.766496    7.533038    7.532981    ( 0.0000,  0.0000,  2.0000)
 101 Co     3.766496    9.416246    9.416235    ( 0.0000,  0.0000,  2.1000)
 102 Al     5.649750    7.533049    9.416246    ( 0.0000,  0.0000,  0.0000)
 103 Fe     5.649739    9.416246    7.532992    ( 0.0000,  0.0000,  2.0000)
 104 Co     7.533004    7.533004    7.532959    ( 0.0000,  0.0000,  2.1000)
 105 Ni     7.532970    9.416303    9.416258    ( 0.0000,  0.0000,  1.5000)
 106 Al     9.416145    7.532913    9.416314    ( 0.0000,  0.0000,  0.0000)
 107 Cr     9.416201    9.416269    7.532959    ( 0.0000,  0.0000,  0.0000)

Unit cell:
           periodic     x           y           z      points  spacing
  1. axis:    yes   11.299500    0.000000    0.000000    49     0.2306
  2. axis:    yes    0.000000   11.299500    0.000000    49     0.2306
  3. axis:    yes    0.000000    0.000000   11.299500    49     0.2306

  Lengths:  11.299500  11.299500  11.299500
  Angles:   90.000000  90.000000  90.000000

Effective grid spacing dv^(1/3) = 0.2306

     iter     time        total  log10-change:  magmom
                         energy  eigst   dens
iter:   1 02:37:25  -984.115331                  +121.3865
iter:   2 02:38:14  -850.403044  -0.11  -1.16    +65.6521
iter:   3 02:39:03  -841.999696  -0.72  -1.16    +63.1449
iter:   4 02:39:54  -815.894228  -1.14  -1.23    +59.3565
iter:   5 02:40:44  -803.993270  -1.59  -1.29    +59.8079
iter:   6 02:41:34  -803.616936  -1.39  -1.35    +63.5623
iter:   7 02:42:24  -799.871362  -1.39  -1.40    +65.1323
iter:   8 02:43:14  -801.345431  -1.60  -1.50    +67.9235
iter:   9 02:44:03  -795.037988  -1.72  -1.54    +69.0651
iter:  10 02:44:53  -794.602083  -2.26  -1.71    +69.3702
iter:  11 02:45:42  -795.024927  -2.38  -1.75    +70.6469
iter:  12 02:46:32  -795.562236  -2.44  -1.78    +71.7434
iter:  13 02:47:22  -795.763507  -2.50  -1.82    +71.6866
iter:  14 02:48:11  -795.604980  -2.43  -1.84    +71.8188
iter:  15 02:49:00  -795.882440  -2.71  -1.95    +71.4998
iter:  16 02:49:50  -796.126207  -2.80  -1.99    +70.8966
iter:  17 02:50:39  -796.197004  -3.00  -2.03    +70.5592
iter:  18 02:51:28  -796.641807  -2.89  -2.09    +69.6247
iter:  19 02:52:18  -796.576342  -3.03  -2.11    +69.0144
iter:  20 02:53:07  -796.906216  -3.02  -2.20    +67.9577
iter:  21 02:53:57  -796.958588  -3.17  -2.22    +67.4552
iter:  22 02:54:45  -797.125265  -3.16  -2.28    +66.4154
iter:  23 02:55:35  -797.314661  -3.25  -2.35    +65.4987
iter:  24 02:56:24  -797.500451  -3.42  -2.38    +64.5394
iter:  25 02:57:13  -797.743077  -3.45  -2.41    +63.5328
iter:  26 02:58:02  -798.048781  -3.24  -2.41    +62.2263
iter:  27 02:58:52  -798.344687  -3.41  -2.39    +61.5851
iter:  28 02:59:41  -798.641825  -3.41  -2.34    +61.2757
iter:  29 03:00:31  -798.505895  -3.64  -2.28    +61.3118
iter:  30 03:01:20  -798.590962  -3.57  -2.32    +61.1524
iter:  31 03:02:09  -798.693222  -3.76  -2.33    +61.0965
iter:  32 03:02:58  -798.800262  -3.11  -2.31    +61.0727
iter:  33 03:03:47  -798.757983  -4.12  -2.30    +61.0012
iter:  34 03:04:37  -798.866116  -3.88  -2.32    +60.7382
iter:  35 03:05:25  -799.054029  -3.39  -2.31    +60.5888
iter:  36 03:06:15  -799.055384  -3.38  -2.27    +60.5468
iter:  37 03:07:04  -799.054004c -3.27  -2.25    +60.2201
iter:  38 03:07:53  -799.017319c -3.51  -2.30    +60.1204
iter:  39 03:08:42  -799.092981c -3.24  -2.30    +60.0701
iter:  40 03:09:31  -799.107040c -3.09  -2.32    +59.8929
iter:  41 03:10:21  -798.924399  -3.39  -2.37    +59.8194
iter:  42 03:11:10  -799.085415  -3.35  -2.44    +59.7387
iter:  43 03:11:59  -798.916678  -3.53  -2.43    +59.6877
iter:  44 03:12:47  -798.963821  -3.52  -2.56    +59.7606
iter:  45 03:13:36  -798.936372c -3.66  -2.52    +59.7322
iter:  46 03:14:25  -798.892268c -3.91  -2.62    +59.7301
iter:  47 03:15:14  -798.956403c -3.81  -2.70    +59.6876
iter:  48 03:16:04  -798.889625c -4.05  -2.64    +59.7181
iter:  49 03:16:53  -798.890262c -4.30  -2.77    +59.7008
iter:  50 03:17:42  -798.916560c -4.11  -2.80    +59.6839
iter:  51 03:18:31  -798.889171c -4.32  -2.78    +59.6807
iter:  52 03:19:20  -798.901693c -4.29  -2.86    +59.6520
iter:  53 03:20:09  -798.904416c -4.22  -2.85    +59.6484
iter:  54 03:20:58  -798.895177c -4.37  -2.88    +59.5741
iter:  55 03:21:47  -798.900591c -4.23  -2.99    +59.5540
iter:  56 03:22:36  -798.887052c -4.54  -2.93    +59.5625
iter:  57 03:23:25  -798.890078c -4.68  -3.09    +59.5310
iter:  58 03:24:14  -798.889115c -4.69  -3.10    +59.5143
iter:  59 03:25:03  -798.886416c -5.00  -3.12    +59.4794
iter:  60 03:25:53  -798.885869c -4.89  -3.24    +59.4749
iter:  61 03:26:42  -798.887274c -5.10  -3.19    +59.4546
iter:  62 03:27:32  -798.884904c -5.26  -3.32    +59.4306
iter:  63 03:28:21  -798.885543c -5.08  -3.37    +59.4217
iter:  64 03:29:10  -798.884289c -5.43  -3.33    +59.4137
iter:  65 03:29:59  -798.883981c -5.73  -3.55    +59.4083
iter:  66 03:30:50  -798.884308c -5.90  -3.55    +59.4049
iter:  67 03:31:39  -798.884624c -6.06  -3.62    +59.3987
iter:  68 03:32:28  -798.883981c -6.04  -3.67    +59.3988
iter:  69 03:33:18  -798.883989c -6.04  -3.77    +59.3917
iter:  70 03:34:07  -798.884678c -6.23  -3.78    +59.3899
iter:  71 03:34:56  -798.883825c -6.20  -3.83    +59.3905
iter:  72 03:35:46  -798.884108c -6.45  -3.87    +59.3884
iter:  73 03:36:35  -798.884038c -6.42  -3.91    +59.3852
iter:  74 03:37:25  -798.884050c -6.42  -3.95    +59.3844
iter:  75 03:38:14  -798.883989c -6.59  -3.99    +59.3812
iter:  76 03:39:04  -798.884762c -6.42  -4.06c   +59.3774
iter:  77 03:39:53  -798.884058c -6.72  -4.03c   +59.3761
iter:  78 03:40:42  -798.884321c -6.83  -4.13c   +59.3735
iter:  79 03:41:31  -798.884200c -7.13  -4.20c   +59.3715
iter:  80 03:42:21  -798.884338c -7.28  -4.26c   +59.3691
iter:  81 03:43:09  -798.884243c -7.37  -4.28c   +59.3690
iter:  82 03:43:55  -798.884264c -7.46c -4.28c   +59.3670

Converged after 82 iterations.

Dipole moment: (0.196347, -0.429495, 0.115738) |e|*Ang

Total magnetic moment: (0.000000, 0.000000, 59.366999)
Local magnetic moments:
   0 Al ( 0.000000,  0.000000,  0.003025)
   1 Fe ( 0.000000,  0.000000,  2.476413)
   2 Cr ( 0.000000,  0.000000, -2.482862)
   3 Cr ( 0.000000,  0.000000,  2.108164)
   4 Ni ( 0.000000,  0.000000,  0.103427)
   5 Al ( 0.000000,  0.000000, -0.009486)
   6 Al ( 0.000000,  0.000000, -0.014417)
   7 Ni ( 0.000000,  0.000000,  0.402767)
   8 Fe ( 0.000000,  0.000000,  2.760287)
   9 Co ( 0.000000,  0.000000,  1.086171)
  10 Ni ( 0.000000,  0.000000,  0.350313)
  11 Fe ( 0.000000,  0.000000,  2.461417)
  12 Fe ( 0.000000,  0.000000,  2.444223)
  13 Co ( 0.000000,  0.000000,  1.560716)
  14 Cr ( 0.000000,  0.000000, -2.625718)
  15 Co ( 0.000000,  0.000000,  1.235467)
  16 Fe ( 0.000000,  0.000000,  2.379727)
  17 Al ( 0.000000,  0.000000, -0.039669)
  18 Fe ( 0.000000,  0.000000,  2.522540)
  19 Fe ( 0.000000,  0.000000,  2.530940)
  20 Cr ( 0.000000,  0.000000, -2.742964)
  21 Co ( 0.000000,  0.000000,  1.364867)
  22 Al ( 0.000000,  0.000000, -0.033668)
  23 Fe ( 0.000000,  0.000000,  2.587970)
  24 Ni ( 0.000000,  0.000000,  0.101648)
  25 Al ( 0.000000,  0.000000, -0.016886)
  26 Ni ( 0.000000,  0.000000,  0.332373)
  27 Cr ( 0.000000,  0.000000, -2.170661)
  28 Fe ( 0.000000,  0.000000,  2.658919)
  29 Ni ( 0.000000,  0.000000,  0.263607)
  30 Ni ( 0.000000,  0.000000,  0.388384)
  31 Ni ( 0.000000,  0.000000,  0.322774)
  32 Co ( 0.000000,  0.000000,  1.574446)
  33 Cr ( 0.000000,  0.000000, -2.703327)
  34 Fe ( 0.000000,  0.000000,  2.648589)
  35 Ni ( 0.000000,  0.000000,  0.204662)
  36 Fe ( 0.000000,  0.000000,  2.390198)
  37 Co ( 0.000000,  0.000000,  1.360185)
  38 Cr ( 0.000000,  0.000000, -2.644021)
  39 Ni ( 0.000000,  0.000000,  0.020341)
  40 Al ( 0.000000,  0.000000,  0.007978)
  41 Al ( 0.000000,  0.000000, -0.005014)
  42 Cr ( 0.000000,  0.000000, -2.450183)
  43 Al ( 0.000000,  0.000000, -0.002107)
  44 Al ( 0.000000,  0.000000, -0.005564)
  45 Co ( 0.000000,  0.000000,  0.716506)
  46 Cr ( 0.000000,  0.000000, -2.603379)
  47 Ni ( 0.000000,  0.000000,  0.309197)
  48 Fe ( 0.000000,  0.000000,  2.606051)
  49 Fe ( 0.000000,  0.000000,  2.425730)
  50 Al ( 0.000000,  0.000000, -0.032429)
  51 Co ( 0.000000,  0.000000,  1.435099)
  52 Co ( 0.000000,  0.000000,  1.205560)
  53 Ni ( 0.000000,  0.000000,  0.463029)
  54 Ni ( 0.000000,  0.000000,  0.182473)
  55 Co ( 0.000000,  0.000000,  1.438922)
  56 Al ( 0.000000,  0.000000, -0.008970)
  57 Cr ( 0.000000,  0.000000, -2.620893)
  58 Ni ( 0.000000,  0.000000,  0.127188)
  59 Cr ( 0.000000,  0.000000, -2.549697)
[...]
  93 Co ( 0.000000,  0.000000,  1.561312)
  94 Ni ( 0.000000,  0.000000,  0.283475)
  95 Fe ( 0.000000,  0.000000,  2.431145)
  96 Al ( 0.000000,  0.000000, -0.031043)
  97 Al ( 0.000000,  0.000000, -0.011364)
  98 Fe ( 0.000000,  0.000000,  2.377335)
  99 Co ( 0.000000,  0.000000,  1.339612)
 100 Fe ( 0.000000,  0.000000,  2.615273)
 101 Co ( 0.000000,  0.000000,  1.576147)
 102 Al ( 0.000000,  0.000000, -0.051956)
 103 Fe ( 0.000000,  0.000000,  2.782836)
 104 Co ( 0.000000,  0.000000,  1.477494)
 105 Ni ( 0.000000,  0.000000,  0.450896)
 106 Al ( 0.000000,  0.000000, -0.029944)
 107 Cr ( 0.000000,  0.000000,  2.281817)

Energy contributions relative to reference atoms: (reference = -3235165.067515)

Kinetic:        -48.157764
Potential:       -4.908105
External:        +0.000000
XC:            -773.692912
Entropy (-ST):   -4.021028
Local:          +29.885031
Free energy:   -800.894778
Extrapolated:  -798.884264

Spin contamination: 47.305196 electrons
Showing only first 2 kpts
                      Up                     Down
 Kpt  Band  Eigenvalues  Occupancy  Eigenvalues  Occupancy
  0   454      7.52519    0.99869      8.52369    0.03385
  0   455      7.53741    0.99852      8.53708    0.02973
  0   456      7.54928    0.99833      8.55395    0.02523
  0   457      7.55173    0.99829      8.56286    0.02313

  1   454      7.52318    0.99871      8.51122    0.03817
  1   455      7.53151    0.99860      8.52958    0.03197
  1   456      7.55125    0.99830      8.54645    0.02714
  1   457      7.56548    0.99804      8.55043    0.02611

Fermi level: 8.18854

No gap

Forces in eV/Ang:
  0 Al   -0.84602    0.13841    0.36672
  1 Fe   -0.08437    0.08020    0.43817
  2 Cr   -0.05833    0.20165    0.05665
  3 Cr   -0.02023   -0.13979   -0.22408
  4 Ni   -0.15146   -0.27914   -0.19213
  5 Al   -0.34083    0.77854   -0.66932
  6 Al   -0.03737   -0.49904   -1.64978
  7 Ni    0.11396    0.06298   -0.07170
  8 Fe    0.29887   -0.05132   -0.24483
  9 Co   -0.02757   -0.08855   -0.10572
 10 Ni   -0.08352    0.11382   -0.01292
 11 Fe   -0.32244    0.13680    0.10526
 12 Fe   -0.02210    0.38423    0.03557
 13 Co    0.50445    0.14666   -0.09132
 14 Cr   -0.72962   -0.04418   -0.02267
 15 Co   -0.17864   -0.01396   -0.03595
 16 Fe    0.29345    0.43603   -0.01009
 17 Al    0.11468   -0.03102   -0.16200
 18 Fe    0.13733    0.21537   -0.03896
 19 Fe    0.43984   -0.07879    0.02555
 20 Cr   -0.44034   -0.04413   -0.35208
 21 Co   -0.29115    0.38886    0.05209
 22 Al    0.42548   -0.28829   -0.27490
 23 Fe   -0.22261    0.00834   -0.05284
 24 Ni    0.17984   -0.18378   -0.01126
 25 Al   -0.34755   -0.75207    0.16651
 26 Ni   -0.05357   -0.23573    0.01845
 27 Cr    0.86580   -0.69218   -0.10762
 28 Fe   -0.24308    0.40596    0.07662
 29 Ni   -0.05814   -0.01713   -0.05095
 30 Ni    0.10380   -0.25739   -0.22102
 31 Ni   -0.02702    0.03407   -0.04737
 32 Co   -0.07427   -0.15306    0.35316
 33 Cr    0.22831   -0.55414   -0.38465
 34 Fe   -0.28890   -0.62691   -0.26964
 35 Ni    0.01569    0.06441   -0.04359
 36 Fe    0.19783    0.71220    0.35930
 37 Co   -0.05436   -0.25934    0.04509
 38 Cr   -0.52778   -0.05011    0.61830
 39 Ni   -0.11318   -0.12994   -0.00496
 40 Al   -0.68150   -1.04139    0.31506
 41 Al   -0.23185    0.32761    0.40562
 42 Cr    0.37433   -0.42306    0.74807
 43 Al    0.56544    1.17007    0.50791
 44 Al    1.04831    0.30507    0.23930
 45 Co    0.11791   -0.18971    0.12211
 46 Cr   -0.08840    0.44797    0.35979
 47 Ni    0.29547   -0.01658   -0.10341
 48 Fe   -0.03490    0.08017    0.09169
 49 Fe   -0.15978   -0.15373   -0.33581
 50 Al   -0.12191   -0.15451   -0.95013
 51 Co   -0.37348    0.06985    0.16012
 52 Co    0.17954    0.39031   -0.08101
 53 Ni    0.13699   -0.07675   -0.01048
 54 Ni   -0.00851    0.08806   -0.03240
 55 Co    0.01002   -0.04136   -0.01330
 56 Al   -0.09965   -0.11470    0.38250
 57 Cr   -0.59509    0.90376    0.28380
 58 Ni   -0.04529    0.00370    0.14144
 59 Cr    0.78643    0.84807   -0.03146
[...]
 93 Co    0.08078   -0.27565   -0.03700
 94 Ni    0.00631    0.12070   -0.09510
 95 Fe   -0.21705   -0.30552   -0.05336
 96 Al    0.19515   -0.10062   -0.66723
 97 Al    0.07406    0.44744    0.03342
 98 Fe    0.18793    0.15059    0.21638
 99 Co    0.26160   -0.03505   -0.12711
100 Fe   -0.02123    0.39342   -0.37870
101 Co   -0.14608    0.40202   -0.13866
102 Al    0.86271    0.50685    0.05481
103 Fe    0.19734    0.35806   -0.30364
104 Co   -0.15231   -0.06156   -0.45978
105 Ni   -0.16249    0.15734    0.06785
106 Al   -1.19073   -0.04176    0.76109
107 Cr   -0.40650    0.71344   -0.40395

Date: Sat Apr  8 03:44:10 2023