User:   c.zeng@d0019
Date:   Sat Apr 15 06:18:47 2023
Arch:   x86_64
Pid:    116669
CWD:    /home/c.zeng/projects/hea-corrosion/hea-mlp/data-curation/bulk-mcmc/dft-jobs/222
Python: 3.8.1
gpaw:   /home/c.zeng/usr/installs/gpaw/source/gpaw-22.8.0/gpaw
_gpaw:  /home/c.zeng/usr/installs/gpaw/source/gpaw-22.8.0/
        _gpaw.cpython-38-x86_64-linux-gnu.so
ase:    /home/c.zeng/.local/lib/python3.8/site-packages/ase-3.22.1-py3.8.egg/ase (version 3.22.1)
numpy:  /shared/centos7/python/3.8.1/lib/python3.8/site-packages/numpy (version 1.17.4)
scipy:  /shared/centos7/python/3.8.1/lib/python3.8/site-packages/scipy (version 1.4.1)
units:  Angstrom and eV
cores: 30
OpenMP: False
OMP_NUM_THREADS: 1

Input parameters:
  convergence: {energy: 0.0001}
  kpts: [2 2 2]
  maxiter: 666
  mode: {ecut: 350.0,
         name: pw}
  occupations: {fixmagmom: False,
                name: fermi-dirac,
                width: 0.1}
  spinpol: True
  xc: PBE

System changes: positions, numbers, cell, pbc, initial_charges, initial_magmoms

Initialize ...

species:
  Cr:
    name: Chromium
    id: 33f258bda2ca9f93018e70263a35547b
    Z: 24.0
    valence: 6
    core: 18
    charge: 0.0
    file: /home/c.zeng/usr/data/gpaw-setups-0.9.20000/Cr.PBE.gz
    compensation charges: {type: gauss,
                           rc: 0.35,
                           lmax: 2}
    cutoffs: {filter: 2.14,
              core: 3.04}
    valence states:
      #              energy  rcut
      - 4s(1.00)    -4.007   1.164
      - 4p(0.00)    -0.989   1.217
      - 3d(5.00)    -2.913   1.111
      -  s          23.205   1.164
      -  p          26.223   1.217
      -  d          24.299   1.111

    # Using partial waves for Cr as LCAO basis

  Al:
    name: Aluminium
    id: 0292cae29f5d6237e50f6abdd43a7bdd
    Z: 13.0
    valence: 3
    core: 10
    charge: 0.0
    file: /home/c.zeng/usr/data/gpaw-setups-0.9.20000/Al.PBE.gz
    compensation charges: {type: gauss,
                           rc: 0.34,
                           lmax: 2}
    cutoffs: {filter: 1.91,
              core: 2.36}
    valence states:
      #              energy  rcut
      - 3s(2.00)    -7.753   1.085
      - 3p(1.00)    -2.712   1.085
      -  s          19.459   1.085
      -  p          24.499   1.085
      -  d           0.000   1.085

[...]

  Ni:
    name: Nickel
    id: 0d9f38a9d6e76a2886f07bb4381f212b
    Z: 28.0
    valence: 16
    core: 12
    charge: 0.0
    file: /home/c.zeng/usr/data/gpaw-setups-0.9.20000/Ni.PBE.gz
    compensation charges: {type: gauss,
                           rc: 0.36,
                           lmax: 2}
    cutoffs: {filter: 2.14,
              core: 1.98}
    valence states:
      #              energy  rcut
      - 4s(2.00)    -5.642   1.164
      - 3p(6.00)   -71.394   1.207
      - 4p(0.00)    -1.226   1.207
      - 3d(8.00)    -8.875   1.138
      -  s          21.570   1.164
      -  d          18.337   1.138

[...]

  Co:
    name: Cobalt
    id: 339d20d5b0b93d2de9531a1bee871d91
    Z: 27.0
    valence: 9
    core: 18
    charge: 0.0
    file: /home/c.zeng/usr/data/gpaw-setups-0.9.20000/Co.PBE.gz
    compensation charges: {type: gauss,
                           rc: 0.32,
                           lmax: 2}
    cutoffs: {filter: 1.87,
              core: 2.55}
    valence states:
      #              energy  rcut
      - 4s(2.00)    -5.469   1.005
      - 4p(0.00)    -1.277   1.058
      - 3d(7.00)    -8.205   1.005
      -  s          21.742   1.005
      -  p          25.934   1.058
      -  d          19.007   1.005

[...]

  Fe:
    name: Iron
    id: 37abbd8d6c3c35915a9b583b742da910
    Z: 26.0
    valence: 8
    core: 18
    charge: 0.0
    file: /home/c.zeng/usr/data/gpaw-setups-0.9.20000/Fe.PBE.gz
    compensation charges: {type: gauss,
                           rc: 0.33,
                           lmax: 2}
    cutoffs: {filter: 2.06,
              core: 2.67}
    valence states:
      #              energy  rcut
      - 4s(2.00)    -5.291   1.164
      - 4p(0.00)    -1.326   1.058
      - 3d(6.00)    -7.505   1.058
      -  s          21.920   1.164
      -  p          25.885   1.058
      -  d          19.706   1.058

    # Using partial waves for Fe as LCAO basis

Reference energy: -3235165.067515  # eV

Spin-polarized calculation.
Magnetic moment: 121.100000

Convergence criteria:
 Maximum [total energy] change in last 3 cyles: 0.0001 eV / electron
 Maximum integral of absolute [dens]ity change: 0.0001 electrons / valence electron
 Maximum integral of absolute [eigenst]ate change: 4e-08 eV^2 / valence electron
 Maximum number of scf [iter]ations: 666
 (Square brackets indicate name in SCF output, whereas a 'c' in
 the SCF output indicates the quantity has converged.)

Symmetries present (total): 1

  ( 1  0  0)
  ( 0  1  0)
  ( 0  0  1)

8 k-points: 2 x 2 x 2 Monkhorst-Pack grid
4 k-points in the irreducible part of the Brillouin zone
       k-points in crystal coordinates                weights
   0:     0.25000000   -0.25000000   -0.25000000          2/8
   1:     0.25000000   -0.25000000    0.25000000          2/8
   2:     0.25000000    0.25000000   -0.25000000          2/8
   3:     0.25000000    0.25000000    0.25000000          2/8

Wave functions: Plane wave expansion
  Cutoff energy: 350.000 eV
  Number of coefficients (min, max): 19084, 19084
  Pulay-stress correction: 0.000000 eV/Ang^3 (de/decut=0.000000)
  Using FFTW library
  ScaLapack parameters: grid=1x1, blocksize=None
  Wavefunction extrapolation:
    Improved wavefunction reuse through dual PAW basis

Occupation numbers: Fermi-Dirac:
  width: 0.1000  # eV

Eigensolver
   Davidson(niter=2)

Densities:
  Coarse grid: 48*48*48 grid
  Fine grid: 96*96*96 grid
  Total Charge: 0.000000

Density mixing:
  Method: difference
  Backend: pulay
  Linear mixing parameter: 0.05
  old densities: 5
  Damping of long wavelength oscillations: 50

Hamiltonian:
  XC and Coulomb potentials evaluated on a 96*96*96 grid
  Using the PBE Exchange-Correlation functional
  External potential:
    NoExternalPotential

XC parameters: PBE with 2 nearest neighbor stencil

Total number of cores used: 30
Parallelization over k-points: 2
Domain decomposition: 5 x 3 x 1

Number of atoms: 108
Number of atomic orbitals: 933
Number of bands in calculation: 624
Number of valence electrons: 912
Bands to converge: occupied

... initialized

Initializing position-dependent things.

Density initialized from atomic densities
Creating initial wave functions:
  624 bands from LCAO basis set

        .--------Al----------------.
       /|           Fe             |
      / |    FeFe     Ni           |
     / Ni       Cr       Al        |
    /   |Fe      NiCo       Fe     |
   /    | CrNi      ACo            |
  /    Co  FeiAlAl    Co Fe  CoAl  |
 *      Fe     AlCoAl   NiFe     Ni|
 |      |FeCr   NiFeFe   AlCrNi   Co
 |      | CoCr   AlCoCoAl CrCrFe   |
 |     Fe  Al CoCo  CrNi Cr  NiCr  |
 |      Cr  Ni CrCrCo CoNiCoAl   Fe|
 |      |CrCo   CoAlAl   CoNiFe   Fe
 |      .-FeCr-----NiNi-Al--CrFe---.
 |     Al  Cr CoNi    Al Co  Ni Cr/
 |    / Co              Cr       Ni
 |   /           Ali      CrFe  /
 |  /      Ni       Fe     NiAl/
 | /                   Fe     /r
 *--------------------------Cr

Positions:
   0 Cr    10.797848    0.093654    0.085777    ( 0.0000,  0.0000,  0.0000)
   1 Al    10.831824    1.844742    1.870716    ( 0.0000,  0.0000,  2.0000)
   2 Ni     1.786803   10.847372    1.827335    ( 0.0000,  0.0000,  0.0000)
   3 Co     1.769614    1.870531   -0.031264    ( 0.0000,  0.0000,  0.0000)
   4 Al     3.620857   10.822050   10.833629    ( 0.0000,  0.0000,  1.5000)
   5 Ni     3.571246    1.883176    1.708402    ( 0.0000,  0.0000,  0.0000)
   6 Co     5.521103   10.788063    1.666217    ( 0.0000,  0.0000,  0.0000)
   7 Al     5.520831    1.813973   10.830911    ( 0.0000,  0.0000,  1.5000)
   8 Al     7.330846    0.011025   10.815657    ( 0.0000,  0.0000,  2.0000)
   9 Fe     7.282018    1.809483    1.793250    ( 0.0000,  0.0000,  2.1000)
  10 Fe     9.029996    0.022005    1.811918    ( 0.0000,  0.0000,  1.5000)
  11 Fe     9.007196    1.868639   10.825714    ( 0.0000,  0.0000,  2.0000)
  12 Cr    10.861310    3.649723    0.014171    ( 0.0000,  0.0000,  2.0000)
  13 Cr    10.867442    5.463468    1.819235    ( 0.0000,  0.0000,  2.1000)
  14 Co     1.756088    3.650267    1.845949    ( 0.0000,  0.0000,  0.0000)
  15 Fe     1.790358    5.439092   10.869084    ( 0.0000,  0.0000,  2.1000)
  16 Ni     3.687842    3.622792   -0.049287    ( 0.0000,  0.0000,  2.0000)
  17 Co     3.667347    5.391145    1.745368    ( 0.0000,  0.0000,  0.0000)
  18 Al     5.497977    3.634415    1.792370    ( 0.0000,  0.0000,  2.0000)
  19 Ni     5.524908    5.448029    0.002551    ( 0.0000,  0.0000,  2.0000)
  20 Co     7.223340    3.611877   10.834270    ( 0.0000,  0.0000,  0.0000)
  21 Al     7.217762    5.474830    1.807776    ( 0.0000,  0.0000,  2.1000)
  22 Cr     9.073442    3.654344    1.775148    ( 0.0000,  0.0000,  0.0000)
  23 Ni     9.008740    5.418608    0.007692    ( 0.0000,  0.0000,  2.0000)
  24 Ni    10.859190    7.178720    0.014480    ( 0.0000,  0.0000,  1.5000)
  25 Fe    -0.018106    8.970948    1.875391    ( 0.0000,  0.0000,  0.0000)
  26 Fe     1.817615    7.224025    1.802546    ( 0.0000,  0.0000,  1.5000)
  27 Cr     1.880729    8.993464   10.874031    ( 0.0000,  0.0000,  0.0000)
  28 Fe     3.684428    7.260447   -0.001356    ( 0.0000,  0.0000,  2.0000)
  29 Co     3.612616    9.025636    1.761807    ( 0.0000,  0.0000,  1.5000)
  30 Ni     5.481440    7.275114    1.811211    ( 0.0000,  0.0000,  1.5000)
  31 Fe     5.461261    9.048153   10.833988    ( 0.0000,  0.0000,  1.5000)
  32 Cr     7.245704    7.257881    0.056891    ( 0.0000,  0.0000,  2.1000)
  33 Co     7.301969    9.004609    1.790315    ( 0.0000,  0.0000,  0.0000)
  34 Cr     9.029343    7.181775    1.815549    ( 0.0000,  0.0000,  2.0000)
  35 Ni     9.030561    9.042010    0.020232    ( 0.0000,  0.0000,  1.5000)
  36 Fe    -0.031046    0.001947    3.645701    ( 0.0000,  0.0000,  2.0000)
  37 Fe    10.825910    1.804351    5.434602    ( 0.0000,  0.0000,  2.1000)
  38 Ni     1.743552   10.849296    5.484376    ( 0.0000,  0.0000,  0.0000)
  39 Al     1.769755    1.791891    3.636068    ( 0.0000,  0.0000,  1.5000)
  40 Al     3.516667   10.719828    3.663227    ( 0.0000,  0.0000,  0.0000)
  41 Co     3.644244    1.785205    5.586728    ( 0.0000,  0.0000,  0.0000)
  42 Al     5.484778   10.815439    5.504022    ( 0.0000,  0.0000,  0.0000)
  43 Ni     5.457934    1.842230    3.658769    ( 0.0000,  0.0000,  0.0000)
  44 Cr     7.360615   10.815439    3.672229    ( 0.0000,  0.0000,  0.0000)
  45 Al     7.266884    1.811614    5.485528    ( 0.0000,  0.0000,  2.1000)
  46 Al     9.077986    0.023590    5.491921    ( 0.0000,  0.0000,  0.0000)
  47 Co     9.066788    1.824226    3.671175    ( 0.0000,  0.0000,  1.5000)
  48 Fe    -0.047135    3.649615    3.617291    ( 0.0000,  0.0000,  2.0000)
  49 Cr    10.809264    5.435993    5.379805    ( 0.0000,  0.0000,  2.0000)
  50 Cr     1.752316    3.624989    5.344676    ( 0.0000,  0.0000,  0.0000)
  51 Cr     1.805786    5.472046    3.619389    ( 0.0000,  0.0000,  2.1000)
  52 Cr     3.649408    3.633491    3.631251    ( 0.0000,  0.0000,  2.1000)
  53 Co     3.657628    5.433797    5.434015    ( 0.0000,  0.0000,  1.5000)
  54 Cr     5.413368    3.672642    5.480309    ( 0.0000,  0.0000,  1.5000)
  55 Al     5.413835    5.465588    3.639666    ( 0.0000,  0.0000,  2.1000)
  56 Ni     7.223449    3.731734    3.720829    ( 0.0000,  0.0000,  0.0000)
  57 Ni     7.220557    5.483180    5.485572    ( 0.0000,  0.0000,  0.0000)
  58 Co     9.069039    3.623673    5.469720    ( 0.0000,  0.0000,  1.5000)
  59 Ni     9.064766    5.503837    3.636731    ( 0.0000,  0.0000,  0.0000)
[...]
  93 Co     7.214631    5.385893    9.048577    ( 0.0000,  0.0000,  2.1000)
  94 Fe     8.994291    3.655975    9.039237    ( 0.0000,  0.0000,  1.5000)
  95 Cr     9.006577    5.423262    7.223296    ( 0.0000,  0.0000,  2.0000)
  96 Ni    -0.070637    7.291956    7.110419    ( 0.0000,  0.0000,  0.0000)
  97 Ni     0.073012    9.104570    9.068375    ( 0.0000,  0.0000,  0.0000)
  98 Cr     1.863247    7.257381    9.054785    ( 0.0000,  0.0000,  2.0000)
  99 Fe     1.858343    9.053708    7.225808    ( 0.0000,  0.0000,  2.1000)
 100 Al     3.683906    7.292456    7.235550    ( 0.0000,  0.0000,  2.0000)
 101 Cr     3.628218    9.069550    9.051262    ( 0.0000,  0.0000,  2.1000)
 102 Co     5.530605    7.331890    9.040129    ( 0.0000,  0.0000,  0.0000)
 103 Al     5.476232    9.097209    7.250467    ( 0.0000,  0.0000,  2.0000)
 104 Ni     7.256827    7.264242    7.208456    ( 0.0000,  0.0000,  2.1000)
 105 Al     7.272548    9.136437    9.056861    ( 0.0000,  0.0000,  1.5000)
 106 Fe     8.936493    7.190875    9.109767    ( 0.0000,  0.0000,  0.0000)
 107 Co     8.994682    9.112169    7.218480    ( 0.0000,  0.0000,  0.0000)

Unit cell:
           periodic     x           y           z      points  spacing
  1. axis:    yes   10.872400    0.000000    0.000000    48     0.2265
  2. axis:    yes    0.000000   10.872400    0.000000    48     0.2265
  3. axis:    yes    0.000000    0.000000   10.872400    48     0.2265

  Lengths:  10.872400  10.872400  10.872400
  Angles:   90.000000  90.000000  90.000000

Effective grid spacing dv^(1/3) = 0.2265

     iter     time        total  log10-change:  magmom
                         energy  eigst   dens
iter:   1 06:21:57  -894.892686                  +120.1010
iter:   2 06:23:12  -829.463398  -0.32  -1.29    +83.3402
iter:   3 06:24:28  -824.303035  -0.85  -1.31    +51.5958
iter:   4 06:25:44  -815.084140  -1.24  -1.34    +46.0956
iter:   5 06:26:59  -807.125882  -1.84  -1.38    +43.8776
iter:   6 06:28:15  -806.896857  -1.77  -1.44    +42.5506
iter:   7 06:29:31  -809.001549  -1.45  -1.50    +42.0773
iter:   8 06:30:46  -805.612983  -1.71  -1.56    +42.1235
iter:   9 06:32:02  -804.100958  -1.98  -1.64    +42.7100
iter:  10 06:33:18  -802.711091  -2.12  -1.73    +42.9636
iter:  11 06:34:33  -802.286595  -2.52  -1.81    +43.5825
iter:  12 06:35:49  -802.592925  -2.53  -1.86    +44.7718
iter:  13 06:37:05  -803.223922  -2.58  -1.92    +46.0083
iter:  14 06:38:20  -803.416376  -2.61  -1.94    +46.4892
iter:  15 06:39:36  -803.061247  -2.87  -1.98    +47.5589
iter:  16 06:40:51  -803.443553  -2.83  -2.09    +48.4464
iter:  17 06:42:07  -803.397938  -2.96  -2.12    +49.0164
iter:  18 06:43:22  -803.622306  -3.09  -2.19    +49.4935
iter:  19 06:44:38  -803.547458  -3.02  -2.18    +50.5438
iter:  20 06:45:54  -803.887619  -3.07  -2.31    +51.0382
iter:  21 06:47:10  -803.760043  -3.36  -2.28    +51.3482
iter:  22 06:48:25  -803.944107  -3.29  -2.38    +52.0813
iter:  23 06:49:41  -804.130882  -3.35  -2.42    +52.6824
iter:  24 06:50:56  -804.264941  -3.42  -2.44    +52.8539
iter:  25 06:52:11  -804.398560  -3.45  -2.47    +53.1130
iter:  26 06:53:27  -804.586233  -3.36  -2.50    +53.2256
iter:  27 06:54:43  -804.573571  -3.58  -2.50    +53.0439
iter:  28 06:55:58  -804.633528c -3.60  -2.59    +52.8678
iter:  29 06:57:14  -804.659812c -3.75  -2.64    +52.6980
iter:  30 06:58:30  -804.687514c -4.05  -2.72    +52.4734
iter:  31 06:59:46  -804.729504c -4.19  -2.77    +52.3112
iter:  32 07:01:02  -804.801212  -3.97  -2.80    +51.8473
iter:  33 07:02:17  -804.830496  -4.27  -2.79    +51.7164
iter:  34 07:03:33  -804.908794  -3.89  -2.84    +51.2011
iter:  35 07:04:49  -804.947838  -4.07  -2.85    +50.9065
iter:  36 07:06:05  -804.978666c -4.27  -2.84    +50.6717
iter:  37 07:07:21  -805.048808  -3.89  -2.86    +50.1373
iter:  38 07:08:37  -805.128351  -3.77  -2.80    +49.5904
iter:  39 07:09:52  -805.118554c -4.55  -2.72    +49.4838
iter:  40 07:11:08  -805.124654c -4.33  -2.75    +49.2695
iter:  41 07:12:24  -805.139820c -4.63  -2.80    +49.1037
iter:  42 07:13:40  -805.173962c -4.17  -2.78    +48.9647
iter:  43 07:14:55  -805.145208c -3.96  -2.73    +48.8288
iter:  44 07:16:11  -805.153415c -4.29  -2.87    +48.5644
iter:  45 07:17:27  -805.152216c -4.38  -2.94    +48.5036
iter:  46 07:18:43  -805.185365c -4.20  -2.98    +48.3434
iter:  47 07:19:59  -805.160443c -4.57  -2.92    +48.2654
iter:  48 07:21:14  -805.169231c -4.78  -3.11    +48.0968
iter:  49 07:22:30  -805.178710c -4.72  -3.16    +48.0215
iter:  50 07:23:46  -805.181672c -5.01  -3.15    +47.9310
iter:  51 07:25:02  -805.191679c -4.92  -3.21    +47.7459
iter:  52 07:26:18  -805.199989c -4.93  -3.25    +47.6334
iter:  53 07:27:34  -805.213290c -4.77  -3.24    +47.4607
iter:  54 07:28:49  -805.231503c -4.62  -3.23    +47.2961
iter:  55 07:30:05  -805.234092c -4.89  -3.12    +47.3058
iter:  56 07:31:21  -805.240353c -4.82  -3.14    +47.2325
iter:  57 07:32:37  -805.245849c -4.75  -3.11    +47.1253
iter:  58 07:33:53  -805.236533c -5.16  -3.09    +47.0953
iter:  59 07:35:08  -805.248376c -4.64  -3.16    +47.0851
iter:  60 07:36:24  -805.237597c -5.02  -3.06    +47.0885
iter:  61 07:37:40  -805.240409c -5.01  -3.19    +47.1013
iter:  62 07:38:56  -805.246333c -4.75  -3.20    +47.0800
iter:  63 07:40:11  -805.238254c -5.09  -3.13    +47.0314
iter:  64 07:41:27  -805.238771c -5.03  -3.30    +47.0295
iter:  65 07:42:43  -805.242578c -4.87  -3.21    +47.0292
iter:  66 07:43:59  -805.240115c -5.03  -3.23    +47.0108
iter:  67 07:45:15  -805.241898c -4.88  -3.30    +47.0008
iter:  68 07:46:30  -805.236499c -5.18  -3.25    +47.0269
iter:  69 07:47:46  -805.238298c -5.42  -3.41    +47.0394
iter:  70 07:49:02  -805.237879c -5.71  -3.38    +47.0278
iter:  71 07:50:17  -805.237340c -5.51  -3.46    +47.0330
iter:  72 07:51:33  -805.237598c -5.50  -3.41    +47.0461
iter:  73 07:52:49  -805.237513c -5.66  -3.45    +47.0499
iter:  74 07:54:05  -805.239240c -5.45  -3.59    +47.0474
iter:  75 07:55:20  -805.237539c -5.72  -3.52    +47.0545
iter:  76 07:56:36  -805.237681c -5.98  -3.66    +47.0854
iter:  77 07:57:52  -805.239261c -6.01  -3.71    +47.0854
iter:  78 07:59:08  -805.238313c -6.13  -3.70    +47.0857
iter:  79 08:00:23  -805.238405c -6.04  -3.79    +47.0957
iter:  80 08:01:38  -805.238670c -6.18  -3.77    +47.0996
iter:  81 08:02:54  -805.239033c -6.26  -3.86    +47.1009
iter:  82 08:04:09  -805.239505c -6.18  -3.93    +47.1042
iter:  83 08:05:25  -805.239359c -6.39  -3.88    +47.1153
iter:  84 08:06:41  -805.240084c -6.40  -4.07c   +47.1194
iter:  85 08:07:56  -805.239608c -6.78  -4.03c   +47.1210
iter:  86 08:09:12  -805.240141c -6.69  -4.13c   +47.1283
iter:  87 08:10:28  -805.240336c -6.78  -4.16c   +47.1315
iter:  88 08:11:44  -805.240546c -6.77  -4.24c   +47.1351
iter:  89 08:13:00  -805.240800c -6.88  -4.25c   +47.1421
iter:  90 08:14:16  -805.241166c -6.77  -4.28c   +47.1448
iter:  91 08:15:31  -805.241317c -6.73  -4.30c   +47.1483
iter:  92 08:16:47  -805.241607c -6.82  -4.34c   +47.1534
iter:  93 08:18:02  -805.242065c -6.51  -4.37c   +47.1611
iter:  94 08:19:18  -805.243716c -5.55  -4.35c   +47.1900
iter:  95 08:20:34  -805.243702c -6.63  -4.13c   +47.1930
iter:  96 08:21:49  -805.243936c -6.67  -4.13c   +47.1937
iter:  97 08:23:05  -805.244626c -5.99  -4.13c   +47.1954
iter:  98 08:24:21  -805.244745c -6.57  -4.06c   +47.2068
iter:  99 08:25:36  -805.244681c -6.52  -4.03c   +47.2169
iter: 100 08:26:52  -805.244971c -6.82  -4.01c   +47.2173
iter: 101 08:28:08  -805.245288c -6.96  -3.96    +47.2193
iter: 102 08:29:23  -805.245107c -5.98  -3.95    +47.2205
iter: 103 08:30:39  -805.245320c -6.08  -3.77    +47.2222
iter: 104 08:31:55  -805.244974c -6.81  -3.94    +47.2149
iter: 105 08:33:11  -805.244589c -6.44  -4.06c   +47.2162
iter: 106 08:34:26  -805.244736c -7.09  -4.02c   +47.2111
iter: 107 08:35:42  -805.244595c -6.61  -4.10c   +47.2028
iter: 108 08:36:57  -805.244754c -6.27  -4.10c   +47.2040
iter: 109 08:38:13  -805.244762c -6.71  -4.00c   +47.2043
iter: 110 08:39:29  -805.244584c -7.16  -4.22c   +47.1983
iter: 111 08:40:45  -805.244678c -7.46c -4.24c   +47.1981

Converged after 111 iterations.

Dipole moment: (29.255201, 16.343916, 7.185196) |e|*Ang

Total magnetic moment: (0.000000, 0.000000, 47.198098)
Local magnetic moments:
   0 Cr ( 0.000000,  0.000000, -2.359445)
   1 Al ( 0.000000,  0.000000, -0.025552)
   2 Ni ( 0.000000,  0.000000,  0.104483)
   3 Co ( 0.000000,  0.000000,  1.009842)
   4 Al ( 0.000000,  0.000000, -0.012641)
   5 Ni ( 0.000000,  0.000000,  0.103075)
   6 Co ( 0.000000,  0.000000,  1.151575)
   7 Al ( 0.000000,  0.000000, -0.025062)
   8 Al ( 0.000000,  0.000000, -0.044791)
   9 Fe ( 0.000000,  0.000000,  2.235852)
  10 Fe ( 0.000000,  0.000000,  2.204230)
  11 Fe ( 0.000000,  0.000000,  1.877239)
  12 Cr ( 0.000000,  0.000000,  1.138377)
  13 Cr ( 0.000000,  0.000000, -0.727901)
  14 Co ( 0.000000,  0.000000,  0.774089)
  15 Fe ( 0.000000,  0.000000,  2.045884)
  16 Ni ( 0.000000,  0.000000,  0.203463)
  17 Co ( 0.000000,  0.000000,  1.047302)
  18 Al ( 0.000000,  0.000000, -0.025993)
  19 Ni ( 0.000000,  0.000000,  0.272307)
  20 Co ( 0.000000,  0.000000,  1.133807)
  21 Al ( 0.000000,  0.000000,  0.003575)
  22 Cr ( 0.000000,  0.000000, -1.941194)
  23 Ni ( 0.000000,  0.000000,  0.164017)
  24 Ni ( 0.000000,  0.000000,  0.244812)
  25 Fe ( 0.000000,  0.000000,  2.288574)
  26 Fe ( 0.000000,  0.000000,  2.032496)
  27 Cr ( 0.000000,  0.000000, -1.159656)
  28 Fe ( 0.000000,  0.000000,  2.212082)
  29 Co ( 0.000000,  0.000000,  0.841979)
  30 Ni ( 0.000000,  0.000000,  0.011717)
  31 Fe ( 0.000000,  0.000000,  2.086143)
  32 Cr ( 0.000000,  0.000000, -1.774800)
  33 Co ( 0.000000,  0.000000,  0.935614)
  34 Cr ( 0.000000,  0.000000, -0.954922)
  35 Ni ( 0.000000,  0.000000, -0.001573)
  36 Fe ( 0.000000,  0.000000,  2.322360)
  37 Fe ( 0.000000,  0.000000,  1.775982)
  38 Ni ( 0.000000,  0.000000,  0.280519)
  39 Al ( 0.000000,  0.000000, -0.024894)
  40 Al ( 0.000000,  0.000000, -0.011877)
  41 Co ( 0.000000,  0.000000, -0.003870)
  42 Al ( 0.000000,  0.000000, -0.004685)
  43 Ni ( 0.000000,  0.000000,  0.022345)
  44 Cr ( 0.000000,  0.000000, -2.250575)
  45 Al ( 0.000000,  0.000000, -0.009231)
  46 Al ( 0.000000,  0.000000, -0.017110)
  47 Co ( 0.000000,  0.000000,  0.875662)
  48 Fe ( 0.000000,  0.000000,  1.694416)
  49 Cr ( 0.000000,  0.000000, -1.412113)
  50 Cr ( 0.000000,  0.000000, -1.720933)
  51 Cr ( 0.000000,  0.000000,  1.065250)
  52 Cr ( 0.000000,  0.000000,  1.559110)
  53 Co ( 0.000000,  0.000000,  0.255694)
  54 Cr ( 0.000000,  0.000000,  1.057412)
  55 Al ( 0.000000,  0.000000, -0.016430)
  56 Ni ( 0.000000,  0.000000,  0.080302)
  57 Ni ( 0.000000,  0.000000,  0.230821)
  58 Co ( 0.000000,  0.000000,  0.769734)
  59 Ni ( 0.000000,  0.000000, -0.026691)
[...]
  93 Co ( 0.000000,  0.000000,  1.311645)
  94 Fe ( 0.000000,  0.000000,  2.169007)
  95 Cr ( 0.000000,  0.000000, -1.842572)
  96 Ni ( 0.000000,  0.000000,  0.180462)
  97 Ni ( 0.000000,  0.000000,  0.177114)
  98 Cr ( 0.000000,  0.000000,  0.951573)
  99 Fe ( 0.000000,  0.000000,  2.286544)
 100 Al ( 0.000000,  0.000000, -0.031937)
 101 Cr ( 0.000000,  0.000000, -1.239037)
 102 Co ( 0.000000,  0.000000,  0.778324)
 103 Al ( 0.000000,  0.000000, -0.000979)
 104 Ni ( 0.000000,  0.000000,  0.212752)
 105 Al ( 0.000000,  0.000000, -0.018196)
 106 Fe ( 0.000000,  0.000000,  2.520694)
 107 Co ( 0.000000,  0.000000,  0.645555)

Energy contributions relative to reference atoms: (reference = -3235165.067515)

Kinetic:       +238.921368
Potential:     -231.268367
External:        +0.000000
XC:            -842.063487
Entropy (-ST):   -4.044248
Local:          +31.187932
Free energy:   -807.266802
Extrapolated:  -805.244678

Spin contamination: 30.456519 electrons
Showing only first 2 kpts
                      Up                     Down
 Kpt  Band  Eigenvalues  Occupancy  Eigenvalues  Occupancy
  0   454      9.07761    0.98919      9.84885    0.03931
  0   455      9.08594    0.98826      9.86567    0.03343
  0   456      9.11232    0.98477      9.87637    0.03014
  0   457      9.12777    0.98227      9.88206    0.02852

  1   454      9.07035    0.98994      9.83823    0.04353
  1   455      9.07830    0.98911      9.84852    0.03943
  1   456      9.11000    0.98511      9.86518    0.03359
  1   457      9.11712    0.98403      9.87431    0.03075

Fermi level: 9.52924

No gap

Forces in eV/Ang:
  0 Cr    0.37529   -0.59350   -0.72186
  1 Al   -0.01477   -0.05669   -0.27704
  2 Ni    0.04819   -0.00823   -0.02625
  3 Co    0.01581    0.05768   -0.06370
  4 Al   -0.17478    0.61947    1.15112
  5 Ni    0.38183   -0.44870    0.56576
  6 Co   -0.19079    0.17833    0.97896
  7 Al   -0.64051    0.24648    0.06912
  8 Al   -0.61636   -0.24714    1.98011
  9 Fe    0.33514   -0.07687    0.80321
 10 Fe    0.02626   -0.59529    0.41722
 11 Fe    0.47572    0.11159    0.02618
 12 Cr   -0.04086   -0.77547    0.49012
 13 Cr    0.00256    0.01051    0.11921
 14 Co    0.46562    0.07914   -0.40926
 15 Fe    0.48761   -0.12415    0.48092
 16 Ni   -0.44855   -0.06683    0.14895
 17 Co   -0.41319    0.40659    0.29772
 18 Al   -0.80360   -0.86283    0.01337
 19 Ni   -0.28040    0.09345   -0.22704
 20 Co    0.47607    0.16343   -0.12611
 21 Al    0.86018   -0.06020   -0.03540
 22 Cr   -0.34430   -0.36742    0.07390
 23 Ni   -0.08704    0.02696    0.00143
 24 Ni   -0.08203    0.64999   -0.14949
 25 Fe   -0.49036    0.20614   -0.87690
 26 Fe    0.13350   -0.14270   -0.29083
 27 Cr   -0.76305   -0.92490   -0.00507
 28 Fe    0.18128   -0.03174    0.43226
 29 Co    0.23424   -0.09818    0.17547
 30 Ni   -0.65395    0.03818    0.02299
 31 Fe   -0.13105   -0.49123    0.63815
 32 Cr   -0.16632    0.41821   -1.02493
 33 Co    0.02492    0.11731    0.46299
 34 Cr    0.82060    1.17063    0.29515
 35 Ni    0.39660    0.10507   -0.39782
 36 Fe   -0.37376   -0.36055   -0.04361
 37 Fe   -0.05165    0.69519   -0.29095
 38 Ni    0.80916    0.13206   -0.22431
 39 Al    0.88559   -0.04478    0.19448
 40 Al    1.50074    1.36165   -0.64642
 41 Co   -0.19712    0.60042   -0.59746
 42 Al   -1.40932    1.85026   -0.50927
 43 Ni   -0.10393   -0.53972   -0.12046
 44 Cr   -1.01642    0.26874   -1.95850
 45 Al   -0.55513    1.17280   -0.87306
 46 Al    0.26042   -0.95074   -0.79193
 47 Co   -0.24498    0.29636   -0.19674
 48 Fe   -0.27115    0.33948    0.33056
 49 Cr    0.23625    0.19514    0.13376
 50 Cr    0.75358    0.30500    0.83961
 51 Cr    0.52260   -0.14142    0.20921
 52 Cr   -0.64140   -0.29783    0.45759
 53 Co   -0.34957   -0.08073    0.18015
 54 Cr   -0.79422   -0.89403    0.72671
 55 Al   -0.10433    0.98588    0.77723
 56 Ni    0.06861   -0.25109   -0.60998
 57 Ni    0.14519   -0.22438   -0.03640
 58 Co    0.26145    0.17120   -0.08171
 59 Ni   -0.19130   -0.56079   -0.24194
[...]
 93 Co    0.02483    0.23479   -0.07715
 94 Fe   -0.21623   -0.23487   -0.03364
 95 Cr   -0.55393   -0.15049   -0.02710
 96 Ni    0.14579    0.02169    0.89790
 97 Ni   -0.49713   -0.44816   -0.00579
 98 Cr   -0.78050    0.90405    0.37701
 99 Fe   -0.72129   -0.05361    0.08519
100 Al   -0.30163   -0.98433   -0.86348
101 Cr   -0.57918   -0.51569    0.38876
102 Co   -0.27553   -0.66342    0.23351
103 Al   -0.48794   -0.54723    0.86121
104 Ni    0.05417   -0.18633    0.53073
105 Al   -0.11770   -1.78243   -0.70129
106 Fe    0.58587    0.36741   -0.52644
107 Co    0.98486   -0.78052    0.24670

Date: Sat Apr 15 08:41:02 2023