User:   c.zeng@d0127
Date:   Sat Apr 15 07:54:21 2023
Arch:   x86_64
Pid:    170150
CWD:    /home/c.zeng/projects/hea-corrosion/hea-mlp/data-curation/bulk-mcmc/dft-jobs/229
Python: 3.8.1
gpaw:   /home/c.zeng/usr/installs/gpaw/source/gpaw-22.8.0/gpaw
_gpaw:  /home/c.zeng/usr/installs/gpaw/source/gpaw-22.8.0/
        _gpaw.cpython-38-x86_64-linux-gnu.so
ase:    /home/c.zeng/.local/lib/python3.8/site-packages/ase-3.22.1-py3.8.egg/ase (version 3.22.1)
numpy:  /shared/centos7/python/3.8.1/lib/python3.8/site-packages/numpy (version 1.17.4)
scipy:  /shared/centos7/python/3.8.1/lib/python3.8/site-packages/scipy (version 1.4.1)
units:  Angstrom and eV
cores: 30
OpenMP: False
OMP_NUM_THREADS: 1

Input parameters:
  convergence: {energy: 0.0001}
  kpts: [2 2 2]
  maxiter: 666
  mode: {ecut: 350.0,
         name: pw}
  occupations: {fixmagmom: False,
                name: fermi-dirac,
                width: 0.1}
  spinpol: True
  xc: PBE

System changes: positions, numbers, cell, pbc, initial_charges, initial_magmoms

Initialize ...

species:
  Cr:
    name: Chromium
    id: 33f258bda2ca9f93018e70263a35547b
    Z: 24.0
    valence: 6
    core: 18
    charge: 0.0
    file: /home/c.zeng/usr/data/gpaw-setups-0.9.20000/Cr.PBE.gz
    compensation charges: {type: gauss,
                           rc: 0.35,
                           lmax: 2}
    cutoffs: {filter: 2.14,
              core: 3.04}
    valence states:
      #              energy  rcut
      - 4s(1.00)    -4.007   1.164
      - 4p(0.00)    -0.989   1.217
      - 3d(5.00)    -2.913   1.111
      -  s          23.205   1.164
      -  p          26.223   1.217
      -  d          24.299   1.111

    # Using partial waves for Cr as LCAO basis

  Al:
    name: Aluminium
    id: 0292cae29f5d6237e50f6abdd43a7bdd
    Z: 13.0
    valence: 3
    core: 10
    charge: 0.0
    file: /home/c.zeng/usr/data/gpaw-setups-0.9.20000/Al.PBE.gz
    compensation charges: {type: gauss,
                           rc: 0.34,
                           lmax: 2}
    cutoffs: {filter: 1.91,
              core: 2.36}
    valence states:
      #              energy  rcut
      - 3s(2.00)    -7.753   1.085
      - 3p(1.00)    -2.712   1.085
      -  s          19.459   1.085
      -  p          24.499   1.085
      -  d           0.000   1.085

[...]

  Ni:
    name: Nickel
    id: 0d9f38a9d6e76a2886f07bb4381f212b
    Z: 28.0
    valence: 16
    core: 12
    charge: 0.0
    file: /home/c.zeng/usr/data/gpaw-setups-0.9.20000/Ni.PBE.gz
    compensation charges: {type: gauss,
                           rc: 0.36,
                           lmax: 2}
    cutoffs: {filter: 2.14,
              core: 1.98}
    valence states:
      #              energy  rcut
      - 4s(2.00)    -5.642   1.164
      - 3p(6.00)   -71.394   1.207
      - 4p(0.00)    -1.226   1.207
      - 3d(8.00)    -8.875   1.138
      -  s          21.570   1.164
      -  d          18.337   1.138

[...]

  Co:
    name: Cobalt
    id: 339d20d5b0b93d2de9531a1bee871d91
    Z: 27.0
    valence: 9
    core: 18
    charge: 0.0
    file: /home/c.zeng/usr/data/gpaw-setups-0.9.20000/Co.PBE.gz
    compensation charges: {type: gauss,
                           rc: 0.32,
                           lmax: 2}
    cutoffs: {filter: 1.87,
              core: 2.55}
    valence states:
      #              energy  rcut
      - 4s(2.00)    -5.469   1.005
      - 4p(0.00)    -1.277   1.058
      - 3d(7.00)    -8.205   1.005
      -  s          21.742   1.005
      -  p          25.934   1.058
      -  d          19.007   1.005

[...]

  Fe:
    name: Iron
    id: 37abbd8d6c3c35915a9b583b742da910
    Z: 26.0
    valence: 8
    core: 18
    charge: 0.0
    file: /home/c.zeng/usr/data/gpaw-setups-0.9.20000/Fe.PBE.gz
    compensation charges: {type: gauss,
                           rc: 0.33,
                           lmax: 2}
    cutoffs: {filter: 2.06,
              core: 2.67}
    valence states:
      #              energy  rcut
      - 4s(2.00)    -5.291   1.164
      - 4p(0.00)    -1.326   1.058
      - 3d(6.00)    -7.505   1.058
      -  s          21.920   1.164
      -  p          25.885   1.058
      -  d          19.706   1.058

    # Using partial waves for Fe as LCAO basis

Reference energy: -3235165.067515  # eV

Spin-polarized calculation.
Magnetic moment: 121.100000

Convergence criteria:
 Maximum [total energy] change in last 3 cyles: 0.0001 eV / electron
 Maximum integral of absolute [dens]ity change: 0.0001 electrons / valence electron
 Maximum integral of absolute [eigenst]ate change: 4e-08 eV^2 / valence electron
 Maximum number of scf [iter]ations: 666
 (Square brackets indicate name in SCF output, whereas a 'c' in
 the SCF output indicates the quantity has converged.)

Symmetries present (total): 1

  ( 1  0  0)
  ( 0  1  0)
  ( 0  0  1)

8 k-points: 2 x 2 x 2 Monkhorst-Pack grid
4 k-points in the irreducible part of the Brillouin zone
       k-points in crystal coordinates                weights
   0:     0.25000000   -0.25000000   -0.25000000          2/8
   1:     0.25000000   -0.25000000    0.25000000          2/8
   2:     0.25000000    0.25000000   -0.25000000          2/8
   3:     0.25000000    0.25000000    0.25000000          2/8

Wave functions: Plane wave expansion
  Cutoff energy: 350.000 eV
  Number of coefficients (min, max): 19084, 19084
  Pulay-stress correction: 0.000000 eV/Ang^3 (de/decut=0.000000)
  Using FFTW library
  ScaLapack parameters: grid=1x1, blocksize=None
  Wavefunction extrapolation:
    Improved wavefunction reuse through dual PAW basis

Occupation numbers: Fermi-Dirac:
  width: 0.1000  # eV

Eigensolver
   Davidson(niter=2)

Densities:
  Coarse grid: 48*48*48 grid
  Fine grid: 96*96*96 grid
  Total Charge: 0.000000

Density mixing:
  Method: difference
  Backend: pulay
  Linear mixing parameter: 0.05
  old densities: 5
  Damping of long wavelength oscillations: 50

Hamiltonian:
  XC and Coulomb potentials evaluated on a 96*96*96 grid
  Using the PBE Exchange-Correlation functional
  External potential:
    NoExternalPotential

XC parameters: PBE with 2 nearest neighbor stencil

Total number of cores used: 30
Parallelization over k-points: 2
Domain decomposition: 5 x 3 x 1

Number of atoms: 108
Number of atomic orbitals: 933
Number of bands in calculation: 624
Number of valence electrons: 912
Bands to converge: occupied

... initialized

Initializing position-dependent things.

Density initialized from atomic densities
Creating initial wave functions:
  624 bands from LCAO basis set

        .--------Al----------------.
       /|           Fe             |
      / |    FeFe     Cr           |
     / Cr       Ni       Al        |
    /   |Fe      NiCo       Fe     |
   /    | NiCr      ACo            |
  /    Co  FeiAlAl    Co Fe  CoAl  |
 *      Fe     AlCoAl   NiFe     Ni|
 |      |FeNi   CrFeFe   AlCrCr   Co
 |      | CoCr   AlCoCoAl CrCrFe   |
 |     Fe  Al CoCo  CrNi Ni  NiNi  |
 |      Cr  Ni CrNiCo CoNiCoAl   Fe|
 |      |CrCo   CoAlAl   CoCrFe   Fe
 |      .-FeCr-----CrNi-Al--NiFe---.
 |     Al  Cr CoNi    Al Co  Ni Cr/
 |    / Co              Cr       Ni
 |   /           Ali      NiFe  /
 |  /      Ni       Fe     CrAl/
 | /                   Fe     /r
 *--------------------------Cr

Positions:
   0 Cr    10.797848    0.093654    0.085777    ( 0.0000,  0.0000,  0.0000)
   1 Al    10.831824    1.844742    1.870716    ( 0.0000,  0.0000,  2.0000)
   2 Ni     1.786803   10.847372    1.827335    ( 0.0000,  0.0000,  0.0000)
   3 Co     1.769614    1.870531   -0.031264    ( 0.0000,  0.0000,  0.0000)
   4 Al     3.620857   10.822050   10.833629    ( 0.0000,  0.0000,  1.5000)
   5 Ni     3.571246    1.883176    1.708402    ( 0.0000,  0.0000,  0.0000)
   6 Co     5.521103   10.788063    1.666217    ( 0.0000,  0.0000,  0.0000)
   7 Al     5.520831    1.813973   10.830911    ( 0.0000,  0.0000,  1.5000)
   8 Al     7.330846    0.011025   10.815657    ( 0.0000,  0.0000,  2.0000)
   9 Fe     7.282018    1.809483    1.793250    ( 0.0000,  0.0000,  2.1000)
  10 Fe     9.029996    0.022005    1.811918    ( 0.0000,  0.0000,  1.5000)
  11 Fe     9.007196    1.868639   10.825714    ( 0.0000,  0.0000,  2.0000)
  12 Cr    10.861310    3.649723    0.014171    ( 0.0000,  0.0000,  2.0000)
  13 Cr    10.867442    5.463468    1.819235    ( 0.0000,  0.0000,  2.1000)
  14 Co     1.756088    3.650267    1.845949    ( 0.0000,  0.0000,  0.0000)
  15 Fe     1.790358    5.439092   10.869084    ( 0.0000,  0.0000,  2.1000)
  16 Cr     3.687842    3.622792   -0.049287    ( 0.0000,  0.0000,  2.0000)
  17 Co     3.667347    5.391145    1.745368    ( 0.0000,  0.0000,  0.0000)
  18 Al     5.497977    3.634415    1.792370    ( 0.0000,  0.0000,  2.0000)
  19 Ni     5.524908    5.448029    0.002551    ( 0.0000,  0.0000,  2.0000)
  20 Co     7.223340    3.611877   10.834270    ( 0.0000,  0.0000,  0.0000)
  21 Al     7.217762    5.474830    1.807776    ( 0.0000,  0.0000,  2.1000)
  22 Ni     9.073442    3.654344    1.775148    ( 0.0000,  0.0000,  0.0000)
  23 Cr     9.008740    5.418608    0.007692    ( 0.0000,  0.0000,  2.0000)
  24 Ni    10.859190    7.178720    0.014480    ( 0.0000,  0.0000,  1.5000)
  25 Fe    -0.018106    8.970948    1.875391    ( 0.0000,  0.0000,  0.0000)
  26 Fe     1.817615    7.224025    1.802546    ( 0.0000,  0.0000,  1.5000)
  27 Cr     1.880729    8.993464   10.874031    ( 0.0000,  0.0000,  0.0000)
  28 Fe     3.684428    7.260447   -0.001356    ( 0.0000,  0.0000,  2.0000)
  29 Co     3.612616    9.025636    1.761807    ( 0.0000,  0.0000,  1.5000)
  30 Cr     5.481440    7.275114    1.811211    ( 0.0000,  0.0000,  1.5000)
  31 Fe     5.461261    9.048153   10.833988    ( 0.0000,  0.0000,  1.5000)
  32 Cr     7.245704    7.257881    0.056891    ( 0.0000,  0.0000,  2.1000)
  33 Co     7.301969    9.004609    1.790315    ( 0.0000,  0.0000,  0.0000)
  34 Ni     9.029343    7.181775    1.815549    ( 0.0000,  0.0000,  2.0000)
  35 Ni     9.030561    9.042010    0.020232    ( 0.0000,  0.0000,  1.5000)
  36 Fe    -0.031046    0.001947    3.645701    ( 0.0000,  0.0000,  2.0000)
  37 Fe    10.825910    1.804351    5.434602    ( 0.0000,  0.0000,  2.1000)
  38 Ni     1.743552   10.849296    5.484376    ( 0.0000,  0.0000,  0.0000)
  39 Al     1.769755    1.791891    3.636068    ( 0.0000,  0.0000,  1.5000)
  40 Al     3.516667   10.719828    3.663227    ( 0.0000,  0.0000,  0.0000)
  41 Co     3.644244    1.785205    5.586728    ( 0.0000,  0.0000,  0.0000)
  42 Al     5.484778   10.815439    5.504022    ( 0.0000,  0.0000,  0.0000)
  43 Ni     5.457934    1.842230    3.658769    ( 0.0000,  0.0000,  0.0000)
  44 Cr     7.360615   10.815439    3.672229    ( 0.0000,  0.0000,  0.0000)
  45 Al     7.266884    1.811614    5.485528    ( 0.0000,  0.0000,  2.1000)
  46 Al     9.077986    0.023590    5.491921    ( 0.0000,  0.0000,  0.0000)
  47 Co     9.066788    1.824226    3.671175    ( 0.0000,  0.0000,  1.5000)
  48 Fe    -0.047135    3.649615    3.617291    ( 0.0000,  0.0000,  2.0000)
  49 Ni    10.809264    5.435993    5.379805    ( 0.0000,  0.0000,  2.0000)
  50 Cr     1.752316    3.624989    5.344676    ( 0.0000,  0.0000,  0.0000)
  51 Cr     1.805786    5.472046    3.619389    ( 0.0000,  0.0000,  2.1000)
[...]
[...]
  93 Co     7.214631    5.385893    9.048577    ( 0.0000,  0.0000,  2.1000)
  94 Fe     8.994291    3.655975    9.039237    ( 0.0000,  0.0000,  1.5000)
  95 Cr     9.006577    5.423262    7.223296    ( 0.0000,  0.0000,  2.0000)
  96 Ni    -0.070637    7.291956    7.110419    ( 0.0000,  0.0000,  0.0000)
  97 Cr     0.073012    9.104570    9.068375    ( 0.0000,  0.0000,  0.0000)
  98 Ni     1.863247    7.257381    9.054785    ( 0.0000,  0.0000,  2.0000)
  99 Fe     1.858343    9.053708    7.225808    ( 0.0000,  0.0000,  2.1000)
 100 Al     3.683906    7.292456    7.235550    ( 0.0000,  0.0000,  2.0000)
 101 Ni     3.628218    9.069550    9.051262    ( 0.0000,  0.0000,  2.1000)
 102 Co     5.530605    7.331890    9.040129    ( 0.0000,  0.0000,  0.0000)
 103 Al     5.476232    9.097209    7.250467    ( 0.0000,  0.0000,  2.0000)
 104 Ni     7.256827    7.264242    7.208456    ( 0.0000,  0.0000,  2.1000)
 105 Al     7.272548    9.136437    9.056861    ( 0.0000,  0.0000,  1.5000)
 106 Fe     8.936493    7.190875    9.109767    ( 0.0000,  0.0000,  0.0000)
 107 Co     8.994682    9.112169    7.218480    ( 0.0000,  0.0000,  0.0000)

Unit cell:
           periodic     x           y           z      points  spacing
  1. axis:    yes   10.872400    0.000000    0.000000    48     0.2265
  2. axis:    yes    0.000000   10.872400    0.000000    48     0.2265
  3. axis:    yes    0.000000    0.000000   10.872400    48     0.2265

  Lengths:  10.872400  10.872400  10.872400
  Angles:   90.000000  90.000000  90.000000

Effective grid spacing dv^(1/3) = 0.2265

     iter     time        total  log10-change:  magmom
                         energy  eigst   dens
iter:   1 07:58:09  -907.072047                  +120.1134
iter:   2 07:59:36  -843.418973  -0.28  -1.26    +84.0006
iter:   3 08:01:04  -834.549613  -0.79  -1.28    +50.7167
iter:   4 08:02:32  -812.812526  -1.26  -1.30    +45.0110
iter:   5 08:04:00  -806.983488  -1.79  -1.38    +42.0797
iter:   6 08:05:28  -810.907980  -1.77  -1.43    +41.2622
iter:   7 08:06:56  -808.303558  -1.54  -1.44    +40.5475
iter:   8 08:08:25  -803.454805  -1.67  -1.51    +40.5900
iter:   9 08:09:53  -808.397941  -1.78  -1.65    +41.3769
iter:  10 08:11:20  -801.301211  -1.93  -1.61    +41.6010
iter:  11 08:12:48  -801.441300  -2.41  -1.81    +42.8279
iter:  12 08:14:16  -801.608750  -2.55  -1.85    +44.3806
iter:  13 08:15:44  -802.542196  -2.57  -1.88    +46.2171
iter:  14 08:17:12  -803.259662  -2.45  -1.91    +46.9915
iter:  15 08:18:40  -802.636987  -2.56  -1.93    +48.6193
iter:  16 08:20:08  -802.598244  -2.77  -2.02    +49.9053
iter:  17 08:21:36  -802.795208  -2.96  -2.10    +51.0861
iter:  18 08:23:04  -803.071812  -2.94  -2.12    +52.3234
iter:  19 08:24:31  -803.077532  -3.01  -2.16    +53.1065
iter:  20 08:26:00  -803.342447  -2.94  -2.21    +54.1717
iter:  21 08:27:28  -803.530405  -2.98  -2.24    +54.5492
iter:  22 08:28:56  -803.306370  -3.13  -2.26    +55.5512
iter:  23 08:30:24  -803.505432  -3.17  -2.40    +56.2248
iter:  24 08:31:51  -803.521320  -3.44  -2.41    +56.5139
iter:  25 08:33:19  -803.623770  -3.47  -2.44    +57.2110
iter:  26 08:34:47  -803.724720  -3.57  -2.48    +57.5878
iter:  27 08:36:15  -803.741610  -3.80  -2.47    +57.8807
iter:  28 08:37:43  -803.965277  -3.44  -2.55    +58.1921
iter:  29 08:39:11  -803.904532  -3.78  -2.49    +58.2618
iter:  30 08:40:39  -803.999924  -3.62  -2.60    +58.3368
iter:  31 08:42:07  -804.032530  -3.72  -2.63    +58.3519
iter:  32 08:43:35  -804.016416c -3.76  -2.65    +58.3405
iter:  33 08:45:03  -804.067593c -4.08  -2.81    +58.2984
iter:  34 08:46:31  -804.104276c -4.12  -2.85    +58.3000
iter:  35 08:47:59  -804.125758c -4.20  -2.82    +58.1777
iter:  36 08:49:27  -804.158133c -4.39  -2.88    +58.1343
iter:  37 08:50:55  -804.215348c -4.12  -2.89    +58.0416
iter:  38 08:52:23  -804.328269  -3.53  -2.90    +57.8409
iter:  39 08:53:51  -804.459018  -3.17  -2.82    +57.7066
iter:  40 08:55:19  -804.449621  -4.25  -2.68    +57.8919
iter:  41 08:56:47  -804.486245c -4.15  -2.74    +58.0073
iter:  42 08:58:15  -804.485566c -4.67  -2.66    +58.1311
iter:  43 08:59:43  -804.469305c -4.04  -2.70    +58.2580
iter:  44 09:01:11  -804.494161c -3.47  -2.67    +58.2266
iter:  45 09:02:39  -804.402050  -4.02  -2.63    +58.0586
iter:  46 09:04:07  -804.459446  -3.75  -2.81    +57.9949
iter:  47 09:05:36  -804.390429c -4.21  -2.72    +58.0299
iter:  48 09:07:04  -804.407746c -4.35  -2.95    +57.9555
iter:  49 09:08:32  -804.395258c -4.48  -2.88    +57.9636
iter:  50 09:10:00  -804.420388c -4.25  -3.03    +58.0646
iter:  51 09:11:28  -804.402492c -4.29  -2.94    +58.0798
iter:  52 09:12:56  -804.404768c -4.55  -3.06    +58.0793
iter:  53 09:14:24  -804.409824c -4.60  -3.21    +58.1075
iter:  54 09:15:52  -804.415040c -4.78  -3.15    +58.1721
iter:  55 09:17:20  -804.418492c -4.85  -3.23    +58.2548
iter:  56 09:18:48  -804.420877c -5.37  -3.31    +58.2688
iter:  57 09:20:16  -804.429949c -5.14  -3.34    +58.3424
iter:  58 09:21:43  -804.428340c -6.03  -3.36    +58.3447
iter:  59 09:23:11  -804.432330c -5.28  -3.38    +58.4007
iter:  60 09:24:40  -804.435715c -4.94  -3.41    +58.3894
iter:  61 09:26:08  -804.443063c -4.63  -3.34    +58.4480
iter:  62 09:27:36  -804.448885c -5.10  -3.30    +58.5189
iter:  63 09:29:03  -804.456152c -4.94  -3.42    +58.6104
iter:  64 09:30:31  -804.468205c -4.82  -3.50    +58.7306
iter:  65 09:31:59  -804.460595c -5.33  -3.60    +58.6555
iter:  66 09:33:27  -804.469910c -5.22  -3.60    +58.7474
iter:  67 09:34:56  -804.478078c -5.16  -3.69    +58.8296
iter:  68 09:36:24  -804.496198c -4.61  -3.69    +58.9844
iter:  69 09:37:52  -804.541848c -3.83  -3.63    +59.3574
iter:  70 09:39:20  -804.557813c -4.23  -3.28    +59.4916
iter:  71 09:40:48  -804.568287c -4.57  -3.18    +59.5595
iter:  72 09:42:16  -804.586218c -4.02  -3.12    +59.7250
iter:  73 09:43:44  -804.592889c -4.34  -3.02    +59.7864
iter:  74 09:45:12  -804.601260c -4.33  -2.98    +59.8336
iter:  75 09:46:41  -804.602458c -4.79  -2.86    +59.7921
iter:  76 09:48:10  -804.599150c -4.48  -2.91    +59.7761
iter:  77 09:49:38  -804.572053c -4.59  -2.88    +59.7628
iter:  78 09:51:07  -804.586125c -3.95  -2.92    +59.7223
iter:  79 09:52:35  -804.567598c -4.26  -2.84    +59.6636
iter:  80 09:54:03  -804.560393c -4.49  -2.88    +59.5997
iter:  81 09:55:31  -804.600603c -4.03  -3.01    +59.5160
iter:  82 09:57:00  -804.555085c -4.36  -2.87    +59.4590
iter:  83 09:58:28  -804.551848c -4.58  -3.13    +59.4847
iter:  84 09:59:56  -804.560003c -4.41  -3.21    +59.4472
iter:  85 10:01:24  -804.553276c -4.69  -3.13    +59.4382
iter:  86 10:02:52  -804.547386c -5.04  -3.27    +59.4202
iter:  87 10:04:20  -804.547937c -5.12  -3.37    +59.4271
iter:  88 10:05:48  -804.548012c -5.31  -3.39    +59.4309
iter:  89 10:07:16  -804.547560c -5.41  -3.46    +59.4156
iter:  90 10:08:44  -804.546486c -5.68  -3.51    +59.4222
iter:  91 10:10:12  -804.548227c -5.40  -3.58    +59.4258
iter:  92 10:11:40  -804.549757c -5.42  -3.49    +59.4410
iter:  93 10:13:08  -804.547133c -5.59  -3.53    +59.4396
iter:  94 10:14:36  -804.546516c -5.58  -3.64    +59.4433
iter:  95 10:16:05  -804.546897c -5.71  -3.62    +59.4528
iter:  96 10:17:34  -804.546863c -5.89  -3.69    +59.4601
iter:  97 10:19:02  -804.546715c -5.87  -3.77    +59.4731
iter:  98 10:20:30  -804.545948c -6.17  -3.75    +59.4748
iter:  99 10:21:58  -804.546514c -6.21  -3.85    +59.4923
iter: 100 10:23:25  -804.547030c -6.31  -3.86    +59.4953
iter: 101 10:24:53  -804.546706c -6.29  -3.85    +59.5008
iter: 102 10:26:21  -804.546319c -6.05  -3.94    +59.5084
iter: 103 10:27:49  -804.546700c -6.04  -3.86    +59.5105
iter: 104 10:29:17  -804.546672c -6.19  -3.98    +59.5233
iter: 105 10:30:45  -804.546249c -6.23  -4.12c   +59.5274
iter: 106 10:32:13  -804.546224c -6.52  -3.99    +59.5314
iter: 107 10:33:41  -804.546385c -6.77  -4.20c   +59.5394
iter: 108 10:35:09  -804.546495c -6.92  -4.25c   +59.5463
iter: 109 10:36:37  -804.546731c -6.68  -4.26c   +59.5568
iter: 110 10:38:05  -804.546736c -6.92  -4.18c   +59.5623
iter: 111 10:39:33  -804.546571c -6.86  -4.21c   +59.5710
iter: 112 10:41:01  -804.546603c -6.85  -4.21c   +59.5791
iter: 113 10:42:28  -804.546784c -6.89  -4.23c   +59.5849
iter: 114 10:43:56  -804.546815c -7.22  -4.24c   +59.5904
iter: 115 10:45:24  -804.546968c -6.68  -4.30c   +59.6043
iter: 116 10:46:52  -804.546918c -6.90  -4.32c   +59.6138
iter: 117 10:48:20  -804.546761c -7.08  -4.25c   +59.6160
iter: 118 10:49:48  -804.546621c -7.18  -4.16c   +59.6186
iter: 119 10:51:16  -804.546790c -7.07  -4.16c   +59.6298
iter: 120 10:52:44  -804.546901c -6.92  -4.17c   +59.6398
iter: 121 10:54:12  -804.546896c -6.80  -4.09c   +59.6404
iter: 122 10:55:40  -804.547903c -6.40  -4.12c   +59.6551
iter: 123 10:57:09  -804.547590c -6.56  -3.98    +59.6604
iter: 124 10:58:37  -804.547306c -6.56  -4.08c   +59.6680
iter: 125 11:00:05  -804.547334c -6.86  -4.16c   +59.6721
iter: 126 11:01:33  -804.547476c -7.20  -4.15c   +59.6747
iter: 127 11:03:01  -804.547377c -6.92  -4.23c   +59.6805
iter: 128 11:04:29  -804.547551c -6.49  -4.32c   +59.6880
iter: 129 11:05:56  -804.547513c -6.70  -4.14c   +59.6891
iter: 130 11:07:24  -804.547569c -6.75  -4.31c   +59.6928
iter: 131 11:08:52  -804.547387c -7.14  -4.37c   +59.6960
iter: 132 11:10:20  -804.547452c -7.37  -4.51c   +59.7020
iter: 133 11:11:48  -804.547506c -7.45c -4.54c   +59.7066

Converged after 133 iterations.

Dipole moment: (28.343107, 16.533895, 7.665604) |e|*Ang

Total magnetic moment: (0.000000, 0.000000, 59.706630)
Local magnetic moments:
   0 Cr ( 0.000000,  0.000000, -2.073093)
   1 Al ( 0.000000,  0.000000, -0.029340)
   2 Ni ( 0.000000,  0.000000,  0.084859)
   3 Co ( 0.000000,  0.000000,  0.425884)
   4 Al ( 0.000000,  0.000000, -0.023861)
   5 Ni ( 0.000000,  0.000000,  0.106730)
   6 Co ( 0.000000,  0.000000,  1.220371)
   7 Al ( 0.000000,  0.000000, -0.029667)
   8 Al ( 0.000000,  0.000000, -0.047956)
   9 Fe ( 0.000000,  0.000000,  2.331097)
  10 Fe ( 0.000000,  0.000000,  2.144177)
  11 Fe ( 0.000000,  0.000000,  1.788708)
  12 Cr ( 0.000000,  0.000000,  0.572210)
  13 Cr ( 0.000000,  0.000000, -1.207403)
  14 Co ( 0.000000,  0.000000,  0.604515)
  15 Fe ( 0.000000,  0.000000,  2.072076)
  16 Cr ( 0.000000,  0.000000,  1.441105)
  17 Co ( 0.000000,  0.000000,  0.514681)
  18 Al ( 0.000000,  0.000000, -0.022252)
  19 Ni ( 0.000000,  0.000000,  0.254225)
  20 Co ( 0.000000,  0.000000,  1.112611)
  21 Al ( 0.000000,  0.000000,  0.001064)
  22 Ni ( 0.000000,  0.000000,  0.195192)
  23 Cr ( 0.000000,  0.000000,  0.961578)
  24 Ni ( 0.000000,  0.000000,  0.230735)
  25 Fe ( 0.000000,  0.000000,  2.425611)
  26 Fe ( 0.000000,  0.000000,  2.015967)
  27 Cr ( 0.000000,  0.000000, -2.000115)
  28 Fe ( 0.000000,  0.000000,  2.243519)
  29 Co ( 0.000000,  0.000000,  0.842129)
  30 Cr ( 0.000000,  0.000000,  1.335385)
  31 Fe ( 0.000000,  0.000000,  1.960033)
  32 Cr ( 0.000000,  0.000000, -1.756148)
  33 Co ( 0.000000,  0.000000,  1.058751)
  34 Ni ( 0.000000,  0.000000,  0.122684)
  35 Ni ( 0.000000,  0.000000,  0.078589)
  36 Fe ( 0.000000,  0.000000,  2.362705)
  37 Fe ( 0.000000,  0.000000,  2.030311)
  38 Ni ( 0.000000,  0.000000,  0.296346)
  39 Al ( 0.000000,  0.000000, -0.031734)
  40 Al ( 0.000000,  0.000000, -0.018783)
  41 Co ( 0.000000,  0.000000,  0.970768)
  42 Al ( 0.000000,  0.000000, -0.013841)
  43 Ni ( 0.000000,  0.000000,  0.007548)
  44 Cr ( 0.000000,  0.000000, -2.141843)
  45 Al ( 0.000000,  0.000000, -0.017734)
  46 Al ( 0.000000,  0.000000, -0.026870)
  47 Co ( 0.000000,  0.000000,  1.161524)
  48 Fe ( 0.000000,  0.000000,  2.014296)
  49 Ni ( 0.000000,  0.000000,  0.218224)
  50 Cr ( 0.000000,  0.000000, -1.886594)
  51 Cr ( 0.000000,  0.000000, -1.147192)
  52 Cr ( 0.000000,  0.000000,  1.851628)
  53 Co ( 0.000000,  0.000000,  0.663633)
  54 Ni ( 0.000000,  0.000000,  0.178376)
  55 Al ( 0.000000,  0.000000, -0.015389)
  56 Ni ( 0.000000,  0.000000,  0.117997)
  57 Ni ( 0.000000,  0.000000,  0.227930)
  58 Co ( 0.000000,  0.000000,  1.282651)
  59 Cr ( 0.000000,  0.000000, -1.808458)
[...]
  93 Co ( 0.000000,  0.000000,  1.261341)
  94 Fe ( 0.000000,  0.000000,  2.094359)
  95 Cr ( 0.000000,  0.000000, -1.944160)
  96 Ni ( 0.000000,  0.000000,  0.187887)
  97 Cr ( 0.000000,  0.000000,  1.852530)
  98 Ni ( 0.000000,  0.000000,  0.268431)
  99 Fe ( 0.000000,  0.000000,  2.205118)
 100 Al ( 0.000000,  0.000000, -0.040659)
 101 Ni ( 0.000000,  0.000000,  0.179892)
 102 Co ( 0.000000,  0.000000,  0.850026)
 103 Al ( 0.000000,  0.000000, -0.009039)
 104 Ni ( 0.000000,  0.000000,  0.224574)
 105 Al ( 0.000000,  0.000000, -0.022982)
 106 Fe ( 0.000000,  0.000000,  2.246124)
 107 Co ( 0.000000,  0.000000,  0.814913)

Energy contributions relative to reference atoms: (reference = -3235165.067515)

Kinetic:       +258.713779
Potential:     -246.969534
External:        +0.000000
XC:            -845.484819
Entropy (-ST):   -4.131567
Local:          +31.258851
Free energy:   -806.613290
Extrapolated:  -804.547506

Spin contamination: 26.360502 electrons
Showing only first 2 kpts
                      Up                     Down
 Kpt  Band  Eigenvalues  Occupancy  Eigenvalues  Occupancy
  0   454      9.00847    0.99426      9.93853    0.01557
  0   455      9.02616    0.99315      9.94558    0.01453
  0   456      9.03980    0.99216      9.95704    0.01297
  0   457      9.04737    0.99155      9.98268    0.01007

  1   454      9.00227    0.99460      9.91713    0.01922
  1   455      9.01536    0.99385      9.93282    0.01647
  1   456      9.02476    0.99325      9.94593    0.01448
  1   457      9.04049    0.99211      9.96316    0.01221

Fermi level: 9.52387

No gap

Forces in eV/Ang:
  0 Cr    0.26573   -0.84046   -0.49595
  1 Al   -0.36288    0.35094   -0.44491
  2 Ni   -0.00482    0.12551   -0.19474
  3 Co   -0.03784    0.04716   -0.22251
  4 Al   -0.48146    0.69448    0.72002
  5 Ni    0.49099   -0.39227    0.49243
  6 Co   -0.04927    0.27088    0.82718
  7 Al   -0.54396    0.14897   -0.13083
  8 Al   -0.42245   -0.23078    2.16361
  9 Fe    0.47164   -0.04880    0.96418
 10 Fe    0.02483   -0.55770    0.28923
 11 Fe    0.48804    0.22999    0.13877
 12 Cr    0.04823   -0.65108    0.30809
 13 Cr    0.18042   -0.19517   -0.31231
 14 Co    0.34533    0.10848   -0.34203
 15 Fe    0.30075   -0.08225    0.47690
 16 Cr   -1.27499   -0.35409    0.52096
 17 Co   -0.24176    0.28845    0.23663
 18 Al   -0.52383   -0.79724    0.30062
 19 Ni   -0.29356    0.00608   -0.21386
 20 Co    0.43054    0.19981   -0.03712
 21 Al    1.30394   -0.53575    0.05948
 22 Ni   -0.58247   -0.19312    0.33646
 23 Cr    0.08819   -0.39288   -0.00500
 24 Ni   -0.17686    0.56397   -0.26626
 25 Fe   -0.27102    0.38356   -0.85511
 26 Fe    0.30092   -0.38240    0.08023
 27 Cr   -0.85196   -0.48856    0.06307
 28 Fe   -0.13127    0.15137   -0.03935
 29 Co    0.23337   -0.15228    0.20770
 30 Cr   -1.23302    0.58928   -0.44790
 31 Fe    0.10292   -0.38264    0.43203
 32 Cr    0.04616    0.36240   -0.62781
 33 Co   -0.11505    0.31522    0.46167
 34 Ni    0.20313    0.39021    0.04329
 35 Ni    0.34062    0.02655   -0.31277
 36 Fe   -0.36778   -0.30070   -0.11748
 37 Fe    0.08591    0.73495   -0.12896
 38 Ni    0.83341    0.24332   -0.26614
 39 Al    0.82175   -0.03320    0.10187
 40 Al    1.49380    1.47005   -0.96477
 41 Co   -0.16336    0.29460   -0.44093
 42 Al   -1.00894    1.94133   -0.53271
 43 Ni   -0.18102   -0.61170   -0.13775
 44 Cr   -0.86242    0.21740   -1.87879
 45 Al   -0.42818    1.52526   -0.38532
 46 Al    0.21525   -0.53381   -0.49377
 47 Co   -0.29143    0.30684   -0.12393
 48 Fe   -0.09515    0.56389    0.34053
 49 Ni    0.36294   -0.07539    0.32125
 50 Cr    0.24082    0.44148    0.93204
 51 Cr    0.31588    0.23237   -0.19635
 52 Cr   -0.82076   -0.26823    0.62718
 53 Co   -0.57853    0.17061    0.18702
 54 Ni   -0.14836   -0.46645   -0.11852
 55 Al    0.05948    0.34270    1.39814
 56 Ni    0.14195   -0.34817   -0.84463
 57 Ni    0.28850   -0.31585   -0.08138
 58 Co    0.07381    0.35958   -0.31348
 59 Cr    0.47739   -0.56877    0.90420
[...]
 93 Co   -0.10904    0.40995   -0.09795
 94 Fe   -0.32485   -0.30674   -0.15834
 95 Cr   -0.23963   -0.03268   -0.17279
 96 Ni    0.15570   -0.08226    0.80223
 97 Cr   -0.55582   -0.82457    0.62614
 98 Ni   -0.34902   -0.17559   -0.18138
 99 Fe   -0.63388   -0.21941   -0.10832
100 Al   -0.63600   -1.00664    0.20233
101 Ni    0.17191   -0.30081    0.11137
102 Co   -0.12699   -0.67279    0.44739
103 Al   -0.35848   -0.81896    1.15669
104 Ni    0.03073   -0.16787    0.49238
105 Al    0.30261   -2.06549   -0.68327
106 Fe    0.48661    0.17179   -0.62171
107 Co    0.98680   -0.70320    0.42559

Date: Sat Apr 15 11:12:07 2023