User:   c.zeng@d0109
Date:   Thu Apr 13 19:34:44 2023
Arch:   x86_64
Pid:    152422
CWD:    /home/c.zeng/projects/hea-corrosion/hea-mlp/data-curation/bulk-md/dft-jobs/16
Python: 3.8.1
gpaw:   /home/c.zeng/usr/installs/gpaw/source/gpaw-22.8.0/gpaw
_gpaw:  /home/c.zeng/usr/installs/gpaw/source/gpaw-22.8.0/
        _gpaw.cpython-38-x86_64-linux-gnu.so
ase:    /home/c.zeng/.local/lib/python3.8/site-packages/ase-3.22.1-py3.8.egg/ase (version 3.22.1)
numpy:  /shared/centos7/python/3.8.1/lib/python3.8/site-packages/numpy (version 1.17.4)
scipy:  /shared/centos7/python/3.8.1/lib/python3.8/site-packages/scipy (version 1.4.1)
units:  Angstrom and eV
cores: 30
OpenMP: False
OMP_NUM_THREADS: 1

Input parameters:
  convergence: {energy: 0.0001}
  kpts: [2 2 2]
  maxiter: 666
  mode: {ecut: 350.0,
         name: pw}
  occupations: {fixmagmom: False,
                name: fermi-dirac,
                width: 0.1}
  spinpol: True
  xc: PBE

System changes: positions, numbers, cell, pbc, initial_charges, initial_magmoms

Initialize ...

species:
  Co:
    name: Cobalt
    id: 339d20d5b0b93d2de9531a1bee871d91
    Z: 27.0
    valence: 9
    core: 18
    charge: 0.0
    file: /home/c.zeng/usr/data/gpaw-setups-0.9.20000/Co.PBE.gz
    compensation charges: {type: gauss,
                           rc: 0.32,
                           lmax: 2}
    cutoffs: {filter: 1.87,
              core: 2.55}
    valence states:
      #              energy  rcut
      - 4s(2.00)    -5.469   1.005
      - 4p(0.00)    -1.277   1.058
      - 3d(7.00)    -8.205   1.005
      -  s          21.742   1.005
      -  p          25.934   1.058
      -  d          19.007   1.005

    # Using partial waves for Co as LCAO basis

  Fe:
    name: Iron
    id: 37abbd8d6c3c35915a9b583b742da910
    Z: 26.0
    valence: 8
    core: 18
    charge: 0.0
    file: /home/c.zeng/usr/data/gpaw-setups-0.9.20000/Fe.PBE.gz
    compensation charges: {type: gauss,
                           rc: 0.33,
                           lmax: 2}
    cutoffs: {filter: 2.06,
              core: 2.67}
    valence states:
      #              energy  rcut
      - 4s(2.00)    -5.291   1.164
      - 4p(0.00)    -1.326   1.058
      - 3d(6.00)    -7.505   1.058
      -  s          21.920   1.164
      -  p          25.885   1.058
      -  d          19.706   1.058

[...]

  Cr:
    name: Chromium
    id: 33f258bda2ca9f93018e70263a35547b
    Z: 24.0
    valence: 6
    core: 18
    charge: 0.0
    file: /home/c.zeng/usr/data/gpaw-setups-0.9.20000/Cr.PBE.gz
    compensation charges: {type: gauss,
                           rc: 0.35,
                           lmax: 2}
    cutoffs: {filter: 2.14,
              core: 3.04}
    valence states:
      #              energy  rcut
      - 4s(1.00)    -4.007   1.164
      - 4p(0.00)    -0.989   1.217
      - 3d(5.00)    -2.913   1.111
      -  s          23.205   1.164
      -  p          26.223   1.217
      -  d          24.299   1.111

[...]

  Ni:
    name: Nickel
    id: 0d9f38a9d6e76a2886f07bb4381f212b
    Z: 28.0
    valence: 16
    core: 12
    charge: 0.0
    file: /home/c.zeng/usr/data/gpaw-setups-0.9.20000/Ni.PBE.gz
    compensation charges: {type: gauss,
                           rc: 0.36,
                           lmax: 2}
    cutoffs: {filter: 2.14,
              core: 1.98}
    valence states:
      #              energy  rcut
      - 4s(2.00)    -5.642   1.164
      - 3p(6.00)   -71.394   1.207
      - 4p(0.00)    -1.226   1.207
      - 3d(8.00)    -8.875   1.138
      -  s          21.570   1.164
      -  d          18.337   1.138

    # Using partial waves for Ni as LCAO basis

Reference energy: -3846758.590871  # eV

Spin-polarized calculation.
Magnetic moment: 151.200000

Convergence criteria:
 Maximum [total energy] change in last 3 cyles: 0.0001 eV / electron
 Maximum integral of absolute [dens]ity change: 0.0001 electrons / valence electron
 Maximum integral of absolute [eigenst]ate change: 4e-08 eV^2 / valence electron
 Maximum number of scf [iter]ations: 666
 (Square brackets indicate name in SCF output, whereas a 'c' in
 the SCF output indicates the quantity has converged.)

Symmetries present (total): 1

  ( 1  0  0)
  ( 0  1  0)
  ( 0  0  1)

8 k-points: 2 x 2 x 2 Monkhorst-Pack grid
4 k-points in the irreducible part of the Brillouin zone
       k-points in crystal coordinates                weights
   0:     0.25000000   -0.25000000   -0.25000000          2/8
   1:     0.25000000   -0.25000000    0.25000000          2/8
   2:     0.25000000    0.25000000   -0.25000000          2/8
   3:     0.25000000    0.25000000    0.25000000          2/8

Wave functions: Plane wave expansion
  Cutoff energy: 350.000 eV
  Number of coefficients (min, max): 17755, 17755
  Pulay-stress correction: 0.000000 eV/Ang^3 (de/decut=0.000000)
  Using FFTW library
  ScaLapack parameters: grid=1x1, blocksize=None
  Wavefunction extrapolation:
    Improved wavefunction reuse through dual PAW basis

Occupation numbers: Fermi-Dirac:
  width: 0.1000  # eV

Eigensolver
   Davidson(niter=2)

Densities:
  Coarse grid: 48*48*48 grid
  Fine grid: 96*96*96 grid
  Total Charge: 0.000000

Density mixing:
  Method: difference
  Backend: pulay
  Linear mixing parameter: 0.05
  old densities: 5
  Damping of long wavelength oscillations: 50

Hamiltonian:
  XC and Coulomb potentials evaluated on a 96*96*96 grid
  Using the PBE Exchange-Correlation functional
  External potential:
    NoExternalPotential

XC parameters: PBE with 2 nearest neighbor stencil

Total number of cores used: 30
Parallelization over k-points: 2
Domain decomposition: 5 x 3 x 1

Number of atoms: 108
Number of atomic orbitals: 1053
Number of bands in calculation: 727
Number of valence electrons: 1053
Bands to converge: occupied

... initialized

Initializing position-dependent things.

Density initialized from atomic densities
Creating initial wave functions:
  727 bands from LCAO basis set

        .-------Cr----------------.
       /|  Cr       Co            |
      / |     Fe     Fe           |
     /  |       Cr     Cro       Co
    /   |Fe                       Co
   /    |   Cr   CFe        Cr    |
  /  Co |   Fe      CoNi    Cr    |
 *    NiCr    CoNiFe CrNiNiCo     |
 |Co    Ni Co   NiCFe    Co      Fe
 |  CFe FeFeCr     CoNiCo   Cr    |
 |     Cr   NFeCr   Ni FeNi  NNi  |
 |      Fe   FeFFeNi   FeCo  Ni Ni|
 | Ni  CoCoCo  Cr NiFe  NiNi      |
 |    Cr.-CrCo-----CoNiNi--NiCr---.
 |   Fe/     Co       NCo   Cr   /
 |    FFer     FeiFe     Co     /
 |   /   FFe     CrNi     Cr   /
 |Co/      Cr       Co        /
 | /Cr      NiCo        Co   /
 |/    Fe      Cr           /

Positions:
   0 Co    -0.096031    0.253417   10.585595    ( 0.0000,  0.0000,  2.1000)
   1 Co     0.122124    1.674184    1.848338    ( 0.0000,  0.0000,  2.1000)
   2 Fe     1.953951   -0.043071    1.608476    ( 0.0000,  0.0000,  2.0000)
   3 Fe     1.978773    1.859227   10.637698    ( 0.0000,  0.0000,  2.0000)
   4 Cr     3.451678   -0.121293   10.552098    ( 0.0000,  0.0000,  0.0000)
   5 Cr     3.505909    1.907015    1.777503    ( 0.0000,  0.0000,  0.0000)
   6 Co     5.228944   10.780784    1.789421    ( 0.0000,  0.0000,  2.1000)
   7 Cr     5.289191    1.917785   10.638868    ( 0.0000,  0.0000,  0.0000)
   8 Fe     6.897433    0.144907   10.585666    ( 0.0000,  0.0000,  2.0000)
   9 Ni     6.977579    2.099497    1.818523    ( 0.0000,  0.0000,  1.5000)
  10 Ni     8.629792   -0.182895    1.808397    ( 0.0000,  0.0000,  1.5000)
  11 Co     8.629248    2.253945   10.773203    ( 0.0000,  0.0000,  2.1000)
  12 Cr    10.770708    3.335547    0.134448    ( 0.0000,  0.0000,  0.0000)
  13 Fe    10.761957    5.046042    1.971104    ( 0.0000,  0.0000,  2.0000)
  14 Cr     1.802594    3.311734    1.977148    ( 0.0000,  0.0000,  0.0000)
  15 Fe     1.754270    5.091071   10.831253    ( 0.0000,  0.0000,  2.0000)
  16 Ni     3.555466    3.556072   10.621079    ( 0.0000,  0.0000,  1.5000)
  17 Co     3.625488    5.309420    1.967582    ( 0.0000,  0.0000,  2.1000)
  18 Ni     5.126884    3.568976    1.906255    ( 0.0000,  0.0000,  1.5000)
  19 Cr     5.114785    5.338427   10.672809    ( 0.0000,  0.0000,  0.0000)
  20 Co     6.939215    3.719325   10.684381    ( 0.0000,  0.0000,  2.1000)
  21 Ni     7.044137    5.206640    1.965096    ( 0.0000,  0.0000,  1.5000)
  22 Co     8.809847    3.653286    1.985719    ( 0.0000,  0.0000,  2.1000)
  23 Cr     8.776460    5.257181    0.031714    ( 0.0000,  0.0000,  0.0000)
  24 Fe     0.029144    6.824887   10.776506    ( 0.0000,  0.0000,  2.0000)
  25 Co    10.736346    8.763550    1.673509    ( 0.0000,  0.0000,  2.1000)
  26 Cr     1.710316    7.130288    1.969983    ( 0.0000,  0.0000,  0.0000)
  27 Cr     1.774547    8.938427   10.472264    ( 0.0000,  0.0000,  0.0000)
  28 Fe     3.515717    6.983678   10.551248    ( 0.0000,  0.0000,  2.0000)
  29 Cr     3.490981    8.696617    1.849063    ( 0.0000,  0.0000,  0.0000)
  30 Co     5.374155    7.253893    1.565595    ( 0.0000,  0.0000,  2.1000)
  31 Co     5.264260    8.901196   10.571932    ( 0.0000,  0.0000,  2.1000)
  32 Cr     7.022523    6.767747   10.522526    ( 0.0000,  0.0000,  0.0000)
  33 Ni     7.195314    8.564893    1.688443    ( 0.0000,  0.0000,  1.5000)
  34 Ni     8.899684    6.989388    1.714754    ( 0.0000,  0.0000,  1.5000)
  35 Cr     8.779797    8.900770   10.665716    ( 0.0000,  0.0000,  0.0000)
  36 Fe     0.099497   10.497737    3.568826    ( 0.0000,  0.0000,  2.0000)
  37 Ni    10.736513    1.823967    5.292662    ( 0.0000,  0.0000,  1.5000)
  38 Cr     1.923417    0.118624    5.430991    ( 0.0000,  0.0000,  0.0000)
  39 Fe     1.895406    1.576163    3.576913    ( 0.0000,  0.0000,  2.0000)
  40 Fe     3.622046    0.068657    3.537668    ( 0.0000,  0.0000,  2.0000)
  41 Co     3.667134    1.643427    5.377853    ( 0.0000,  0.0000,  2.1000)
  42 Cr     5.388204   -0.051943    5.205299    ( 0.0000,  0.0000,  0.0000)
  43 Fe     5.355029    1.929693    3.447231    ( 0.0000,  0.0000,  2.0000)
  44 Fe     7.094720    0.107652    3.675689    ( 0.0000,  0.0000,  2.0000)
  45 Fe     7.066084    1.989592    5.333044    ( 0.0000,  0.0000,  2.0000)
  46 Ni     9.014815    0.229593    5.290758    ( 0.0000,  0.0000,  1.5000)
  47 Co     8.684830    1.817064    3.646335    ( 0.0000,  0.0000,  2.1000)
  48 Cr    -0.051061    3.200245    3.608049    ( 0.0000,  0.0000,  0.0000)
  49 Ni    -0.036227    5.235343    5.253436    ( 0.0000,  0.0000,  1.5000)
  50 Fe     1.691424    3.606395    5.290782    ( 0.0000,  0.0000,  2.0000)
  51 Co     1.697660    5.184926    3.741602    ( 0.0000,  0.0000,  2.1000)
  52 Co     3.451498    3.406472    3.697920    ( 0.0000,  0.0000,  2.1000)
  53 Fe     3.563330    5.281686    5.096989    ( 0.0000,  0.0000,  2.0000)
  54 Fe     5.206839    3.450180    5.355620    ( 0.0000,  0.0000,  2.0000)
  55 Ni     5.434248    5.243858    3.447991    ( 0.0000,  0.0000,  1.5000)
  56 Ni     7.196288    3.570193    3.536599    ( 0.0000,  0.0000,  1.5000)
  57 Fe     7.324129    5.421848    5.226874    ( 0.0000,  0.0000,  2.0000)
  58 Co     9.025629    3.509077    5.209100    ( 0.0000,  0.0000,  2.1000)
  59 Ni     8.851058    5.359163    3.477449    ( 0.0000,  0.0000,  1.5000)
[...]
  93 Ni     6.980357    5.381693    8.926133    ( 0.0000,  0.0000,  1.5000)
  94 Ni     8.803656    3.558461    8.922065    ( 0.0000,  0.0000,  1.5000)
  95 Cr     9.099518    5.300910    7.398844    ( 0.0000,  0.0000,  0.0000)
  96 Ni     0.117017    7.244278    6.935021    ( 0.0000,  0.0000,  1.5000)
  97 Co    -0.146494    8.895504    8.970613    ( 0.0000,  0.0000,  2.1000)
  98 Fe     1.494217    7.088369    9.022503    ( 0.0000,  0.0000,  2.0000)
  99 Cr     2.116563    8.615526    7.334705    ( 0.0000,  0.0000,  0.0000)
 100 Co     3.388731    6.839289    6.944616    ( 0.0000,  0.0000,  2.1000)
 101 Cr     3.805150    8.736912    8.826920    ( 0.0000,  0.0000,  0.0000)
 102 Fe     5.151101    7.079890    8.791833    ( 0.0000,  0.0000,  2.0000)
 103 Co     5.327330    8.799945    6.731876    ( 0.0000,  0.0000,  2.1000)
 104 Ni     6.920618    7.314494    6.959810    ( 0.0000,  0.0000,  1.5000)
 105 Co     7.036969    8.908940    8.855497    ( 0.0000,  0.0000,  2.1000)
 106 Cr     9.029200    7.074639    8.809122    ( 0.0000,  0.0000,  0.0000)
 107 Cr     8.703569    8.827051    7.040617    ( 0.0000,  0.0000,  0.0000)

Unit cell:
           periodic     x           y           z      points  spacing
  1. axis:    yes   10.614300    0.000000    0.000000    48     0.2211
  2. axis:    yes    0.000000   10.614300    0.000000    48     0.2211
  3. axis:    yes    0.000000    0.000000   10.614300    48     0.2211

  Lengths:  10.614300  10.614300  10.614300
  Angles:   90.000000  90.000000  90.000000

Effective grid spacing dv^(1/3) = 0.2211

     iter     time        total  log10-change:  magmom
                         energy  eigst   dens
iter:   1 19:40:54 -1061.448832                  +151.4734
iter:   2 19:43:37  -934.987079  -0.30  -1.21    +85.3300
iter:   3 19:46:22  -933.307487  -0.90  -1.24    +69.6445
iter:   4 19:49:06  -913.055910  -1.20  -1.29    +65.4704
iter:   5 19:51:49  -891.273746  -1.64  -1.30    +59.0910
iter:   6 19:54:32  -888.011027  -1.33  -1.38    +59.4901
iter:   7 19:57:16  -894.466470  -1.20  -1.49    +58.4978
iter:   8 19:59:58  -871.379846  -1.60  -1.53    +56.7199
iter:   9 20:02:39  -870.924913  -2.24  -1.81    +57.8213
iter:  10 20:05:23  -871.459435  -2.29  -1.84    +59.6670
iter:  11 20:08:08  -870.509946  -2.61  -1.85    +61.1231
iter:  12 20:10:52  -870.874022  -2.76  -1.91    +62.4572
iter:  13 20:13:37  -874.377808  -2.38  -1.96    +63.7758
iter:  14 20:16:20  -871.801286  -2.42  -1.90    +64.4364
iter:  15 20:19:02  -871.866229  -2.68  -2.10    +64.8316
iter:  16 20:21:46  -873.034014  -2.56  -2.16    +65.6489
iter:  17 20:24:30  -871.691445  -2.82  -2.12    +66.3040
iter:  18 20:27:14  -871.444305  -3.32  -2.24    +67.0319
iter:  19 20:29:58  -871.834009  -3.24  -2.32    +67.3425
iter:  20 20:32:42  -871.671545  -3.23  -2.30    +67.7927
iter:  21 20:35:24  -871.656762  -3.37  -2.35    +68.3146
iter:  22 20:38:06  -871.718756c -3.24  -2.39    +68.3863
iter:  23 20:40:50  -872.383360  -2.95  -2.46    +68.5652
iter:  24 20:43:34  -871.686540  -3.17  -2.30    +68.7722
iter:  25 20:46:18  -871.667410  -3.50  -2.55    +69.2257
iter:  26 20:49:01  -871.608599c -3.65  -2.60    +69.2051
iter:  27 20:51:44  -871.608942c -3.82  -2.67    +69.3277
iter:  28 20:54:27  -871.562352c -4.21  -2.70    +69.5838
iter:  29 20:57:09  -871.608676c -4.25  -2.82    +69.7650
iter:  30 20:59:54  -871.599719c -4.34  -2.80    +69.7839
iter:  31 21:02:38  -871.613085c -4.51  -2.83    +69.8177
iter:  32 21:05:22  -871.629188c -4.35  -2.86    +69.9121
iter:  33 21:08:05  -871.668718c -4.14  -2.88    +69.9325
iter:  34 21:10:48  -871.665776c -4.15  -2.85    +69.8725
iter:  35 21:13:28  -871.679687c -4.22  -2.88    +69.8629
iter:  36 21:16:13  -871.667498c -4.26  -2.88    +69.9195
iter:  37 21:18:57  -871.667551c -4.37  -3.00    +69.9468
iter:  38 21:21:41  -871.659479c -4.77  -3.00    +69.9085
iter:  39 21:24:24  -871.672109c -4.90  -3.12    +69.8747
iter:  40 21:27:07  -871.677170c -4.78  -3.12    +69.8510
iter:  41 21:29:49  -871.681330c -5.06  -3.10    +69.8253
iter:  42 21:32:33  -871.686830c -4.94  -3.14    +69.8037
iter:  43 21:35:15  -871.715022c -4.53  -3.29    +69.7342
iter:  44 21:37:57  -871.699886c -4.67  -3.12    +69.7365
iter:  45 21:40:41  -871.704103c -4.94  -3.28    +69.7114
iter:  46 21:43:25  -871.707657c -5.08  -3.36    +69.6952
iter:  47 21:46:09  -871.713184c -5.01  -3.43    +69.6631
iter:  48 21:48:53  -871.709818c -5.42  -3.35    +69.6349
iter:  49 21:51:36  -871.715119c -5.53  -3.56    +69.6166
iter:  50 21:54:18  -871.744355c -3.98  -3.55    +69.4785
iter:  51 21:57:03  -871.751851c -4.62  -3.34    +69.4645
iter:  52 21:59:47  -871.746891c -5.35  -3.30    +69.4824
iter:  53 22:02:30  -871.746562c -5.54  -3.36    +69.4879
iter:  54 22:05:14  -871.746943c -5.86  -3.42    +69.4842
iter:  55 22:07:56  -871.754130c -4.59  -3.41    +69.4950
iter:  56 22:10:37  -871.736038c -4.98  -3.14    +69.4894
iter:  57 22:13:20  -871.737446c -5.53  -3.46    +69.4357
iter:  58 22:16:04  -871.736132c -5.97  -3.44    +69.4313
iter:  59 22:18:48  -871.739808c -5.44  -3.53    +69.4024
iter:  60 22:21:32  -871.738190c -5.16  -3.42    +69.3994
iter:  61 22:24:15  -871.738420c -5.30  -3.62    +69.4206
iter:  62 22:26:57  -871.736909c -5.60  -3.55    +69.4128
iter:  63 22:29:40  -871.737755c -5.48  -3.65    +69.3961
iter:  64 22:32:24  -871.737159c -5.64  -3.62    +69.3842
iter:  65 22:35:09  -871.736506c -5.96  -3.71    +69.3852
iter:  66 22:37:53  -871.735959c -6.19  -3.77    +69.3935
iter:  67 22:40:36  -871.736330c -6.27  -3.97    +69.3923
iter:  68 22:43:19  -871.736249c -6.29  -3.87    +69.3948
iter:  69 22:46:02  -871.735897c -6.42  -3.93    +69.3972
iter:  70 22:48:47  -871.735945c -6.53  -3.97    +69.4006
iter:  71 22:51:31  -871.736096c -6.47  -3.99    +69.3943
iter:  72 22:54:16  -871.735968c -6.39  -4.00c   +69.3931
iter:  73 22:56:59  -871.735691c -6.53  -4.00c   +69.4001
iter:  74 22:59:42  -871.735676c -6.69  -4.05c   +69.4025
iter:  75 23:02:24  -871.735862c -6.71  -4.12c   +69.4011
iter:  76 23:05:09  -871.735682c -6.89  -4.12c   +69.3981
iter:  77 23:07:54  -871.735538c -7.16  -4.21c   +69.4009
iter:  78 23:10:38  -871.735583c -7.14  -4.25c   +69.4034
iter:  79 23:13:21  -871.735639c -7.24  -4.23c   +69.4013
iter:  80 23:16:04  -871.735558c -7.33  -4.27c   +69.4006
iter:  81 23:18:45  -871.735465c -7.22  -4.32c   +69.4012
iter:  82 23:21:30  -871.735525c -7.19  -4.28c   +69.4028
iter:  83 23:24:14  -871.735575c -7.25  -4.28c   +69.4009
iter:  84 23:26:58  -871.735523c -7.30  -4.35c   +69.3989
iter:  85 23:29:42  -871.735437c -7.30  -4.34c   +69.4009
iter:  86 23:32:25  -871.735465c -7.51c -4.36c   +69.4011

Converged after 86 iterations.

Dipole moment: (-40.457679, -30.626059, -24.045937) |e|*Ang

Total magnetic moment: (0.000000, 0.000000, 69.401096)
Local magnetic moments:
   0 Co ( 0.000000,  0.000000,  1.444717)
   1 Co ( 0.000000,  0.000000,  0.689526)
   2 Fe ( 0.000000,  0.000000,  1.487752)
   3 Fe ( 0.000000,  0.000000,  1.289977)
   4 Cr ( 0.000000,  0.000000,  0.026066)
   5 Cr ( 0.000000,  0.000000, -0.194117)
   6 Co ( 0.000000,  0.000000,  1.151159)
   7 Cr ( 0.000000,  0.000000, -1.694341)
   8 Fe ( 0.000000,  0.000000,  2.516565)
   9 Ni ( 0.000000,  0.000000,  0.423234)
  10 Ni ( 0.000000,  0.000000,  0.389607)
  11 Co ( 0.000000,  0.000000,  1.613902)
  12 Cr ( 0.000000,  0.000000, -1.270559)
  13 Fe ( 0.000000,  0.000000,  1.863350)
  14 Cr ( 0.000000,  0.000000, -0.467993)
  15 Fe ( 0.000000,  0.000000,  1.895254)
  16 Ni ( 0.000000,  0.000000,  0.164516)
  17 Co ( 0.000000,  0.000000,  1.230344)
  18 Ni ( 0.000000,  0.000000,  0.340405)
  19 Cr ( 0.000000,  0.000000, -1.354460)
  20 Co ( 0.000000,  0.000000,  1.179957)
  21 Ni ( 0.000000,  0.000000,  0.369544)
  22 Co ( 0.000000,  0.000000,  1.242239)
  23 Cr ( 0.000000,  0.000000, -1.283978)
  24 Fe ( 0.000000,  0.000000,  1.863577)
  25 Co ( 0.000000,  0.000000,  1.044174)
  26 Cr ( 0.000000,  0.000000, -0.900961)
  27 Cr ( 0.000000,  0.000000, -0.783461)
  28 Fe ( 0.000000,  0.000000,  1.889381)
  29 Cr ( 0.000000,  0.000000, -0.725166)
  30 Co ( 0.000000,  0.000000,  0.902947)
  31 Co ( 0.000000,  0.000000,  0.919928)
  32 Cr ( 0.000000,  0.000000,  0.854290)
  33 Ni ( 0.000000,  0.000000,  0.290214)
  34 Ni ( 0.000000,  0.000000,  0.272077)
  35 Cr ( 0.000000,  0.000000, -1.973346)
  36 Fe ( 0.000000,  0.000000,  2.567746)
  37 Ni ( 0.000000,  0.000000,  0.113701)
  38 Cr ( 0.000000,  0.000000, -0.013076)
  39 Fe ( 0.000000,  0.000000,  1.170352)
  40 Fe ( 0.000000,  0.000000,  1.941206)
  41 Co ( 0.000000,  0.000000,  0.269201)
  42 Cr ( 0.000000,  0.000000, -1.107399)
  43 Fe ( 0.000000,  0.000000,  2.054842)
  44 Fe ( 0.000000,  0.000000,  2.361352)
  45 Fe ( 0.000000,  0.000000,  2.122659)
  46 Ni ( 0.000000,  0.000000,  0.526727)
  47 Co ( 0.000000,  0.000000,  1.398707)
  48 Cr ( 0.000000,  0.000000, -0.742701)
  49 Ni ( 0.000000,  0.000000,  0.234165)
  50 Fe ( 0.000000,  0.000000,  1.528207)
  51 Co ( 0.000000,  0.000000,  1.231494)
  52 Co ( 0.000000,  0.000000,  0.954933)
  53 Fe ( 0.000000,  0.000000,  2.056647)
  54 Fe ( 0.000000,  0.000000,  1.506899)
  55 Ni ( 0.000000,  0.000000,  0.474303)
  56 Ni ( 0.000000,  0.000000,  0.468114)
  57 Fe ( 0.000000,  0.000000,  2.346738)
  58 Co ( 0.000000,  0.000000,  0.896011)
  59 Ni ( 0.000000,  0.000000,  0.446168)
[...]
  93 Ni ( 0.000000,  0.000000,  0.169600)
  94 Ni ( 0.000000,  0.000000,  0.140844)
  95 Cr ( 0.000000,  0.000000, -1.756352)
  96 Ni ( 0.000000,  0.000000,  0.213502)
  97 Co ( 0.000000,  0.000000,  0.877182)
  98 Fe ( 0.000000,  0.000000,  1.712614)
  99 Cr ( 0.000000,  0.000000, -0.896832)
 100 Co ( 0.000000,  0.000000,  1.202602)
 101 Cr ( 0.000000,  0.000000, -0.275569)
 102 Fe ( 0.000000,  0.000000,  1.849996)
 103 Co ( 0.000000,  0.000000,  1.122298)
 104 Ni ( 0.000000,  0.000000,  0.294019)
 105 Co ( 0.000000,  0.000000,  1.139204)
 106 Cr ( 0.000000,  0.000000,  1.465297)
 107 Cr ( 0.000000,  0.000000, -1.480588)

Energy contributions relative to reference atoms: (reference = -3846758.590871)

Kinetic:       +404.615983
Potential:     -415.562543
External:        +0.000000
XC:            -898.152064
Entropy (-ST):   -4.700081
Local:          +39.713199
Free energy:   -874.085506
Extrapolated:  -871.735465

Spin contamination: 25.483504 electrons
Showing only first 2 kpts
                      Up                     Down
 Kpt  Band  Eigenvalues  Occupancy  Eigenvalues  Occupancy
  0   524      9.85121    0.99609     10.77991    0.02306
  0   525      9.85846    0.99580     10.79404    0.02008
  0   526      9.88542    0.99450     10.80871    0.01739
  0   527      9.89946    0.99368     10.82094    0.01542

  1   524      9.85306    0.99602     10.78567    0.02179
  1   525      9.86423    0.99555     10.79880    0.01916
  1   526      9.88111    0.99474     10.80827    0.01746
  1   527      9.89482    0.99397     10.82178    0.01529

Fermi level: 10.40526

No gap

Forces in eV/Ang:
  0 Co   -0.03660   -0.98351    0.53781
  1 Co   -0.88958   -0.29276    0.06379
  2 Fe   -0.98055   -0.00287    1.13621
  3 Fe   -1.56977   -1.11257   -0.38826
  4 Cr    1.17786    0.48965   -0.55592
  5 Cr    0.20898   -1.22225    0.06239
  6 Co    0.48630   -0.68506   -0.37155
  7 Cr    0.06541   -1.07124   -0.45729
  8 Fe    0.67922   -0.12673    0.17243
  9 Ni    0.44812   -2.34786   -0.68472
 10 Ni    0.84211    3.03456   -1.16591
 11 Co    1.27653   -2.80947   -0.23959
 12 Cr   -0.75246    0.25717   -0.92411
 13 Fe   -0.54995    1.03913   -0.49849
 14 Cr    0.44473    1.33032    0.04931
 15 Fe    0.14947    0.78896    0.15563
 16 Ni   -0.40226    0.23731    0.02330
 17 Co   -1.48644    0.45803   -0.51167
 18 Ni    0.89002    0.35270   -1.51313
 19 Cr    0.28014    0.39312    0.22532
 20 Co   -0.42184   -0.01331   -0.26457
 21 Ni    0.54943    0.92178   -3.16659
 22 Co    1.45207   -1.31399   -1.60973
 23 Cr    1.21837    0.08730   -0.07732
 24 Fe    0.18586    0.62454   -0.22360
 25 Co   -0.27521    0.77312    0.30688
 26 Cr    0.45176   -1.22969   -1.33510
 27 Cr   -0.63242   -0.50679    0.18850
 28 Fe   -0.73105    0.72448    1.37489
 29 Cr    0.95257    0.33775   -1.20195
 30 Co   -1.22735   -2.00692    0.78414
 31 Co    0.49687    0.24035    0.64561
 32 Cr    0.46471    2.40935    1.61204
 33 Ni   -0.52988    1.81536   -0.42935
 34 Ni    0.35834   -0.06001    0.39654
 35 Cr    0.72429   -0.31469   -1.00039
 36 Fe    0.18695    0.87912   -1.11500
 37 Ni   -0.20009   -2.28191    0.10864
 38 Cr   -0.84464   -1.85473   -0.19055
 39 Fe   -0.68330    0.53554    0.30059
 40 Fe    0.32528   -0.88862   -0.10089
 41 Co   -0.25818    1.48651   -1.20329
 42 Cr   -0.05254    0.45934   -0.08609
 43 Fe   -0.41428   -1.02184    1.76912
 44 Fe   -0.11873   -0.51642   -0.91100
 45 Fe    0.37843   -0.79087    0.41003
 46 Ni   -1.32018   -1.30845    0.50304
 47 Co    1.16768   -0.84737   -1.77007
 48 Cr    0.51966    2.04687   -1.43538
 49 Ni   -0.60392    1.09432    0.34343
 50 Fe    1.19670   -1.77413    0.16877
 51 Co    0.46600    1.42545   -1.94524
 52 Co    0.44510    0.40450   -0.65267
 53 Fe    0.07853    0.34381    1.20416
 54 Fe    1.03217    1.48949   -0.82761
 55 Ni   -1.32669    0.50984    2.36616
 56 Ni   -1.37883    0.42995    2.26818
 57 Fe   -1.17971   -0.70037    1.61056
 58 Co   -1.73121    0.37045    1.09123
 59 Ni    1.40848    0.36432    0.93851
[...]
 93 Ni    0.77072   -1.26395   -2.19669
 94 Ni    0.37328   -0.07071   -0.57695
 95 Cr   -0.61186    0.33724   -1.09130
 96 Ni   -0.60819   -0.37589    1.02315
 97 Co    0.77622    0.33398   -0.52757
 98 Fe    1.15211   -0.47728   -0.62756
 99 Cr   -1.32431    1.38674   -0.69498
100 Co    0.99435   -0.09512    0.36940
101 Cr   -1.20036    0.59541   -0.50366
102 Fe    1.15959   -0.91791   -0.72724
103 Co   -0.29042    0.74166    1.41572
104 Ni    1.86081   -2.91265    1.82584
105 Co    0.07196   -0.22318   -0.33480
106 Cr   -0.80360   -0.41062   -0.16466
107 Cr    0.87238    1.13455    1.00055

Date: Thu Apr 13 23:32:49 2023