User:   c.zeng@d0008
Date:   Mon Apr 17 04:18:27 2023
Arch:   x86_64
Pid:    207727
CWD:    /home/c.zeng/projects/hea-corrosion/hea-mlp/data-curation/bulk-mcmc/dft-jobs/202
Python: 3.8.1
gpaw:   /home/c.zeng/usr/installs/gpaw/source/gpaw-22.8.0/gpaw
_gpaw:  /home/c.zeng/usr/installs/gpaw/source/gpaw-22.8.0/
        _gpaw.cpython-38-x86_64-linux-gnu.so
ase:    /home/c.zeng/.local/lib/python3.8/site-packages/ase-3.22.1-py3.8.egg/ase (version 3.22.1)
numpy:  /home/c.zeng/.local/lib/python3.8/site-packages/numpy (version 1.24.2)
scipy:  /home/c.zeng/.local/lib/python3.8/site-packages/scipy (version 1.10.1)
units:  Angstrom and eV
cores: 30
OpenMP: False
OMP_NUM_THREADS: 1

Input parameters:
  convergence: {energy: 0.0001}
  kpts: [2 2 2]
  maxiter: 666
  mode: {ecut: 350.0,
         name: pw}
  occupations: {fixmagmom: False,
                name: fermi-dirac,
                width: 0.1}
  spinpol: True
  xc: PBE

System changes: positions, numbers, cell, pbc, initial_charges, initial_magmoms

Initialize ...

species:
  Ni:
    name: Nickel
    id: 0d9f38a9d6e76a2886f07bb4381f212b
    Z: 28.0
    valence: 16
    core: 12
    charge: 0.0
    file: /home/c.zeng/usr/data/gpaw-setups-0.9.20000/Ni.PBE.gz
    compensation charges: {type: gauss,
                           rc: 0.36,
                           lmax: 2}
    cutoffs: {filter: 2.14,
              core: 1.98}
    valence states:
      #              energy  rcut
      - 4s(2.00)    -5.642   1.164
      - 3p(6.00)   -71.394   1.207
      - 4p(0.00)    -1.226   1.207
      - 3d(8.00)    -8.875   1.138
      -  s          21.570   1.164
      -  d          18.337   1.138

    # Using partial waves for Ni as LCAO basis

  Al:
    name: Aluminium
    id: 0292cae29f5d6237e50f6abdd43a7bdd
    Z: 13.0
    valence: 3
    core: 10
    charge: 0.0
    file: /home/c.zeng/usr/data/gpaw-setups-0.9.20000/Al.PBE.gz
    compensation charges: {type: gauss,
                           rc: 0.34,
                           lmax: 2}
    cutoffs: {filter: 1.91,
              core: 2.36}
    valence states:
      #              energy  rcut
      - 3s(2.00)    -7.753   1.085
      - 3p(1.00)    -2.712   1.085
      -  s          19.459   1.085
      -  p          24.499   1.085
      -  d           0.000   1.085

[...]

  Co:
    name: Cobalt
    id: 339d20d5b0b93d2de9531a1bee871d91
    Z: 27.0
    valence: 9
    core: 18
    charge: 0.0
    file: /home/c.zeng/usr/data/gpaw-setups-0.9.20000/Co.PBE.gz
    compensation charges: {type: gauss,
                           rc: 0.32,
                           lmax: 2}
    cutoffs: {filter: 1.87,
              core: 2.55}
    valence states:
      #              energy  rcut
      - 4s(2.00)    -5.469   1.005
      - 4p(0.00)    -1.277   1.058
      - 3d(7.00)    -8.205   1.005
      -  s          21.742   1.005
      -  p          25.934   1.058
      -  d          19.007   1.005

[...]

  Fe:
    name: Iron
    id: 37abbd8d6c3c35915a9b583b742da910
    Z: 26.0
    valence: 8
    core: 18
    charge: 0.0
    file: /home/c.zeng/usr/data/gpaw-setups-0.9.20000/Fe.PBE.gz
    compensation charges: {type: gauss,
                           rc: 0.33,
                           lmax: 2}
    cutoffs: {filter: 2.06,
              core: 2.67}
    valence states:
      #              energy  rcut
      - 4s(2.00)    -5.291   1.164
      - 4p(0.00)    -1.326   1.058
      - 3d(6.00)    -7.505   1.058
      -  s          21.920   1.164
      -  p          25.885   1.058
      -  d          19.706   1.058

[...]

  Cr:
    name: Chromium
    id: 33f258bda2ca9f93018e70263a35547b
    Z: 24.0
    valence: 6
    core: 18
    charge: 0.0
    file: /home/c.zeng/usr/data/gpaw-setups-0.9.20000/Cr.PBE.gz
    compensation charges: {type: gauss,
                           rc: 0.35,
                           lmax: 2}
    cutoffs: {filter: 2.14,
              core: 3.04}
    valence states:
      #              energy  rcut
      - 4s(1.00)    -4.007   1.164
      - 4p(0.00)    -0.989   1.217
      - 3d(5.00)    -2.913   1.111
      -  s          23.205   1.164
      -  p          26.223   1.217
      -  d          24.299   1.111

    # Using partial waves for Cr as LCAO basis

Reference energy: -3235165.067515  # eV

Spin-polarized calculation.
Magnetic moment: 121.100000

Convergence criteria:
 Maximum [total energy] change in last 3 cyles: 0.0001 eV / electron
 Maximum integral of absolute [dens]ity change: 0.0001 electrons / valence electron
 Maximum integral of absolute [eigenst]ate change: 4e-08 eV^2 / valence electron
 Maximum number of scf [iter]ations: 666
 (Square brackets indicate name in SCF output, whereas a 'c' in
 the SCF output indicates the quantity has converged.)

Symmetries present (total): 1

  ( 1  0  0)
  ( 0  1  0)
  ( 0  0  1)

8 k-points: 2 x 2 x 2 Monkhorst-Pack grid
4 k-points in the irreducible part of the Brillouin zone
       k-points in crystal coordinates                weights
   0:     0.25000000   -0.25000000   -0.25000000          2/8
   1:     0.25000000   -0.25000000    0.25000000          2/8
   2:     0.25000000    0.25000000   -0.25000000          2/8
   3:     0.25000000    0.25000000    0.25000000          2/8

Wave functions: Plane wave expansion
  Cutoff energy: 350.000 eV
  Number of coefficients (min, max): 19084, 19084
  Pulay-stress correction: 0.000000 eV/Ang^3 (de/decut=0.000000)
  Using FFTW library
  ScaLapack parameters: grid=1x1, blocksize=None
  Wavefunction extrapolation:
    Improved wavefunction reuse through dual PAW basis

Occupation numbers: Fermi-Dirac:
  width: 0.1000  # eV

Eigensolver
   Davidson(niter=2)

Densities:
  Coarse grid: 48*48*48 grid
  Fine grid: 96*96*96 grid
  Total Charge: 0.000000

Density mixing:
  Method: difference
  Backend: pulay
  Linear mixing parameter: 0.05
  old densities: 5
  Damping of long wavelength oscillations: 50

Hamiltonian:
  XC and Coulomb potentials evaluated on a 96*96*96 grid
  Using the PBE Exchange-Correlation functional
  External potential:
    NoExternalPotential

XC parameters: PBE with 2 nearest neighbor stencil

Total number of cores used: 30
Parallelization over k-points: 2
Domain decomposition: 5 x 3 x 1

Number of atoms: 108
Number of atomic orbitals: 933
Number of bands in calculation: 624
Number of valence electrons: 912
Bands to converge: occupied

... initialized

Initializing position-dependent things.

Density initialized from atomic densities
Creating initial wave functions:
  624 bands from LCAO basis set

        .--------Al----------------.
       /|           Fe             |
      / |    FeFe     Ni           |
     / Cr       Ni       Al        |
    /   |Fe      CrCo       Fe     |
   /    | CrCr      ACo            |
  /    Co  FeiAlAl    Co Fe  CoAl  |
 *      Fe     AlCoAl   NiFe     Ni|
 |      |FeNi   NiFeFe   AlCrCr   Co
 |      | CoCr   AlCoCoAl CrNiFe   |
 |     Fe  Al CoCo  NiCr Ni  CrCr  |
 |      Cr  Ni CrCrCo CoCrCoAl   Fe|
 |      |CrCo   CoAlAl   CoNiFe   Fe
 |      .-FeCr-----NiNi-Al--CrFe---.
 |     Al  Cr CoCr    Al Co  Ni Ni/
 |    / Co              Ni       Ni
 |   /           Ali      CrFe  /
 |  /      Ni       Fe     CrAl/
 | /                   Fe     /i
 *--------------------------Ni

Positions:
   0 Ni    10.797848    0.093654    0.085777    ( 0.0000,  0.0000,  0.0000)
   1 Al    10.831824    1.844742    1.870716    ( 0.0000,  0.0000,  2.0000)
   2 Ni     1.786803   10.847372    1.827335    ( 0.0000,  0.0000,  0.0000)
   3 Co     1.769614    1.870531   -0.031264    ( 0.0000,  0.0000,  0.0000)
   4 Al     3.620857   10.822050   10.833629    ( 0.0000,  0.0000,  1.5000)
   5 Ni     3.571246    1.883176    1.708402    ( 0.0000,  0.0000,  0.0000)
   6 Co     5.521103   10.788063    1.666217    ( 0.0000,  0.0000,  0.0000)
   7 Al     5.520831    1.813973   10.830911    ( 0.0000,  0.0000,  1.5000)
   8 Al     7.330846    0.011025   10.815657    ( 0.0000,  0.0000,  2.0000)
   9 Fe     7.282018    1.809483    1.793250    ( 0.0000,  0.0000,  2.1000)
  10 Fe     9.029996    0.022005    1.811918    ( 0.0000,  0.0000,  1.5000)
  11 Fe     9.007196    1.868639   10.825714    ( 0.0000,  0.0000,  2.0000)
  12 Ni    10.861310    3.649723    0.014171    ( 0.0000,  0.0000,  2.0000)
  13 Ni    10.867442    5.463468    1.819235    ( 0.0000,  0.0000,  2.1000)
  14 Co     1.756088    3.650267    1.845949    ( 0.0000,  0.0000,  0.0000)
  15 Fe     1.790358    5.439092   10.869084    ( 0.0000,  0.0000,  2.1000)
  16 Cr     3.687842    3.622792   -0.049287    ( 0.0000,  0.0000,  2.0000)
  17 Co     3.667347    5.391145    1.745368    ( 0.0000,  0.0000,  0.0000)
  18 Al     5.497977    3.634415    1.792370    ( 0.0000,  0.0000,  2.0000)
  19 Ni     5.524908    5.448029    0.002551    ( 0.0000,  0.0000,  2.0000)
  20 Co     7.223340    3.611877   10.834270    ( 0.0000,  0.0000,  0.0000)
  21 Al     7.217762    5.474830    1.807776    ( 0.0000,  0.0000,  2.1000)
  22 Cr     9.073442    3.654344    1.775148    ( 0.0000,  0.0000,  0.0000)
  23 Cr     9.008740    5.418608    0.007692    ( 0.0000,  0.0000,  2.0000)
  24 Ni    10.859190    7.178720    0.014480    ( 0.0000,  0.0000,  1.5000)
  25 Fe    -0.018106    8.970948    1.875391    ( 0.0000,  0.0000,  0.0000)
  26 Fe     1.817615    7.224025    1.802546    ( 0.0000,  0.0000,  1.5000)
  27 Cr     1.880729    8.993464   10.874031    ( 0.0000,  0.0000,  0.0000)
  28 Fe     3.684428    7.260447   -0.001356    ( 0.0000,  0.0000,  2.0000)
  29 Co     3.612616    9.025636    1.761807    ( 0.0000,  0.0000,  1.5000)
  30 Ni     5.481440    7.275114    1.811211    ( 0.0000,  0.0000,  1.5000)
  31 Fe     5.461261    9.048153   10.833988    ( 0.0000,  0.0000,  1.5000)
  32 Ni     7.245704    7.257881    0.056891    ( 0.0000,  0.0000,  2.1000)
  33 Co     7.301969    9.004609    1.790315    ( 0.0000,  0.0000,  0.0000)
  34 Cr     9.029343    7.181775    1.815549    ( 0.0000,  0.0000,  2.0000)
  35 Ni     9.030561    9.042010    0.020232    ( 0.0000,  0.0000,  1.5000)
  36 Fe    -0.031046    0.001947    3.645701    ( 0.0000,  0.0000,  2.0000)
  37 Fe    10.825910    1.804351    5.434602    ( 0.0000,  0.0000,  2.1000)
  38 Ni     1.743552   10.849296    5.484376    ( 0.0000,  0.0000,  0.0000)
  39 Al     1.769755    1.791891    3.636068    ( 0.0000,  0.0000,  1.5000)
  40 Al     3.516667   10.719828    3.663227    ( 0.0000,  0.0000,  0.0000)
  41 Co     3.644244    1.785205    5.586728    ( 0.0000,  0.0000,  0.0000)
  42 Al     5.484778   10.815439    5.504022    ( 0.0000,  0.0000,  0.0000)
  43 Cr     5.457934    1.842230    3.658769    ( 0.0000,  0.0000,  0.0000)
  44 Cr     7.360615   10.815439    3.672229    ( 0.0000,  0.0000,  0.0000)
  45 Al     7.266884    1.811614    5.485528    ( 0.0000,  0.0000,  2.1000)
  46 Al     9.077986    0.023590    5.491921    ( 0.0000,  0.0000,  0.0000)
  47 Co     9.066788    1.824226    3.671175    ( 0.0000,  0.0000,  1.5000)
  48 Fe    -0.047135    3.649615    3.617291    ( 0.0000,  0.0000,  2.0000)
  49 Cr    10.809264    5.435993    5.379805    ( 0.0000,  0.0000,  2.0000)
  50 Cr     1.752316    3.624989    5.344676    ( 0.0000,  0.0000,  0.0000)
  51 Cr     1.805786    5.472046    3.619389    ( 0.0000,  0.0000,  2.1000)
  52 Cr     3.649408    3.633491    3.631251    ( 0.0000,  0.0000,  2.1000)
  53 Co     3.657628    5.433797    5.434015    ( 0.0000,  0.0000,  1.5000)
  54 Cr     5.413368    3.672642    5.480309    ( 0.0000,  0.0000,  1.5000)
  55 Al     5.413835    5.465588    3.639666    ( 0.0000,  0.0000,  2.1000)
  56 Ni     7.223449    3.731734    3.720829    ( 0.0000,  0.0000,  0.0000)
  57 Cr     7.220557    5.483180    5.485572    ( 0.0000,  0.0000,  0.0000)
  58 Co     9.069039    3.623673    5.469720    ( 0.0000,  0.0000,  1.5000)
  59 Ni     9.064766    5.503837    3.636731    ( 0.0000,  0.0000,  0.0000)
[...]
  93 Co     7.214631    5.385893    9.048577    ( 0.0000,  0.0000,  2.1000)
  94 Fe     8.994291    3.655975    9.039237    ( 0.0000,  0.0000,  1.5000)
  95 Cr     9.006577    5.423262    7.223296    ( 0.0000,  0.0000,  2.0000)
  96 Ni    -0.070637    7.291956    7.110419    ( 0.0000,  0.0000,  0.0000)
  97 Cr     0.073012    9.104570    9.068375    ( 0.0000,  0.0000,  0.0000)
  98 Cr     1.863247    7.257381    9.054785    ( 0.0000,  0.0000,  2.0000)
  99 Fe     1.858343    9.053708    7.225808    ( 0.0000,  0.0000,  2.1000)
 100 Al     3.683906    7.292456    7.235550    ( 0.0000,  0.0000,  2.0000)
 101 Ni     3.628218    9.069550    9.051262    ( 0.0000,  0.0000,  2.1000)
 102 Co     5.530605    7.331890    9.040129    ( 0.0000,  0.0000,  0.0000)
 103 Al     5.476232    9.097209    7.250467    ( 0.0000,  0.0000,  2.0000)
 104 Ni     7.256827    7.264242    7.208456    ( 0.0000,  0.0000,  2.1000)
 105 Al     7.272548    9.136437    9.056861    ( 0.0000,  0.0000,  1.5000)
 106 Fe     8.936493    7.190875    9.109767    ( 0.0000,  0.0000,  0.0000)
 107 Co     8.994682    9.112169    7.218480    ( 0.0000,  0.0000,  0.0000)

Unit cell:
           periodic     x           y           z      points  spacing
  1. axis:    yes   10.872400    0.000000    0.000000    48     0.2265
  2. axis:    yes    0.000000   10.872400    0.000000    48     0.2265
  3. axis:    yes    0.000000    0.000000   10.872400    48     0.2265

  Lengths:  10.872400  10.872400  10.872400
  Angles:   90.000000  90.000000  90.000000

Effective grid spacing dv^(1/3) = 0.2265

     iter     time        total  log10-change:  magmom
                         energy  eigst   dens
iter:   1 04:21:23  -912.036758                  +120.1134
iter:   2 04:22:33  -832.294943  -0.35  -1.27    +82.6216
iter:   3 04:23:42  -827.578087  -0.75  -1.30    +50.3196
iter:   4 04:24:52  -815.455401  -1.22  -1.32    +45.6812
iter:   5 04:26:01  -809.604362  -1.75  -1.37    +43.4930
iter:   6 04:27:11  -807.424796  -1.71  -1.44    +42.3796
iter:   7 04:28:21  -807.810798  -1.46  -1.50    +42.1207
iter:   8 04:29:30  -807.705456  -1.68  -1.57    +42.5750
iter:   9 04:30:40  -804.796367  -1.94  -1.61    +43.5249
iter:  10 04:31:50  -804.282997  -2.15  -1.71    +43.7818
iter:  11 04:33:00  -802.881262  -2.33  -1.74    +44.1678
iter:  12 04:34:12  -803.017480  -2.47  -1.82    +45.7668
iter:  13 04:35:24  -803.782163  -2.47  -1.89    +46.9348
iter:  14 04:36:36  -804.394107  -2.48  -1.92    +47.8320
iter:  15 04:37:48  -804.264152  -2.60  -1.94    +48.8702
iter:  16 04:39:00  -804.801703  -2.51  -2.00    +49.6584
iter:  17 04:40:12  -804.153796  -2.73  -1.98    +50.5366
iter:  18 04:41:23  -804.140848  -2.94  -2.09    +51.0069
iter:  19 04:42:35  -804.600275  -2.87  -2.14    +52.1657
iter:  20 04:43:47  -804.642441  -2.94  -2.14    +52.8895
iter:  21 04:44:59  -804.691404c -3.01  -2.18    +53.8171
iter:  22 04:46:11  -804.826011  -3.11  -2.21    +54.3667
iter:  23 04:47:23  -804.969858  -3.06  -2.27    +54.9308
iter:  24 04:48:35  -805.093368  -3.14  -2.28    +55.5329
iter:  25 04:49:47  -805.158501  -3.21  -2.31    +55.8118
iter:  26 04:50:59  -805.288756  -3.24  -2.34    +56.3211
iter:  27 04:52:10  -805.433785  -3.19  -2.38    +56.6574
iter:  28 04:53:22  -805.282341  -3.50  -2.34    +57.0538
iter:  29 04:54:34  -805.449435  -3.51  -2.46    +57.2518
iter:  30 04:55:46  -805.407258  -3.79  -2.44    +57.4352
iter:  31 04:56:58  -805.464535c -3.89  -2.48    +57.8514
iter:  32 04:58:10  -805.517303  -3.91  -2.51    +58.0619
iter:  33 04:59:22  -805.586961  -3.84  -2.51    +58.2787
iter:  34 05:00:34  -805.578848c -4.24  -2.50    +58.3686
iter:  35 05:01:45  -805.682887  -3.69  -2.55    +58.4605
iter:  36 05:02:58  -805.632603  -3.72  -2.54    +58.3732
iter:  37 05:04:09  -805.676980c -3.66  -2.66    +58.3353
iter:  38 05:05:21  -805.652128c -3.90  -2.68    +58.4441
iter:  39 05:06:33  -805.633136c -4.29  -2.80    +58.4145
iter:  40 05:07:45  -805.647227c -4.48  -2.93    +58.3995
iter:  41 05:08:57  -805.645260c -4.79  -2.92    +58.3883
iter:  42 05:10:09  -805.658684c -4.64  -3.00    +58.4167
iter:  43 05:11:20  -805.669639c -4.51  -3.00    +58.3587
iter:  44 05:12:32  -805.662766c -4.65  -3.02    +58.2891
iter:  45 05:13:44  -805.673201c -4.58  -3.11    +58.3021
iter:  46 05:14:56  -805.671774c -4.70  -3.09    +58.3092
iter:  47 05:16:08  -805.671938c -4.88  -3.19    +58.3034
iter:  48 05:17:20  -805.677280c -5.02  -3.24    +58.2659
iter:  49 05:18:32  -805.675554c -5.32  -3.25    +58.2784
iter:  50 05:19:43  -805.679962c -5.30  -3.33    +58.2832
iter:  51 05:20:55  -805.681869c -5.57  -3.34    +58.2728
iter:  52 05:22:07  -805.686330c -5.25  -3.36    +58.2464
iter:  53 05:23:19  -805.695480c -4.57  -3.38    +58.1962
iter:  54 05:24:31  -805.700828c -4.74  -3.35    +58.2213
iter:  55 05:25:43  -805.705820c -5.02  -3.29    +58.2911
iter:  56 05:26:55  -805.703894c -5.43  -3.23    +58.2392
iter:  57 05:28:07  -805.704358c -5.33  -3.26    +58.3307
iter:  58 05:29:19  -805.704422c -5.75  -3.34    +58.3582
iter:  59 05:30:31  -805.707799c -4.69  -3.33    +58.4320
iter:  60 05:31:43  -805.700783c -5.19  -3.18    +58.4197
iter:  61 05:32:55  -805.702359c -5.37  -3.46    +58.3859
iter:  62 05:34:07  -805.700850c -5.48  -3.38    +58.3668
iter:  63 05:35:19  -805.702496c -5.45  -3.44    +58.3554
iter:  64 05:36:31  -805.700221c -5.59  -3.49    +58.3669
iter:  65 05:37:43  -805.700472c -5.99  -3.65    +58.3613
iter:  66 05:38:55  -805.700276c -6.12  -3.67    +58.3620
iter:  67 05:40:07  -805.700346c -6.12  -3.68    +58.3656
iter:  68 05:41:19  -805.700072c -6.29  -3.76    +58.3644
iter:  69 05:42:31  -805.700121c -6.32  -3.86    +58.3658
iter:  70 05:43:43  -805.699946c -6.71  -3.89    +58.3677
iter:  71 05:44:55  -805.699631c -6.58  -3.98    +58.3672
iter:  72 05:46:07  -805.699914c -6.12  -4.11c   +58.3702
iter:  73 05:47:19  -805.699543c -6.55  -3.96    +58.3709
iter:  74 05:48:31  -805.699442c -7.03  -4.27c   +58.3698
iter:  75 05:49:43  -805.699356c -7.31  -4.38c   +58.3704
iter:  76 05:50:55  -805.699405c -7.42c -4.39c   +58.3701

Converged after 76 iterations.

Dipole moment: (28.084700, 18.097498, 9.446877) |e|*Ang

Total magnetic moment: (0.000000, 0.000000, 58.370105)
Local magnetic moments:
   0 Ni ( 0.000000,  0.000000,  0.269556)
   1 Al ( 0.000000,  0.000000, -0.032280)
   2 Ni ( 0.000000,  0.000000,  0.198222)
   3 Co ( 0.000000,  0.000000,  1.328283)
   4 Al ( 0.000000,  0.000000, -0.029658)
   5 Ni ( 0.000000,  0.000000,  0.113902)
   6 Co ( 0.000000,  0.000000,  1.046687)
   7 Al ( 0.000000,  0.000000, -0.028220)
   8 Al ( 0.000000,  0.000000, -0.045572)
   9 Fe ( 0.000000,  0.000000,  2.165022)
  10 Fe ( 0.000000,  0.000000,  2.246725)
  11 Fe ( 0.000000,  0.000000,  2.155869)
  12 Ni ( 0.000000,  0.000000,  0.296882)
  13 Ni ( 0.000000,  0.000000,  0.289773)
  14 Co ( 0.000000,  0.000000,  1.067945)
  15 Fe ( 0.000000,  0.000000,  2.265143)
  16 Cr ( 0.000000,  0.000000,  1.650849)
  17 Co ( 0.000000,  0.000000,  0.860287)
  18 Al ( 0.000000,  0.000000, -0.019760)
  19 Ni ( 0.000000,  0.000000,  0.358792)
  20 Co ( 0.000000,  0.000000,  0.846270)
  21 Al ( 0.000000,  0.000000, -0.008590)
  22 Cr ( 0.000000,  0.000000, -2.070946)
  23 Cr ( 0.000000,  0.000000,  1.417090)
  24 Ni ( 0.000000,  0.000000,  0.295549)
  25 Fe ( 0.000000,  0.000000,  2.287337)
  26 Fe ( 0.000000,  0.000000,  2.226585)
  27 Cr ( 0.000000,  0.000000, -1.809334)
  28 Fe ( 0.000000,  0.000000,  2.346766)
  29 Co ( 0.000000,  0.000000,  0.913252)
  30 Ni ( 0.000000,  0.000000,  0.225794)
  31 Fe ( 0.000000,  0.000000,  2.389606)
  32 Ni ( 0.000000,  0.000000,  0.325896)
  33 Co ( 0.000000,  0.000000,  0.907761)
  34 Cr ( 0.000000,  0.000000, -1.463749)
  35 Ni ( 0.000000,  0.000000,  0.210792)
  36 Fe ( 0.000000,  0.000000,  2.269135)
  37 Fe ( 0.000000,  0.000000,  1.951785)
  38 Ni ( 0.000000,  0.000000,  0.259620)
  39 Al ( 0.000000,  0.000000, -0.029509)
  40 Al ( 0.000000,  0.000000, -0.007604)
  41 Co ( 0.000000,  0.000000,  0.436059)
  42 Al ( 0.000000,  0.000000, -0.004760)
  43 Cr ( 0.000000,  0.000000, -2.140484)
  44 Cr ( 0.000000,  0.000000,  1.453965)
  45 Al ( 0.000000,  0.000000, -0.018633)
  46 Al ( 0.000000,  0.000000, -0.027330)
  47 Co ( 0.000000,  0.000000,  0.997146)
  48 Fe ( 0.000000,  0.000000,  1.958103)
  49 Cr ( 0.000000,  0.000000, -1.413794)
  50 Cr ( 0.000000,  0.000000, -1.457805)
  51 Cr ( 0.000000,  0.000000, -1.438854)
  52 Cr ( 0.000000,  0.000000,  1.656846)
  53 Co ( 0.000000,  0.000000,  0.366053)
  54 Cr ( 0.000000,  0.000000,  1.159364)
  55 Al ( 0.000000,  0.000000, -0.020717)
  56 Ni ( 0.000000,  0.000000,  0.091326)
  57 Cr ( 0.000000,  0.000000, -1.342342)
  58 Co ( 0.000000,  0.000000,  1.090359)
  59 Ni ( 0.000000,  0.000000,  0.167972)
[...]
  93 Co ( 0.000000,  0.000000,  1.319127)
  94 Fe ( 0.000000,  0.000000,  2.087967)
  95 Cr ( 0.000000,  0.000000,  1.020185)
  96 Ni ( 0.000000,  0.000000,  0.185750)
  97 Cr ( 0.000000,  0.000000, -2.044482)
  98 Cr ( 0.000000,  0.000000,  1.367726)
  99 Fe ( 0.000000,  0.000000,  2.261150)
 100 Al ( 0.000000,  0.000000, -0.031753)
 101 Ni ( 0.000000,  0.000000,  0.089222)
 102 Co ( 0.000000,  0.000000,  1.076705)
 103 Al ( 0.000000,  0.000000, -0.001589)
 104 Ni ( 0.000000,  0.000000,  0.155546)
 105 Al ( 0.000000,  0.000000, -0.028572)
 106 Fe ( 0.000000,  0.000000,  2.431070)
 107 Co ( 0.000000,  0.000000,  0.808461)

Energy contributions relative to reference atoms: (reference = -3235165.067515)

Kinetic:       +254.285441
Potential:     -243.330925
External:        +0.000000
XC:            -845.855701
Entropy (-ST):   -4.038526
Local:          +31.221045
Free energy:   -807.718668
Extrapolated:  -805.699405

Spin contamination: 27.778903 electrons
Showing only first 2 kpts
                      Up                     Down
 Kpt  Band  Eigenvalues  Occupancy  Eigenvalues  Occupancy
  0   454      9.01315    0.99442      9.92385    0.01939
  0   455      9.03128    0.99332      9.93531    0.01733
  0   456      9.03464    0.99310      9.95309    0.01455
  0   457      9.05390    0.99164      9.96240    0.01327

  1   454      9.00416    0.99490      9.91227    0.02172
  1   455      9.01427    0.99436      9.92828    0.01857
  1   456      9.03612    0.99299      9.94052    0.01646
  1   457      9.04621    0.99226      9.95916    0.01370

Fermi level: 9.53152

No gap

Forces in eV/Ang:
  0 Ni    0.28179   -0.67408   -0.56245
  1 Al    0.08714   -0.40543   -1.15940
  2 Ni   -0.02212    0.07229    0.01183
  3 Co    0.19828   -0.03365   -0.36476
  4 Al   -0.10538    0.66952    0.36450
  5 Ni    0.52971   -0.41094    0.43390
  6 Co   -0.24380    0.24249    0.92592
  7 Al   -0.56053   -0.12318   -0.30077
  8 Al   -0.66690   -0.19248    1.96645
  9 Fe    0.24701    0.05119    0.81060
 10 Fe    0.11962   -0.48828    0.25526
 11 Fe    0.36121    0.61710    0.04400
 12 Ni    0.01172   -0.21721   -0.08795
 13 Ni    0.09670   -0.20969   -0.01790
 14 Co    0.40870    0.11539   -0.25849
 15 Fe    0.21892   -0.20943    0.40856
 16 Cr   -1.01986   -0.22674    0.62957
 17 Co   -0.24089    0.23920    0.10098
 18 Al   -0.48825   -0.49167   -0.14464
 19 Ni   -0.29715    0.09089   -0.29568
 20 Co    0.28012    0.03079   -0.03748
 21 Al    0.53358   -0.00277   -0.47011
 22 Cr   -0.61626    0.13453    0.15049
 23 Cr   -0.29269   -0.27299    0.48550
 24 Ni    0.01862    0.61301   -0.23200
 25 Fe   -0.48106    0.48650   -0.92169
 26 Fe    0.04791   -0.21437   -0.28358
 27 Cr   -0.87569   -0.55042    0.42286
 28 Fe    0.07668   -0.08498    0.48718
 29 Co    0.26306   -0.17909    0.31156
 30 Ni   -0.58918    0.02142    0.18281
 31 Fe    0.06710   -0.49536    0.47636
 32 Ni    0.08151    0.13045   -0.62569
 33 Co   -0.25590    0.13760    0.49420
 34 Cr    0.66431    0.58626   -0.40691
 35 Ni    0.34335    0.12590   -0.25213
 36 Fe   -0.42151   -0.27365   -0.08231
 37 Fe    0.29424    0.76584   -0.22688
 38 Ni    0.77019    0.09829   -0.19640
 39 Al    0.92095   -0.04743    0.17643
 40 Al    1.51542    0.82298   -0.57829
 41 Co   -0.15196    0.07271   -0.47972
 42 Al   -1.01981    1.25759   -0.96962
 43 Cr   -0.26598   -0.30200   -0.43768
 44 Cr   -0.55759    0.05183   -1.55134
 45 Al    0.23231    1.16701   -0.04425
 46 Al   -0.00170   -0.26580   -0.35370
 47 Co   -0.43969    0.21653   -0.14727
 48 Fe    0.00745    0.46875    0.34300
 49 Cr   -0.06446    0.16253    0.59330
 50 Cr    0.69453    0.15975    1.23852
 51 Cr    0.46470    0.13400   -0.25892
 52 Cr   -0.82139   -0.14263    0.06200
 53 Co   -0.45296   -0.21738    0.14781
 54 Cr   -0.43594   -0.75397    0.61200
 55 Al   -0.76110    0.53619    0.55982
 56 Ni    0.23872   -0.29482   -0.82644
 57 Cr    0.55915   -0.25827    0.44970
 58 Co    0.10506    0.25417   -0.27786
 59 Ni   -0.13170   -0.58076    0.04652
[...]
 93 Co   -0.17975    0.43806    0.00404
 94 Fe   -0.17696   -0.45121    0.02474
 95 Cr   -0.19876    0.11962   -0.45305
 96 Ni    0.04622    0.01086    0.88829
 97 Cr   -0.13465   -1.20727    0.01011
 98 Cr   -1.08361    0.75010    0.34919
 99 Fe   -0.56101   -0.03474   -0.09818
100 Al   -0.37223   -0.65008   -0.50034
101 Ni    0.29867   -0.27320    0.10097
102 Co   -0.25367   -0.71675    0.23870
103 Al   -0.23085   -0.96113    1.15416
104 Ni    0.16608   -0.09202    0.69001
105 Al   -0.00194   -1.92420   -0.33353
106 Fe    0.67849    0.44701   -0.62149
107 Co    1.06576   -0.85778    0.49394

Date: Mon Apr 17 05:51:12 2023