User:   c.zeng@d0043
Date:   Mon Apr 17 04:13:25 2023
Arch:   x86_64
Pid:    251415
CWD:    /home/c.zeng/projects/hea-corrosion/hea-mlp/data-curation/bulk-mcmc/dft-jobs/201
Python: 3.8.1
gpaw:   /home/c.zeng/usr/installs/gpaw/source/gpaw-22.8.0/gpaw
_gpaw:  /home/c.zeng/usr/installs/gpaw/source/gpaw-22.8.0/
        _gpaw.cpython-38-x86_64-linux-gnu.so
ase:    /home/c.zeng/.local/lib/python3.8/site-packages/ase-3.22.1-py3.8.egg/ase (version 3.22.1)
numpy:  /home/c.zeng/.local/lib/python3.8/site-packages/numpy (version 1.24.2)
scipy:  /home/c.zeng/.local/lib/python3.8/site-packages/scipy (version 1.10.1)
units:  Angstrom and eV
cores: 30
OpenMP: False
OMP_NUM_THREADS: 1

Input parameters:
  convergence: {energy: 0.0001}
  kpts: [2 2 2]
  maxiter: 666
  mode: {ecut: 350.0,
         name: pw}
  occupations: {fixmagmom: False,
                name: fermi-dirac,
                width: 0.1}
  spinpol: True
  xc: PBE

System changes: positions, numbers, cell, pbc, initial_charges, initial_magmoms

Initialize ...

species:
  Ni:
    name: Nickel
    id: 0d9f38a9d6e76a2886f07bb4381f212b
    Z: 28.0
    valence: 16
    core: 12
    charge: 0.0
    file: /home/c.zeng/usr/data/gpaw-setups-0.9.20000/Ni.PBE.gz
    compensation charges: {type: gauss,
                           rc: 0.36,
                           lmax: 2}
    cutoffs: {filter: 2.14,
              core: 1.98}
    valence states:
      #              energy  rcut
      - 4s(2.00)    -5.642   1.164
      - 3p(6.00)   -71.394   1.207
      - 4p(0.00)    -1.226   1.207
      - 3d(8.00)    -8.875   1.138
      -  s          21.570   1.164
      -  d          18.337   1.138

    # Using partial waves for Ni as LCAO basis

  Al:
    name: Aluminium
    id: 0292cae29f5d6237e50f6abdd43a7bdd
    Z: 13.0
    valence: 3
    core: 10
    charge: 0.0
    file: /home/c.zeng/usr/data/gpaw-setups-0.9.20000/Al.PBE.gz
    compensation charges: {type: gauss,
                           rc: 0.34,
                           lmax: 2}
    cutoffs: {filter: 1.91,
              core: 2.36}
    valence states:
      #              energy  rcut
      - 3s(2.00)    -7.753   1.085
      - 3p(1.00)    -2.712   1.085
      -  s          19.459   1.085
      -  p          24.499   1.085
      -  d           0.000   1.085

[...]

  Co:
    name: Cobalt
    id: 339d20d5b0b93d2de9531a1bee871d91
    Z: 27.0
    valence: 9
    core: 18
    charge: 0.0
    file: /home/c.zeng/usr/data/gpaw-setups-0.9.20000/Co.PBE.gz
    compensation charges: {type: gauss,
                           rc: 0.32,
                           lmax: 2}
    cutoffs: {filter: 1.87,
              core: 2.55}
    valence states:
      #              energy  rcut
      - 4s(2.00)    -5.469   1.005
      - 4p(0.00)    -1.277   1.058
      - 3d(7.00)    -8.205   1.005
      -  s          21.742   1.005
      -  p          25.934   1.058
      -  d          19.007   1.005

[...]

  Fe:
    name: Iron
    id: 37abbd8d6c3c35915a9b583b742da910
    Z: 26.0
    valence: 8
    core: 18
    charge: 0.0
    file: /home/c.zeng/usr/data/gpaw-setups-0.9.20000/Fe.PBE.gz
    compensation charges: {type: gauss,
                           rc: 0.33,
                           lmax: 2}
    cutoffs: {filter: 2.06,
              core: 2.67}
    valence states:
      #              energy  rcut
      - 4s(2.00)    -5.291   1.164
      - 4p(0.00)    -1.326   1.058
      - 3d(6.00)    -7.505   1.058
      -  s          21.920   1.164
      -  p          25.885   1.058
      -  d          19.706   1.058

[...]

  Cr:
    name: Chromium
    id: 33f258bda2ca9f93018e70263a35547b
    Z: 24.0
    valence: 6
    core: 18
    charge: 0.0
    file: /home/c.zeng/usr/data/gpaw-setups-0.9.20000/Cr.PBE.gz
    compensation charges: {type: gauss,
                           rc: 0.35,
                           lmax: 2}
    cutoffs: {filter: 2.14,
              core: 3.04}
    valence states:
      #              energy  rcut
      - 4s(1.00)    -4.007   1.164
      - 4p(0.00)    -0.989   1.217
      - 3d(5.00)    -2.913   1.111
      -  s          23.205   1.164
      -  p          26.223   1.217
      -  d          24.299   1.111

    # Using partial waves for Cr as LCAO basis

Reference energy: -3235165.067515  # eV

Spin-polarized calculation.
Magnetic moment: 121.100000

Convergence criteria:
 Maximum [total energy] change in last 3 cyles: 0.0001 eV / electron
 Maximum integral of absolute [dens]ity change: 0.0001 electrons / valence electron
 Maximum integral of absolute [eigenst]ate change: 4e-08 eV^2 / valence electron
 Maximum number of scf [iter]ations: 666
 (Square brackets indicate name in SCF output, whereas a 'c' in
 the SCF output indicates the quantity has converged.)

Symmetries present (total): 1

  ( 1  0  0)
  ( 0  1  0)
  ( 0  0  1)

8 k-points: 2 x 2 x 2 Monkhorst-Pack grid
4 k-points in the irreducible part of the Brillouin zone
       k-points in crystal coordinates                weights
   0:     0.25000000   -0.25000000   -0.25000000          2/8
   1:     0.25000000   -0.25000000    0.25000000          2/8
   2:     0.25000000    0.25000000   -0.25000000          2/8
   3:     0.25000000    0.25000000    0.25000000          2/8

Wave functions: Plane wave expansion
  Cutoff energy: 350.000 eV
  Number of coefficients (min, max): 19084, 19084
  Pulay-stress correction: 0.000000 eV/Ang^3 (de/decut=0.000000)
  Using FFTW library
  ScaLapack parameters: grid=1x1, blocksize=None
  Wavefunction extrapolation:
    Improved wavefunction reuse through dual PAW basis

Occupation numbers: Fermi-Dirac:
  width: 0.1000  # eV

Eigensolver
   Davidson(niter=2)

Densities:
  Coarse grid: 48*48*48 grid
  Fine grid: 96*96*96 grid
  Total Charge: 0.000000

Density mixing:
  Method: difference
  Backend: pulay
  Linear mixing parameter: 0.05
  old densities: 5
  Damping of long wavelength oscillations: 50

Hamiltonian:
  XC and Coulomb potentials evaluated on a 96*96*96 grid
  Using the PBE Exchange-Correlation functional
  External potential:
    NoExternalPotential

XC parameters: PBE with 2 nearest neighbor stencil

Total number of cores used: 30
Parallelization over k-points: 2
Domain decomposition: 5 x 3 x 1

Number of atoms: 108
Number of atomic orbitals: 933
Number of bands in calculation: 624
Number of valence electrons: 912
Bands to converge: occupied

... initialized

Initializing position-dependent things.

Density initialized from atomic densities
Creating initial wave functions:
  624 bands from LCAO basis set

        .--------Al----------------.
       /|           Fe             |
      / |    FeFe     Ni           |
     / Cr       Cr       Al        |
    /   |Fe      NiCo       Fe     |
   /    | NiCr      ACo            |
  /    Co  FeiAlAl    Co Fe  CoAl  |
 *      Fe     AlCoAl   CrFe     Cr|
 |      |FeCr   NiFeFe   AlCrCr   Co
 |      | CoCr   AlCoCoAl CrNiFe   |
 |     Fe  Al CoCo  NiCr Cr  CrNi  |
 |      Cr  Ni CrNiCo CoNiCoAl   Fe|
 |      |NiCo   CoAlAl   CoCrFe   Fe
 |      .-FeCr-----CrNi-Al--CrFe---.
 |     Al  Cr CoCr    Al Co  Ni Ni/
 |    / Co              Ni       Cr
 |   /           Ali      NiFe  /
 |  /      Ni       Fe     NiAl/
 | /                   Fe     /i
 *--------------------------Ni

Positions:
   0 Ni    10.797848    0.093654    0.085777    ( 0.0000,  0.0000,  0.0000)
   1 Al    10.831824    1.844742    1.870716    ( 0.0000,  0.0000,  2.0000)
   2 Ni     1.786803   10.847372    1.827335    ( 0.0000,  0.0000,  0.0000)
   3 Co     1.769614    1.870531   -0.031264    ( 0.0000,  0.0000,  0.0000)
   4 Al     3.620857   10.822050   10.833629    ( 0.0000,  0.0000,  1.5000)
   5 Ni     3.571246    1.883176    1.708402    ( 0.0000,  0.0000,  0.0000)
   6 Co     5.521103   10.788063    1.666217    ( 0.0000,  0.0000,  0.0000)
   7 Al     5.520831    1.813973   10.830911    ( 0.0000,  0.0000,  1.5000)
   8 Al     7.330846    0.011025   10.815657    ( 0.0000,  0.0000,  2.0000)
   9 Fe     7.282018    1.809483    1.793250    ( 0.0000,  0.0000,  2.1000)
  10 Fe     9.029996    0.022005    1.811918    ( 0.0000,  0.0000,  1.5000)
  11 Fe     9.007196    1.868639   10.825714    ( 0.0000,  0.0000,  2.0000)
  12 Ni    10.861310    3.649723    0.014171    ( 0.0000,  0.0000,  2.0000)
  13 Ni    10.867442    5.463468    1.819235    ( 0.0000,  0.0000,  2.1000)
  14 Co     1.756088    3.650267    1.845949    ( 0.0000,  0.0000,  0.0000)
  15 Fe     1.790358    5.439092   10.869084    ( 0.0000,  0.0000,  2.1000)
  16 Cr     3.687842    3.622792   -0.049287    ( 0.0000,  0.0000,  2.0000)
  17 Co     3.667347    5.391145    1.745368    ( 0.0000,  0.0000,  0.0000)
  18 Al     5.497977    3.634415    1.792370    ( 0.0000,  0.0000,  2.0000)
  19 Ni     5.524908    5.448029    0.002551    ( 0.0000,  0.0000,  2.0000)
  20 Co     7.223340    3.611877   10.834270    ( 0.0000,  0.0000,  0.0000)
  21 Al     7.217762    5.474830    1.807776    ( 0.0000,  0.0000,  2.1000)
  22 Ni     9.073442    3.654344    1.775148    ( 0.0000,  0.0000,  0.0000)
  23 Ni     9.008740    5.418608    0.007692    ( 0.0000,  0.0000,  2.0000)
  24 Cr    10.859190    7.178720    0.014480    ( 0.0000,  0.0000,  1.5000)
  25 Fe    -0.018106    8.970948    1.875391    ( 0.0000,  0.0000,  0.0000)
  26 Fe     1.817615    7.224025    1.802546    ( 0.0000,  0.0000,  1.5000)
  27 Cr     1.880729    8.993464   10.874031    ( 0.0000,  0.0000,  0.0000)
  28 Fe     3.684428    7.260447   -0.001356    ( 0.0000,  0.0000,  2.0000)
  29 Co     3.612616    9.025636    1.761807    ( 0.0000,  0.0000,  1.5000)
  30 Cr     5.481440    7.275114    1.811211    ( 0.0000,  0.0000,  1.5000)
  31 Fe     5.461261    9.048153   10.833988    ( 0.0000,  0.0000,  1.5000)
  32 Ni     7.245704    7.257881    0.056891    ( 0.0000,  0.0000,  2.1000)
  33 Co     7.301969    9.004609    1.790315    ( 0.0000,  0.0000,  0.0000)
  34 Cr     9.029343    7.181775    1.815549    ( 0.0000,  0.0000,  2.0000)
  35 Ni     9.030561    9.042010    0.020232    ( 0.0000,  0.0000,  1.5000)
  36 Fe    -0.031046    0.001947    3.645701    ( 0.0000,  0.0000,  2.0000)
  37 Fe    10.825910    1.804351    5.434602    ( 0.0000,  0.0000,  2.1000)
  38 Ni     1.743552   10.849296    5.484376    ( 0.0000,  0.0000,  0.0000)
  39 Al     1.769755    1.791891    3.636068    ( 0.0000,  0.0000,  1.5000)
  40 Al     3.516667   10.719828    3.663227    ( 0.0000,  0.0000,  0.0000)
  41 Co     3.644244    1.785205    5.586728    ( 0.0000,  0.0000,  0.0000)
  42 Al     5.484778   10.815439    5.504022    ( 0.0000,  0.0000,  0.0000)
  43 Cr     5.457934    1.842230    3.658769    ( 0.0000,  0.0000,  0.0000)
  44 Cr     7.360615   10.815439    3.672229    ( 0.0000,  0.0000,  0.0000)
  45 Al     7.266884    1.811614    5.485528    ( 0.0000,  0.0000,  2.1000)
  46 Al     9.077986    0.023590    5.491921    ( 0.0000,  0.0000,  0.0000)
  47 Co     9.066788    1.824226    3.671175    ( 0.0000,  0.0000,  1.5000)
  48 Fe    -0.047135    3.649615    3.617291    ( 0.0000,  0.0000,  2.0000)
  49 Ni    10.809264    5.435993    5.379805    ( 0.0000,  0.0000,  2.0000)
  50 Cr     1.752316    3.624989    5.344676    ( 0.0000,  0.0000,  0.0000)
  51 Ni     1.805786    5.472046    3.619389    ( 0.0000,  0.0000,  2.1000)
  52 Cr     3.649408    3.633491    3.631251    ( 0.0000,  0.0000,  2.1000)
  53 Co     3.657628    5.433797    5.434015    ( 0.0000,  0.0000,  1.5000)
  54 Ni     5.413368    3.672642    5.480309    ( 0.0000,  0.0000,  1.5000)
  55 Al     5.413835    5.465588    3.639666    ( 0.0000,  0.0000,  2.1000)
  56 Ni     7.223449    3.731734    3.720829    ( 0.0000,  0.0000,  0.0000)
  57 Cr     7.220557    5.483180    5.485572    ( 0.0000,  0.0000,  0.0000)
  58 Co     9.069039    3.623673    5.469720    ( 0.0000,  0.0000,  1.5000)
  59 Cr     9.064766    5.503837    3.636731    ( 0.0000,  0.0000,  0.0000)
[...]
  93 Co     7.214631    5.385893    9.048577    ( 0.0000,  0.0000,  2.1000)
  94 Fe     8.994291    3.655975    9.039237    ( 0.0000,  0.0000,  1.5000)
  95 Cr     9.006577    5.423262    7.223296    ( 0.0000,  0.0000,  2.0000)
  96 Cr    -0.070637    7.291956    7.110419    ( 0.0000,  0.0000,  0.0000)
  97 Cr     0.073012    9.104570    9.068375    ( 0.0000,  0.0000,  0.0000)
  98 Ni     1.863247    7.257381    9.054785    ( 0.0000,  0.0000,  2.0000)
  99 Fe     1.858343    9.053708    7.225808    ( 0.0000,  0.0000,  2.1000)
 100 Al     3.683906    7.292456    7.235550    ( 0.0000,  0.0000,  2.0000)
 101 Cr     3.628218    9.069550    9.051262    ( 0.0000,  0.0000,  2.1000)
 102 Co     5.530605    7.331890    9.040129    ( 0.0000,  0.0000,  0.0000)
 103 Al     5.476232    9.097209    7.250467    ( 0.0000,  0.0000,  2.0000)
 104 Cr     7.256827    7.264242    7.208456    ( 0.0000,  0.0000,  2.1000)
 105 Al     7.272548    9.136437    9.056861    ( 0.0000,  0.0000,  1.5000)
 106 Fe     8.936493    7.190875    9.109767    ( 0.0000,  0.0000,  0.0000)
 107 Co     8.994682    9.112169    7.218480    ( 0.0000,  0.0000,  0.0000)

Unit cell:
           periodic     x           y           z      points  spacing
  1. axis:    yes   10.872400    0.000000    0.000000    48     0.2265
  2. axis:    yes    0.000000   10.872400    0.000000    48     0.2265
  3. axis:    yes    0.000000    0.000000   10.872400    48     0.2265

  Lengths:  10.872400  10.872400  10.872400
  Angles:   90.000000  90.000000  90.000000

Effective grid spacing dv^(1/3) = 0.2265

     iter     time        total  log10-change:  magmom
                         energy  eigst   dens
iter:   1 04:16:24  -936.171179                  +120.1379
iter:   2 04:17:34  -844.666822  -0.28  -1.24    +81.0979
iter:   3 04:18:45  -848.695209  -0.71  -1.26    +48.5265
iter:   4 04:19:56  -816.626594  -1.15  -1.26    +43.9470
iter:   5 04:21:06  -809.708971  -1.70  -1.36    +40.4764
iter:   6 04:22:17  -810.947515  -1.69  -1.41    +39.6510
iter:   7 04:23:27  -812.425916  -1.42  -1.45    +39.4037
iter:   8 04:24:38  -805.087853  -1.64  -1.49    +39.1954
iter:   9 04:25:48  -807.720472  -1.84  -1.62    +39.7805
iter:  10 04:26:59  -802.336331  -1.98  -1.62    +40.2867
iter:  11 04:28:09  -801.581122  -2.42  -1.77    +41.0577
iter:  12 04:29:20  -802.199272  -2.57  -1.85    +43.0683
iter:  13 04:30:31  -803.720212  -2.45  -1.88    +44.5070
iter:  14 04:31:41  -803.702286  -2.40  -1.87    +45.8234
iter:  15 04:32:52  -803.497036  -2.58  -1.92    +47.0239
iter:  16 04:34:04  -804.348008  -2.49  -1.99    +48.0454
iter:  17 04:35:17  -803.442801  -2.72  -1.97    +49.2658
iter:  18 04:36:29  -803.513445  -2.90  -2.08    +50.5488
iter:  19 04:37:42  -803.820098  -2.95  -2.14    +51.5665
iter:  20 04:38:54  -804.079809  -2.89  -2.17    +52.1118
iter:  21 04:40:07  -804.151841  -2.87  -2.17    +53.0755
iter:  22 04:41:20  -803.962541  -3.03  -2.19    +53.9314
iter:  23 04:42:32  -804.360083  -2.96  -2.32    +54.5551
iter:  24 04:43:45  -804.053545  -3.16  -2.27    +54.8540
iter:  25 04:44:57  -804.140229  -3.31  -2.42    +55.6166
iter:  26 04:46:10  -804.208459  -3.46  -2.44    +56.1258
iter:  27 04:47:22  -804.231195c -3.60  -2.45    +56.4149
iter:  28 04:48:35  -804.238129c -3.82  -2.47    +56.6802
iter:  29 04:49:47  -804.322159c -3.84  -2.53    +57.0452
iter:  30 04:51:00  -804.345658  -4.25  -2.52    +57.2016
iter:  31 04:52:12  -804.447539  -3.65  -2.54    +57.4313
iter:  32 04:53:25  -804.535812  -3.41  -2.56    +57.4351
iter:  33 04:54:37  -804.524954c -3.78  -2.64    +57.2570
iter:  34 04:55:50  -804.541502c -3.85  -2.73    +57.0655
iter:  35 04:57:02  -804.565051c -4.05  -2.80    +57.0059
iter:  36 04:58:15  -804.564777c -4.24  -2.83    +56.9209
iter:  37 04:59:27  -804.587475c -4.59  -2.96    +56.7474
iter:  38 05:00:40  -804.621261c -4.50  -3.00    +56.5860
iter:  39 05:01:53  -804.631877c -4.78  -3.00    +56.5122
iter:  40 05:03:05  -804.657062c -4.54  -3.06    +56.3720
iter:  41 05:04:17  -804.698780c -4.30  -3.13    +56.1730
iter:  42 05:05:30  -804.687755c -4.91  -3.19    +56.2063
iter:  43 05:06:43  -804.721768c -4.54  -3.26    +56.0263
iter:  44 05:07:55  -804.746304c -4.71  -3.32    +55.9285
iter:  45 05:09:08  -804.835021  -3.91  -3.32    +55.5951
iter:  46 05:10:20  -804.985879  -3.20  -3.16    +54.9554
iter:  47 05:11:33  -805.012703  -3.60  -2.96    +54.7465
iter:  48 05:12:45  -805.021906c -4.16  -2.90    +54.7045
iter:  49 05:13:58  -805.039346c -4.35  -2.88    +54.6762
iter:  50 05:15:10  -805.054870c -4.71  -2.84    +54.6589
iter:  51 05:16:23  -805.050810c -4.49  -2.79    +54.6525
iter:  52 05:17:35  -805.038366c -3.94  -2.75    +54.6242
iter:  53 05:18:48  -805.060601c -3.85  -2.74    +54.6004
iter:  54 05:20:00  -805.061598c -3.64  -2.71    +54.4274
iter:  55 05:21:13  -805.033305c -3.69  -2.69    +54.3276
iter:  56 05:22:25  -804.965029  -4.21  -2.75    +54.2896
iter:  57 05:23:38  -804.970140c -4.37  -3.06    +54.2060
iter:  58 05:24:50  -804.974043c -4.44  -3.01    +54.1797
iter:  59 05:26:03  -804.975613c -4.40  -3.04    +54.1635
iter:  60 05:27:15  -804.964236c -4.63  -3.02    +54.1665
iter:  61 05:28:28  -804.967744c -4.61  -3.15    +54.1272
iter:  62 05:29:40  -804.959770c -4.77  -3.13    +54.1144
iter:  63 05:30:53  -804.959150c -5.17  -3.22    +54.1164
iter:  64 05:32:05  -804.957281c -5.27  -3.33    +54.1155
iter:  65 05:33:18  -804.958310c -5.21  -3.34    +54.1031
iter:  66 05:34:30  -804.957461c -5.36  -3.33    +54.0993
iter:  67 05:35:43  -804.956831c -5.45  -3.39    +54.1059
iter:  68 05:36:55  -804.958845c -5.27  -3.43    +54.1073
iter:  69 05:38:08  -804.955287c -5.43  -3.38    +54.0942
iter:  70 05:39:20  -804.956635c -5.53  -3.48    +54.0854
iter:  71 05:40:33  -804.956514c -5.54  -3.50    +54.0938
iter:  72 05:41:45  -804.955482c -5.63  -3.51    +54.0942
iter:  73 05:42:58  -804.955092c -5.86  -3.55    +54.0831
iter:  74 05:44:10  -804.954898c -5.93  -3.60    +54.0771
iter:  75 05:45:23  -804.955530c -5.92  -3.61    +54.0784
iter:  76 05:46:35  -804.954679c -5.99  -3.65    +54.0753
iter:  77 05:47:48  -804.955186c -5.95  -3.66    +54.0637
iter:  78 05:49:01  -804.955405c -5.80  -3.66    +54.0566
iter:  79 05:50:13  -804.955467c -5.80  -3.67    +54.0554
iter:  80 05:51:26  -804.955249c -6.01  -3.68    +54.0519
iter:  81 05:52:38  -804.954441c -6.00  -3.76    +54.0373
iter:  82 05:53:51  -804.955154c -6.21  -3.79    +54.0311
iter:  83 05:55:03  -804.954981c -6.36  -3.83    +54.0299
iter:  84 05:56:16  -804.954976c -6.32  -3.87    +54.0253
iter:  85 05:57:28  -804.955058c -6.25  -3.87    +54.0153
iter:  86 05:58:41  -804.955014c -6.47  -3.86    +54.0072
iter:  87 05:59:53  -804.955717c -6.22  -3.95    +53.9999
iter:  88 06:01:06  -804.955102c -6.31  -3.91    +53.9935
iter:  89 06:02:18  -804.955417c -6.36  -3.94    +53.9769
iter:  90 06:03:31  -804.955574c -6.38  -3.99    +53.9667
iter:  91 06:04:43  -804.955755c -6.49  -3.99    +53.9602
iter:  92 06:05:56  -804.955745c -6.65  -4.02c   +53.9519
iter:  93 06:07:09  -804.955780c -6.66  -4.10c   +53.9374
iter:  94 06:08:21  -804.955709c -7.60c -4.11c   +53.9383

Converged after 94 iterations.

Dipole moment: (28.378226, 17.253709, 9.238276) |e|*Ang

Total magnetic moment: (0.000000, 0.000000, 53.938289)
Local magnetic moments:
   0 Ni ( 0.000000,  0.000000,  0.386506)
   1 Al ( 0.000000,  0.000000, -0.041970)
   2 Ni ( 0.000000,  0.000000,  0.214234)
   3 Co ( 0.000000,  0.000000,  1.224281)
   4 Al ( 0.000000,  0.000000, -0.016732)
   5 Ni ( 0.000000,  0.000000,  0.132276)
   6 Co ( 0.000000,  0.000000,  1.073291)
   7 Al ( 0.000000,  0.000000, -0.024105)
   8 Al ( 0.000000,  0.000000, -0.046366)
   9 Fe ( 0.000000,  0.000000,  2.209856)
  10 Fe ( 0.000000,  0.000000,  2.253164)
  11 Fe ( 0.000000,  0.000000,  2.324837)
  12 Ni ( 0.000000,  0.000000,  0.397321)
  13 Ni ( 0.000000,  0.000000,  0.291854)
  14 Co ( 0.000000,  0.000000,  1.062344)
  15 Fe ( 0.000000,  0.000000,  2.193395)
  16 Cr ( 0.000000,  0.000000,  1.719738)
  17 Co ( 0.000000,  0.000000,  0.609643)
  18 Al ( 0.000000,  0.000000, -0.025373)
  19 Ni ( 0.000000,  0.000000,  0.262678)
  20 Co ( 0.000000,  0.000000,  1.191940)
  21 Al ( 0.000000,  0.000000, -0.001431)
  22 Ni ( 0.000000,  0.000000,  0.252334)
  23 Ni ( 0.000000,  0.000000,  0.257375)
  24 Cr ( 0.000000,  0.000000, -2.100349)
  25 Fe ( 0.000000,  0.000000,  2.192476)
  26 Fe ( 0.000000,  0.000000,  2.145067)
  27 Cr ( 0.000000,  0.000000, -1.607049)
  28 Fe ( 0.000000,  0.000000,  2.226871)
  29 Co ( 0.000000,  0.000000,  0.904022)
  30 Cr ( 0.000000,  0.000000, -1.723486)
  31 Fe ( 0.000000,  0.000000,  2.118152)
  32 Ni ( 0.000000,  0.000000,  0.191889)
  33 Co ( 0.000000,  0.000000,  0.955626)
  34 Cr ( 0.000000,  0.000000,  1.613810)
  35 Ni ( 0.000000,  0.000000,  0.151901)
  36 Fe ( 0.000000,  0.000000,  2.246388)
  37 Fe ( 0.000000,  0.000000,  1.897543)
  38 Ni ( 0.000000,  0.000000,  0.289861)
  39 Al ( 0.000000,  0.000000, -0.027309)
  40 Al ( 0.000000,  0.000000, -0.002683)
  41 Co ( 0.000000,  0.000000,  0.736997)
  42 Al ( 0.000000,  0.000000, -0.011886)
  43 Cr ( 0.000000,  0.000000, -2.329663)
  44 Cr ( 0.000000,  0.000000,  1.402538)
  45 Al ( 0.000000,  0.000000, -0.015736)
  46 Al ( 0.000000,  0.000000, -0.020635)
  47 Co ( 0.000000,  0.000000,  1.245729)
  48 Fe ( 0.000000,  0.000000,  2.284586)
  49 Ni ( 0.000000,  0.000000,  0.230606)
  50 Cr ( 0.000000,  0.000000, -2.009580)
  51 Ni ( 0.000000,  0.000000,  0.309321)
  52 Cr ( 0.000000,  0.000000,  1.986096)
  53 Co ( 0.000000,  0.000000,  0.434614)
  54 Ni ( 0.000000,  0.000000,  0.100171)
  55 Al ( 0.000000,  0.000000, -0.000799)
  56 Ni ( 0.000000,  0.000000, -0.021742)
  57 Cr ( 0.000000,  0.000000, -1.046280)
  58 Co ( 0.000000,  0.000000,  0.767798)
  59 Cr ( 0.000000,  0.000000, -1.848955)
[...]
  93 Co ( 0.000000,  0.000000,  1.371505)
  94 Fe ( 0.000000,  0.000000,  2.161322)
  95 Cr ( 0.000000,  0.000000,  0.190948)
  96 Cr ( 0.000000,  0.000000, -1.844794)
  97 Cr ( 0.000000,  0.000000,  1.965527)
  98 Ni ( 0.000000,  0.000000,  0.183855)
  99 Fe ( 0.000000,  0.000000,  2.240910)
 100 Al ( 0.000000,  0.000000, -0.029985)
 101 Cr ( 0.000000,  0.000000,  0.670020)
 102 Co ( 0.000000,  0.000000,  0.732171)
 103 Al ( 0.000000,  0.000000, -0.002455)
 104 Cr ( 0.000000,  0.000000, -0.053278)
 105 Al ( 0.000000,  0.000000, -0.021439)
 106 Fe ( 0.000000,  0.000000,  2.242974)
 107 Co ( 0.000000,  0.000000,  0.827481)

Energy contributions relative to reference atoms: (reference = -3235165.067515)

Kinetic:       +256.079731
Potential:     -244.689797
External:        +0.000000
XC:            -845.434680
Entropy (-ST):   -4.142711
Local:          +31.160392
Free energy:   -807.027065
Extrapolated:  -804.955709

Spin contamination: 29.074771 electrons
Showing only first 2 kpts
                      Up                     Down
 Kpt  Band  Eigenvalues  Occupancy  Eigenvalues  Occupancy
  0   454      9.03503    0.99328      9.87702    0.03155
  0   455      9.04769    0.99238      9.89470    0.02657
  0   456      9.05969    0.99142      9.90714    0.02354
  0   457      9.07795    0.98971      9.91766    0.02124

  1   454      9.01792    0.99433      9.86956    0.03391
  1   455      9.03095    0.99355      9.87966    0.03075
  1   456      9.05142    0.99209      9.89980    0.02529
  1   457      9.05941    0.99144      9.91600    0.02159

Fermi level: 9.53461

No gap

Forces in eV/Ang:
  0 Ni    0.33295   -0.52729   -0.43921
  1 Al   -0.40307    0.06904   -1.21903
  2 Ni   -0.09870    0.02698    0.03465
  3 Co    0.02422    0.02032   -0.24962
  4 Al   -0.10893    0.65039    1.09320
  5 Ni    0.48496   -0.46958    0.42567
  6 Co   -0.09683    0.26414    0.99820
  7 Al   -0.30037   -0.10057    0.03245
  8 Al   -0.77197   -0.24610    1.92904
  9 Fe    0.31321    0.08121    0.73814
 10 Fe    0.13038   -0.40903    0.29169
 11 Fe    0.33694    0.42343   -0.11876
 12 Ni   -0.09518   -0.25616   -0.06954
 13 Ni    0.20938   -0.26247    0.11344
 14 Co    0.33524    0.02379   -0.26799
 15 Fe    0.25512   -0.02730    0.43411
 16 Cr   -0.93989   -0.51802    0.40744
 17 Co   -0.22025    0.47777    0.42545
 18 Al   -0.51701   -0.33678   -0.10703
 19 Ni   -0.32553    0.10092   -0.15010
 20 Co    0.32225   -0.10677   -0.05249
 21 Al    1.36878   -0.55404   -0.72078
 22 Ni   -0.48227   -0.10744    0.38613
 23 Ni    0.06775   -0.12107   -0.19028
 24 Cr   -0.14609    0.81536    0.19052
 25 Fe    0.01255    0.80845   -0.91524
 26 Fe    0.29016   -0.45780   -0.13825
 27 Cr   -0.42952    0.27780   -0.09473
 28 Fe   -0.07498   -0.11698    0.46926
 29 Co    0.32400   -0.37485    0.42679
 30 Cr   -1.06447    1.29184   -0.66923
 31 Fe   -0.09960   -0.64218    0.38808
 32 Ni    0.07695   -0.05007   -0.40393
 33 Co   -0.34964    0.25247    0.62754
 34 Cr    0.18652    0.69529   -0.02719
 35 Ni    0.16029    0.28165   -0.22313
 36 Fe   -0.36846   -0.14733   -0.11346
 37 Fe    0.10033    0.44565   -0.15223
 38 Ni    0.79337    0.20994   -0.20090
 39 Al    0.91745   -0.04205    0.11801
 40 Al    1.60602    0.76108   -0.64480
 41 Co   -0.17600    0.23065   -0.53872
 42 Al   -1.39778    1.28090   -0.63018
 43 Cr   -0.45490   -0.54980   -0.57292
 44 Cr   -0.54051    0.10242   -1.65148
 45 Al   -0.32746    1.48750   -0.47358
 46 Al    0.08753   -0.66945   -0.75437
 47 Co   -0.41380    0.27918   -0.23840
 48 Fe   -0.06821    0.39755    0.35932
 49 Ni    0.32258   -0.11028    0.54029
 50 Cr    0.17626    0.64104    0.85232
 51 Ni    0.30819   -0.04969   -0.12358
 52 Cr   -0.65028   -0.29469    0.27092
 53 Co   -0.56015    0.17982    0.29514
 54 Ni    0.03374   -0.44823   -0.11134
 55 Al   -0.35086    0.23413    1.12145
 56 Ni    0.19546   -0.46593   -0.81665
 57 Cr    0.42511   -0.17251    0.96809
 58 Co    0.07219    0.22944   -0.00546
 59 Cr    0.54458   -0.15520    0.04810
[...]
 93 Co    0.05128    0.41224   -0.02846
 94 Fe   -0.29464   -0.16875    0.17498
 95 Cr   -0.38102   -0.00088   -0.46354
 96 Cr    0.04740    0.30004    0.51858
 97 Cr   -0.36476   -1.30144    0.66057
 98 Ni   -0.38532   -0.22401   -0.21743
 99 Fe   -0.35439   -0.05782   -0.09828
100 Al   -0.49260   -0.92835   -0.52619
101 Cr   -0.31304   -0.37608    0.60272
102 Co   -0.20620   -0.40328    0.03151
103 Al   -0.79477   -0.30921    0.92111
104 Cr    0.54223   -1.41000    0.84328
105 Al   -0.02754   -1.84525   -0.05921
106 Fe    0.59618    0.00586   -0.48232
107 Co    0.71028   -0.90040    0.43868

Date: Mon Apr 17 06:08:38 2023