User:   c.zeng@d0026
Date:   Sat Apr 15 19:15:01 2023
Arch:   x86_64
Pid:    113053
CWD:    /home/c.zeng/projects/hea-corrosion/hea-mlp/data-curation/bulk-mcmc/dft-jobs/75
Python: 3.8.1
gpaw:   /home/c.zeng/usr/installs/gpaw/source/gpaw-22.8.0/gpaw
_gpaw:  /home/c.zeng/usr/installs/gpaw/source/gpaw-22.8.0/
        _gpaw.cpython-38-x86_64-linux-gnu.so
ase:    /home/c.zeng/.local/lib/python3.8/site-packages/ase-3.22.1-py3.8.egg/ase (version 3.22.1)
numpy:  /shared/centos7/python/3.8.1/lib/python3.8/site-packages/numpy (version 1.17.4)
scipy:  /shared/centos7/python/3.8.1/lib/python3.8/site-packages/scipy (version 1.4.1)
units:  Angstrom and eV
cores: 30
OpenMP: False
OMP_NUM_THREADS: 1

Input parameters:
  convergence: {energy: 0.0001}
  kpts: [2 2 2]
  maxiter: 666
  mode: {ecut: 350.0,
         name: pw}
  occupations: {fixmagmom: False,
                name: fermi-dirac,
                width: 0.1}
  spinpol: True
  xc: PBE

System changes: positions, numbers, cell, pbc, initial_charges, initial_magmoms

Initialize ...

species:
  Cr:
    name: Chromium
    id: 33f258bda2ca9f93018e70263a35547b
    Z: 24.0
    valence: 6
    core: 18
    charge: 0.0
    file: /home/c.zeng/usr/data/gpaw-setups-0.9.20000/Cr.PBE.gz
    compensation charges: {type: gauss,
                           rc: 0.35,
                           lmax: 2}
    cutoffs: {filter: 2.14,
              core: 3.04}
    valence states:
      #              energy  rcut
      - 4s(1.00)    -4.007   1.164
      - 4p(0.00)    -0.989   1.217
      - 3d(5.00)    -2.913   1.111
      -  s          23.205   1.164
      -  p          26.223   1.217
      -  d          24.299   1.111

    # Using partial waves for Cr as LCAO basis

  Ni:
    name: Nickel
    id: 0d9f38a9d6e76a2886f07bb4381f212b
    Z: 28.0
    valence: 16
    core: 12
    charge: 0.0
    file: /home/c.zeng/usr/data/gpaw-setups-0.9.20000/Ni.PBE.gz
    compensation charges: {type: gauss,
                           rc: 0.36,
                           lmax: 2}
    cutoffs: {filter: 2.14,
              core: 1.98}
    valence states:
      #              energy  rcut
      - 4s(2.00)    -5.642   1.164
      - 3p(6.00)   -71.394   1.207
      - 4p(0.00)    -1.226   1.207
      - 3d(8.00)    -8.875   1.138
      -  s          21.570   1.164
      -  d          18.337   1.138

[...]

  Fe:
    name: Iron
    id: 37abbd8d6c3c35915a9b583b742da910
    Z: 26.0
    valence: 8
    core: 18
    charge: 0.0
    file: /home/c.zeng/usr/data/gpaw-setups-0.9.20000/Fe.PBE.gz
    compensation charges: {type: gauss,
                           rc: 0.33,
                           lmax: 2}
    cutoffs: {filter: 2.06,
              core: 2.67}
    valence states:
      #              energy  rcut
      - 4s(2.00)    -5.291   1.164
      - 4p(0.00)    -1.326   1.058
      - 3d(6.00)    -7.505   1.058
      -  s          21.920   1.164
      -  p          25.885   1.058
      -  d          19.706   1.058

[...]

  Co:
    name: Cobalt
    id: 339d20d5b0b93d2de9531a1bee871d91
    Z: 27.0
    valence: 9
    core: 18
    charge: 0.0
    file: /home/c.zeng/usr/data/gpaw-setups-0.9.20000/Co.PBE.gz
    compensation charges: {type: gauss,
                           rc: 0.32,
                           lmax: 2}
    cutoffs: {filter: 1.87,
              core: 2.55}
    valence states:
      #              energy  rcut
      - 4s(2.00)    -5.469   1.005
      - 4p(0.00)    -1.277   1.058
      - 3d(7.00)    -8.205   1.005
      -  s          21.742   1.005
      -  p          25.934   1.058
      -  d          19.007   1.005

[...]

  Al:
    name: Aluminium
    id: 0292cae29f5d6237e50f6abdd43a7bdd
    Z: 13.0
    valence: 3
    core: 10
    charge: 0.0
    file: /home/c.zeng/usr/data/gpaw-setups-0.9.20000/Al.PBE.gz
    compensation charges: {type: gauss,
                           rc: 0.34,
                           lmax: 2}
    cutoffs: {filter: 1.91,
              core: 2.36}
    valence states:
      #              energy  rcut
      - 3s(2.00)    -7.753   1.085
      - 3p(1.00)    -2.712   1.085
      -  s          19.459   1.085
      -  p          24.499   1.085
      -  d           0.000   1.085

    # Using partial waves for Al as LCAO basis

Reference energy: -3699400.456887  # eV

Spin-polarized calculation.
Magnetic moment: 143.500000

Convergence criteria:
 Maximum [total energy] change in last 3 cyles: 0.0001 eV / electron
 Maximum integral of absolute [dens]ity change: 0.0001 electrons / valence electron
 Maximum integral of absolute [eigenst]ate change: 4e-08 eV^2 / valence electron
 Maximum number of scf [iter]ations: 666
 (Square brackets indicate name in SCF output, whereas a 'c' in
 the SCF output indicates the quantity has converged.)

Symmetries present (total): 1

  ( 1  0  0)
  ( 0  1  0)
  ( 0  0  1)

8 k-points: 2 x 2 x 2 Monkhorst-Pack grid
4 k-points in the irreducible part of the Brillouin zone
       k-points in crystal coordinates                weights
   0:     0.25000000   -0.25000000   -0.25000000          2/8
   1:     0.25000000   -0.25000000    0.25000000          2/8
   2:     0.25000000    0.25000000   -0.25000000          2/8
   3:     0.25000000    0.25000000    0.25000000          2/8

Wave functions: Plane wave expansion
  Cutoff energy: 350.000 eV
  Number of coefficients (min, max): 18052, 18052
  Pulay-stress correction: 0.000000 eV/Ang^3 (de/decut=0.000000)
  Using FFTW library
  ScaLapack parameters: grid=1x1, blocksize=None
  Wavefunction extrapolation:
    Improved wavefunction reuse through dual PAW basis

Occupation numbers: Fermi-Dirac:
  width: 0.1000  # eV

Eigensolver
   Davidson(niter=2)

Densities:
  Coarse grid: 48*48*48 grid
  Fine grid: 96*96*96 grid
  Total Charge: 0.000000

Density mixing:
  Method: difference
  Backend: pulay
  Linear mixing parameter: 0.05
  old densities: 5
  Damping of long wavelength oscillations: 50

Hamiltonian:
  XC and Coulomb potentials evaluated on a 96*96*96 grid
  Using the PBE Exchange-Correlation functional
  External potential:
    NoExternalPotential

XC parameters: PBE with 2 nearest neighbor stencil

Total number of cores used: 30
Parallelization over k-points: 2
Domain decomposition: 5 x 3 x 1

Number of atoms: 108
Number of atomic orbitals: 1025
Number of bands in calculation: 703
Number of valence electrons: 1020
Bands to converge: occupied

... initialized

Initializing position-dependent things.

Density initialized from atomic densities
Creating initial wave functions:
  703 bands from LCAO basis set

        Cr------------------------.
       /|  Co                Co   |
      Cr|   Ni         Cr         |
     / Fe      Fe       Al        |
    /   CCo      Cr       Fe      |
   /e   | CoNi     CoAl    NiCr   |
  /  FeCr  CrCo     NiNiCo        |
 *    FeFe  FeCoNi     CoAl       |
 |     CoFeNi  CoFe Ni  CrFeNi    |
 | Fe   NiNiNiCo NiNiNiFe  Cr     |
 |   CoCr  CrAlCr   CrNiCr   Fe   |
 |    FeNi  FeFeCoCr CoFeCr   Cr  |
 |     CrFeFe  Cr CrCr  CoFeFe    |
 |      .-CoNiCo-FeNiNiCo--CoCr---.
 |   NiCo    CoAl   NiNiFe       /
 |    / Cr    CrFe       Cr     /
 |   /            Ni           /
 |Ni/      Co       Co        /
 |/            Ni           /
 *----------------Cr-------*

Positions:
   0 Cr     0.005316   -0.016350   10.639749    ( 0.0000,  0.0000,  0.0000)
   1 Ni    10.672340    1.801276    1.786848    ( 0.0000,  0.0000,  0.0000)
   2 Fe     1.795727   10.625972    1.782259    ( 0.0000,  0.0000,  0.0000)
   3 Cr     1.780787    1.796175   10.644605    ( 0.0000,  0.0000,  2.1000)
   4 Fe     3.523539   -0.014558    0.017268    ( 0.0000,  0.0000,  2.0000)
   5 Co     3.522568    1.781672    1.746648    ( 0.0000,  0.0000,  0.0000)
   6 Co     5.320952   10.642342    1.763136    ( 0.0000,  0.0000,  1.5000)
   7 Ni     5.342082    1.828767    0.007462    ( 0.0000,  0.0000,  2.0000)
   8 Cr     7.144895    0.019195    0.012033    ( 0.0000,  0.0000,  0.0000)
   9 Co     7.143497    1.798064    1.764939    ( 0.0000,  0.0000,  2.1000)
  10 Cr     8.891362   10.651627    1.788353    ( 0.0000,  0.0000,  1.5000)
  11 Co     8.888779    1.804777   10.642609    ( 0.0000,  0.0000,  2.0000)
  12 Fe     0.008694    3.581540   10.650250    ( 0.0000,  0.0000,  2.1000)
  13 Ni     0.018979    5.332745    1.789751    ( 0.0000,  0.0000,  2.1000)
  14 Cr     1.778129    3.600941    1.760019    ( 0.0000,  0.0000,  2.0000)
  15 Co     1.790423    5.343267   -0.017766    ( 0.0000,  0.0000,  2.0000)
  16 Ni     3.542802    3.589864   -0.015614    ( 0.0000,  0.0000,  2.0000)
  17 Co     3.526837    5.358538    1.765793    ( 0.0000,  0.0000,  2.0000)
  18 Fe     5.336650    3.606501    1.755815    ( 0.0000,  0.0000,  0.0000)
  19 Cr     5.300399    5.323642   -0.012797    ( 0.0000,  0.0000,  2.1000)
  20 Al     7.122858    3.584816   10.659524    ( 0.0000,  0.0000,  2.0000)
  21 Ni     7.120500    5.315168    1.805502    ( 0.0000,  0.0000,  1.5000)
  22 Cr     8.892034    3.590952    1.773146    ( 0.0000,  0.0000,  2.1000)
  23 Fe     8.925340    5.301487   -0.003100    ( 0.0000,  0.0000,  0.0000)
  24 Cr     0.023055    7.096680   -0.007939    ( 0.0000,  0.0000,  0.0000)
  25 Cr     0.019141    8.871245    1.787510    ( 0.0000,  0.0000,  1.5000)
  26 Co     1.784372    7.104567    1.776443    ( 0.0000,  0.0000,  2.0000)
  27 Co     1.779944    8.867628   10.659406    ( 0.0000,  0.0000,  1.5000)
  28 Cr     3.547785    7.097897    0.009215    ( 0.0000,  0.0000,  2.1000)
  29 Cr     3.541137    8.858109    1.788225    ( 0.0000,  0.0000,  2.1000)
  30 Ni     5.295105    7.099391    1.787894    ( 0.0000,  0.0000,  2.1000)
  31 Ni     5.303685    8.873828    0.029898    ( 0.0000,  0.0000,  0.0000)
  32 Cr     7.106883    7.088719   10.645159    ( 0.0000,  0.0000,  0.0000)
  33 Co     7.111055    8.901137    1.809472    ( 0.0000,  0.0000,  0.0000)
  34 Co     8.939384    7.093404    1.799238    ( 0.0000,  0.0000,  0.0000)
  35 Co     8.919972    8.915853   10.664881    ( 0.0000,  0.0000,  0.0000)
  36 Ni    10.679704   10.658873    3.584517    ( 0.0000,  0.0000,  2.0000)
  37 Fe    10.670921    1.796367    5.340289    ( 0.0000,  0.0000,  2.1000)
  38 Fe     1.770350   10.649001    5.343491    ( 0.0000,  0.0000,  0.0000)
  39 Co     1.791800    1.784671    3.584891    ( 0.0000,  0.0000,  2.0000)
  40 Ni     3.529718   10.626388    3.565234    ( 0.0000,  0.0000,  2.1000)
  41 Fe     3.535716    1.793465    5.367289    ( 0.0000,  0.0000,  1.5000)
  42 Co     5.311497    0.001574    5.366254    ( 0.0000,  0.0000,  1.5000)
  43 Al     5.332627    1.768055    3.580793    ( 0.0000,  0.0000,  0.0000)
  44 Ni     7.136966   10.673941    3.563804    ( 0.0000,  0.0000,  2.0000)
  45 Cr     7.136774    1.794126    5.358944    ( 0.0000,  0.0000,  2.1000)
  46 Co     8.925938   10.673621    5.347589    ( 0.0000,  0.0000,  2.0000)
  47 Fe     8.883827    1.779111    3.582404    ( 0.0000,  0.0000,  1.5000)
  48 Cr    -0.010038    3.572341    3.580996    ( 0.0000,  0.0000,  2.0000)
  49 Co    10.685573    5.328935    5.338550    ( 0.0000,  0.0000,  2.0000)
  50 Ni     1.784180    3.582949    5.348357    ( 0.0000,  0.0000,  1.5000)
  51 Fe     1.766326    5.339510    3.565255    ( 0.0000,  0.0000,  1.5000)
[...]
iter:   5 19:32:22  -875.744443  -1.88  -1.45    +57.3819
iter:   6 19:35:10  -877.365542  -1.82  -1.50    +54.5705
iter:   7 19:37:59  -878.183017  -1.52  -1.54    +52.9301
iter:   8 19:40:49  -870.440788  -1.76  -1.59    +52.0663
iter:   9 19:43:35  -872.811988  -2.02  -1.76    +51.7407
iter:  10 19:46:27  -869.838517  -2.23  -1.77    +51.1988
iter:  11 19:49:18  -870.286697  -2.51  -1.86    +51.2886
iter:  12 19:52:09  -869.106732  -2.70  -1.88    +51.5326
iter:  13 19:55:00  -870.680415  -2.63  -1.97    +52.0583
iter:  14 19:57:51  -871.526896  -2.49  -1.95    +52.3424
iter:  15 20:00:33  -871.894626  -2.48  -1.97    +52.6765
iter:  16 20:03:19  -872.463247  -2.49  -1.97    +52.9759
iter:  17 20:05:51  -872.744641  -2.47  -1.98    +53.0067
iter:  18 20:08:25  -870.858408  -2.70  -2.00    +53.2085
iter:  19 20:10:58  -870.466018  -2.96  -2.14    +53.6365
iter:  20 20:13:32  -870.433617  -3.32  -2.19    +54.1022
iter:  21 20:16:03  -870.610989  -3.31  -2.25    +54.6878
iter:  22 20:18:36  -870.785051  -3.29  -2.26    +54.9713
iter:  23 20:22:06  -871.097370  -3.20  -2.26    +55.6204
iter:  24 20:24:46  -871.090947  -3.16  -2.27    +55.9577
iter:  25 20:27:19  -871.402449  -3.15  -2.33    +56.2409
iter:  26 20:29:51  -871.298424  -3.18  -2.29    +56.6738
iter:  27 20:32:24  -871.502373  -3.25  -2.37    +57.1102
iter:  28 20:34:57  -871.363712  -3.43  -2.34    +57.5195
iter:  29 20:37:31  -871.434311  -3.65  -2.42    +57.7188
iter:  30 20:41:00  -871.473500  -3.83  -2.45    +58.0199
iter:  31 20:43:42  -871.550488  -3.87  -2.47    +58.3213
iter:  32 20:46:14  -871.596056  -4.10  -2.48    +58.5196
iter:  33 20:48:48  -872.058529  -3.31  -2.52    +58.7739
iter:  34 20:51:21  -871.822296  -3.41  -2.40    +58.7350
iter:  35 20:53:54  -871.996034  -3.48  -2.63    +58.9117
iter:  36 20:56:24  -871.901479  -3.52  -2.54    +58.8201
iter:  37 20:59:19  -871.821888  -3.90  -2.65    +58.7932
iter:  38 21:02:31  -871.851234c -4.16  -2.90    +58.8538
iter:  39 21:05:04  -871.850535c -4.46  -2.87    +58.8574
iter:  40 21:07:37  -871.868910c -4.44  -2.94    +58.8700
iter:  41 21:10:08  -871.888384c -4.53  -2.98    +58.8662
iter:  42 21:12:41  -871.908597c -4.49  -2.97    +58.9100
iter:  43 21:15:12  -871.913111c -4.62  -3.03    +58.9137
iter:  44 21:18:24  -871.934707c -4.61  -3.05    +58.9036
iter:  45 21:21:21  -871.943736c -4.75  -3.06    +58.9340
iter:  46 21:23:54  -871.960853c -4.79  -3.12    +58.9491
iter:  47 21:26:28  -871.970911c -5.03  -3.11    +58.9685
iter:  48 21:29:00  -871.998456c -4.67  -3.15    +58.9797
iter:  49 21:31:32  -872.090884  -3.77  -3.16    +59.0557
iter:  50 21:34:05  -872.184841  -3.57  -3.03    +59.1707
iter:  51 21:36:36  -872.223348  -3.62  -2.94    +59.2407
iter:  52 21:39:09  -872.218828c -4.52  -2.87    +59.2081
iter:  53 21:42:30  -872.215907c -4.84  -2.88    +59.2073
iter:  54 21:44:35  -872.201872c -4.61  -2.90    +59.1853
iter:  55 21:47:15  -872.272701c -3.97  -2.91    +59.1704
iter:  56 21:50:06  -872.234179c -3.83  -2.67    +59.1353
iter:  57 21:52:57  -872.329483c -3.57  -2.79    +59.0257
iter:  58 21:55:48  -872.169301  -4.06  -2.65    +58.9657
iter:  59 21:58:40  -872.162366  -4.41  -2.99    +58.9918
iter:  60 22:01:31  -872.150732c -4.62  -3.06    +58.9862
iter:  61 22:04:22  -872.167676c -4.58  -3.23    +58.9961
iter:  62 22:07:13  -872.154105c -4.70  -3.11    +58.9897
iter:  63 22:10:05  -872.150634c -4.97  -3.23    +59.0115
iter:  64 22:12:56  -872.152670c -5.15  -3.39    +59.0064
iter:  65 22:15:48  -872.150021c -5.48  -3.38    +59.0127
iter:  66 22:18:38  -872.151200c -5.62  -3.49    +59.0167
iter:  67 22:21:29  -872.150855c -5.77  -3.52    +59.0236
iter:  68 22:24:20  -872.151893c -5.56  -3.60    +59.0231
iter:  69 22:27:11  -872.150580c -5.72  -3.60    +59.0257
iter:  70 22:30:03  -872.151887c -5.71  -3.70    +59.0369
iter:  71 22:32:54  -872.152071c -6.04  -3.74    +59.0399
iter:  72 22:35:45  -872.152510c -5.99  -3.76    +59.0403
iter:  73 22:38:36  -872.152812c -6.25  -3.80    +59.0418
iter:  74 22:41:27  -872.153658c -6.08  -3.82    +59.0450
iter:  75 22:44:18  -872.154056c -6.02  -3.81    +59.0365
iter:  76 22:47:10  -872.153864c -6.14  -3.87    +59.0366
iter:  77 22:50:01  -872.154935c -5.99  -3.88    +59.0360
iter:  78 22:52:52  -872.155255c -6.09  -3.96    +59.0324
iter:  79 22:55:44  -872.155608c -6.17  -4.06c   +59.0242
iter:  80 22:58:34  -872.155664c -6.68  -4.10c   +59.0225
iter:  81 23:01:25  -872.156502c -6.22  -4.14c   +59.0183
iter:  82 23:04:16  -872.156543c -7.02  -4.14c   +59.0208
iter:  83 23:07:07  -872.157447c -6.26  -4.17c   +59.0091
iter:  84 23:09:58  -872.148738c -4.26  -4.12c   +59.1527
iter:  85 23:12:49  -872.145160c -4.34  -4.02c   +59.2574
iter:  86 23:15:41  -872.145383c -5.26  -3.78    +59.2724
iter:  87 23:18:32  -872.146114c -5.69  -3.78    +59.3221
iter:  88 23:21:23  -872.147108c -5.65  -3.79    +59.3819
iter:  89 23:24:14  -872.148801c -5.37  -3.79    +59.4626
iter:  90 23:27:04  -872.152071c -5.07  -3.78    +59.5440
iter:  91 23:29:55  -872.150599c -5.29  -3.58    +59.4634
iter:  92 23:32:46  -872.150032c -5.63  -3.64    +59.4780
iter:  93 23:35:37  -872.149823c -6.07  -3.72    +59.4565
iter:  94 23:38:28  -872.150516c -5.97  -3.91    +59.4548
iter:  95 23:41:20  -872.149928c -6.33  -3.85    +59.4469
iter:  96 23:44:11  -872.151109c -6.20  -4.06c   +59.4415
iter:  97 23:47:02  -872.150544c -6.46  -3.98    +59.4410
iter:  98 23:49:52  -872.151723c -6.15  -4.08c   +59.4342
iter:  99 23:52:43  -872.151237c -6.35  -3.97    +59.4251
iter: 100 23:55:35  -872.151882c -6.38  -4.17c   +59.4181
iter: 101 23:58:25  -872.152306c -6.44  -4.17c   +59.4144
iter: 102 00:01:17  -872.152174c -6.69  -4.20c   +59.4069
iter: 103 00:04:08  -872.152766c -6.49  -4.32c   +59.4009
iter: 104 00:06:59  -872.153030c -6.72  -4.36c   +59.3949
iter: 105 00:09:50  -872.149506c -4.95  -4.36c   +59.4652
iter: 106 00:12:42  -872.145128c -4.31  -4.24c   +59.6050
iter: 107 00:15:34  -872.144920c -5.09  -3.79    +59.6291
iter: 108 00:18:25  -872.145072c -5.68  -3.75    +59.6492
iter: 109 00:21:17  -872.146024c -5.54  -3.74    +59.7255
iter: 110 00:24:07  -872.147215c -5.85  -3.72    +59.7624
iter: 111 00:26:58  -872.148142c -5.58  -3.70    +59.7477
iter: 112 00:29:50  -872.147906c -5.26  -3.48    +59.7663
iter: 113 00:32:41  -872.146455c -5.72  -3.49    +59.7729
iter: 114 00:35:32  -872.148278c -5.43  -3.76    +59.7737
iter: 115 00:38:24  -872.145891c -5.87  -3.65    +59.7728
iter: 116 00:41:14  -872.146565c -6.27  -3.85    +59.7577
iter: 117 00:44:07  -872.147412c -5.89  -3.98    +59.7328
iter: 118 00:46:58  -872.147905c -5.85  -3.84    +59.7230
iter: 119 00:49:49  -872.147439c -6.20  -3.81    +59.7171
iter: 120 00:52:41  -872.148206c -6.26  -4.13c   +59.7088
iter: 121 00:55:33  -872.148327c -6.32  -4.09c   +59.7031
iter: 122 00:58:25  -872.148311c -6.43  -4.11c   +59.6910
iter: 123 01:01:18  -872.148774c -6.66  -4.30c   +59.6855
iter: 124 01:04:09  -872.149097c -6.39  -4.23c   +59.6749
iter: 125 01:07:00  -872.149172c -6.83  -4.32c   +59.6705
iter: 126 01:09:53  -872.149582c -6.47  -4.40c   +59.6612
iter: 127 01:12:44  -872.149696c -7.02  -4.42c   +59.6587
iter: 128 01:15:36  -872.150497c -6.16  -4.42c   +59.6424
iter: 129 01:18:27  -872.144525c -4.40  -4.30c   +59.7901
iter: 130 01:21:20  -872.141440c -4.49  -4.00    +59.8868
iter: 131 01:24:10  -872.146552c -4.57  -3.75    +59.7370
iter: 132 01:27:01  -872.144026c -5.36  -4.27c   +59.8110
iter: 133 01:29:53  -872.142033c -4.94  -3.96    +59.8927
iter: 134 01:32:44  -872.142697c -6.13  -3.78    +59.8842
iter: 135 01:35:35  -872.145705c -4.99  -3.80    +59.8383
iter: 136 01:38:27  -872.146958c -5.36  -4.00    +59.8243
iter: 137 01:41:18  -872.142942c -4.81  -4.07c   +59.8761
iter: 138 01:44:10  -872.146224c -4.96  -3.79    +59.8318
iter: 139 01:47:02  -872.142912c -5.07  -3.93    +59.8731
iter: 140 01:49:54  -872.143791c -6.46  -3.82    +59.8620
iter: 141 01:52:46  -872.144004c -6.67  -3.89    +59.8565
iter: 142 01:55:38  -872.144209c -5.94  -3.85    +59.8533
iter: 143 01:57:46  -872.143912c -6.38  -3.82    +59.8419
iter: 144 02:00:15  -872.143802c -5.91  -3.96    +59.8183
iter: 145 02:03:06  -872.144957c -5.96  -3.82    +59.8295
iter: 146 02:05:57  -872.144759c -6.10  -3.83    +59.8159
iter: 147 02:08:48  -872.145172c -6.20  -4.08c   +59.8019
iter: 148 02:11:39  -872.145908c -6.05  -4.14c   +59.7893
iter: 149 02:14:30  -872.146056c -6.21  -4.09c   +59.7764
iter: 150 02:17:20  -872.146876c -6.28  -4.19c   +59.7738
iter: 151 02:20:12  -872.146521c -6.46  -4.18c   +59.7679
iter: 152 02:23:03  -872.147111c -6.42  -4.18c   +59.7582
iter: 153 02:25:54  -872.147554c -6.37  -4.26c   +59.7502
iter: 154 02:28:45  -872.147755c -6.53  -4.37c   +59.7411
iter: 155 02:31:36  -872.148182c -6.39  -4.45c   +59.7319
iter: 156 02:34:27  -872.149555c -5.62  -4.50c   +59.7100
iter: 157 02:37:18  -872.148111c -5.92  -4.33c   +59.7336
iter: 158 02:40:09  -872.146201c -5.33  -4.46c   +59.7672
iter: 159 02:43:01  -872.147744c -5.84  -4.44c   +59.7380
iter: 160 02:45:51  -872.146845c -6.16  -4.58c   +59.7571
iter: 161 02:48:43  -872.145602c -5.68  -4.49c   +59.7783
iter: 162 02:51:33  -872.145954c -6.91  -4.32c   +59.7766
iter: 163 02:54:23  -872.146584c -6.28  -4.31c   +59.7648
iter: 164 02:57:14  -872.146941c -6.57  -4.51c   +59.7610
iter: 165 03:00:05  -872.147014c -7.22  -4.52c   +59.7595
iter: 166 03:02:55  -872.147115c -7.62c -4.60c   +59.7565

Converged after 166 iterations.

Dipole moment: (-10.540154, 7.799800, 9.017525) |e|*Ang

Total magnetic moment: (0.000000, 0.000000, 59.756456)
Local magnetic moments:
   0 Cr ( 0.000000,  0.000000, -0.286351)
   1 Ni ( 0.000000,  0.000000,  0.060250)
   2 Fe ( 0.000000,  0.000000,  1.869895)
   3 Cr ( 0.000000,  0.000000, -1.618585)
   4 Fe ( 0.000000,  0.000000,  2.328607)
   5 Co ( 0.000000,  0.000000,  1.145537)
   6 Co ( 0.000000,  0.000000,  1.096855)
   7 Ni ( 0.000000,  0.000000,  0.398046)
   8 Cr ( 0.000000,  0.000000, -1.424075)
   9 Co ( 0.000000,  0.000000,  0.905680)
  10 Cr ( 0.000000,  0.000000,  0.040571)
  11 Co ( 0.000000,  0.000000,  0.745006)
  12 Fe ( 0.000000,  0.000000,  2.047072)
  13 Ni ( 0.000000,  0.000000,  0.189935)
  14 Cr ( 0.000000,  0.000000, -1.538085)
  15 Co ( 0.000000,  0.000000,  1.262475)
  16 Ni ( 0.000000,  0.000000,  0.245031)
  17 Co ( 0.000000,  0.000000,  0.926084)
  18 Fe ( 0.000000,  0.000000,  2.182956)
  19 Cr ( 0.000000,  0.000000,  1.228885)
  20 Al ( 0.000000,  0.000000, -0.025759)
  21 Ni ( 0.000000,  0.000000,  0.224459)
  22 Cr ( 0.000000,  0.000000, -1.351546)
  23 Fe ( 0.000000,  0.000000,  2.009642)
  24 Cr ( 0.000000,  0.000000, -1.425359)
  25 Cr ( 0.000000,  0.000000, -0.352763)
  26 Co ( 0.000000,  0.000000,  0.734290)
  27 Co ( 0.000000,  0.000000,  0.570159)
  28 Cr ( 0.000000,  0.000000, -1.278965)
  29 Cr ( 0.000000,  0.000000,  0.540299)
  30 Ni ( 0.000000,  0.000000,  0.136501)
  31 Ni ( 0.000000,  0.000000,  0.229510)
  32 Cr ( 0.000000,  0.000000, -1.724544)
  33 Co ( 0.000000,  0.000000,  1.032855)
  34 Co ( 0.000000,  0.000000,  1.029099)
  35 Co ( 0.000000,  0.000000,  0.340061)
  36 Ni ( 0.000000,  0.000000,  0.187463)
  37 Fe ( 0.000000,  0.000000,  1.929233)
  38 Fe ( 0.000000,  0.000000,  2.108209)
  39 Co ( 0.000000,  0.000000,  1.409330)
  40 Ni ( 0.000000,  0.000000,  0.251874)
  41 Fe ( 0.000000,  0.000000,  2.094899)
  42 Co ( 0.000000,  0.000000,  0.822245)
  43 Al ( 0.000000,  0.000000, -0.030984)
  44 Ni ( 0.000000,  0.000000,  0.168592)
  45 Cr ( 0.000000,  0.000000, -0.718765)
  46 Co ( 0.000000,  0.000000,  0.815294)
  47 Fe ( 0.000000,  0.000000,  2.068393)
  48 Cr ( 0.000000,  0.000000,  0.212226)
  49 Co ( 0.000000,  0.000000,  0.901094)
  50 Ni ( 0.000000,  0.000000,  0.328679)
  51 Fe ( 0.000000,  0.000000,  2.203820)
  52 Ni ( 0.000000,  0.000000,  0.258421)
  53 Al ( 0.000000,  0.000000, -0.034877)
  54 Co ( 0.000000,  0.000000,  0.893449)
  55 Cr ( 0.000000,  0.000000, -1.560245)
  56 Ni ( 0.000000,  0.000000,  0.218491)
  57 Ni ( 0.000000,  0.000000,  0.322452)
  58 Cr ( 0.000000,  0.000000, -1.245924)
  59 Fe ( 0.000000,  0.000000,  2.037899)
[...]
  93 Ni ( 0.000000,  0.000000,  0.266019)
  94 Al ( 0.000000,  0.000000, -0.037521)
  95 Fe ( 0.000000,  0.000000,  2.188779)
  96 Fe ( 0.000000,  0.000000,  2.013895)
  97 Fe ( 0.000000,  0.000000,  1.923274)
  98 Co ( 0.000000,  0.000000,  1.026468)
  99 Cr ( 0.000000,  0.000000, -1.903523)
 100 Co ( 0.000000,  0.000000,  1.345279)
 101 Fe ( 0.000000,  0.000000,  2.315681)
 102 Co ( 0.000000,  0.000000,  1.019604)
 103 Ni ( 0.000000,  0.000000,  0.433774)
 104 Co ( 0.000000,  0.000000,  1.083286)
 105 Al ( 0.000000,  0.000000, -0.013813)
 106 Ni ( 0.000000,  0.000000,  0.210604)
 107 Cr ( 0.000000,  0.000000, -1.205180)

Energy contributions relative to reference atoms: (reference = -3699400.456887)

Kinetic:       +123.387660
Potential:     -177.618573
External:        +0.000000
XC:            -853.536287
Entropy (-ST):   -4.388493
Local:          +37.814332
Free energy:   -874.341361
Extrapolated:  -872.147115

Spin contamination: 29.466383 electrons
Showing only first 2 kpts
                      Up                     Down
 Kpt  Band  Eigenvalues  Occupancy  Eigenvalues  Occupancy
  0   508      9.65077    0.99352     10.51965    0.02520
  0   509      9.66975    0.99218     10.53296    0.02212
  0   510      9.67589    0.99169     10.53701    0.02126
  0   511      9.69504    0.98995     10.55711    0.01746

  1   508      9.65274    0.99340     10.50003    0.03049
  1   509      9.68028    0.99132     10.52239    0.02453
  1   510      9.68437    0.99096     10.52834    0.02315
  1   511      9.69801    0.98965     10.54610    0.01945

Fermi level: 10.15409

No gap

Forces in eV/Ang:
  0 Cr   -0.39456   -0.05601    0.13117
  1 Ni   -0.05170   -0.21302   -0.19166
  2 Fe   -0.32067    0.36429    0.17360
  3 Cr   -0.08958   -0.24205    0.08156
  4 Fe    0.39180    0.53376   -0.17412
  5 Co   -0.12165    0.03793    0.12283
  6 Co    0.15822   -0.05965   -0.25001
  7 Ni   -0.13025   -0.56803    0.08938
  8 Cr   -0.22112    0.70450    0.46807
  9 Co    0.12394   -0.22142   -0.03253
 10 Cr    0.03423    0.18048   -0.25071
 11 Co    0.47464   -0.65355    0.76229
 12 Fe    0.53256   -0.42925    0.80516
 13 Ni   -0.04286    0.16556   -0.13411
 14 Cr    0.18385    0.05827    0.37384
 15 Co   -0.03638    0.13207    0.02131
 16 Ni   -0.10254   -0.14215    0.23165
 17 Co    0.10116   -0.20458    0.13940
 18 Fe   -0.57649   -0.20025    0.55571
 19 Cr   -0.30566    0.98101   -0.03218
 20 Al   -0.89359   -0.60854    0.12891
 21 Ni   -0.05587    0.39402   -0.25984
 22 Cr    0.70759   -0.48247    0.56816
 23 Fe   -0.05222    1.13585    0.34645
 24 Cr   -0.03365    0.04058   -0.15954
 25 Cr   -0.24404    0.02632   -0.42860
 26 Co   -0.04478    0.08504   -0.32563
 27 Co   -0.27674   -0.11627    0.39263
 28 Cr   -0.24886   -0.31622   -0.28906
 29 Cr   -0.02821    0.11691   -0.14076
 30 Ni    0.40430   -0.02254   -0.07033
 31 Ni    0.38986    0.06171   -0.15803
 32 Cr    0.10375   -0.47733    0.93187
 33 Co    0.14106   -0.19177   -0.39471
 34 Co   -0.32358    0.31413   -0.36357
 35 Co   -0.01854   -0.23952    0.35517
 36 Ni   -0.03168    0.11354   -0.22650
 37 Fe    0.06691   -0.27611   -0.01616
 38 Fe   -0.03606   -0.03136   -0.17640
 39 Co    0.02587    0.00364   -0.26486
 40 Ni    0.14212    0.37979    0.10856
 41 Fe   -0.14535    0.20279    0.00163
 42 Co   -0.00751   -0.36538    0.07102
 43 Al   -0.23842    0.03064   -0.61128
 44 Ni   -0.08120   -0.15241    0.19600
 45 Cr    0.11830   -0.47429    0.62581
 46 Co    0.05882   -0.13429    0.09581
 47 Fe   -0.10018    0.08502   -0.09292
 48 Cr    0.13126   -0.15204   -0.05626
 49 Co    0.08588    0.05133   -0.04818
 50 Ni   -0.22028   -0.28739   -0.10203
 51 Fe   -0.39563    0.09593   -0.49257
 52 Ni    0.20642   -0.52479   -0.22695
 53 Al   -0.30063   -0.34869    0.12414
 54 Co    0.12759   -0.22761   -0.19845
 55 Cr    0.45615   -0.08829   -0.82778
 56 Ni   -0.25438    0.09454    0.01179
 57 Ni   -0.06136    0.00551    0.05189
 58 Cr    0.21169    0.42519   -0.02723
 59 Fe    0.11955   -0.04132   -0.06159
[...]
 93 Ni    0.08236    0.46031    0.36311
 94 Al    0.17735    0.06654   -0.40595
 95 Fe   -0.13767    0.44856   -0.27540
 96 Fe   -0.05690    0.15879   -0.23931
 97 Fe    0.10461   -0.10316    0.26475
 98 Co    0.14204   -0.04064    0.22120
 99 Cr   -0.11604    0.03019   -0.05099
100 Co    0.04093    0.38968    0.34863
101 Fe    0.36647   -0.00152   -0.05858
102 Co    0.04056   -0.08697    0.20390
103 Ni    0.25308    0.21660   -0.03211
104 Co   -0.11856    0.00317   -0.61659
105 Al   -0.90634   -0.51514    0.35069
106 Ni   -0.25822   -0.29794    0.34032
107 Cr    0.58966    0.52544   -0.82608

Date: Sun Apr 16 03:03:17 2023