User:   c.zeng@d0145
Date:   Sat Apr 15 08:38:56 2023
Arch:   x86_64
Pid:    46811
CWD:    /home/c.zeng/projects/hea-corrosion/hea-mlp/data-curation/bulk-mcmc/dft-jobs/237
Python: 3.8.1
gpaw:   /home/c.zeng/usr/installs/gpaw/source/gpaw-22.8.0/gpaw
_gpaw:  /home/c.zeng/usr/installs/gpaw/source/gpaw-22.8.0/
        _gpaw.cpython-38-x86_64-linux-gnu.so
ase:    /home/c.zeng/.local/lib/python3.8/site-packages/ase-3.22.1-py3.8.egg/ase (version 3.22.1)
numpy:  /shared/centos7/python/3.8.1/lib/python3.8/site-packages/numpy (version 1.17.4)
scipy:  /shared/centos7/python/3.8.1/lib/python3.8/site-packages/scipy (version 1.4.1)
units:  Angstrom and eV
cores: 30
OpenMP: False
OMP_NUM_THREADS: 1

Input parameters:
  convergence: {energy: 0.0001}
  kpts: [2 2 2]
  maxiter: 666
  mode: {ecut: 350.0,
         name: pw}
  occupations: {fixmagmom: False,
                name: fermi-dirac,
                width: 0.1}
  spinpol: True
  xc: PBE

System changes: positions, numbers, cell, pbc, initial_charges, initial_magmoms

Initialize ...

species:
  Ni:
    name: Nickel
    id: 0d9f38a9d6e76a2886f07bb4381f212b
    Z: 28.0
    valence: 16
    core: 12
    charge: 0.0
    file: /home/c.zeng/usr/data/gpaw-setups-0.9.20000/Ni.PBE.gz
    compensation charges: {type: gauss,
                           rc: 0.36,
                           lmax: 2}
    cutoffs: {filter: 2.14,
              core: 1.98}
    valence states:
      #              energy  rcut
      - 4s(2.00)    -5.642   1.164
      - 3p(6.00)   -71.394   1.207
      - 4p(0.00)    -1.226   1.207
      - 3d(8.00)    -8.875   1.138
      -  s          21.570   1.164
      -  d          18.337   1.138

    # Using partial waves for Ni as LCAO basis

  Al:
    name: Aluminium
    id: 0292cae29f5d6237e50f6abdd43a7bdd
    Z: 13.0
    valence: 3
    core: 10
    charge: 0.0
    file: /home/c.zeng/usr/data/gpaw-setups-0.9.20000/Al.PBE.gz
    compensation charges: {type: gauss,
                           rc: 0.34,
                           lmax: 2}
    cutoffs: {filter: 1.91,
              core: 2.36}
    valence states:
      #              energy  rcut
      - 3s(2.00)    -7.753   1.085
      - 3p(1.00)    -2.712   1.085
      -  s          19.459   1.085
      -  p          24.499   1.085
      -  d           0.000   1.085

[...]

  Co:
    name: Cobalt
    id: 339d20d5b0b93d2de9531a1bee871d91
    Z: 27.0
    valence: 9
    core: 18
    charge: 0.0
    file: /home/c.zeng/usr/data/gpaw-setups-0.9.20000/Co.PBE.gz
    compensation charges: {type: gauss,
                           rc: 0.32,
                           lmax: 2}
    cutoffs: {filter: 1.87,
              core: 2.55}
    valence states:
      #              energy  rcut
      - 4s(2.00)    -5.469   1.005
      - 4p(0.00)    -1.277   1.058
      - 3d(7.00)    -8.205   1.005
      -  s          21.742   1.005
      -  p          25.934   1.058
      -  d          19.007   1.005

[...]

  Fe:
    name: Iron
    id: 37abbd8d6c3c35915a9b583b742da910
    Z: 26.0
    valence: 8
    core: 18
    charge: 0.0
    file: /home/c.zeng/usr/data/gpaw-setups-0.9.20000/Fe.PBE.gz
    compensation charges: {type: gauss,
                           rc: 0.33,
                           lmax: 2}
    cutoffs: {filter: 2.06,
              core: 2.67}
    valence states:
      #              energy  rcut
      - 4s(2.00)    -5.291   1.164
      - 4p(0.00)    -1.326   1.058
      - 3d(6.00)    -7.505   1.058
      -  s          21.920   1.164
      -  p          25.885   1.058
      -  d          19.706   1.058

[...]

  Cr:
    name: Chromium
    id: 33f258bda2ca9f93018e70263a35547b
    Z: 24.0
    valence: 6
    core: 18
    charge: 0.0
    file: /home/c.zeng/usr/data/gpaw-setups-0.9.20000/Cr.PBE.gz
    compensation charges: {type: gauss,
                           rc: 0.35,
                           lmax: 2}
    cutoffs: {filter: 2.14,
              core: 3.04}
    valence states:
      #              energy  rcut
      - 4s(1.00)    -4.007   1.164
      - 4p(0.00)    -0.989   1.217
      - 3d(5.00)    -2.913   1.111
      -  s          23.205   1.164
      -  p          26.223   1.217
      -  d          24.299   1.111

    # Using partial waves for Cr as LCAO basis

Reference energy: -3235165.067515  # eV

Spin-polarized calculation.
Magnetic moment: 121.100000

Convergence criteria:
 Maximum [total energy] change in last 3 cyles: 0.0001 eV / electron
 Maximum integral of absolute [dens]ity change: 0.0001 electrons / valence electron
 Maximum integral of absolute [eigenst]ate change: 4e-08 eV^2 / valence electron
 Maximum number of scf [iter]ations: 666
 (Square brackets indicate name in SCF output, whereas a 'c' in
 the SCF output indicates the quantity has converged.)

Symmetries present (total): 1

  ( 1  0  0)
  ( 0  1  0)
  ( 0  0  1)

8 k-points: 2 x 2 x 2 Monkhorst-Pack grid
4 k-points in the irreducible part of the Brillouin zone
       k-points in crystal coordinates                weights
   0:     0.25000000   -0.25000000   -0.25000000          2/8
   1:     0.25000000   -0.25000000    0.25000000          2/8
   2:     0.25000000    0.25000000   -0.25000000          2/8
   3:     0.25000000    0.25000000    0.25000000          2/8

Wave functions: Plane wave expansion
  Cutoff energy: 350.000 eV
  Number of coefficients (min, max): 19084, 19084
  Pulay-stress correction: 0.000000 eV/Ang^3 (de/decut=0.000000)
  Using FFTW library
  ScaLapack parameters: grid=1x1, blocksize=None
  Wavefunction extrapolation:
    Improved wavefunction reuse through dual PAW basis

Occupation numbers: Fermi-Dirac:
  width: 0.1000  # eV

Eigensolver
   Davidson(niter=2)

Densities:
  Coarse grid: 48*48*48 grid
  Fine grid: 96*96*96 grid
  Total Charge: 0.000000

Density mixing:
  Method: difference
  Backend: pulay
  Linear mixing parameter: 0.05
  old densities: 5
  Damping of long wavelength oscillations: 50

Hamiltonian:
  XC and Coulomb potentials evaluated on a 96*96*96 grid
  Using the PBE Exchange-Correlation functional
  External potential:
    NoExternalPotential

XC parameters: PBE with 2 nearest neighbor stencil

Total number of cores used: 30
Parallelization over k-points: 2
Domain decomposition: 5 x 3 x 1

Number of atoms: 108
Number of atomic orbitals: 933
Number of bands in calculation: 624
Number of valence electrons: 912
Bands to converge: occupied

... initialized

Initializing position-dependent things.

Density initialized from atomic densities
Creating initial wave functions:
  624 bands from LCAO basis set

        .--------Al----------------.
       /|           Fe             |
      / |    FeFe     Ni           |
     / Cr       Ni       Al        |
    /   |Fe      CrCo       Fe     |
   /    | NiCr      ACo            |
  /    Co  FeiAlAl    Co Fe  CoAl  |
 *      Fe     AlCoAl   NiFe     Cr|
 |      |FeCr   NiFeFe   AlNiNi   Co
 |      | CoCr   AlCoCoAl NiCrFe   |
 |     Fe  Al CoCo  CrNi Cr  NiCr  |
 |      Cr  Ni CrCrCo CoNiCoAl   Fe|
 |      |NiCo   CoAlAl   CoCrFe   Fe
 |      .-FeCr-----CrNi-Al--NiFe---.
 |     Al  Ni CoCr    Al Co  Ni Cr/
 |    / Co              Cr       Cr
 |   /           Ali      CrFe  /
 |  /      Ni       Fe     NiAl/
 | /                   Fe     /r
 *--------------------------Ni

Positions:
   0 Ni    10.797848    0.093654    0.085777    ( 0.0000,  0.0000,  0.0000)
   1 Al    10.831824    1.844742    1.870716    ( 0.0000,  0.0000,  2.0000)
   2 Ni     1.786803   10.847372    1.827335    ( 0.0000,  0.0000,  0.0000)
   3 Co     1.769614    1.870531   -0.031264    ( 0.0000,  0.0000,  0.0000)
   4 Al     3.620857   10.822050   10.833629    ( 0.0000,  0.0000,  1.5000)
   5 Ni     3.571246    1.883176    1.708402    ( 0.0000,  0.0000,  0.0000)
   6 Co     5.521103   10.788063    1.666217    ( 0.0000,  0.0000,  0.0000)
   7 Al     5.520831    1.813973   10.830911    ( 0.0000,  0.0000,  1.5000)
   8 Al     7.330846    0.011025   10.815657    ( 0.0000,  0.0000,  2.0000)
   9 Fe     7.282018    1.809483    1.793250    ( 0.0000,  0.0000,  2.1000)
  10 Fe     9.029996    0.022005    1.811918    ( 0.0000,  0.0000,  1.5000)
  11 Fe     9.007196    1.868639   10.825714    ( 0.0000,  0.0000,  2.0000)
  12 Cr    10.861310    3.649723    0.014171    ( 0.0000,  0.0000,  2.0000)
  13 Cr    10.867442    5.463468    1.819235    ( 0.0000,  0.0000,  2.1000)
  14 Co     1.756088    3.650267    1.845949    ( 0.0000,  0.0000,  0.0000)
  15 Fe     1.790358    5.439092   10.869084    ( 0.0000,  0.0000,  2.1000)
  16 Cr     3.687842    3.622792   -0.049287    ( 0.0000,  0.0000,  2.0000)
  17 Co     3.667347    5.391145    1.745368    ( 0.0000,  0.0000,  0.0000)
  18 Al     5.497977    3.634415    1.792370    ( 0.0000,  0.0000,  2.0000)
  19 Ni     5.524908    5.448029    0.002551    ( 0.0000,  0.0000,  2.0000)
  20 Co     7.223340    3.611877   10.834270    ( 0.0000,  0.0000,  0.0000)
  21 Al     7.217762    5.474830    1.807776    ( 0.0000,  0.0000,  2.1000)
  22 Cr     9.073442    3.654344    1.775148    ( 0.0000,  0.0000,  0.0000)
  23 Ni     9.008740    5.418608    0.007692    ( 0.0000,  0.0000,  2.0000)
  24 Cr    10.859190    7.178720    0.014480    ( 0.0000,  0.0000,  1.5000)
  25 Fe    -0.018106    8.970948    1.875391    ( 0.0000,  0.0000,  0.0000)
  26 Fe     1.817615    7.224025    1.802546    ( 0.0000,  0.0000,  1.5000)
  27 Ni     1.880729    8.993464   10.874031    ( 0.0000,  0.0000,  0.0000)
  28 Fe     3.684428    7.260447   -0.001356    ( 0.0000,  0.0000,  2.0000)
  29 Co     3.612616    9.025636    1.761807    ( 0.0000,  0.0000,  1.5000)
  30 Cr     5.481440    7.275114    1.811211    ( 0.0000,  0.0000,  1.5000)
  31 Fe     5.461261    9.048153   10.833988    ( 0.0000,  0.0000,  1.5000)
  32 Cr     7.245704    7.257881    0.056891    ( 0.0000,  0.0000,  2.1000)
  33 Co     7.301969    9.004609    1.790315    ( 0.0000,  0.0000,  0.0000)
  34 Ni     9.029343    7.181775    1.815549    ( 0.0000,  0.0000,  2.0000)
  35 Ni     9.030561    9.042010    0.020232    ( 0.0000,  0.0000,  1.5000)
  36 Fe    -0.031046    0.001947    3.645701    ( 0.0000,  0.0000,  2.0000)
  37 Fe    10.825910    1.804351    5.434602    ( 0.0000,  0.0000,  2.1000)
  38 Ni     1.743552   10.849296    5.484376    ( 0.0000,  0.0000,  0.0000)
  39 Al     1.769755    1.791891    3.636068    ( 0.0000,  0.0000,  1.5000)
  40 Al     3.516667   10.719828    3.663227    ( 0.0000,  0.0000,  0.0000)
  41 Co     3.644244    1.785205    5.586728    ( 0.0000,  0.0000,  0.0000)
  42 Al     5.484778   10.815439    5.504022    ( 0.0000,  0.0000,  0.0000)
  43 Cr     5.457934    1.842230    3.658769    ( 0.0000,  0.0000,  0.0000)
  44 Ni     7.360615   10.815439    3.672229    ( 0.0000,  0.0000,  0.0000)
  45 Al     7.266884    1.811614    5.485528    ( 0.0000,  0.0000,  2.1000)
  46 Al     9.077986    0.023590    5.491921    ( 0.0000,  0.0000,  0.0000)
  47 Co     9.066788    1.824226    3.671175    ( 0.0000,  0.0000,  1.5000)
  48 Fe    -0.047135    3.649615    3.617291    ( 0.0000,  0.0000,  2.0000)
  49 Cr    10.809264    5.435993    5.379805    ( 0.0000,  0.0000,  2.0000)
  50 Cr     1.752316    3.624989    5.344676    ( 0.0000,  0.0000,  0.0000)
  51 Ni     1.805786    5.472046    3.619389    ( 0.0000,  0.0000,  2.1000)
[...]
iter:  72 10:29:24  -804.463223c -5.48  -3.33    +59.0448
iter:  73 10:30:54  -804.463997c -5.60  -3.39    +59.0143
iter:  74 10:32:25  -804.464275c -5.54  -3.43    +58.9829
iter:  75 10:33:56  -804.465286c -5.43  -3.44    +58.9546
iter:  76 10:35:27  -804.465324c -5.43  -3.44    +58.9384
iter:  77 10:36:58  -804.468139c -5.49  -3.51    +58.8995
iter:  78 10:38:28  -804.466441c -5.52  -3.49    +58.8773
iter:  79 10:39:59  -804.467602c -5.53  -3.56    +58.8246
iter:  80 10:41:30  -804.468316c -5.85  -3.57    +58.8048
iter:  81 10:43:00  -804.469918c -5.78  -3.64    +58.7588
iter:  82 10:44:31  -804.469362c -6.28  -3.63    +58.7537
iter:  83 10:46:02  -804.470869c -5.80  -3.69    +58.6996
iter:  84 10:47:32  -804.469832c -6.30  -3.68    +58.7343
iter:  85 10:49:03  -804.469880c -5.79  -3.75    +58.7644
iter:  86 10:50:34  -804.472007c -5.62  -3.69    +58.6817
iter:  87 10:52:05  -804.470554c -5.83  -3.73    +58.6937
iter:  88 10:53:36  -804.472425c -5.76  -3.77    +58.6290
iter:  89 10:55:07  -804.473532c -5.99  -3.87    +58.6246
iter:  90 10:56:38  -804.474952c -5.80  -3.82    +58.5633
iter:  91 10:58:09  -804.473266c -6.35  -3.93    +58.6120
iter:  92 10:59:39  -804.469530c -5.26  -4.03c   +58.7770
iter:  93 11:01:10  -804.467389c -5.48  -3.92    +58.8408
iter:  94 11:02:41  -804.466231c -5.55  -3.90    +58.8792
iter:  95 11:04:12  -804.463145c -4.89  -3.79    +58.9353
iter:  96 11:05:42  -804.462295c -5.12  -3.59    +58.9281
iter:  97 11:07:13  -804.462849c -5.90  -3.51    +58.8767
iter:  98 11:08:44  -804.460215c -5.12  -3.58    +58.9799
iter:  99 11:10:15  -804.457211c -4.66  -3.45    +59.1191
iter: 100 11:11:46  -804.458685c -4.98  -3.30    +59.1673
iter: 101 11:13:17  -804.458016c -5.13  -3.24    +59.1942
iter: 102 11:14:48  -804.457969c -5.81  -3.16    +59.1604
iter: 103 11:16:19  -804.458857c -5.94  -3.22    +59.1439
iter: 104 11:17:50  -804.454470c -4.67  -3.21    +59.1474
iter: 105 11:19:21  -804.497598c -3.95  -3.13    +59.1154
iter: 106 11:20:52  -804.443304c -4.42  -2.86    +59.1204
iter: 107 11:22:23  -804.459801c -4.47  -3.39    +59.0650
iter: 108 11:23:54  -804.443099c -5.01  -3.13    +59.0867
iter: 109 11:25:26  -804.447513c -5.09  -3.70    +59.0813
iter: 110 11:26:57  -804.452465c -5.22  -3.61    +59.0612
iter: 111 11:28:28  -804.458277c -5.10  -3.79    +59.0530
iter: 112 11:29:59  -804.462116c -5.24  -3.80    +59.0397
iter: 113 11:31:22  -804.464588c -5.69  -3.81    +59.0259
iter: 114 11:32:45  -804.434924c -3.63  -3.74    +59.3005
iter: 115 11:34:08  -804.437468c -5.09  -3.33    +59.3015
iter: 116 11:35:31  -804.437470c -5.76  -3.39    +59.3083
iter: 117 11:36:53  -804.436600c -5.90  -3.44    +59.3040
iter: 118 11:38:17  -804.439392c -5.41  -3.39    +59.3117
iter: 119 11:39:39  -804.446197c -4.66  -3.47    +59.3132
iter: 120 11:41:02  -804.434065c -4.83  -3.51    +59.3049
iter: 121 11:42:25  -804.437987c -5.41  -3.52    +59.3135
iter: 122 11:43:47  -804.435013c -5.53  -3.65    +59.3044
iter: 123 11:45:11  -804.431278c -5.31  -3.59    +59.3101
iter: 124 11:46:33  -804.440005c -5.06  -3.50    +59.3286
iter: 125 11:47:56  -804.445244c -5.03  -3.57    +59.3419
iter: 126 11:49:19  -804.448004c -5.23  -3.64    +59.3372
iter: 127 11:50:42  -804.448508c -5.68  -3.63    +59.3370
iter: 128 11:52:05  -804.455835c -5.12  -3.78    +59.3207
iter: 129 11:53:28  -804.455655c -6.21  -3.67    +59.3332
iter: 130 11:54:51  -804.462503c -5.35  -3.71    +59.3241
iter: 131 11:56:13  -804.449491c -4.73  -3.58    +59.3469
iter: 132 11:57:36  -804.432273c -4.28  -3.68    +59.3996
iter: 133 11:58:59  -804.450046c -4.47  -3.61    +59.3633
iter: 134 12:00:22  -804.445876c -6.00  -3.76    +59.3845
iter: 135 12:01:44  -804.450729c -5.53  -3.89    +59.3868
iter: 136 12:03:07  -804.456207c -5.34  -3.86    +59.3916
iter: 137 12:04:30  -804.419800c -3.60  -3.73    +59.3577
iter: 138 12:05:53  -804.428462c -4.95  -3.34    +59.3772
iter: 139 12:07:15  -804.436572c -4.73  -3.56    +59.3884
iter: 140 12:08:38  -804.448458c -4.50  -3.80    +59.4033
iter: 141 12:10:01  -804.414310c -3.63  -3.88    +59.3477
iter: 142 12:11:23  -804.443617c -3.85  -3.29    +59.4018
iter: 143 12:12:46  -804.443099c -5.21  -3.92    +59.4089
iter: 144 12:14:09  -804.447430c -5.31  -3.99    +59.4176
iter: 145 12:15:31  -804.444007c -5.91  -3.94    +59.4085
iter: 146 12:16:54  -804.442860c -6.27  -4.02c   +59.3961
iter: 147 12:18:16  -804.448600c -5.34  -4.02c   +59.4232
iter: 148 12:19:39  -804.455077c -5.12  -3.96    +59.4487
iter: 149 12:21:02  -804.436751c -4.29  -3.75    +59.3930
iter: 150 12:22:25  -804.409867c -3.56  -3.74    +59.2696
iter: 151 12:23:47  -804.451331c -3.45  -3.22    +59.4256
iter: 152 12:25:10  -804.470580c -4.03  -3.87    +59.4661
iter: 153 12:26:33  -804.441847c -4.17  -3.52    +59.4067
iter: 154 12:27:56  -804.421455c -3.77  -4.04c   +59.3282
iter: 155 12:29:18  -804.451402c -3.79  -3.38    +59.4225
iter: 156 12:30:41  -804.447324c -5.55  -3.92    +59.4145
iter: 157 12:32:04  -804.447770c -6.08  -4.14c   +59.4161
iter: 158 12:33:27  -804.450193c -5.65  -4.06c   +59.4222
iter: 159 12:34:50  -804.450022c -5.37  -4.04c   +59.4210
iter: 160 12:36:13  -804.453965c -5.60  -3.90    +59.4314
iter: 161 12:37:35  -804.446079c -5.14  -3.78    +59.4087
iter: 162 12:38:58  -804.406767c -3.30  -3.99    +59.2507
iter: 163 12:40:20  -804.469725c -3.20  -3.20    +59.4579
iter: 164 12:41:44  -804.511174  -3.66  -3.50    +59.5156
iter: 165 12:43:06  -804.467017c -4.12  -3.16    +59.4573
iter: 166 12:44:29  -804.452993c -4.42  -3.54    +59.4527
iter: 167 12:45:51  -804.457037c -5.76  -3.76    +59.4728
iter: 168 12:47:14  -804.458747c -5.92  -3.67    +59.4771
iter: 169 12:48:37  -804.462085c -5.72  -3.69    +59.4911
iter: 170 12:49:59  -804.467074c -5.43  -3.63    +59.5104
iter: 171 12:51:21  -804.468329c -5.56  -3.48    +59.5156
iter: 172 12:52:44  -804.473967c -5.18  -3.42    +59.5276
iter: 173 12:54:06  -804.475108c -5.24  -3.28    +59.5300
iter: 174 12:55:29  -804.475303c -4.87  -3.24    +59.4913
iter: 175 12:56:51  -804.472344c -4.50  -3.16    +59.4725
iter: 176 12:58:14  -804.474455c -4.51  -3.16    +59.4324
iter: 177 12:59:36  -804.467569c -4.67  -3.18    +59.3741
iter: 178 13:00:59  -804.463501c -5.13  -3.28    +59.3674
iter: 179 13:02:21  -804.464575c -5.20  -3.49    +59.2901
iter: 180 13:03:43  -804.463206c -5.40  -3.48    +59.2533
iter: 181 13:05:06  -804.463030c -5.63  -3.62    +59.1953
iter: 182 13:06:28  -804.464937c -5.71  -3.72    +59.1531
iter: 183 13:07:51  -804.464129c -5.92  -3.64    +59.1483
iter: 184 13:09:13  -804.464607c -5.91  -3.73    +59.0828
iter: 185 13:10:35  -804.464764c -6.17  -3.76    +59.0743
iter: 186 13:11:58  -804.466181c -5.75  -3.75    +59.0153
iter: 187 13:13:21  -804.467058c -5.67  -3.71    +59.0177
iter: 188 13:14:43  -804.466547c -5.63  -3.65    +58.9575
iter: 189 13:16:06  -804.468239c -5.66  -3.82    +58.9163
iter: 190 13:17:28  -804.469015c -5.79  -3.75    +58.8976
iter: 191 13:18:51  -804.469824c -5.82  -3.81    +58.8353
iter: 192 13:20:13  -804.470024c -6.17  -3.89    +58.8038
iter: 193 13:21:35  -804.471462c -6.03  -4.01c   +58.7501
iter: 194 13:22:58  -804.465281c -5.02  -4.03c   +58.9602
iter: 195 13:24:20  -804.461214c -4.77  -3.94    +59.2158
iter: 196 13:25:43  -804.460423c -5.44  -3.95    +59.2827
iter: 197 13:27:05  -804.459787c -5.62  -3.97    +59.3413
iter: 198 13:28:28  -804.459000c -5.19  -3.96    +59.4697
iter: 199 13:29:51  -804.460632c -5.71  -3.88    +59.4714
iter: 200 13:31:13  -804.459572c -5.74  -3.68    +59.4518
iter: 201 13:32:35  -804.459623c -6.07  -3.72    +59.4277
iter: 202 13:33:57  -804.459938c -5.99  -3.81    +59.3899
iter: 203 13:35:20  -804.460483c -5.61  -3.79    +59.3812
iter: 204 13:36:42  -804.459613c -6.06  -3.85    +59.3491
iter: 205 13:38:05  -804.460085c -6.34  -4.06c   +59.3169
iter: 206 13:39:27  -804.459978c -6.71  -4.12c   +59.3068
iter: 207 13:40:49  -804.460445c -6.48  -4.15c   +59.2803
iter: 208 13:42:12  -804.460153c -6.82  -4.22c   +59.2743
iter: 209 13:43:34  -804.460689c -6.62  -4.27c   +59.2483
iter: 210 13:44:57  -804.460186c -6.61  -4.42c   +59.2906
iter: 211 13:46:19  -804.459211c -5.81  -4.37c   +59.3872
iter: 212 13:47:42  -804.458511c -5.57  -4.28c   +59.5099
iter: 213 13:49:04  -804.458031c -4.96  -4.06c   +59.7793
iter: 214 13:50:27  -804.458215c -6.12  -3.81    +59.7726
iter: 215 13:51:49  -804.458263c -6.62  -3.83    +59.7794
iter: 216 13:53:12  -804.458449c -6.45  -3.83    +59.7998
iter: 217 13:54:33  -804.458344c -6.70  -3.83    +59.8042
iter: 218 13:55:54  -804.459461c -5.37  -3.83    +59.8064
iter: 219 13:57:15  -804.458856c -6.15  -3.69    +59.8092
iter: 220 13:58:36  -804.458947c -5.73  -3.79    +59.7833
iter: 221 13:59:57  -804.458988c -5.58  -3.70    +59.7665
iter: 222 14:01:18  -804.458327c -6.00  -3.71    +59.7378
iter: 223 14:02:39  -804.458128c -6.22  -3.94    +59.6990
iter: 224 14:04:00  -804.458492c -6.20  -4.09c   +59.6702
iter: 225 14:05:21  -804.458094c -6.52  -4.05c   +59.6565
iter: 226 14:06:42  -804.458405c -6.52  -4.18c   +59.6384
iter: 227 14:08:02  -804.458369c -6.57  -4.20c   +59.6339
iter: 228 14:09:24  -804.458417c -6.60  -4.13c   +59.6060
iter: 229 14:10:45  -804.458420c -6.83  -4.31c   +59.6014
iter: 230 14:12:06  -804.458314c -6.70  -4.30c   +59.5785
iter: 231 14:13:26  -804.458538c -7.07  -4.40c   +59.5684
iter: 232 14:14:47  -804.458573c -6.98  -4.52c   +59.5520
iter: 233 14:16:08  -804.458484c -7.60c -4.56c   +59.5524

Converged after 233 iterations.

Dipole moment: (28.619850, 17.592516, 8.434777) |e|*Ang

Total magnetic moment: (0.000000, 0.000000, 59.552385)
Local magnetic moments:
   0 Ni ( 0.000000,  0.000000,  0.400321)
   1 Al ( 0.000000,  0.000000, -0.034144)
   2 Ni ( 0.000000,  0.000000,  0.268786)
   3 Co ( 0.000000,  0.000000,  1.001614)
   4 Al ( 0.000000,  0.000000, -0.026996)
   5 Ni ( 0.000000,  0.000000,  0.114692)
   6 Co ( 0.000000,  0.000000,  1.216366)
   7 Al ( 0.000000,  0.000000, -0.024728)
   8 Al ( 0.000000,  0.000000, -0.046109)
   9 Fe ( 0.000000,  0.000000,  2.182594)
  10 Fe ( 0.000000,  0.000000,  2.475200)
  11 Fe ( 0.000000,  0.000000,  2.119599)
  12 Cr ( 0.000000,  0.000000,  0.852245)
  13 Cr ( 0.000000,  0.000000, -1.280661)
  14 Co ( 0.000000,  0.000000,  0.857245)
  15 Fe ( 0.000000,  0.000000,  1.744775)
  16 Cr ( 0.000000,  0.000000,  1.630862)
  17 Co ( 0.000000,  0.000000,  0.769996)
  18 Al ( 0.000000,  0.000000, -0.022797)
  19 Ni ( 0.000000,  0.000000,  0.239455)
  20 Co ( 0.000000,  0.000000,  1.097070)
  21 Al ( 0.000000,  0.000000,  0.001338)
  22 Cr ( 0.000000,  0.000000, -1.756336)
  23 Ni ( 0.000000,  0.000000,  0.204923)
  24 Cr ( 0.000000,  0.000000,  0.726011)
  25 Fe ( 0.000000,  0.000000,  2.444139)
  26 Fe ( 0.000000,  0.000000,  2.145603)
  27 Ni ( 0.000000,  0.000000,  0.229950)
  28 Fe ( 0.000000,  0.000000,  2.483688)
  29 Co ( 0.000000,  0.000000,  1.118048)
  30 Cr ( 0.000000,  0.000000, -1.752884)
  31 Fe ( 0.000000,  0.000000,  2.168246)
  32 Cr ( 0.000000,  0.000000,  1.000508)
  33 Co ( 0.000000,  0.000000,  1.063973)
  34 Ni ( 0.000000,  0.000000,  0.079205)
  35 Ni ( 0.000000,  0.000000,  0.112161)
  36 Fe ( 0.000000,  0.000000,  2.378759)
  37 Fe ( 0.000000,  0.000000,  1.871479)
  38 Ni ( 0.000000,  0.000000,  0.252223)
  39 Al ( 0.000000,  0.000000, -0.025083)
  40 Al ( 0.000000,  0.000000, -0.008043)
  41 Co ( 0.000000,  0.000000, -0.067689)
  42 Al ( 0.000000,  0.000000, -0.000716)
  43 Cr ( 0.000000,  0.000000, -2.253660)
  44 Ni ( 0.000000,  0.000000,  0.105604)
  45 Al ( 0.000000,  0.000000, -0.006222)
  46 Al ( 0.000000,  0.000000, -0.024184)
  47 Co ( 0.000000,  0.000000,  1.122423)
  48 Fe ( 0.000000,  0.000000,  1.801514)
  49 Cr ( 0.000000,  0.000000, -1.185698)
  50 Cr ( 0.000000,  0.000000, -1.875661)
  51 Ni ( 0.000000,  0.000000,  0.142567)
  52 Cr ( 0.000000,  0.000000,  1.736056)
  53 Co ( 0.000000,  0.000000,  0.644398)
  54 Cr ( 0.000000,  0.000000,  0.682536)
  55 Al ( 0.000000,  0.000000, -0.013599)
  56 Ni ( 0.000000,  0.000000,  0.048740)
  57 Ni ( 0.000000,  0.000000,  0.247907)
  58 Co ( 0.000000,  0.000000,  0.860473)
  59 Cr ( 0.000000,  0.000000,  1.123391)
[...]
  93 Co ( 0.000000,  0.000000,  1.439564)
  94 Fe ( 0.000000,  0.000000,  2.247047)
  95 Ni ( 0.000000,  0.000000,  0.269077)
  96 Cr ( 0.000000,  0.000000, -1.768086)
  97 Cr ( 0.000000,  0.000000, -2.261863)
  98 Ni ( 0.000000,  0.000000,  0.198457)
  99 Fe ( 0.000000,  0.000000,  2.152009)
 100 Al ( 0.000000,  0.000000, -0.033992)
 101 Ni ( 0.000000,  0.000000,  0.110210)
 102 Co ( 0.000000,  0.000000,  0.890952)
 103 Al ( 0.000000,  0.000000, -0.005000)
 104 Ni ( 0.000000,  0.000000,  0.224682)
 105 Al ( 0.000000,  0.000000, -0.026520)
 106 Fe ( 0.000000,  0.000000,  2.315064)
 107 Co ( 0.000000,  0.000000,  0.506204)

Energy contributions relative to reference atoms: (reference = -3235165.067515)

Kinetic:       +232.792433
Potential:     -226.233421
External:        +0.000000
XC:            -840.204710
Entropy (-ST):   -4.188391
Local:          +31.281408
Free energy:   -806.552680
Extrapolated:  -804.458484

Spin contamination: 23.487315 electrons
Showing only first 2 kpts
                      Up                     Down
 Kpt  Band  Eigenvalues  Occupancy  Eigenvalues  Occupancy
  0   454      9.02168    0.99334      9.92305    0.01784
  0   455      9.02986    0.99278      9.94085    0.01497
  0   456      9.04742    0.99140      9.96006    0.01239
  0   457      9.05954    0.99031      9.96256    0.01208

  1   454      9.00806    0.99418      9.91964    0.01844
  1   455      9.02540    0.99309      9.93843    0.01533
  1   456      9.04673    0.99146      9.95445    0.01309
  1   457      9.05931    0.99033      9.96492    0.01181

Fermi level: 9.52219

No gap

Forces in eV/Ang:
  0 Ni    0.26374   -0.47057   -0.52859
  1 Al    0.07880   -0.56317   -0.89048
  2 Ni   -0.07306   -0.01875    0.04865
  3 Co    0.01597    0.02371   -0.20405
  4 Al   -0.54160   -0.13038    0.64472
  5 Ni    0.46007   -0.47528    0.35357
  6 Co   -0.10442   -0.00612    0.99210
  7 Al   -0.32044   -0.10280    0.02487
  8 Al   -0.70423   -0.19685    1.96894
  9 Fe    0.28300   -0.03159    0.94897
 10 Fe   -0.06419   -0.42829    0.49519
 11 Fe    0.50487    0.36021   -0.07319
 12 Cr    0.11985   -0.59967    0.30899
 13 Cr    0.44940    0.14630    0.04329
 14 Co    0.24679    0.16905   -0.31633
 15 Fe    0.29801   -0.15361    0.28547
 16 Cr   -1.22242   -0.60214    0.28757
 17 Co   -0.26329    0.25394    0.34834
 18 Al   -0.49148   -0.42895   -0.01323
 19 Ni   -0.31837   -0.00385   -0.22714
 20 Co    0.43941    0.03070   -0.01630
 21 Al    1.48433   -0.12266   -0.31711
 22 Cr   -0.70847   -0.33042    0.23303
 23 Ni   -0.06207    0.17644   -0.02412
 24 Cr    0.18834    0.74782    0.40249
 25 Fe   -0.19521    0.47913   -0.94348
 26 Fe    0.16049   -0.19835   -0.11977
 27 Ni   -0.75146    0.18017    0.07923
 28 Fe   -0.02954    0.03381    0.31074
 29 Co    0.06800   -0.14444    0.47589
 30 Cr   -1.13601    0.88835   -0.67975
 31 Fe   -0.09496   -0.38411    0.45162
 32 Cr   -0.21630    0.41457   -0.27325
 33 Co   -0.17657    0.21117    0.53697
 34 Ni    0.05637    0.48514   -0.07505
 35 Ni    0.30635    0.19090   -0.36585
 36 Fe   -0.40833   -0.35024   -0.23708
 37 Fe    0.01208    0.58977   -0.13187
 38 Ni    0.80065    0.07422   -0.20604
 39 Al    0.92902   -0.08843    0.15619
 40 Al    1.24229    1.11025   -0.54016
 41 Co   -0.19152    0.24070   -0.28301
 42 Al   -0.80645    1.51831   -0.81790
 43 Cr   -0.50846   -0.32611   -0.49403
 44 Ni   -0.74106    0.22225   -0.16947
 45 Al   -0.04261    0.85943   -0.71874
 46 Al   -0.24895   -0.94444   -1.28729
 47 Co   -0.20984    0.39307   -0.30092
 48 Fe    0.13468    0.23788    0.29820
 49 Cr   -0.11519    0.14508    0.08727
 50 Cr    0.74076    0.19845    0.94753
 51 Ni    0.24792   -0.09963    0.01910
 52 Cr   -0.63256   -0.08743    0.15463
 53 Co   -0.44037   -0.20167    0.12582
 54 Cr   -0.37360   -0.88983    0.69619
 55 Al    0.03209    0.73241    1.11299
 56 Ni    0.08499   -0.27682   -0.57946
 57 Ni    0.22868   -0.30152   -0.23977
 58 Co    0.00055    0.11423   -0.16448
 59 Cr   -0.12137   -0.65099    0.35034
[...]
 93 Co   -0.02109    0.27428   -0.01956
 94 Fe   -0.25927   -0.35009    0.14145
 95 Ni    0.22758    0.13653    0.17454
 96 Cr    0.02695    0.31369    0.10199
 97 Cr   -0.04299   -0.98043    0.59946
 98 Ni   -0.38113   -0.02164   -0.01512
 99 Fe   -0.76462   -0.15626   -0.23672
100 Al   -0.69003   -0.54517   -0.25383
101 Ni    0.16948   -0.32240    0.05336
102 Co   -0.12054   -0.60819    0.45092
103 Al   -0.24458   -1.00091    1.10898
104 Ni    0.12798   -0.15589    0.41250
105 Al    0.05763   -1.91465   -0.59566
106 Fe    0.64695    0.30084   -0.91161
107 Co    0.94821   -0.55316    0.45172

Date: Sat Apr 15 14:16:29 2023