User:   c.zeng@d0135
Date:   Sat Apr  8 01:19:33 2023
Arch:   x86_64
Pid:    36416
CWD:    /home/c.zeng/projects/hea-corrosion/hea-mlp/data-curation/volume/dft-jobs/114
Python: 3.8.1
gpaw:   /home/c.zeng/usr/installs/gpaw/source/gpaw-22.8.0/gpaw
_gpaw:  /home/c.zeng/usr/installs/gpaw/source/gpaw-22.8.0/
        _gpaw.cpython-38-x86_64-linux-gnu.so
ase:    /home/c.zeng/.local/lib/python3.8/site-packages/ase-3.22.1-py3.8.egg/ase (version 3.22.1)
numpy:  /shared/centos7/python/3.8.1/lib/python3.8/site-packages/numpy (version 1.17.4)
scipy:  /shared/centos7/python/3.8.1/lib/python3.8/site-packages/scipy (version 1.4.1)
units:  Angstrom and eV
cores: 64
OpenMP: False
OMP_NUM_THREADS: 1

Input parameters:
  convergence: {energy: 0.0001}
  kpts: [2 2 2]
  maxiter: 666
  mode: {ecut: 350.0,
         name: pw}
  occupations: {fixmagmom: False,
                name: fermi-dirac,
                width: 0.1}
  spinpol: True
  xc: PBE

System changes: positions, numbers, cell, pbc, initial_charges, initial_magmoms

Initialize ...

species:
  Al:
    name: Aluminium
    id: 0292cae29f5d6237e50f6abdd43a7bdd
    Z: 13.0
    valence: 3
    core: 10
    charge: 0.0
    file: /home/c.zeng/usr/data/gpaw-setups-0.9.20000/Al.PBE.gz
    compensation charges: {type: gauss,
                           rc: 0.34,
                           lmax: 2}
    cutoffs: {filter: 1.91,
              core: 2.36}
    valence states:
      #              energy  rcut
      - 3s(2.00)    -7.753   1.085
      - 3p(1.00)    -2.712   1.085
      -  s          19.459   1.085
      -  p          24.499   1.085
      -  d           0.000   1.085

    # Using partial waves for Al as LCAO basis

  Fe:
    name: Iron
    id: 37abbd8d6c3c35915a9b583b742da910
    Z: 26.0
    valence: 8
    core: 18
    charge: 0.0
    file: /home/c.zeng/usr/data/gpaw-setups-0.9.20000/Fe.PBE.gz
    compensation charges: {type: gauss,
                           rc: 0.33,
                           lmax: 2}
    cutoffs: {filter: 2.06,
              core: 2.67}
    valence states:
      #              energy  rcut
      - 4s(2.00)    -5.291   1.164
      - 4p(0.00)    -1.326   1.058
      - 3d(6.00)    -7.505   1.058
      -  s          21.920   1.164
      -  p          25.885   1.058
      -  d          19.706   1.058

[...]

  Cr:
    name: Chromium
    id: 33f258bda2ca9f93018e70263a35547b
    Z: 24.0
    valence: 6
    core: 18
    charge: 0.0
    file: /home/c.zeng/usr/data/gpaw-setups-0.9.20000/Cr.PBE.gz
    compensation charges: {type: gauss,
                           rc: 0.35,
                           lmax: 2}
    cutoffs: {filter: 2.14,
              core: 3.04}
    valence states:
      #              energy  rcut
      - 4s(1.00)    -4.007   1.164
      - 4p(0.00)    -0.989   1.217
      - 3d(5.00)    -2.913   1.111
      -  s          23.205   1.164
      -  p          26.223   1.217
      -  d          24.299   1.111

[...]

  Ni:
    name: Nickel
    id: 0d9f38a9d6e76a2886f07bb4381f212b
    Z: 28.0
    valence: 16
    core: 12
    charge: 0.0
    file: /home/c.zeng/usr/data/gpaw-setups-0.9.20000/Ni.PBE.gz
    compensation charges: {type: gauss,
                           rc: 0.36,
                           lmax: 2}
    cutoffs: {filter: 2.14,
              core: 1.98}
    valence states:
      #              energy  rcut
      - 4s(2.00)    -5.642   1.164
      - 3p(6.00)   -71.394   1.207
      - 4p(0.00)    -1.226   1.207
      - 3d(8.00)    -8.875   1.138
      -  s          21.570   1.164
      -  d          18.337   1.138

[...]

  Co:
    name: Cobalt
    id: 339d20d5b0b93d2de9531a1bee871d91
    Z: 27.0
    valence: 9
    core: 18
    charge: 0.0
    file: /home/c.zeng/usr/data/gpaw-setups-0.9.20000/Co.PBE.gz
    compensation charges: {type: gauss,
                           rc: 0.32,
                           lmax: 2}
    cutoffs: {filter: 1.87,
              core: 2.55}
    valence states:
      #              energy  rcut
      - 4s(2.00)    -5.469   1.005
      - 4p(0.00)    -1.277   1.058
      - 3d(7.00)    -8.205   1.005
      -  s          21.742   1.005
      -  p          25.934   1.058
      -  d          19.007   1.005

    # Using partial waves for Co as LCAO basis

Reference energy: -3235165.067515  # eV

Spin-polarized calculation.
Magnetic moment: 121.100000

Convergence criteria:
 Maximum [total energy] change in last 3 cyles: 0.0001 eV / electron
 Maximum integral of absolute [dens]ity change: 0.0001 electrons / valence electron
 Maximum integral of absolute [eigenst]ate change: 4e-08 eV^2 / valence electron
 Maximum number of scf [iter]ations: 666
 (Square brackets indicate name in SCF output, whereas a 'c' in
 the SCF output indicates the quantity has converged.)

Symmetries present (total): 1

  ( 1  0  0)
  ( 0  1  0)
  ( 0  0  1)

8 k-points: 2 x 2 x 2 Monkhorst-Pack grid
4 k-points in the irreducible part of the Brillouin zone
       k-points in crystal coordinates                weights
   0:     0.25000000   -0.25000000   -0.25000000          2/8
   1:     0.25000000   -0.25000000    0.25000000          2/8
   2:     0.25000000    0.25000000   -0.25000000          2/8
   3:     0.25000000    0.25000000    0.25000000          2/8

Wave functions: Plane wave expansion
  Cutoff energy: 350.000 eV
  Number of coefficients (min, max): 26661, 26661
  Pulay-stress correction: 0.000000 eV/Ang^3 (de/decut=0.000000)
  Using FFTW library
  ScaLapack parameters: grid=1x1, blocksize=None
  Wavefunction extrapolation:
    Improved wavefunction reuse through dual PAW basis

Occupation numbers: Fermi-Dirac:
  width: 0.1000  # eV

Eigensolver
   Davidson(niter=2)

Densities:
  Coarse grid: 54*54*54 grid
  Fine grid: 108*108*108 grid
  Total Charge: 0.000000

Density mixing:
  Method: difference
  Backend: pulay
  Linear mixing parameter: 0.05
  old densities: 5
  Damping of long wavelength oscillations: 50

Hamiltonian:
  XC and Coulomb potentials evaluated on a 108*108*108 grid
  Using the PBE Exchange-Correlation functional
  External potential:
    NoExternalPotential

XC parameters: PBE with 2 nearest neighbor stencil

Total number of cores used: 64
Parallelization over k-points: 4
Domain decomposition: 4 x 2 x 2

Number of atoms: 108
Number of atomic orbitals: 933
Number of bands in calculation: 624
Number of valence electrons: 912
Bands to converge: occupied

... initialized

Initializing position-dependent things.

Density initialized from atomic densities
Creating initial wave functions:
  624 bands from LCAO basis set

    /  Al        Co        Ni         |
   /    |  Fe        Al        Al     |
  / Cr  |   CoAl      Fe Co     Cr    |
 *    AlCr      FeCo      CoNi        |
 |Al    | AlAl     Ni Fe     Fe       |
 |     Cr        Ni        Ni         |
 | Cr Cr|  FeCr Co   CoCr Ni   Fe     |
 |  Fe Co   FeNi Cr   Cr CrFe   Cr    |
 Co   CoAl Co   AlNi Ni   NiNi        |
 |Co    |   Al        Co              |
 |     Al Co     NiCo      CrCr       |
 | Fe Cr.--NiCo-Cr---NiAl-Cr---Fe-----.
 |  Co Ni   CrAl Al   Ni CoNi   Ni   /
 Fe   NiCr Al   FeFe Al   CoAl      /
 |Fe /      Al        Co           /
 |  / Cr  Co    Al Fe     Ni Fe   /
 | /e        Fe        Cr        /
 |/    Cr        Ni        Fe   /
 Al--------Ni--------Fe--------*

Positions:
   0 Al     0.000000    0.000000    0.000000    ( 0.0000,  0.0000,  0.0000)
   1 Fe     0.000000    2.025004    2.025004    ( 0.0000,  0.0000,  2.0000)
   2 Cr     2.025004    0.000000    2.025004    ( 0.0000,  0.0000,  0.0000)
   3 Cr     2.025004    2.025004    0.000000    ( 0.0000,  0.0000,  0.0000)
   4 Ni     4.049996    0.000000    0.000000    ( 0.0000,  0.0000,  1.5000)
   5 Al     4.049996    2.025004    2.025004    ( 0.0000,  0.0000,  0.0000)
   6 Al     6.075000    0.000000    2.025004    ( 0.0000,  0.0000,  0.0000)
   7 Ni     6.075000    2.025004    0.000000    ( 0.0000,  0.0000,  1.5000)
   8 Fe     8.100004    0.000000    0.000000    ( 0.0000,  0.0000,  2.0000)
   9 Co     8.100004    2.025004    2.025004    ( 0.0000,  0.0000,  2.1000)
  10 Ni    10.124996    0.000000    2.025004    ( 0.0000,  0.0000,  1.5000)
  11 Fe    10.124996    2.025004    0.000000    ( 0.0000,  0.0000,  2.0000)
  12 Fe     0.000000    4.049996    0.000000    ( 0.0000,  0.0000,  2.0000)
  13 Co     0.000000    6.075000    2.025004    ( 0.0000,  0.0000,  2.1000)
  14 Cr     2.025004    4.049996    2.025004    ( 0.0000,  0.0000,  0.0000)
  15 Co     2.025004    6.075000    0.000000    ( 0.0000,  0.0000,  2.1000)
  16 Fe     4.049996    4.049996    0.000000    ( 0.0000,  0.0000,  2.0000)
  17 Al     4.049996    6.075000    2.025004    ( 0.0000,  0.0000,  0.0000)
  18 Fe     6.075000    4.049996    2.025004    ( 0.0000,  0.0000,  2.0000)
  19 Fe     6.075000    6.075000    0.000000    ( 0.0000,  0.0000,  2.0000)
  20 Cr     8.100004    4.049996    0.000000    ( 0.0000,  0.0000,  0.0000)
  21 Co     8.100004    6.075000    2.025004    ( 0.0000,  0.0000,  2.1000)
  22 Al    10.124996    4.049996    2.025004    ( 0.0000,  0.0000,  0.0000)
  23 Fe    10.124996    6.075000    0.000000    ( 0.0000,  0.0000,  2.0000)
  24 Ni     0.000000    8.100004    0.000000    ( 0.0000,  0.0000,  1.5000)
  25 Al     0.000000   10.124996    2.025004    ( 0.0000,  0.0000,  0.0000)
  26 Ni     2.025004    8.100004    2.025004    ( 0.0000,  0.0000,  1.5000)
  27 Cr     2.025004   10.124996    0.000000    ( 0.0000,  0.0000,  0.0000)
  28 Fe     4.049996    8.100004    0.000000    ( 0.0000,  0.0000,  2.0000)
  29 Ni     4.049996   10.124996    2.025004    ( 0.0000,  0.0000,  1.5000)
  30 Ni     6.075000    8.100004    2.025004    ( 0.0000,  0.0000,  1.5000)
  31 Ni     6.075000   10.124996    0.000000    ( 0.0000,  0.0000,  1.5000)
  32 Co     8.100004    8.100004    0.000000    ( 0.0000,  0.0000,  2.1000)
  33 Cr     8.100004   10.124996    2.025004    ( 0.0000,  0.0000,  0.0000)
  34 Fe    10.124996    8.100004    2.025004    ( 0.0000,  0.0000,  2.0000)
  35 Ni    10.124996   10.124996    0.000000    ( 0.0000,  0.0000,  1.5000)
  36 Fe     0.000000    0.000000    4.049996    ( 0.0000,  0.0000,  2.0000)
  37 Co     0.000000    2.025004    6.075000    ( 0.0000,  0.0000,  2.1000)
  38 Cr     2.025004    0.000000    6.075000    ( 0.0000,  0.0000,  0.0000)
  39 Ni     2.025004    2.025004    4.049996    ( 0.0000,  0.0000,  1.5000)
  40 Al     4.049996    0.000000    4.049996    ( 0.0000,  0.0000,  0.0000)
  41 Al     4.049996    2.025004    6.075000    ( 0.0000,  0.0000,  0.0000)
  42 Cr     6.075000    0.000000    6.075000    ( 0.0000,  0.0000,  0.0000)
  43 Al     6.075000    2.025004    4.049996    ( 0.0000,  0.0000,  0.0000)
  44 Al     8.100004    0.000000    4.049996    ( 0.0000,  0.0000,  0.0000)
  45 Co     8.100004    2.025004    6.075000    ( 0.0000,  0.0000,  2.1000)
  46 Cr    10.124996    0.000000    6.075000    ( 0.0000,  0.0000,  0.0000)
  47 Ni    10.124996    2.025004    4.049996    ( 0.0000,  0.0000,  1.5000)
  48 Fe     0.000000    4.049996    4.049996    ( 0.0000,  0.0000,  2.0000)
  49 Fe     0.000000    6.075000    6.075000    ( 0.0000,  0.0000,  2.0000)
  50 Al     2.025004    4.049996    6.075000    ( 0.0000,  0.0000,  0.0000)
  51 Co     2.025004    6.075000    4.049996    ( 0.0000,  0.0000,  2.1000)
  52 Co     4.049996    4.049996    4.049996    ( 0.0000,  0.0000,  2.1000)
  53 Ni     4.049996    6.075000    6.075000    ( 0.0000,  0.0000,  1.5000)
  54 Ni     6.075000    4.049996    6.075000    ( 0.0000,  0.0000,  1.5000)
  55 Co     6.075000    6.075000    4.049996    ( 0.0000,  0.0000,  2.1000)
  56 Al     8.100004    4.049996    4.049996    ( 0.0000,  0.0000,  0.0000)
  57 Cr     8.100004    6.075000    6.075000    ( 0.0000,  0.0000,  0.0000)
  58 Ni    10.124996    4.049996    6.075000    ( 0.0000,  0.0000,  1.5000)
  59 Cr    10.124996    6.075000    4.049996    ( 0.0000,  0.0000,  0.0000)
[...]
  93 Co     8.100004    6.075000   10.124996    ( 0.0000,  0.0000,  2.1000)
  94 Ni    10.124996    4.049996   10.124996    ( 0.0000,  0.0000,  1.5000)
  95 Fe    10.124996    6.075000    8.100004    ( 0.0000,  0.0000,  2.0000)
  96 Al     0.000000    8.100004    8.100004    ( 0.0000,  0.0000,  0.0000)
  97 Al     0.000000   10.124996   10.124996    ( 0.0000,  0.0000,  0.0000)
  98 Fe     2.025004    8.100004   10.124996    ( 0.0000,  0.0000,  2.0000)
  99 Co     2.025004   10.124996    8.100004    ( 0.0000,  0.0000,  2.1000)
 100 Fe     4.049996    8.100004    8.100004    ( 0.0000,  0.0000,  2.0000)
 101 Co     4.049996   10.124996   10.124996    ( 0.0000,  0.0000,  2.1000)
 102 Al     6.075000    8.100004   10.124996    ( 0.0000,  0.0000,  0.0000)
 103 Fe     6.075000   10.124996    8.100004    ( 0.0000,  0.0000,  2.0000)
 104 Co     8.100004    8.100004    8.100004    ( 0.0000,  0.0000,  2.1000)
 105 Ni     8.100004   10.124996   10.124996    ( 0.0000,  0.0000,  1.5000)
 106 Al    10.124996    8.100004   10.124996    ( 0.0000,  0.0000,  0.0000)
 107 Cr    10.124996   10.124996    8.100004    ( 0.0000,  0.0000,  0.0000)

Unit cell:
           periodic     x           y           z      points  spacing
  1. axis:    yes   12.150000    0.000000    0.000000    54     0.2250
  2. axis:    yes    0.000000   12.150000    0.000000    54     0.2250
  3. axis:    yes    0.000000    0.000000   12.150000    54     0.2250

  Lengths:  12.150000  12.150000  12.150000
  Angles:   90.000000  90.000000  90.000000

Effective grid spacing dv^(1/3) = 0.2250

     iter     time        total  log10-change:  magmom
                         energy  eigst   dens
iter:   1 01:21:46  -977.116402                  +121.3858
iter:   2 01:22:42  -815.129994  +0.05  -1.13    +61.9790
iter:   3 01:23:38  -824.353232  -0.46  -1.05    +66.8716
iter:   4 01:24:33  -759.533037  -1.01  -1.13    +63.3377
iter:   5 01:25:29  -747.068041  -1.62  -1.27    +65.4349
iter:   6 01:26:25  -748.443111  -1.67  -1.33    +74.0093
iter:   7 01:27:21  -751.421721  -1.34  -1.34    +79.3672
iter:   8 01:28:17  -748.542155  -1.62  -1.35    +84.4177
iter:   9 01:29:13  -749.974880  -1.41  -1.41    +85.8483
iter:  10 01:30:09  -748.562048  -1.52  -1.50    +85.7090
iter:  11 01:31:04  -747.868197  -1.76  -1.57    +82.9138
iter:  12 01:32:00  -744.194194  -1.92  -1.56    +81.0854
iter:  13 01:32:56  -744.483783  -2.19  -1.68    +80.1779
iter:  14 01:33:52  -745.443045  -2.29  -1.75    +78.7605
iter:  15 01:34:48  -745.900326  -2.56  -1.77    +76.3239
iter:  16 01:35:44  -747.595782  -2.54  -1.82    +73.6575
iter:  17 01:36:40  -748.958641  -2.45  -1.83    +72.5137
iter:  18 01:37:36  -749.198506  -2.51  -1.83    +70.2848
iter:  19 01:38:31  -750.768310  -2.54  -1.91    +68.3730
iter:  20 01:39:27  -751.514129  -2.47  -1.92    +67.1169
iter:  21 01:40:23  -752.028447  -2.51  -1.92    +66.7229
iter:  22 01:41:19  -752.402879  -2.68  -2.00    +65.9512
iter:  23 01:42:15  -753.119618  -2.76  -2.03    +64.8732
iter:  24 01:43:11  -753.312610  -2.95  -2.06    +64.7903
iter:  25 01:44:07  -753.820856  -2.95  -2.09    +64.7314
iter:  26 01:45:03  -754.149795  -3.29  -2.10    +64.8967
iter:  27 01:45:59  -754.995627  -2.94  -2.13    +64.8286
iter:  28 01:46:55  -755.242986  -2.98  -2.13    +65.3894
iter:  29 01:47:51  -755.561864  -2.89  -2.18    +66.1229
iter:  30 01:48:47  -755.330598  -3.10  -2.17    +65.9786
iter:  31 01:49:43  -755.315840  -3.12  -2.26    +66.0514
iter:  32 01:50:38  -755.261729c -3.41  -2.32    +66.2162
iter:  33 01:51:34  -755.268940c -3.59  -2.40    +66.5496
iter:  34 01:52:31  -755.296544c -3.68  -2.45    +66.7682
iter:  35 01:53:27  -755.279483c -3.72  -2.48    +66.8437
iter:  36 01:54:23  -755.256617c -3.84  -2.56    +66.9285
iter:  37 01:55:19  -755.224578c -4.14  -2.61    +67.0182
iter:  38 01:56:15  -755.232639c -4.17  -2.73    +67.0140
iter:  39 01:57:10  -755.217919c -4.18  -2.74    +67.0128
iter:  40 01:58:06  -755.214024c -4.39  -2.84    +67.0286
iter:  41 01:59:02  -755.206580c -4.63  -2.90    +66.9871
iter:  42 01:59:58  -755.206081c -4.61  -2.96    +66.9548
iter:  43 02:00:54  -755.205930c -4.77  -3.01    +66.9394
iter:  44 02:01:50  -755.203657c -4.77  -3.03    +66.9084
iter:  45 02:02:46  -755.200942c -4.83  -3.10    +66.8953
iter:  46 02:03:42  -755.203525c -5.05  -3.15    +66.8769
iter:  47 02:04:38  -755.201740c -5.17  -3.17    +66.8609
iter:  48 02:05:34  -755.203724c -5.25  -3.21    +66.8524
iter:  49 02:06:30  -755.202794c -5.07  -3.29    +66.8493
iter:  50 02:07:27  -755.202859c -5.28  -3.28    +66.8485
iter:  51 02:08:23  -755.203509c -5.37  -3.41    +66.8390
iter:  52 02:09:19  -755.203027c -5.69  -3.44    +66.8435
iter:  53 02:10:15  -755.203624c -5.95  -3.52    +66.8483
iter:  54 02:11:11  -755.204504c -5.79  -3.57    +66.8453
iter:  55 02:12:06  -755.202933c -6.12  -3.59    +66.8475
iter:  56 02:13:03  -755.204033c -5.98  -3.66    +66.8512
iter:  57 02:13:59  -755.203353c -6.27  -3.75    +66.8500
iter:  58 02:14:55  -755.203540c -6.47  -3.81    +66.8503
iter:  59 02:15:51  -755.203460c -6.38  -3.86    +66.8506
iter:  60 02:16:47  -755.203554c -6.50  -3.87    +66.8503
iter:  61 02:17:43  -755.203047c -6.44  -3.96    +66.8512
iter:  62 02:18:39  -755.203303c -6.65  -3.98    +66.8505
iter:  63 02:19:35  -755.202947c -6.78  -4.06c   +66.8497
iter:  64 02:20:30  -755.202965c -6.89  -4.09c   +66.8499
iter:  65 02:21:26  -755.203060c -7.02  -4.15c   +66.8499
iter:  66 02:22:22  -755.202891c -6.93  -4.21c   +66.8501
iter:  67 02:23:18  -755.202911c -7.26  -4.22c   +66.8510
iter:  68 02:24:14  -755.202749c -7.30  -4.30c   +66.8507
iter:  69 02:25:10  -755.202932c -7.37  -4.32c   +66.8510
iter:  70 02:26:07  -755.202775c -7.38  -4.36c   +66.8516
iter:  71 02:27:03  -755.202873c -7.44c -4.41c   +66.8516

Converged after 71 iterations.

Dipole moment: (0.213704, -0.289160, 0.096387) |e|*Ang

Total magnetic moment: (0.000000, 0.000000, 66.851554)
Local magnetic moments:
   0 Al ( 0.000000,  0.000000,  0.008424)
   1 Fe ( 0.000000,  0.000000,  2.920276)
   2 Cr ( 0.000000,  0.000000, -3.136277)
   3 Cr ( 0.000000,  0.000000,  2.906804)
   4 Ni ( 0.000000,  0.000000,  0.172649)
   5 Al ( 0.000000,  0.000000, -0.010370)
   6 Al ( 0.000000,  0.000000, -0.015638)
   7 Ni ( 0.000000,  0.000000,  0.523747)
   8 Fe ( 0.000000,  0.000000,  3.078862)
   9 Co ( 0.000000,  0.000000,  1.535613)
  10 Ni ( 0.000000,  0.000000,  0.272169)
  11 Fe ( 0.000000,  0.000000,  2.882520)
  12 Fe ( 0.000000,  0.000000,  2.874585)
  13 Co ( 0.000000,  0.000000,  1.833569)
  14 Cr ( 0.000000,  0.000000, -3.293751)
  15 Co ( 0.000000,  0.000000,  1.701057)
  16 Fe ( 0.000000,  0.000000,  2.791967)
  17 Al ( 0.000000,  0.000000, -0.036882)
  18 Fe ( 0.000000,  0.000000,  2.863599)
  19 Fe ( 0.000000,  0.000000,  2.885269)
  20 Cr ( 0.000000,  0.000000, -3.339677)
  21 Co ( 0.000000,  0.000000,  1.718826)
  22 Al ( 0.000000,  0.000000, -0.027645)
  23 Fe ( 0.000000,  0.000000,  2.949665)
  24 Ni ( 0.000000,  0.000000,  0.273146)
  25 Al ( 0.000000,  0.000000, -0.002073)
  26 Ni ( 0.000000,  0.000000,  0.404313)
  27 Cr ( 0.000000,  0.000000, -3.134641)
  28 Fe ( 0.000000,  0.000000,  2.976432)
  29 Ni ( 0.000000,  0.000000,  0.331218)
  30 Ni ( 0.000000,  0.000000,  0.489325)
  31 Ni ( 0.000000,  0.000000,  0.409776)
  32 Co ( 0.000000,  0.000000,  1.848944)
  33 Cr ( 0.000000,  0.000000, -3.281763)
  34 Fe ( 0.000000,  0.000000,  2.982753)
  35 Ni ( 0.000000,  0.000000,  0.293310)
  36 Fe ( 0.000000,  0.000000,  2.859294)
  37 Co ( 0.000000,  0.000000,  1.761198)
  38 Cr ( 0.000000,  0.000000, -3.294684)
  39 Ni ( 0.000000,  0.000000,  0.149251)
  40 Al ( 0.000000,  0.000000,  0.007970)
  41 Al ( 0.000000,  0.000000, -0.011504)
  42 Cr ( 0.000000,  0.000000, -3.164880)
  43 Al ( 0.000000,  0.000000,  0.001741)
  44 Al ( 0.000000,  0.000000,  0.013762)
  45 Co ( 0.000000,  0.000000,  1.534946)
  46 Cr ( 0.000000,  0.000000, -3.288682)
  47 Ni ( 0.000000,  0.000000,  0.475607)
  48 Fe ( 0.000000,  0.000000,  2.954473)
  49 Fe ( 0.000000,  0.000000,  2.846706)
  50 Al ( 0.000000,  0.000000, -0.030758)
  51 Co ( 0.000000,  0.000000,  1.738976)
  52 Co ( 0.000000,  0.000000,  1.593843)
  53 Ni ( 0.000000,  0.000000,  0.549571)
  54 Ni ( 0.000000,  0.000000,  0.244615)
  55 Co ( 0.000000,  0.000000,  1.773964)
  56 Al ( 0.000000,  0.000000, -0.008601)
  57 Cr ( 0.000000,  0.000000, -3.323851)
  58 Ni ( 0.000000,  0.000000,  0.284934)
  59 Cr ( 0.000000,  0.000000, -3.258690)
[...]
  93 Co ( 0.000000,  0.000000,  1.774563)
  94 Ni ( 0.000000,  0.000000,  0.407572)
  95 Fe ( 0.000000,  0.000000,  2.873970)
  96 Al ( 0.000000,  0.000000, -0.026599)
  97 Al ( 0.000000,  0.000000, -0.008779)
  98 Fe ( 0.000000,  0.000000,  2.831994)
  99 Co ( 0.000000,  0.000000,  1.668632)
 100 Fe ( 0.000000,  0.000000,  2.956011)
 101 Co ( 0.000000,  0.000000,  1.843678)
 102 Al ( 0.000000,  0.000000, -0.048541)
 103 Fe ( 0.000000,  0.000000,  3.073380)
 104 Co ( 0.000000,  0.000000,  1.752230)
 105 Ni ( 0.000000,  0.000000,  0.566682)
 106 Al ( 0.000000,  0.000000, -0.026309)
 107 Cr ( 0.000000,  0.000000,  3.068515)

Energy contributions relative to reference atoms: (reference = -3235165.067515)

Kinetic:       -319.086219
Potential:     +209.744496
External:        +0.000000
XC:            -670.701247
Entropy (-ST):   -4.552935
Local:          +27.116565
Free energy:   -757.479340
Extrapolated:  -755.202873

Spin contamination: 64.214960 electrons
Showing only first 2 kpts
                      Up                     Down
 Kpt  Band  Eigenvalues  Occupancy  Eigenvalues  Occupancy
  0   454      5.24361    0.99955      6.32865    0.04144
  0   455      5.25624    0.99949      6.33337    0.03960
  0   456      5.26223    0.99946      6.34197    0.03646
  0   457      5.27125    0.99941      6.34964    0.03385

  1   454      5.23678    0.99958      6.31873    0.04556
  1   455      5.24607    0.99954      6.33077    0.04060
  1   456      5.25527    0.99950      6.33745    0.03808
  1   457      5.27413    0.99939      6.34729    0.03463

Fermi level: 6.01451

No gap

Forces in eV/Ang:
  0 Al   -0.60179    0.05976    0.31018
  1 Fe   -0.20909    0.06097    0.32188
  2 Cr   -0.00184    0.21864    0.14783
  3 Cr    0.06939   -0.31860    0.03260
  4 Ni   -0.03762   -0.10636   -0.10380
  5 Al   -0.25098    0.43031   -0.43659
  6 Al   -0.11173   -0.33173   -1.12080
  7 Ni    0.07821    0.02567   -0.02080
  8 Fe    0.17937    0.01972   -0.22216
  9 Co   -0.02294   -0.09440   -0.09075
 10 Ni   -0.07638    0.03078    0.00245
 11 Fe   -0.18674   -0.04290    0.08383
 12 Fe   -0.19823    0.17135    0.13571
 13 Co    0.24181    0.15020   -0.07446
 14 Cr   -0.36306   -0.08017   -0.01904
 15 Co    0.03529    0.05765    0.06922
 16 Fe    0.34587    0.32861   -0.03630
 17 Al    0.11356    0.07277   -0.04473
 18 Fe    0.03128    0.13861    0.01691
 19 Fe    0.31495    0.01775    0.04544
 20 Cr   -0.24596   -0.04950   -0.21595
 21 Co   -0.22082    0.33556    0.01450
 22 Al    0.27848   -0.22653   -0.18210
 23 Fe   -0.21484    0.09640    0.06063
 24 Ni    0.01817   -0.21885   -0.01852
 25 Al   -0.18067   -0.49305   -0.03989
 26 Ni    0.03043   -0.17233    0.04004
 27 Cr    0.47784   -0.63362    0.01151
 28 Fe   -0.09028    0.22951    0.05651
 29 Ni    0.00208    0.01070    0.05679
 30 Ni   -0.00581   -0.28348   -0.15776
 31 Ni    0.01351    0.00505   -0.03157
 32 Co   -0.03357   -0.19591    0.16154
 33 Cr   -0.18182   -0.27424   -0.57274
 34 Fe   -0.19160   -0.20454   -0.07491
 35 Ni    0.00951    0.01715   -0.02653
 36 Fe   -0.15685    0.27097    0.30452
 37 Co   -0.07650   -0.12864    0.00301
 38 Cr   -0.11066    0.08027    0.25449
 39 Ni    0.00851   -0.03000   -0.03000
 40 Al   -0.44742   -0.66464    0.17590
 41 Al   -0.12756    0.27371    0.26516
 42 Cr    0.22562   -0.24204    0.41830
 43 Al    0.35712    0.77871    0.29711
 44 Al    0.68195    0.20284    0.08309
 45 Co    0.23664   -0.04036    0.04926
 46 Cr   -0.14740    0.78405    0.59730
 47 Ni    0.16318    0.05811   -0.07235
 48 Fe    0.02848    0.00007    0.15376
 49 Fe   -0.10071    0.07827   -0.35153
 50 Al   -0.03282   -0.13496   -0.64404
 51 Co   -0.24897    0.03021    0.17481
 52 Co    0.18597    0.29079   -0.05829
 53 Ni   -0.00485    0.05158   -0.05914
 54 Ni   -0.06242   -0.03885   -0.06780
 55 Co   -0.04682    0.00247   -0.09296
 56 Al   -0.03221   -0.07221    0.26683
 57 Cr   -0.45156    0.60430    0.15279
 58 Ni   -0.04246   -0.02998    0.02526
 59 Cr    0.51245    0.43476   -0.15262
[...]
 93 Co    0.08325   -0.01937   -0.01272
 94 Ni    0.01331   -0.01195   -0.00028
 95 Fe   -0.22544   -0.09160   -0.02977
 96 Al    0.14299   -0.10138   -0.48371
 97 Al   -0.00981    0.33268    0.09710
 98 Fe    0.24091    0.13571    0.11091
 99 Co    0.22307   -0.11584   -0.02384
100 Fe    0.02839    0.30345   -0.24024
101 Co    0.03007    0.14181   -0.15745
102 Al    0.57296    0.34327    0.03640
103 Fe    0.12463    0.19572   -0.12970
104 Co   -0.12942   -0.09805   -0.19918
105 Ni   -0.13378    0.03151    0.07359
106 Al   -0.80398    0.00440    0.56198
107 Cr   -0.28751    0.49829   -0.18027

Date: Sat Apr  8 02:27:20 2023