User:   c.zeng@d0093
Date:   Sat Apr 15 03:41:40 2023
Arch:   x86_64
Pid:    114172
CWD:    /home/c.zeng/projects/hea-corrosion/hea-mlp/data-curation/bulk-mcmc/dft-jobs/211
Python: 3.8.1
gpaw:   /home/c.zeng/usr/installs/gpaw/source/gpaw-22.8.0/gpaw
_gpaw:  /home/c.zeng/usr/installs/gpaw/source/gpaw-22.8.0/
        _gpaw.cpython-38-x86_64-linux-gnu.so
ase:    /home/c.zeng/.local/lib/python3.8/site-packages/ase-3.22.1-py3.8.egg/ase (version 3.22.1)
numpy:  /shared/centos7/python/3.8.1/lib/python3.8/site-packages/numpy (version 1.17.4)
scipy:  /shared/centos7/python/3.8.1/lib/python3.8/site-packages/scipy (version 1.4.1)
units:  Angstrom and eV
cores: 30
OpenMP: False
OMP_NUM_THREADS: 1

Input parameters:
  convergence: {energy: 0.0001}
  kpts: [2 2 2]
  maxiter: 666
  mode: {ecut: 350.0,
         name: pw}
  occupations: {fixmagmom: False,
                name: fermi-dirac,
                width: 0.1}
  spinpol: True
  xc: PBE

System changes: positions, numbers, cell, pbc, initial_charges, initial_magmoms

Initialize ...

species:
  Ni:
    name: Nickel
    id: 0d9f38a9d6e76a2886f07bb4381f212b
    Z: 28.0
    valence: 16
    core: 12
    charge: 0.0
    file: /home/c.zeng/usr/data/gpaw-setups-0.9.20000/Ni.PBE.gz
    compensation charges: {type: gauss,
                           rc: 0.36,
                           lmax: 2}
    cutoffs: {filter: 2.14,
              core: 1.98}
    valence states:
      #              energy  rcut
      - 4s(2.00)    -5.642   1.164
      - 3p(6.00)   -71.394   1.207
      - 4p(0.00)    -1.226   1.207
      - 3d(8.00)    -8.875   1.138
      -  s          21.570   1.164
      -  d          18.337   1.138

    # Using partial waves for Ni as LCAO basis

  Al:
    name: Aluminium
    id: 0292cae29f5d6237e50f6abdd43a7bdd
    Z: 13.0
    valence: 3
    core: 10
    charge: 0.0
    file: /home/c.zeng/usr/data/gpaw-setups-0.9.20000/Al.PBE.gz
    compensation charges: {type: gauss,
                           rc: 0.34,
                           lmax: 2}
    cutoffs: {filter: 1.91,
              core: 2.36}
    valence states:
      #              energy  rcut
      - 3s(2.00)    -7.753   1.085
      - 3p(1.00)    -2.712   1.085
      -  s          19.459   1.085
      -  p          24.499   1.085
      -  d           0.000   1.085

[...]

  Co:
    name: Cobalt
    id: 339d20d5b0b93d2de9531a1bee871d91
    Z: 27.0
    valence: 9
    core: 18
    charge: 0.0
    file: /home/c.zeng/usr/data/gpaw-setups-0.9.20000/Co.PBE.gz
    compensation charges: {type: gauss,
                           rc: 0.32,
                           lmax: 2}
    cutoffs: {filter: 1.87,
              core: 2.55}
    valence states:
      #              energy  rcut
      - 4s(2.00)    -5.469   1.005
      - 4p(0.00)    -1.277   1.058
      - 3d(7.00)    -8.205   1.005
      -  s          21.742   1.005
      -  p          25.934   1.058
      -  d          19.007   1.005

[...]

  Fe:
    name: Iron
    id: 37abbd8d6c3c35915a9b583b742da910
    Z: 26.0
    valence: 8
    core: 18
    charge: 0.0
    file: /home/c.zeng/usr/data/gpaw-setups-0.9.20000/Fe.PBE.gz
    compensation charges: {type: gauss,
                           rc: 0.33,
                           lmax: 2}
    cutoffs: {filter: 2.06,
              core: 2.67}
    valence states:
      #              energy  rcut
      - 4s(2.00)    -5.291   1.164
      - 4p(0.00)    -1.326   1.058
      - 3d(6.00)    -7.505   1.058
      -  s          21.920   1.164
      -  p          25.885   1.058
      -  d          19.706   1.058

[...]

  Cr:
    name: Chromium
    id: 33f258bda2ca9f93018e70263a35547b
    Z: 24.0
    valence: 6
    core: 18
    charge: 0.0
    file: /home/c.zeng/usr/data/gpaw-setups-0.9.20000/Cr.PBE.gz
    compensation charges: {type: gauss,
                           rc: 0.35,
                           lmax: 2}
    cutoffs: {filter: 2.14,
              core: 3.04}
    valence states:
      #              energy  rcut
      - 4s(1.00)    -4.007   1.164
      - 4p(0.00)    -0.989   1.217
      - 3d(5.00)    -2.913   1.111
      -  s          23.205   1.164
      -  p          26.223   1.217
      -  d          24.299   1.111

    # Using partial waves for Cr as LCAO basis

Reference energy: -3235165.067515  # eV

Spin-polarized calculation.
Magnetic moment: 121.100000

Convergence criteria:
 Maximum [total energy] change in last 3 cyles: 0.0001 eV / electron
 Maximum integral of absolute [dens]ity change: 0.0001 electrons / valence electron
 Maximum integral of absolute [eigenst]ate change: 4e-08 eV^2 / valence electron
 Maximum number of scf [iter]ations: 666
 (Square brackets indicate name in SCF output, whereas a 'c' in
 the SCF output indicates the quantity has converged.)

Symmetries present (total): 1

  ( 1  0  0)
  ( 0  1  0)
  ( 0  0  1)

8 k-points: 2 x 2 x 2 Monkhorst-Pack grid
4 k-points in the irreducible part of the Brillouin zone
       k-points in crystal coordinates                weights
   0:     0.25000000   -0.25000000   -0.25000000          2/8
   1:     0.25000000   -0.25000000    0.25000000          2/8
   2:     0.25000000    0.25000000   -0.25000000          2/8
   3:     0.25000000    0.25000000    0.25000000          2/8

Wave functions: Plane wave expansion
  Cutoff energy: 350.000 eV
  Number of coefficients (min, max): 19084, 19084
  Pulay-stress correction: 0.000000 eV/Ang^3 (de/decut=0.000000)
  Using FFTW library
  ScaLapack parameters: grid=1x1, blocksize=None
  Wavefunction extrapolation:
    Improved wavefunction reuse through dual PAW basis

Occupation numbers: Fermi-Dirac:
  width: 0.1000  # eV

Eigensolver
   Davidson(niter=2)

Densities:
  Coarse grid: 48*48*48 grid
  Fine grid: 96*96*96 grid
  Total Charge: 0.000000

Density mixing:
  Method: difference
  Backend: pulay
  Linear mixing parameter: 0.05
  old densities: 5
  Damping of long wavelength oscillations: 50

Hamiltonian:
  XC and Coulomb potentials evaluated on a 96*96*96 grid
  Using the PBE Exchange-Correlation functional
  External potential:
    NoExternalPotential

XC parameters: PBE with 2 nearest neighbor stencil

Total number of cores used: 30
Parallelization over k-points: 2
Domain decomposition: 5 x 3 x 1

Number of atoms: 108
Number of atomic orbitals: 933
Number of bands in calculation: 624
Number of valence electrons: 912
Bands to converge: occupied

... initialized

Initializing position-dependent things.

Density initialized from atomic densities
Creating initial wave functions:
  624 bands from LCAO basis set

        .--------Al----------------.
       /|           Fe             |
      / |    FeFe     Ni           |
     / Ni       Ni       Al        |
    /   |Fe      NiCo       Fe     |
   /    | NiNi      ACo            |
  /    Co  FeiAlAl    Co Fe  CoAl  |
 *      Fe     AlCoAl   CrFe     Ni|
 |      |FeCr   CrFeFe   AlNiCr   Co
 |      | CoNi   AlCoCoAl CrNiFe   |
 |     Fe  Al CoCo  CrNi Ni  NiCr  |
 |      Cr  Ni CrCrCo CoNiCoAl   Fe|
 |      |CrCo   CoAlAl   CoCrFe   Fe
 |      .-FeCr-----NiCr-Al--CrFe---.
 |     Al  Cr CoCr    Al Co  Cr Cr/
 |    / Co              Ni       Cr
 |   /           Alr      CrFe  /
 |  /      Ni       Fe     NiAl/
 | /                   Fe     /i
 *--------------------------Ni

Positions:
   0 Ni    10.797848    0.093654    0.085777    ( 0.0000,  0.0000,  0.0000)
   1 Al    10.831824    1.844742    1.870716    ( 0.0000,  0.0000,  2.0000)
   2 Ni     1.786803   10.847372    1.827335    ( 0.0000,  0.0000,  0.0000)
   3 Co     1.769614    1.870531   -0.031264    ( 0.0000,  0.0000,  0.0000)
   4 Al     3.620857   10.822050   10.833629    ( 0.0000,  0.0000,  1.5000)
   5 Ni     3.571246    1.883176    1.708402    ( 0.0000,  0.0000,  0.0000)
   6 Co     5.521103   10.788063    1.666217    ( 0.0000,  0.0000,  0.0000)
   7 Al     5.520831    1.813973   10.830911    ( 0.0000,  0.0000,  1.5000)
   8 Al     7.330846    0.011025   10.815657    ( 0.0000,  0.0000,  2.0000)
   9 Fe     7.282018    1.809483    1.793250    ( 0.0000,  0.0000,  2.1000)
  10 Fe     9.029996    0.022005    1.811918    ( 0.0000,  0.0000,  1.5000)
  11 Fe     9.007196    1.868639   10.825714    ( 0.0000,  0.0000,  2.0000)
  12 Ni    10.861310    3.649723    0.014171    ( 0.0000,  0.0000,  2.0000)
  13 Cr    10.867442    5.463468    1.819235    ( 0.0000,  0.0000,  2.1000)
  14 Co     1.756088    3.650267    1.845949    ( 0.0000,  0.0000,  0.0000)
  15 Fe     1.790358    5.439092   10.869084    ( 0.0000,  0.0000,  2.1000)
  16 Ni     3.687842    3.622792   -0.049287    ( 0.0000,  0.0000,  2.0000)
  17 Co     3.667347    5.391145    1.745368    ( 0.0000,  0.0000,  0.0000)
  18 Al     5.497977    3.634415    1.792370    ( 0.0000,  0.0000,  2.0000)
  19 Cr     5.524908    5.448029    0.002551    ( 0.0000,  0.0000,  2.0000)
  20 Co     7.223340    3.611877   10.834270    ( 0.0000,  0.0000,  0.0000)
  21 Al     7.217762    5.474830    1.807776    ( 0.0000,  0.0000,  2.1000)
  22 Cr     9.073442    3.654344    1.775148    ( 0.0000,  0.0000,  0.0000)
  23 Ni     9.008740    5.418608    0.007692    ( 0.0000,  0.0000,  2.0000)
  24 Cr    10.859190    7.178720    0.014480    ( 0.0000,  0.0000,  1.5000)
  25 Fe    -0.018106    8.970948    1.875391    ( 0.0000,  0.0000,  0.0000)
  26 Fe     1.817615    7.224025    1.802546    ( 0.0000,  0.0000,  1.5000)
  27 Cr     1.880729    8.993464   10.874031    ( 0.0000,  0.0000,  0.0000)
  28 Fe     3.684428    7.260447   -0.001356    ( 0.0000,  0.0000,  2.0000)
  29 Co     3.612616    9.025636    1.761807    ( 0.0000,  0.0000,  1.5000)
  30 Ni     5.481440    7.275114    1.811211    ( 0.0000,  0.0000,  1.5000)
  31 Fe     5.461261    9.048153   10.833988    ( 0.0000,  0.0000,  1.5000)
  32 Ni     7.245704    7.257881    0.056891    ( 0.0000,  0.0000,  2.1000)
  33 Co     7.301969    9.004609    1.790315    ( 0.0000,  0.0000,  0.0000)
  34 Cr     9.029343    7.181775    1.815549    ( 0.0000,  0.0000,  2.0000)
  35 Cr     9.030561    9.042010    0.020232    ( 0.0000,  0.0000,  1.5000)
  36 Fe    -0.031046    0.001947    3.645701    ( 0.0000,  0.0000,  2.0000)
  37 Fe    10.825910    1.804351    5.434602    ( 0.0000,  0.0000,  2.1000)
  38 Ni     1.743552   10.849296    5.484376    ( 0.0000,  0.0000,  0.0000)
  39 Al     1.769755    1.791891    3.636068    ( 0.0000,  0.0000,  1.5000)
  40 Al     3.516667   10.719828    3.663227    ( 0.0000,  0.0000,  0.0000)
  41 Co     3.644244    1.785205    5.586728    ( 0.0000,  0.0000,  0.0000)
  42 Al     5.484778   10.815439    5.504022    ( 0.0000,  0.0000,  0.0000)
  43 Cr     5.457934    1.842230    3.658769    ( 0.0000,  0.0000,  0.0000)
  44 Cr     7.360615   10.815439    3.672229    ( 0.0000,  0.0000,  0.0000)
  45 Al     7.266884    1.811614    5.485528    ( 0.0000,  0.0000,  2.1000)
  46 Al     9.077986    0.023590    5.491921    ( 0.0000,  0.0000,  0.0000)
  47 Co     9.066788    1.824226    3.671175    ( 0.0000,  0.0000,  1.5000)
  48 Fe    -0.047135    3.649615    3.617291    ( 0.0000,  0.0000,  2.0000)
  49 Cr    10.809264    5.435993    5.379805    ( 0.0000,  0.0000,  2.0000)
  50 Cr     1.752316    3.624989    5.344676    ( 0.0000,  0.0000,  0.0000)
  51 Cr     1.805786    5.472046    3.619389    ( 0.0000,  0.0000,  2.1000)
[...]
iter: 178 09:54:10  -804.110530c -4.32  -3.66    +54.5402
iter: 179 09:56:16  -804.110567c -4.94  -3.43    +54.4730
iter: 180 09:58:23  -804.110635c -5.41  -3.39    +54.4780
iter: 181 10:00:30  -804.112015c -5.33  -3.38    +54.5134
iter: 182 10:02:38  -804.111332c -6.14  -3.37    +54.5296
iter: 183 10:04:45  -804.109959c -4.92  -3.39    +54.5613
iter: 184 10:06:52  -804.108229c -4.94  -3.23    +54.5529
iter: 185 10:08:59  -804.105496c -5.11  -3.33    +54.6208
iter: 186 10:11:05  -804.107549c -5.25  -3.49    +54.6753
iter: 187 10:13:12  -804.106345c -5.20  -3.48    +54.7084
iter: 188 10:15:19  -804.105721c -5.48  -3.49    +54.7238
iter: 189 10:17:26  -804.106467c -5.80  -3.61    +54.7498
iter: 190 10:19:32  -804.106696c -5.57  -3.71    +54.7892
iter: 191 10:21:39  -804.106923c -5.80  -3.67    +54.8089
iter: 192 10:23:45  -804.107348c -5.69  -3.71    +54.8673
iter: 193 10:25:51  -804.109170c -5.64  -3.77    +54.9121
iter: 194 10:27:58  -804.108808c -5.69  -3.69    +54.9382
iter: 195 10:30:05  -804.108107c -5.82  -3.76    +54.9589
iter: 196 10:32:12  -804.108528c -6.20  -3.80    +54.9539
iter: 197 10:34:19  -804.108939c -5.97  -3.95    +54.9941
iter: 198 10:36:26  -804.109105c -6.30  -3.94    +55.0145
iter: 199 10:38:33  -804.109408c -6.15  -4.00c   +55.0705
iter: 200 10:40:40  -804.110271c -5.98  -4.05c   +55.1256
iter: 201 10:42:47  -804.109997c -6.55  -4.02c   +55.0824
iter: 202 10:44:54  -804.109633c -6.49  -4.11c   +55.0416
iter: 203 10:47:01  -804.110209c -6.42  -4.20c   +55.1049
iter: 204 10:49:08  -804.109688c -6.32  -4.21c   +55.0469
iter: 205 10:51:15  -804.110349c -6.38  -4.14c   +55.1013
iter: 206 10:53:22  -804.110265c -6.86  -4.22c   +55.1063
iter: 207 10:55:29  -804.110600c -6.20  -4.32c   +55.1459
iter: 208 10:57:35  -804.109780c -5.87  -4.13c   +55.0582
iter: 209 10:59:42  -804.107606c -4.72  -4.51c   +54.7772
iter: 210 11:01:49  -804.108650c -5.81  -3.79    +54.9251
iter: 211 11:03:56  -804.109452c -5.69  -4.00    +55.0307
iter: 212 11:06:03  -804.109564c -6.75  -4.20c   +55.0397
iter: 213 11:08:10  -804.109689c -6.67  -4.18c   +55.0597
iter: 214 11:10:17  -804.109833c -6.40  -4.29c   +55.0565
iter: 215 11:12:24  -804.110178c -6.54  -4.09c   +55.1006
iter: 216 11:14:32  -804.109053c -5.79  -4.21c   +54.9811
iter: 217 11:16:39  -804.106305c -4.56  -4.04c   +54.5354
iter: 218 11:18:47  -804.105895c -5.00  -3.65    +54.3720
iter: 219 11:20:55  -804.105646c -5.67  -3.57    +54.3999
iter: 220 11:23:02  -804.105609c -6.24  -3.57    +54.4109
iter: 221 11:25:10  -804.105910c -6.44  -3.59    +54.4613
iter: 222 11:27:17  -804.105474c -5.68  -3.62    +54.5036
iter: 223 11:29:22  -804.103867c -5.26  -3.54    +54.4726
iter: 224 11:31:30  -804.103895c -5.54  -3.49    +54.5304
iter: 225 11:33:37  -804.105051c -5.45  -3.68    +54.5803
iter: 226 11:35:44  -804.105232c -5.53  -3.61    +54.5900
iter: 227 11:37:52  -804.104158c -5.62  -3.61    +54.6597
iter: 228 11:39:58  -804.105294c -5.81  -3.76    +54.6918
iter: 229 11:42:05  -804.106127c -5.68  -3.90    +54.7494
iter: 230 11:44:12  -804.105913c -6.00  -3.80    +54.7444
iter: 231 11:46:19  -804.106615c -5.83  -3.85    +54.8136
iter: 232 11:48:26  -804.106993c -5.86  -3.93    +54.8322
iter: 233 11:50:33  -804.107379c -6.12  -3.91    +54.8554
iter: 234 11:52:40  -804.107126c -6.08  -4.06c   +54.8998
iter: 235 11:54:47  -804.107380c -6.74  -4.04c   +54.8976
iter: 236 11:56:54  -804.107848c -6.41  -4.28c   +54.9172
iter: 237 11:59:01  -804.107688c -6.60  -4.30c   +54.9285
iter: 238 12:01:05  -804.108215c -6.33  -4.24c   +54.9698
iter: 239 12:03:12  -804.108895c -6.00  -4.34c   +55.0300
iter: 240 12:05:19  -804.108009c -5.97  -4.27c   +54.9475
iter: 241 12:07:26  -804.105328c -4.74  -4.41c   +54.6615
iter: 242 12:09:33  -804.104958c -5.32  -3.99    +54.5848
iter: 243 12:11:40  -804.104797c -5.55  -3.89    +54.5354
iter: 244 12:13:48  -804.104528c -5.22  -3.81    +54.4432
iter: 245 12:15:55  -804.104389c -5.81  -3.70    +54.4430
iter: 246 12:18:04  -804.104530c -5.88  -3.68    +54.4696
iter: 247 12:20:12  -804.103839c -5.40  -3.69    +54.4619
iter: 248 12:22:20  -804.103754c -5.38  -3.60    +54.5009
iter: 249 12:24:28  -804.105272c -5.41  -3.74    +54.5438
iter: 250 12:26:36  -804.103549c -5.81  -3.50    +54.5445
iter: 251 12:28:44  -804.103705c -6.02  -3.71    +54.5821
iter: 252 12:30:51  -804.103071c -6.40  -3.78    +54.5954
iter: 253 12:32:58  -804.105872c -5.35  -3.75    +54.6414
iter: 254 12:35:07  -804.103992c -5.80  -3.66    +54.6613
iter: 255 12:37:14  -804.104243c -6.15  -3.83    +54.6967
iter: 256 12:39:23  -804.104959c -6.05  -4.03c   +54.7383
iter: 257 12:41:30  -804.105005c -6.09  -3.96    +54.7655
iter: 258 12:43:38  -804.105617c -6.25  -4.05c   +54.8001
iter: 259 12:45:44  -804.105521c -6.49  -4.10c   +54.8138
iter: 260 12:47:51  -804.106147c -6.17  -4.20c   +54.8547
iter: 261 12:49:59  -804.105827c -6.78  -4.15c   +54.8302
iter: 262 12:52:07  -804.106129c -6.70  -4.23c   +54.8423
iter: 263 12:54:15  -804.106272c -6.98  -4.32c   +54.8646
iter: 264 12:56:23  -804.106770c -6.08  -4.38c   +54.9351
iter: 265 12:58:31  -804.106128c -6.32  -4.25c   +54.8606
iter: 266 13:00:39  -804.106052c -6.63  -4.31c   +54.8338
iter: 267 13:02:47  -804.106825c -6.17  -4.37c   +54.9165
iter: 268 13:04:55  -804.106008c -6.12  -4.25c   +54.8284
iter: 269 13:07:02  -804.107066c -5.96  -4.32c   +54.9371
iter: 270 13:09:10  -804.106507c -5.98  -4.15c   +54.8290
iter: 271 13:11:18  -804.105198c -5.47  -4.22c   +54.6640
iter: 272 13:13:26  -804.106300c -5.74  -4.05c   +54.8299
iter: 273 13:15:34  -804.106679c -6.40  -4.38c   +54.8524
iter: 274 13:17:42  -804.106684c -7.07  -4.37c   +54.8668
iter: 275 13:19:50  -804.107358c -6.05  -4.41c   +54.9452
iter: 276 13:21:58  -804.106598c -6.08  -4.25c   +54.8421
iter: 277 13:24:05  -804.106760c -6.27  -4.40c   +54.8038
iter: 278 13:26:13  -804.107118c -6.56  -4.28c   +54.8543
iter: 279 13:28:22  -804.106749c -6.72  -4.36c   +54.8071
iter: 280 13:30:30  -804.107181c -6.45  -4.32c   +54.8534
iter: 281 13:32:37  -804.108184c -5.71  -4.26c   +54.9369
iter: 282 13:34:43  -804.107942c -6.57  -4.26c   +54.9241
iter: 283 13:36:51  -804.108677c -6.15  -4.05c   +54.9650
iter: 284 13:38:59  -804.107969c -5.77  -4.03c   +54.9218
iter: 285 13:41:07  -804.108078c -6.75  -4.27c   +54.9468
iter: 286 13:43:16  -804.108199c -6.98  -4.29c   +54.9544
iter: 287 13:45:24  -804.108828c -6.21  -4.42c   +54.9853
iter: 288 13:47:32  -804.108717c -7.16  -4.34c   +54.9872
iter: 289 13:49:40  -804.109151c -6.41  -4.44c   +55.0204
iter: 290 13:51:48  -804.109623c -6.15  -4.22c   +55.0487
iter: 291 13:53:57  -804.109876c -6.53  -4.36c   +55.0656
iter: 292 13:56:06  -804.109875c -6.95  -4.28c   +55.0625
iter: 293 13:58:15  -804.110341c -6.40  -4.18c   +55.0851
iter: 294 14:00:23  -804.109925c -6.70  -4.18c   +55.0682
iter: 295 14:02:31  -804.110253c -6.88  -4.31c   +55.0818
iter: 296 14:04:39  -804.110574c -6.65  -4.37c   +55.0935
iter: 297 14:06:46  -804.110635c -6.73  -4.22c   +55.1067
iter: 298 14:08:54  -804.111057c -6.47  -4.32c   +55.1251
iter: 299 14:11:01  -804.111635c -6.28  -4.28c   +55.1466
iter: 300 14:13:09  -804.109091c -5.02  -4.10c   +55.0365
iter: 301 14:15:17  -804.108133c -5.22  -4.20c   +54.9675
iter: 302 14:17:24  -804.108357c -6.45  -4.08c   +54.9930
iter: 303 14:19:31  -804.107883c -6.20  -4.26c   +54.9663
iter: 304 14:21:39  -804.109079c -5.48  -4.20c   +55.0404
iter: 305 14:23:46  -804.106255c -4.65  -4.59c   +54.8404
iter: 306 14:25:50  -804.106122c -5.70  -3.92    +54.8329
iter: 307 14:27:57  -804.106015c -5.77  -3.93    +54.8391
iter: 308 14:30:05  -804.106317c -6.16  -3.90    +54.8715
iter: 309 14:32:13  -804.105988c -6.08  -3.89    +54.8181
iter: 310 14:34:21  -804.106128c -5.57  -3.89    +54.8564
iter: 311 14:36:29  -804.104828c -5.98  -3.77    +54.8337
iter: 312 14:38:37  -804.106062c -5.81  -3.91    +54.8701
iter: 313 14:40:45  -804.105264c -6.26  -3.86    +54.8845
iter: 314 14:42:53  -804.105952c -6.31  -4.22c   +54.9109
iter: 315 14:45:01  -804.106347c -6.19  -4.26c   +54.9395
iter: 316 14:47:09  -804.106162c -6.68  -4.37c   +54.9464
iter: 317 14:49:17  -804.106662c -6.49  -4.30c   +54.9711
iter: 318 14:51:24  -804.107030c -6.27  -4.44c   +54.9979
iter: 319 14:53:32  -804.106636c -6.69  -4.47c   +54.9662
iter: 320 14:55:40  -804.103704c -4.54  -4.55c   +54.6589
iter: 321 14:57:47  -804.104032c -6.02  -3.89    +54.6945
iter: 322 14:59:54  -804.104474c -6.05  -3.94    +54.7509
iter: 323 15:02:00  -804.105609c -5.20  -4.05c   +54.8841
iter: 324 15:04:07  -804.104702c -5.82  -4.40c   +54.7905
iter: 325 15:06:14  -804.106408c -5.16  -4.14c   +54.9532
iter: 326 15:08:20  -804.102979c -4.50  -4.59c   +54.5886
iter: 327 15:10:21  -804.103521c -6.19  -3.84    +54.6623
iter: 328 15:12:28  -804.103795c -6.28  -3.94    +54.7053
iter: 329 15:14:35  -804.104338c -5.81  -3.99    +54.7772
iter: 330 15:16:42  -804.106374c -4.92  -4.10c   +54.9821
iter: 331 15:18:49  -804.101349c -3.87  -4.35c   +54.1889
iter: 332 15:20:56  -804.107991c -3.83  -3.49    +55.1139
iter: 333 15:23:04  -804.111784c -4.40  -4.10c   +55.3455
iter: 334 15:25:11  -804.105673c -4.50  -3.77    +54.9232
iter: 335 15:27:18  -804.103662c -4.58  -4.37c   +54.6514
iter: 336 15:29:25  -804.104823c -5.55  -3.90    +54.8075
iter: 337 15:31:32  -804.104605c -7.09  -4.16c   +54.7884
iter: 338 15:33:39  -804.104833c -6.62  -4.14c   +54.8155
iter: 339 15:35:46  -804.104721c -7.44c -4.21c   +54.8114

Converged after 339 iterations.

Dipole moment: (29.086338, 17.061377, 8.563003) |e|*Ang

Total magnetic moment: (0.000000, 0.000000, 54.811383)
Local magnetic moments:
   0 Ni ( 0.000000,  0.000000,  0.323209)
   1 Al ( 0.000000,  0.000000, -0.027715)
   2 Ni ( 0.000000,  0.000000,  0.203809)
   3 Co ( 0.000000,  0.000000,  1.288961)
   4 Al ( 0.000000,  0.000000, -0.022096)
   5 Ni ( 0.000000,  0.000000,  0.135314)
   6 Co ( 0.000000,  0.000000,  1.098877)
   7 Al ( 0.000000,  0.000000, -0.019556)
   8 Al ( 0.000000,  0.000000, -0.039531)
   9 Fe ( 0.000000,  0.000000,  2.061995)
  10 Fe ( 0.000000,  0.000000,  2.213042)
  11 Fe ( 0.000000,  0.000000,  2.174268)
  12 Ni ( 0.000000,  0.000000,  0.216435)
  13 Cr ( 0.000000,  0.000000, -0.404980)
  14 Co ( 0.000000,  0.000000,  0.455326)
  15 Fe ( 0.000000,  0.000000,  2.116959)
  16 Ni ( 0.000000,  0.000000,  0.201626)
  17 Co ( 0.000000,  0.000000,  0.694311)
  18 Al ( 0.000000,  0.000000, -0.025363)
  19 Cr ( 0.000000,  0.000000,  1.446826)
  20 Co ( 0.000000,  0.000000,  0.964609)
  21 Al ( 0.000000,  0.000000, -0.006565)
  22 Cr ( 0.000000,  0.000000, -1.818509)
  23 Ni ( 0.000000,  0.000000,  0.137752)
  24 Cr ( 0.000000,  0.000000, -0.351908)
  25 Fe ( 0.000000,  0.000000,  2.117384)
  26 Fe ( 0.000000,  0.000000,  1.750795)
  27 Cr ( 0.000000,  0.000000, -2.081416)
  28 Fe ( 0.000000,  0.000000,  2.249017)
  29 Co ( 0.000000,  0.000000,  0.917858)
  30 Ni ( 0.000000,  0.000000,  0.135732)
  31 Fe ( 0.000000,  0.000000,  2.473743)
  32 Ni ( 0.000000,  0.000000,  0.260442)
  33 Co ( 0.000000,  0.000000,  1.069609)
  34 Cr ( 0.000000,  0.000000,  0.048282)
  35 Cr ( 0.000000,  0.000000, -1.762108)
  36 Fe ( 0.000000,  0.000000,  2.332327)
  37 Fe ( 0.000000,  0.000000,  1.960738)
  38 Ni ( 0.000000,  0.000000,  0.337663)
  39 Al ( 0.000000,  0.000000, -0.027430)
  40 Al ( 0.000000,  0.000000, -0.016600)
  41 Co ( 0.000000,  0.000000,  0.730940)
  42 Al ( 0.000000,  0.000000, -0.012027)
  43 Cr ( 0.000000,  0.000000, -1.893989)
  44 Cr ( 0.000000,  0.000000, -1.657079)
  45 Al ( 0.000000,  0.000000, -0.002734)
  46 Al ( 0.000000,  0.000000, -0.026081)
  47 Co ( 0.000000,  0.000000,  0.688163)
  48 Fe ( 0.000000,  0.000000,  1.491797)
  49 Cr ( 0.000000,  0.000000, -1.249730)
  50 Cr ( 0.000000,  0.000000, -1.803680)
  51 Cr ( 0.000000,  0.000000, -0.327058)
  52 Cr ( 0.000000,  0.000000,  1.733109)
  53 Co ( 0.000000,  0.000000,  0.790158)
  54 Cr ( 0.000000,  0.000000, -1.535830)
  55 Al ( 0.000000,  0.000000, -0.013682)
  56 Cr ( 0.000000,  0.000000,  1.455613)
  57 Ni ( 0.000000,  0.000000,  0.244911)
  58 Co ( 0.000000,  0.000000,  0.978446)
  59 Cr ( 0.000000,  0.000000, -0.515248)
[...]
  93 Co ( 0.000000,  0.000000,  1.250155)
  94 Fe ( 0.000000,  0.000000,  2.442077)
  95 Ni ( 0.000000,  0.000000,  0.373137)
  96 Ni ( 0.000000,  0.000000,  0.330641)
  97 Ni ( 0.000000,  0.000000,  0.246909)
  98 Ni ( 0.000000,  0.000000,  0.236710)
  99 Fe ( 0.000000,  0.000000,  2.323756)
 100 Al ( 0.000000,  0.000000, -0.038871)
 101 Ni ( 0.000000,  0.000000,  0.235816)
 102 Co ( 0.000000,  0.000000,  0.825878)
 103 Al ( 0.000000,  0.000000, -0.005278)
 104 Cr ( 0.000000,  0.000000,  0.625149)
 105 Al ( 0.000000,  0.000000, -0.019158)
 106 Fe ( 0.000000,  0.000000,  2.363582)
 107 Co ( 0.000000,  0.000000,  0.912725)

Energy contributions relative to reference atoms: (reference = -3235165.067515)

Kinetic:       +245.463376
Potential:     -236.719321
External:        +0.000000
XC:            -842.040359
Entropy (-ST):   -4.176572
Local:          +31.279870
Free energy:   -806.193007
Extrapolated:  -804.104721

Spin contamination: 26.703932 electrons
Showing only first 2 kpts
                      Up                     Down
 Kpt  Band  Eigenvalues  Occupancy  Eigenvalues  Occupancy
  0   454      9.00655    0.99423      9.86404    0.03151
  0   455      9.02161    0.99330      9.87607    0.02804
  0   456      9.03391    0.99243      9.88420    0.02590
  0   457      9.04415    0.99162      9.90328    0.02150

  1   454      8.99862    0.99467      9.86393    0.03154
  1   455      9.00614    0.99425      9.87466    0.02842
  1   456      9.01929    0.99345      9.89606    0.02307
  1   457      9.04410    0.99162      9.90497    0.02115

Fermi level: 9.52149

No gap

Forces in eV/Ang:
  0 Ni    0.37546   -0.49835   -0.66734
  1 Al    0.01088   -0.39171   -1.11643
  2 Ni   -0.01112   -0.02265    0.00170
  3 Co    0.12841    0.02928   -0.31155
  4 Al   -0.08938    0.26233    0.79236
  5 Ni    0.40616   -0.51252    0.58373
  6 Co   -0.24861    0.21045    1.07836
  7 Al   -0.60196    0.23942    0.10833
  8 Al   -0.91465    0.14572    1.72546
  9 Fe    0.21765   -0.21374    0.75327
 10 Fe   -0.17620   -0.64681    0.50154
 11 Fe    0.44544    0.30482    0.11594
 12 Ni    0.01351   -0.25210   -0.04208
 13 Cr    0.17498   -0.20094   -0.27580
 14 Co    0.42259    0.19752   -0.37421
 15 Fe    0.41363   -0.09992    0.61920
 16 Ni   -0.39705   -0.03413    0.15442
 17 Co   -0.31981    0.44019    0.13865
 18 Al   -0.90871   -0.69240   -0.30917
 19 Cr   -0.45223    0.12829   -0.93583
 20 Co    0.27672    0.33920    0.08370
 21 Al    0.95377    0.38533   -0.37104
 22 Cr   -0.79856   -0.20644    0.15843
 23 Ni   -0.02273   -0.07084   -0.11270
 24 Cr    0.10465    0.73233    0.26789
 25 Fe   -0.19457    0.32480   -0.83524
 26 Fe    0.20723   -0.17390    0.06165
 27 Cr   -1.13573   -0.32343    0.18622
 28 Fe   -0.41664    0.34024    0.22240
 29 Co    0.33180   -0.23491    0.17430
 30 Ni   -0.54999    0.12001    0.00645
 31 Fe    0.06134   -0.64368    0.61337
 32 Ni    0.00618   -0.10158   -0.47888
 33 Co   -0.01059    0.17457    0.38479
 34 Cr    0.95041    0.86865    0.20844
 35 Cr    1.25867   -0.54742    0.67133
 36 Fe   -0.34423   -0.38983   -0.05572
 37 Fe    0.05374    0.89681   -0.33959
 38 Ni    0.75972    0.15873   -0.22182
 39 Al    0.87257    0.01401    0.08444
 40 Al    1.21173    1.34447   -0.93911
 41 Co    0.07094    0.05671   -0.54554
 42 Al   -1.00703    1.78211   -0.39858
 43 Cr   -0.29119   -0.18723   -0.84175
 44 Cr   -0.89332    0.23034   -1.78253
 45 Al    0.31645    0.75880    0.13192
 46 Al    0.12701   -0.46021   -0.52624
 47 Co   -0.28470    0.27004   -0.13302
 48 Fe   -0.21391    0.37886    0.37557
 49 Cr   -0.13213    0.29496    0.47089
 50 Cr    0.89738    0.35478    1.24236
 51 Cr    0.31500    0.09398    0.12253
 52 Cr   -0.49315   -0.40067    0.12941
 53 Co   -0.39746    0.14579    0.03752
 54 Cr   -0.39653   -0.31637    0.69670
 55 Al   -0.29933    1.37184    0.63365
 56 Cr    0.64122   -1.25261   -0.05155
 57 Ni    0.28276   -0.11816   -0.07788
 58 Co    0.11941    0.28251   -0.25917
 59 Cr    0.01022   -0.03994    0.21536
[...]
 93 Co   -0.00679    0.40880   -0.05744
 94 Fe   -0.30282   -0.23465    0.00692
 95 Ni    0.17280    0.15990    0.08236
 96 Ni    0.07984   -0.06535    0.79760
 97 Ni   -0.64470   -0.44818    0.03807
 98 Ni   -0.42099   -0.02662   -0.15987
 99 Fe   -0.71842   -0.34328   -0.08048
100 Al   -0.48737   -0.96266    0.17864
101 Ni    0.24356   -0.38944    0.09851
102 Co   -0.11301   -0.65088    0.17212
103 Al   -0.61976   -0.18803    1.51220
104 Cr    0.26721   -1.16073    0.75670
105 Al   -0.31216   -1.56591   -0.51373
106 Fe    0.55263    0.49237   -0.36662
107 Co    0.62099   -0.98816    0.38790

Date: Sat Apr 15 15:36:06 2023