User:   c.zeng@d0135
Date:   Sat Apr  8 17:21:42 2023
Arch:   x86_64
Pid:    104982
CWD:    /home/c.zeng/projects/hea-corrosion/hea-mlp/data-curation/volume/dft-jobs/97
Python: 3.8.1
gpaw:   /home/c.zeng/usr/installs/gpaw/source/gpaw-22.8.0/gpaw
_gpaw:  /home/c.zeng/usr/installs/gpaw/source/gpaw-22.8.0/
        _gpaw.cpython-38-x86_64-linux-gnu.so
ase:    /home/c.zeng/.local/lib/python3.8/site-packages/ase-3.22.1-py3.8.egg/ase (version 3.22.1)
numpy:  /shared/centos7/python/3.8.1/lib/python3.8/site-packages/numpy (version 1.17.4)
scipy:  /shared/centos7/python/3.8.1/lib/python3.8/site-packages/scipy (version 1.4.1)
units:  Angstrom and eV
cores: 64
OpenMP: False
OMP_NUM_THREADS: 1

Input parameters:
  convergence: {energy: 0.0001}
  kpts: [2 2 2]
  maxiter: 666
  mode: {ecut: 350.0,
         name: pw}
  occupations: {fixmagmom: False,
                name: fermi-dirac,
                width: 0.1}
  spinpol: True
  xc: PBE

System changes: positions, numbers, cell, pbc, initial_charges, initial_magmoms

Initialize ...

species:
  Fe:
    name: Iron
    id: 37abbd8d6c3c35915a9b583b742da910
    Z: 26.0
    valence: 8
    core: 18
    charge: 0.0
    file: /home/c.zeng/usr/data/gpaw-setups-0.9.20000/Fe.PBE.gz
    compensation charges: {type: gauss,
                           rc: 0.33,
                           lmax: 2}
    cutoffs: {filter: 2.06,
              core: 2.67}
    valence states:
      #              energy  rcut
      - 4s(2.00)    -5.291   1.164
      - 4p(0.00)    -1.326   1.058
      - 3d(6.00)    -7.505   1.058
      -  s          21.920   1.164
      -  p          25.885   1.058
      -  d          19.706   1.058

    # Using partial waves for Fe as LCAO basis

  Cr:
    name: Chromium
    id: 33f258bda2ca9f93018e70263a35547b
    Z: 24.0
    valence: 6
    core: 18
    charge: 0.0
    file: /home/c.zeng/usr/data/gpaw-setups-0.9.20000/Cr.PBE.gz
    compensation charges: {type: gauss,
                           rc: 0.35,
                           lmax: 2}
    cutoffs: {filter: 2.14,
              core: 3.04}
    valence states:
      #              energy  rcut
      - 4s(1.00)    -4.007   1.164
      - 4p(0.00)    -0.989   1.217
      - 3d(5.00)    -2.913   1.111
      -  s          23.205   1.164
      -  p          26.223   1.217
      -  d          24.299   1.111

[...]

  Ni:
    name: Nickel
    id: 0d9f38a9d6e76a2886f07bb4381f212b
    Z: 28.0
    valence: 16
    core: 12
    charge: 0.0
    file: /home/c.zeng/usr/data/gpaw-setups-0.9.20000/Ni.PBE.gz
    compensation charges: {type: gauss,
                           rc: 0.36,
                           lmax: 2}
    cutoffs: {filter: 2.14,
              core: 1.98}
    valence states:
      #              energy  rcut
      - 4s(2.00)    -5.642   1.164
      - 3p(6.00)   -71.394   1.207
      - 4p(0.00)    -1.226   1.207
      - 3d(8.00)    -8.875   1.138
      -  s          21.570   1.164
      -  d          18.337   1.138

[...]

  Al:
    name: Aluminium
    id: 0292cae29f5d6237e50f6abdd43a7bdd
    Z: 13.0
    valence: 3
    core: 10
    charge: 0.0
    file: /home/c.zeng/usr/data/gpaw-setups-0.9.20000/Al.PBE.gz
    compensation charges: {type: gauss,
                           rc: 0.34,
                           lmax: 2}
    cutoffs: {filter: 1.91,
              core: 2.36}
    valence states:
      #              energy  rcut
      - 3s(2.00)    -7.753   1.085
      - 3p(1.00)    -2.712   1.085
      -  s          19.459   1.085
      -  p          24.499   1.085
      -  d           0.000   1.085

[...]

  Co:
    name: Cobalt
    id: 339d20d5b0b93d2de9531a1bee871d91
    Z: 27.0
    valence: 9
    core: 18
    charge: 0.0
    file: /home/c.zeng/usr/data/gpaw-setups-0.9.20000/Co.PBE.gz
    compensation charges: {type: gauss,
                           rc: 0.32,
                           lmax: 2}
    cutoffs: {filter: 1.87,
              core: 2.55}
    valence states:
      #              energy  rcut
      - 4s(2.00)    -5.469   1.005
      - 4p(0.00)    -1.277   1.058
      - 3d(7.00)    -8.205   1.005
      -  s          21.742   1.005
      -  p          25.934   1.058
      -  d          19.007   1.005

    # Using partial waves for Co as LCAO basis

Reference energy: -3382523.201499  # eV

Spin-polarized calculation.
Magnetic moment: 128.800000

Convergence criteria:
 Maximum [total energy] change in last 3 cyles: 0.0001 eV / electron
 Maximum integral of absolute [dens]ity change: 0.0001 electrons / valence electron
 Maximum integral of absolute [eigenst]ate change: 4e-08 eV^2 / valence electron
 Maximum number of scf [iter]ations: 666
 (Square brackets indicate name in SCF output, whereas a 'c' in
 the SCF output indicates the quantity has converged.)

Symmetries present (total): 1

  ( 1  0  0)
  ( 0  1  0)
  ( 0  0  1)

8 k-points: 2 x 2 x 2 Monkhorst-Pack grid
4 k-points in the irreducible part of the Brillouin zone
       k-points in crystal coordinates                weights
   0:     0.25000000   -0.25000000   -0.25000000          2/8
   1:     0.25000000   -0.25000000    0.25000000          2/8
   2:     0.25000000    0.25000000   -0.25000000          2/8
   3:     0.25000000    0.25000000    0.25000000          2/8

Wave functions: Plane wave expansion
  Cutoff energy: 350.000 eV
  Number of coefficients (min, max): 19468, 19468
  Pulay-stress correction: 0.000000 eV/Ang^3 (de/decut=0.000000)
  Using FFTW library
  ScaLapack parameters: grid=1x1, blocksize=None
  Wavefunction extrapolation:
    Improved wavefunction reuse through dual PAW basis

Occupation numbers: Fermi-Dirac:
  width: 0.1000  # eV

Eigensolver
   Davidson(niter=2)

Densities:
  Coarse grid: 48*48*48 grid
  Fine grid: 96*96*96 grid
  Total Charge: 0.000000

Density mixing:
  Method: difference
  Backend: pulay
  Linear mixing parameter: 0.05
  old densities: 5
  Damping of long wavelength oscillations: 50

Hamiltonian:
  XC and Coulomb potentials evaluated on a 96*96*96 grid
  Using the PBE Exchange-Correlation functional
  External potential:
    NoExternalPotential

XC parameters: PBE with 2 nearest neighbor stencil

Total number of cores used: 64
Parallelization over k-points: 4
Domain decomposition: 4 x 2 x 2

Number of atoms: 108
Number of atomic orbitals: 961
Number of bands in calculation: 649
Number of valence electrons: 945
Bands to converge: occupied

... initialized

Initializing position-dependent things.

Density initialized from atomic densities
Creating initial wave functions:
  649 bands from LCAO basis set

       /|                    Ni    |
      / |            Cr        NiNi|
     /  |       Al       Ni       Fe
    /   FCr        Cr     CoCo     |
   /i   | Coi       Co       Fe    |
  /  FeCr   CFe       Cr       Co  |
 *      Co     CrNi   FeAlFeFe   Ni|
 |      |CrFe   CrCoAl   FeCrCo   Co
 |   Co NiAlNi   FeAlAl     CrNi   |
 |     Co  Ni FeFe  NiNi Ni  CrCr  |
 |      CoFe   AlFe  Ni AlCo     Fe|
 |      |AlAl   CrFeCo   CrCoCo   Cr
 |      .-CrAl-----FeNi---AlCoNi---.
 |     /   Al Cr    FeFe Ni    Cr /
 |    /Cr      CNio     NiCo     /
 |   /  Fe        FCr           /
 |  /      Fe       Co     AlCr/
 | / Ni     Co       Cr Ni    /
 |/             Al       Co  /
 *--------Al----------------*

Positions:
   0 Fe    10.934956   10.935000   10.934956    ( 0.0000,  0.0000,  2.0000)
   1 Cr    10.934978    1.822493    1.822493    ( 0.0000,  0.0000,  0.0000)
   2 Ni     1.822482    0.000050    1.822580    ( 0.0000,  0.0000,  1.5000)
   3 Cr     1.822460    1.822547   10.934989    ( 0.0000,  0.0000,  0.0000)
   4 Al     3.644985    0.000149    0.000152    ( 0.0000,  0.0000,  0.0000)
   5 Fe     3.644996    1.822504    1.822526    ( 0.0000,  0.0000,  2.0000)
   6 Ni     5.467467   10.934978    1.822613    ( 0.0000,  0.0000,  1.5000)
   7 Al     5.467336    1.822766    0.000148    ( 0.0000,  0.0000,  0.0000)
   8 Al     7.290168   10.934738    0.000141    ( 0.0000,  0.0000,  0.0000)
   9 Co     7.290036    1.822547    1.822558    ( 0.0000,  0.0000,  2.1000)
  10 Ni     9.112551    0.000035    1.822504    ( 0.0000,  0.0000,  1.5000)
  11 Co     9.112584    1.822526    0.000032    ( 0.0000,  0.0000,  2.1000)
  12 Ni     0.000015    3.644964   10.934956    ( 0.0000,  0.0000,  1.5000)
  13 Cr    10.934945    5.467489    1.822526    ( 0.0000,  0.0000,  0.0000)
  14 Fe     1.822482    3.644964    1.822460    ( 0.0000,  0.0000,  2.0000)
  15 Cr     1.822515    5.467456   10.934923    ( 0.0000,  0.0000,  0.0000)
  16 Co     3.644985    3.645018   10.935000    ( 0.0000,  0.0000,  2.1000)
  17 Cr     3.645139    5.467456    1.822383    ( 0.0000,  0.0000,  0.0000)
  18 Co     5.467533    3.645062    1.822515    ( 0.0000,  0.0000,  2.1000)
  19 Fe     5.467511    5.467522    0.000029    ( 0.0000,  0.0000,  2.0000)
  20 Cr     7.289993    3.645062    0.000096    ( 0.0000,  0.0000,  0.0000)
  21 Fe     7.289949    5.467489    1.822504    ( 0.0000,  0.0000,  2.0000)
  22 Co     9.112496    3.644985    1.822536    ( 0.0000,  0.0000,  2.1000)
  23 Al     9.112474    5.467489   10.935000    ( 0.0000,  0.0000,  0.0000)
  24 Ni    10.934967    7.290036   10.934945    ( 0.0000,  0.0000,  1.5000)
  25 Cr    10.934956    9.112507    1.822526    ( 0.0000,  0.0000,  0.0000)
  26 Cr     1.822427    7.290004    1.822493    ( 0.0000,  0.0000,  0.0000)
  27 Al     1.822197    9.112420    0.000056    ( 0.0000,  0.0000,  0.0000)
  28 Cr     3.645106    7.289894    0.000012    ( 0.0000,  0.0000,  0.0000)
  29 Cr     3.645084    9.112540    1.822558    ( 0.0000,  0.0000,  0.0000)
  30 Fe     5.467555    7.289960    1.822449    ( 0.0000,  0.0000,  2.0000)
  31 Fe     5.467533    9.112431    0.000042    ( 0.0000,  0.0000,  2.0000)
  32 Ni     7.289938    7.290015    0.000055    ( 0.0000,  0.0000,  1.5000)
  33 Cr     7.289960    9.112464    1.822471    ( 0.0000,  0.0000,  0.0000)
  34 Co     9.112518    7.289982    1.822504    ( 0.0000,  0.0000,  2.1000)
  35 Ni     9.112551    9.112485   10.934956    ( 0.0000,  0.0000,  1.5000)
  36 Ni     0.000014   10.934967    3.645040    ( 0.0000,  0.0000,  1.5000)
  37 Co    10.934978    1.822471    5.467522    ( 0.0000,  0.0000,  2.1000)
  38 Co     1.822449   10.934967    5.467522    ( 0.0000,  0.0000,  2.1000)
  39 Cr     1.822438    1.822438    3.644953    ( 0.0000,  0.0000,  0.0000)
  40 Fe     3.645007   10.934989    3.644985    ( 0.0000,  0.0000,  2.0000)
  41 Al     3.645062    1.822329    5.467664    ( 0.0000,  0.0000,  0.0000)
  42 Fe     5.467511   10.934978    5.467500    ( 0.0000,  0.0000,  2.0000)
  43 Ni     5.467544    1.822471    3.644985    ( 0.0000,  0.0000,  1.5000)
  44 Cr     7.289971    0.000014    3.645062    ( 0.0000,  0.0000,  0.0000)
  45 Co     7.289993    1.822449    5.467489    ( 0.0000,  0.0000,  2.1000)
  46 Co     9.112518   10.934989    5.467522    ( 0.0000,  0.0000,  2.1000)
  47 Ni     9.112507    1.822526    3.645007    ( 0.0000,  0.0000,  1.5000)
  48 Ni    10.934945    3.644996    3.645007    ( 0.0000,  0.0000,  1.5000)
  49 Cr    10.934934    5.467445    5.467500    ( 0.0000,  0.0000,  0.0000)
  50 Co     1.822438    3.644985    5.467555    ( 0.0000,  0.0000,  2.1000)
  51 Al     1.822252    5.467391    3.644920    ( 0.0000,  0.0000,  0.0000)
[...]
[...]
  93 Cr     7.289960    5.467500    9.112562    ( 0.0000,  0.0000,  0.0000)
  94 Fe     9.112628    3.645018    9.112507    ( 0.0000,  0.0000,  2.0000)
  95 Cr     9.112584    5.467489    7.290036    ( 0.0000,  0.0000,  0.0000)
  96 Ni    10.934945    7.290080    7.290091    ( 0.0000,  0.0000,  1.5000)
  97 Fe    10.934978    9.112507    9.112453    ( 0.0000,  0.0000,  2.0000)
  98 Co     1.822416    7.289938    9.112464    ( 0.0000,  0.0000,  2.1000)
  99 Ni     1.822405    9.112595    7.290015    ( 0.0000,  0.0000,  1.5000)
 100 Cr     3.645018    7.289927    7.290069    ( 0.0000,  0.0000,  0.0000)
 101 Al     3.645084    9.112420    9.112256    ( 0.0000,  0.0000,  0.0000)
 102 Cr     5.467478    7.289927    9.112595    ( 0.0000,  0.0000,  0.0000)
 103 Co     5.467544    9.112606    7.289982    ( 0.0000,  0.0000,  2.1000)
 104 Al     7.290124    7.290135    7.290135    ( 0.0000,  0.0000,  0.0000)
 105 Ni     7.290058    9.112496    9.112464    ( 0.0000,  0.0000,  1.5000)
 106 Co     9.112606    7.290036    9.112496    ( 0.0000,  0.0000,  2.1000)
 107 Fe     9.112540    9.112551    7.290004    ( 0.0000,  0.0000,  2.0000)

Unit cell:
           periodic     x           y           z      points  spacing
  1. axis:    yes   10.935000    0.000000    0.000000    48     0.2278
  2. axis:    yes    0.000000   10.935000    0.000000    48     0.2278
  3. axis:    yes    0.000000    0.000000   10.935000    48     0.2278

  Lengths:  10.935000  10.935000  10.935000
  Angles:   90.000000  90.000000  90.000000

Effective grid spacing dv^(1/3) = 0.2278

     iter     time        total  log10-change:  magmom
                         energy  eigst   dens
iter:   1 17:23:52 -1000.598002                  +129.0859
iter:   2 17:24:43  -888.434345  -0.17  -1.18    +71.7156
iter:   3 17:25:33  -877.067170  -0.77  -1.18    +64.4706
iter:   4 17:26:24  -846.510066  -1.21  -1.25    +60.1556
iter:   5 17:27:15  -838.580213  -1.55  -1.31    +59.1473
iter:   6 17:28:06  -840.983692  -1.33  -1.35    +60.9213
iter:   7 17:28:57  -830.464298  -1.32  -1.39    +60.7553
iter:   8 17:29:49  -825.325418  -1.65  -1.53    +61.6559
iter:   9 17:30:40  -825.170722  -1.80  -1.64    +63.6356
iter:  10 17:31:32  -822.526973  -2.34  -1.70    +64.4953
iter:  11 17:32:23  -822.582972  -2.46  -1.77    +67.2426
iter:  12 17:33:14  -824.787951  -2.35  -1.85    +68.9753
iter:  13 17:34:06  -823.641660  -2.39  -1.83    +69.2557
iter:  14 17:34:57  -823.948675  -2.46  -1.92    +70.4370
iter:  15 17:35:48  -824.245079  -2.53  -1.96    +71.0332
iter:  16 17:36:39  -823.451872  -2.83  -1.98    +71.1299
iter:  17 17:37:30  -824.077383  -2.86  -2.08    +72.3194
iter:  18 17:38:20  -823.579941  -3.07  -2.04    +72.2242
iter:  19 17:39:11  -823.949454  -2.93  -2.16    +72.3037
iter:  20 17:40:02  -824.145940  -2.83  -2.16    +72.2474
iter:  21 17:40:53  -823.599819  -3.03  -2.17    +72.3192
iter:  22 17:41:43  -823.738451  -3.25  -2.37    +72.6160
iter:  23 17:42:34  -823.735659  -3.38  -2.38    +72.5406
iter:  24 17:43:26  -823.785947c -3.57  -2.45    +72.8187
iter:  25 17:44:17  -823.868395  -3.54  -2.48    +72.7947
iter:  26 17:45:09  -823.871957c -3.70  -2.51    +72.8497
iter:  27 17:46:00  -823.937938c -3.77  -2.56    +72.8348
iter:  28 17:46:51  -824.003039  -3.85  -2.61    +72.9442
iter:  29 17:47:43  -824.068708  -3.88  -2.62    +72.9802
iter:  30 17:48:34  -824.067963c -4.07  -2.61    +72.9562
iter:  31 17:49:25  -824.125536c -4.00  -2.69    +72.8834
iter:  32 17:50:16  -824.192449  -3.94  -2.74    +73.0441
iter:  33 17:51:07  -824.222355  -4.06  -2.73    +72.8313
iter:  34 17:51:58  -824.262360c -4.03  -2.77    +72.7633
iter:  35 17:52:49  -824.298824c -4.11  -2.80    +72.5692
iter:  36 17:53:41  -824.304039c -4.45  -2.80    +72.5174
iter:  37 17:54:32  -824.319251c -4.28  -2.84    +72.4104
iter:  38 17:55:22  -824.321617c -4.47  -2.88    +72.3898
iter:  39 17:56:14  -824.333020c -4.45  -2.94    +72.2496
iter:  40 17:57:05  -824.330526c -4.71  -2.99    +72.2621
iter:  41 17:57:56  -824.341153c -4.64  -3.04    +72.1895
iter:  42 17:58:47  -824.338428c -4.94  -3.04    +72.1534
iter:  43 17:59:38  -824.342804c -5.05  -3.11    +72.1295
iter:  44 18:00:29  -824.349304c -4.91  -3.15    +72.0394
iter:  45 18:01:20  -824.350845c -5.04  -3.16    +72.0260
iter:  46 18:02:11  -824.354951c -5.09  -3.22    +71.9593
iter:  47 18:03:04  -824.354287c -5.23  -3.25    +71.9524
iter:  48 18:03:56  -824.357598c -5.39  -3.30    +71.8902
iter:  49 18:04:47  -824.361144c -5.13  -3.35    +71.8570
iter:  50 18:05:38  -824.361464c -5.35  -3.36    +71.8158
iter:  51 18:06:29  -824.363466c -5.41  -3.44    +71.7599
iter:  52 18:07:20  -824.365293c -5.58  -3.49    +71.7218
iter:  53 18:08:12  -824.366716c -5.69  -3.52    +71.6998
iter:  54 18:09:04  -824.369472c -5.50  -3.56    +71.6358
iter:  55 18:09:54  -824.372701c -5.37  -3.59    +71.5613
iter:  56 18:10:45  -824.375841c -5.35  -3.60    +71.5083
iter:  57 18:11:36  -824.384918c -4.57  -3.59    +71.3249
iter:  58 18:12:28  -824.385883c -5.40  -3.45    +71.3065
iter:  59 18:13:20  -824.385973c -5.80  -3.43    +71.3234
iter:  60 18:14:12  -824.387068c -5.95  -3.44    +71.2927
iter:  61 18:15:03  -824.384478c -5.58  -3.43    +71.3789
iter:  62 18:15:54  -824.386974c -5.49  -3.46    +71.3263
iter:  63 18:16:46  -824.385199c -5.89  -3.44    +71.3486
iter:  64 18:17:39  -824.388561c -5.41  -3.44    +71.3015
iter:  65 18:18:32  -824.389839c -5.40  -3.35    +71.3005
iter:  66 18:19:23  -824.387432c -4.92  -3.35    +71.2850
iter:  67 18:20:15  -824.388494c -5.28  -3.37    +71.2479
iter:  68 18:21:06  -824.385385c -5.25  -3.37    +71.2037
iter:  69 18:22:00  -824.385890c -5.67  -3.47    +71.1805
iter:  70 18:22:52  -824.387112c -5.66  -3.52    +71.1231
iter:  71 18:23:44  -824.386555c -5.60  -3.51    +71.1203
iter:  72 18:24:35  -824.389718c -5.29  -3.58    +71.1057
iter:  73 18:25:27  -824.387084c -5.53  -3.45    +71.1074
iter:  74 18:26:19  -824.388189c -5.70  -3.60    +71.0861
iter:  75 18:27:11  -824.390168c -5.47  -3.66    +71.0649
iter:  76 18:28:03  -824.388731c -5.62  -3.54    +71.0731
iter:  77 18:28:54  -824.389693c -5.82  -3.65    +71.0583
iter:  78 18:29:46  -824.389934c -6.15  -3.72    +71.0456
iter:  79 18:30:38  -824.391272c -5.98  -3.77    +71.0289
iter:  80 18:31:31  -824.391216c -6.51  -3.73    +71.0255
iter:  81 18:32:23  -824.392499c -6.17  -3.79    +71.0223
iter:  82 18:33:15  -824.390405c -5.96  -3.79    +71.0233
iter:  83 18:34:07  -824.391852c -5.95  -3.76    +71.0041
iter:  84 18:35:00  -824.391944c -5.88  -3.86    +71.0042
iter:  85 18:35:51  -824.392795c -6.09  -3.86    +70.9963
iter:  86 18:36:43  -824.393442c -6.23  -4.05c   +70.9966
iter:  87 18:37:37  -824.394125c -6.43  -4.06c   +70.9973
iter:  88 18:38:29  -824.395250c -6.30  -4.12c   +70.9865
iter:  89 18:39:23  -824.390516c -5.23  -4.08c   +71.0130
iter:  90 18:40:16  -824.386819c -5.15  -4.09c   +71.0462
iter:  91 18:41:07  -824.384611c -5.33  -4.02c   +71.0662
iter:  92 18:41:59  -824.380381c -4.76  -3.96    +71.1168
iter:  93 18:42:51  -824.377612c -4.46  -3.76    +71.1879
iter:  94 18:43:45  -824.378141c -5.59  -3.58    +71.1866
iter:  95 18:44:38  -824.377995c -5.94  -3.60    +71.1939
iter:  96 18:45:31  -824.377856c -6.16  -3.59    +71.2063
iter:  97 18:46:23  -824.378811c -5.96  -3.59    +71.2110
iter:  98 18:47:16  -824.379193c -5.16  -3.52    +71.2135
iter:  99 18:48:09  -824.380132c -5.14  -3.44    +71.2423
iter: 100 18:49:00  -824.382912c -5.08  -3.48    +71.2841
iter: 101 18:49:51  -824.380963c -5.10  -3.37    +71.2867
iter: 102 18:50:44  -824.376950c -5.64  -3.42    +71.2648
iter: 103 18:51:36  -824.378871c -5.63  -3.78    +71.2726
iter: 104 18:52:28  -824.376983c -5.69  -3.62    +71.2758
iter: 105 18:53:20  -824.378443c -5.62  -3.75    +71.2760
iter: 106 18:54:12  -824.376703c -5.79  -3.68    +71.2648
iter: 107 18:55:04  -824.378240c -5.65  -3.82    +71.2657
iter: 108 18:55:57  -824.376969c -6.05  -3.68    +71.2773
iter: 109 18:56:49  -824.376897c -6.55  -4.07c   +71.2712
iter: 110 18:57:41  -824.377371c -6.68  -4.22c   +71.2670
iter: 111 18:58:34  -824.377112c -6.97  -4.19c   +71.2663
iter: 112 18:59:17  -824.377256c -6.85  -4.28c   +71.2579
iter: 113 18:59:58  -824.377323c -6.84  -4.30c   +71.2588
iter: 114 19:00:38  -824.377379c -6.89  -4.40c   +71.2498
iter: 115 19:01:18  -824.377536c -7.09  -4.52c   +71.2475
iter: 116 19:01:58  -824.377667c -7.13  -4.61c   +71.2461
iter: 117 19:02:39  -824.377792c -7.14  -4.67c   +71.2426
iter: 118 19:03:19  -824.377433c -6.91  -4.68c   +71.2543
iter: 119 19:03:59  -824.376340c -5.66  -4.71c   +71.2902
iter: 120 19:04:40  -824.375834c -5.86  -4.30c   +71.3154
iter: 121 19:05:20  -824.375389c -5.88  -4.16c   +71.3428
iter: 122 19:06:00  -824.375394c -6.76  -4.04c   +71.3437
iter: 123 19:06:40  -824.375363c -6.91  -4.05c   +71.3473
iter: 124 19:07:20  -824.375307c -6.70  -4.07c   +71.3530
iter: 125 19:08:01  -824.375353c -6.97  -4.08c   +71.3511
iter: 126 19:08:41  -824.376050c -6.08  -4.06c   +71.3533
iter: 127 19:09:22  -824.375653c -6.59  -3.98    +71.3602
iter: 128 19:10:02  -824.375749c -6.80  -4.22c   +71.3590
iter: 129 19:10:42  -824.375654c -7.16  -4.24c   +71.3619
iter: 130 19:11:22  -824.375752c -6.80  -4.38c   +71.3663
iter: 131 19:12:02  -824.375796c -6.96  -4.37c   +71.3643
iter: 132 19:12:42  -824.375813c -7.39  -4.42c   +71.3654
iter: 133 19:13:22  -824.375859c -7.34  -4.58c   +71.3684
iter: 134 19:14:02  -824.375854c -7.93c -4.53c   +71.3683

Converged after 134 iterations.

Dipole moment: (-0.462359, -0.137089, 0.277995) |e|*Ang

Total magnetic moment: (0.000000, 0.000000, 71.368321)
Local magnetic moments:
   0 Fe ( 0.000000,  0.000000,  2.328499)
   1 Cr ( 0.000000,  0.000000,  1.992748)
   2 Ni ( 0.000000,  0.000000,  0.007285)
   3 Cr ( 0.000000,  0.000000, -2.190938)
   4 Al ( 0.000000,  0.000000, -0.012510)
   5 Fe ( 0.000000,  0.000000,  2.298926)
   6 Ni ( 0.000000,  0.000000,  0.208998)
   7 Al ( 0.000000,  0.000000, -0.015849)
   8 Al ( 0.000000,  0.000000, -0.016894)
   9 Co ( 0.000000,  0.000000,  1.461627)
  10 Ni ( 0.000000,  0.000000,  0.215163)
  11 Co ( 0.000000,  0.000000,  1.217824)
  12 Ni ( 0.000000,  0.000000,  0.303096)
  13 Cr ( 0.000000,  0.000000,  1.489426)
  14 Fe ( 0.000000,  0.000000,  1.812861)
  15 Cr ( 0.000000,  0.000000, -1.898206)
  16 Co ( 0.000000,  0.000000,  1.030732)
  17 Cr ( 0.000000,  0.000000, -0.063483)
  18 Co ( 0.000000,  0.000000,  1.224171)
  19 Fe ( 0.000000,  0.000000,  2.152437)
  20 Cr ( 0.000000,  0.000000, -2.177022)
  21 Fe ( 0.000000,  0.000000,  2.504514)
  22 Co ( 0.000000,  0.000000,  1.230347)
  23 Al ( 0.000000,  0.000000, -0.031533)
  24 Ni ( 0.000000,  0.000000,  0.237861)
  25 Cr ( 0.000000,  0.000000, -1.829269)
  26 Cr ( 0.000000,  0.000000,  0.939975)
  27 Al ( 0.000000,  0.000000, -0.011738)
  28 Cr ( 0.000000,  0.000000, -1.215444)
  29 Cr ( 0.000000,  0.000000, -2.005829)
  30 Fe ( 0.000000,  0.000000,  1.968584)
  31 Fe ( 0.000000,  0.000000,  1.620701)
  32 Ni ( 0.000000,  0.000000,  0.314789)
  33 Cr ( 0.000000,  0.000000,  1.682845)
  34 Co ( 0.000000,  0.000000,  1.127830)
  35 Ni ( 0.000000,  0.000000,  0.381070)
  36 Ni ( 0.000000,  0.000000,  0.152412)
  37 Co ( 0.000000,  0.000000,  1.694522)
  38 Co ( 0.000000,  0.000000,  1.376051)
  39 Cr ( 0.000000,  0.000000, -2.124797)
  40 Fe ( 0.000000,  0.000000,  2.345929)
  41 Al ( 0.000000,  0.000000, -0.038435)
  42 Fe ( 0.000000,  0.000000,  2.397525)
  43 Ni ( 0.000000,  0.000000,  0.400393)
  44 Cr ( 0.000000,  0.000000, -2.049905)
  45 Co ( 0.000000,  0.000000,  1.596392)
  46 Co ( 0.000000,  0.000000,  1.483012)
  47 Ni ( 0.000000,  0.000000,  0.479801)
  48 Ni ( 0.000000,  0.000000,  0.338204)
  49 Cr ( 0.000000,  0.000000,  1.875052)
  50 Co ( 0.000000,  0.000000,  0.973622)
  51 Al ( 0.000000,  0.000000, -0.035636)
  52 Al ( 0.000000,  0.000000, -0.035795)
  53 Fe ( 0.000000,  0.000000,  1.996313)
  54 Fe ( 0.000000,  0.000000,  2.441024)
  55 Fe ( 0.000000,  0.000000,  2.207675)
  56 Ni ( 0.000000,  0.000000,  0.593376)
  57 Ni ( 0.000000,  0.000000,  0.161586)
  58 Co ( 0.000000,  0.000000,  1.408470)
  59 Co ( 0.000000,  0.000000,  1.213592)
[...]
  93 Cr ( 0.000000,  0.000000,  1.694090)
  94 Fe ( 0.000000,  0.000000,  2.213996)
  95 Cr ( 0.000000,  0.000000, -1.622322)
  96 Ni ( 0.000000,  0.000000,  0.259869)
  97 Fe ( 0.000000,  0.000000,  2.620877)
  98 Co ( 0.000000,  0.000000,  0.511573)
  99 Ni ( 0.000000,  0.000000,  0.398036)
 100 Cr ( 0.000000,  0.000000,  1.542220)
 101 Al ( 0.000000,  0.000000, -0.016083)
 102 Cr ( 0.000000,  0.000000, -0.003490)
 103 Co ( 0.000000,  0.000000,  0.882085)
 104 Al ( 0.000000,  0.000000, -0.025333)
 105 Ni ( 0.000000,  0.000000,  0.310388)
 106 Co ( 0.000000,  0.000000,  1.272782)
 107 Fe ( 0.000000,  0.000000,  2.484679)

Energy contributions relative to reference atoms: (reference = -3382523.201499)

Kinetic:       +115.384799
Potential:     -145.478160
External:        +0.000000
XC:            -825.144164
Entropy (-ST):   -4.277043
Local:          +33.000193
Free energy:   -826.514375
Extrapolated:  -824.375854

Spin contamination: 30.229804 electrons
Showing only first 2 kpts
                      Up                     Down
 Kpt  Band  Eigenvalues  Occupancy  Eigenvalues  Occupancy
  0   470      8.64251    0.99829      9.68553    0.01690
  0   471      8.65385    0.99808      9.70171    0.01441
  0   472      8.66352    0.99789      9.70853    0.01347
  0   473      8.67404    0.99765      9.72316    0.01166

  1   470      8.64988    0.99815      9.68288    0.01735
  1   471      8.66360    0.99788      9.69706    0.01509
  1   472      8.67720    0.99758      9.70055    0.01458
  1   473      8.69458    0.99712      9.72651    0.01128

Fermi level: 9.27919

No gap

Forces in eV/Ang:
  0 Fe   -0.40489    0.15209   -0.39774
  1 Cr   -0.16833    0.02940    0.11727
  2 Ni   -0.02693   -0.11311    0.06397
  3 Cr   -0.49429    0.73953    0.04106
  4 Al   -0.06099    0.23994    0.59360
  5 Fe   -0.23478    0.43977    0.08574
  6 Ni   -0.04887    0.23588    0.14774
  7 Al   -0.60055    1.07301    0.78250
  8 Al    1.09410   -0.74771    0.49300
  9 Co    0.36363    0.47744    0.22971
 10 Ni    0.09838    0.07010    0.04736
 11 Co    0.13567    0.28055    0.23329
 12 Ni    0.10161   -0.23833   -0.13313
 13 Cr   -0.13941   -0.07227    0.16894
 14 Fe    0.28053   -0.01448   -0.37445
 15 Cr   -0.27280   -0.45436   -0.39286
 16 Co   -0.27202    0.35635    0.05146
 17 Cr    0.22146    0.02877   -1.14771
 18 Co    0.16710   -0.04352    0.15667
 19 Fe   -0.35187   -0.11309    0.35007
 20 Cr    0.30562    0.62737    0.53731
 21 Fe    0.03338   -0.28470    0.02066
 22 Co   -0.19666   -0.22571    0.15643
 23 Al    0.33952    0.53971    0.11147
 24 Ni   -0.16629    0.10809   -0.05207
 25 Cr   -0.58179   -0.20438    0.44505
 26 Cr   -0.04689    0.04964   -0.20545
 27 Al   -1.18025   -0.20778   -0.16813
 28 Cr    0.59383   -0.66588   -0.08553
 29 Cr    0.52067    0.12279    0.64846
 30 Fe   -0.14846   -0.01981   -0.34631
 31 Fe   -0.06519   -0.39360    0.00960
 32 Ni   -0.11120    0.27541   -0.14981
 33 Cr    0.27917   -0.14092    0.15104
 34 Co    0.28062    0.28422    0.07335
 35 Ni    0.09390   -0.21710    0.08507
 36 Ni   -0.13622   -0.14804    0.11224
 37 Co    0.05356    0.14343    0.03180
 38 Co   -0.16448   -0.25314    0.06684
 39 Cr   -1.07330   -0.23942   -0.56516
 40 Fe   -0.02492   -0.37863   -0.26812
 41 Al   -0.04381   -0.22054    0.74575
 42 Fe    0.34493   -0.22492   -0.03889
 43 Ni    0.11561    0.10741   -0.13432
 44 Cr   -0.05972    0.10490    0.15169
 45 Co   -0.06942   -0.10906   -0.01477
 46 Co    0.00126   -0.00404   -0.18193
 47 Ni   -0.09538    0.00421    0.02958
 48 Ni   -0.05682   -0.06315    0.08228
 49 Cr   -0.71818   -0.65086    0.42296
 50 Co   -0.11385   -0.22412    0.11248
 51 Al   -0.96348   -0.90458   -0.06180
 52 Al    0.71373    0.02625   -0.22613
 53 Fe    0.00737   -0.25248    0.00270
 54 Fe    0.38268    0.17244   -0.02122
 55 Fe    0.10151   -0.43367   -0.42358
 56 Ni    0.13756   -0.15175   -0.07885
 57 Ni    0.06049    0.02005   -0.21444
 58 Co    0.17960   -0.09119   -0.23850
 59 Co   -0.03768   -0.30706    0.04757
[...]
 93 Cr   -0.39645    0.26809    0.07647
 94 Fe    0.82386   -0.51827   -0.06115
 95 Cr    1.03093    0.02892    0.10568
 96 Ni   -0.16972    0.10573    0.24066
 97 Fe   -0.08899   -0.16272   -0.25208
 98 Co   -0.13217   -0.23036    0.11030
 99 Ni   -0.11821    0.08122    0.05029
100 Cr    0.07032   -0.08562    0.33702
101 Al   -0.20766   -0.30987   -1.06215
102 Cr    0.10802   -0.05313    0.39157
103 Co    0.37844    0.28225    0.24942
104 Al    0.02744    0.32124    0.51180
105 Ni    0.00536   -0.08328   -0.05441
106 Co    0.15875    0.23928   -0.00636
107 Fe    0.12232    0.10282   -0.09518

Date: Sat Apr  8 19:14:13 2023