User:   c.zeng@d0110
Date:   Sat Apr 15 17:40:16 2023
Arch:   x86_64
Pid:    101360
CWD:    /home/c.zeng/projects/hea-corrosion/hea-mlp/data-curation/bulk-mcmc/dft-jobs/66
Python: 3.8.1
gpaw:   /home/c.zeng/usr/installs/gpaw/source/gpaw-22.8.0/gpaw
_gpaw:  /home/c.zeng/usr/installs/gpaw/source/gpaw-22.8.0/
        _gpaw.cpython-38-x86_64-linux-gnu.so
ase:    /home/c.zeng/.local/lib/python3.8/site-packages/ase-3.22.1-py3.8.egg/ase (version 3.22.1)
numpy:  /shared/centos7/python/3.8.1/lib/python3.8/site-packages/numpy (version 1.17.4)
scipy:  /shared/centos7/python/3.8.1/lib/python3.8/site-packages/scipy (version 1.4.1)
units:  Angstrom and eV
cores: 30
OpenMP: False
OMP_NUM_THREADS: 1

Input parameters:
  convergence: {energy: 0.0001}
  kpts: [2 2 2]
  maxiter: 666
  mode: {ecut: 350.0,
         name: pw}
  occupations: {fixmagmom: False,
                name: fermi-dirac,
                width: 0.1}
  spinpol: True
  xc: PBE

System changes: positions, numbers, cell, pbc, initial_charges, initial_magmoms

Initialize ...

species:
  Ni:
    name: Nickel
    id: 0d9f38a9d6e76a2886f07bb4381f212b
    Z: 28.0
    valence: 16
    core: 12
    charge: 0.0
    file: /home/c.zeng/usr/data/gpaw-setups-0.9.20000/Ni.PBE.gz
    compensation charges: {type: gauss,
                           rc: 0.36,
                           lmax: 2}
    cutoffs: {filter: 2.14,
              core: 1.98}
    valence states:
      #              energy  rcut
      - 4s(2.00)    -5.642   1.164
      - 3p(6.00)   -71.394   1.207
      - 4p(0.00)    -1.226   1.207
      - 3d(8.00)    -8.875   1.138
      -  s          21.570   1.164
      -  d          18.337   1.138

    # Using partial waves for Ni as LCAO basis

  Cr:
    name: Chromium
    id: 33f258bda2ca9f93018e70263a35547b
    Z: 24.0
    valence: 6
    core: 18
    charge: 0.0
    file: /home/c.zeng/usr/data/gpaw-setups-0.9.20000/Cr.PBE.gz
    compensation charges: {type: gauss,
                           rc: 0.35,
                           lmax: 2}
    cutoffs: {filter: 2.14,
              core: 3.04}
    valence states:
      #              energy  rcut
      - 4s(1.00)    -4.007   1.164
      - 4p(0.00)    -0.989   1.217
      - 3d(5.00)    -2.913   1.111
      -  s          23.205   1.164
      -  p          26.223   1.217
      -  d          24.299   1.111

[...]

  Fe:
    name: Iron
    id: 37abbd8d6c3c35915a9b583b742da910
    Z: 26.0
    valence: 8
    core: 18
    charge: 0.0
    file: /home/c.zeng/usr/data/gpaw-setups-0.9.20000/Fe.PBE.gz
    compensation charges: {type: gauss,
                           rc: 0.33,
                           lmax: 2}
    cutoffs: {filter: 2.06,
              core: 2.67}
    valence states:
      #              energy  rcut
      - 4s(2.00)    -5.291   1.164
      - 4p(0.00)    -1.326   1.058
      - 3d(6.00)    -7.505   1.058
      -  s          21.920   1.164
      -  p          25.885   1.058
      -  d          19.706   1.058

[...]

  Co:
    name: Cobalt
    id: 339d20d5b0b93d2de9531a1bee871d91
    Z: 27.0
    valence: 9
    core: 18
    charge: 0.0
    file: /home/c.zeng/usr/data/gpaw-setups-0.9.20000/Co.PBE.gz
    compensation charges: {type: gauss,
                           rc: 0.32,
                           lmax: 2}
    cutoffs: {filter: 1.87,
              core: 2.55}
    valence states:
      #              energy  rcut
      - 4s(2.00)    -5.469   1.005
      - 4p(0.00)    -1.277   1.058
      - 3d(7.00)    -8.205   1.005
      -  s          21.742   1.005
      -  p          25.934   1.058
      -  d          19.007   1.005

[...]

  Al:
    name: Aluminium
    id: 0292cae29f5d6237e50f6abdd43a7bdd
    Z: 13.0
    valence: 3
    core: 10
    charge: 0.0
    file: /home/c.zeng/usr/data/gpaw-setups-0.9.20000/Al.PBE.gz
    compensation charges: {type: gauss,
                           rc: 0.34,
                           lmax: 2}
    cutoffs: {filter: 1.91,
              core: 2.36}
    valence states:
      #              energy  rcut
      - 3s(2.00)    -7.753   1.085
      - 3p(1.00)    -2.712   1.085
      -  s          19.459   1.085
      -  p          24.499   1.085
      -  d           0.000   1.085

    # Using partial waves for Al as LCAO basis

Reference energy: -3699400.456887  # eV

Spin-polarized calculation.
Magnetic moment: 143.500000

Convergence criteria:
 Maximum [total energy] change in last 3 cyles: 0.0001 eV / electron
 Maximum integral of absolute [dens]ity change: 0.0001 electrons / valence electron
 Maximum integral of absolute [eigenst]ate change: 4e-08 eV^2 / valence electron
 Maximum number of scf [iter]ations: 666
 (Square brackets indicate name in SCF output, whereas a 'c' in
 the SCF output indicates the quantity has converged.)

Symmetries present (total): 1

  ( 1  0  0)
  ( 0  1  0)
  ( 0  0  1)

8 k-points: 2 x 2 x 2 Monkhorst-Pack grid
4 k-points in the irreducible part of the Brillouin zone
       k-points in crystal coordinates                weights
   0:     0.25000000   -0.25000000   -0.25000000          2/8
   1:     0.25000000   -0.25000000    0.25000000          2/8
   2:     0.25000000    0.25000000   -0.25000000          2/8
   3:     0.25000000    0.25000000    0.25000000          2/8

Wave functions: Plane wave expansion
  Cutoff energy: 350.000 eV
  Number of coefficients (min, max): 18052, 18052
  Pulay-stress correction: 0.000000 eV/Ang^3 (de/decut=0.000000)
  Using FFTW library
  ScaLapack parameters: grid=1x1, blocksize=None
  Wavefunction extrapolation:
    Improved wavefunction reuse through dual PAW basis

Occupation numbers: Fermi-Dirac:
  width: 0.1000  # eV

Eigensolver
   Davidson(niter=2)

Densities:
  Coarse grid: 48*48*48 grid
  Fine grid: 96*96*96 grid
  Total Charge: 0.000000

Density mixing:
  Method: difference
  Backend: pulay
  Linear mixing parameter: 0.05
  old densities: 5
  Damping of long wavelength oscillations: 50

Hamiltonian:
  XC and Coulomb potentials evaluated on a 96*96*96 grid
  Using the PBE Exchange-Correlation functional
  External potential:
    NoExternalPotential

XC parameters: PBE with 2 nearest neighbor stencil

Total number of cores used: 30
Parallelization over k-points: 2
Domain decomposition: 5 x 3 x 1

Number of atoms: 108
Number of atomic orbitals: 1025
Number of bands in calculation: 703
Number of valence electrons: 1020
Bands to converge: occupied

... initialized

Initializing position-dependent things.

Density initialized from atomic densities
Creating initial wave functions:
  703 bands from LCAO basis set

        Ni------------------------.
       /|  Co                Co   |
      Cr|   Cr         Cr         |
     / Fe      Fe       Al        |
    /   CCo      Cr       Fe      |
   /e   | CoNi     CoAl    CrNi   |
  /  FeCr  CrCo     CrNiCo        |
 *    FeFe  FeCoCr     CoAl       |
 |     CoFeCr  CoFe Ni  CrFeNi    |
 | Fe   CrNiCrCo NiNiCrFe  Ni     |
 |   CoNi  NiAlCr   CrCrCr   Fe   |
 |    FeNi  FeFeCoNi CoFeNi   Cr  |
 |     CrFeFe  Ni NiNi  CoFeFe    |
 |      .-CoCrCo-FeCrNiCo--CoCr---.
 |   NiCo    CoAl   CrCrFe       /
 |    / Ni    NiFe       Ni     /
 |   /            Ni           /
 |Cr/      Co       Co        /
 |/            Ni           /
 *----------------Ni-------*

Positions:
   0 Ni     0.005316   -0.016350   10.639749    ( 0.0000,  0.0000,  0.0000)
   1 Cr    10.672340    1.801276    1.786848    ( 0.0000,  0.0000,  0.0000)
   2 Fe     1.795727   10.625972    1.782259    ( 0.0000,  0.0000,  0.0000)
   3 Cr     1.780787    1.796175   10.644605    ( 0.0000,  0.0000,  2.1000)
   4 Fe     3.523539   -0.014558    0.017268    ( 0.0000,  0.0000,  2.0000)
   5 Co     3.522568    1.781672    1.746648    ( 0.0000,  0.0000,  0.0000)
   6 Co     5.320952   10.642342    1.763136    ( 0.0000,  0.0000,  1.5000)
   7 Ni     5.342082    1.828767    0.007462    ( 0.0000,  0.0000,  2.0000)
   8 Ni     7.144895    0.019195    0.012033    ( 0.0000,  0.0000,  0.0000)
   9 Co     7.143497    1.798064    1.764939    ( 0.0000,  0.0000,  2.1000)
  10 Cr     8.891362   10.651627    1.788353    ( 0.0000,  0.0000,  1.5000)
  11 Co     8.888779    1.804777   10.642609    ( 0.0000,  0.0000,  2.0000)
  12 Fe     0.008694    3.581540   10.650250    ( 0.0000,  0.0000,  2.1000)
  13 Ni     0.018979    5.332745    1.789751    ( 0.0000,  0.0000,  2.1000)
  14 Ni     1.778129    3.600941    1.760019    ( 0.0000,  0.0000,  2.0000)
  15 Co     1.790423    5.343267   -0.017766    ( 0.0000,  0.0000,  2.0000)
  16 Ni     3.542802    3.589864   -0.015614    ( 0.0000,  0.0000,  2.0000)
  17 Co     3.526837    5.358538    1.765793    ( 0.0000,  0.0000,  2.0000)
  18 Fe     5.336650    3.606501    1.755815    ( 0.0000,  0.0000,  0.0000)
  19 Cr     5.300399    5.323642   -0.012797    ( 0.0000,  0.0000,  2.1000)
  20 Al     7.122858    3.584816   10.659524    ( 0.0000,  0.0000,  2.0000)
  21 Cr     7.120500    5.315168    1.805502    ( 0.0000,  0.0000,  1.5000)
  22 Ni     8.892034    3.590952    1.773146    ( 0.0000,  0.0000,  2.1000)
  23 Fe     8.925340    5.301487   -0.003100    ( 0.0000,  0.0000,  0.0000)
  24 Cr     0.023055    7.096680   -0.007939    ( 0.0000,  0.0000,  0.0000)
  25 Cr     0.019141    8.871245    1.787510    ( 0.0000,  0.0000,  1.5000)
  26 Co     1.784372    7.104567    1.776443    ( 0.0000,  0.0000,  2.0000)
  27 Co     1.779944    8.867628   10.659406    ( 0.0000,  0.0000,  1.5000)
  28 Ni     3.547785    7.097897    0.009215    ( 0.0000,  0.0000,  2.1000)
  29 Ni     3.541137    8.858109    1.788225    ( 0.0000,  0.0000,  2.1000)
  30 Cr     5.295105    7.099391    1.787894    ( 0.0000,  0.0000,  2.1000)
  31 Cr     5.303685    8.873828    0.029898    ( 0.0000,  0.0000,  0.0000)
  32 Cr     7.106883    7.088719   10.645159    ( 0.0000,  0.0000,  0.0000)
  33 Co     7.111055    8.901137    1.809472    ( 0.0000,  0.0000,  0.0000)
  34 Co     8.939384    7.093404    1.799238    ( 0.0000,  0.0000,  0.0000)
  35 Co     8.919972    8.915853   10.664881    ( 0.0000,  0.0000,  0.0000)
  36 Cr    10.679704   10.658873    3.584517    ( 0.0000,  0.0000,  2.0000)
  37 Fe    10.670921    1.796367    5.340289    ( 0.0000,  0.0000,  2.1000)
  38 Fe     1.770350   10.649001    5.343491    ( 0.0000,  0.0000,  0.0000)
  39 Co     1.791800    1.784671    3.584891    ( 0.0000,  0.0000,  2.0000)
  40 Ni     3.529718   10.626388    3.565234    ( 0.0000,  0.0000,  2.1000)
  41 Fe     3.535716    1.793465    5.367289    ( 0.0000,  0.0000,  1.5000)
  42 Co     5.311497    0.001574    5.366254    ( 0.0000,  0.0000,  1.5000)
  43 Al     5.332627    1.768055    3.580793    ( 0.0000,  0.0000,  0.0000)
  44 Ni     7.136966   10.673941    3.563804    ( 0.0000,  0.0000,  2.0000)
  45 Ni     7.136774    1.794126    5.358944    ( 0.0000,  0.0000,  2.1000)
  46 Co     8.925938   10.673621    5.347589    ( 0.0000,  0.0000,  2.0000)
  47 Fe     8.883827    1.779111    3.582404    ( 0.0000,  0.0000,  1.5000)
  48 Cr    -0.010038    3.572341    3.580996    ( 0.0000,  0.0000,  2.0000)
  49 Co    10.685573    5.328935    5.338550    ( 0.0000,  0.0000,  2.0000)
  50 Ni     1.784180    3.582949    5.348357    ( 0.0000,  0.0000,  1.5000)
  51 Fe     1.766326    5.339510    3.565255    ( 0.0000,  0.0000,  1.5000)
[...]
iter:  41 19:40:34  -870.340875c -4.35  -2.90    +58.8076
iter:  42 19:43:27  -870.361734c -4.43  -3.10    +58.9598
iter:  43 19:46:19  -870.365115c -4.75  -3.16    +59.0111
iter:  44 19:49:11  -870.387000c -4.67  -3.20    +59.1595
iter:  45 19:52:01  -870.395361c -5.31  -3.29    +59.2168
iter:  46 19:54:52  -870.401584c -5.62  -3.32    +59.2614
iter:  47 19:57:44  -870.436502c -4.79  -3.32    +59.4485
iter:  48 20:00:36  -870.364462c -4.26  -3.29    +58.9952
iter:  49 20:03:27  -870.293073  -3.79  -3.32    +58.2720
iter:  50 20:06:19  -870.301285c -4.89  -3.29    +58.2381
iter:  51 20:09:12  -870.315734c -5.12  -3.37    +58.3076
iter:  52 20:12:04  -870.322819c -5.34  -3.37    +58.3259
iter:  53 20:14:55  -870.341317c -4.88  -3.37    +58.4122
iter:  54 20:17:46  -870.365623c -4.67  -3.39    +58.5312
iter:  55 20:20:34  -870.371692c -5.39  -3.33    +58.5807
iter:  56 20:23:26  -870.375775c -5.56  -3.31    +58.5750
iter:  57 20:26:17  -870.390048c -4.84  -3.29    +58.7016
iter:  58 20:29:09  -870.392155c -5.15  -3.32    +58.7374
iter:  59 20:32:00  -870.406099c -4.94  -3.46    +58.8586
iter:  60 20:34:53  -870.406960c -4.90  -3.53    +58.8682
iter:  61 20:37:45  -870.419438c -4.94  -3.53    +58.9386
iter:  62 20:40:37  -870.412891c -5.87  -3.56    +58.9127
iter:  63 20:43:28  -870.416703c -5.74  -3.69    +58.9832
iter:  64 20:46:21  -870.431322c -5.16  -3.69    +59.0808
iter:  65 20:49:13  -870.391605c -4.32  -3.68    +58.7626
iter:  66 20:52:05  -870.381376c -4.45  -3.65    +58.5234
iter:  67 20:54:56  -870.383950c -5.25  -3.48    +58.4613
iter:  68 20:57:45  -870.389185c -5.47  -3.60    +58.4583
iter:  69 21:00:37  -870.396166c -5.18  -3.61    +58.4639
iter:  70 21:03:29  -870.409737c -4.78  -3.63    +58.4832
iter:  71 21:06:21  -870.396698c -5.01  -3.45    +58.4588
iter:  72 21:09:13  -870.400969c -5.60  -3.56    +58.4771
iter:  73 21:12:04  -870.402904c -5.61  -3.60    +58.4817
iter:  74 21:14:56  -870.409838c -5.17  -3.48    +58.4939
iter:  75 21:17:49  -870.409615c -5.44  -3.43    +58.5025
iter:  76 21:20:41  -870.414568c -5.22  -3.51    +58.5327
iter:  77 21:23:31  -870.419144c -5.23  -3.53    +58.5595
iter:  78 21:26:23  -870.419597c -5.35  -3.47    +58.5882
iter:  79 21:29:15  -870.424067c -5.58  -3.62    +58.6189
iter:  80 21:32:08  -870.421753c -5.74  -3.68    +58.6095
iter:  81 21:34:59  -870.427822c -5.43  -3.64    +58.6533
iter:  82 21:37:51  -870.423565c -5.93  -3.67    +58.6222
iter:  83 21:40:43  -870.421422c -5.50  -3.76    +58.6108
iter:  84 21:43:36  -870.431983c -5.27  -3.74    +58.6817
iter:  85 21:46:27  -870.421731c -5.43  -3.65    +58.6116
iter:  86 21:49:18  -870.418113c -5.64  -3.82    +58.5864
iter:  87 21:52:10  -870.423602c -5.77  -3.90    +58.6352
iter:  88 21:55:03  -870.411578c -5.06  -3.99    +58.5028
iter:  89 21:57:55  -870.402689c -4.85  -3.86    +58.3401
iter:  90 22:00:47  -870.398031c -4.74  -3.81    +58.1272
iter:  91 22:03:39  -870.399664c -5.13  -3.69    +57.9762
iter:  92 22:06:30  -870.402334c -5.60  -3.63    +57.8910
iter:  93 22:09:22  -870.405355c -5.54  -3.62    +57.8033
iter:  94 22:12:13  -870.405305c -6.13  -3.62    +57.8400
iter:  95 22:15:04  -870.408923c -5.15  -3.51    +57.7466
iter:  96 22:17:56  -870.409151c -4.97  -3.41    +57.7707
iter:  97 22:20:48  -870.405782c -5.31  -3.41    +57.7170
iter:  98 22:23:40  -870.406973c -5.59  -3.66    +57.6779
iter:  99 22:26:32  -870.407514c -5.91  -3.77    +57.6528
iter: 100 22:29:24  -870.408606c -5.77  -3.73    +57.6212
iter: 101 22:32:16  -870.409091c -6.08  -3.76    +57.6028
iter: 102 22:35:08  -870.410424c -5.92  -3.87    +57.5721
iter: 103 22:38:01  -870.412010c -5.73  -3.84    +57.5410
iter: 104 22:40:53  -870.411842c -5.96  -3.75    +57.5357
iter: 105 22:43:45  -870.413035c -5.80  -3.75    +57.5056
iter: 106 22:46:36  -870.414160c -5.92  -3.99    +57.4896
iter: 107 22:49:29  -870.414894c -5.96  -3.84    +57.4685
iter: 108 22:52:21  -870.416131c -5.94  -3.93    +57.4412
iter: 109 22:55:12  -870.416299c -6.33  -4.06c   +57.4448
iter: 110 22:58:04  -870.418219c -5.93  -3.94    +57.4141
iter: 111 23:00:52  -870.414743c -5.61  -4.03c   +57.4714
iter: 112 23:03:43  -870.408654c -4.77  -4.05c   +57.5878
iter: 113 23:06:36  -870.409394c -5.96  -4.15c   +57.5765
iter: 114 23:09:28  -870.411495c -5.74  -4.24c   +57.5396
iter: 115 23:12:19  -870.413808c -5.52  -4.19c   +57.4965
iter: 116 23:15:11  -870.415347c -5.70  -4.05c   +57.4725
iter: 117 23:18:04  -870.413332c -5.71  -3.93    +57.5082
iter: 118 23:20:56  -870.415047c -5.89  -3.96    +57.4729
iter: 119 23:23:47  -870.414348c -6.98  -4.02c   +57.4793
iter: 120 23:26:39  -870.415661c -5.97  -4.07c   +57.4615
iter: 121 23:29:30  -870.416019c -6.26  -3.91    +57.4504
iter: 122 23:32:22  -870.416686c -6.29  -4.05c   +57.4357
iter: 123 23:35:14  -870.417729c -6.25  -4.04c   +57.4255
iter: 124 23:38:04  -870.417053c -6.89  -3.96    +57.4287
iter: 125 23:40:56  -870.417604c -6.55  -4.02c   +57.4114
iter: 126 23:43:47  -870.418049c -6.34  -3.99    +57.4150
iter: 127 23:46:40  -870.419321c -6.06  -3.99    +57.3972
iter: 128 23:49:32  -870.419244c -6.85  -3.94    +57.4007
iter: 129 23:52:23  -870.420699c -6.14  -4.03c   +57.3883
iter: 130 23:55:15  -870.415682c -5.01  -3.98    +57.4285
iter: 131 23:58:06  -870.414023c -5.37  -4.06c   +57.4330
iter: 132 00:00:57  -870.414534c -6.15  -4.21c   +57.4188
iter: 133 00:03:50  -870.415765c -6.02  -4.16c   +57.3870
iter: 134 00:06:42  -870.416411c -6.33  -4.17c   +57.3799
iter: 135 00:09:33  -870.415651c -6.59  -4.00c   +57.3766
iter: 136 00:12:07  -870.416712c -6.42  -4.06c   +57.3689
iter: 137 00:14:04  -870.416573c -6.88  -3.97    +57.3684
iter: 138 00:16:55  -870.417187c -6.25  -4.03c   +57.3621
iter: 139 00:19:46  -870.417963c -6.34  -4.09c   +57.3581
iter: 140 00:22:38  -870.418253c -6.49  -4.07c   +57.3570
iter: 141 00:25:29  -870.418869c -6.26  -4.10c   +57.3417
iter: 142 00:28:20  -870.419007c -6.70  -4.09c   +57.3421
iter: 143 00:31:11  -870.419537c -6.56  -4.01c   +57.3382
iter: 144 00:34:02  -870.419677c -6.52  -3.96    +57.3390
iter: 145 00:36:54  -870.420452c -6.23  -3.95    +57.3381
iter: 146 00:39:45  -870.420698c -6.50  -3.99    +57.3385
iter: 147 00:42:37  -870.422046c -5.85  -4.04c   +57.3324
iter: 148 00:45:28  -870.421459c -6.48  -3.83    +57.3337
iter: 149 00:48:19  -870.421585c -6.38  -3.98    +57.3306
iter: 150 00:51:10  -870.422074c -6.28  -4.14c   +57.3413
iter: 151 00:54:02  -870.423114c -6.26  -4.16c   +57.3495
iter: 152 00:56:53  -870.422849c -7.17  -4.09c   +57.3500
iter: 153 00:59:44  -870.423620c -6.36  -4.26c   +57.3595
iter: 154 01:02:35  -870.422407c -6.12  -4.21c   +57.3403
iter: 155 01:05:27  -870.420842c -5.61  -4.25c   +57.3079
iter: 156 01:08:18  -870.421592c -6.59  -4.19c   +57.3161
iter: 157 01:11:09  -870.420922c -6.44  -4.28c   +57.3069
iter: 158 01:14:00  -870.422213c -6.10  -4.18c   +57.3209
iter: 159 01:16:51  -870.422221c -7.12  -4.31c   +57.3186
iter: 160 01:19:43  -870.423006c -6.30  -4.37c   +57.3262
iter: 161 01:22:35  -870.420214c -5.31  -4.32c   +57.2981
iter: 162 01:25:26  -870.419689c -5.86  -4.34c   +57.2802
iter: 163 01:28:18  -870.420055c -6.45  -4.47c   +57.2627
iter: 164 01:31:09  -870.421015c -5.87  -4.50c   +57.2136
iter: 165 01:34:00  -870.423038c -5.24  -4.46c   +57.1172
iter: 166 01:36:50  -870.425054c -5.15  -4.17c   +57.0285
iter: 167 01:39:41  -870.425443c -5.87  -3.96    +57.0203
iter: 168 01:42:32  -870.425274c -6.75  -3.93    +57.0239
iter: 169 01:45:23  -870.425522c -6.79  -3.94    +57.0208
iter: 170 01:48:14  -870.425494c -6.93  -3.92    +57.0202
iter: 171 01:51:06  -870.426952c -5.81  -3.93    +57.0161
iter: 172 01:53:57  -870.426887c -5.79  -3.70    +57.0162
iter: 173 01:56:48  -870.426710c -5.85  -3.72    +57.0127
iter: 174 01:59:39  -870.426286c -6.19  -3.88    +57.0051
iter: 175 02:02:30  -870.426588c -6.60  -3.93    +56.9983
iter: 176 02:05:21  -870.426701c -6.72  -4.01c   +56.9947
iter: 177 02:08:11  -870.427077c -6.50  -4.02c   +56.9912
iter: 178 02:11:03  -870.426018c -5.68  -3.97    +56.9987
iter: 179 02:13:54  -870.427621c -5.27  -4.10c   +56.9883
iter: 180 02:16:46  -870.427816c -6.49  -3.98    +56.9955
iter: 181 02:19:37  -870.427794c -6.37  -4.02c   +56.9996
iter: 182 02:22:28  -870.428147c -6.26  -4.08c   +57.0019
iter: 183 02:25:19  -870.428448c -6.43  -3.98    +57.0037
iter: 184 02:28:10  -870.428546c -6.50  -4.04c   +57.0046
iter: 185 02:31:01  -870.428942c -6.46  -4.29c   +57.0009
iter: 186 02:33:52  -870.429179c -6.65  -4.20c   +57.0018
iter: 187 02:36:42  -870.429186c -6.80  -4.27c   +57.0032
iter: 188 02:39:33  -870.429479c -6.83  -4.35c   +57.0038
iter: 189 02:42:24  -870.429583c -7.01  -4.41c   +57.0035
iter: 190 02:45:15  -870.429764c -6.69  -4.31c   +57.0019
iter: 191 02:48:06  -870.429796c -7.40  -4.41c   +57.0022
iter: 192 02:50:57  -870.430021c -6.68  -4.49c   +57.0038
iter: 193 02:53:47  -870.430104c -7.19  -4.44c   +57.0042
iter: 194 02:56:37  -870.430167c -6.83  -4.47c   +57.0067
iter: 195 02:59:27  -870.430356c -7.14  -4.50c   +57.0058
iter: 196 03:02:18  -870.430521c -7.08  -4.67c   +57.0075
iter: 197 03:05:09  -870.430764c -6.88  -4.63c   +57.0060
iter: 198 03:08:00  -870.430445c -6.85  -4.63c   +57.0089
iter: 199 03:10:51  -870.429584c -5.72  -4.72c   +57.0205
iter: 200 03:13:42  -870.429783c -7.07  -4.45c   +57.0198
iter: 201 03:16:33  -870.429946c -6.89  -4.48c   +57.0219
iter: 202 03:19:24  -870.429961c -7.71c -4.56c   +57.0220

Converged after 202 iterations.

Dipole moment: (-10.552824, 8.267192, 8.781583) |e|*Ang

Total magnetic moment: (0.000000, 0.000000, 57.022022)
Local magnetic moments:
   0 Ni ( 0.000000,  0.000000,  0.163254)
   1 Cr ( 0.000000,  0.000000, -0.423423)
   2 Fe ( 0.000000,  0.000000,  2.141441)
   3 Cr ( 0.000000,  0.000000, -0.945657)
   4 Fe ( 0.000000,  0.000000,  2.054502)
   5 Co ( 0.000000,  0.000000,  1.239182)
   6 Co ( 0.000000,  0.000000,  1.187536)
   7 Ni ( 0.000000,  0.000000,  0.309992)
   8 Ni ( 0.000000,  0.000000,  0.299095)
   9 Co ( 0.000000,  0.000000,  1.340137)
  10 Cr ( 0.000000,  0.000000, -0.152514)
  11 Co ( 0.000000,  0.000000,  1.017966)
  12 Fe ( 0.000000,  0.000000,  2.185350)
  13 Ni ( 0.000000,  0.000000,  0.327929)
  14 Ni ( 0.000000,  0.000000,  0.245437)
  15 Co ( 0.000000,  0.000000,  1.439976)
  16 Ni ( 0.000000,  0.000000,  0.268392)
  17 Co ( 0.000000,  0.000000,  1.139423)
  18 Fe ( 0.000000,  0.000000,  2.004929)
  19 Cr ( 0.000000,  0.000000, -0.147667)
  20 Al ( 0.000000,  0.000000, -0.020094)
  21 Cr ( 0.000000,  0.000000, -1.431495)
  22 Ni ( 0.000000,  0.000000,  0.181239)
  23 Fe ( 0.000000,  0.000000,  1.836475)
  24 Cr ( 0.000000,  0.000000, -1.339687)
  25 Cr ( 0.000000,  0.000000, -0.873732)
  26 Co ( 0.000000,  0.000000,  1.235125)
  27 Co ( 0.000000,  0.000000,  1.151946)
  28 Ni ( 0.000000,  0.000000,  0.292455)
  29 Ni ( 0.000000,  0.000000,  0.251932)
  30 Cr ( 0.000000,  0.000000, -0.258440)
  31 Cr ( 0.000000,  0.000000, -1.328923)
  32 Cr ( 0.000000,  0.000000,  0.935339)
  33 Co ( 0.000000,  0.000000,  0.662441)
  34 Co ( 0.000000,  0.000000,  0.732780)
  35 Co ( 0.000000,  0.000000,  0.630005)
  36 Cr ( 0.000000,  0.000000, -0.398309)
  37 Fe ( 0.000000,  0.000000,  2.196057)
  38 Fe ( 0.000000,  0.000000, -0.591671)
  39 Co ( 0.000000,  0.000000,  0.944951)
  40 Ni ( 0.000000,  0.000000,  0.281588)
  41 Fe ( 0.000000,  0.000000,  2.085990)
  42 Co ( 0.000000,  0.000000,  0.238521)
  43 Al ( 0.000000,  0.000000, -0.022984)
  44 Ni ( 0.000000,  0.000000,  0.263048)
  45 Ni ( 0.000000,  0.000000,  0.092291)
  46 Co ( 0.000000,  0.000000,  1.252430)
  47 Fe ( 0.000000,  0.000000,  2.205591)
  48 Cr ( 0.000000,  0.000000, -1.645124)
  49 Co ( 0.000000,  0.000000,  1.317467)
  50 Ni ( 0.000000,  0.000000,  0.208935)
  51 Fe ( 0.000000,  0.000000,  2.216512)
  52 Cr ( 0.000000,  0.000000, -1.832239)
  53 Al ( 0.000000,  0.000000, -0.031559)
  54 Co ( 0.000000,  0.000000,  0.188512)
  55 Ni ( 0.000000,  0.000000,  0.125512)
  56 Ni ( 0.000000,  0.000000,  0.273428)
  57 Cr ( 0.000000,  0.000000, -1.500974)
  58 Ni ( 0.000000,  0.000000,  0.268310)
  59 Fe ( 0.000000,  0.000000,  2.240768)
[...]
  93 Ni ( 0.000000,  0.000000,  0.153976)
  94 Al ( 0.000000,  0.000000, -0.036553)
  95 Fe ( 0.000000,  0.000000,  2.015650)
  96 Fe ( 0.000000,  0.000000,  2.258325)
  97 Fe ( 0.000000,  0.000000,  1.897397)
  98 Co ( 0.000000,  0.000000,  1.129576)
  99 Cr ( 0.000000,  0.000000, -1.352538)
 100 Co ( 0.000000,  0.000000,  1.061534)
 101 Fe ( 0.000000,  0.000000,  1.940241)
 102 Co ( 0.000000,  0.000000,  0.790356)
 103 Cr ( 0.000000,  0.000000, -1.066130)
 104 Co ( 0.000000,  0.000000,  0.823277)
 105 Al ( 0.000000,  0.000000, -0.010711)
 106 Cr ( 0.000000,  0.000000, -1.561015)
 107 Ni ( 0.000000,  0.000000,  0.257440)

Energy contributions relative to reference atoms: (reference = -3699400.456887)

Kinetic:       +109.423257
Potential:     -166.460096
External:        +0.000000
XC:            -848.933449
Entropy (-ST):   -4.604650
Local:          +37.842652
Free energy:   -872.732286
Extrapolated:  -870.429961

Spin contamination: 27.517851 electrons
Showing only first 2 kpts
                      Up                     Down
 Kpt  Band  Eigenvalues  Occupancy  Eigenvalues  Occupancy
  0   508      9.69347    0.98949     10.48392    0.03358
  0   509      9.70372    0.98837     10.49634    0.02978
  0   510      9.71167    0.98742     10.49924    0.02895
  0   511      9.72486    0.98567     10.50811    0.02656

  1   508      9.68692    0.99015     10.48301    0.03388
  1   509      9.69541    0.98929     10.49703    0.02958
  1   510      9.70805    0.98786     10.51158    0.02568
  1   511      9.72085    0.98623     10.52093    0.02344

Fermi level: 10.14796

No gap

Forces in eV/Ang:
  0 Ni   -0.00046    0.18549    0.44369
  1 Cr    0.06249   -0.40387   -0.25168
  2 Fe   -0.25712    0.45448    0.04133
  3 Cr    0.21988   -0.08158    0.25659
  4 Fe    0.50787    0.13027   -0.18963
  5 Co   -0.13164   -0.00092    0.08326
  6 Co    0.08170   -0.02466   -0.02980
  7 Ni   -0.28988   -0.35566    0.02742
  8 Ni   -0.37307   -0.06885    0.05948
  9 Co    0.03479   -0.41146    0.03530
 10 Cr    0.00266    0.21244   -0.28332
 11 Co    0.50907   -0.53437    0.68837
 12 Fe    0.09938   -0.18383    0.64215
 13 Ni   -0.04043    0.11340   -0.20146
 14 Ni   -0.09371   -0.45610    0.21985
 15 Co    0.00974    0.01574    0.02153
 16 Ni    0.01628   -0.23606    0.11438
 17 Co    0.25061   -0.05031    0.04359
 18 Fe   -0.30980    0.08062    0.22209
 19 Cr   -0.41042    0.74892    0.04054
 20 Al   -0.09796   -0.86548    0.37401
 21 Cr    0.00684    0.70955    0.53995
 22 Ni    0.31004   -0.35292    0.21292
 23 Fe    0.14725    0.98290    0.35823
 24 Cr   -0.06441   -0.02907    0.29249
 25 Cr   -0.16172    0.27320   -0.35344
 26 Co   -0.22045   -0.06036   -0.03821
 27 Co   -0.19186    0.20467   -0.06605
 28 Ni    0.12849    0.05565   -0.28913
 29 Ni    0.12129    0.20042   -0.18424
 30 Cr    0.10683   -0.20017   -0.11813
 31 Cr    0.04950    0.07658    0.27428
 32 Cr    0.20264    0.22446    0.82964
 33 Co    0.08081   -0.02510   -0.35402
 34 Co   -0.28200    0.29039   -0.28735
 35 Co   -0.14437   -0.40856    0.49048
 36 Cr    0.01585    0.01348   -0.00066
 37 Fe    0.39243   -0.23948   -0.23465
 38 Fe    0.19256    0.23216    0.06829
 39 Co   -0.18401    0.14833   -0.35266
 40 Ni    0.19087    0.33725    0.04827
 41 Fe   -0.42534   -0.16426    0.23129
 42 Co    0.03070   -0.59166    0.28857
 43 Al    0.45608   -0.31671   -0.09884
 44 Ni   -0.05668   -0.31910    0.00078
 45 Ni   -0.07183   -0.27358    0.16330
 46 Co   -0.21177    0.04132   -0.05988
 47 Fe   -0.02415    0.13690   -0.17244
 48 Cr    0.24183   -0.38781   -0.08274
 49 Co   -0.02884   -0.08437    0.12082
 50 Ni   -0.17191   -0.29897   -0.08625
 51 Fe   -0.05531   -0.25756   -0.32266
 52 Cr   -0.12951   -0.55595   -0.89979
 53 Al    0.26348    0.62252   -0.11972
 54 Co   -0.03195   -0.05599    0.01600
 55 Ni   -0.04606   -0.18329   -0.29534
 56 Ni   -0.14148    0.01590   -0.08737
 57 Cr   -0.22211    0.10726    0.03670
 58 Ni    0.15637   -0.03685   -0.00123
 59 Fe    0.03680    0.03868   -0.14237
[...]
 93 Ni    0.15925    0.39908    0.25016
 94 Al    0.44209    0.17723   -0.11482
 95 Fe   -0.14198    0.14778   -0.27593
 96 Fe   -0.15013    0.20145   -0.16278
 97 Fe    0.21441   -0.24348    0.36023
 98 Co    0.06968    0.00572    0.11550
 99 Cr    0.18208    0.35310   -0.17901
100 Co    0.18903    0.60034    0.39072
101 Fe    0.39564    0.14861   -0.31408
102 Co    0.00223   -0.04272    0.22146
103 Cr   -1.16415    0.47935   -0.49814
104 Co   -0.16267    0.10779   -0.47343
105 Al   -0.26938    0.57583    0.06799
106 Cr    0.17339   -0.85891   -0.06198
107 Ni   -0.09703    0.13988   -0.43173

Date: Sun Apr 16 03:19:46 2023