User:   c.zeng@d0135
Date:   Sat Apr  8 14:00:09 2023
Arch:   x86_64
Pid:    73982
CWD:    /home/c.zeng/projects/hea-corrosion/hea-mlp/data-curation/volume/dft-jobs/78
Python: 3.8.1
gpaw:   /home/c.zeng/usr/installs/gpaw/source/gpaw-22.8.0/gpaw
_gpaw:  /home/c.zeng/usr/installs/gpaw/source/gpaw-22.8.0/
        _gpaw.cpython-38-x86_64-linux-gnu.so
ase:    /home/c.zeng/.local/lib/python3.8/site-packages/ase-3.22.1-py3.8.egg/ase (version 3.22.1)
numpy:  /shared/centos7/python/3.8.1/lib/python3.8/site-packages/numpy (version 1.17.4)
scipy:  /shared/centos7/python/3.8.1/lib/python3.8/site-packages/scipy (version 1.4.1)
units:  Angstrom and eV
cores: 64
OpenMP: False
OMP_NUM_THREADS: 1

Input parameters:
  convergence: {energy: 0.0001}
  kpts: [2 2 2]
  maxiter: 666
  mode: {ecut: 350.0,
         name: pw}
  occupations: {fixmagmom: False,
                name: fermi-dirac,
                width: 0.1}
  spinpol: True
  xc: PBE

System changes: positions, numbers, cell, pbc, initial_charges, initial_magmoms

Initialize ...

species:
  Co:
    name: Cobalt
    id: 339d20d5b0b93d2de9531a1bee871d91
    Z: 27.0
    valence: 9
    core: 18
    charge: 0.0
    file: /home/c.zeng/usr/data/gpaw-setups-0.9.20000/Co.PBE.gz
    compensation charges: {type: gauss,
                           rc: 0.32,
                           lmax: 2}
    cutoffs: {filter: 1.87,
              core: 2.55}
    valence states:
      #              energy  rcut
      - 4s(2.00)    -5.469   1.005
      - 4p(0.00)    -1.277   1.058
      - 3d(7.00)    -8.205   1.005
      -  s          21.742   1.005
      -  p          25.934   1.058
      -  d          19.007   1.005

    # Using partial waves for Co as LCAO basis

  Ni:
    name: Nickel
    id: 0d9f38a9d6e76a2886f07bb4381f212b
    Z: 28.0
    valence: 16
    core: 12
    charge: 0.0
    file: /home/c.zeng/usr/data/gpaw-setups-0.9.20000/Ni.PBE.gz
    compensation charges: {type: gauss,
                           rc: 0.36,
                           lmax: 2}
    cutoffs: {filter: 2.14,
              core: 1.98}
    valence states:
      #              energy  rcut
      - 4s(2.00)    -5.642   1.164
      - 3p(6.00)   -71.394   1.207
      - 4p(0.00)    -1.226   1.207
      - 3d(8.00)    -8.875   1.138
      -  s          21.570   1.164
      -  d          18.337   1.138

[...]

  Al:
    name: Aluminium
    id: 0292cae29f5d6237e50f6abdd43a7bdd
    Z: 13.0
    valence: 3
    core: 10
    charge: 0.0
    file: /home/c.zeng/usr/data/gpaw-setups-0.9.20000/Al.PBE.gz
    compensation charges: {type: gauss,
                           rc: 0.34,
                           lmax: 2}
    cutoffs: {filter: 1.91,
              core: 2.36}
    valence states:
      #              energy  rcut
      - 3s(2.00)    -7.753   1.085
      - 3p(1.00)    -2.712   1.085
      -  s          19.459   1.085
      -  p          24.499   1.085
      -  d           0.000   1.085

[...]

  Cr:
    name: Chromium
    id: 33f258bda2ca9f93018e70263a35547b
    Z: 24.0
    valence: 6
    core: 18
    charge: 0.0
    file: /home/c.zeng/usr/data/gpaw-setups-0.9.20000/Cr.PBE.gz
    compensation charges: {type: gauss,
                           rc: 0.35,
                           lmax: 2}
    cutoffs: {filter: 2.14,
              core: 3.04}
    valence states:
      #              energy  rcut
      - 4s(1.00)    -4.007   1.164
      - 4p(0.00)    -0.989   1.217
      - 3d(5.00)    -2.913   1.111
      -  s          23.205   1.164
      -  p          26.223   1.217
      -  d          24.299   1.111

[...]

  Fe:
    name: Iron
    id: 37abbd8d6c3c35915a9b583b742da910
    Z: 26.0
    valence: 8
    core: 18
    charge: 0.0
    file: /home/c.zeng/usr/data/gpaw-setups-0.9.20000/Fe.PBE.gz
    compensation charges: {type: gauss,
                           rc: 0.33,
                           lmax: 2}
    cutoffs: {filter: 2.06,
              core: 2.67}
    valence states:
      #              energy  rcut
      - 4s(2.00)    -5.291   1.164
      - 4p(0.00)    -1.326   1.058
      - 3d(6.00)    -7.505   1.058
      -  s          21.920   1.164
      -  p          25.885   1.058
      -  d          19.706   1.058

    # Using partial waves for Fe as LCAO basis

Reference energy: -3548577.034362  # eV

Spin-polarized calculation.
Magnetic moment: 136.400000

Convergence criteria:
 Maximum [total energy] change in last 3 cyles: 0.0001 eV / electron
 Maximum integral of absolute [dens]ity change: 0.0001 electrons / valence electron
 Maximum integral of absolute [eigenst]ate change: 4e-08 eV^2 / valence electron
 Maximum number of scf [iter]ations: 666
 (Square brackets indicate name in SCF output, whereas a 'c' in
 the SCF output indicates the quantity has converged.)

Symmetries present (total): 1

  ( 1  0  0)
  ( 0  1  0)
  ( 0  0  1)

8 k-points: 2 x 2 x 2 Monkhorst-Pack grid
4 k-points in the irreducible part of the Brillouin zone
       k-points in crystal coordinates                weights
   0:     0.25000000   -0.25000000   -0.25000000          2/8
   1:     0.25000000   -0.25000000    0.25000000          2/8
   2:     0.25000000    0.25000000   -0.25000000          2/8
   3:     0.25000000    0.25000000    0.25000000          2/8

Wave functions: Plane wave expansion
  Cutoff energy: 350.000 eV
  Number of coefficients (min, max): 18331, 18331
  Pulay-stress correction: 0.000000 eV/Ang^3 (de/decut=0.000000)
  Using FFTW library
  ScaLapack parameters: grid=1x1, blocksize=None
  Wavefunction extrapolation:
    Improved wavefunction reuse through dual PAW basis

Occupation numbers: Fermi-Dirac:
  width: 0.1000  # eV

Eigensolver
   Davidson(niter=2)

Densities:
  Coarse grid: 48*48*48 grid
  Fine grid: 96*96*96 grid
  Total Charge: 0.000000

Density mixing:
  Method: difference
  Backend: pulay
  Linear mixing parameter: 0.05
  old densities: 5
  Damping of long wavelength oscillations: 50

Hamiltonian:
  XC and Coulomb potentials evaluated on a 96*96*96 grid
  Using the PBE Exchange-Correlation functional
  External potential:
    NoExternalPotential

XC parameters: PBE with 2 nearest neighbor stencil

Total number of cores used: 64
Parallelization over k-points: 4
Domain decomposition: 4 x 2 x 2

Number of atoms: 108
Number of atomic orbitals: 994
Number of bands in calculation: 674
Number of valence electrons: 980
Bands to converge: occupied

... initialized

Initializing position-dependent things.

Density initialized from atomic densities
Creating initial wave functions:
  674 bands from LCAO basis set

        Co-------Cr---------------.
       /|  Cr       Fe            |
      / |   CoFe     FeFe     AlFe|
     / Ni       NCo     NiCr      |
    /   AAl      Fe      Ni       |
   /    | NiCr     Fe      FeCo   |
  /   Cr|  CoFeFe   CoNi    FeCo  |
 *      Ni  CoCoAl   CoCoCr   AlCo|
 |Co   NiFeFe   CoCCr   CrCr      |
 | Cr   | CrCo   CoCoFe    Fe     |
 |     Fe  NiNiCr   CrCoNi  NiFe  |
 |      Fe    CoCo   FeCrCr   FeNi|
 |Ni    |NiNi   NiCCo   CrFe     Al
 |      .-NiNi-----CoCr--CrFeCr---.
 |     Ni    CrNi     Cr    Cr Fe/
 |    / Al      Al      Nir     /
 Ni  /            Cr           /
 |  /      Fe      Fe       Ni/
 | / Al              Co      /
 |/                     Al  /

Positions:
   0 Co    10.733237   -0.011280   10.719866    ( 0.0000,  0.0000,  2.1000)
   1 Ni    10.705209    1.786035    1.815414    ( 0.0000,  0.0000,  1.5000)
   2 Al     1.828592    0.046942    1.820529    ( 0.0000,  0.0000,  0.0000)
   3 Cr     1.781489    1.795471   10.668817    ( 0.0000,  0.0000,  0.0000)
   4 Cr     3.604301   -0.024409   10.697210    ( 0.0000,  0.0000,  0.0000)
   5 Fe     3.626185    1.755991    1.827359    ( 0.0000,  0.0000,  2.0000)
   6 Fe     5.346632   -0.033414    1.798848    ( 0.0000,  0.0000,  2.0000)
   7 Fe     5.383774    1.754479   -0.004584    ( 0.0000,  0.0000,  2.0000)
   8 Cr     7.108735   -0.023480    0.050136    ( 0.0000,  0.0000,  0.0000)
   9 Fe     7.129675    1.780781    1.836762    ( 0.0000,  0.0000,  2.0000)
  10 Fe     8.928985   -0.005908    1.839582    ( 0.0000,  0.0000,  2.0000)
  11 Al     8.945122    1.850026    0.061527    ( 0.0000,  0.0000,  0.0000)
  12 Co    10.719040    3.616096   10.707996    ( 0.0000,  0.0000,  2.1000)
  13 Fe    10.713690    5.407256    1.815918    ( 0.0000,  0.0000,  2.0000)
  14 Al     1.785510    3.536225    1.884787    ( 0.0000,  0.0000,  0.0000)
  15 Al     1.774637    5.426288   10.658620    ( 0.0000,  0.0000,  0.0000)
  16 Cr     3.565368    3.565208   10.691656    ( 0.0000,  0.0000,  0.0000)
  17 Cr     3.571427    5.432914    1.814363    ( 0.0000,  0.0000,  0.0000)
  18 Al     5.352636    3.574032    1.808552    ( 0.0000,  0.0000,  0.0000)
  19 Co     5.347147    5.411255   10.704844    ( 0.0000,  0.0000,  2.1000)
  20 Co     7.158786    3.623848    0.002360    ( 0.0000,  0.0000,  2.1000)
  21 Cr     7.157993    5.381276    1.803587    ( 0.0000,  0.0000,  0.0000)
  22 Cr     8.943631    3.619001    1.842113    ( 0.0000,  0.0000,  0.0000)
  23 Cr     8.939096    5.372205   -0.004613    ( 0.0000,  0.0000,  0.0000)
  24 Fe    10.675251    7.138511   10.684172    ( 0.0000,  0.0000,  2.0000)
  25 Al    10.669589    8.869090    1.800199    ( 0.0000,  0.0000,  0.0000)
  26 Ni     1.808177    7.157200    1.807555    ( 0.0000,  0.0000,  1.5000)
  27 Cr     1.809034    8.894652   10.689597    ( 0.0000,  0.0000,  0.0000)
  28 Fe     3.612171    7.185120   10.699933    ( 0.0000,  0.0000,  2.0000)
  29 Ni     3.597396    8.906275    1.809024    ( 0.0000,  0.0000,  1.5000)
  30 Co     5.362876    7.151956    1.780106    ( 0.0000,  0.0000,  2.1000)
  31 Fe     5.366479    8.905160   10.708565    ( 0.0000,  0.0000,  2.0000)
  32 Fe     7.127638    7.127917   10.701048    ( 0.0000,  0.0000,  2.0000)
  33 Cr     7.139722    8.916686    1.783848    ( 0.0000,  0.0000,  0.0000)
  34 Fe     8.885066    7.111029    1.798891    ( 0.0000,  0.0000,  2.0000)
  35 Cr     8.896871    8.881378    0.004911    ( 0.0000,  0.0000,  0.0000)
  36 Ni    10.737526    0.006700    3.588947    ( 0.0000,  0.0000,  1.5000)
  37 Ni     0.008471    1.816829    5.360367    ( 0.0000,  0.0000,  1.5000)
  38 Co     1.833020   -0.009641    5.335888    ( 0.0000,  0.0000,  2.1000)
  39 Ni     1.813945    1.777768    3.663713    ( 0.0000,  0.0000,  1.5000)
  40 Co     3.607035   -0.027116    3.615978    ( 0.0000,  0.0000,  2.1000)
  41 Ni     3.597171    1.775591    5.368152    ( 0.0000,  0.0000,  1.5000)
  42 Co     5.354030   -0.018424    5.366693    ( 0.0000,  0.0000,  2.1000)
  43 Ni     5.354298    1.762500    3.609126    ( 0.0000,  0.0000,  1.5000)
  44 Cr     7.096908    0.003830    3.555643    ( 0.0000,  0.0000,  0.0000)
  45 Co     7.124722    1.817119    5.355800    ( 0.0000,  0.0000,  2.1000)
  46 Al     8.889033   10.712125    5.291659    ( 0.0000,  0.0000,  0.0000)
  47 Ni     8.931279    1.813763    3.559450    ( 0.0000,  0.0000,  1.5000)
  48 Cr    10.698593    3.598972    3.630185    ( 0.0000,  0.0000,  0.0000)
  49 Fe    -0.008351    5.380890    5.387023    ( 0.0000,  0.0000,  2.0000)
  50 Fe     1.794280    3.594329    5.364099    ( 0.0000,  0.0000,  2.0000)
  51 Ni     1.781950    5.397134    3.627022    ( 0.0000,  0.0000,  1.5000)
  52 Ni     3.584047    3.581538    3.659521    ( 0.0000,  0.0000,  1.5000)
  53 Ni     3.572606    5.392041    5.374446    ( 0.0000,  0.0000,  1.5000)
  54 Co     5.361761    3.593557    5.375807    ( 0.0000,  0.0000,  2.1000)
  55 Cr     5.350181    5.403085    3.626872    ( 0.0000,  0.0000,  0.0000)
  56 Cr     7.167257    3.583532    3.633005    ( 0.0000,  0.0000,  0.0000)
  57 Co     7.149040    5.366919    5.368002    ( 0.0000,  0.0000,  2.1000)
  58 Cr     8.930014    3.577002    5.375003    ( 0.0000,  0.0000,  0.0000)
  59 Fe     8.939739    5.381962    3.617951    ( 0.0000,  0.0000,  2.0000)
[...]
  93 Ni     7.157972    5.391998    8.906972    ( 0.0000,  0.0000,  1.5000)
  94 Cr     8.929896    3.598790    8.885784    ( 0.0000,  0.0000,  0.0000)
  95 Cr     8.935557    5.388556    7.127284    ( 0.0000,  0.0000,  0.0000)
  96 Co    10.718654    7.162915    7.143668    ( 0.0000,  0.0000,  2.1000)
  97 Ni    10.740957    8.897718    8.941733    ( 0.0000,  0.0000,  1.5000)
  98 Ni     1.794388    7.181014    8.888819    ( 0.0000,  0.0000,  1.5000)
  99 Co     1.836494    8.903605    7.122899    ( 0.0000,  0.0000,  2.1000)
 100 Co     3.587231    7.155463    7.132999    ( 0.0000,  0.0000,  2.1000)
 101 Ni     3.595155    8.923120    8.904613    ( 0.0000,  0.0000,  1.5000)
 102 Fe     5.368774    7.149597    8.921211    ( 0.0000,  0.0000,  2.0000)
 103 Co     5.341968    8.916054    7.142531    ( 0.0000,  0.0000,  2.1000)
 104 Co     7.139379    7.140237    7.138832    ( 0.0000,  0.0000,  2.1000)
 105 Ni     7.106258    8.890631    8.907465    ( 0.0000,  0.0000,  1.5000)
 106 Fe     8.907712    7.146649    8.906993    ( 0.0000,  0.0000,  2.0000)
 107 Fe     8.923720    8.890438    7.114117    ( 0.0000,  0.0000,  2.0000)

Unit cell:
           periodic     x           y           z      points  spacing
  1. axis:    yes   10.722300    0.000000    0.000000    48     0.2234
  2. axis:    yes    0.000000   10.722300    0.000000    48     0.2234
  3. axis:    yes    0.000000    0.000000   10.722300    48     0.2234

  Lengths:  10.722300  10.722300  10.722300
  Angles:   90.000000  90.000000  90.000000

Effective grid spacing dv^(1/3) = 0.2234

     iter     time        total  log10-change:  magmom
                         energy  eigst   dens
iter:   1 14:02:32 -1035.901052                  +136.6828
iter:   2 14:03:30  -917.088483  -0.22  -1.18    +75.1442
iter:   3 14:04:29  -913.528126  -0.79  -1.20    +63.0861
iter:   4 14:05:26  -886.137581  -1.18  -1.26    +58.7470
iter:   5 14:06:24  -872.334487  -1.57  -1.29    +55.4553
iter:   6 14:07:23  -877.660759  -1.25  -1.36    +55.8376
iter:   7 14:08:20  -860.227355  -1.30  -1.41    +54.0154
iter:   8 14:09:18  -853.712078  -1.63  -1.58    +53.4890
iter:   9 14:10:16  -853.412462  -2.05  -1.74    +54.4960
iter:  10 14:11:13  -852.215431  -2.33  -1.76    +55.7017
iter:  11 14:12:09  -852.876800  -2.53  -1.84    +56.5756
iter:  12 14:13:07  -852.686906  -2.52  -1.83    +58.1542
iter:  13 14:14:05  -854.642367  -2.38  -1.90    +59.4096
iter:  14 14:15:02  -853.236434  -2.37  -1.88    +59.5461
iter:  15 14:16:01  -854.931128  -2.40  -2.01    +60.5180
iter:  16 14:16:57  -853.216211  -2.56  -1.95    +60.8059
iter:  17 14:17:56  -853.471700  -2.74  -2.07    +61.9688
iter:  18 14:18:55  -853.240115  -2.77  -2.09    +61.9268
iter:  19 14:19:52  -853.180366  -2.92  -2.13    +62.3556
iter:  20 14:20:49  -852.774270  -3.19  -2.16    +63.1535
iter:  21 14:21:48  -853.047789  -3.18  -2.26    +63.4244
iter:  22 14:22:47  -852.991864  -3.15  -2.25    +63.6732
iter:  23 14:23:47  -853.006322c -3.22  -2.27    +63.6436
iter:  24 14:24:44  -853.060665c -3.23  -2.29    +64.0114
iter:  25 14:25:43  -853.099221c -3.21  -2.31    +64.0527
iter:  26 14:26:47  -852.908160  -3.42  -2.34    +63.9312
iter:  27 14:27:46  -852.957658  -3.59  -2.41    +64.2159
iter:  28 14:28:45  -852.971836c -3.58  -2.42    +64.1653
iter:  29 14:29:43  -852.962150c -3.63  -2.44    +64.2528
iter:  30 14:30:41  -852.962994c -3.80  -2.45    +64.1749
iter:  31 14:31:37  -853.006249c -3.71  -2.49    +64.2159
iter:  32 14:32:37  -853.028163c -3.74  -2.49    +64.1727
iter:  33 14:33:36  -853.018069c -3.77  -2.50    +63.9413
iter:  34 14:34:34  -853.058083c -3.77  -2.53    +63.9742
iter:  35 14:35:32  -853.077071c -3.62  -2.54    +63.8999
iter:  36 14:36:30  -853.055768c -3.87  -2.53    +63.8941
iter:  37 14:37:27  -853.058715c -3.86  -2.59    +63.7270
iter:  38 14:38:26  -853.033189c -3.94  -2.61    +63.6544
iter:  39 14:39:23  -853.021520c -4.23  -2.63    +63.7861
iter:  40 14:40:23  -853.036205c -4.37  -2.68    +63.6703
iter:  41 14:41:25  -853.072373c -4.08  -2.70    +63.6260
iter:  42 14:42:23  -853.058219c -4.17  -2.66    +63.5240
iter:  43 14:43:22  -853.079751c -4.14  -2.70    +63.5136
iter:  44 14:44:23  -853.104641c -3.99  -2.71    +63.4539
iter:  45 14:45:19  -853.083197c -4.12  -2.70    +63.2717
iter:  46 14:46:16  -853.072126c -4.35  -2.74    +63.2857
iter:  47 14:47:14  -853.085449c -4.28  -2.79    +63.2460
iter:  48 14:48:18  -853.074066c -4.46  -2.78    +63.2409
iter:  49 14:49:16  -853.078175c -4.73  -2.83    +63.1254
iter:  50 14:50:14  -853.085822c -4.55  -2.86    +63.0644
iter:  51 14:51:14  -853.096376c -4.52  -2.85    +63.0665
iter:  52 14:52:13  -853.100881c -4.54  -2.85    +62.9685
iter:  53 14:53:12  -853.123243c -4.37  -2.87    +62.8977
iter:  54 14:54:11  -853.123060c -4.20  -2.84    +62.8117
iter:  55 14:55:08  -853.112562c -4.44  -2.85    +62.8173
iter:  56 14:56:05  -853.120590c -4.48  -2.92    +62.8002
iter:  57 14:57:03  -853.114920c -4.67  -2.93    +62.7231
iter:  58 14:58:01  -853.112099c -4.83  -2.98    +62.7484
iter:  59 14:59:02  -853.118483c -5.17  -3.02    +62.7304
iter:  60 14:59:58  -853.129876c -4.72  -3.04    +62.7167
iter:  61 15:01:00  -853.134453c -4.76  -2.99    +62.6521
iter:  62 15:01:57  -853.140508c -4.61  -3.03    +62.6097
iter:  63 15:02:58  -853.147851c -4.57  -3.01    +62.6350
iter:  64 15:03:56  -853.151197c -4.48  -3.04    +62.5543
iter:  65 15:04:56  -853.144591c -4.82  -3.03    +62.5149
iter:  66 15:05:54  -853.149968c -4.73  -3.13    +62.4453
iter:  67 15:06:53  -853.144741c -5.09  -3.13    +62.4798
iter:  68 15:07:51  -853.149891c -5.34  -3.21    +62.4684
iter:  69 15:08:52  -853.153229c -5.36  -3.25    +62.4418
iter:  70 15:09:54  -853.160347c -5.01  -3.26    +62.4438
iter:  71 15:10:50  -853.161052c -5.33  -3.22    +62.4349
iter:  72 15:11:48  -853.169978c -4.87  -3.30    +62.4265
iter:  73 15:12:44  -853.179123c -4.70  -3.23    +62.3859
iter:  74 15:13:41  -853.170844c -4.83  -3.18    +62.3878
iter:  75 15:14:39  -853.173622c -5.04  -3.30    +62.4376
iter:  76 15:15:22  -853.174655c -5.27  -3.37    +62.3976
iter:  77 15:16:04  -853.175216c -5.54  -3.43    +62.3891
iter:  78 15:16:47  -853.179377c -5.51  -3.53    +62.3676
iter:  79 15:17:30  -853.178756c -6.45  -3.49    +62.3715
iter:  80 15:18:13  -853.183928c -5.55  -3.48    +62.3404
iter:  81 15:18:55  -853.177505c -5.39  -3.45    +62.3629
iter:  82 15:19:38  -853.189548c -4.99  -3.47    +62.3205
iter:  83 15:20:21  -853.181354c -5.46  -3.43    +62.3657
iter:  84 15:21:04  -853.188043c -5.45  -3.48    +62.3323
iter:  85 15:21:46  -853.189868c -5.09  -3.43    +62.3308
iter:  86 15:22:29  -853.190164c -5.27  -3.30    +62.3634
iter:  87 15:23:12  -853.192879c -5.67  -3.52    +62.3704
[...]
iter: 119 15:45:54  -853.243702c -5.16  -3.44    +62.5036
iter: 120 15:46:36  -853.236468c -5.41  -3.31    +62.4686
iter: 121 15:47:19  -853.237368c -5.27  -3.60    +62.4489
iter: 122 15:48:02  -853.238300c -5.44  -3.52    +62.4386
iter: 123 15:48:45  -853.237913c -5.48  -3.57    +62.4414
iter: 124 15:49:27  -853.236017c -5.66  -3.53    +62.4123
iter: 125 15:50:10  -853.236326c -5.71  -3.70    +62.3882
iter: 126 15:50:53  -853.237800c -5.83  -3.68    +62.3884
iter: 127 15:51:36  -853.236018c -6.14  -3.72    +62.3779
iter: 128 15:52:18  -853.235839c -6.16  -3.89    +62.3668
iter: 129 15:53:01  -853.236159c -6.20  -3.84    +62.3487
iter: 130 15:53:44  -853.236149c -6.42  -3.87    +62.3517
iter: 131 15:54:26  -853.236092c -6.47  -3.96    +62.3422
iter: 132 15:55:09  -853.235326c -6.37  -3.95    +62.3329
iter: 133 15:55:52  -853.236020c -6.50  -3.94    +62.3254
iter: 134 15:56:35  -853.236216c -6.54  -4.01c   +62.3197
iter: 135 15:57:18  -853.235912c -6.54  -4.03c   +62.3212
iter: 136 15:58:01  -853.235659c -6.54  -4.01c   +62.3076
iter: 137 15:58:44  -853.235733c -6.77  -4.07c   +62.3043
iter: 138 15:59:26  -853.236263c -6.71  -4.08c   +62.3054
iter: 139 16:00:09  -853.235535c -6.62  -4.11c   +62.3048
iter: 140 16:00:52  -853.235506c -6.85  -4.12c   +62.3023
iter: 141 16:01:34  -853.235654c -6.86  -4.17c   +62.2929
iter: 142 16:02:17  -853.235848c -6.75  -4.20c   +62.2963
iter: 143 16:02:59  -853.235738c -6.95  -4.17c   +62.2926
iter: 144 16:03:42  -853.235365c -7.11  -4.23c   +62.2850
iter: 145 16:04:25  -853.235793c -7.02  -4.30c   +62.2808
iter: 146 16:05:08  -853.235758c -7.31  -4.27c   +62.2786
iter: 147 16:05:51  -853.235657c -7.42c -4.34c   +62.2797

Converged after 147 iterations.

Dipole moment: (-1.302652, 14.504456, 12.485850) |e|*Ang

Total magnetic moment: (0.000000, 0.000000, 62.279691)
Local magnetic moments:
   0 Co ( 0.000000,  0.000000,  0.492183)
   1 Ni ( 0.000000,  0.000000,  0.144873)
   2 Al ( 0.000000,  0.000000, -0.010043)
   3 Cr ( 0.000000,  0.000000,  1.219278)
   4 Cr ( 0.000000,  0.000000, -1.385909)
   5 Fe ( 0.000000,  0.000000,  2.095325)
   6 Fe ( 0.000000,  0.000000,  1.723126)
   7 Fe ( 0.000000,  0.000000,  1.754286)
   8 Cr ( 0.000000,  0.000000, -1.163536)
   9 Fe ( 0.000000,  0.000000,  1.764521)
  10 Fe ( 0.000000,  0.000000,  2.126638)
  11 Al ( 0.000000,  0.000000, -0.020910)
  12 Co ( 0.000000,  0.000000, -0.490201)
  13 Fe ( 0.000000,  0.000000,  1.988326)
  14 Al ( 0.000000,  0.000000, -0.011019)
  15 Al ( 0.000000,  0.000000, -0.028672)
  16 Cr ( 0.000000,  0.000000, -1.702823)
  17 Cr ( 0.000000,  0.000000,  1.255676)
  18 Al ( 0.000000,  0.000000, -0.014913)
  19 Co ( 0.000000,  0.000000,  1.047958)
  20 Co ( 0.000000,  0.000000,  0.926931)
  21 Cr ( 0.000000,  0.000000, -0.588051)
  22 Cr ( 0.000000,  0.000000,  0.874056)
  23 Cr ( 0.000000,  0.000000, -1.419579)
  24 Fe ( 0.000000,  0.000000,  1.923438)
  25 Al ( 0.000000,  0.000000, -0.016008)
  26 Ni ( 0.000000,  0.000000,  0.230779)
  27 Cr ( 0.000000,  0.000000, -1.727161)
  28 Fe ( 0.000000,  0.000000,  2.107285)
  29 Ni ( 0.000000,  0.000000,  0.192057)
  30 Co ( 0.000000,  0.000000,  0.803453)
  31 Fe ( 0.000000,  0.000000,  1.906117)
  32 Fe ( 0.000000,  0.000000,  1.627516)
  33 Cr ( 0.000000,  0.000000,  0.092107)
  34 Fe ( 0.000000,  0.000000,  1.562364)
  35 Cr ( 0.000000,  0.000000, -1.214364)
  36 Ni ( 0.000000,  0.000000,  0.329106)
  37 Ni ( 0.000000,  0.000000,  0.149869)
  38 Co ( 0.000000,  0.000000,  1.503876)
  39 Ni ( 0.000000,  0.000000,  0.368946)
  40 Co ( 0.000000,  0.000000,  1.430096)
  41 Ni ( 0.000000,  0.000000,  0.422620)
  42 Co ( 0.000000,  0.000000,  1.304835)
  43 Ni ( 0.000000,  0.000000,  0.223093)
  44 Cr ( 0.000000,  0.000000, -0.836866)
  45 Co ( 0.000000,  0.000000,  0.920111)
  46 Al ( 0.000000,  0.000000, -0.008715)
  47 Ni ( 0.000000,  0.000000,  0.036007)
  48 Cr ( 0.000000,  0.000000, -1.437089)
  49 Fe ( 0.000000,  0.000000,  1.932049)
  50 Fe ( 0.000000,  0.000000,  2.419506)
  51 Ni ( 0.000000,  0.000000,  0.298813)
  52 Ni ( 0.000000,  0.000000,  0.333865)
  53 Ni ( 0.000000,  0.000000,  0.389304)
  54 Co ( 0.000000,  0.000000,  1.339414)
  55 Cr ( 0.000000,  0.000000, -0.755679)
  56 Cr ( 0.000000,  0.000000, -0.875615)
  57 Co ( 0.000000,  0.000000,  0.779189)
  58 Cr ( 0.000000,  0.000000,  0.893711)
  59 Fe ( 0.000000,  0.000000, -1.430179)
[...]
  93 Ni ( 0.000000,  0.000000,  0.316656)
  94 Cr ( 0.000000,  0.000000,  0.859530)
  95 Cr ( 0.000000,  0.000000, -1.398838)
  96 Co ( 0.000000,  0.000000,  1.222908)
  97 Ni ( 0.000000,  0.000000,  0.232217)
  98 Ni ( 0.000000,  0.000000,  0.408917)
  99 Co ( 0.000000,  0.000000,  1.528560)
 100 Co ( 0.000000,  0.000000,  1.562499)
 101 Ni ( 0.000000,  0.000000,  0.425635)
 102 Fe ( 0.000000,  0.000000,  2.318858)
 103 Co ( 0.000000,  0.000000,  1.438509)
 104 Co ( 0.000000,  0.000000,  1.250297)
 105 Ni ( 0.000000,  0.000000,  0.331304)
 106 Fe ( 0.000000,  0.000000,  2.024705)
 107 Fe ( 0.000000,  0.000000,  2.159722)

Energy contributions relative to reference atoms: (reference = -3548577.034362)

Kinetic:       +167.035066
Potential:     -203.070905
External:        +0.000000
XC:            -851.114172
Entropy (-ST):   -4.391006
Local:          +36.109857
Free energy:   -855.431161
Extrapolated:  -853.235657

Spin contamination: 27.270555 electrons
Showing only first 2 kpts
                      Up                     Down
 Kpt  Band  Eigenvalues  Occupancy  Eigenvalues  Occupancy
  0   488      9.48981    0.99413     10.36920    0.02504
  0   489      9.50166    0.99340     10.38027    0.02248
  0   490      9.51797    0.99224     10.38813    0.02081
  0   491      9.52396    0.99176     10.39713    0.01906

  1   488      9.48774    0.99425     10.36748    0.02547
  1   489      9.50100    0.99344     10.38100    0.02232
  1   490      9.53103    0.99116     10.38663    0.02112
  1   491      9.54115    0.99023     10.39829    0.01884

Fermi level: 10.00302

No gap

Forces in eV/Ang:
  0 Co    0.15808   -0.52202   -0.02716
  1 Ni    0.22082    0.12328   -0.00239
  2 Al   -0.31899   -0.18522    0.64221
  3 Cr   -0.37991    0.04872   -0.64306
  4 Cr    0.55931    0.27460   -0.43350
  5 Fe    0.17929   -0.04611   -0.03273
  6 Fe   -0.03650    0.19345    0.15603
  7 Fe   -0.37164    0.26062    0.09774
  8 Cr   -0.56142   -0.38064   -0.07432
  9 Fe    0.08291   -0.17642   -0.12833
 10 Fe   -0.10060    0.30113   -0.11967
 11 Al    0.58894   -0.22852   -0.22484
 12 Co    0.02534   -0.26916   -0.10992
 13 Fe   -0.09933    0.24889    0.24330
 14 Al    0.00868   -0.08656   -0.09931
 15 Al   -0.53757   -0.08439   -0.21882
 16 Cr   -0.40640   -0.45492    0.11786
 17 Cr    0.49112    0.02216   -0.02892
 18 Al    0.09763   -0.31341   -0.00228
 19 Co    0.03093   -0.16680    0.23197
 20 Co   -0.09341   -0.08684   -0.07011
 21 Cr   -0.22854    0.71655   -0.10284
 22 Cr    0.01488    0.54429    0.36211
 23 Cr    0.33445    0.25917   -0.29720
 24 Fe   -0.09141    0.22653   -0.15907
 25 Al    0.31476    0.05485    0.96869
 26 Ni   -0.07203   -0.12224   -0.09830
 27 Cr   -0.14725   -0.11924   -0.62882
 28 Fe   -0.17044    0.23787    0.09240
 29 Ni   -0.07016    0.11678   -0.14741
 30 Co    0.12421   -0.03751   -0.05261
 31 Fe   -0.05511    0.39822    0.28592
 32 Fe    0.17564    0.03761    0.33553
 33 Cr   -0.03601   -0.37990    0.41602
 34 Fe   -0.23436   -0.43350   -0.30329
 35 Cr   -0.20309   -0.50759   -0.05494
 36 Ni    0.05814   -0.16406   -0.08711
 37 Ni    0.10306   -0.35240   -0.08238
 38 Co    0.21864   -0.18235   -0.05063
 39 Ni   -0.13176    0.06604   -0.28415
 40 Co    0.14672    0.03543    0.41994
 41 Ni   -0.10493   -0.00451   -0.10151
 42 Co    0.07808   -0.07049   -0.02871
 43 Ni    0.05896    0.07157    0.02439
 44 Cr   -0.34275    0.02072   -0.59887
 45 Co   -0.07709    0.05553    0.03770
 46 Al    0.55776    0.51800    0.26944
 47 Ni    0.03572   -0.04382    0.15252
 48 Cr   -0.61841   -0.07381    0.61196
 49 Fe    0.17345    0.32825   -0.18775
 50 Fe    0.01235   -0.02082   -0.20638
 51 Ni    0.20196   -0.10470   -0.31578
 52 Ni    0.07846    0.09794   -0.37589
 53 Ni    0.12037   -0.01952    0.02678
 54 Co    0.24360    0.07340    0.07619
 55 Cr   -0.10996    0.35231    0.26297
 56 Cr    0.28109   -0.14380    0.60526
 57 Co   -0.24205    0.25359   -0.09767
 58 Cr   -0.14704   -0.30907   -0.27372
 59 Fe   -0.09408    0.00871   -0.01986
[...]
 93 Ni   -0.09192   -0.09912    0.13382
 94 Cr    0.25480    0.26509   -0.11277
 95 Cr   -0.14197    0.29305    0.30793
 96 Co    0.02875    0.10897    0.12079
 97 Ni   -0.08197    0.34623   -0.13354
 98 Ni   -0.08186   -0.14361    0.10930
 99 Co    0.04572   -0.12520   -0.06921
100 Co   -0.02246    0.19268   -0.09712
101 Ni   -0.35371   -0.01590    0.12077
102 Fe    0.28382   -0.04057   -0.11433
103 Co    0.18179    0.20948   -0.25866
104 Co   -0.07901   -0.11340   -0.09225
105 Ni    0.17621    0.32012    0.16195
106 Fe    0.10128   -0.16438    0.11879
107 Fe   -0.02470   -0.31293   -0.19317

Date: Sat Apr  8 16:06:02 2023