User:   c.zeng@d0111
Date:   Thu Apr 13 20:03:05 2023
Arch:   x86_64
Pid:    80850
CWD:    /home/c.zeng/projects/hea-corrosion/hea-mlp/data-curation/bulk-md/dft-jobs/29
Python: 3.8.1
gpaw:   /home/c.zeng/usr/installs/gpaw/source/gpaw-22.8.0/gpaw
_gpaw:  /home/c.zeng/usr/installs/gpaw/source/gpaw-22.8.0/
        _gpaw.cpython-38-x86_64-linux-gnu.so
ase:    /home/c.zeng/.local/lib/python3.8/site-packages/ase-3.22.1-py3.8.egg/ase (version 3.22.1)
numpy:  /shared/centos7/python/3.8.1/lib/python3.8/site-packages/numpy (version 1.17.4)
scipy:  /shared/centos7/python/3.8.1/lib/python3.8/site-packages/scipy (version 1.4.1)
units:  Angstrom and eV
cores: 30
OpenMP: False
OMP_NUM_THREADS: 1

Input parameters:
  convergence: {energy: 0.0001}
  kpts: [2 2 2]
  maxiter: 666
  mode: {ecut: 350.0,
         name: pw}
  occupations: {fixmagmom: False,
                name: fermi-dirac,
                width: 0.1}
  spinpol: True
  xc: PBE

System changes: positions, numbers, cell, pbc, initial_charges, initial_magmoms

Initialize ...

species:
  Cr:
    name: Chromium
    id: 33f258bda2ca9f93018e70263a35547b
    Z: 24.0
    valence: 6
    core: 18
    charge: 0.0
    file: /home/c.zeng/usr/data/gpaw-setups-0.9.20000/Cr.PBE.gz
    compensation charges: {type: gauss,
                           rc: 0.35,
                           lmax: 2}
    cutoffs: {filter: 2.14,
              core: 3.04}
    valence states:
      #              energy  rcut
      - 4s(1.00)    -4.007   1.164
      - 4p(0.00)    -0.989   1.217
      - 3d(5.00)    -2.913   1.111
      -  s          23.205   1.164
      -  p          26.223   1.217
      -  d          24.299   1.111

    # Using partial waves for Cr as LCAO basis

  Al:
    name: Aluminium
    id: 0292cae29f5d6237e50f6abdd43a7bdd
    Z: 13.0
    valence: 3
    core: 10
    charge: 0.0
    file: /home/c.zeng/usr/data/gpaw-setups-0.9.20000/Al.PBE.gz
    compensation charges: {type: gauss,
                           rc: 0.34,
                           lmax: 2}
    cutoffs: {filter: 1.91,
              core: 2.36}
    valence states:
      #              energy  rcut
      - 3s(2.00)    -7.753   1.085
      - 3p(1.00)    -2.712   1.085
      -  s          19.459   1.085
      -  p          24.499   1.085
      -  d           0.000   1.085

[...]

  Co:
    name: Cobalt
    id: 339d20d5b0b93d2de9531a1bee871d91
    Z: 27.0
    valence: 9
    core: 18
    charge: 0.0
    file: /home/c.zeng/usr/data/gpaw-setups-0.9.20000/Co.PBE.gz
    compensation charges: {type: gauss,
                           rc: 0.32,
                           lmax: 2}
    cutoffs: {filter: 1.87,
              core: 2.55}
    valence states:
      #              energy  rcut
      - 4s(2.00)    -5.469   1.005
      - 4p(0.00)    -1.277   1.058
      - 3d(7.00)    -8.205   1.005
      -  s          21.742   1.005
      -  p          25.934   1.058
      -  d          19.007   1.005

[...]

  Fe:
    name: Iron
    id: 37abbd8d6c3c35915a9b583b742da910
    Z: 26.0
    valence: 8
    core: 18
    charge: 0.0
    file: /home/c.zeng/usr/data/gpaw-setups-0.9.20000/Fe.PBE.gz
    compensation charges: {type: gauss,
                           rc: 0.33,
                           lmax: 2}
    cutoffs: {filter: 2.06,
              core: 2.67}
    valence states:
      #              energy  rcut
      - 4s(2.00)    -5.291   1.164
      - 4p(0.00)    -1.326   1.058
      - 3d(6.00)    -7.505   1.058
      -  s          21.920   1.164
      -  p          25.885   1.058
      -  d          19.706   1.058

[...]

  Ni:
    name: Nickel
    id: 0d9f38a9d6e76a2886f07bb4381f212b
    Z: 28.0
    valence: 16
    core: 12
    charge: 0.0
    file: /home/c.zeng/usr/data/gpaw-setups-0.9.20000/Ni.PBE.gz
    compensation charges: {type: gauss,
                           rc: 0.36,
                           lmax: 2}
    cutoffs: {filter: 2.14,
              core: 1.98}
    valence states:
      #              energy  rcut
      - 4s(2.00)    -5.642   1.164
      - 3p(6.00)   -71.394   1.207
      - 4p(0.00)    -1.226   1.207
      - 3d(8.00)    -8.875   1.138
      -  s          21.570   1.164
      -  d          18.337   1.138

    # Using partial waves for Ni as LCAO basis

Reference energy: -3699400.456887  # eV

Spin-polarized calculation.
Magnetic moment: 143.500000

Convergence criteria:
 Maximum [total energy] change in last 3 cyles: 0.0001 eV / electron
 Maximum integral of absolute [dens]ity change: 0.0001 electrons / valence electron
 Maximum integral of absolute [eigenst]ate change: 4e-08 eV^2 / valence electron
 Maximum number of scf [iter]ations: 666
 (Square brackets indicate name in SCF output, whereas a 'c' in
 the SCF output indicates the quantity has converged.)

Symmetries present (total): 1

  ( 1  0  0)
  ( 0  1  0)
  ( 0  0  1)

8 k-points: 2 x 2 x 2 Monkhorst-Pack grid
4 k-points in the irreducible part of the Brillouin zone
       k-points in crystal coordinates                weights
   0:     0.25000000   -0.25000000   -0.25000000          2/8
   1:     0.25000000   -0.25000000    0.25000000          2/8
   2:     0.25000000    0.25000000   -0.25000000          2/8
   3:     0.25000000    0.25000000    0.25000000          2/8

Wave functions: Plane wave expansion
  Cutoff energy: 350.000 eV
  Number of coefficients (min, max): 18052, 18052
  Pulay-stress correction: 0.000000 eV/Ang^3 (de/decut=0.000000)
  Using FFTW library
  ScaLapack parameters: grid=1x1, blocksize=None
  Wavefunction extrapolation:
    Improved wavefunction reuse through dual PAW basis

Occupation numbers: Fermi-Dirac:
  width: 0.1000  # eV

Eigensolver
   Davidson(niter=2)

Densities:
  Coarse grid: 48*48*48 grid
  Fine grid: 96*96*96 grid
  Total Charge: 0.000000

Density mixing:
  Method: difference
  Backend: pulay
  Linear mixing parameter: 0.05
  old densities: 5
  Damping of long wavelength oscillations: 50

Hamiltonian:
  XC and Coulomb potentials evaluated on a 96*96*96 grid
  Using the PBE Exchange-Correlation functional
  External potential:
    NoExternalPotential

XC parameters: PBE with 2 nearest neighbor stencil

Total number of cores used: 30
Parallelization over k-points: 2
Domain decomposition: 5 x 3 x 1

Number of atoms: 108
Number of atomic orbitals: 1025
Number of bands in calculation: 703
Number of valence electrons: 1020
Bands to converge: occupied

... initialized

Initializing position-dependent things.

Density initialized from atomic densities
Creating initial wave functions:
  703 bands from LCAO basis set

        .----------------Cr-------.
       /|  Ni               Cr    |
      / |   Fe       Al       Co  |
     /  |     Cor       Fe        |
    /  NiFe       Co              |
   /    | NiFe    Cr       CrCo   |
  /     |    CoFe  Cr NiFe    Ni  |
 *    FCo Fe  Ni Ni Ni CoCo       |
 |     NiCo Cr CoNiCo   AlCrFe    |
 |      | FeCo   CNi Ni     Ni    |
 |   FCr|  NiCoCo   FFe Cr   Ni   |
 |Cr  CrNiCr  CoFe Cr  NNi    Ni  |
 |     NiNiNi  CoCrCo   Cr FCo    |
 |  FCr .-FeCr----CoCo-Fe--Cr-----.
 |   Co/           CrNiNi        /
 |    FeFe   FeAlr     AlCo     Cr
 |   /            Fe      CFel /
 |  /      Cr       Co        /
 | / Cr     FeNi     Fe      /
 |/   Co                    /
 *-------------------------Cr

Positions:
   0 Cr    -0.070626    0.069405   10.849813    ( 0.0000,  0.0000,  0.0000)
   1 Al    10.524922    1.974670    1.983913    ( 0.0000,  0.0000,  0.0000)
   2 Cr     1.663662   10.731887    1.679550    ( 0.0000,  0.0000,  0.0000)
   3 Co     1.746956    1.889713   10.787841    ( 0.0000,  0.0000,  2.1000)
   4 Fe     3.465806    0.222908   -0.045279    ( 0.0000,  0.0000,  2.0000)
   5 Cr     3.518641    1.732939    1.669681    ( 0.0000,  0.0000,  0.0000)
   6 Ni     5.351670   10.818388    1.697072    ( 0.0000,  0.0000,  1.5000)
   7 Fe     5.359735    1.774182   -0.030711    ( 0.0000,  0.0000,  2.0000)
   8 Cr     7.098412   -0.166407   -0.185928    ( 0.0000,  0.0000,  0.0000)
   9 Co     7.236654    1.733045    1.630040    ( 0.0000,  0.0000,  2.1000)
  10 Ni     8.933037   10.543615    1.716787    ( 0.0000,  0.0000,  1.5000)
  11 Fe     8.954353    1.738965   10.626279    ( 0.0000,  0.0000,  2.0000)
  12 Co    -0.005137    3.682769   10.576427    ( 0.0000,  0.0000,  2.1000)
  13 Co     0.085724    5.424249    1.780091    ( 0.0000,  0.0000,  2.1000)
  14 Fe     1.763053    3.552757    1.917020    ( 0.0000,  0.0000,  2.0000)
  15 Fe     1.906343    5.429239   -0.125405    ( 0.0000,  0.0000,  2.0000)
  16 Fe     3.642877    3.627976    0.057608    ( 0.0000,  0.0000,  2.0000)
  17 Fe     3.462821    5.336095    1.634757    ( 0.0000,  0.0000,  2.0000)
  18 Cr     5.280770    3.553287    1.857654    ( 0.0000,  0.0000,  0.0000)
  19 Co     5.425935    5.126124   -0.005688    ( 0.0000,  0.0000,  2.1000)
  20 Fe     7.133793    3.407461   10.680065    ( 0.0000,  0.0000,  2.0000)
  21 Ni     6.852586    5.418260    2.019208    ( 0.0000,  0.0000,  1.5000)
  22 Co     8.819147    3.663979    1.781910    ( 0.0000,  0.0000,  2.1000)
  23 Cr     8.911491    5.463136    0.281798    ( 0.0000,  0.0000,  0.0000)
  24 Cr    -0.026870    7.302263    0.023502    ( 0.0000,  0.0000,  0.0000)
  25 Ni     0.267991    8.832461    1.828116    ( 0.0000,  0.0000,  1.5000)
  26 Fe     1.730432    7.086536    1.812192    ( 0.0000,  0.0000,  2.0000)
  27 Ni     1.636213    8.869616   10.613346    ( 0.0000,  0.0000,  1.5000)
  28 Co     3.566706    6.998915   -0.142225    ( 0.0000,  0.0000,  2.1000)
  29 Co     3.303163    9.032554    1.613571    ( 0.0000,  0.0000,  2.1000)
  30 Co     5.012493    6.910975    1.696506    ( 0.0000,  0.0000,  2.1000)
  31 Cr     5.058389    8.781293    0.262713    ( 0.0000,  0.0000,  0.0000)
  32 Al     7.208561    7.183867   10.859795    ( 0.0000,  0.0000,  0.0000)
  33 Cr     6.983427    8.899332    1.761739    ( 0.0000,  0.0000,  0.0000)
  34 Cr     8.862835    7.125503    2.033701    ( 0.0000,  0.0000,  0.0000)
  35 Cr     8.842447    8.811770   10.617914    ( 0.0000,  0.0000,  0.0000)
  36 Fe    10.636277   10.742969    3.414374    ( 0.0000,  0.0000,  2.0000)
  37 Co    10.546253    1.749869    5.272832    ( 0.0000,  0.0000,  2.1000)
  38 Cr     1.655488   10.716407    5.330520    ( 0.0000,  0.0000,  0.0000)
  39 Fe     1.780043    1.731817    3.488821    ( 0.0000,  0.0000,  2.0000)
  40 Co     3.555302   10.606991    3.371836    ( 0.0000,  0.0000,  2.1000)
  41 Ni     3.636520    1.770116    5.259671    ( 0.0000,  0.0000,  1.5000)
  42 Ni     5.120692   -0.023158    5.159917    ( 0.0000,  0.0000,  1.5000)
  43 Al     5.377935    1.655991    3.316744    ( 0.0000,  0.0000,  0.0000)
  44 Fe     7.115468   10.757557    3.554994    ( 0.0000,  0.0000,  2.0000)
  45 Co     6.964433    1.794863    5.303345    ( 0.0000,  0.0000,  2.1000)
  46 Fe     8.764371   11.001800    5.313627    ( 0.0000,  0.0000,  2.0000)
  47 Ni     8.705288    1.901282    3.542046    ( 0.0000,  0.0000,  1.5000)
  48 Fe     0.080243    3.525137    3.654808    ( 0.0000,  0.0000,  2.0000)
  49 Fe    10.862376    5.438029    5.256308    ( 0.0000,  0.0000,  2.0000)
  50 Ni     1.872148    3.386233    5.424911    ( 0.0000,  0.0000,  1.5000)
  51 Ni     1.762024    5.289491    3.451634    ( 0.0000,  0.0000,  1.5000)
  52 Cr     3.445623    3.576289    3.658921    ( 0.0000,  0.0000,  0.0000)
  53 Co     3.434579    5.324211    5.332871    ( 0.0000,  0.0000,  2.1000)
  54 Fe     5.307571    3.395903    5.334929    ( 0.0000,  0.0000,  2.0000)
  55 Cr     5.075264    5.422460    3.677714    ( 0.0000,  0.0000,  0.0000)
  56 Co     6.953589    3.491030    3.547728    ( 0.0000,  0.0000,  2.1000)
  57 Fe     6.905293    5.080939    5.455960    ( 0.0000,  0.0000,  2.0000)
  58 Ni     8.644190    3.554236    5.166363    ( 0.0000,  0.0000,  1.5000)
  59 Fe     9.084224    5.361137    3.522777    ( 0.0000,  0.0000,  2.0000)
[...]
  93 Ni     7.021254    5.402671    8.927883    ( 0.0000,  0.0000,  1.5000)
  94 Co     9.027488    3.675178    8.922749    ( 0.0000,  0.0000,  2.1000)
  95 Cr     8.879663    5.273416    7.093603    ( 0.0000,  0.0000,  0.0000)
  96 Fe     0.205187    7.200991    7.119627    ( 0.0000,  0.0000,  2.0000)
  97 Ni     0.013455    8.685402    8.858199    ( 0.0000,  0.0000,  1.5000)
  98 Ni     1.740291    7.076019    8.858248    ( 0.0000,  0.0000,  1.5000)
  99 Fe     1.911737    8.980303    7.120920    ( 0.0000,  0.0000,  2.0000)
 100 Ni     3.417607    7.001300    7.248784    ( 0.0000,  0.0000,  1.5000)
 101 Cr     3.443725    8.713439    8.900616    ( 0.0000,  0.0000,  0.0000)
 102 Cr     5.325936    6.885814    8.774838    ( 0.0000,  0.0000,  0.0000)
 103 Cr     5.299867    8.476636    7.109601    ( 0.0000,  0.0000,  0.0000)
 104 Co     7.263350    7.009815    7.094497    ( 0.0000,  0.0000,  2.1000)
 105 Fe     7.096036    8.745630    9.015974    ( 0.0000,  0.0000,  2.0000)
 106 Cr     8.923944    7.083406    8.639778    ( 0.0000,  0.0000,  0.0000)
 107 Ni     8.748238    8.948277    7.171282    ( 0.0000,  0.0000,  1.5000)

Unit cell:
           periodic     x           y           z      points  spacing
  1. axis:    yes   10.671700    0.000000    0.000000    48     0.2223
  2. axis:    yes    0.000000   10.671700    0.000000    48     0.2223
  3. axis:    yes    0.000000    0.000000   10.671700    48     0.2223

  Lengths:  10.671700  10.671700  10.671700
  Angles:   90.000000  90.000000  90.000000

Effective grid spacing dv^(1/3) = 0.2223

     iter     time        total  log10-change:  magmom
                         energy  eigst   dens
iter:   1 20:06:51 -1042.278802                  +143.7779
iter:   2 20:08:16  -922.968609  -0.24  -1.20    +80.7838
iter:   3 20:09:42  -907.319597  -0.90  -1.23    +67.9994
iter:   4 20:11:07  -886.185751  -1.34  -1.29    +63.7326
iter:   5 20:12:33  -873.117394  -1.61  -1.32    +60.6273
iter:   6 20:13:58  -871.467651  -1.24  -1.39    +60.7671
iter:   7 20:15:24  -873.587660  -1.25  -1.49    +60.0696
iter:   8 20:16:49  -857.618228  -1.72  -1.54    +59.3035
iter:   9 20:18:15  -855.477525  -2.15  -1.74    +60.0273
iter:  10 20:19:41  -856.051370  -2.51  -1.83    +61.1316
iter:  11 20:21:06  -856.308795  -2.52  -1.84    +62.4148
iter:  12 20:22:32  -857.380106  -2.43  -1.89    +63.5049
iter:  13 20:23:57  -858.064828  -2.39  -1.92    +64.1296
iter:  14 20:25:23  -856.669184  -2.43  -1.95    +64.7577
iter:  15 20:26:48  -856.615588  -2.88  -2.07    +65.5997
iter:  16 20:28:13  -856.662910c -2.95  -2.13    +66.1083
iter:  17 20:29:39  -856.542193  -3.15  -2.16    +66.6654
iter:  18 20:31:04  -856.446384  -3.22  -2.21    +67.1997
iter:  19 20:32:30  -856.540494c -3.11  -2.30    +67.5809
iter:  20 20:33:55  -856.391785  -3.41  -2.33    +67.9020
iter:  21 20:35:21  -856.383266  -3.45  -2.41    +68.2559
iter:  22 20:36:46  -856.399206c -3.44  -2.46    +68.4481
iter:  23 20:38:12  -856.395972c -3.59  -2.50    +68.7328
iter:  24 20:39:38  -856.340571c -3.56  -2.53    +68.9024
iter:  25 20:41:03  -856.356910c -3.79  -2.62    +69.0533
iter:  26 20:42:29  -856.385892c -3.78  -2.65    +69.2548
iter:  27 20:43:54  -856.378302c -3.91  -2.65    +69.3351
iter:  28 20:45:20  -856.368253c -4.03  -2.69    +69.4392
iter:  29 20:46:45  -856.384954c -4.18  -2.76    +69.6048
iter:  30 20:48:11  -856.383808c -4.43  -2.77    +69.6365
iter:  31 20:49:37  -856.400963c -4.33  -2.83    +69.7630
iter:  32 20:51:02  -856.412886c -4.48  -2.86    +69.8093
iter:  33 20:52:28  -856.412321c -4.60  -2.88    +69.8508
iter:  34 20:53:53  -856.424288c -4.58  -2.95    +69.9174
iter:  35 20:55:19  -856.438542c -4.64  -2.99    +69.9867
iter:  36 20:56:44  -856.441029c -4.66  -3.00    +70.0027
iter:  37 20:58:10  -856.454635c -4.61  -3.07    +70.0554
iter:  38 20:59:35  -856.461580c -4.69  -3.08    +70.0784
iter:  39 21:01:01  -856.466236c -4.77  -3.11    +70.0962
iter:  40 21:02:26  -856.475631c -4.80  -3.17    +70.1284
iter:  41 21:03:52  -856.482815c -4.81  -3.19    +70.1389
iter:  42 21:05:17  -856.487446c -4.93  -3.22    +70.1423
iter:  43 21:06:43  -856.493576c -4.98  -3.27    +70.1694
iter:  44 21:08:09  -856.500695c -5.00  -3.33    +70.1730
iter:  45 21:09:34  -856.510900c -4.91  -3.36    +70.1895
iter:  46 21:11:00  -856.515634c -5.11  -3.39    +70.1989
iter:  47 21:12:25  -856.522165c -5.10  -3.42    +70.2031
iter:  48 21:13:51  -856.528309c -5.11  -3.45    +70.1935
iter:  49 21:15:17  -856.532370c -5.27  -3.47    +70.2098
iter:  50 21:16:42  -856.539781c -5.05  -3.52    +70.1971
iter:  51 21:18:08  -856.547655c -4.91  -3.53    +70.1993
iter:  52 21:19:33  -856.556843c -4.79  -3.54    +70.1993
iter:  53 21:20:59  -856.586874c -3.79  -3.51    +70.2020
iter:  54 21:22:25  -856.588107c -4.75  -3.27    +70.2210
iter:  55 21:23:50  -856.588784c -5.21  -3.26    +70.2362
iter:  56 21:25:16  -856.586860c -5.37  -3.25    +70.2431
iter:  57 21:26:42  -856.584887c -5.42  -3.27    +70.2344
iter:  58 21:28:07  -856.582191c -4.39  -3.29    +70.2268
iter:  59 21:29:33  -856.573434c -5.10  -3.25    +70.2033
iter:  60 21:30:59  -856.575678c -5.27  -3.52    +70.1240
iter:  61 21:32:25  -856.573907c -5.64  -3.46    +70.0950
iter:  62 21:33:51  -856.574522c -5.72  -3.57    +70.0420
iter:  63 21:35:17  -856.574216c -5.67  -3.57    +70.0194
iter:  64 21:36:43  -856.574349c -5.76  -3.62    +69.9996
iter:  65 21:38:09  -856.574466c -5.72  -3.71    +69.9881
iter:  66 21:39:35  -856.573452c -5.83  -3.67    +69.9708
iter:  67 21:41:00  -856.573989c -5.98  -3.90    +69.9540
iter:  68 21:42:26  -856.573493c -6.17  -3.83    +69.9479
iter:  69 21:43:52  -856.573447c -6.36  -3.95    +69.9354
iter:  70 21:45:17  -856.573079c -6.67  -3.98    +69.9288
iter:  71 21:46:43  -856.573048c -6.70  -4.08c   +69.9191
iter:  72 21:48:09  -856.572941c -6.81  -4.05c   +69.9142
iter:  73 21:49:34  -856.572854c -7.17  -4.10c   +69.9091
iter:  74 21:51:00  -856.572665c -6.74  -4.10c   +69.8995
iter:  75 21:52:26  -856.572210c -6.06  -4.10c   +69.8825
iter:  76 21:53:52  -856.571821c -6.32  -4.01c   +69.8716
iter:  77 21:55:17  -856.572005c -6.56  -3.99    +69.8703
iter:  78 21:56:43  -856.571580c -6.36  -3.99    +69.8699
iter:  79 21:58:09  -856.571568c -6.90  -4.33c   +69.8751
iter:  80 21:59:35  -856.571688c -7.06  -4.37c   +69.8815
iter:  81 22:01:01  -856.571652c -7.30  -4.43c   +69.8825
iter:  82 22:02:27  -856.571719c -7.62c -4.47c   +69.8902

Converged after 82 iterations.

Dipole moment: (-28.392372, -30.282727, -6.802302) |e|*Ang

Total magnetic moment: (0.000000, 0.000000, 69.890243)
Local magnetic moments:
   0 Cr ( 0.000000,  0.000000, -0.411930)
   1 Al ( 0.000000,  0.000000, -0.048396)
   2 Cr ( 0.000000,  0.000000, -0.477646)
   3 Co ( 0.000000,  0.000000,  0.927792)
   4 Fe ( 0.000000,  0.000000,  1.495948)
   5 Cr ( 0.000000,  0.000000, -1.068898)
   6 Ni ( 0.000000,  0.000000,  0.187851)
   7 Fe ( 0.000000,  0.000000,  1.709216)
   8 Cr ( 0.000000,  0.000000, -1.057911)
   9 Co ( 0.000000,  0.000000,  1.309837)
  10 Ni ( 0.000000,  0.000000,  0.212421)
  11 Fe ( 0.000000,  0.000000,  2.270247)
  12 Co ( 0.000000,  0.000000,  1.442768)
  13 Co ( 0.000000,  0.000000,  0.913874)
  14 Fe ( 0.000000,  0.000000,  1.920709)
  15 Fe ( 0.000000,  0.000000,  2.425466)
  16 Fe ( 0.000000,  0.000000,  1.984529)
  17 Fe ( 0.000000,  0.000000,  1.748805)
  18 Cr ( 0.000000,  0.000000, -1.133912)
  19 Co ( 0.000000,  0.000000,  1.306016)
  20 Fe ( 0.000000,  0.000000,  2.403865)
  21 Ni ( 0.000000,  0.000000,  0.251673)
  22 Co ( 0.000000,  0.000000,  1.024627)
  23 Cr ( 0.000000,  0.000000,  1.128873)
  24 Cr ( 0.000000,  0.000000, -1.102962)
  25 Ni ( 0.000000,  0.000000,  0.148389)
  26 Fe ( 0.000000,  0.000000,  2.113816)
  27 Ni ( 0.000000,  0.000000,  0.242081)
  28 Co ( 0.000000,  0.000000,  1.031096)
  29 Co ( 0.000000,  0.000000,  0.826848)
  30 Co ( 0.000000,  0.000000,  1.058343)
  31 Cr ( 0.000000,  0.000000,  0.919727)
  32 Al ( 0.000000,  0.000000, -0.005475)
  33 Cr ( 0.000000,  0.000000, -1.376337)
  34 Cr ( 0.000000,  0.000000, -0.938892)
  35 Cr ( 0.000000,  0.000000,  1.058883)
  36 Fe ( 0.000000,  0.000000,  2.083604)
  37 Co ( 0.000000,  0.000000,  0.931027)
  38 Cr ( 0.000000,  0.000000, -0.813123)
  39 Fe ( 0.000000,  0.000000,  1.786216)
  40 Co ( 0.000000,  0.000000,  1.188169)
  41 Ni ( 0.000000,  0.000000,  0.239281)
  42 Ni ( 0.000000,  0.000000,  0.324829)
  43 Al ( 0.000000,  0.000000, -0.023307)
  44 Fe ( 0.000000,  0.000000,  2.187737)
  45 Co ( 0.000000,  0.000000,  0.999399)
  46 Fe ( 0.000000,  0.000000,  1.749309)
  47 Ni ( 0.000000,  0.000000,  0.477540)
  48 Fe ( 0.000000,  0.000000,  2.177307)
  49 Fe ( 0.000000,  0.000000,  2.316674)
  50 Ni ( 0.000000,  0.000000,  0.324466)
  51 Ni ( 0.000000,  0.000000,  0.364013)
  52 Cr ( 0.000000,  0.000000, -0.654051)
  53 Co ( 0.000000,  0.000000,  1.267530)
  54 Fe ( 0.000000,  0.000000,  1.910422)
  55 Cr ( 0.000000,  0.000000, -1.241479)
  56 Co ( 0.000000,  0.000000,  1.148776)
  57 Fe ( 0.000000,  0.000000,  2.422858)
  58 Ni ( 0.000000,  0.000000,  0.474122)
  59 Fe ( 0.000000,  0.000000,  2.182093)
[...]
  93 Ni ( 0.000000,  0.000000,  0.152123)
  94 Co ( 0.000000,  0.000000,  1.242008)
  95 Cr ( 0.000000,  0.000000, -1.681238)
  96 Fe ( 0.000000,  0.000000,  2.069102)
  97 Ni ( 0.000000,  0.000000,  0.145115)
  98 Ni ( 0.000000,  0.000000,  0.315136)
  99 Fe ( 0.000000,  0.000000,  1.152768)
 100 Ni ( 0.000000,  0.000000,  0.346242)
 101 Cr ( 0.000000,  0.000000, -1.307634)
 102 Cr ( 0.000000,  0.000000, -1.065908)
 103 Cr ( 0.000000,  0.000000,  1.522133)
 104 Co ( 0.000000,  0.000000,  0.648731)
 105 Fe ( 0.000000,  0.000000,  1.431678)
 106 Cr ( 0.000000,  0.000000, -0.612056)
 107 Ni ( 0.000000,  0.000000,  0.241177)

Energy contributions relative to reference atoms: (reference = -3699400.456887)

Kinetic:       +353.272179
Potential:     -362.377533
External:        +0.000000
XC:            -882.800938
Entropy (-ST):   -4.544556
Local:          +37.606851
Free energy:   -858.843997
Extrapolated:  -856.571719

Spin contamination: 23.932004 electrons
Showing only first 2 kpts
                      Up                     Down
 Kpt  Band  Eigenvalues  Occupancy  Eigenvalues  Occupancy
  0   508      9.64246    0.99548     10.57736    0.01880
  0   509      9.64961    0.99514     10.59426    0.01592
  0   510      9.66421    0.99438     10.60430    0.01442
  0   511      9.67775    0.99358     10.61781    0.01262

  1   508      9.63830    0.99566     10.58128    0.01809
  1   509      9.64448    0.99539     10.59842    0.01528
  1   510      9.65563    0.99484     10.61534    0.01294
  1   511      9.66340    0.99443     10.62334    0.01195

Fermi level: 10.18187

No gap

Forces in eV/Ang:
  0 Cr    0.63945   -0.58938   -1.59593
  1 Al   -0.26585   -0.39871   -2.12298
  2 Cr    0.40706    0.01746    0.18454
  3 Co   -0.55724    0.55582   -0.97336
  4 Fe    0.29136   -1.05836    0.28563
  5 Cr   -0.47192    0.73363    0.20526
  6 Ni    0.00942   -1.92973   -0.88902
  7 Fe    0.22409    0.00275    0.12289
  8 Cr    0.94890    0.53247    1.21661
  9 Co   -0.13092   -0.04794    0.28745
 10 Ni   -1.14471    0.33600    0.32026
 11 Fe   -0.25464    0.06916   -0.29218
 12 Co    0.27303   -0.28643    0.80241
 13 Co   -0.28153   -0.75222   -0.31777
 14 Fe    0.37292    0.23251   -1.54156
 15 Fe   -2.00683   -1.26047    0.21187
 16 Fe   -0.85970   -0.84618   -0.67548
 17 Fe   -0.03681   -0.76777    1.53816
 18 Cr    0.02295    0.86113   -0.85541
 19 Co   -0.50720    1.77398    1.20072
 20 Fe    0.42064    1.40350    0.00611
 21 Ni    1.33669   -0.11893   -0.48578
 22 Co   -0.12472    0.22870    0.07722
 23 Cr    0.60166   -0.50433   -0.93021
 24 Cr   -0.62611   -2.04304    0.33294
 25 Ni   -2.84894    0.57964   -0.09584
 26 Fe    1.09884    0.00092   -0.43784
 27 Ni    1.31849    0.04548   -0.00014
 28 Co    0.13768    0.10378   -0.02240
 29 Co    0.65349   -0.90071    0.67478
 30 Co    1.32808    1.19403    0.36680
 31 Cr    1.21961    0.72550   -0.83950
 32 Al   -2.56261   -2.39439   -1.17031
 33 Cr    0.13262    0.99428    1.67445
 34 Cr    0.38677    0.54841   -0.11160
 35 Cr    2.07035    0.96967    0.56583
 36 Fe    0.23745   -0.68764    1.45642
 37 Co    0.63814   -0.66227   -0.68486
 38 Cr    0.81137    0.43056   -0.88616
 39 Fe    0.71696   -0.26032    0.94347
 40 Co   -0.64569    0.09301    0.51563
 41 Ni   -1.02178   -0.98161   -0.16265
 42 Ni    1.64628   -0.20438    0.99084
 43 Al   -0.56926    0.61087    2.34384
 44 Fe    0.18651   -1.10229   -0.52003
 45 Co    0.04673    0.31790   -0.31475
 46 Fe    0.96617   -1.82055    0.34987
 47 Ni    0.66413   -0.62781   -0.30096
 48 Fe   -0.78126    1.04638    0.92121
 49 Fe   -0.91005   -1.04751    1.12399
 50 Ni   -1.11891    0.88654   -0.07217
 51 Ni    0.84134    0.63990    1.06431
 52 Cr    0.53886   -0.19890   -0.89408
 53 Co    0.02296    0.01851    0.38302
 54 Fe   -0.28983    1.30639   -0.68942
 55 Cr    0.61352   -0.90158   -0.78032
 56 Co   -0.07506    0.88055   -0.78507
 57 Fe    0.50861    2.09216   -1.39295
 58 Ni    1.30264    0.26411    1.28012
 59 Fe   -1.38366   -0.13105    0.24064
[...]
 93 Ni    2.39658   -0.11681    0.57496
 94 Co   -1.06956   -0.85953   -0.26912
 95 Cr    0.51681   -0.31319   -0.86695
 96 Fe   -1.69308   -0.54832   -0.78986
 97 Ni   -0.23998    2.20218   -0.36869
 98 Ni    0.15000   -0.08566    0.92510
 99 Fe   -0.14032   -0.24926    0.94291
100 Ni    0.90502    0.33494   -1.43706
101 Cr   -0.06391    1.01880    0.21177
102 Cr   -0.24085    1.81774    1.00026
103 Cr   -0.52723    1.73470    1.07888
104 Co   -1.16238    0.23517   -0.44189
105 Fe   -0.54951    0.43496   -1.42585
106 Cr   -0.50304    0.13078    0.92930
107 Ni    0.64474    0.09079   -1.10934

Date: Thu Apr 13 22:02:45 2023