User:   c.zeng@d0096
Date:   Thu Apr 13 13:39:35 2023
Arch:   x86_64
Pid:    253155
CWD:    /home/c.zeng/projects/hea-corrosion/hea-mlp/data-curation/bulk-md/dft-jobs/12
Python: 3.8.1
gpaw:   /home/c.zeng/usr/installs/gpaw/source/gpaw-22.8.0/gpaw
_gpaw:  /home/c.zeng/usr/installs/gpaw/source/gpaw-22.8.0/
        _gpaw.cpython-38-x86_64-linux-gnu.so
ase:    /home/c.zeng/.local/lib/python3.8/site-packages/ase-3.22.1-py3.8.egg/ase (version 3.22.1)
numpy:  /shared/centos7/python/3.8.1/lib/python3.8/site-packages/numpy (version 1.17.4)
scipy:  /shared/centos7/python/3.8.1/lib/python3.8/site-packages/scipy (version 1.4.1)
units:  Angstrom and eV
cores: 28
OpenMP: False
OMP_NUM_THREADS: 1

Input parameters:
  convergence: {energy: 0.0001}
  kpts: [2 2 2]
  maxiter: 666
  mode: {ecut: 350.0,
         name: pw}
  occupations: {fixmagmom: False,
                name: fermi-dirac,
                width: 0.1}
  spinpol: True
  xc: PBE

System changes: positions, numbers, cell, pbc, initial_charges, initial_magmoms

Initialize ...

species:
  Co:
    name: Cobalt
    id: 339d20d5b0b93d2de9531a1bee871d91
    Z: 27.0
    valence: 9
    core: 18
    charge: 0.0
    file: /home/c.zeng/usr/data/gpaw-setups-0.9.20000/Co.PBE.gz
    compensation charges: {type: gauss,
                           rc: 0.32,
                           lmax: 2}
    cutoffs: {filter: 1.87,
              core: 2.55}
    valence states:
      #              energy  rcut
      - 4s(2.00)    -5.469   1.005
      - 4p(0.00)    -1.277   1.058
      - 3d(7.00)    -8.205   1.005
      -  s          21.742   1.005
      -  p          25.934   1.058
      -  d          19.007   1.005

    # Using partial waves for Co as LCAO basis

  Fe:
    name: Iron
    id: 37abbd8d6c3c35915a9b583b742da910
    Z: 26.0
    valence: 8
    core: 18
    charge: 0.0
    file: /home/c.zeng/usr/data/gpaw-setups-0.9.20000/Fe.PBE.gz
    compensation charges: {type: gauss,
                           rc: 0.33,
                           lmax: 2}
    cutoffs: {filter: 2.06,
              core: 2.67}
    valence states:
      #              energy  rcut
      - 4s(2.00)    -5.291   1.164
      - 4p(0.00)    -1.326   1.058
      - 3d(6.00)    -7.505   1.058
      -  s          21.920   1.164
      -  p          25.885   1.058
      -  d          19.706   1.058

[...]

  Cr:
    name: Chromium
    id: 33f258bda2ca9f93018e70263a35547b
    Z: 24.0
    valence: 6
    core: 18
    charge: 0.0
    file: /home/c.zeng/usr/data/gpaw-setups-0.9.20000/Cr.PBE.gz
    compensation charges: {type: gauss,
                           rc: 0.35,
                           lmax: 2}
    cutoffs: {filter: 2.14,
              core: 3.04}
    valence states:
      #              energy  rcut
      - 4s(1.00)    -4.007   1.164
      - 4p(0.00)    -0.989   1.217
      - 3d(5.00)    -2.913   1.111
      -  s          23.205   1.164
      -  p          26.223   1.217
      -  d          24.299   1.111

[...]

  Ni:
    name: Nickel
    id: 0d9f38a9d6e76a2886f07bb4381f212b
    Z: 28.0
    valence: 16
    core: 12
    charge: 0.0
    file: /home/c.zeng/usr/data/gpaw-setups-0.9.20000/Ni.PBE.gz
    compensation charges: {type: gauss,
                           rc: 0.36,
                           lmax: 2}
    cutoffs: {filter: 2.14,
              core: 1.98}
    valence states:
      #              energy  rcut
      - 4s(2.00)    -5.642   1.164
      - 3p(6.00)   -71.394   1.207
      - 4p(0.00)    -1.226   1.207
      - 3d(8.00)    -8.875   1.138
      -  s          21.570   1.164
      -  d          18.337   1.138

    # Using partial waves for Ni as LCAO basis

Reference energy: -3846758.590871  # eV

Spin-polarized calculation.
Magnetic moment: 151.200000

Convergence criteria:
 Maximum [total energy] change in last 3 cyles: 0.0001 eV / electron
 Maximum integral of absolute [dens]ity change: 0.0001 electrons / valence electron
 Maximum integral of absolute [eigenst]ate change: 4e-08 eV^2 / valence electron
 Maximum number of scf [iter]ations: 666
 (Square brackets indicate name in SCF output, whereas a 'c' in
 the SCF output indicates the quantity has converged.)

Symmetries present (total): 1

  ( 1  0  0)
  ( 0  1  0)
  ( 0  0  1)

8 k-points: 2 x 2 x 2 Monkhorst-Pack grid
4 k-points in the irreducible part of the Brillouin zone
       k-points in crystal coordinates                weights
   0:     0.25000000   -0.25000000   -0.25000000          2/8
   1:     0.25000000   -0.25000000    0.25000000          2/8
   2:     0.25000000    0.25000000   -0.25000000          2/8
   3:     0.25000000    0.25000000    0.25000000          2/8

Wave functions: Plane wave expansion
  Cutoff energy: 350.000 eV
  Number of coefficients (min, max): 17755, 17755
  Pulay-stress correction: 0.000000 eV/Ang^3 (de/decut=0.000000)
  Using FFTW library
  ScaLapack parameters: grid=1x1, blocksize=None
  Wavefunction extrapolation:
    Improved wavefunction reuse through dual PAW basis

Occupation numbers: Fermi-Dirac:
  width: 0.1000  # eV

Eigensolver
   Davidson(niter=2)

Densities:
  Coarse grid: 48*48*48 grid
  Fine grid: 96*96*96 grid
  Total Charge: 0.000000

Density mixing:
  Method: difference
  Backend: pulay
  Linear mixing parameter: 0.05
  old densities: 5
  Damping of long wavelength oscillations: 50

Hamiltonian:
  XC and Coulomb potentials evaluated on a 96*96*96 grid
  Using the PBE Exchange-Correlation functional
  External potential:
    NoExternalPotential

XC parameters: PBE with 2 nearest neighbor stencil

Total number of cores used: 28
Parallelization over k-points: 4
Domain decomposition: 7 x 1 x 1

Number of atoms: 108
Number of atomic orbitals: 1053
Number of bands in calculation: 727
Number of valence electrons: 1053
Bands to converge: occupied

... initialized

Initializing position-dependent things.

Density initialized from atomic densities
Creating initial wave functions:
  727 bands from LCAO basis set

       /|   Cr      Co            |
      / |            FeCr     Co  |
     / Co               Co        |
    /   Co      CCre        Cr    |
   /    | Fe                  Co  |
  /    Fe  CrFe     CoNi    Cr    |
 Co    Cr     CoNi  Cr NiNi   NNi |
 |Co   FeNiCo    Co Fe    Cr      |
 |   Fe FeFeCr  Fe CNi     CrCr   |
 |    Cr|   NFeCr   NFe Ni  NiNi  |
 |    NFeCr  FeFFeNi   FeCo   Ni  |
 |     CoCoCo   CNi     NiNiNi    |
 |    Cr.-Cr-Co-----Fei-----NCr---.
 |   Fe/     CoFe  Co NiCo  Cr   /
 |    Fe      Fe Ni      Co     /
 |   /  Cre       Fe      Cr   /
 |  /      Cr       Nio     Co/
 | /Cr      NiCo             /
 |/             Cr      Co  /
 *--------Cr------Fe-------*

Positions:
   0 Co     0.025113    0.087181   10.550925    ( 0.0000,  0.0000,  2.1000)
   1 Co    -0.127938    1.914624    1.566020    ( 0.0000,  0.0000,  2.1000)
   2 Fe     1.999465   -0.149694    1.676527    ( 0.0000,  0.0000,  2.0000)
   3 Fe     1.804904    1.650692   10.482493    ( 0.0000,  0.0000,  2.0000)
   4 Cr     3.790561    0.012756   10.796929    ( 0.0000,  0.0000,  0.0000)
   5 Cr     3.623498    1.801478    1.790172    ( 0.0000,  0.0000,  0.0000)
   6 Co     5.214267   10.745967    1.780781    ( 0.0000,  0.0000,  2.1000)
   7 Cr     5.582238    1.811164   10.805589    ( 0.0000,  0.0000,  0.0000)
   8 Fe     7.085675    0.176268   10.698052    ( 0.0000,  0.0000,  2.0000)
   9 Ni     7.154624    1.685948    1.863705    ( 0.0000,  0.0000,  1.5000)
  10 Ni     8.964995   -0.017927    1.536768    ( 0.0000,  0.0000,  1.5000)
  11 Co     8.750585    2.134197   10.672670    ( 0.0000,  0.0000,  2.1000)
  12 Cr    10.720484    3.574655    0.061488    ( 0.0000,  0.0000,  0.0000)
  13 Fe    10.793562    5.250477    1.747040    ( 0.0000,  0.0000,  2.0000)
  14 Cr     2.082958    3.587011    1.674463    ( 0.0000,  0.0000,  0.0000)
  15 Fe     1.789159    5.295026   10.641250    ( 0.0000,  0.0000,  2.0000)
  16 Ni     3.775087    3.407951   10.712734    ( 0.0000,  0.0000,  1.5000)
  17 Co     3.472285    5.396784    1.848874    ( 0.0000,  0.0000,  2.1000)
  18 Ni     5.494403    3.691813    1.814793    ( 0.0000,  0.0000,  1.5000)
  19 Cr     5.169536    5.201561   10.240448    ( 0.0000,  0.0000,  0.0000)
  20 Co     7.145478    3.721534   10.773897    ( 0.0000,  0.0000,  2.1000)
  21 Ni     7.267386    5.274926    1.941764    ( 0.0000,  0.0000,  1.5000)
  22 Co     8.767150    3.503333    1.902146    ( 0.0000,  0.0000,  2.1000)
  23 Cr     8.718524    5.387037    0.119472    ( 0.0000,  0.0000,  0.0000)
  24 Fe     0.265676    7.161808   10.861035    ( 0.0000,  0.0000,  2.0000)
  25 Co    10.713875    9.123995    1.770457    ( 0.0000,  0.0000,  2.1000)
  26 Cr     1.768720    7.146507    2.035143    ( 0.0000,  0.0000,  0.0000)
  27 Cr     1.986236    8.998246   10.610743    ( 0.0000,  0.0000,  0.0000)
  28 Fe     3.590764    7.102212   10.632528    ( 0.0000,  0.0000,  2.0000)
  29 Cr     3.967749    8.674233    1.815255    ( 0.0000,  0.0000,  0.0000)
  30 Co     5.509038    6.838153    1.475738    ( 0.0000,  0.0000,  2.1000)
  31 Co     5.343119    8.826555   10.505427    ( 0.0000,  0.0000,  2.1000)
  32 Cr     7.125202    7.367572   10.455988    ( 0.0000,  0.0000,  0.0000)
  33 Ni     7.042050    9.003766    1.807614    ( 0.0000,  0.0000,  1.5000)
  34 Ni     8.977223    7.468880    1.890490    ( 0.0000,  0.0000,  1.5000)
  35 Cr     8.836247    8.834653   10.740385    ( 0.0000,  0.0000,  0.0000)
  36 Fe     0.162386   10.507654    3.458926    ( 0.0000,  0.0000,  2.0000)
  37 Ni    10.601107    1.722159    5.342425    ( 0.0000,  0.0000,  1.5000)
  38 Cr     1.841403    0.246421    5.180128    ( 0.0000,  0.0000,  0.0000)
  39 Fe     1.589898    1.610205    3.342291    ( 0.0000,  0.0000,  2.0000)
  40 Fe     3.440665   -0.002149    3.507838    ( 0.0000,  0.0000,  2.0000)
  41 Co     3.530573    1.842561    5.295886    ( 0.0000,  0.0000,  2.1000)
  42 Cr     5.008282   -0.089226    5.327175    ( 0.0000,  0.0000,  0.0000)
  43 Fe     5.286406    1.875551    3.532664    ( 0.0000,  0.0000,  2.0000)
  44 Fe     6.968954    0.009302    3.534680    ( 0.0000,  0.0000,  2.0000)
  45 Fe     7.105779    1.693243    5.190201    ( 0.0000,  0.0000,  2.0000)
  46 Ni     8.915552   -0.126832    5.320814    ( 0.0000,  0.0000,  1.5000)
  47 Co     8.980879    1.832638    3.704022    ( 0.0000,  0.0000,  2.1000)
  48 Cr    -0.108984    3.548931    3.483426    ( 0.0000,  0.0000,  0.0000)
  49 Ni    -0.008014    5.176674    5.143993    ( 0.0000,  0.0000,  1.5000)
  50 Fe     1.679609    3.515313    5.299663    ( 0.0000,  0.0000,  2.0000)
  51 Co     1.681883    5.132871    3.459690    ( 0.0000,  0.0000,  2.1000)
  52 Co     3.775405    3.498595    3.453235    ( 0.0000,  0.0000,  2.1000)
  53 Fe     3.557519    5.182153    5.310531    ( 0.0000,  0.0000,  2.0000)
  54 Fe     5.311894    3.505175    5.340303    ( 0.0000,  0.0000,  2.0000)
  55 Ni     5.180294    5.449415    3.519943    ( 0.0000,  0.0000,  1.5000)
  56 Ni     7.067989    3.509768    3.518668    ( 0.0000,  0.0000,  1.5000)
  57 Fe     6.903755    5.319357    5.222100    ( 0.0000,  0.0000,  2.0000)
  58 Co     8.737385    3.596270    5.413407    ( 0.0000,  0.0000,  2.1000)
  59 Ni     8.900677    5.432927    3.476827    ( 0.0000,  0.0000,  1.5000)
[...]
  93 Ni     7.133635    4.929776    8.717093    ( 0.0000,  0.0000,  1.5000)
  94 Ni     8.799769    3.439955    8.707963    ( 0.0000,  0.0000,  1.5000)
  95 Cr     8.717677    5.675806    7.029466    ( 0.0000,  0.0000,  0.0000)
  96 Ni    -0.078095    7.087240    7.155368    ( 0.0000,  0.0000,  1.5000)
  97 Co     0.179700    8.889192    8.994254    ( 0.0000,  0.0000,  2.1000)
  98 Fe     1.827489    7.085773    8.621578    ( 0.0000,  0.0000,  2.0000)
  99 Cr     1.596841    8.890762    7.030251    ( 0.0000,  0.0000,  0.0000)
 100 Co     3.448693    6.695883    7.071064    ( 0.0000,  0.0000,  2.1000)
 101 Cr     3.611635    9.072368    8.453600    ( 0.0000,  0.0000,  0.0000)
 102 Fe     5.184489    7.229171    8.846532    ( 0.0000,  0.0000,  2.0000)
 103 Co     5.266239    8.890621    6.924487    ( 0.0000,  0.0000,  2.1000)
 104 Ni     7.018305    7.047907    7.153483    ( 0.0000,  0.0000,  1.5000)
 105 Co     7.098630    8.887213    8.785512    ( 0.0000,  0.0000,  2.1000)
 106 Cr     8.957376    7.038126    9.103528    ( 0.0000,  0.0000,  0.0000)
 107 Cr     8.793307    8.914258    6.952004    ( 0.0000,  0.0000,  0.0000)

Unit cell:
           periodic     x           y           z      points  spacing
  1. axis:    yes   10.614300    0.000000    0.000000    48     0.2211
  2. axis:    yes    0.000000   10.614300    0.000000    48     0.2211
  3. axis:    yes    0.000000    0.000000   10.614300    48     0.2211

  Lengths:  10.614300  10.614300  10.614300
  Angles:   90.000000  90.000000  90.000000

Effective grid spacing dv^(1/3) = 0.2211

     iter     time        total  log10-change:  magmom
                         energy  eigst   dens
iter:   1 13:43:20 -1063.217716                  +151.4734
iter:   2 13:44:37  -933.899377  -0.30  -1.21    +85.4482
iter:   3 13:45:54  -923.904895  -0.94  -1.25    +68.7231
iter:   4 13:47:11  -916.739663  -1.22  -1.31    +64.5968
iter:   5 13:48:28  -893.203808  -1.59  -1.29    +58.6815
iter:   6 13:49:45  -890.313000  -1.37  -1.39    +58.1746
iter:   7 13:51:02  -902.582069  -1.16  -1.48    +57.1855
iter:   8 13:52:19  -871.874164  -1.62  -1.50    +55.0275
iter:   9 13:53:36  -872.167903  -2.24  -1.82    +56.3161
iter:  10 13:54:53  -873.139182  -2.34  -1.84    +58.0257
iter:  11 13:56:10  -872.322604  -2.65  -1.86    +59.0604
iter:  12 13:57:27  -873.697640  -2.56  -1.91    +60.7716
iter:  13 13:58:44  -874.267902  -2.47  -1.93    +61.3894
iter:  14 14:00:01  -873.973039  -2.45  -1.99    +62.1018
iter:  15 14:01:18  -873.674380  -2.62  -2.06    +62.6797
iter:  16 14:02:35  -873.801828  -2.73  -2.14    +63.1026
iter:  17 14:03:52  -873.379535  -2.94  -2.16    +63.7436
iter:  18 14:05:09  -873.455851  -3.01  -2.23    +64.3367
iter:  19 14:06:26  -873.370773c -3.18  -2.26    +64.6913
iter:  20 14:07:43  -873.351360c -3.28  -2.29    +64.9284
iter:  21 14:09:00  -873.398842c -3.22  -2.35    +65.1659
iter:  22 14:10:17  -873.347416c -3.32  -2.34    +65.5999
iter:  23 14:11:34  -873.541202  -3.17  -2.42    +65.7046
iter:  24 14:12:51  -873.365877  -3.31  -2.36    +65.7890
iter:  25 14:14:08  -873.472041  -3.24  -2.48    +65.8937
iter:  26 14:15:25  -873.310057  -3.44  -2.46    +66.1068
iter:  27 14:16:42  -873.291153  -3.59  -2.55    +66.3109
iter:  28 14:17:59  -873.230220c -3.90  -2.57    +66.2517
iter:  29 14:19:16  -873.226176c -3.89  -2.65    +66.2929
iter:  30 14:20:33  -873.188997c -4.27  -2.65    +66.3433
iter:  31 14:21:50  -873.237589c -4.23  -2.72    +66.4706
iter:  32 14:23:07  -873.266177c -4.09  -2.71    +66.4198
iter:  33 14:24:24  -873.297941c -3.89  -2.71    +66.3526
iter:  34 14:25:41  -873.274695c -3.96  -2.68    +66.4478
iter:  35 14:26:58  -873.324672c -3.84  -2.73    +66.4757
iter:  36 14:28:15  -873.273993c -4.03  -2.70    +66.4376
iter:  37 14:29:32  -873.244116c -4.30  -2.79    +66.3039
iter:  38 14:30:49  -873.227822c -4.54  -2.84    +66.3179
iter:  39 14:32:06  -873.235873c -4.94  -2.90    +66.3445
iter:  40 14:33:23  -873.240903c -4.75  -2.92    +66.2974
iter:  41 14:34:40  -873.265127c -4.56  -2.91    +66.2823
iter:  42 14:35:57  -873.276731c -4.19  -2.90    +66.2629
iter:  43 14:37:14  -873.306441c -4.19  -2.87    +66.2939
iter:  44 14:38:31  -873.302045c -4.09  -2.87    +66.2501
iter:  45 14:39:48  -873.274397c -4.33  -2.88    +66.1349
iter:  46 14:41:05  -873.253565c -4.45  -2.96    +66.1641
iter:  47 14:42:22  -873.249254c -5.14  -3.04    +66.1555
iter:  48 14:43:39  -873.254771c -5.06  -3.13    +66.1391
iter:  49 14:44:56  -873.252222c -5.17  -3.14    +66.1010
iter:  50 14:46:13  -873.266117c -4.80  -3.15    +66.0901
iter:  51 14:47:30  -873.266286c -4.85  -3.12    +66.0938
iter:  52 14:48:47  -873.287842c -4.48  -3.17    +66.0329
iter:  53 14:50:04  -873.267438c -4.69  -3.03    +66.0116
iter:  54 14:51:21  -873.261969c -4.75  -3.18    +65.9807
iter:  55 14:52:38  -873.261886c -5.12  -3.21    +66.0025
iter:  56 14:53:55  -873.260021c -5.50  -3.33    +65.9769
iter:  57 14:55:12  -873.259722c -5.88  -3.39    +65.9453
iter:  58 14:56:29  -873.262148c -5.71  -3.42    +65.9286
iter:  59 14:57:46  -873.263065c -5.81  -3.41    +65.9191
iter:  60 14:59:03  -873.270085c -5.25  -3.44    +65.9024
iter:  61 15:00:20  -873.270519c -4.96  -3.38    +65.8835
iter:  62 15:01:37  -873.270193c -5.01  -3.29    +65.8856
iter:  63 15:02:55  -873.270766c -5.09  -3.45    +65.9070
iter:  64 15:04:11  -873.270262c -5.37  -3.45    +65.8701
iter:  65 15:05:28  -873.267662c -5.60  -3.54    +65.8530
iter:  66 15:06:46  -873.267625c -6.05  -3.71    +65.8345
iter:  67 15:08:03  -873.268984c -6.21  -3.80    +65.8291
iter:  68 15:09:20  -873.269823c -5.84  -3.85    +65.8123
iter:  69 15:10:37  -873.270647c -5.87  -3.83    +65.8175
iter:  70 15:11:54  -873.271960c -6.07  -4.02c   +65.8177
iter:  71 15:13:11  -873.272006c -6.34  -4.09c   +65.8152
iter:  72 15:14:28  -873.273107c -6.09  -4.13c   +65.8107
iter:  73 15:15:45  -873.272960c -6.85  -4.31c   +65.8101
iter:  74 15:17:02  -873.274107c -6.29  -4.27c   +65.8117
iter:  75 15:18:19  -873.270520c -5.38  -4.23c   +65.8023
iter:  76 15:19:36  -873.269763c -5.88  -4.16c   +65.7899
iter:  77 15:20:53  -873.270705c -6.36  -4.30c   +65.7877
iter:  78 15:22:10  -873.270225c -7.06  -4.42c   +65.7792
iter:  79 15:23:27  -873.271739c -6.30  -4.45c   +65.7850
iter:  80 15:24:44  -873.267736c -5.34  -4.35c   +65.7605
iter:  81 15:26:01  -873.262382c -4.68  -4.32c   +65.6936
iter:  82 15:27:19  -873.261249c -5.01  -3.97    +65.6457
iter:  83 15:28:36  -873.260988c -4.90  -3.85    +65.5541
iter:  84 15:29:53  -873.261913c -4.99  -3.73    +65.4684
iter:  85 15:31:10  -873.263705c -5.08  -3.66    +65.3882
iter:  86 15:32:27  -873.264680c -5.36  -3.63    +65.3355
iter:  87 15:33:44  -873.264215c -5.96  -3.55    +65.3538
iter:  88 15:35:01  -873.266491c -5.39  -3.62    +65.3414
iter:  89 15:36:18  -873.272871c -5.08  -3.41    +65.3428
iter:  90 15:37:35  -873.263016c -4.80  -3.28    +65.3345
iter:  91 15:38:52  -873.264488c -5.11  -3.38    +65.3776
iter:  92 15:40:09  -873.264530c -5.16  -3.46    +65.3995
iter:  93 15:41:26  -873.260502c -5.58  -3.47    +65.3875
iter:  94 15:42:43  -873.260788c -5.80  -3.71    +65.4150
iter:  95 15:44:00  -873.260227c -6.07  -3.73    +65.4294
iter:  96 15:45:17  -873.261960c -6.05  -3.83    +65.4443
iter:  97 15:46:34  -873.260928c -5.87  -3.77    +65.4424
iter:  98 15:47:51  -873.261135c -5.91  -3.73    +65.4543
iter:  99 15:49:08  -873.261578c -5.83  -3.76    +65.4748
iter: 100 15:50:25  -873.261649c -5.97  -3.78    +65.4745
iter: 101 15:51:42  -873.261616c -5.98  -3.79    +65.4775
iter: 102 15:52:59  -873.260556c -6.28  -3.84    +65.4815
iter: 103 15:54:16  -873.261498c -6.32  -3.96    +65.4954
iter: 104 15:55:33  -873.261279c -6.57  -3.97    +65.4970
iter: 105 15:56:50  -873.261197c -6.47  -4.04c   +65.4968
iter: 106 15:58:07  -873.261259c -6.72  -4.02c   +65.5033
iter: 107 15:59:24  -873.261200c -6.46  -4.06c   +65.5080
iter: 108 16:00:41  -873.261973c -6.54  -4.03c   +65.5110
iter: 109 16:01:58  -873.261251c -6.49  -4.06c   +65.5113
iter: 110 16:03:15  -873.261350c -6.68  -4.06c   +65.5181
iter: 111 16:04:32  -873.261567c -6.65  -4.16c   +65.5243
iter: 112 16:05:49  -873.261489c -7.00  -4.12c   +65.5240
iter: 113 16:07:06  -873.261613c -6.94  -4.27c   +65.5267
iter: 114 16:08:23  -873.261294c -7.14  -4.24c   +65.5284
iter: 115 16:09:40  -873.261745c -7.07  -4.32c   +65.5343
iter: 116 16:10:57  -873.261629c -7.09  -4.28c   +65.5349
iter: 117 16:12:14  -873.261612c -6.98  -4.31c   +65.5352
iter: 118 16:13:31  -873.261605c -7.10  -4.26c   +65.5399
iter: 119 16:14:48  -873.261575c -7.07  -4.34c   +65.5426
iter: 120 16:16:05  -873.261903c -7.21  -4.34c   +65.5443
iter: 121 16:17:22  -873.261619c -7.30  -4.38c   +65.5450
iter: 122 16:18:40  -873.261712c -7.23  -4.43c   +65.5492
iter: 123 16:19:57  -873.261797c -7.48c -4.47c   +65.5508

Converged after 123 iterations.

Dipole moment: (-43.035495, -9.694918, -30.887978) |e|*Ang

Total magnetic moment: (0.000000, 0.000000, 65.550849)
Local magnetic moments:
   0 Co ( 0.000000,  0.000000,  1.261875)
   1 Co ( 0.000000,  0.000000,  1.037692)
   2 Fe ( 0.000000,  0.000000,  1.606769)
   3 Fe ( 0.000000,  0.000000,  1.700549)
   4 Cr ( 0.000000,  0.000000, -0.128027)
   5 Cr ( 0.000000,  0.000000, -0.469934)
   6 Co ( 0.000000,  0.000000, -0.048733)
   7 Cr ( 0.000000,  0.000000, -1.354481)
   8 Fe ( 0.000000,  0.000000,  2.182711)
   9 Ni ( 0.000000,  0.000000,  0.340274)
  10 Ni ( 0.000000,  0.000000,  0.419095)
  11 Co ( 0.000000,  0.000000,  1.514345)
  12 Cr ( 0.000000,  0.000000, -0.269377)
  13 Fe ( 0.000000,  0.000000,  1.725596)
  14 Cr ( 0.000000,  0.000000, -0.734512)
  15 Fe ( 0.000000,  0.000000,  1.427833)
  16 Ni ( 0.000000,  0.000000,  0.002370)
  17 Co ( 0.000000,  0.000000,  0.921066)
  18 Ni ( 0.000000,  0.000000,  0.310396)
  19 Cr ( 0.000000,  0.000000, -1.889091)
  20 Co ( 0.000000,  0.000000,  1.045789)
  21 Ni ( 0.000000,  0.000000,  0.284775)
  22 Co ( 0.000000,  0.000000,  1.215859)
  23 Cr ( 0.000000,  0.000000, -1.325424)
  24 Fe ( 0.000000,  0.000000,  1.949958)
  25 Co ( 0.000000,  0.000000,  1.083952)
  26 Cr ( 0.000000,  0.000000, -0.987926)
  27 Cr ( 0.000000,  0.000000, -1.270923)
  28 Fe ( 0.000000,  0.000000,  2.010875)
  29 Cr ( 0.000000,  0.000000, -1.368037)
  30 Co ( 0.000000,  0.000000,  1.126184)
  31 Co ( 0.000000,  0.000000,  0.673369)
  32 Cr ( 0.000000,  0.000000,  0.268055)
  33 Ni ( 0.000000,  0.000000,  0.358942)
  34 Ni ( 0.000000,  0.000000,  0.190392)
  35 Cr ( 0.000000,  0.000000, -1.059085)
  36 Fe ( 0.000000,  0.000000,  1.930033)
  37 Ni ( 0.000000,  0.000000,  0.210758)
  38 Cr ( 0.000000,  0.000000, -0.653136)
  39 Fe ( 0.000000,  0.000000,  1.686468)
  40 Fe ( 0.000000,  0.000000,  1.712243)
  41 Co ( 0.000000,  0.000000,  0.198372)
  42 Cr ( 0.000000,  0.000000, -0.640603)
  43 Fe ( 0.000000,  0.000000,  1.888181)
  44 Fe ( 0.000000,  0.000000,  2.498555)
  45 Fe ( 0.000000,  0.000000,  2.447341)
  46 Ni ( 0.000000,  0.000000,  0.336233)
  47 Co ( 0.000000,  0.000000,  1.448912)
  48 Cr ( 0.000000,  0.000000, -1.568000)
  49 Ni ( 0.000000,  0.000000,  0.258677)
  50 Fe ( 0.000000,  0.000000,  2.035835)
  51 Co ( 0.000000,  0.000000,  0.924510)
  52 Co ( 0.000000,  0.000000,  1.003216)
  53 Fe ( 0.000000,  0.000000,  2.206010)
  54 Fe ( 0.000000,  0.000000,  1.823773)
  55 Ni ( 0.000000,  0.000000,  0.599537)
  56 Ni ( 0.000000,  0.000000,  0.491823)
  57 Fe ( 0.000000,  0.000000,  2.447625)
  58 Co ( 0.000000,  0.000000,  1.288541)
  59 Ni ( 0.000000,  0.000000,  0.349513)
[...]
  93 Ni ( 0.000000,  0.000000,  0.172424)
  94 Ni ( 0.000000,  0.000000,  0.278215)
  95 Cr ( 0.000000,  0.000000, -0.223990)
  96 Ni ( 0.000000,  0.000000,  0.240434)
  97 Co ( 0.000000,  0.000000,  0.799494)
  98 Fe ( 0.000000,  0.000000,  2.245119)
  99 Cr ( 0.000000,  0.000000, -1.150370)
 100 Co ( 0.000000,  0.000000,  1.351259)
 101 Cr ( 0.000000,  0.000000, -0.446705)
 102 Fe ( 0.000000,  0.000000,  2.189376)
 103 Co ( 0.000000,  0.000000,  1.051638)
 104 Ni ( 0.000000,  0.000000,  0.213097)
 105 Co ( 0.000000,  0.000000,  0.954166)
 106 Cr ( 0.000000,  0.000000,  0.897158)
 107 Cr ( 0.000000,  0.000000, -1.512282)

Energy contributions relative to reference atoms: (reference = -3846758.590871)

Kinetic:       +375.626402
Potential:     -392.819088
External:        +0.000000
XC:            -893.388226
Entropy (-ST):   -4.705616
Local:          +39.671924
Free energy:   -875.614605
Extrapolated:  -873.261797

Spin contamination: 25.455534 electrons
Showing only first 2 kpts
                      Up                     Down
 Kpt  Band  Eigenvalues  Occupancy  Eigenvalues  Occupancy
  0   524      9.87105    0.99506     10.76408    0.02595
  0   525      9.87611    0.99480     10.77586    0.02313
  0   526      9.89567    0.99369     10.79240    0.01968
  0   527      9.90989    0.99273     10.80068    0.01814

  1   524      9.87168    0.99503     10.75890    0.02729
  1   525      9.88679    0.99422     10.77212    0.02399
  1   526      9.90748    0.99290     10.79232    0.01969
  1   527      9.91730    0.99218     10.79894    0.01845

Fermi level: 10.40155

No gap

Forces in eV/Ang:
  0 Co   -0.27520   -0.73959    0.17177
  1 Co    1.32970   -1.15450    1.27517
  2 Fe   -0.78868    0.62777    0.26301
  3 Fe    0.91491    1.27763    1.73558
  4 Cr   -1.12787    0.27596   -2.03713
  5 Cr   -0.83403   -0.11531    0.67707
  6 Co    1.72988   -1.39739    1.18079
  7 Cr   -0.84659    0.80041   -1.56520
  8 Fe    0.31120   -1.58053   -1.21987
  9 Ni    0.45925    0.77229    0.81391
 10 Ni   -1.14834    1.77085    2.04925
 11 Co   -0.00306   -2.22950   -0.91667
 12 Cr   -1.17576    0.30446    0.15098
 13 Fe   -1.47033    0.50843   -0.02456
 14 Cr   -1.55772   -0.46539    0.63316
 15 Fe    1.06174    0.53286   -0.12244
 16 Ni   -1.09756    0.70850   -1.24730
 17 Co    0.59779    0.29526   -0.48986
 18 Ni   -1.09055   -0.21151   -0.58524
 19 Cr    0.75946    1.23015    1.10739
 20 Co   -0.70480   -0.48093   -1.19402
 21 Ni   -1.20689    1.58881   -0.72662
 22 Co    1.04053    0.19555   -0.08096
 23 Cr    1.20408    0.25135   -0.47449
 24 Fe   -0.33145    0.16750   -0.98536
 25 Co    0.43090   -1.84679   -0.38983
 26 Cr    0.86792   -0.65459   -1.78082
 27 Cr   -0.63483   -1.06849   -0.21408
 28 Fe   -0.83524    0.02160   -0.33197
 29 Cr   -1.45749    0.45627   -0.14218
 30 Co   -0.59771    0.38657    0.62801
 31 Co   -0.32378    0.02263    1.01282
 32 Cr    0.36365   -1.62865    0.75379
 33 Ni    0.21253   -0.57979   -1.16877
 34 Ni   -0.25722   -2.17014   -0.03740
 35 Cr    0.82288    0.24912   -1.92008
 36 Fe   -1.62835    1.13482    0.70879
 37 Ni   -0.15612   -0.05193   -0.39759
 38 Cr   -0.61044   -1.01647    0.65120
 39 Fe    0.87071    2.06974   -0.12182
 40 Fe    1.47960    0.04589    0.05581
 41 Co   -0.44105   -0.04304   -1.27071
 42 Cr    1.34914    0.97153   -0.74478
 43 Fe    0.33022   -1.27779    0.11329
 44 Fe    0.65195    0.40778    0.59079
 45 Fe    0.01072    0.28165    0.95400
 46 Ni   -0.27387    2.14588    0.50324
 47 Co   -0.77830   -0.91073   -1.41114
 48 Cr    0.53824   -0.44247    0.06303
 49 Ni   -0.73390    1.01724    1.70173
 50 Fe    0.17351   -0.91395   -0.59996
 51 Co    1.73199    0.58217    0.88599
 52 Co   -2.16766    1.08326    0.49560
 53 Fe   -0.42030    0.26009   -0.64352
 54 Fe   -0.22225   -0.19563   -0.24657
 55 Ni    1.11146   -0.56109   -0.06001
 56 Ni    0.41161    0.10153    1.30978
 57 Fe    0.77455   -0.01424    0.43125
 58 Co    0.23734    0.16299   -0.29303
 59 Ni    0.50445   -0.41877    0.83232
[...]
 93 Ni   -0.61282    3.13437    0.92464
 94 Ni    1.16178    0.35954    0.38779
 95 Cr    0.95552   -1.94104   -0.43804
 96 Ni   -0.62848    0.03726    0.06171
 97 Co   -0.86679   -0.38467   -0.55069
 98 Fe   -0.31846   -0.12998    1.64968
 99 Cr    0.18175   -0.24884    0.12788
100 Co    1.51202    2.37811   -0.04445
101 Cr   -0.81004   -1.40504    1.71763
102 Fe    0.23550   -1.28570   -0.90451
103 Co    0.07858   -0.37088    1.30501
104 Ni   -0.66441    0.63486   -0.03529
105 Co   -0.11502    0.54466   -0.37994
106 Cr   -0.49312    0.44318   -0.92054
107 Cr    0.13063   -0.99647    1.37169

Date: Thu Apr 13 16:20:17 2023