User:   c.zeng@d0011
Date:   Fri Apr 14 01:22:48 2023
Arch:   x86_64
Pid:    233030
CWD:    /home/c.zeng/projects/hea-corrosion/hea-mlp/data-curation/bulk-md/dft-jobs/80
Python: 3.8.1
gpaw:   /home/c.zeng/usr/installs/gpaw/source/gpaw-22.8.0/gpaw
_gpaw:  /home/c.zeng/usr/installs/gpaw/source/gpaw-22.8.0/
        _gpaw.cpython-38-x86_64-linux-gnu.so
ase:    /home/c.zeng/.local/lib/python3.8/site-packages/ase-3.22.1-py3.8.egg/ase (version 3.22.1)
numpy:  /shared/centos7/python/3.8.1/lib/python3.8/site-packages/numpy (version 1.17.4)
scipy:  /shared/centos7/python/3.8.1/lib/python3.8/site-packages/scipy (version 1.4.1)
units:  Angstrom and eV
cores: 30
OpenMP: False
OMP_NUM_THREADS: 1

Input parameters:
  convergence: {energy: 0.0001}
  kpts: [2 2 2]
  maxiter: 666
  mode: {ecut: 350.0,
         name: pw}
  occupations: {fixmagmom: False,
                name: fermi-dirac,
                width: 0.1}
  spinpol: True
  xc: PBE

System changes: positions, numbers, cell, pbc, initial_charges, initial_magmoms

Initialize ...

species:
  Al:
    name: Aluminium
    id: 0292cae29f5d6237e50f6abdd43a7bdd
    Z: 13.0
    valence: 3
    core: 10
    charge: 0.0
    file: /home/c.zeng/usr/data/gpaw-setups-0.9.20000/Al.PBE.gz
    compensation charges: {type: gauss,
                           rc: 0.34,
                           lmax: 2}
    cutoffs: {filter: 1.91,
              core: 2.36}
    valence states:
      #              energy  rcut
      - 3s(2.00)    -7.753   1.085
      - 3p(1.00)    -2.712   1.085
      -  s          19.459   1.085
      -  p          24.499   1.085
      -  d           0.000   1.085

    # Using partial waves for Al as LCAO basis

  Fe:
    name: Iron
    id: 37abbd8d6c3c35915a9b583b742da910
    Z: 26.0
    valence: 8
    core: 18
    charge: 0.0
    file: /home/c.zeng/usr/data/gpaw-setups-0.9.20000/Fe.PBE.gz
    compensation charges: {type: gauss,
                           rc: 0.33,
                           lmax: 2}
    cutoffs: {filter: 2.06,
              core: 2.67}
    valence states:
      #              energy  rcut
      - 4s(2.00)    -5.291   1.164
      - 4p(0.00)    -1.326   1.058
      - 3d(6.00)    -7.505   1.058
      -  s          21.920   1.164
      -  p          25.885   1.058
      -  d          19.706   1.058

[...]

  Cr:
    name: Chromium
    id: 33f258bda2ca9f93018e70263a35547b
    Z: 24.0
    valence: 6
    core: 18
    charge: 0.0
    file: /home/c.zeng/usr/data/gpaw-setups-0.9.20000/Cr.PBE.gz
    compensation charges: {type: gauss,
                           rc: 0.35,
                           lmax: 2}
    cutoffs: {filter: 2.14,
              core: 3.04}
    valence states:
      #              energy  rcut
      - 4s(1.00)    -4.007   1.164
      - 4p(0.00)    -0.989   1.217
      - 3d(5.00)    -2.913   1.111
      -  s          23.205   1.164
      -  p          26.223   1.217
      -  d          24.299   1.111

[...]

  Ni:
    name: Nickel
    id: 0d9f38a9d6e76a2886f07bb4381f212b
    Z: 28.0
    valence: 16
    core: 12
    charge: 0.0
    file: /home/c.zeng/usr/data/gpaw-setups-0.9.20000/Ni.PBE.gz
    compensation charges: {type: gauss,
                           rc: 0.36,
                           lmax: 2}
    cutoffs: {filter: 2.14,
              core: 1.98}
    valence states:
      #              energy  rcut
      - 4s(2.00)    -5.642   1.164
      - 3p(6.00)   -71.394   1.207
      - 4p(0.00)    -1.226   1.207
      - 3d(8.00)    -8.875   1.138
      -  s          21.570   1.164
      -  d          18.337   1.138

[...]

  Co:
    name: Cobalt
    id: 339d20d5b0b93d2de9531a1bee871d91
    Z: 27.0
    valence: 9
    core: 18
    charge: 0.0
    file: /home/c.zeng/usr/data/gpaw-setups-0.9.20000/Co.PBE.gz
    compensation charges: {type: gauss,
                           rc: 0.32,
                           lmax: 2}
    cutoffs: {filter: 1.87,
              core: 2.55}
    valence states:
      #              energy  rcut
      - 4s(2.00)    -5.469   1.005
      - 4p(0.00)    -1.277   1.058
      - 3d(7.00)    -8.205   1.005
      -  s          21.742   1.005
      -  p          25.934   1.058
      -  d          19.007   1.005

    # Using partial waves for Co as LCAO basis

Reference energy: -3235165.067515  # eV

Spin-polarized calculation.
Magnetic moment: 121.100000

Convergence criteria:
 Maximum [total energy] change in last 3 cyles: 0.0001 eV / electron
 Maximum integral of absolute [dens]ity change: 0.0001 electrons / valence electron
 Maximum integral of absolute [eigenst]ate change: 4e-08 eV^2 / valence electron
 Maximum number of scf [iter]ations: 666
 (Square brackets indicate name in SCF output, whereas a 'c' in
 the SCF output indicates the quantity has converged.)

Symmetries present (total): 1

  ( 1  0  0)
  ( 0  1  0)
  ( 0  0  1)

8 k-points: 2 x 2 x 2 Monkhorst-Pack grid
4 k-points in the irreducible part of the Brillouin zone
       k-points in crystal coordinates                weights
   0:     0.25000000   -0.25000000   -0.25000000          2/8
   1:     0.25000000   -0.25000000    0.25000000          2/8
   2:     0.25000000    0.25000000   -0.25000000          2/8
   3:     0.25000000    0.25000000    0.25000000          2/8

Wave functions: Plane wave expansion
  Cutoff energy: 350.000 eV
  Number of coefficients (min, max): 19084, 19084
  Pulay-stress correction: 0.000000 eV/Ang^3 (de/decut=0.000000)
  Using FFTW library
  ScaLapack parameters: grid=1x1, blocksize=None
  Wavefunction extrapolation:
    Improved wavefunction reuse through dual PAW basis

Occupation numbers: Fermi-Dirac:
  width: 0.1000  # eV

Eigensolver
   Davidson(niter=2)

Densities:
  Coarse grid: 48*48*48 grid
  Fine grid: 96*96*96 grid
  Total Charge: 0.000000

Density mixing:
  Method: difference
  Backend: pulay
  Linear mixing parameter: 0.05
  old densities: 5
  Damping of long wavelength oscillations: 50

Hamiltonian:
  XC and Coulomb potentials evaluated on a 96*96*96 grid
  Using the PBE Exchange-Correlation functional
  External potential:
    NoExternalPotential

XC parameters: PBE with 2 nearest neighbor stencil

Total number of cores used: 30
Parallelization over k-points: 2
Domain decomposition: 5 x 3 x 1

Number of atoms: 108
Number of atomic orbitals: 933
Number of bands in calculation: 624
Number of valence electrons: 912
Bands to converge: occupied

... initialized

Initializing position-dependent things.

Density initialized from atomic densities
Creating initial wave functions:
  624 bands from LCAO basis set

        .--------Ni----------------.
       /|           Ni             |
      / |    CrFe     Co           |
     / Al       Co       Ni        |
    /   |Co      CoAl       Al     |
   /    | FeFe      FCr            |
  /    Cr  CorAlNi    Co Fe  CrCr  |
 *      Cr     FeCoFe   CoNi     Al|
 |      |AlAl   NiNiFe   NiFeAl   Cr
 |      | FeCr   AlCoCrNi AlFeCr   |
 |     Co  Fe NiCr  CrCr Fe  CrFe  |
 |      Al  Cr AlNiNi AlNiNiCo   Co|
 |      |CoAl   NiCoCo   CrCrCo   Al
 |      .-NiCo-----NiAl-Cr--FeFe---.
 |     Ni  Cr AlAl    Co Ni  Ni Co/
 |    / Cr              Co       Ni
 |   /           Fee      AlFe  /
 |  /      Al       Co     FeFe/
 | /                   Ni     /e
 *--------------------------Al

Positions:
   0 Al    10.797848    0.093654    0.085777    ( 0.0000,  0.0000,  0.0000)
   1 Fe    10.831824    1.844742    1.870716    ( 0.0000,  0.0000,  2.0000)
   2 Cr     1.786803   10.847372    1.827335    ( 0.0000,  0.0000,  0.0000)
   3 Cr     1.769614    1.870531   -0.031264    ( 0.0000,  0.0000,  0.0000)
   4 Ni     3.620857   10.822050   10.833629    ( 0.0000,  0.0000,  1.5000)
   5 Al     3.571246    1.883176    1.708402    ( 0.0000,  0.0000,  0.0000)
   6 Al     5.521103   10.788063    1.666217    ( 0.0000,  0.0000,  0.0000)
   7 Ni     5.520831    1.813973   10.830911    ( 0.0000,  0.0000,  1.5000)
   8 Fe     7.330846    0.011025   10.815657    ( 0.0000,  0.0000,  2.0000)
   9 Co     7.282018    1.809483    1.793250    ( 0.0000,  0.0000,  2.1000)
  10 Ni     9.029996    0.022005    1.811918    ( 0.0000,  0.0000,  1.5000)
  11 Fe     9.007196    1.868639   10.825714    ( 0.0000,  0.0000,  2.0000)
  12 Fe    10.861310    3.649723    0.014171    ( 0.0000,  0.0000,  2.0000)
  13 Co    10.867442    5.463468    1.819235    ( 0.0000,  0.0000,  2.1000)
  14 Cr     1.756088    3.650267    1.845949    ( 0.0000,  0.0000,  0.0000)
  15 Co     1.790358    5.439092   10.869084    ( 0.0000,  0.0000,  2.1000)
  16 Fe     3.687842    3.622792   -0.049287    ( 0.0000,  0.0000,  2.0000)
  17 Al     3.667347    5.391145    1.745368    ( 0.0000,  0.0000,  0.0000)
  18 Fe     5.497977    3.634415    1.792370    ( 0.0000,  0.0000,  2.0000)
  19 Fe     5.524908    5.448029    0.002551    ( 0.0000,  0.0000,  2.0000)
  20 Cr     7.223340    3.611877   10.834270    ( 0.0000,  0.0000,  0.0000)
  21 Co     7.217762    5.474830    1.807776    ( 0.0000,  0.0000,  2.1000)
  22 Al     9.073442    3.654344    1.775148    ( 0.0000,  0.0000,  0.0000)
  23 Fe     9.008740    5.418608    0.007692    ( 0.0000,  0.0000,  2.0000)
  24 Ni    10.859190    7.178720    0.014480    ( 0.0000,  0.0000,  1.5000)
  25 Al    -0.018106    8.970948    1.875391    ( 0.0000,  0.0000,  0.0000)
  26 Ni     1.817615    7.224025    1.802546    ( 0.0000,  0.0000,  1.5000)
  27 Cr     1.880729    8.993464   10.874031    ( 0.0000,  0.0000,  0.0000)
  28 Fe     3.684428    7.260447   -0.001356    ( 0.0000,  0.0000,  2.0000)
  29 Ni     3.612616    9.025636    1.761807    ( 0.0000,  0.0000,  1.5000)
  30 Ni     5.481440    7.275114    1.811211    ( 0.0000,  0.0000,  1.5000)
  31 Ni     5.461261    9.048153   10.833988    ( 0.0000,  0.0000,  1.5000)
  32 Co     7.245704    7.257881    0.056891    ( 0.0000,  0.0000,  2.1000)
  33 Cr     7.301969    9.004609    1.790315    ( 0.0000,  0.0000,  0.0000)
  34 Fe     9.029343    7.181775    1.815549    ( 0.0000,  0.0000,  2.0000)
  35 Ni     9.030561    9.042010    0.020232    ( 0.0000,  0.0000,  1.5000)
  36 Fe    -0.031046    0.001947    3.645701    ( 0.0000,  0.0000,  2.0000)
  37 Co    10.825910    1.804351    5.434602    ( 0.0000,  0.0000,  2.1000)
  38 Cr     1.743552   10.849296    5.484376    ( 0.0000,  0.0000,  0.0000)
  39 Ni     1.769755    1.791891    3.636068    ( 0.0000,  0.0000,  1.5000)
  40 Al     3.516667   10.719828    3.663227    ( 0.0000,  0.0000,  0.0000)
  41 Al     3.644244    1.785205    5.586728    ( 0.0000,  0.0000,  0.0000)
  42 Cr     5.484778   10.815439    5.504022    ( 0.0000,  0.0000,  0.0000)
  43 Al     5.457934    1.842230    3.658769    ( 0.0000,  0.0000,  0.0000)
  44 Al     7.360615   10.815439    3.672229    ( 0.0000,  0.0000,  0.0000)
  45 Co     7.266884    1.811614    5.485528    ( 0.0000,  0.0000,  2.1000)
  46 Cr     9.077986    0.023590    5.491921    ( 0.0000,  0.0000,  0.0000)
  47 Ni     9.066788    1.824226    3.671175    ( 0.0000,  0.0000,  1.5000)
  48 Fe    -0.047135    3.649615    3.617291    ( 0.0000,  0.0000,  2.0000)
  49 Fe    10.809264    5.435993    5.379805    ( 0.0000,  0.0000,  2.0000)
  50 Al     1.752316    3.624989    5.344676    ( 0.0000,  0.0000,  0.0000)
  51 Co     1.805786    5.472046    3.619389    ( 0.0000,  0.0000,  2.1000)
  52 Co     3.649408    3.633491    3.631251    ( 0.0000,  0.0000,  2.1000)
  53 Ni     3.657628    5.433797    5.434015    ( 0.0000,  0.0000,  1.5000)
  54 Ni     5.413368    3.672642    5.480309    ( 0.0000,  0.0000,  1.5000)
  55 Co     5.413835    5.465588    3.639666    ( 0.0000,  0.0000,  2.1000)
  56 Al     7.223449    3.731734    3.720829    ( 0.0000,  0.0000,  0.0000)
  57 Cr     7.220557    5.483180    5.485572    ( 0.0000,  0.0000,  0.0000)
  58 Ni     9.069039    3.623673    5.469720    ( 0.0000,  0.0000,  1.5000)
  59 Cr     9.064766    5.503837    3.636731    ( 0.0000,  0.0000,  0.0000)
[...]
  93 Co     7.214631    5.385893    9.048577    ( 0.0000,  0.0000,  2.1000)
  94 Ni     8.994291    3.655975    9.039237    ( 0.0000,  0.0000,  1.5000)
  95 Fe     9.006577    5.423262    7.223296    ( 0.0000,  0.0000,  2.0000)
  96 Al    -0.070637    7.291956    7.110419    ( 0.0000,  0.0000,  0.0000)
  97 Al     0.073012    9.104570    9.068375    ( 0.0000,  0.0000,  0.0000)
  98 Fe     1.863247    7.257381    9.054785    ( 0.0000,  0.0000,  2.0000)
  99 Co     1.858343    9.053708    7.225808    ( 0.0000,  0.0000,  2.1000)
 100 Fe     3.683906    7.292456    7.235550    ( 0.0000,  0.0000,  2.0000)
 101 Co     3.628218    9.069550    9.051262    ( 0.0000,  0.0000,  2.1000)
 102 Al     5.530605    7.331890    9.040129    ( 0.0000,  0.0000,  0.0000)
 103 Fe     5.476232    9.097209    7.250467    ( 0.0000,  0.0000,  2.0000)
 104 Co     7.256827    7.264242    7.208456    ( 0.0000,  0.0000,  2.1000)
 105 Ni     7.272548    9.136437    9.056861    ( 0.0000,  0.0000,  1.5000)
 106 Al     8.936493    7.190875    9.109767    ( 0.0000,  0.0000,  0.0000)
 107 Cr     8.994682    9.112169    7.218480    ( 0.0000,  0.0000,  0.0000)

Unit cell:
           periodic     x           y           z      points  spacing
  1. axis:    yes   10.872400    0.000000    0.000000    48     0.2265
  2. axis:    yes    0.000000   10.872400    0.000000    48     0.2265
  3. axis:    yes    0.000000    0.000000   10.872400    48     0.2265

  Lengths:  10.872400  10.872400  10.872400
  Angles:   90.000000  90.000000  90.000000

Effective grid spacing dv^(1/3) = 0.2265

     iter     time        total  log10-change:  magmom
                         energy  eigst   dens
iter:   1 01:27:10  -974.537313                  +121.3860
iter:   2 01:29:08  -859.630583  -0.18  -1.16    +64.8612
iter:   3 01:31:08  -844.854191  -0.85  -1.20    +55.9876
iter:   4 01:33:10  -831.561606  -1.24  -1.26    +51.9977
iter:   5 01:35:11  -819.838875  -1.54  -1.29    +49.8279
iter:   6 01:37:12  -813.402176  -1.35  -1.35    +50.1047
iter:   7 01:39:14  -816.006319  -1.35  -1.48    +49.5106
iter:   8 01:41:16  -810.726704  -1.66  -1.52    +50.0358
iter:   9 01:43:17  -806.639639  -2.07  -1.64    +51.0668
iter:  10 01:45:19  -806.648680  -2.52  -1.77    +51.9932
iter:  11 01:47:20  -807.110909  -2.50  -1.80    +53.0121
iter:  12 01:49:21  -808.028442  -2.40  -1.85    +54.2344
iter:  13 01:51:50  -807.869348  -2.52  -1.87    +54.6392
iter:  14 01:54:30  -807.631012  -2.68  -1.93    +55.3422
iter:  15 01:56:33  -807.607090  -2.92  -1.99    +55.7686
iter:  16 01:58:34  -807.863147  -2.94  -2.04    +56.0244
iter:  17 02:00:36  -807.833508  -2.87  -2.08    +56.4316
iter:  18 02:02:38  -807.639579  -3.10  -2.14    +56.3518
iter:  19 02:04:39  -807.746147  -3.16  -2.25    +56.3988
iter:  20 02:06:42  -807.730782  -3.30  -2.28    +56.4182
iter:  21 02:08:43  -807.722887c -3.38  -2.33    +56.2466
iter:  22 02:10:46  -807.780604c -3.35  -2.40    +56.0925
iter:  23 02:12:47  -807.782772c -3.64  -2.43    +56.0195
iter:  24 02:14:49  -807.821412c -3.70  -2.48    +55.7083
iter:  25 02:16:52  -807.885658  -3.70  -2.51    +55.4704
iter:  26 02:18:54  -807.912476c -3.88  -2.53    +55.3058
iter:  27 02:20:56  -807.932614c -3.87  -2.56    +54.9764
iter:  28 02:22:57  -807.990954c -3.96  -2.62    +54.7005
iter:  29 02:24:58  -808.017439c -4.00  -2.64    +54.4995
iter:  30 02:27:01  -808.046305c -4.19  -2.67    +54.1546
iter:  31 02:29:02  -808.092075c -4.11  -2.71    +53.8362
iter:  32 02:31:04  -808.134349c -4.21  -2.74    +53.4683
iter:  33 02:33:05  -808.186174  -4.08  -2.77    +52.9931
iter:  34 02:35:07  -808.255810  -3.83  -2.80    +52.3407
iter:  35 02:37:09  -808.290454  -4.00  -2.81    +52.0036
iter:  36 02:39:10  -808.337847c -3.92  -2.81    +51.5603
iter:  37 02:41:12  -808.377885c -3.94  -2.75    +51.1968
iter:  38 02:43:13  -808.364639c -4.12  -2.75    +51.1695
iter:  39 02:45:15  -808.359695c -4.39  -2.87    +51.1617
iter:  40 02:47:16  -808.362600c -4.85  -2.91    +51.1268
iter:  41 02:49:17  -808.371272c -4.54  -2.93    +51.1124
iter:  42 02:51:19  -808.361936c -4.50  -2.92    +51.1240
iter:  43 02:53:20  -808.363592c -5.09  -2.99    +51.1273
iter:  44 02:55:21  -808.364339c -4.86  -3.01    +51.0904
iter:  45 02:57:28  -808.366001c -4.77  -3.06    +51.0986
iter:  46 03:00:08  -808.362070c -4.88  -3.13    +51.1144
iter:  47 03:02:28  -808.363376c -5.07  -3.21    +51.1013
iter:  48 03:04:30  -808.362145c -5.23  -3.26    +51.1130
iter:  49 03:06:32  -808.365866c -5.05  -3.34    +51.1429
iter:  50 03:08:34  -808.363460c -5.28  -3.34    +51.1311
iter:  51 03:10:36  -808.363300c -5.46  -3.44    +51.1289
iter:  52 03:12:37  -808.363963c -5.76  -3.52    +51.1432
iter:  53 03:14:40  -808.364101c -5.80  -3.57    +51.1481
iter:  54 03:16:42  -808.365632c -5.92  -3.59    +51.1474
iter:  55 03:18:44  -808.365400c -5.77  -3.61    +51.1493
iter:  56 03:20:47  -808.365592c -6.06  -3.69    +51.1383
iter:  57 03:22:49  -808.366348c -6.08  -3.76    +51.1404
iter:  58 03:24:51  -808.366728c -6.11  -3.80    +51.1310
iter:  59 03:26:53  -808.367049c -6.32  -3.78    +51.1281
iter:  60 03:28:54  -808.367444c -6.25  -3.87    +51.1224
iter:  61 03:30:56  -808.368300c -6.35  -3.92    +51.1183
iter:  62 03:32:58  -808.368179c -6.48  -3.95    +51.1146
iter:  63 03:35:00  -808.368850c -6.40  -4.00    +51.1108
iter:  64 03:37:02  -808.369499c -6.29  -4.06c   +51.1032
iter:  65 03:39:04  -808.369694c -6.57  -4.05c   +51.1055
iter:  66 03:41:05  -808.369964c -6.65  -4.11c   +51.1006
iter:  67 03:43:06  -808.370464c -6.44  -4.19c   +51.0942
iter:  68 03:45:08  -808.370990c -6.34  -4.18c   +51.0925
iter:  69 03:47:10  -808.371636c -6.33  -4.21c   +51.0912
iter:  70 03:49:11  -808.373690c -5.53  -4.16c   +51.0945
iter:  71 03:51:13  -808.373382c -6.75  -3.97    +51.1023
iter:  72 03:53:15  -808.373569c -6.91  -3.99    +51.1103
iter:  73 03:55:16  -808.374101c -6.31  -3.98    +51.1302
iter:  74 03:56:51  -808.374302c -6.38  -3.93    +51.1426
iter:  75 03:58:43  -808.374690c -6.57  -3.91    +51.1418
iter:  76 04:00:52  -808.374152c -6.52  -3.84    +51.1406
iter:  77 04:03:01  -808.374259c -6.62  -3.84    +51.1352
iter:  78 04:05:10  -808.373594c -5.71  -3.80    +51.1369
iter:  79 04:07:18  -808.373918c -6.12  -3.73    +51.1286
iter:  80 04:09:26  -808.373734c -6.47  -3.92    +51.1164
iter:  81 04:11:35  -808.374097c -6.31  -3.98    +51.1143
iter:  82 04:13:44  -808.373431c -6.68  -3.92    +51.1044
iter:  83 04:15:53  -808.373879c -6.43  -4.03c   +51.0966
iter:  84 04:18:01  -808.374464c -6.17  -4.00    +51.0939
iter:  85 04:20:10  -808.373555c -6.37  -3.93    +51.0939
iter:  86 04:22:18  -808.373673c -6.53  -4.10c   +51.0933
iter:  87 04:24:27  -808.373450c -6.39  -4.12c   +51.0892
iter:  88 04:26:35  -808.373804c -6.60  -4.08c   +51.0931
iter:  89 04:28:44  -808.373486c -7.06  -4.22c   +51.0928
iter:  90 04:30:54  -808.373336c -7.09  -4.31c   +51.0905
iter:  91 04:33:02  -808.373526c -7.17  -4.29c   +51.0898
iter:  92 04:35:11  -808.373450c -7.08  -4.39c   +51.0908
iter:  93 04:37:19  -808.373450c -7.39  -4.35c   +51.0913
iter:  94 04:39:27  -808.373174c -6.99  -4.48c   +51.0890
iter:  95 04:41:36  -808.373422c -7.12  -4.35c   +51.0898
iter:  96 04:43:44  -808.373401c -7.38  -4.43c   +51.0930
iter:  97 04:45:53  -808.373232c -7.44c -4.60c   +51.0944

Converged after 97 iterations.

Dipole moment: (29.755946, 17.236206, 7.637472) |e|*Ang

Total magnetic moment: (0.000000, 0.000000, 51.094433)
Local magnetic moments:
   0 Al ( 0.000000,  0.000000, -0.004722)
   1 Fe ( 0.000000,  0.000000,  2.091123)
   2 Cr ( 0.000000,  0.000000, -2.125341)
   3 Cr ( 0.000000,  0.000000,  1.611513)
   4 Ni ( 0.000000,  0.000000,  0.066374)
   5 Al ( 0.000000,  0.000000, -0.009334)
   6 Al ( 0.000000,  0.000000, -0.014668)
   7 Ni ( 0.000000,  0.000000,  0.302501)
   8 Fe ( 0.000000,  0.000000,  2.327820)
   9 Co ( 0.000000,  0.000000,  0.956199)
  10 Ni ( 0.000000,  0.000000,  0.253690)
  11 Fe ( 0.000000,  0.000000,  2.058701)
  12 Fe ( 0.000000,  0.000000,  2.062513)
  13 Co ( 0.000000,  0.000000,  1.328843)
  14 Cr ( 0.000000,  0.000000, -2.062173)
  15 Co ( 0.000000,  0.000000,  0.944587)
  16 Fe ( 0.000000,  0.000000,  2.064398)
  17 Al ( 0.000000,  0.000000, -0.037859)
  18 Fe ( 0.000000,  0.000000,  2.247639)
  19 Fe ( 0.000000,  0.000000,  2.203824)
  20 Cr ( 0.000000,  0.000000, -1.947678)
  21 Co ( 0.000000,  0.000000,  1.129558)
  22 Al ( 0.000000,  0.000000, -0.035465)
  23 Fe ( 0.000000,  0.000000,  2.193110)
  24 Ni ( 0.000000,  0.000000,  0.082466)
  25 Al ( 0.000000,  0.000000, -0.013673)
  26 Ni ( 0.000000,  0.000000,  0.296965)
  27 Cr ( 0.000000,  0.000000, -1.293697)
  28 Fe ( 0.000000,  0.000000,  2.357185)
  29 Ni ( 0.000000,  0.000000,  0.206231)
  30 Ni ( 0.000000,  0.000000,  0.322510)
  31 Ni ( 0.000000,  0.000000,  0.268439)
  32 Co ( 0.000000,  0.000000,  1.190125)
  33 Cr ( 0.000000,  0.000000, -2.023927)
  34 Fe ( 0.000000,  0.000000,  2.091451)
  35 Ni ( 0.000000,  0.000000,  0.164262)
  36 Fe ( 0.000000,  0.000000,  1.912278)
  37 Co ( 0.000000,  0.000000,  0.841590)
  38 Cr ( 0.000000,  0.000000, -1.714077)
  39 Ni ( 0.000000,  0.000000, -0.006468)
  40 Al ( 0.000000,  0.000000,  0.001870)
  41 Al ( 0.000000,  0.000000, -0.000225)
  42 Cr ( 0.000000,  0.000000, -1.775750)
  43 Al ( 0.000000,  0.000000, -0.005424)
  44 Al ( 0.000000,  0.000000, -0.003460)
  45 Co ( 0.000000,  0.000000,  0.266734)
  46 Cr ( 0.000000,  0.000000, -1.626032)
  47 Ni ( 0.000000,  0.000000,  0.233902)
  48 Fe ( 0.000000,  0.000000,  2.200329)
  49 Fe ( 0.000000,  0.000000,  1.961867)
  50 Al ( 0.000000,  0.000000, -0.029908)
  51 Co ( 0.000000,  0.000000,  1.266346)
  52 Co ( 0.000000,  0.000000,  1.022436)
  53 Ni ( 0.000000,  0.000000,  0.361402)
  54 Ni ( 0.000000,  0.000000,  0.098030)
  55 Co ( 0.000000,  0.000000,  1.144426)
  56 Al ( 0.000000,  0.000000, -0.009640)
  57 Cr ( 0.000000,  0.000000, -1.508754)
  58 Ni ( 0.000000,  0.000000,  0.119132)
  59 Cr ( 0.000000,  0.000000, -1.688545)
[...]
  93 Co ( 0.000000,  0.000000,  1.278825)
  94 Ni ( 0.000000,  0.000000,  0.223376)
  95 Fe ( 0.000000,  0.000000,  1.985563)
  96 Al ( 0.000000,  0.000000, -0.033089)
  97 Al ( 0.000000,  0.000000, -0.008821)
  98 Fe ( 0.000000,  0.000000,  2.061131)
  99 Co ( 0.000000,  0.000000,  1.035066)
 100 Fe ( 0.000000,  0.000000,  2.328911)
 101 Co ( 0.000000,  0.000000,  1.220493)
 102 Al ( 0.000000,  0.000000, -0.046163)
 103 Fe ( 0.000000,  0.000000,  2.333181)
 104 Co ( 0.000000,  0.000000,  1.113541)
 105 Ni ( 0.000000,  0.000000,  0.321879)
 106 Al ( 0.000000,  0.000000, -0.029668)
 107 Cr ( 0.000000,  0.000000,  1.512877)

Energy contributions relative to reference atoms: (reference = -3235165.067515)

Kinetic:       +244.303292
Potential:     -238.277136
External:        +0.000000
XC:            -843.763198
Entropy (-ST):   -3.919129
Local:          +31.323375
Free energy:   -810.332797
Extrapolated:  -808.373232

Spin contamination: 32.118120 electrons
Showing only first 2 kpts
                      Up                     Down
 Kpt  Band  Eigenvalues  Occupancy  Eigenvalues  Occupancy
  0   454      9.01921    0.99492      9.88118    0.03417
  0   455      9.03859    0.99384      9.88903    0.03167
  0   456      9.05336    0.99287      9.90371    0.02746
  0   457      9.07665    0.99102      9.91584    0.02440

  1   454      9.02417    0.99467      9.87272    0.03707
  1   455      9.04273    0.99359      9.88169    0.03400
  1   456      9.05772    0.99256      9.89366    0.03028
  1   457      9.07299    0.99134      9.90987    0.02587

Fermi level: 9.54701

No gap

Forces in eV/Ang:
  0 Al   -0.43135   -0.60112   -0.36861
  1 Fe    0.26653    0.01129    0.21727
  2 Cr   -0.09797    0.20441   -0.24534
  3 Cr    0.09733   -0.29631   -0.42219
  4 Ni   -0.22422    0.18214    0.04636
  5 Al    0.49266   -0.11973    0.26812
  6 Al   -0.67302    0.24414   -0.29804
  7 Ni   -0.27699   -0.12858    0.14351
  8 Fe    0.20493   -0.01767   -0.01672
  9 Co   -0.14848    0.11995    0.18768
 10 Ni    0.03141   -0.11522    0.12764
 11 Fe   -0.17247    0.10639    0.40409
 12 Fe   -0.02917    0.32482   -0.16483
 13 Co    0.57287    0.05514    0.00139
 14 Cr   -0.85924   -0.02450   -0.12228
 15 Co   -0.12517   -0.15731   -0.10827
 16 Fe    0.02915    0.31201    0.01644
 17 Al   -0.06951    0.36375    0.35388
 18 Fe    0.09144   -0.08926    0.11169
 19 Fe    0.30575   -0.05984   -0.11508
 20 Cr   -0.40968    0.06848   -0.18632
 21 Co   -0.11050   -0.03774    0.24418
 22 Al   -0.11303   -0.24694    0.36832
 23 Fe   -0.14798   -0.00717   -0.19297
 24 Ni    0.21616    0.33981   -0.29167
 25 Al   -0.25856   -0.34565   -0.57852
 26 Ni    0.00394   -0.22269    0.08294
 27 Cr    0.28941   -0.09788   -0.22379
 28 Fe   -0.42564    0.30046   -0.06216
 29 Ni    0.15325    0.11295    0.45731
 30 Ni   -0.30002   -0.28475   -0.12753
 31 Ni   -0.01892    0.03099    0.09772
 32 Co   -0.02402   -0.14720    0.24718
 33 Cr    0.34354   -0.36865   -0.20165
 34 Fe   -0.24567   -0.34710   -0.15767
 35 Ni    0.56090    0.16478   -0.28338
 36 Fe    0.15764    0.48029    0.18833
 37 Co    0.23406   -0.39303    0.16666
 38 Cr   -0.80023   -0.09921    0.74474
 39 Ni    0.24106   -0.12902   -0.00208
 40 Al    0.50911    0.14078    0.04592
 41 Al   -0.50080   -0.07205   -0.67998
 42 Cr   -0.00439   -0.03396    0.03377
 43 Al    0.19689    0.25609    0.24853
 44 Al   -0.04799    0.79333   -0.20571
 45 Co   -0.30236   -0.22971   -0.11619
 46 Cr    0.29277    0.11200    0.36677
 47 Ni    0.03980    0.04389   -0.40986
 48 Fe   -0.07487    0.07162   -0.06670
 49 Fe    0.03155   -0.11982    0.08464
 50 Al    0.41921   -0.14750   -0.33225
 51 Co   -0.18250   -0.09624    0.12239
 52 Co    0.03913    0.18162   -0.23117
 53 Ni   -0.11485   -0.01730    0.09840
 54 Ni    0.28134   -0.28776   -0.27574
 55 Co    0.03503   -0.13912   -0.07428
 56 Al    0.22018   -0.70370   -0.28545
 57 Cr   -0.29215    0.99598    0.30879
 58 Ni   -0.29326    0.11695   -0.12090
 59 Cr    0.56477    0.66289    0.14304
[...]
 93 Co    0.02526   -0.20518   -0.10980
 94 Ni    0.25304    0.12495   -0.12060
 95 Fe    0.05006   -0.31947    0.05646
 96 Al    0.29249   -0.54551    0.54489
 97 Al   -0.83266   -0.17286   -0.16189
 98 Fe   -0.24438   -0.02902    0.28194
 99 Co   -0.14009   -0.01619   -0.09157
100 Fe   -0.25853   -0.13162   -0.09596
101 Co   -0.26578    0.35440   -0.13014
102 Al    0.51429   -0.12145    0.14170
103 Fe    0.06983    0.36016   -0.30831
104 Co   -0.02831   -0.04065   -0.29956
105 Ni   -0.07161   -0.28749    0.04708
106 Al   -0.29390    0.58984    0.17564
107 Cr    0.18140    0.20683   -0.33223

Date: Fri Apr 14 04:46:14 2023