User:   c.zeng@d0017
Date:   Thu Apr 13 23:33:57 2023
Arch:   x86_64
Pid:    274245
CWD:    /home/c.zeng/projects/hea-corrosion/hea-mlp/data-curation/bulk-md/dft-jobs/56
Python: 3.8.1
gpaw:   /home/c.zeng/usr/installs/gpaw/source/gpaw-22.8.0/gpaw
_gpaw:  /home/c.zeng/usr/installs/gpaw/source/gpaw-22.8.0/
        _gpaw.cpython-38-x86_64-linux-gnu.so
ase:    /home/c.zeng/.local/lib/python3.8/site-packages/ase-3.22.1-py3.8.egg/ase (version 3.22.1)
numpy:  /shared/centos7/python/3.8.1/lib/python3.8/site-packages/numpy (version 1.17.4)
scipy:  /shared/centos7/python/3.8.1/lib/python3.8/site-packages/scipy (version 1.4.1)
units:  Angstrom and eV
cores: 30
OpenMP: False
OMP_NUM_THREADS: 1

Input parameters:
  convergence: {energy: 0.0001}
  kpts: [2 2 2]
  maxiter: 666
  mode: {ecut: 350.0,
         name: pw}
  occupations: {fixmagmom: False,
                name: fermi-dirac,
                width: 0.1}
  spinpol: True
  xc: PBE

System changes: positions, numbers, cell, pbc, initial_charges, initial_magmoms

Initialize ...

species:
  Co:
    name: Cobalt
    id: 339d20d5b0b93d2de9531a1bee871d91
    Z: 27.0
    valence: 9
    core: 18
    charge: 0.0
    file: /home/c.zeng/usr/data/gpaw-setups-0.9.20000/Co.PBE.gz
    compensation charges: {type: gauss,
                           rc: 0.32,
                           lmax: 2}
    cutoffs: {filter: 1.87,
              core: 2.55}
    valence states:
      #              energy  rcut
      - 4s(2.00)    -5.469   1.005
      - 4p(0.00)    -1.277   1.058
      - 3d(7.00)    -8.205   1.005
      -  s          21.742   1.005
      -  p          25.934   1.058
      -  d          19.007   1.005

    # Using partial waves for Co as LCAO basis

  Ni:
    name: Nickel
    id: 0d9f38a9d6e76a2886f07bb4381f212b
    Z: 28.0
    valence: 16
    core: 12
    charge: 0.0
    file: /home/c.zeng/usr/data/gpaw-setups-0.9.20000/Ni.PBE.gz
    compensation charges: {type: gauss,
                           rc: 0.36,
                           lmax: 2}
    cutoffs: {filter: 2.14,
              core: 1.98}
    valence states:
      #              energy  rcut
      - 4s(2.00)    -5.642   1.164
      - 3p(6.00)   -71.394   1.207
      - 4p(0.00)    -1.226   1.207
      - 3d(8.00)    -8.875   1.138
      -  s          21.570   1.164
      -  d          18.337   1.138

[...]

  Al:
    name: Aluminium
    id: 0292cae29f5d6237e50f6abdd43a7bdd
    Z: 13.0
    valence: 3
    core: 10
    charge: 0.0
    file: /home/c.zeng/usr/data/gpaw-setups-0.9.20000/Al.PBE.gz
    compensation charges: {type: gauss,
                           rc: 0.34,
                           lmax: 2}
    cutoffs: {filter: 1.91,
              core: 2.36}
    valence states:
      #              energy  rcut
      - 3s(2.00)    -7.753   1.085
      - 3p(1.00)    -2.712   1.085
      -  s          19.459   1.085
      -  p          24.499   1.085
      -  d           0.000   1.085

[...]

  Cr:
    name: Chromium
    id: 33f258bda2ca9f93018e70263a35547b
    Z: 24.0
    valence: 6
    core: 18
    charge: 0.0
    file: /home/c.zeng/usr/data/gpaw-setups-0.9.20000/Cr.PBE.gz
    compensation charges: {type: gauss,
                           rc: 0.35,
                           lmax: 2}
    cutoffs: {filter: 2.14,
              core: 3.04}
    valence states:
      #              energy  rcut
      - 4s(1.00)    -4.007   1.164
      - 4p(0.00)    -0.989   1.217
      - 3d(5.00)    -2.913   1.111
      -  s          23.205   1.164
      -  p          26.223   1.217
      -  d          24.299   1.111

[...]

  Fe:
    name: Iron
    id: 37abbd8d6c3c35915a9b583b742da910
    Z: 26.0
    valence: 8
    core: 18
    charge: 0.0
    file: /home/c.zeng/usr/data/gpaw-setups-0.9.20000/Fe.PBE.gz
    compensation charges: {type: gauss,
                           rc: 0.33,
                           lmax: 2}
    cutoffs: {filter: 2.06,
              core: 2.67}
    valence states:
      #              energy  rcut
      - 4s(2.00)    -5.291   1.164
      - 4p(0.00)    -1.326   1.058
      - 3d(6.00)    -7.505   1.058
      -  s          21.920   1.164
      -  p          25.885   1.058
      -  d          19.706   1.058

    # Using partial waves for Fe as LCAO basis

Reference energy: -3548577.034362  # eV

Spin-polarized calculation.
Magnetic moment: 136.400000

Convergence criteria:
 Maximum [total energy] change in last 3 cyles: 0.0001 eV / electron
 Maximum integral of absolute [dens]ity change: 0.0001 electrons / valence electron
 Maximum integral of absolute [eigenst]ate change: 4e-08 eV^2 / valence electron
 Maximum number of scf [iter]ations: 666
 (Square brackets indicate name in SCF output, whereas a 'c' in
 the SCF output indicates the quantity has converged.)

Symmetries present (total): 1

  ( 1  0  0)
  ( 0  1  0)
  ( 0  0  1)

8 k-points: 2 x 2 x 2 Monkhorst-Pack grid
4 k-points in the irreducible part of the Brillouin zone
       k-points in crystal coordinates                weights
   0:     0.25000000   -0.25000000   -0.25000000          2/8
   1:     0.25000000   -0.25000000    0.25000000          2/8
   2:     0.25000000    0.25000000   -0.25000000          2/8
   3:     0.25000000    0.25000000    0.25000000          2/8

Wave functions: Plane wave expansion
  Cutoff energy: 350.000 eV
  Number of coefficients (min, max): 18331, 18331
  Pulay-stress correction: 0.000000 eV/Ang^3 (de/decut=0.000000)
  Using FFTW library
  ScaLapack parameters: grid=1x1, blocksize=None
  Wavefunction extrapolation:
    Improved wavefunction reuse through dual PAW basis

Occupation numbers: Fermi-Dirac:
  width: 0.1000  # eV

Eigensolver
   Davidson(niter=2)

Densities:
  Coarse grid: 48*48*48 grid
  Fine grid: 96*96*96 grid
  Total Charge: 0.000000

Density mixing:
  Method: difference
  Backend: pulay
  Linear mixing parameter: 0.05
  old densities: 5
  Damping of long wavelength oscillations: 50

Hamiltonian:
  XC and Coulomb potentials evaluated on a 96*96*96 grid
  Using the PBE Exchange-Correlation functional
  External potential:
    NoExternalPotential

XC parameters: PBE with 2 nearest neighbor stencil

Total number of cores used: 30
Parallelization over k-points: 2
Domain decomposition: 5 x 3 x 1

Number of atoms: 108
Number of atomic orbitals: 994
Number of bands in calculation: 674
Number of valence electrons: 980
Bands to converge: occupied

... initialized

Initializing position-dependent things.

Density initialized from atomic densities
Creating initial wave functions:
  674 bands from LCAO basis set

        .----------------Cr-------.
       /|  Cr       Fe      Cr    |
      Fe|   Co Fe                 |
     /  |       Ni               Ni
    /   AAli     Co    Ni         |
   /    |  Co    FeFeCo    FeFe   |
  /   Cr|    Fe     CoNi      Co  |
 *    CNiCr   CoAl     CoCr   Al  |
 |Co    |FeFe  CoCoCr     Cr      |
 | Cr   Ni  CoFe Co CFAl   Fe     |
 |     Fe  NiNiCr   CrCoNi  NiFe  |
 |    NiFe     CCo   FeCCr   Fe   |
 |      |NiNi  NiCrNi   Cr FNi  Al|
 |      .-NiNiCo---CoCr----FeCr---.
 |   Coi     CrNi     Cr         /
 |    /Al        Al   FNi Cr    /
 |   /     Fe     Cr      Cr   /
 |  /       Cr     Fe       Nio
 | /  Al                     /
 |/            Fe       Al  /
 *-------------------------Co

Positions:
   0 Co    10.641247    0.040874   10.848123    ( 0.0000,  0.0000,  2.1000)
   1 Ni    10.666735    1.988064    1.692259    ( 0.0000,  0.0000,  1.5000)
   2 Al     1.897086    0.101006    1.770004    ( 0.0000,  0.0000,  0.0000)
   3 Cr     1.670947    1.795577   10.620738    ( 0.0000,  0.0000,  0.0000)
   4 Cr     3.373432    0.145572   10.597136    ( 0.0000,  0.0000,  0.0000)
   5 Fe     3.637410    1.908179    2.005080    ( 0.0000,  0.0000,  2.0000)
   6 Fe     5.350467   -0.035741    1.615872    ( 0.0000,  0.0000,  2.0000)
   7 Fe     5.380152    1.664698    0.168559    ( 0.0000,  0.0000,  2.0000)
   8 Cr     6.932062   -0.187190   -0.016325    ( 0.0000,  0.0000,  0.0000)
   9 Fe     7.122988    1.663196    1.675442    ( 0.0000,  0.0000,  2.0000)
  10 Fe     8.839777   -0.151696    1.616399    ( 0.0000,  0.0000,  2.0000)
  11 Al     8.994253    2.043645    0.083888    ( 0.0000,  0.0000,  0.0000)
  12 Co    10.721829    3.732932   10.838451    ( 0.0000,  0.0000,  2.1000)
  13 Fe    10.848775    5.682317    1.505578    ( 0.0000,  0.0000,  2.0000)
  14 Al     1.636635    3.866293    2.128891    ( 0.0000,  0.0000,  0.0000)
  15 Al     1.894807    5.309608   10.627672    ( 0.0000,  0.0000,  0.0000)
  16 Cr     3.645842    3.692242   10.943347    ( 0.0000,  0.0000,  0.0000)
  17 Cr     3.375231    5.682951    2.005172    ( 0.0000,  0.0000,  0.0000)
  18 Al     5.635795    3.752384    1.883047    ( 0.0000,  0.0000,  0.0000)
  19 Co     5.172030    5.276358   10.621802    ( 0.0000,  0.0000,  2.1000)
  20 Co     7.199973    3.539667   -0.037824    ( 0.0000,  0.0000,  2.1000)
  21 Cr     7.203753    5.282403    1.767766    ( 0.0000,  0.0000,  0.0000)
  22 Cr     9.123974    3.733787    1.734763    ( 0.0000,  0.0000,  0.0000)
  23 Cr     8.833335    5.417941    0.024225    ( 0.0000,  0.0000,  0.0000)
  24 Fe    10.738070    7.288824   10.572605    ( 0.0000,  0.0000,  2.0000)
  25 Al    10.582220    8.693820    1.699182    ( 0.0000,  0.0000,  0.0000)
  26 Ni     1.742180    7.298917    1.864922    ( 0.0000,  0.0000,  1.5000)
  27 Cr     1.889479    9.046088   10.682271    ( 0.0000,  0.0000,  0.0000)
  28 Fe     3.745096    7.445261   10.709917    ( 0.0000,  0.0000,  2.0000)
  29 Ni     3.497577    8.895707    1.893294    ( 0.0000,  0.0000,  1.5000)
  30 Co     5.314785    7.097078    1.659233    ( 0.0000,  0.0000,  2.1000)
  31 Fe     5.305979    9.108045   10.553003    ( 0.0000,  0.0000,  2.0000)
  32 Fe     6.915852    6.925767   10.787273    ( 0.0000,  0.0000,  2.0000)
  33 Cr     6.989344    8.930009    1.646971    ( 0.0000,  0.0000,  0.0000)
  34 Fe     8.948384    7.124265    1.778209    ( 0.0000,  0.0000,  2.0000)
  35 Cr     8.668830    8.657834   -0.085423    ( 0.0000,  0.0000,  0.0000)
  36 Ni    10.898715   -0.010383    3.376509    ( 0.0000,  0.0000,  1.5000)
  37 Ni    -0.221398    1.951108    5.176271    ( 0.0000,  0.0000,  1.5000)
  38 Co     1.798033    0.131170    5.272316    ( 0.0000,  0.0000,  2.1000)
  39 Ni     1.704113    1.856524    3.549697    ( 0.0000,  0.0000,  1.5000)
  40 Co     3.637479   -0.230254    3.613717    ( 0.0000,  0.0000,  2.1000)
  41 Ni     3.510538    1.825792    5.210927    ( 0.0000,  0.0000,  1.5000)
  42 Co     5.345729    0.087664    5.321047    ( 0.0000,  0.0000,  2.1000)
  43 Ni     5.344569    1.725783    3.739200    ( 0.0000,  0.0000,  1.5000)
  44 Cr     7.194427    0.007893    3.518676    ( 0.0000,  0.0000,  0.0000)
  45 Co     7.139749    1.789131    5.262698    ( 0.0000,  0.0000,  2.1000)
  46 Al     9.102350   10.639069    5.026693    ( 0.0000,  0.0000,  0.0000)
  47 Ni     8.829468    1.616982    3.255724    ( 0.0000,  0.0000,  1.5000)
  48 Cr    10.665842    3.598652    3.559462    ( 0.0000,  0.0000,  0.0000)
  49 Fe    -0.062394    5.133197    5.456548    ( 0.0000,  0.0000,  2.0000)
  50 Fe     1.833971    3.431715    5.269442    ( 0.0000,  0.0000,  2.0000)
  51 Ni     1.758090    5.498479    3.809533    ( 0.0000,  0.0000,  1.5000)
  52 Ni     3.667108    3.745329    3.602208    ( 0.0000,  0.0000,  1.5000)
  53 Ni     3.506815    5.246852    5.298766    ( 0.0000,  0.0000,  1.5000)
  54 Co     5.331823    3.573423    5.590942    ( 0.0000,  0.0000,  2.1000)
  55 Cr     5.278496    5.461124    3.715990    ( 0.0000,  0.0000,  0.0000)
  56 Cr     7.279899    3.692333    3.491540    ( 0.0000,  0.0000,  0.0000)
  57 Co     7.148556    5.447622    5.307905    ( 0.0000,  0.0000,  2.1000)
  58 Cr     8.669134    3.595496    5.255741    ( 0.0000,  0.0000,  0.0000)
  59 Fe     9.128296    5.167342    3.665145    ( 0.0000,  0.0000,  2.0000)
[...]
  93 Ni     7.213901    5.122482    9.035218    ( 0.0000,  0.0000,  1.5000)
  94 Cr     8.866472    3.408903    8.820888    ( 0.0000,  0.0000,  0.0000)
  95 Cr     9.003268    5.316757    7.065574    ( 0.0000,  0.0000,  0.0000)
  96 Co    10.809100    7.210168    7.071518    ( 0.0000,  0.0000,  2.1000)
  97 Ni    10.668942    9.079267    8.994521    ( 0.0000,  0.0000,  1.5000)
  98 Ni     1.674094    7.269183    9.061555    ( 0.0000,  0.0000,  1.5000)
  99 Co     1.882396    8.835459    7.289287    ( 0.0000,  0.0000,  2.1000)
 100 Co     3.553363    7.028538    7.216146    ( 0.0000,  0.0000,  2.1000)
 101 Ni     3.736997    8.940585    8.858519    ( 0.0000,  0.0000,  1.5000)
 102 Fe     5.383478    7.148167    8.891191    ( 0.0000,  0.0000,  2.0000)
 103 Co     5.309464    9.006247    6.992292    ( 0.0000,  0.0000,  2.1000)
 104 Co     7.201495    7.002706    7.277874    ( 0.0000,  0.0000,  2.1000)
 105 Ni     6.864838    8.952285    8.781046    ( 0.0000,  0.0000,  1.5000)
 106 Fe     8.968075    7.240114    8.721989    ( 0.0000,  0.0000,  2.0000)
 107 Fe     9.023877    9.191198    7.060108    ( 0.0000,  0.0000,  2.0000)

Unit cell:
           periodic     x           y           z      points  spacing
  1. axis:    yes   10.722400    0.000000    0.000000    48     0.2234
  2. axis:    yes    0.000000   10.722400    0.000000    48     0.2234
  3. axis:    yes    0.000000    0.000000   10.722400    48     0.2234

  Lengths:  10.722400  10.722400  10.722400
  Angles:   90.000000  90.000000  90.000000

Effective grid spacing dv^(1/3) = 0.2234

     iter     time        total  log10-change:  magmom
                         energy  eigst   dens
iter:   1 23:39:28 -1011.031904                  +136.6834
iter:   2 23:41:57  -895.543373  -0.25  -1.19    +76.0748
iter:   3 23:44:26  -891.009133  -0.83  -1.22    +64.0345
iter:   4 23:46:56  -868.754098  -1.20  -1.27    +59.7111
iter:   5 23:49:25  -855.198647  -1.59  -1.29    +56.4497
iter:   6 23:51:54  -860.875213  -1.25  -1.36    +56.7049
iter:   7 23:54:24  -849.756855  -1.20  -1.41    +54.3896
iter:   8 23:56:52  -837.434609  -1.63  -1.55    +52.8426
iter:   9 23:59:21  -836.761718  -2.12  -1.74    +53.6398
iter:  10 00:01:50  -836.628814  -2.30  -1.78    +54.5932
iter:  11 00:04:19  -836.824612  -2.54  -1.82    +55.3938
iter:  12 00:06:48  -837.610333  -2.43  -1.84    +56.8060
iter:  13 00:09:16  -837.920736  -2.43  -1.86    +57.2874
iter:  14 00:11:45  -837.018962  -2.35  -1.92    +57.1933
iter:  15 00:14:14  -836.911526  -2.65  -2.04    +58.1411
iter:  16 00:16:42  -837.213809  -2.77  -2.07    +58.4855
iter:  17 00:19:11  -836.629531  -2.95  -2.11    +58.7063
iter:  18 00:21:40  -837.263417  -2.87  -2.19    +59.1384
iter:  19 00:24:09  -836.827380  -3.01  -2.16    +59.5504
iter:  20 00:26:38  -837.018461  -3.09  -2.23    +59.7855
iter:  21 00:29:07  -836.794487  -3.02  -2.27    +59.5886
iter:  22 00:31:36  -836.678917  -3.28  -2.38    +60.0774
iter:  23 00:34:05  -836.938512  -3.16  -2.47    +60.3272
iter:  24 00:36:33  -836.577322  -3.42  -2.39    +60.2895
iter:  25 00:39:02  -836.634030  -3.72  -2.64    +60.5071
iter:  26 00:41:31  -836.619090c -4.04  -2.66    +60.6503
iter:  27 00:43:57  -836.654153c -4.00  -2.69    +60.7467
iter:  28 00:46:26  -836.641841c -4.06  -2.70    +60.7659
iter:  29 00:48:55  -836.647719c -4.06  -2.77    +60.9066
iter:  30 00:51:23  -836.662822c -4.27  -2.87    +60.9262
iter:  31 00:53:52  -836.660882c -4.45  -2.85    +60.9181
iter:  32 00:56:21  -836.675607c -4.53  -2.94    +60.9852
iter:  33 00:58:49  -836.686535c -4.66  -2.95    +60.9886
iter:  34 01:01:18  -836.698735c -4.62  -2.98    +60.9410
iter:  35 01:03:47  -836.705052c -4.77  -3.00    +60.9355
iter:  36 01:06:10  -836.714435c -4.58  -3.00    +60.9492
iter:  37 01:08:38  -836.720779c -4.73  -3.05    +60.9058
iter:  38 01:11:07  -836.729765c -4.64  -3.08    +60.8255
iter:  39 01:13:36  -836.730548c -4.73  -3.07    +60.8302
iter:  40 01:16:04  -836.736237c -4.82  -3.11    +60.8505
iter:  41 01:18:33  -836.741425c -4.91  -3.15    +60.8010
iter:  42 01:20:58  -836.741031c -5.21  -3.15    +60.7595
iter:  43 01:23:24  -836.745436c -5.28  -3.19    +60.7349
iter:  44 01:25:52  -836.750963c -5.32  -3.21    +60.7296
iter:  45 01:28:22  -836.779905c -4.00  -3.21    +60.6142
iter:  46 01:30:47  -836.796296c -4.05  -3.09    +60.5906
iter:  47 01:33:16  -836.789771c -4.62  -3.05    +60.6584
iter:  48 01:35:45  -836.794794c -4.81  -3.20    +60.6577
iter:  49 01:38:14  -836.784560c -5.04  -3.16    +60.6414
iter:  50 01:40:37  -836.789016c -5.03  -3.39    +60.6256
iter:  51 01:43:06  -836.782852c -4.97  -3.34    +60.6314
iter:  52 01:45:40  -836.782843c -5.64  -3.53    +60.6149
iter:  53 01:48:00  -836.783301c -5.74  -3.61    +60.5832
iter:  54 01:50:29  -836.783442c -5.70  -3.63    +60.5414
iter:  55 01:52:59  -836.782922c -5.64  -3.67    +60.5305
iter:  56 01:55:22  -836.782712c -6.01  -3.81    +60.5256
iter:  57 01:57:43  -836.783217c -5.93  -3.85    +60.5192
iter:  58 02:00:04  -836.782779c -6.15  -3.84    +60.5171
iter:  59 02:02:33  -836.782732c -6.38  -3.94    +60.5048
iter:  60 02:05:14  -836.782659c -6.38  -4.00c   +60.5027
iter:  61 02:07:36  -836.782718c -6.42  -4.04c   +60.4913
iter:  62 02:10:06  -836.782728c -6.58  -4.05c   +60.4905
iter:  63 02:12:36  -836.782679c -6.65  -4.12c   +60.4917
iter:  64 02:15:05  -836.782654c -6.74  -4.15c   +60.4887
iter:  65 02:17:32  -836.782684c -6.88  -4.16c   +60.4903
iter:  66 02:19:54  -836.782720c -7.00  -4.25c   +60.4880
iter:  67 02:22:16  -836.782611c -7.20  -4.25c   +60.4902
iter:  68 02:24:40  -836.782714c -7.17  -4.34c   +60.4867
iter:  69 02:27:02  -836.782645c -7.14  -4.35c   +60.4892
iter:  70 02:29:23  -836.782635c -7.33  -4.39c   +60.4890
iter:  71 02:31:53  -836.782637c -7.24  -4.44c   +60.4893
iter:  72 02:34:20  -836.782685c -7.34  -4.47c   +60.4887
iter:  73 02:36:43  -836.782612c -7.35  -4.47c   +60.4892
iter:  74 02:39:06  -836.782735c -7.26  -4.53c   +60.4881
iter:  75 02:41:34  -836.782663c -7.47c -4.50c   +60.4888

Converged after 75 iterations.

Dipole moment: (-22.477929, -5.313372, 6.684925) |e|*Ang

Total magnetic moment: (0.000000, 0.000000, 60.488783)
Local magnetic moments:
   0 Co ( 0.000000,  0.000000,  0.761873)
   1 Ni ( 0.000000,  0.000000,  0.068506)
   2 Al ( 0.000000,  0.000000, -0.013810)
   3 Cr ( 0.000000,  0.000000, -0.402468)
   4 Cr ( 0.000000,  0.000000, -0.019375)
   5 Fe ( 0.000000,  0.000000,  2.367433)
   6 Fe ( 0.000000,  0.000000,  1.317487)
   7 Fe ( 0.000000,  0.000000,  0.808581)
   8 Cr ( 0.000000,  0.000000, -0.522908)
   9 Fe ( 0.000000,  0.000000,  1.660509)
  10 Fe ( 0.000000,  0.000000,  1.923758)
  11 Al ( 0.000000,  0.000000, -0.020767)
  12 Co ( 0.000000,  0.000000,  0.278121)
  13 Fe ( 0.000000,  0.000000,  1.938512)
  14 Al ( 0.000000,  0.000000, -0.011672)
  15 Al ( 0.000000,  0.000000, -0.030773)
  16 Cr ( 0.000000,  0.000000, -1.530716)
  17 Cr ( 0.000000,  0.000000,  1.473682)
  18 Al ( 0.000000,  0.000000, -0.016818)
  19 Co ( 0.000000,  0.000000,  0.838712)
  20 Co ( 0.000000,  0.000000,  0.336187)
  21 Cr ( 0.000000,  0.000000, -0.285972)
  22 Cr ( 0.000000,  0.000000,  0.361093)
  23 Cr ( 0.000000,  0.000000, -1.413422)
  24 Fe ( 0.000000,  0.000000,  1.886554)
  25 Al ( 0.000000,  0.000000, -0.019026)
  26 Ni ( 0.000000,  0.000000,  0.321905)
  27 Cr ( 0.000000,  0.000000, -1.539163)
  28 Fe ( 0.000000,  0.000000,  2.240414)
  29 Ni ( 0.000000,  0.000000,  0.300218)
  30 Co ( 0.000000,  0.000000,  0.996395)
  31 Fe ( 0.000000,  0.000000,  1.346165)
  32 Fe ( 0.000000,  0.000000,  1.697492)
  33 Cr ( 0.000000,  0.000000, -0.437713)
  34 Fe ( 0.000000,  0.000000,  1.782077)
  35 Cr ( 0.000000,  0.000000, -1.384061)
  36 Ni ( 0.000000,  0.000000,  0.240033)
  37 Ni ( 0.000000,  0.000000,  0.070809)
  38 Co ( 0.000000,  0.000000,  1.509861)
  39 Ni ( 0.000000,  0.000000,  0.416783)
  40 Co ( 0.000000,  0.000000,  1.300265)
  41 Ni ( 0.000000,  0.000000,  0.459147)
  42 Co ( 0.000000,  0.000000,  1.223643)
  43 Ni ( 0.000000,  0.000000,  0.365090)
  44 Cr ( 0.000000,  0.000000, -0.584513)
  45 Co ( 0.000000,  0.000000,  0.947826)
  46 Al ( 0.000000,  0.000000, -0.006395)
  47 Ni ( 0.000000,  0.000000,  0.126867)
  48 Cr ( 0.000000,  0.000000, -0.208507)
  49 Fe ( 0.000000,  0.000000,  1.615158)
  50 Fe ( 0.000000,  0.000000,  2.376516)
  51 Ni ( 0.000000,  0.000000,  0.241016)
  52 Ni ( 0.000000,  0.000000,  0.275110)
  53 Ni ( 0.000000,  0.000000,  0.359850)
  54 Co ( 0.000000,  0.000000,  1.491739)
  55 Cr ( 0.000000,  0.000000, -1.256491)
  56 Cr ( 0.000000,  0.000000,  0.082409)
  57 Co ( 0.000000,  0.000000,  0.634394)
  58 Cr ( 0.000000,  0.000000, -0.178906)
  59 Fe ( 0.000000,  0.000000, -0.846458)
[...]
  93 Ni ( 0.000000,  0.000000,  0.228413)
  94 Cr ( 0.000000,  0.000000,  0.952640)
  95 Cr ( 0.000000,  0.000000, -1.264752)
  96 Co ( 0.000000,  0.000000,  1.107462)
  97 Ni ( 0.000000,  0.000000,  0.292839)
  98 Ni ( 0.000000,  0.000000,  0.378945)
  99 Co ( 0.000000,  0.000000,  1.413461)
 100 Co ( 0.000000,  0.000000,  1.477495)
 101 Ni ( 0.000000,  0.000000,  0.380039)
 102 Fe ( 0.000000,  0.000000,  2.390060)
 103 Co ( 0.000000,  0.000000,  1.393972)
 104 Co ( 0.000000,  0.000000,  1.276966)
 105 Ni ( 0.000000,  0.000000,  0.356733)
 106 Fe ( 0.000000,  0.000000,  2.271982)
 107 Fe ( 0.000000,  0.000000,  2.010664)

Energy contributions relative to reference atoms: (reference = -3548577.034362)

Kinetic:       +369.499438
Potential:     -365.441593
External:        +0.000000
XC:            -874.350744
Entropy (-ST):   -4.489500
Local:          +35.754986
Free energy:   -839.027413
Extrapolated:  -836.782663

Spin contamination: 22.143944 electrons
Showing only first 2 kpts
                      Up                     Down
 Kpt  Band  Eigenvalues  Occupancy  Eigenvalues  Occupancy
  0   488      9.51384    0.99401     10.38893    0.02561
  0   489      9.53990    0.99224     10.39865    0.02329
  0   490      9.54574    0.99178     10.41099    0.02064
  0   491      9.55952    0.99058     10.41801    0.01927

  1   488      9.52203    0.99351     10.39039    0.02525
  1   489      9.53731    0.99244     10.40054    0.02287
  1   490      9.54747    0.99164     10.41649    0.01956
  1   491      9.56204    0.99034     10.42492    0.01801

Fermi level: 10.02505

No gap

Forces in eV/Ang:
  0 Co    0.63328   -0.73266   -0.31498
  1 Ni    1.31661   -1.63048    0.91615
  2 Al   -0.66793   -0.32309    1.27720
  3 Cr   -0.21511    0.25607    0.67415
  4 Cr    1.69079   -0.37547    0.18013
  5 Fe   -0.12128   -0.17389   -0.76162
  6 Fe   -0.90078   -0.23197    2.08801
  7 Fe   -1.25592    1.84071   -0.85577
  8 Cr    1.13953    0.97378   -0.15349
  9 Fe   -0.40202    0.21961    0.43094
 10 Fe    0.03600    0.32456    0.23150
 11 Al    0.28194   -2.23973   -0.43294
 12 Co    0.47008   -0.01284   -1.64853
 13 Fe   -1.29581   -0.33751    1.98003
 14 Al    2.05761   -1.47507   -2.34776
 15 Al   -1.43880    1.63138   -0.10544
 16 Cr   -0.55111   -1.73610    0.14418
 17 Cr    1.72236   -1.10170   -1.27704
 18 Al   -3.91500   -2.69228   -1.01279
 19 Co    0.45154    0.38564    0.58952
 20 Co   -0.85465   -0.16004    0.60850
 21 Cr    1.04618    2.93093    0.41706
 22 Cr   -0.86557    1.04307    1.23935
 23 Cr    1.19506    0.27423   -0.80790
 24 Fe   -0.65579   -1.07598   -0.26518
 25 Al    0.91065    2.25745    1.52364
 26 Ni    0.62762   -0.11671   -0.45438
 27 Cr   -0.38000   -0.51663   -0.50619
 28 Fe   -1.51732   -1.76972   -0.32457
 29 Ni    0.89530    0.36803   -0.50315
 30 Co   -0.08367    0.00264    1.29489
 31 Fe   -0.15013   -0.97440    1.19687
 32 Fe    0.98416    1.18160   -0.97821
 33 Cr    0.19280   -0.70970    1.23906
 34 Fe   -1.41900   -1.33774   -0.19752
 35 Cr    0.52373    0.02572   -0.51866
 36 Ni   -1.38221    0.04462   -0.02242
 37 Ni    1.09557   -0.96716    0.26859
 38 Co    0.09405   -0.69715   -0.29382
 39 Ni    0.43205   -0.43218   -0.41540
 40 Co   -0.25954    1.67177    0.39259
 41 Ni    0.88127   -0.39050    0.28554
 42 Co    0.35151   -0.76433    0.49467
 43 Ni    0.37075    0.88070   -1.92253
 44 Cr   -2.01984   -0.60390   -0.44324
 45 Co   -0.17054    0.46866   -0.47574
 46 Al    0.40335    0.48719    0.81885
 47 Ni    1.27732    1.56035    1.27339
 48 Cr   -1.98293   -0.16980    1.67589
 49 Fe    0.56351    0.61726    0.53376
 50 Fe   -0.86311    1.26190    0.28168
 51 Ni    0.14673   -0.46598   -0.62380
 52 Ni   -0.03725   -1.28329   -0.86827
 53 Ni    0.58491    1.28379    1.93592
 54 Co    0.30020    0.20988   -0.87258
 55 Cr    0.78907    0.62312    0.21859
 56 Cr    0.22532   -0.72984    1.26831
 57 Co    0.12486   -0.49791    0.08936
 58 Cr    0.51483   -0.39153    0.45811
 59 Fe   -0.70626    2.11157   -0.80912
[...]
 93 Ni   -0.88169    1.83814   -1.12479
 94 Cr    1.11007    0.55367   -0.46777
 95 Cr   -0.57482    0.01606    0.61882
 96 Co   -1.09005    0.05810    0.84224
 97 Ni   -0.27236   -0.01648   -0.08051
 98 Ni    1.36460   -0.81489   -1.02353
 99 Co    0.48564    0.54976   -0.17135
100 Co    0.67929    0.79130    0.01946
101 Ni   -1.26082    0.27944   -0.53518
102 Fe   -0.17472   -0.83907    0.00893
103 Co    0.04821   -0.05942    0.15478
104 Co   -0.34481    0.11419   -0.68557
105 Ni    1.53714    0.54745   -0.05266
106 Fe   -0.27977   -0.16000    0.60836
107 Fe   -1.29743   -2.28190    0.36105

Date: Fri Apr 14 02:41:57 2023