User:   c.zeng@d0097
Date:   Thu Apr 13 20:27:18 2023
Arch:   x86_64
Pid:    1606
CWD:    /home/c.zeng/projects/hea-corrosion/hea-mlp/data-curation/bulk-md/dft-jobs/45
Python: 3.8.1
gpaw:   /home/c.zeng/usr/installs/gpaw/source/gpaw-22.8.0/gpaw
_gpaw:  /home/c.zeng/usr/installs/gpaw/source/gpaw-22.8.0/
        _gpaw.cpython-38-x86_64-linux-gnu.so
ase:    /home/c.zeng/.local/lib/python3.8/site-packages/ase-3.22.1-py3.8.egg/ase (version 3.22.1)
numpy:  /shared/centos7/python/3.8.1/lib/python3.8/site-packages/numpy (version 1.17.4)
scipy:  /shared/centos7/python/3.8.1/lib/python3.8/site-packages/scipy (version 1.4.1)
units:  Angstrom and eV
cores: 30
OpenMP: False
OMP_NUM_THREADS: 1

Input parameters:
  convergence: {energy: 0.0001}
  kpts: [2 2 2]
  maxiter: 666
  mode: {ecut: 350.0,
         name: pw}
  occupations: {fixmagmom: False,
                name: fermi-dirac,
                width: 0.1}
  spinpol: True
  xc: PBE

System changes: positions, numbers, cell, pbc, initial_charges, initial_magmoms

Initialize ...

species:
  Co:
    name: Cobalt
    id: 339d20d5b0b93d2de9531a1bee871d91
    Z: 27.0
    valence: 9
    core: 18
    charge: 0.0
    file: /home/c.zeng/usr/data/gpaw-setups-0.9.20000/Co.PBE.gz
    compensation charges: {type: gauss,
                           rc: 0.32,
                           lmax: 2}
    cutoffs: {filter: 1.87,
              core: 2.55}
    valence states:
      #              energy  rcut
      - 4s(2.00)    -5.469   1.005
      - 4p(0.00)    -1.277   1.058
      - 3d(7.00)    -8.205   1.005
      -  s          21.742   1.005
      -  p          25.934   1.058
      -  d          19.007   1.005

    # Using partial waves for Co as LCAO basis

  Ni:
    name: Nickel
    id: 0d9f38a9d6e76a2886f07bb4381f212b
    Z: 28.0
    valence: 16
    core: 12
    charge: 0.0
    file: /home/c.zeng/usr/data/gpaw-setups-0.9.20000/Ni.PBE.gz
    compensation charges: {type: gauss,
                           rc: 0.36,
                           lmax: 2}
    cutoffs: {filter: 2.14,
              core: 1.98}
    valence states:
      #              energy  rcut
      - 4s(2.00)    -5.642   1.164
      - 3p(6.00)   -71.394   1.207
      - 4p(0.00)    -1.226   1.207
      - 3d(8.00)    -8.875   1.138
      -  s          21.570   1.164
      -  d          18.337   1.138

[...]

  Al:
    name: Aluminium
    id: 0292cae29f5d6237e50f6abdd43a7bdd
    Z: 13.0
    valence: 3
    core: 10
    charge: 0.0
    file: /home/c.zeng/usr/data/gpaw-setups-0.9.20000/Al.PBE.gz
    compensation charges: {type: gauss,
                           rc: 0.34,
                           lmax: 2}
    cutoffs: {filter: 1.91,
              core: 2.36}
    valence states:
      #              energy  rcut
      - 3s(2.00)    -7.753   1.085
      - 3p(1.00)    -2.712   1.085
      -  s          19.459   1.085
      -  p          24.499   1.085
      -  d           0.000   1.085

[...]

  Cr:
    name: Chromium
    id: 33f258bda2ca9f93018e70263a35547b
    Z: 24.0
    valence: 6
    core: 18
    charge: 0.0
    file: /home/c.zeng/usr/data/gpaw-setups-0.9.20000/Cr.PBE.gz
    compensation charges: {type: gauss,
                           rc: 0.35,
                           lmax: 2}
    cutoffs: {filter: 2.14,
              core: 3.04}
    valence states:
      #              energy  rcut
      - 4s(1.00)    -4.007   1.164
      - 4p(0.00)    -0.989   1.217
      - 3d(5.00)    -2.913   1.111
      -  s          23.205   1.164
      -  p          26.223   1.217
      -  d          24.299   1.111

[...]

  Fe:
    name: Iron
    id: 37abbd8d6c3c35915a9b583b742da910
    Z: 26.0
    valence: 8
    core: 18
    charge: 0.0
    file: /home/c.zeng/usr/data/gpaw-setups-0.9.20000/Fe.PBE.gz
    compensation charges: {type: gauss,
                           rc: 0.33,
                           lmax: 2}
    cutoffs: {filter: 2.06,
              core: 2.67}
    valence states:
      #              energy  rcut
      - 4s(2.00)    -5.291   1.164
      - 4p(0.00)    -1.326   1.058
      - 3d(6.00)    -7.505   1.058
      -  s          21.920   1.164
      -  p          25.885   1.058
      -  d          19.706   1.058

    # Using partial waves for Fe as LCAO basis

Reference energy: -3548577.034362  # eV

Spin-polarized calculation.
Magnetic moment: 136.400000

Convergence criteria:
 Maximum [total energy] change in last 3 cyles: 0.0001 eV / electron
 Maximum integral of absolute [dens]ity change: 0.0001 electrons / valence electron
 Maximum integral of absolute [eigenst]ate change: 4e-08 eV^2 / valence electron
 Maximum number of scf [iter]ations: 666
 (Square brackets indicate name in SCF output, whereas a 'c' in
 the SCF output indicates the quantity has converged.)

Symmetries present (total): 1

  ( 1  0  0)
  ( 0  1  0)
  ( 0  0  1)

8 k-points: 2 x 2 x 2 Monkhorst-Pack grid
4 k-points in the irreducible part of the Brillouin zone
       k-points in crystal coordinates                weights
   0:     0.25000000   -0.25000000   -0.25000000          2/8
   1:     0.25000000   -0.25000000    0.25000000          2/8
   2:     0.25000000    0.25000000   -0.25000000          2/8
   3:     0.25000000    0.25000000    0.25000000          2/8

Wave functions: Plane wave expansion
  Cutoff energy: 350.000 eV
  Number of coefficients (min, max): 18331, 18331
  Pulay-stress correction: 0.000000 eV/Ang^3 (de/decut=0.000000)
  Using FFTW library
  ScaLapack parameters: grid=1x1, blocksize=None
  Wavefunction extrapolation:
    Improved wavefunction reuse through dual PAW basis

Occupation numbers: Fermi-Dirac:
  width: 0.1000  # eV

Eigensolver
   Davidson(niter=2)

Densities:
  Coarse grid: 48*48*48 grid
  Fine grid: 96*96*96 grid
  Total Charge: 0.000000

Density mixing:
  Method: difference
  Backend: pulay
  Linear mixing parameter: 0.05
  old densities: 5
  Damping of long wavelength oscillations: 50

Hamiltonian:
  XC and Coulomb potentials evaluated on a 96*96*96 grid
  Using the PBE Exchange-Correlation functional
  External potential:
    NoExternalPotential

XC parameters: PBE with 2 nearest neighbor stencil

Total number of cores used: 30
Parallelization over k-points: 2
Domain decomposition: 5 x 3 x 1

Number of atoms: 108
Number of atomic orbitals: 994
Number of bands in calculation: 674
Number of valence electrons: 980
Bands to converge: occupied

... initialized

Initializing position-dependent things.

Density initialized from atomic densities
Creating initial wave functions:
  674 bands from LCAO basis set

        .------------------------Co
       /|  Cr               Cr    |
     /  |   Co          Ni      Fe|
    /  Ni      Nie Fe     CrFe    |
   /    | Ni Fe     Co      Fe    |
  /  CoCr  Co  Fe    CNio         |
 *      Ni     CoAl      Cr    Co |
 | Co   |FeFe  CoCo Cr  CrCr    Ni|
 |  Cr  NiCrCoFe CoCoFAl   Fe     |
 |    Fe|  NiNiCr   CrCo Ni  NFe  |
 |     Fe     CoCoNi FeCrCr   FNi |
 Al     Ni Ni  Ni CrCo   CFe     Al
 |   Co .Ni-Ni---CrCo-Al-Cr-Ni----.
 |     /      CNi   FeCr    FCr  /
 |    /Ni     Fe  Cr   FNir   Fe/
 |   /  Al      AlCo           /
 |Ni/    AlFe      FeCo       /
 | /o Al    Cr               /
 |/                     Al  /

Positions:
   0 Co    10.453165   -0.060904   10.479219    ( 0.0000,  0.0000,  2.1000)
   1 Ni    10.755301    1.687024    1.763728    ( 0.0000,  0.0000,  1.5000)
   2 Al     1.908951    0.172259    1.748250    ( 0.0000,  0.0000,  0.0000)
   3 Cr     1.835235    1.744297   10.598142    ( 0.0000,  0.0000,  0.0000)
   4 Cr     3.611346   -0.288036   10.810844    ( 0.0000,  0.0000,  0.0000)
   5 Fe     3.778715    1.665602    1.955823    ( 0.0000,  0.0000,  2.0000)
   6 Fe     5.349329   -0.061577    2.088803    ( 0.0000,  0.0000,  2.0000)
   7 Fe     5.483766    1.706772   -0.000768    ( 0.0000,  0.0000,  2.0000)
   8 Cr     7.120419   -0.236324    0.012353    ( 0.0000,  0.0000,  0.0000)
   9 Fe     7.054956    1.743468    1.749855    ( 0.0000,  0.0000,  2.0000)
  10 Fe     8.962133   -0.066486    1.680243    ( 0.0000,  0.0000,  2.0000)
  11 Al     8.817646    1.838057    0.210021    ( 0.0000,  0.0000,  0.0000)
  12 Co    10.813711    3.373553   10.733796    ( 0.0000,  0.0000,  2.1000)
  13 Fe    10.626325    5.220594    1.585279    ( 0.0000,  0.0000,  2.0000)
  14 Al     1.815573    3.378059    1.817152    ( 0.0000,  0.0000,  0.0000)
  15 Al     1.836486    5.292859   10.737982    ( 0.0000,  0.0000,  0.0000)
  16 Cr     3.509583    3.594950   10.846650    ( 0.0000,  0.0000,  0.0000)
  17 Cr     3.709516    5.398694    1.788154    ( 0.0000,  0.0000,  0.0000)
  18 Al     5.136471    3.422933    1.715217    ( 0.0000,  0.0000,  0.0000)
  19 Co     5.602699    5.502564   10.811985    ( 0.0000,  0.0000,  2.1000)
  20 Co     7.331881    3.749549    0.127455    ( 0.0000,  0.0000,  2.1000)
  21 Cr     7.163888    5.250676    1.904591    ( 0.0000,  0.0000,  0.0000)
  22 Cr     8.943202    3.684248    1.748160    ( 0.0000,  0.0000,  0.0000)
  23 Cr     8.981354    5.410189   -0.201769    ( 0.0000,  0.0000,  0.0000)
  24 Fe    10.707536    7.141317   10.572731    ( 0.0000,  0.0000,  2.0000)
  25 Al    10.704407    8.943249    1.874986    ( 0.0000,  0.0000,  0.0000)
  26 Ni     1.519082    7.269825    1.777093    ( 0.0000,  0.0000,  1.5000)
  27 Cr     1.695091    8.917227   10.556316    ( 0.0000,  0.0000,  0.0000)
  28 Fe     3.569981    7.130092   10.815209    ( 0.0000,  0.0000,  2.0000)
  29 Ni     3.296707    8.895418    1.862724    ( 0.0000,  0.0000,  1.5000)
  30 Co     5.553072    6.940407    1.756668    ( 0.0000,  0.0000,  2.1000)
  31 Fe     5.280999    8.794743   10.827998    ( 0.0000,  0.0000,  2.0000)
  32 Fe     7.330295    6.935368   10.767036    ( 0.0000,  0.0000,  2.0000)
  33 Cr     7.386156    8.883038    1.814748    ( 0.0000,  0.0000,  0.0000)
  34 Fe     9.071095    7.011314    1.574620    ( 0.0000,  0.0000,  2.0000)
  35 Cr     8.812600    8.829036   -0.052545    ( 0.0000,  0.0000,  0.0000)
  36 Ni    10.838383   -0.042525    3.499747    ( 0.0000,  0.0000,  1.5000)
  37 Ni    -0.120074    1.826059    5.046258    ( 0.0000,  0.0000,  1.5000)
  38 Co     1.593832    0.096801    5.392615    ( 0.0000,  0.0000,  2.1000)
  39 Ni     1.818633    1.843155    3.534748    ( 0.0000,  0.0000,  1.5000)
  40 Co     3.526697   -0.056754    3.729362    ( 0.0000,  0.0000,  2.1000)
  41 Ni     3.559496    1.779419    5.425796    ( 0.0000,  0.0000,  1.5000)
  42 Co     5.350012   -0.005695    5.677062    ( 0.0000,  0.0000,  2.1000)
  43 Ni     5.273776    1.654554    4.014617    ( 0.0000,  0.0000,  1.5000)
  44 Cr     7.139320    0.123717    3.779139    ( 0.0000,  0.0000,  0.0000)
  45 Co     7.184470    1.934082    5.268512    ( 0.0000,  0.0000,  2.1000)
  46 Al     8.709378   10.810962    5.457810    ( 0.0000,  0.0000,  0.0000)
  47 Ni     8.939648    1.632638    3.358322    ( 0.0000,  0.0000,  1.5000)
  48 Cr    10.620134    3.530134    3.377778    ( 0.0000,  0.0000,  0.0000)
  49 Fe    -0.056963    5.487541    5.424484    ( 0.0000,  0.0000,  2.0000)
  50 Fe     1.578434    3.592033    5.277701    ( 0.0000,  0.0000,  2.0000)
  51 Ni     1.552750    5.295395    3.642370    ( 0.0000,  0.0000,  1.5000)
  52 Ni     3.533260    3.697653    3.668927    ( 0.0000,  0.0000,  1.5000)
  53 Ni     3.555622    5.525407    5.422816    ( 0.0000,  0.0000,  1.5000)
  54 Co     5.267150    3.758682    5.470083    ( 0.0000,  0.0000,  2.1000)
  55 Cr     5.632418    5.306005    3.759085    ( 0.0000,  0.0000,  0.0000)
  56 Cr     7.618688    3.527437    3.593779    ( 0.0000,  0.0000,  0.0000)
  57 Co     7.184934    5.393542    5.472118    ( 0.0000,  0.0000,  2.1000)
  58 Cr     9.069117    3.635416    5.277835    ( 0.0000,  0.0000,  0.0000)
  59 Fe     8.965413    5.484732    3.702761    ( 0.0000,  0.0000,  2.0000)
[...]
  93 Ni     7.187166    5.498569    8.951836    ( 0.0000,  0.0000,  1.5000)
  94 Cr     8.818740    3.726603    8.863713    ( 0.0000,  0.0000,  0.0000)
  95 Cr     8.969683    5.390037    7.229134    ( 0.0000,  0.0000,  0.0000)
  96 Co    10.500797    7.176799    6.988016    ( 0.0000,  0.0000,  2.1000)
  97 Ni    10.993913    8.940536    8.534775    ( 0.0000,  0.0000,  1.5000)
  98 Ni     1.656465    6.882215    8.685698    ( 0.0000,  0.0000,  1.5000)
  99 Co     1.856423    8.974695    6.778024    ( 0.0000,  0.0000,  2.1000)
 100 Co     3.695279    7.189844    7.143362    ( 0.0000,  0.0000,  2.1000)
 101 Ni     3.536444    8.975163    8.761153    ( 0.0000,  0.0000,  1.5000)
 102 Fe     5.345650    7.193053    9.070367    ( 0.0000,  0.0000,  2.0000)
 103 Co     5.329213    8.999197    7.278028    ( 0.0000,  0.0000,  2.1000)
 104 Co     7.056749    7.208443    7.308084    ( 0.0000,  0.0000,  2.1000)
 105 Ni     6.953623    8.894249    9.065876    ( 0.0000,  0.0000,  1.5000)
 106 Fe     9.092455    7.308213    8.860671    ( 0.0000,  0.0000,  2.0000)
 107 Fe     8.626446    9.052905    7.094815    ( 0.0000,  0.0000,  2.0000)

Unit cell:
           periodic     x           y           z      points  spacing
  1. axis:    yes   10.722400    0.000000    0.000000    48     0.2234
  2. axis:    yes    0.000000   10.722400    0.000000    48     0.2234
  3. axis:    yes    0.000000    0.000000   10.722400    48     0.2234

  Lengths:  10.722400  10.722400  10.722400
  Angles:   90.000000  90.000000  90.000000

Effective grid spacing dv^(1/3) = 0.2234

     iter     time        total  log10-change:  magmom
                         energy  eigst   dens
iter:   1 20:30:43 -1008.150681                  +136.6833
iter:   2 20:32:01  -894.209148  -0.24  -1.19    +76.7445
iter:   3 20:33:19  -889.173407  -0.83  -1.22    +65.1488
iter:   4 20:34:38  -870.303404  -1.20  -1.27    +60.6364
iter:   5 20:35:56  -855.231741  -1.59  -1.28    +57.2646
iter:   6 20:37:15  -860.003031  -1.33  -1.36    +57.1899
iter:   7 20:38:34  -849.253691  -1.21  -1.40    +55.2124
iter:   8 20:39:53  -837.952141  -1.58  -1.54    +54.6308
iter:   9 20:41:12  -837.491946  -2.09  -1.74    +55.5188
iter:  10 20:42:30  -837.517556  -2.24  -1.76    +56.5568
iter:  11 20:43:49  -837.105496  -2.50  -1.81    +57.3217
iter:  12 20:45:07  -837.981537  -2.36  -1.84    +59.0379
iter:  13 20:46:26  -838.107111  -2.44  -1.86    +59.4886
iter:  14 20:47:45  -837.717142  -2.30  -1.91    +59.6298
iter:  15 20:49:04  -837.483059  -2.61  -2.01    +60.7471
iter:  16 20:50:23  -837.667725  -2.64  -2.06    +61.0536
iter:  17 20:51:41  -837.185535  -2.85  -2.07    +61.2958
iter:  18 20:53:00  -837.907513  -2.71  -2.15    +61.4897
iter:  19 20:54:18  -837.300225  -2.87  -2.12    +61.9853
iter:  20 20:55:37  -837.102085  -3.12  -2.18    +62.4157
iter:  21 20:56:56  -837.195648  -3.07  -2.26    +62.2248
iter:  22 20:58:15  -837.303600  -3.07  -2.28    +62.6007
iter:  23 20:59:33  -837.172830  -3.08  -2.30    +62.7523
iter:  24 21:00:52  -837.029041  -3.23  -2.32    +62.9337
iter:  25 21:02:10  -837.449082  -3.06  -2.44    +62.9076
iter:  26 21:03:29  -836.983315  -3.28  -2.34    +63.0259
iter:  27 21:04:47  -836.989930  -3.68  -2.51    +63.4640
iter:  28 21:06:06  -836.966078c -3.72  -2.56    +63.3528
iter:  29 21:07:24  -837.005037c -3.74  -2.60    +63.4772
iter:  30 21:08:43  -836.934917c -4.18  -2.59    +63.5857
iter:  31 21:10:01  -837.002547c -4.06  -2.70    +63.7380
iter:  32 21:11:20  -837.002984c -3.93  -2.66    +63.6818
iter:  33 21:12:39  -837.006203c -4.06  -2.68    +63.6272
iter:  34 21:13:57  -837.015479c -4.07  -2.70    +63.8358
iter:  35 21:15:16  -837.071363c -3.79  -2.74    +63.8250
iter:  36 21:16:35  -837.011238c -4.01  -2.67    +63.8078
iter:  37 21:17:53  -837.014232c -4.30  -2.77    +63.7661
iter:  38 21:19:12  -837.012834c -4.29  -2.81    +63.8435
iter:  39 21:20:30  -837.004768c -4.55  -2.83    +63.9184
iter:  40 21:21:49  -837.003279c -4.80  -2.87    +63.8384
iter:  41 21:23:07  -837.025409c -4.69  -2.89    +63.8739
iter:  42 21:24:25  -837.029819c -4.27  -2.90    +63.8704
iter:  43 21:25:44  -837.043129c -4.38  -2.85    +63.8925
iter:  44 21:27:02  -837.062122c -4.15  -2.88    +63.8769
iter:  45 21:28:21  -837.055596c -4.12  -2.88    +63.8545
iter:  46 21:29:39  -837.045405c -4.26  -2.90    +64.0295
iter:  47 21:30:58  -837.028933c -4.64  -2.96    +64.0192
iter:  48 21:32:16  -837.031469c -4.70  -3.08    +64.0394
iter:  49 21:33:35  -837.026597c -5.33  -3.10    +64.0257
iter:  50 21:34:53  -837.029426c -5.46  -3.18    +64.0564
iter:  51 21:36:11  -837.039263c -4.95  -3.20    +64.0608
iter:  52 21:37:30  -837.042051c -4.73  -3.15    +64.0448
iter:  53 21:38:48  -837.042635c -4.81  -3.14    +64.0772
iter:  54 21:40:07  -837.053040c -4.55  -3.23    +64.1071
iter:  55 21:41:25  -837.043092c -4.70  -3.08    +64.1094
iter:  56 21:42:44  -837.038510c -5.06  -3.23    +64.0985
iter:  57 21:44:02  -837.037393c -5.51  -3.38    +64.1033
iter:  58 21:45:21  -837.038733c -5.94  -3.45    +64.1445
iter:  59 21:46:39  -837.039372c -5.83  -3.49    +64.1613
iter:  60 21:47:58  -837.041201c -5.86  -3.50    +64.1881
iter:  61 21:49:16  -837.044586c -5.35  -3.55    +64.1806
iter:  62 21:50:35  -837.043570c -5.31  -3.47    +64.1979
iter:  63 21:51:54  -837.043845c -5.55  -3.53    +64.2164
iter:  64 21:53:12  -837.043479c -5.83  -3.88    +64.2224
iter:  65 21:54:30  -837.044375c -6.04  -3.85    +64.2381
iter:  66 21:55:49  -837.044501c -6.22  -4.02c   +64.2427
iter:  67 21:57:08  -837.045133c -6.37  -4.08c   +64.2609
iter:  68 21:58:26  -837.045825c -6.35  -4.16c   +64.2690
iter:  69 21:59:45  -837.048485c -5.41  -4.15c   +64.3179
iter:  70 22:01:03  -837.053857c -4.58  -4.00    +64.4622
iter:  71 22:02:22  -837.055011c -5.29  -3.72    +64.4993
iter:  72 22:03:40  -837.054115c -6.16  -3.65    +64.4694
iter:  73 22:04:58  -837.056841c -5.14  -3.69    +64.5728
iter:  74 22:06:17  -837.057943c -5.50  -3.57    +64.6225
iter:  75 22:07:35  -837.057399c -5.81  -3.50    +64.5614
iter:  76 22:08:54  -837.058671c -5.63  -3.55    +64.6456
iter:  77 22:10:12  -837.059614c -5.82  -3.50    +64.6962
iter:  78 22:11:31  -837.058160c -5.54  -3.46    +64.6833
iter:  79 22:12:49  -837.058276c -5.94  -3.45    +64.7087
iter:  80 22:14:07  -837.057813c -5.58  -3.47    +64.7112
iter:  81 22:15:26  -837.063617c -4.98  -3.44    +64.7077
iter:  82 22:16:45  -837.059458c -5.04  -3.33    +64.6761
iter:  83 22:18:03  -837.055397c -5.37  -3.45    +64.6165
iter:  84 22:19:22  -837.055221c -5.88  -3.59    +64.5953
iter:  85 22:20:40  -837.054778c -6.15  -3.74    +64.5654
iter:  86 22:21:58  -837.055419c -6.14  -3.75    +64.5573
iter:  87 22:23:17  -837.054431c -6.04  -3.74    +64.5464
iter:  88 22:24:35  -837.054832c -6.19  -3.74    +64.5446
iter:  89 22:25:53  -837.056139c -5.82  -3.81    +64.5348
iter:  90 22:27:12  -837.054527c -5.88  -3.71    +64.5262
iter:  91 22:28:31  -837.054659c -6.13  -3.79    +64.5280
iter:  92 22:29:49  -837.054140c -6.24  -3.86    +64.5264
iter:  93 22:31:08  -837.054587c -6.37  -3.89    +64.5207
iter:  94 22:32:26  -837.054018c -6.78  -3.96    +64.5123
iter:  95 22:33:44  -837.053918c -6.94  -4.06c   +64.5134
iter:  96 22:35:03  -837.054347c -6.58  -4.06c   +64.5119
iter:  97 22:36:21  -837.054023c -6.68  -4.01c   +64.5088
iter:  98 22:37:40  -837.054387c -6.51  -4.05c   +64.5085
iter:  99 22:38:59  -837.053735c -6.45  -4.02c   +64.5125
iter: 100 22:40:17  -837.054088c -6.51  -4.05c   +64.5154
iter: 101 22:41:35  -837.054058c -6.93  -4.09c   +64.5091
iter: 102 22:42:54  -837.053718c -6.84  -4.20c   +64.5093
iter: 103 22:44:12  -837.053796c -7.22  -4.21c   +64.5099
iter: 104 22:45:31  -837.053680c -7.39  -4.31c   +64.5087
iter: 105 22:46:49  -837.053854c -7.33  -4.32c   +64.5066
iter: 106 22:48:07  -837.053625c -6.86  -4.34c   +64.5067
iter: 107 22:49:26  -837.053592c -7.15  -4.21c   +64.5112
iter: 108 22:50:45  -837.053833c -6.99  -4.39c   +64.5121
iter: 109 22:52:03  -837.053628c -6.98  -4.32c   +64.5110
iter: 110 22:53:22  -837.053711c -7.25  -4.35c   +64.5125
iter: 111 22:54:40  -837.053548c -7.56c -4.45c   +64.5166

Converged after 111 iterations.

Dipole moment: (3.233990, 0.134098, -1.043060) |e|*Ang

Total magnetic moment: (0.000000, 0.000000, 64.516638)
Local magnetic moments:
   0 Co ( 0.000000,  0.000000,  0.890173)
   1 Ni ( 0.000000,  0.000000,  0.028137)
   2 Al ( 0.000000,  0.000000, -0.001149)
   3 Cr ( 0.000000,  0.000000, -1.420051)
   4 Cr ( 0.000000,  0.000000, -0.099326)
   5 Fe ( 0.000000,  0.000000,  1.911223)
   6 Fe ( 0.000000,  0.000000,  1.787276)
   7 Fe ( 0.000000,  0.000000,  1.836678)
   8 Cr ( 0.000000,  0.000000, -0.718010)
   9 Fe ( 0.000000,  0.000000,  1.983890)
  10 Fe ( 0.000000,  0.000000,  1.831280)
  11 Al ( 0.000000,  0.000000, -0.020536)
  12 Co ( 0.000000,  0.000000,  0.746012)
  13 Fe ( 0.000000,  0.000000,  1.637385)
  14 Al ( 0.000000,  0.000000, -0.003979)
  15 Al ( 0.000000,  0.000000, -0.023060)
  16 Cr ( 0.000000,  0.000000,  0.912098)
  17 Cr ( 0.000000,  0.000000, -1.084051)
  18 Al ( 0.000000,  0.000000, -0.016645)
  19 Co ( 0.000000,  0.000000,  0.915119)
  20 Co ( 0.000000,  0.000000,  0.444017)
  21 Cr ( 0.000000,  0.000000, -0.178930)
  22 Cr ( 0.000000,  0.000000,  0.282411)
  23 Cr ( 0.000000,  0.000000, -0.928429)
  24 Fe ( 0.000000,  0.000000,  1.902327)
  25 Al ( 0.000000,  0.000000, -0.015453)
  26 Ni ( 0.000000,  0.000000,  0.158555)
  27 Cr ( 0.000000,  0.000000, -1.913328)
  28 Fe ( 0.000000,  0.000000,  2.223893)
  29 Ni ( 0.000000,  0.000000,  0.082073)
  30 Co ( 0.000000,  0.000000,  0.514713)
  31 Fe ( 0.000000,  0.000000,  1.866405)
  32 Fe ( 0.000000,  0.000000,  1.224150)
  33 Cr ( 0.000000,  0.000000, -0.201597)
  34 Fe ( 0.000000,  0.000000,  1.268906)
  35 Cr ( 0.000000,  0.000000, -0.436484)
  36 Ni ( 0.000000,  0.000000,  0.232658)
  37 Ni ( 0.000000,  0.000000,  0.182307)
  38 Co ( 0.000000,  0.000000,  1.317654)
  39 Ni ( 0.000000,  0.000000,  0.256180)
  40 Co ( 0.000000,  0.000000,  1.400808)
  41 Ni ( 0.000000,  0.000000,  0.363433)
  42 Co ( 0.000000,  0.000000,  1.164119)
  43 Ni ( 0.000000,  0.000000,  0.272794)
  44 Cr ( 0.000000,  0.000000, -0.835282)
  45 Co ( 0.000000,  0.000000,  0.446125)
  46 Al ( 0.000000,  0.000000, -0.013821)
  47 Ni ( 0.000000,  0.000000,  0.083368)
  48 Cr ( 0.000000,  0.000000, -0.777130)
  49 Fe ( 0.000000,  0.000000,  1.560582)
  50 Fe ( 0.000000,  0.000000,  2.240353)
  51 Ni ( 0.000000,  0.000000,  0.290956)
  52 Ni ( 0.000000,  0.000000,  0.163183)
  53 Ni ( 0.000000,  0.000000,  0.378225)
  54 Co ( 0.000000,  0.000000,  1.043119)
  55 Cr ( 0.000000,  0.000000, -0.735427)
  56 Cr ( 0.000000,  0.000000, -0.561691)
  57 Co ( 0.000000,  0.000000,  0.856629)
  58 Cr ( 0.000000,  0.000000,  0.558456)
  59 Fe ( 0.000000,  0.000000,  1.296332)
[...]
  93 Ni ( 0.000000,  0.000000,  0.232998)
  94 Cr ( 0.000000,  0.000000,  0.569052)
  95 Cr ( 0.000000,  0.000000, -1.371405)
  96 Co ( 0.000000,  0.000000,  1.239514)
  97 Ni ( 0.000000,  0.000000,  0.387321)
  98 Ni ( 0.000000,  0.000000,  0.502674)
  99 Co ( 0.000000,  0.000000,  1.485575)
 100 Co ( 0.000000,  0.000000,  1.630184)
 101 Ni ( 0.000000,  0.000000,  0.468706)
 102 Fe ( 0.000000,  0.000000,  2.254491)
 103 Co ( 0.000000,  0.000000,  1.541056)
 104 Co ( 0.000000,  0.000000,  1.474377)
 105 Ni ( 0.000000,  0.000000,  0.279330)
 106 Fe ( 0.000000,  0.000000,  2.009863)
 107 Fe ( 0.000000,  0.000000,  2.296400)

Energy contributions relative to reference atoms: (reference = -3548577.034362)

Kinetic:       +389.077441
Potential:     -381.312210
External:        +0.000000
XC:            -878.474992
Entropy (-ST):   -4.387715
Local:          +35.850071
Free energy:   -839.247405
Extrapolated:  -837.053548

Spin contamination: 21.158703 electrons
Showing only first 2 kpts
                      Up                     Down
 Kpt  Band  Eigenvalues  Occupancy  Eigenvalues  Occupancy
  0   488      9.48612    0.99531     10.39619    0.02313
  0   489      9.49750    0.99475     10.41286    0.01965
  0   490      9.51099    0.99399     10.42330    0.01774
  0   491      9.51730    0.99361     10.43398    0.01597

  1   488      9.47031    0.99599     10.40230    0.02180
  1   489      9.49590    0.99483     10.40917    0.02038
  1   490      9.51016    0.99404     10.43767    0.01540
  1   491      9.52568    0.99305     10.44029    0.01501

Fermi level: 10.02189

No gap

Forces in eV/Ang:
  0 Co    2.05070   -0.40088    1.05962
  1 Ni   -0.18492   -0.11931   -0.44475
  2 Al   -1.06176   -1.12414    1.27315
  3 Cr    0.27761   -0.03728   -1.01621
  4 Cr    0.71811    1.04469   -1.34341
  5 Fe   -0.95052   -0.77980   -0.29516
  6 Fe    0.32834   -0.34336   -0.82302
  7 Fe   -0.72708    0.42536    0.26721
  8 Cr   -1.34062    1.11389    1.50645
  9 Fe   -0.48637   -0.25147    1.11157
 10 Fe   -0.48244    0.49706    0.63097
 11 Al    1.52211   -0.30532   -1.50607
 12 Co   -0.40746    0.93004   -0.05733
 13 Fe    0.76799    0.89330    1.12534
 14 Al    0.20929    0.79282    0.60560
 15 Al   -0.86998    1.48123    0.36607
 16 Cr    0.47716   -0.76130   -1.86702
 17 Cr   -0.77139    0.21059   -0.22915
 18 Al    3.46008    1.13592    1.91582
 19 Co   -1.72544   -1.71458   -0.77125
 20 Co   -1.41675   -0.76254   -1.01979
 21 Cr    0.07378    0.65710    0.06390
 22 Cr    0.26815    0.03134    0.96989
 23 Cr    0.62793    0.07750    0.31609
 24 Fe    0.76636    0.84653   -0.10058
 25 Al   -0.07827   -0.12537   -0.34952
 26 Ni    0.90539   -1.55809    0.30119
 27 Cr    0.18860    0.23994   -0.23271
 28 Fe   -0.57959    0.38068   -0.04309
 29 Ni    0.99236   -0.19467    0.28521
 30 Co   -1.00619    1.97321    1.02257
 31 Fe    0.27196    0.77525    0.74429
 32 Fe   -0.37090    1.98236    0.06608
 33 Cr   -1.48680    0.51601   -0.08715
 34 Fe    0.20158   -0.12240    1.49317
 35 Cr    1.05316   -0.25359   -0.31757
 36 Ni   -0.00420    0.22053    0.20078
 37 Ni    0.66839   -0.40995    1.25599
 38 Co    3.02288   -0.03049   -2.39342
 39 Ni    0.05692   -0.46646    0.93163
 40 Co   -0.07103    0.14795    0.45264
 41 Ni   -1.77042   -0.02320   -0.24185
 42 Co   -0.26333   -0.07478   -1.09815
 43 Ni    0.56172    1.06803   -2.75518
 44 Cr   -1.61450   -0.57855   -2.19858
 45 Co    0.58211    0.31262    1.25972
 46 Al    1.55864    0.77042    0.29189
 47 Ni    0.23110   -0.19253    0.49642
 48 Cr   -1.05114    0.56806    1.18568
 49 Fe   -0.46262   -0.81737   -0.21167
 50 Fe    1.05400   -0.37363   -0.53838
 51 Ni    1.04771    0.44565   -1.49610
 52 Ni    0.37172   -0.19223   -0.04829
 53 Ni    0.29187   -0.85813   -0.35538
 54 Co    0.92158   -0.47079   -1.32094
 55 Cr   -0.90115    0.21475   -1.05884
 56 Cr   -1.66783    0.21533    0.51433
 57 Co    0.06481   -0.86513    0.09608
 58 Cr   -0.18477   -0.47174    0.96330
 59 Fe   -0.17526   -0.26298   -1.07162
[...]
 93 Ni   -0.57357   -0.40214   -0.60947
 94 Cr    1.19647   -1.16703    0.05139
 95 Cr   -0.16777    0.06504    0.20113
 96 Co    0.91759    0.25604    0.41066
 97 Ni   -1.94614   -0.42921    0.96464
 98 Ni    1.30865    2.27509    0.61801
 99 Co   -0.40644   -1.13800    1.01507
100 Co   -0.16876    0.02695    0.05830
101 Ni   -0.73816   -0.52477    1.13419
102 Fe   -0.02395   -0.45331   -0.60405
103 Co    0.59397   -0.37453   -0.79419
104 Co    0.01009   -0.33261   -0.94121
105 Ni    0.71927    0.30015   -0.66006
106 Fe   -1.11643   -0.60231   -0.21070
107 Fe    0.43828   -1.01974    0.61747

Date: Thu Apr 13 22:54:56 2023