User:   c.zeng@d0073
Date:   Sat Apr 15 11:31:09 2023
Arch:   x86_64
Pid:    227582
CWD:    /home/c.zeng/projects/hea-corrosion/hea-mlp/data-curation/bulk-mcmc/dft-jobs/30
Python: 3.8.1
gpaw:   /home/c.zeng/usr/installs/gpaw/source/gpaw-22.8.0/gpaw
_gpaw:  /home/c.zeng/usr/installs/gpaw/source/gpaw-22.8.0/
        _gpaw.cpython-38-x86_64-linux-gnu.so
ase:    /home/c.zeng/.local/lib/python3.8/site-packages/ase-3.22.1-py3.8.egg/ase (version 3.22.1)
numpy:  /shared/centos7/python/3.8.1/lib/python3.8/site-packages/numpy (version 1.17.4)
scipy:  /shared/centos7/python/3.8.1/lib/python3.8/site-packages/scipy (version 1.4.1)
units:  Angstrom and eV
cores: 30
OpenMP: False
OMP_NUM_THREADS: 1

Input parameters:
  convergence: {energy: 0.0001}
  kpts: [2 2 2]
  maxiter: 666
  mode: {ecut: 350.0,
         name: pw}
  occupations: {fixmagmom: False,
                name: fermi-dirac,
                width: 0.1}
  spinpol: True
  xc: PBE

System changes: positions, numbers, cell, pbc, initial_charges, initial_magmoms

Initialize ...

species:
  Co:
    name: Cobalt
    id: 339d20d5b0b93d2de9531a1bee871d91
    Z: 27.0
    valence: 9
    core: 18
    charge: 0.0
    file: /home/c.zeng/usr/data/gpaw-setups-0.9.20000/Co.PBE.gz
    compensation charges: {type: gauss,
                           rc: 0.32,
                           lmax: 2}
    cutoffs: {filter: 1.87,
              core: 2.55}
    valence states:
      #              energy  rcut
      - 4s(2.00)    -5.469   1.005
      - 4p(0.00)    -1.277   1.058
      - 3d(7.00)    -8.205   1.005
      -  s          21.742   1.005
      -  p          25.934   1.058
      -  d          19.007   1.005

    # Using partial waves for Co as LCAO basis

  Fe:
    name: Iron
    id: 37abbd8d6c3c35915a9b583b742da910
    Z: 26.0
    valence: 8
    core: 18
    charge: 0.0
    file: /home/c.zeng/usr/data/gpaw-setups-0.9.20000/Fe.PBE.gz
    compensation charges: {type: gauss,
                           rc: 0.33,
                           lmax: 2}
    cutoffs: {filter: 2.06,
              core: 2.67}
    valence states:
      #              energy  rcut
      - 4s(2.00)    -5.291   1.164
      - 4p(0.00)    -1.326   1.058
      - 3d(6.00)    -7.505   1.058
      -  s          21.920   1.164
      -  p          25.885   1.058
      -  d          19.706   1.058

[...]

  Cr:
    name: Chromium
    id: 33f258bda2ca9f93018e70263a35547b
    Z: 24.0
    valence: 6
    core: 18
    charge: 0.0
    file: /home/c.zeng/usr/data/gpaw-setups-0.9.20000/Cr.PBE.gz
    compensation charges: {type: gauss,
                           rc: 0.35,
                           lmax: 2}
    cutoffs: {filter: 2.14,
              core: 3.04}
    valence states:
      #              energy  rcut
      - 4s(1.00)    -4.007   1.164
      - 4p(0.00)    -0.989   1.217
      - 3d(5.00)    -2.913   1.111
      -  s          23.205   1.164
      -  p          26.223   1.217
      -  d          24.299   1.111

[...]

  Ni:
    name: Nickel
    id: 0d9f38a9d6e76a2886f07bb4381f212b
    Z: 28.0
    valence: 16
    core: 12
    charge: 0.0
    file: /home/c.zeng/usr/data/gpaw-setups-0.9.20000/Ni.PBE.gz
    compensation charges: {type: gauss,
                           rc: 0.36,
                           lmax: 2}
    cutoffs: {filter: 2.14,
              core: 1.98}
    valence states:
      #              energy  rcut
      - 4s(2.00)    -5.642   1.164
      - 3p(6.00)   -71.394   1.207
      - 4p(0.00)    -1.226   1.207
      - 3d(8.00)    -8.875   1.138
      -  s          21.570   1.164
      -  d          18.337   1.138

    # Using partial waves for Ni as LCAO basis

Reference energy: -3846758.590871  # eV

Spin-polarized calculation.
Magnetic moment: 151.200000

Convergence criteria:
 Maximum [total energy] change in last 3 cyles: 0.0001 eV / electron
 Maximum integral of absolute [dens]ity change: 0.0001 electrons / valence electron
 Maximum integral of absolute [eigenst]ate change: 4e-08 eV^2 / valence electron
 Maximum number of scf [iter]ations: 666
 (Square brackets indicate name in SCF output, whereas a 'c' in
 the SCF output indicates the quantity has converged.)

Symmetries present (total): 1

  ( 1  0  0)
  ( 0  1  0)
  ( 0  0  1)

8 k-points: 2 x 2 x 2 Monkhorst-Pack grid
4 k-points in the irreducible part of the Brillouin zone
       k-points in crystal coordinates                weights
   0:     0.25000000   -0.25000000   -0.25000000          2/8
   1:     0.25000000   -0.25000000    0.25000000          2/8
   2:     0.25000000    0.25000000   -0.25000000          2/8
   3:     0.25000000    0.25000000    0.25000000          2/8

Wave functions: Plane wave expansion
  Cutoff energy: 350.000 eV
  Number of coefficients (min, max): 17755, 17755
  Pulay-stress correction: 0.000000 eV/Ang^3 (de/decut=0.000000)
  Using FFTW library
  ScaLapack parameters: grid=1x1, blocksize=None
  Wavefunction extrapolation:
    Improved wavefunction reuse through dual PAW basis

Occupation numbers: Fermi-Dirac:
  width: 0.1000  # eV

Eigensolver
   Davidson(niter=2)

Densities:
  Coarse grid: 48*48*48 grid
  Fine grid: 96*96*96 grid
  Total Charge: 0.000000

Density mixing:
  Method: difference
  Backend: pulay
  Linear mixing parameter: 0.05
  old densities: 5
  Damping of long wavelength oscillations: 50

Hamiltonian:
  XC and Coulomb potentials evaluated on a 96*96*96 grid
  Using the PBE Exchange-Correlation functional
  External potential:
    NoExternalPotential

XC parameters: PBE with 2 nearest neighbor stencil

Total number of cores used: 30
Parallelization over k-points: 2
Domain decomposition: 5 x 3 x 1

Number of atoms: 108
Number of atomic orbitals: 1053
Number of bands in calculation: 727
Number of valence electrons: 1053
Bands to converge: occupied

... initialized

Initializing position-dependent things.

Density initialized from atomic densities
Creating initial wave functions:
  727 bands from LCAO basis set

       /|  Ni       Ni      Ni    |
      / |   NiFe     Ni           |
     /  |       Co      Fe       Fe
    /   |Cr      CFe       Co     Ni
   /    | Co       Ni       CFe   |
  /  CCo|  FeCr     CoCr          |
 *    NiCr    FeNi   FeCrCo       |
 |      |CoCr   FeFeCr  CoNiFe   Ni
 |      | CrCo     CoNiFeCrNiNi   |
 |    Co|  CoFeCr   CoNiFe   CrCo |
 |      Cr    NiCrCr CrNiCr     Ni|
 |      |FeFe  CoFeNi   FeNiFe   Ni
 |      .-FeCo-----CrNiFe--NiCr---Co
 |   Cro     Fe       Ni         /
 |    CrCo     Cor     CCre     /
 |   /    Co               Cr  /
 |  /      Fe       Fe    CrFe/
 | / Fe     Cr       NiNi    /
 |/            Co       Cr  /
 *--------Co------Co-------*

Positions:
   0 Co    -0.012479   -0.003723   10.616104    ( 0.0000,  0.0000,  2.1000)
   1 Fe    -0.011321    1.761305    1.763386    ( 0.0000,  0.0000,  2.1000)
   2 Fe     1.758365    0.001326    1.769011    ( 0.0000,  0.0000,  2.0000)
   3 Co     1.752686    1.779222   10.610436    ( 0.0000,  0.0000,  2.0000)
   4 Co     3.541196    0.004726   10.616104    ( 0.0000,  0.0000,  0.0000)
   5 Fe     3.534711    1.782438    1.778999    ( 0.0000,  0.0000,  0.0000)
   6 Cr     5.305717   10.600629    1.767950    ( 0.0000,  0.0000,  2.1000)
   7 Co     5.324780    1.765604   10.614618    ( 0.0000,  0.0000,  0.0000)
   8 Co     7.089121    0.014598   10.619926    ( 0.0000,  0.0000,  2.0000)
   9 Fe     7.085279    1.771219    1.773543    ( 0.0000,  0.0000,  1.5000)
  10 Ni     8.850554    0.011470    1.768756    ( 0.0000,  0.0000,  1.5000)
  11 Cr     8.842381    1.777333   10.615680    ( 0.0000,  0.0000,  2.1000)
  12 Fe    10.590535    3.538203   -0.001956    ( 0.0000,  0.0000,  0.0000)
  13 Ni    10.624277    5.310674    1.769786    ( 0.0000,  0.0000,  2.0000)
  14 Co     1.761379    3.535623    1.784572    ( 0.0000,  0.0000,  0.0000)
  15 Cr     1.770200    5.301408   10.611753    ( 0.0000,  0.0000,  2.0000)
  16 Cr     3.556003    3.551407   10.618333    ( 0.0000,  0.0000,  1.5000)
  17 Fe     3.539370    5.311290    1.775199    ( 0.0000,  0.0000,  2.1000)
  18 Cr     5.320142    3.545059    1.779678    ( 0.0000,  0.0000,  1.5000)
  19 Fe     5.306980    5.314654   10.602720    ( 0.0000,  0.0000,  0.0000)
  20 Ni     7.081585    3.529127   10.614725    ( 0.0000,  0.0000,  2.1000)
  21 Ni     7.069241    5.303361    1.781271    ( 0.0000,  0.0000,  1.5000)
  22 Fe     8.841447    3.542671    1.781600    ( 0.0000,  0.0000,  2.1000)
  23 Cr     8.850893    5.290379    0.000220    ( 0.0000,  0.0000,  0.0000)
  24 Cr     0.005868    7.083411   10.614937    ( 0.0000,  0.0000,  2.0000)
  25 Ni    10.601043    8.849694    1.772960    ( 0.0000,  0.0000,  2.1000)
  26 Fe     1.773713    7.072329    1.777184    ( 0.0000,  0.0000,  0.0000)
  27 Ni     1.755520    8.842943   10.608324    ( 0.0000,  0.0000,  0.0000)
  28 Fe     3.544009    7.063116   10.610489    ( 0.0000,  0.0000,  2.0000)
  29 Co     3.542225    8.826820    1.785580    ( 0.0000,  0.0000,  0.0000)
  30 Cr     5.309835    7.081776    1.776600    ( 0.0000,  0.0000,  2.1000)
  31 Ni     5.331945    8.840321   10.604673    ( 0.0000,  0.0000,  2.1000)
  32 Co     7.068434    7.069028   10.623110    ( 0.0000,  0.0000,  0.0000)
  33 Fe     7.083750    8.846796    1.774509    ( 0.0000,  0.0000,  1.5000)
  34 Ni     8.841404    7.058180    1.777173    ( 0.0000,  0.0000,  1.5000)
  35 Ni     8.835524    8.853600   10.611753    ( 0.0000,  0.0000,  0.0000)
  36 Cr    -0.009351   10.618864    3.531070    ( 0.0000,  0.0000,  2.0000)
  37 Fe    10.602508    1.764818    5.300452    ( 0.0000,  0.0000,  1.5000)
  38 Cr     1.756720    0.001379    5.295867    ( 0.0000,  0.0000,  0.0000)
  39 Co     1.766506    1.767154    3.539222    ( 0.0000,  0.0000,  2.0000)
  40 Co     3.539742    0.013881    3.542873    ( 0.0000,  0.0000,  2.0000)
  41 Fe     3.548944    1.788658    5.306237    ( 0.0000,  0.0000,  2.1000)
  42 Fe     5.320174   -0.004685    5.301386    ( 0.0000,  0.0000,  0.0000)
  43 Co     5.316862    1.765551    3.538935    ( 0.0000,  0.0000,  2.0000)
  44 Cr     7.081086   -0.000289    3.531325    ( 0.0000,  0.0000,  2.0000)
  45 Ni     7.072902    1.777407    5.300537    ( 0.0000,  0.0000,  2.0000)
  46 Fe     8.840544    0.012372    5.307851    ( 0.0000,  0.0000,  1.5000)
  47 Cr     8.833592    1.767928    3.534318    ( 0.0000,  0.0000,  2.1000)
  48 Cr    -0.004066    3.525285    3.545951    ( 0.0000,  0.0000,  0.0000)
  49 Co    -0.001689    5.317934    5.307787    ( 0.0000,  0.0000,  1.5000)
  50 Cr     1.769043    3.555101    5.297279    ( 0.0000,  0.0000,  2.0000)
  51 Fe     1.773692    5.305929    3.538266    ( 0.0000,  0.0000,  2.1000)
  52 Co     3.542746    3.537364    3.547575    ( 0.0000,  0.0000,  2.1000)
  53 Fe     3.548477    5.306927    5.301153    ( 0.0000,  0.0000,  2.0000)
  54 Cr     5.316246    3.553031    5.303637    ( 0.0000,  0.0000,  2.0000)
  55 Fe     5.303286    5.303531    3.542385    ( 0.0000,  0.0000,  1.5000)
  56 Ni     7.074962    3.533023    3.537215    ( 0.0000,  0.0000,  1.5000)
  57 Ni     7.066046    5.306046    5.300081    ( 0.0000,  0.0000,  2.0000)
  58 Cr     8.834526    3.538160    5.294530    ( 0.0000,  0.0000,  2.1000)
  59 Ni     8.846255    5.300452    3.537672    ( 0.0000,  0.0000,  1.5000)
[...]
  93 Cr     7.071130    5.304220    8.839313    ( 0.0000,  0.0000,  1.5000)
  94 Co     8.837997    3.524669    8.843389    ( 0.0000,  0.0000,  1.5000)
  95 Ni     8.833772    5.299051    7.076862    ( 0.0000,  0.0000,  0.0000)
  96 Ni     0.012168    7.080333    7.083835    ( 0.0000,  0.0000,  1.5000)
  97 Fe    -0.017034    8.848707    8.843941    ( 0.0000,  0.0000,  2.1000)
  98 Co     1.777938    7.075503    8.840194    ( 0.0000,  0.0000,  2.0000)
  99 Fe     1.758800    8.840035    7.069803    ( 0.0000,  0.0000,  0.0000)
 100 Fe     3.549921    7.066194    7.070090    ( 0.0000,  0.0000,  2.1000)
 101 Co     3.553137    8.839111    8.836776    ( 0.0000,  0.0000,  0.0000)
 102 Ni     5.304189    7.079929    8.840215    ( 0.0000,  0.0000,  2.0000)
 103 Co     5.321946    8.832180    7.082997    ( 0.0000,  0.0000,  2.1000)
 104 Cr     7.057077    7.072149    7.064167    ( 0.0000,  0.0000,  1.5000)
 105 Fe     7.082402    8.855500    8.837487    ( 0.0000,  0.0000,  2.1000)
 106 Co     8.846786    7.077881    8.846732    ( 0.0000,  0.0000,  0.0000)
 107 Cr     8.839313    8.848272    7.075153    ( 0.0000,  0.0000,  0.0000)

Unit cell:
           periodic     x           y           z      points  spacing
  1. axis:    yes   10.614300    0.000000    0.000000    48     0.2211
  2. axis:    yes    0.000000   10.614300    0.000000    48     0.2211
  3. axis:    yes    0.000000    0.000000   10.614300    48     0.2211

  Lengths:  10.614300  10.614300  10.614300
  Angles:   90.000000  90.000000  90.000000

Effective grid spacing dv^(1/3) = 0.2211

     iter     time        total  log10-change:  magmom
                         energy  eigst   dens
iter:   1 11:35:15  -944.364050                  +151.1203
iter:   2 11:36:50  -936.411521  -0.60  -1.38    +115.8977
iter:   3 11:38:26  -920.302734  -0.98  -1.36    +84.6054
iter:   4 11:40:02  -895.080277  -1.42  -1.38    +72.9209
iter:   5 11:41:37  -891.601601  -1.93  -1.49    +65.1518
iter:   6 11:43:12  -895.318990  -1.98  -1.53    +60.3468
iter:   7 11:44:48  -896.087804  -1.72  -1.54    +58.3402
iter:   8 11:46:23  -888.135907  -1.86  -1.56    +56.3660
iter:   9 11:47:58  -899.216868  -1.73  -1.74    +55.4335
iter:  10 11:49:34  -887.735787  -1.99  -1.68    +54.3624
iter:  11 11:51:09  -888.817794  -2.36  -1.90    +54.0288
iter:  12 11:52:45  -887.052190  -2.69  -1.89    +54.4987
iter:  13 11:54:20  -887.836873  -2.76  -1.99    +54.7873
iter:  14 11:55:55  -888.978646  -2.68  -2.01    +55.2736
iter:  15 11:57:31  -889.529479  -2.64  -1.98    +55.5932
iter:  16 11:59:06  -890.398171  -2.51  -2.01    +56.2511
iter:  17 12:00:41  -891.168964  -2.48  -1.99    +56.3858
iter:  18 12:02:14  -889.767021  -2.54  -2.02    +56.5294
iter:  19 12:03:47  -889.311804  -2.78  -2.12    +56.7610
iter:  20 12:05:20  -888.970372  -3.03  -2.16    +57.1506
iter:  21 12:06:53  -889.112102  -3.21  -2.25    +58.0251
iter:  22 12:08:26  -889.030728  -3.28  -2.27    +58.4341
iter:  23 12:10:00  -889.189897  -3.51  -2.30    +59.1607
iter:  24 12:11:33  -889.548380  -3.21  -2.35    +59.8973
iter:  25 12:13:06  -889.724110  -3.17  -2.35    +60.2200
iter:  26 12:14:39  -889.783189  -3.11  -2.34    +60.7739
iter:  27 12:16:13  -890.069093  -3.14  -2.41    +61.1544
iter:  28 12:17:46  -890.173194  -3.08  -2.38    +61.6529
iter:  29 12:19:19  -889.887512  -3.37  -2.35    +61.9111
iter:  30 12:20:53  -889.791141  -3.67  -2.48    +62.3677
iter:  31 12:22:26  -889.828869c -4.01  -2.59    +62.7553
iter:  32 12:24:00  -889.904699  -4.25  -2.61    +63.1616
iter:  33 12:25:33  -890.220383  -3.35  -2.61    +64.6558
iter:  34 12:27:06  -890.227255  -3.79  -2.55    +64.6313
iter:  35 12:29:02  -890.244311c -3.71  -2.56    +64.7952
iter:  36 12:31:30  -890.456382  -3.43  -2.63    +64.9174
iter:  37 12:33:58  -890.313100  -3.61  -2.52    +64.9198
iter:  38 12:36:26  -890.244461  -3.78  -2.64    +64.9882
iter:  39 12:38:54  -890.365933  -3.66  -2.72    +65.0291
iter:  40 12:41:21  -890.220199  -3.92  -2.62    +64.9248
iter:  41 12:43:49  -890.186164  -4.47  -2.79    +64.9847
iter:  42 12:46:17  -890.187733c -4.68  -2.91    +64.9742
iter:  43 12:48:46  -890.187137c -5.32  -2.92    +65.0134
iter:  44 12:51:15  -890.230356c -4.45  -2.96    +65.0085
iter:  45 12:53:43  -890.223396c -4.37  -2.87    +65.0464
iter:  46 12:56:12  -890.238426c -4.24  -3.00    +65.0857
iter:  47 12:58:41  -890.243173c -4.26  -2.97    +65.0353
iter:  48 13:01:10  -890.214982c -4.45  -2.95    +65.0270
iter:  49 13:03:38  -890.211419c -4.77  -3.26    +64.9807
iter:  50 13:06:07  -890.210389c -5.05  -3.28    +64.9975
iter:  51 13:08:36  -890.209491c -5.47  -3.35    +64.9896
iter:  52 13:11:05  -890.212486c -5.56  -3.53    +64.9636
iter:  53 13:13:34  -890.214513c -5.82  -3.54    +64.9565
iter:  54 13:16:02  -890.217337c -5.68  -3.56    +64.9262
iter:  55 13:18:31  -890.223201c -5.38  -3.61    +64.9053
iter:  56 13:21:00  -890.221882c -5.61  -3.54    +64.8847
iter:  57 13:23:28  -890.224012c -5.60  -3.69    +64.8639
iter:  58 13:25:57  -890.225298c -5.78  -3.72    +64.8522
iter:  59 13:28:25  -890.227592c -5.68  -3.79    +64.8132
iter:  60 13:30:54  -890.228149c -5.98  -3.75    +64.8011
iter:  61 13:33:22  -890.230777c -5.80  -3.87    +64.7637
iter:  62 13:35:51  -890.232574c -5.99  -3.85    +64.7491
iter:  63 13:38:20  -890.233230c -6.10  -3.78    +64.7372
iter:  64 13:40:49  -890.235806c -5.80  -3.76    +64.7282
iter:  65 13:43:18  -890.236510c -6.05  -3.75    +64.6970
iter:  66 13:45:46  -890.238005c -5.85  -3.78    +64.6757
iter:  67 13:48:15  -890.242848c -5.44  -3.82    +64.6193
iter:  68 13:50:44  -890.243632c -5.92  -3.73    +64.5960
iter:  69 13:53:12  -890.245360c -5.85  -3.70    +64.5692
iter:  70 13:55:41  -890.247847c -5.91  -3.75    +64.5415
iter:  71 13:58:10  -890.246265c -6.46  -3.62    +64.5767
iter:  72 14:00:39  -890.252652c -5.11  -3.65    +64.4455
iter:  73 14:03:07  -890.250745c -5.80  -3.53    +64.4739
iter:  74 14:05:36  -890.253222c -5.69  -3.61    +64.4239
iter:  75 14:08:05  -890.253056c -5.76  -3.67    +64.3884
iter:  76 14:10:34  -890.255901c -5.41  -3.89    +64.3594
iter:  77 14:13:03  -890.255667c -5.81  -3.74    +64.3492
iter:  78 14:15:32  -890.257320c -6.06  -3.99    +64.3226
iter:  79 14:18:00  -890.258214c -6.34  -4.11c   +64.3054
iter:  80 14:20:29  -890.259103c -6.45  -4.10c   +64.2916
iter:  81 14:22:58  -890.259801c -6.60  -4.12c   +64.2771
iter:  82 14:25:27  -890.258024c -6.11  -4.05c   +64.3055
iter:  83 14:27:56  -890.260105c -6.13  -4.04c   +64.2775
iter:  84 14:30:26  -890.260495c -6.65  -4.06c   +64.2710
iter:  85 14:32:54  -890.262450c -6.07  -4.18c   +64.2330
iter:  86 14:35:23  -890.263965c -6.13  -4.16c   +64.2023
iter:  87 14:37:51  -890.267499c -5.60  -4.23c   +64.1250
iter:  88 14:40:21  -890.266155c -6.52  -4.12c   +64.1573
iter:  89 14:42:50  -890.272458c -5.27  -4.06c   +64.0179
iter:  90 14:45:19  -890.275879c -5.50  -3.94    +63.9526
iter:  91 14:47:46  -890.281097c -5.26  -3.87    +63.8537
iter:  92 14:50:15  -890.290083c -4.85  -3.81    +63.6710
iter:  93 14:52:45  -890.296989c -4.86  -3.65    +63.5005
iter:  94 14:55:15  -890.301482c -4.97  -3.53    +63.3655
iter:  95 14:57:45  -890.308769c -4.91  -3.47    +63.2477
iter:  96 15:00:14  -890.301750c -5.32  -3.31    +63.3272
iter:  97 15:02:44  -890.305186c -5.27  -3.44    +63.2882
iter:  98 15:05:14  -890.313735c -4.91  -3.32    +63.3151
iter:  99 15:07:44  -890.310617c -4.66  -3.20    +63.2966
iter: 100 15:10:13  -890.299834c -4.99  -3.19    +63.2856
iter: 101 15:12:43  -890.299612c -5.36  -3.45    +63.2766
iter: 102 15:15:13  -890.296603c -5.92  -3.48    +63.2907
iter: 103 15:17:43  -890.297123c -5.76  -3.69    +63.2983
iter: 104 15:20:08  -890.296631c -5.46  -3.62    +63.2986
iter: 105 15:22:39  -890.299597c -5.30  -3.66    +63.3130
iter: 106 15:25:10  -890.297048c -5.38  -3.51    +63.3164
iter: 107 15:27:42  -890.295499c -5.72  -3.60    +63.3116
iter: 108 15:30:13  -890.294929c -6.18  -3.86    +63.3115
iter: 109 15:32:44  -890.294993c -6.48  -4.00    +63.3199
iter: 110 15:35:16  -890.294685c -6.72  -4.03c   +63.3254
iter: 111 15:37:47  -890.294800c -6.50  -4.11c   +63.3292
iter: 112 15:40:18  -890.295200c -6.27  -4.01c   +63.3320
iter: 113 15:42:49  -890.294621c -6.31  -3.97    +63.3369
iter: 114 15:45:21  -890.294636c -6.43  -4.02c   +63.3389
iter: 115 15:47:52  -890.294465c -6.46  -4.07c   +63.3380
iter: 116 15:50:23  -890.294546c -6.57  -4.15c   +63.3407
iter: 117 15:52:55  -890.294415c -7.04  -4.17c   +63.3460
iter: 118 15:55:26  -890.294246c -7.12  -4.34c   +63.3472
iter: 119 15:57:58  -890.294403c -7.07  -4.38c   +63.3492
iter: 120 16:00:30  -890.294311c -7.39  -4.36c   +63.3509
iter: 121 16:03:01  -890.294290c -7.38  -4.44c   +63.3545
iter: 122 16:05:33  -890.294264c -7.11  -4.49c   +63.3546
iter: 123 16:08:05  -890.294221c -7.33  -4.33c   +63.3541
iter: 124 16:10:36  -890.294268c -7.58c -4.50c   +63.3561

Converged after 124 iterations.

Dipole moment: (6.389549, -2.102708, 0.583151) |e|*Ang

Total magnetic moment: (0.000000, 0.000000, 63.356081)
Local magnetic moments:
   0 Co ( 0.000000,  0.000000,  1.379564)
   1 Fe ( 0.000000,  0.000000,  1.767178)
   2 Fe ( 0.000000,  0.000000,  2.405298)
   3 Co ( 0.000000,  0.000000,  1.217767)
   4 Co ( 0.000000,  0.000000,  1.389429)
   5 Fe ( 0.000000,  0.000000,  2.044543)
   6 Cr ( 0.000000,  0.000000, -1.533509)
   7 Co ( 0.000000,  0.000000,  0.873050)
   8 Co ( 0.000000,  0.000000,  1.057171)
   9 Fe ( 0.000000,  0.000000,  1.949901)
  10 Ni ( 0.000000,  0.000000,  0.175960)
  11 Cr ( 0.000000,  0.000000, -1.696073)
  12 Fe ( 0.000000,  0.000000,  1.781901)
  13 Ni ( 0.000000,  0.000000,  0.156244)
  14 Co ( 0.000000,  0.000000,  1.125450)
  15 Cr ( 0.000000,  0.000000, -0.407426)
  16 Cr ( 0.000000,  0.000000, -0.389995)
  17 Fe ( 0.000000,  0.000000,  1.898819)
  18 Cr ( 0.000000,  0.000000, -1.631425)
  19 Fe ( 0.000000,  0.000000,  1.756987)
  20 Ni ( 0.000000,  0.000000,  0.133912)
  21 Ni ( 0.000000,  0.000000,  0.274340)
  22 Fe ( 0.000000,  0.000000,  2.021467)
  23 Cr ( 0.000000,  0.000000, -1.308955)
  24 Cr ( 0.000000,  0.000000, -1.499881)
  25 Ni ( 0.000000,  0.000000,  0.266630)
  26 Fe ( 0.000000,  0.000000,  2.299026)
  27 Ni ( 0.000000,  0.000000,  0.451757)
  28 Fe ( 0.000000,  0.000000,  2.061491)
  29 Co ( 0.000000,  0.000000,  1.386494)
  30 Cr ( 0.000000,  0.000000, -1.805742)
  31 Ni ( 0.000000,  0.000000,  0.431727)
  32 Co ( 0.000000,  0.000000,  1.160057)
  33 Fe ( 0.000000,  0.000000,  2.124667)
  34 Ni ( 0.000000,  0.000000,  0.265797)
  35 Ni ( 0.000000,  0.000000,  0.387111)
  36 Cr ( 0.000000,  0.000000, -1.143879)
  37 Fe ( 0.000000,  0.000000,  1.628960)
  38 Cr ( 0.000000,  0.000000, -1.724851)
  39 Co ( 0.000000,  0.000000,  0.800338)
  40 Co ( 0.000000,  0.000000,  1.166320)
  41 Fe ( 0.000000,  0.000000,  1.983236)
  42 Fe ( 0.000000,  0.000000,  2.087538)
  43 Co ( 0.000000,  0.000000,  0.851825)
  44 Cr ( 0.000000,  0.000000, -1.146560)
  45 Ni ( 0.000000,  0.000000,  0.177813)
  46 Fe ( 0.000000,  0.000000,  1.352779)
  47 Cr ( 0.000000,  0.000000,  0.410854)
  48 Cr ( 0.000000,  0.000000, -1.034098)
  49 Co ( 0.000000,  0.000000,  0.906852)
  50 Cr ( 0.000000,  0.000000, -1.394137)
  51 Fe ( 0.000000,  0.000000,  2.006305)
  52 Co ( 0.000000,  0.000000,  0.849110)
  53 Fe ( 0.000000,  0.000000,  1.950631)
  54 Cr ( 0.000000,  0.000000, -1.655273)
  55 Fe ( 0.000000,  0.000000,  2.145653)
  56 Ni ( 0.000000,  0.000000,  0.159053)
  57 Ni ( 0.000000,  0.000000,  0.256711)
  58 Cr ( 0.000000,  0.000000, -1.241750)
  59 Ni ( 0.000000,  0.000000,  0.181037)
[...]
  93 Cr ( 0.000000,  0.000000,  0.529997)
  94 Co ( 0.000000,  0.000000,  0.839889)
  95 Ni ( 0.000000,  0.000000,  0.161836)
  96 Ni ( 0.000000,  0.000000,  0.315652)
  97 Fe ( 0.000000,  0.000000,  2.320969)
  98 Co ( 0.000000,  0.000000,  1.234385)
  99 Fe ( 0.000000,  0.000000,  2.281978)
 100 Fe ( 0.000000,  0.000000,  2.099798)
 101 Co ( 0.000000,  0.000000,  1.605888)
 102 Ni ( 0.000000,  0.000000,  0.367248)
 103 Co ( 0.000000,  0.000000,  1.243920)
 104 Cr ( 0.000000,  0.000000, -1.264271)
 105 Fe ( 0.000000,  0.000000,  2.119104)
 106 Co ( 0.000000,  0.000000,  0.866215)
 107 Cr ( 0.000000,  0.000000, -1.112636)

Energy contributions relative to reference atoms: (reference = -3846758.590871)

Kinetic:       +117.968059
Potential:     -185.647992
External:        +0.000000
XC:            -860.349497
Entropy (-ST):   -4.673924
Local:          +40.072123
Free energy:   -892.631230
Extrapolated:  -890.294268

Spin contamination: 30.960371 electrons
Showing only first 2 kpts
                      Up                     Down
 Kpt  Band  Eigenvalues  Occupancy  Eigenvalues  Occupancy
  0   524      9.84320    0.99353     10.69193    0.03068
  0   525      9.85661    0.99261     10.70760    0.02635
  0   526      9.87280    0.99132     10.72089    0.02315
  0   527      9.88060    0.99063     10.72423    0.02240

  1   524      9.84034    0.99371     10.70306    0.02754
  1   525      9.85759    0.99254     10.71301    0.02500
  1   526      9.86949    0.99160     10.72499    0.02224
  1   527      9.87744    0.99092     10.74063    0.01908

Fermi level: 10.34664

No gap

Forces in eV/Ang:
  0 Co    0.07993    0.00687   -0.06202
  1 Fe    0.27435    0.17002   -0.03672
  2 Fe    0.03766   -0.22438   -0.05945
  3 Co    0.07468   -0.07740    0.10451
  4 Co   -0.00656   -0.04554    0.02750
  5 Fe    0.11053    0.21701    0.14553
  6 Cr   -0.22228    0.11552   -0.47615
  7 Co   -0.19581   -0.10608   -0.11920
  8 Co   -0.19124    0.07461   -0.01876
  9 Fe   -0.26631   -0.21586   -0.20401
 10 Ni   -0.01112   -0.08095   -0.10007
 11 Cr    0.03211    0.05477    0.06342
 12 Fe    0.36417    0.47367    0.05004
 13 Ni   -0.03201   -0.10718   -0.09140
 14 Co   -0.11279   -0.11227   -0.25297
 15 Cr   -0.02850   -0.18279    0.21799
 16 Cr   -0.34549   -0.18313   -0.20278
 17 Fe   -0.01351   -0.33892    0.10331
 18 Cr   -0.06243   -0.13297   -0.02113
 19 Fe    0.12241    0.05660    0.12537
 20 Ni   -0.13076    0.20866   -0.13547
 21 Ni    0.11034    0.09664   -0.04514
 22 Fe    0.21269    0.02605   -0.02900
 23 Cr   -0.17032   -0.20721   -0.21654
 24 Cr    0.08820    0.03640   -0.31825
 25 Ni    0.11725   -0.17435   -0.03743
 26 Fe   -0.19571    0.43543   -0.04731
 27 Ni    0.35542   -0.03529   -0.00886
 28 Fe   -0.11905    0.32562   -0.14993
 29 Co    0.03133    0.18927    0.11656
 30 Cr   -0.11046    0.03246   -0.15499
 31 Ni   -0.23719    0.08007    0.14055
 32 Co    0.26334   -0.23614   -0.13999
 33 Fe   -0.17033    0.01526   -0.27169
 34 Ni   -0.00122    0.23660   -0.31148
 35 Ni    0.00015   -0.26366   -0.01298
 36 Cr   -0.11461    0.13740   -0.17249
 37 Fe    0.36631    0.02478    0.27264
 38 Cr    0.38655    0.05788    0.22217
 39 Co   -0.04340    0.15140    0.10553
 40 Co    0.05694   -0.31028   -0.00235
 41 Fe   -0.18968   -0.11268   -0.13715
 42 Fe    0.16091   -0.16934   -0.01615
 43 Co   -0.22769   -0.04898   -0.09782
 44 Cr    0.23194   -0.01378    0.78178
 45 Ni    0.05038   -0.04332    0.09595
 46 Fe   -0.12197   -0.19854    0.03233
 47 Cr    0.08622    0.03307   -0.08870
 48 Cr   -0.12539   -0.04623   -0.45724
 49 Co    0.06154   -0.26333   -0.12720
 50 Cr    0.17955   -0.14143    0.53418
 51 Fe   -0.03521   -0.30950    0.16028
 52 Co   -0.13662   -0.01705   -0.12494
 53 Fe   -0.14274   -0.08285    0.11135
 54 Cr   -0.04409    0.01753   -0.09096
 55 Fe    0.03307    0.03777    0.02678
 56 Ni    0.11069    0.06662    0.04804
 57 Ni    0.12363    0.02726   -0.06385
 58 Cr    0.01930   -0.00465    0.24992
 59 Ni    0.03300   -0.08048    0.12865
[...]
 93 Cr    0.20098    0.05282    0.15009
 94 Co    0.02886    0.15147    0.17304
 95 Ni    0.11756    0.19135    0.11822
 96 Ni   -0.16996   -0.19039    0.00308
 97 Fe    0.01515   -0.02387    0.18662
 98 Co   -0.14881   -0.16282   -0.02043
 99 Fe    0.14173    0.05940    0.12337
100 Fe    0.06071   -0.00521    0.30563
101 Co   -0.19716    0.10760   -0.07135
102 Ni    0.15820    0.13025    0.12420
103 Co   -0.07298    0.13875   -0.00767
104 Cr   -0.00777   -0.03167   -0.21376
105 Fe    0.11133   -0.24438    0.10217
106 Co   -0.13667    0.07816    0.11606
107 Cr    0.18290    0.00640   -0.23857

Date: Sat Apr 15 16:10:59 2023