User:   c.zeng@d0097
Date:   Thu Apr 13 22:55:38 2023
Arch:   x86_64
Pid:    9447
CWD:    /home/c.zeng/projects/hea-corrosion/hea-mlp/data-curation/bulk-md/dft-jobs/53
Python: 3.8.1
gpaw:   /home/c.zeng/usr/installs/gpaw/source/gpaw-22.8.0/gpaw
_gpaw:  /home/c.zeng/usr/installs/gpaw/source/gpaw-22.8.0/
        _gpaw.cpython-38-x86_64-linux-gnu.so
ase:    /home/c.zeng/.local/lib/python3.8/site-packages/ase-3.22.1-py3.8.egg/ase (version 3.22.1)
numpy:  /shared/centos7/python/3.8.1/lib/python3.8/site-packages/numpy (version 1.17.4)
scipy:  /shared/centos7/python/3.8.1/lib/python3.8/site-packages/scipy (version 1.4.1)
units:  Angstrom and eV
cores: 30
OpenMP: False
OMP_NUM_THREADS: 1

Input parameters:
  convergence: {energy: 0.0001}
  kpts: [2 2 2]
  maxiter: 666
  mode: {ecut: 350.0,
         name: pw}
  occupations: {fixmagmom: False,
                name: fermi-dirac,
                width: 0.1}
  spinpol: True
  xc: PBE

System changes: positions, numbers, cell, pbc, initial_charges, initial_magmoms

Initialize ...

species:
  Co:
    name: Cobalt
    id: 339d20d5b0b93d2de9531a1bee871d91
    Z: 27.0
    valence: 9
    core: 18
    charge: 0.0
    file: /home/c.zeng/usr/data/gpaw-setups-0.9.20000/Co.PBE.gz
    compensation charges: {type: gauss,
                           rc: 0.32,
                           lmax: 2}
    cutoffs: {filter: 1.87,
              core: 2.55}
    valence states:
      #              energy  rcut
      - 4s(2.00)    -5.469   1.005
      - 4p(0.00)    -1.277   1.058
      - 3d(7.00)    -8.205   1.005
      -  s          21.742   1.005
      -  p          25.934   1.058
      -  d          19.007   1.005

    # Using partial waves for Co as LCAO basis

  Ni:
    name: Nickel
    id: 0d9f38a9d6e76a2886f07bb4381f212b
    Z: 28.0
    valence: 16
    core: 12
    charge: 0.0
    file: /home/c.zeng/usr/data/gpaw-setups-0.9.20000/Ni.PBE.gz
    compensation charges: {type: gauss,
                           rc: 0.36,
                           lmax: 2}
    cutoffs: {filter: 2.14,
              core: 1.98}
    valence states:
      #              energy  rcut
      - 4s(2.00)    -5.642   1.164
      - 3p(6.00)   -71.394   1.207
      - 4p(0.00)    -1.226   1.207
      - 3d(8.00)    -8.875   1.138
      -  s          21.570   1.164
      -  d          18.337   1.138

[...]

  Al:
    name: Aluminium
    id: 0292cae29f5d6237e50f6abdd43a7bdd
    Z: 13.0
    valence: 3
    core: 10
    charge: 0.0
    file: /home/c.zeng/usr/data/gpaw-setups-0.9.20000/Al.PBE.gz
    compensation charges: {type: gauss,
                           rc: 0.34,
                           lmax: 2}
    cutoffs: {filter: 1.91,
              core: 2.36}
    valence states:
      #              energy  rcut
      - 3s(2.00)    -7.753   1.085
      - 3p(1.00)    -2.712   1.085
      -  s          19.459   1.085
      -  p          24.499   1.085
      -  d           0.000   1.085

[...]

  Cr:
    name: Chromium
    id: 33f258bda2ca9f93018e70263a35547b
    Z: 24.0
    valence: 6
    core: 18
    charge: 0.0
    file: /home/c.zeng/usr/data/gpaw-setups-0.9.20000/Cr.PBE.gz
    compensation charges: {type: gauss,
                           rc: 0.35,
                           lmax: 2}
    cutoffs: {filter: 2.14,
              core: 3.04}
    valence states:
      #              energy  rcut
      - 4s(1.00)    -4.007   1.164
      - 4p(0.00)    -0.989   1.217
      - 3d(5.00)    -2.913   1.111
      -  s          23.205   1.164
      -  p          26.223   1.217
      -  d          24.299   1.111

[...]

  Fe:
    name: Iron
    id: 37abbd8d6c3c35915a9b583b742da910
    Z: 26.0
    valence: 8
    core: 18
    charge: 0.0
    file: /home/c.zeng/usr/data/gpaw-setups-0.9.20000/Fe.PBE.gz
    compensation charges: {type: gauss,
                           rc: 0.33,
                           lmax: 2}
    cutoffs: {filter: 2.06,
              core: 2.67}
    valence states:
      #              energy  rcut
      - 4s(2.00)    -5.291   1.164
      - 4p(0.00)    -1.326   1.058
      - 3d(6.00)    -7.505   1.058
      -  s          21.920   1.164
      -  p          25.885   1.058
      -  d          19.706   1.058

    # Using partial waves for Fe as LCAO basis

Reference energy: -3548577.034362  # eV

Spin-polarized calculation.
Magnetic moment: 136.400000

Convergence criteria:
 Maximum [total energy] change in last 3 cyles: 0.0001 eV / electron
 Maximum integral of absolute [dens]ity change: 0.0001 electrons / valence electron
 Maximum integral of absolute [eigenst]ate change: 4e-08 eV^2 / valence electron
 Maximum number of scf [iter]ations: 666
 (Square brackets indicate name in SCF output, whereas a 'c' in
 the SCF output indicates the quantity has converged.)

Symmetries present (total): 1

  ( 1  0  0)
  ( 0  1  0)
  ( 0  0  1)

8 k-points: 2 x 2 x 2 Monkhorst-Pack grid
4 k-points in the irreducible part of the Brillouin zone
       k-points in crystal coordinates                weights
   0:     0.25000000   -0.25000000   -0.25000000          2/8
   1:     0.25000000   -0.25000000    0.25000000          2/8
   2:     0.25000000    0.25000000   -0.25000000          2/8
   3:     0.25000000    0.25000000    0.25000000          2/8

Wave functions: Plane wave expansion
  Cutoff energy: 350.000 eV
  Number of coefficients (min, max): 18331, 18331
  Pulay-stress correction: 0.000000 eV/Ang^3 (de/decut=0.000000)
  Using FFTW library
  ScaLapack parameters: grid=1x1, blocksize=None
  Wavefunction extrapolation:
    Improved wavefunction reuse through dual PAW basis

Occupation numbers: Fermi-Dirac:
  width: 0.1000  # eV

Eigensolver
   Davidson(niter=2)

Densities:
  Coarse grid: 48*48*48 grid
  Fine grid: 96*96*96 grid
  Total Charge: 0.000000

Density mixing:
  Method: difference
  Backend: pulay
  Linear mixing parameter: 0.05
  old densities: 5
  Damping of long wavelength oscillations: 50

Hamiltonian:
  XC and Coulomb potentials evaluated on a 96*96*96 grid
  Using the PBE Exchange-Correlation functional
  External potential:
    NoExternalPotential

XC parameters: PBE with 2 nearest neighbor stencil

Total number of cores used: 30
Parallelization over k-points: 2
Domain decomposition: 5 x 3 x 1

Number of atoms: 108
Number of atomic orbitals: 994
Number of bands in calculation: 674
Number of valence electrons: 980
Bands to converge: occupied

... initialized

Initializing position-dependent things.

Density initialized from atomic densities
Creating initial wave functions:
  674 bands from LCAO basis set

       /|          Fe             |
      / |   Co         Fe    Al   |
     /  |       Ni      Ni      Ni|
    /   | Ni      Co      Cre     |
   /Co  |  Cr    FFe Co  Ni  Fe   |
  /   Cr|    FeFe   CNi       Co  |
 *    CNi Cr CCoAl     CoCr   Al  |
 |Co   NiFeFe   CoCoCr  CrCr      |
 |      | CrCo Fe  CoFe  CrFeCr   Ni
 |     Fe  NiNi Cr  CrCoNi  NiFe  |
 Al    Fe     Co Co  FeCrCr     Ni|
 |      |Ni     NiCr   Cr Fe    Al|
 | Ni   .CNNiiCo--CoCor-Cr-FeCr---.
 |     /    CCr Ni    Cr    Cr Fe/
 |    Nil      FeAl     NiCr    /
 |   /   AlFe                  /
 |Ni/              Fe         /
 | /  Al              Fe     /
 |/                     Al  /

Positions:
   0 Co    10.981483   -0.139690   10.919084    ( 0.0000,  0.0000,  2.1000)
   1 Ni    10.805877    1.566006    1.888090    ( 0.0000,  0.0000,  1.5000)
   2 Al     2.116911    0.008594    1.845225    ( 0.0000,  0.0000,  0.0000)
   3 Cr     1.389402    1.861924   10.657665    ( 0.0000,  0.0000,  0.0000)
   4 Cr     3.545297    0.160580   10.658787    ( 0.0000,  0.0000,  0.0000)
   5 Fe     3.580342    1.921868    1.938461    ( 0.0000,  0.0000,  2.0000)
   6 Fe     5.244119   -0.004676    1.862800    ( 0.0000,  0.0000,  2.0000)
   7 Fe     5.304530    1.758331   -0.099507    ( 0.0000,  0.0000,  2.0000)
   8 Cr     6.776770   -0.037835    0.034249    ( 0.0000,  0.0000,  0.0000)
   9 Fe     7.024954    1.743109    1.845732    ( 0.0000,  0.0000,  2.0000)
  10 Fe     8.784032    0.137569    1.645981    ( 0.0000,  0.0000,  2.0000)
  11 Al     9.062952    1.783204    0.040488    ( 0.0000,  0.0000,  0.0000)
  12 Co    10.794836    3.857652   10.387582    ( 0.0000,  0.0000,  2.1000)
  13 Fe    10.641767    5.699319    1.965877    ( 0.0000,  0.0000,  2.0000)
  14 Al     1.565742    3.716332    1.886191    ( 0.0000,  0.0000,  0.0000)
  15 Al     1.714303    5.665064   10.832261    ( 0.0000,  0.0000,  0.0000)
  16 Cr     3.397689    3.399252   10.695774    ( 0.0000,  0.0000,  0.0000)
  17 Cr     3.580327    5.185637    2.081679    ( 0.0000,  0.0000,  0.0000)
  18 Al     5.435097    3.708048    1.888513    ( 0.0000,  0.0000,  0.0000)
  19 Co     5.433842    5.425101   10.612584    ( 0.0000,  0.0000,  2.1000)
  20 Co     7.179231    3.544135   -0.029454    ( 0.0000,  0.0000,  2.1000)
  21 Cr     7.157455    5.603680    1.758562    ( 0.0000,  0.0000,  0.0000)
  22 Cr     9.154709    3.578504    1.901608    ( 0.0000,  0.0000,  0.0000)
  23 Cr     8.784668    5.314149   -0.096015    ( 0.0000,  0.0000,  0.0000)
  24 Fe    10.735356    7.184329   10.759687    ( 0.0000,  0.0000,  2.0000)
  25 Al    10.463010    8.963142    1.554838    ( 0.0000,  0.0000,  0.0000)
  26 Ni     1.843800    7.056461    1.810423    ( 0.0000,  0.0000,  1.5000)
  27 Cr     2.021839    8.794285   10.945746    ( 0.0000,  0.0000,  0.0000)
  28 Fe     3.732772    7.072929   10.831866    ( 0.0000,  0.0000,  2.0000)
  29 Ni     3.800643    8.832217    1.733134    ( 0.0000,  0.0000,  1.5000)
  30 Co     5.312867    7.013989    1.978159    ( 0.0000,  0.0000,  2.1000)
  31 Fe     5.202687    8.981535   10.545802    ( 0.0000,  0.0000,  2.0000)
  32 Fe     6.917628    7.296353   10.719435    ( 0.0000,  0.0000,  2.0000)
  33 Cr     6.882508    8.783903    1.730644    ( 0.0000,  0.0000,  0.0000)
  34 Fe     8.786465    7.156714    1.758393    ( 0.0000,  0.0000,  2.0000)
  35 Cr     8.523790    9.153685    0.096858    ( 0.0000,  0.0000,  0.0000)
  36 Ni    10.719808   -0.104113    3.411914    ( 0.0000,  0.0000,  1.5000)
  37 Ni     0.224263    1.722984    5.241780    ( 0.0000,  0.0000,  1.5000)
  38 Co     1.902394   -0.117523    5.232601    ( 0.0000,  0.0000,  2.1000)
  39 Ni     1.723090    1.604809    3.624411    ( 0.0000,  0.0000,  1.5000)
  40 Co     3.822859   -0.194955    3.886893    ( 0.0000,  0.0000,  2.1000)
  41 Ni     3.601849    1.621789    5.272372    ( 0.0000,  0.0000,  1.5000)
  42 Co     5.506453    0.078540    5.381155    ( 0.0000,  0.0000,  2.1000)
  43 Ni     5.539665    1.709863    3.642271    ( 0.0000,  0.0000,  1.5000)
  44 Cr     7.128656   -0.052880    3.530796    ( 0.0000,  0.0000,  0.0000)
  45 Co     7.569441    1.636297    5.225674    ( 0.0000,  0.0000,  2.1000)
  46 Al     9.071328   10.431233    5.265028    ( 0.0000,  0.0000,  0.0000)
  47 Ni     9.074920    1.591835    3.675875    ( 0.0000,  0.0000,  1.5000)
  48 Cr    10.603054    3.627759    3.603214    ( 0.0000,  0.0000,  0.0000)
  49 Fe    -0.066694    5.474009    5.352118    ( 0.0000,  0.0000,  2.0000)
  50 Fe     1.635134    3.686923    5.306291    ( 0.0000,  0.0000,  2.0000)
  51 Ni     1.610726    5.538146    3.542470    ( 0.0000,  0.0000,  1.5000)
  52 Ni     3.607165    3.343346    3.764958    ( 0.0000,  0.0000,  1.5000)
  53 Ni     3.567098    5.350709    5.212147    ( 0.0000,  0.0000,  1.5000)
  54 Co     5.547794    3.425449    5.490281    ( 0.0000,  0.0000,  2.1000)
  55 Cr     5.448407    5.250815    3.822453    ( 0.0000,  0.0000,  0.0000)
  56 Cr     7.255856    3.761899    3.425090    ( 0.0000,  0.0000,  0.0000)
  57 Co     7.125805    5.389236    5.467022    ( 0.0000,  0.0000,  2.1000)
  58 Cr     8.824024    3.734583    5.236081    ( 0.0000,  0.0000,  0.0000)
  59 Fe     8.871955    5.382683    3.499503    ( 0.0000,  0.0000,  2.0000)
[...]
  93 Ni     6.945385    5.512954    8.967127    ( 0.0000,  0.0000,  1.5000)
  94 Cr     8.793028    3.786605    8.912771    ( 0.0000,  0.0000,  0.0000)
  95 Cr     8.807117    5.501326    7.079886    ( 0.0000,  0.0000,  0.0000)
  96 Co    10.744866    7.234177    7.122325    ( 0.0000,  0.0000,  2.1000)
  97 Ni    10.561617    8.798957    9.062642    ( 0.0000,  0.0000,  1.5000)
  98 Ni     1.691929    7.366095    8.955423    ( 0.0000,  0.0000,  1.5000)
  99 Co     1.825613    8.923959    7.179983    ( 0.0000,  0.0000,  2.1000)
 100 Co     3.322082    7.023843    6.954235    ( 0.0000,  0.0000,  2.1000)
 101 Ni     3.631032    8.875856    8.956569    ( 0.0000,  0.0000,  1.5000)
 102 Fe     5.275583    7.099164    8.870597    ( 0.0000,  0.0000,  2.0000)
 103 Co     5.329036    8.818967    7.075529    ( 0.0000,  0.0000,  2.1000)
 104 Co     7.098063    6.984470    7.322356    ( 0.0000,  0.0000,  2.1000)
 105 Ni     7.067998    8.964534    8.957033    ( 0.0000,  0.0000,  1.5000)
 106 Fe     8.748112    7.271272    9.139618    ( 0.0000,  0.0000,  2.0000)
 107 Fe     9.016936    8.822295    7.297503    ( 0.0000,  0.0000,  2.0000)

Unit cell:
           periodic     x           y           z      points  spacing
  1. axis:    yes   10.722400    0.000000    0.000000    48     0.2234
  2. axis:    yes    0.000000   10.722400    0.000000    48     0.2234
  3. axis:    yes    0.000000    0.000000   10.722400    48     0.2234

  Lengths:  10.722400  10.722400  10.722400
  Angles:   90.000000  90.000000  90.000000

Effective grid spacing dv^(1/3) = 0.2234

     iter     time        total  log10-change:  magmom
                         energy  eigst   dens
iter:   1 22:59:02 -1017.285521                  +136.6833
iter:   2 23:00:20  -902.612667  -0.23  -1.18    +75.7077
iter:   3 23:01:38  -894.239568  -0.81  -1.20    +64.2908
iter:   4 23:02:56  -870.647497  -1.20  -1.27    +59.4754
iter:   5 23:04:15  -856.032301  -1.59  -1.29    +56.1658
iter:   6 23:05:33  -856.366321  -1.24  -1.36    +56.9294
iter:   7 23:06:52  -849.428210  -1.28  -1.47    +55.2177
iter:   8 23:08:10  -839.961468  -1.61  -1.56    +54.3678
iter:   9 23:09:28  -839.086409  -2.13  -1.74    +55.1170
iter:  10 23:10:47  -838.725731  -2.34  -1.78    +56.3975
iter:  11 23:12:05  -838.972511  -2.55  -1.83    +57.2917
iter:  12 23:13:23  -839.027888  -2.44  -1.85    +58.4899
iter:  13 23:14:41  -839.618159  -2.41  -1.91    +59.3069
iter:  14 23:15:59  -840.117410  -2.40  -1.97    +59.6641
iter:  15 23:17:18  -839.003604  -2.66  -1.97    +60.4652
iter:  16 23:18:36  -839.460772  -2.77  -2.08    +61.0814
iter:  17 23:19:54  -838.950548  -2.93  -2.08    +61.4922
iter:  18 23:21:12  -839.385694  -2.92  -2.18    +62.1758
iter:  19 23:22:30  -839.047664  -2.97  -2.17    +62.4517
iter:  20 23:23:49  -839.083920  -3.08  -2.25    +62.7022
iter:  21 23:25:07  -839.344547  -2.92  -2.33    +62.9560
iter:  22 23:26:25  -838.865954  -3.25  -2.29    +63.4279
iter:  23 23:27:43  -839.019400  -3.34  -2.49    +63.5587
iter:  24 23:29:01  -838.885174  -3.59  -2.47    +63.7264
iter:  25 23:30:20  -839.006956  -3.59  -2.60    +64.0205
iter:  26 23:31:38  -838.935168  -3.78  -2.57    +64.0546
iter:  27 23:32:56  -838.955381c -3.84  -2.64    +64.1038
iter:  28 23:34:15  -838.993581c -3.93  -2.72    +64.2233
iter:  29 23:35:33  -838.985210c -4.14  -2.71    +64.3440
iter:  30 23:36:51  -839.020936c -4.10  -2.78    +64.3386
iter:  31 23:38:09  -839.018200c -4.29  -2.78    +64.3878
iter:  32 23:39:27  -839.041534c -4.29  -2.86    +64.4447
iter:  33 23:40:46  -839.060264c -4.41  -2.88    +64.3901
iter:  34 23:42:04  -839.067019c -4.50  -2.89    +64.3724
iter:  35 23:43:22  -839.081047c -4.54  -2.96    +64.3524
iter:  36 23:44:40  -839.112188c -4.36  -2.99    +64.2484
iter:  37 23:45:58  -839.121687c -4.46  -2.98    +64.1368
iter:  38 23:47:17  -839.132807c -4.59  -3.03    +64.0808
iter:  39 23:48:35  -839.147769c -4.54  -3.06    +63.8944
iter:  40 23:49:53  -839.148490c -4.85  -3.04    +63.8878
iter:  41 23:51:11  -839.152407c -4.69  -3.11    +63.8466
iter:  42 23:52:30  -839.154906c -4.96  -3.15    +63.7879
iter:  43 23:53:48  -839.158028c -4.97  -3.20    +63.7232
iter:  44 23:55:06  -839.158096c -5.12  -3.22    +63.7063
iter:  45 23:56:24  -839.160738c -5.26  -3.26    +63.6275
iter:  46 23:57:42  -839.162169c -5.31  -3.28    +63.5954
iter:  47 23:59:01  -839.163477c -5.36  -3.34    +63.5667
iter:  48 00:00:19  -839.165412c -5.30  -3.38    +63.5135
iter:  49 00:01:37  -839.165620c -5.54  -3.40    +63.4920
iter:  50 00:02:55  -839.166836c -5.53  -3.42    +63.4733
iter:  51 00:04:13  -839.166589c -5.48  -3.47    +63.4468
iter:  52 00:05:32  -839.166649c -5.71  -3.50    +63.4226
iter:  53 00:06:50  -839.167964c -5.75  -3.56    +63.3768
iter:  54 00:08:08  -839.167853c -5.87  -3.56    +63.3776
iter:  55 00:09:26  -839.168441c -5.85  -3.60    +63.3544
iter:  56 00:10:45  -839.168969c -5.86  -3.63    +63.3325
iter:  57 00:12:03  -839.169182c -5.97  -3.63    +63.3251
iter:  58 00:13:21  -839.169455c -6.08  -3.69    +63.3085
iter:  59 00:14:39  -839.169579c -6.04  -3.70    +63.2992
iter:  60 00:15:57  -839.170112c -6.14  -3.71    +63.2718
iter:  61 00:17:15  -839.170315c -6.10  -3.76    +63.2640
iter:  62 00:18:33  -839.170606c -6.16  -3.79    +63.2554
iter:  63 00:19:51  -839.170682c -6.15  -3.81    +63.2377
iter:  64 00:21:10  -839.170980c -6.32  -3.81    +63.2307
iter:  65 00:22:28  -839.171244c -6.29  -3.91    +63.2150
iter:  66 00:23:46  -839.170949c -6.23  -3.90    +63.2139
iter:  67 00:25:04  -839.171324c -6.48  -3.87    +63.1991
iter:  68 00:26:23  -839.171453c -6.59  -4.01c   +63.1846
iter:  69 00:27:41  -839.171630c -6.64  -4.01c   +63.1771
iter:  70 00:28:59  -839.171539c -6.75  -4.03c   +63.1644
iter:  71 00:30:17  -839.171723c -6.87  -4.08c   +63.1562
iter:  72 00:31:35  -839.172114c -6.78  -4.09c   +63.1442
iter:  73 00:32:53  -839.171850c -6.89  -4.09c   +63.1419
iter:  74 00:34:11  -839.172012c -6.90  -4.14c   +63.1340
iter:  75 00:35:29  -839.172055c -6.97  -4.12c   +63.1254
iter:  76 00:36:48  -839.172264c -6.85  -4.17c   +63.1181
iter:  77 00:38:06  -839.172245c -7.00  -4.18c   +63.1114
iter:  78 00:39:24  -839.172156c -7.05  -4.19c   +63.1088
iter:  79 00:40:42  -839.172485c -6.91  -4.23c   +63.0994
iter:  80 00:42:00  -839.172523c -6.96  -4.24c   +63.0962
iter:  81 00:43:18  -839.172516c -7.14  -4.26c   +63.0957
iter:  82 00:44:36  -839.172461c -7.02  -4.36c   +63.0916
iter:  83 00:45:54  -839.172562c -7.10  -4.31c   +63.0903
iter:  84 00:47:13  -839.172665c -7.39  -4.36c   +63.0831
iter:  85 00:48:31  -839.172528c -7.35  -4.48c   +63.0815
iter:  86 00:49:49  -839.172567c -7.73c -4.45c   +63.0777

Converged after 86 iterations.

Dipole moment: (2.700870, 28.689324, 7.588050) |e|*Ang

Total magnetic moment: (0.000000, 0.000000, 63.077701)
Local magnetic moments:
   0 Co ( 0.000000,  0.000000,  0.201983)
   1 Ni ( 0.000000,  0.000000,  0.151588)
   2 Al ( 0.000000,  0.000000, -0.018128)
   3 Cr ( 0.000000,  0.000000,  1.333520)
   4 Cr ( 0.000000,  0.000000, -1.324865)
   5 Fe ( 0.000000,  0.000000,  2.197788)
   6 Fe ( 0.000000,  0.000000,  1.704100)
   7 Fe ( 0.000000,  0.000000,  1.737076)
   8 Cr ( 0.000000,  0.000000, -0.872177)
   9 Fe ( 0.000000,  0.000000,  1.941884)
  10 Fe ( 0.000000,  0.000000,  1.643239)
  11 Al ( 0.000000,  0.000000, -0.018198)
  12 Co ( 0.000000,  0.000000, -0.402210)
  13 Fe ( 0.000000,  0.000000,  1.662492)
  14 Al ( 0.000000,  0.000000, -0.009780)
  15 Al ( 0.000000,  0.000000, -0.027311)
  16 Cr ( 0.000000,  0.000000, -2.091986)
  17 Cr ( 0.000000,  0.000000,  1.734959)
  18 Al ( 0.000000,  0.000000, -0.009712)
  19 Co ( 0.000000,  0.000000,  1.323973)
  20 Co ( 0.000000,  0.000000,  1.038732)
  21 Cr ( 0.000000,  0.000000, -0.459587)
  22 Cr ( 0.000000,  0.000000,  1.287991)
  23 Cr ( 0.000000,  0.000000, -0.731065)
  24 Fe ( 0.000000,  0.000000,  1.824754)
  25 Al ( 0.000000,  0.000000, -0.019140)
  26 Ni ( 0.000000,  0.000000,  0.187980)
  27 Cr ( 0.000000,  0.000000, -1.666036)
  28 Fe ( 0.000000,  0.000000,  2.246163)
  29 Ni ( 0.000000,  0.000000,  0.206958)
  30 Co ( 0.000000,  0.000000,  0.623339)
  31 Fe ( 0.000000,  0.000000,  1.864093)
  32 Fe ( 0.000000,  0.000000,  0.762813)
  33 Cr ( 0.000000,  0.000000, -0.053150)
  34 Fe ( 0.000000,  0.000000,  1.383255)
  35 Cr ( 0.000000,  0.000000, -0.281660)
  36 Ni ( 0.000000,  0.000000,  0.267158)
  37 Ni ( 0.000000,  0.000000,  0.292839)
  38 Co ( 0.000000,  0.000000,  1.507131)
  39 Ni ( 0.000000,  0.000000,  0.410217)
  40 Co ( 0.000000,  0.000000,  1.288446)
  41 Ni ( 0.000000,  0.000000,  0.507946)
  42 Co ( 0.000000,  0.000000,  1.319186)
  43 Ni ( 0.000000,  0.000000,  0.364418)
  44 Cr ( 0.000000,  0.000000, -1.363429)
  45 Co ( 0.000000,  0.000000,  1.100215)
  46 Al ( 0.000000,  0.000000, -0.013208)
  47 Ni ( 0.000000,  0.000000,  0.256619)
  48 Cr ( 0.000000,  0.000000, -1.028433)
  49 Fe ( 0.000000,  0.000000,  1.886643)
  50 Fe ( 0.000000,  0.000000,  2.539190)
  51 Ni ( 0.000000,  0.000000,  0.254798)
  52 Ni ( 0.000000,  0.000000,  0.509416)
  53 Ni ( 0.000000,  0.000000,  0.357864)
  54 Co ( 0.000000,  0.000000,  1.332199)
  55 Cr ( 0.000000,  0.000000, -0.481760)
  56 Cr ( 0.000000,  0.000000, -0.439335)
  57 Co ( 0.000000,  0.000000,  0.418335)
  58 Cr ( 0.000000,  0.000000,  0.739936)
  59 Fe ( 0.000000,  0.000000, -1.039368)
[...]
  93 Ni ( 0.000000,  0.000000,  0.353193)
  94 Cr ( 0.000000,  0.000000, -0.058882)
  95 Cr ( 0.000000,  0.000000, -0.752935)
  96 Co ( 0.000000,  0.000000,  1.273381)
  97 Ni ( 0.000000,  0.000000,  0.407940)
  98 Ni ( 0.000000,  0.000000,  0.484979)
  99 Co ( 0.000000,  0.000000,  1.612068)
 100 Co ( 0.000000,  0.000000,  1.499187)
 101 Ni ( 0.000000,  0.000000,  0.466265)
 102 Fe ( 0.000000,  0.000000,  2.017724)
 103 Co ( 0.000000,  0.000000,  1.436048)
 104 Co ( 0.000000,  0.000000,  0.989083)
 105 Ni ( 0.000000,  0.000000,  0.205997)
 106 Fe ( 0.000000,  0.000000,  1.909892)
 107 Fe ( 0.000000,  0.000000,  2.080674)

Energy contributions relative to reference atoms: (reference = -3548577.034362)

Kinetic:       +362.241952
Potential:     -359.489907
External:        +0.000000
XC:            -875.757985
Entropy (-ST):   -4.333313
Local:          +36.000029
Free energy:   -841.339223
Extrapolated:  -839.172567

Spin contamination: 23.296492 electrons
Showing only first 2 kpts
                      Up                     Down
 Kpt  Band  Eigenvalues  Occupancy  Eigenvalues  Occupancy
  0   488      9.51656    0.99484     10.41460    0.02369
  0   489      9.52550    0.99436     10.42314    0.02179
  0   490      9.54165    0.99338     10.43430    0.01954
  0   491      9.55493    0.99244     10.44082    0.01833

  1   488      9.51573    0.99488     10.41719    0.02310
  1   489      9.52980    0.99411     10.42713    0.02096
  1   490      9.54613    0.99308     10.44095    0.01830
  1   491      9.55392    0.99252     10.45455    0.01601

Fermi level: 10.04272

No gap

Forces in eV/Ang:
  0 Co   -0.37937    0.65245   -1.92224
  1 Ni   -0.50464    1.83634   -0.60962
  2 Al   -0.99706   -0.16001    1.26735
  3 Cr    1.16778    0.10861   -0.47500
  4 Cr    0.95573   -0.18265   -1.17687
  5 Fe    0.56556   -0.24396   -0.71548
  6 Fe    0.03765    0.61266   -0.12885
  7 Fe    0.23884    1.18513    0.93728
  8 Cr    1.33145    0.64722    0.00418
  9 Fe    1.07367    0.21280   -0.78311
 10 Fe   -0.06806   -0.90864    1.25285
 11 Al    0.62183    0.58264   -0.81277
 12 Co   -0.97419   -0.10691    1.48920
 13 Fe   -0.97984   -1.72586   -2.03445
 14 Al   -0.00529   -1.41647   -0.41234
 15 Al    0.82464   -2.18209   -2.26523
 16 Cr    0.25980    0.45410    0.12166
 17 Cr   -0.22563    1.11930   -0.63350
 18 Al   -0.28797   -1.52312   -1.64706
 19 Co   -1.29624   -1.24404    1.55278
 20 Co   -0.46411   -0.15089    0.44659
 21 Cr   -0.03586   -0.43252   -0.37067
 22 Cr   -0.17958    0.33031   -0.70867
 23 Cr    0.65780    0.66491    1.05864
 24 Fe   -1.76397    0.22499   -0.35345
 25 Al    1.36012   -0.99922    2.60283
 26 Ni    0.08809    1.65489    0.50211
 27 Cr   -1.16816    0.22296   -1.97341
 28 Fe   -0.18075   -0.28010   -0.55199
 29 Ni   -0.72031    0.47953    0.85295
 30 Co   -0.05399   -0.58945   -0.48748
 31 Fe    0.62189    0.25768    0.94201
 32 Fe    0.24497   -0.54540    0.11406
 33 Cr    0.59982    0.52098    0.64252
 34 Fe   -0.10013   -0.38437   -0.67898
 35 Cr    0.61567   -0.50232    0.06770
 36 Ni    0.57561   -1.17249    0.83181
 37 Ni   -1.69182   -0.02935    1.61755
 38 Co   -0.71469   -0.25582    0.65535
 39 Ni    1.71584    1.09821   -0.94409
 40 Co   -1.16457    0.95336   -2.01810
 41 Ni    0.14630    0.88890    1.16133
 42 Co   -0.05707   -0.59781    0.07221
 43 Ni   -0.85956    0.91300    0.46008
 44 Cr   -0.07647   -0.12976   -0.44308
 45 Co   -2.96775    0.89621    1.27241
 46 Al   -0.11119    0.15849    0.20853
 47 Ni    0.36493    1.18698   -1.89612
 48 Cr   -0.48398   -0.57622    1.22431
 49 Fe   -0.07408    0.43738   -0.13257
 50 Fe    0.97127   -0.28793    0.04685
 51 Ni    0.73151   -1.66038    0.71871
 52 Ni   -0.02287    1.35443   -0.16308
 53 Ni   -0.44508   -0.13193    0.45320
 54 Co   -0.08391    0.50134   -0.29958
 55 Cr   -0.77408    0.63161   -0.58990
 56 Cr    0.39430   -1.06119    1.20864
 57 Co    0.17237    0.08336   -0.80566
 58 Cr    0.42550   -1.29125    0.45418
 59 Fe    0.62730    0.86961    0.87686
[...]
 93 Ni    1.83833   -1.56995    0.78656
 94 Cr    0.96249   -0.99298    0.17338
 95 Cr    1.17946    0.71836    0.44579
 96 Co   -0.15233    0.04706    0.07191
 97 Ni    0.85567    1.86139    0.19854
 98 Ni    0.87063   -1.33720    0.12552
 99 Co   -0.08730    0.33938   -0.33635
100 Co    1.28408    0.54124    1.08030
101 Ni   -1.20019    0.51564   -0.97406
102 Fe   -0.29691    1.25716   -0.09220
103 Co    0.20921    0.48000    0.52132
104 Co    0.10778    2.43133   -1.82236
105 Ni   -0.67245   -0.32119   -1.12929
106 Fe   -0.26500   -0.49348    0.10961
107 Fe   -0.59695   -0.83924   -1.68453

Date: Fri Apr 14 00:50:05 2023