User:   c.zeng@d0139
Date:   Fri Apr  7 23:22:39 2023
Arch:   x86_64
Pid:    33217
CWD:    /home/c.zeng/projects/hea-corrosion/hea-mlp/data-curation/volume/dft-jobs/105
Python: 3.8.1
gpaw:   /home/c.zeng/usr/installs/gpaw/source/gpaw-22.8.0/gpaw
_gpaw:  /home/c.zeng/usr/installs/gpaw/source/gpaw-22.8.0/
        _gpaw.cpython-38-x86_64-linux-gnu.so
ase:    /home/c.zeng/.local/lib/python3.8/site-packages/ase-3.22.1-py3.8.egg/ase (version 3.22.1)
numpy:  /shared/centos7/python/3.8.1/lib/python3.8/site-packages/numpy (version 1.17.4)
scipy:  /shared/centos7/python/3.8.1/lib/python3.8/site-packages/scipy (version 1.4.1)
units:  Angstrom and eV
cores: 64
OpenMP: False
OMP_NUM_THREADS: 1

Input parameters:
  convergence: {energy: 0.0001}
  kpts: [2 2 2]
  maxiter: 666
  mode: {ecut: 350.0,
         name: pw}
  occupations: {fixmagmom: False,
                name: fermi-dirac,
                width: 0.1}
  spinpol: True
  xc: PBE

System changes: positions, numbers, cell, pbc, initial_charges, initial_magmoms

Initialize ...

species:
  Fe:
    name: Iron
    id: 37abbd8d6c3c35915a9b583b742da910
    Z: 26.0
    valence: 8
    core: 18
    charge: 0.0
    file: /home/c.zeng/usr/data/gpaw-setups-0.9.20000/Fe.PBE.gz
    compensation charges: {type: gauss,
                           rc: 0.33,
                           lmax: 2}
    cutoffs: {filter: 2.06,
              core: 2.67}
    valence states:
      #              energy  rcut
      - 4s(2.00)    -5.291   1.164
      - 4p(0.00)    -1.326   1.058
      - 3d(6.00)    -7.505   1.058
      -  s          21.920   1.164
      -  p          25.885   1.058
      -  d          19.706   1.058

    # Using partial waves for Fe as LCAO basis

  Cr:
    name: Chromium
    id: 33f258bda2ca9f93018e70263a35547b
    Z: 24.0
    valence: 6
    core: 18
    charge: 0.0
    file: /home/c.zeng/usr/data/gpaw-setups-0.9.20000/Cr.PBE.gz
    compensation charges: {type: gauss,
                           rc: 0.35,
                           lmax: 2}
    cutoffs: {filter: 2.14,
              core: 3.04}
    valence states:
      #              energy  rcut
      - 4s(1.00)    -4.007   1.164
      - 4p(0.00)    -0.989   1.217
      - 3d(5.00)    -2.913   1.111
      -  s          23.205   1.164
      -  p          26.223   1.217
      -  d          24.299   1.111

[...]

  Ni:
    name: Nickel
    id: 0d9f38a9d6e76a2886f07bb4381f212b
    Z: 28.0
    valence: 16
    core: 12
    charge: 0.0
    file: /home/c.zeng/usr/data/gpaw-setups-0.9.20000/Ni.PBE.gz
    compensation charges: {type: gauss,
                           rc: 0.36,
                           lmax: 2}
    cutoffs: {filter: 2.14,
              core: 1.98}
    valence states:
      #              energy  rcut
      - 4s(2.00)    -5.642   1.164
      - 3p(6.00)   -71.394   1.207
      - 4p(0.00)    -1.226   1.207
      - 3d(8.00)    -8.875   1.138
      -  s          21.570   1.164
      -  d          18.337   1.138

[...]

  Al:
    name: Aluminium
    id: 0292cae29f5d6237e50f6abdd43a7bdd
    Z: 13.0
    valence: 3
    core: 10
    charge: 0.0
    file: /home/c.zeng/usr/data/gpaw-setups-0.9.20000/Al.PBE.gz
    compensation charges: {type: gauss,
                           rc: 0.34,
                           lmax: 2}
    cutoffs: {filter: 1.91,
              core: 2.36}
    valence states:
      #              energy  rcut
      - 3s(2.00)    -7.753   1.085
      - 3p(1.00)    -2.712   1.085
      -  s          19.459   1.085
      -  p          24.499   1.085
      -  d           0.000   1.085

[...]

  Co:
    name: Cobalt
    id: 339d20d5b0b93d2de9531a1bee871d91
    Z: 27.0
    valence: 9
    core: 18
    charge: 0.0
    file: /home/c.zeng/usr/data/gpaw-setups-0.9.20000/Co.PBE.gz
    compensation charges: {type: gauss,
                           rc: 0.32,
                           lmax: 2}
    cutoffs: {filter: 1.87,
              core: 2.55}
    valence states:
      #              energy  rcut
      - 4s(2.00)    -5.469   1.005
      - 4p(0.00)    -1.277   1.058
      - 3d(7.00)    -8.205   1.005
      -  s          21.742   1.005
      -  p          25.934   1.058
      -  d          19.007   1.005

    # Using partial waves for Co as LCAO basis

Reference energy: -3382523.201499  # eV

Spin-polarized calculation.
Magnetic moment: 128.800000

Convergence criteria:
 Maximum [total energy] change in last 3 cyles: 0.0001 eV / electron
 Maximum integral of absolute [dens]ity change: 0.0001 electrons / valence electron
 Maximum integral of absolute [eigenst]ate change: 4e-08 eV^2 / valence electron
 Maximum number of scf [iter]ations: 666
 (Square brackets indicate name in SCF output, whereas a 'c' in
 the SCF output indicates the quantity has converged.)

Symmetries present (total): 1

  ( 1  0  0)
  ( 0  1  0)
  ( 0  0  1)

8 k-points: 2 x 2 x 2 Monkhorst-Pack grid
4 k-points in the irreducible part of the Brillouin zone
       k-points in crystal coordinates                weights
   0:     0.25000000   -0.25000000   -0.25000000          2/8
   1:     0.25000000   -0.25000000    0.25000000          2/8
   2:     0.25000000    0.25000000   -0.25000000          2/8
   3:     0.25000000    0.25000000    0.25000000          2/8

Wave functions: Plane wave expansion
  Cutoff energy: 350.000 eV
  Number of coefficients (min, max): 18865, 18865
  Pulay-stress correction: 0.000000 eV/Ang^3 (de/decut=0.000000)
  Using FFTW library
  ScaLapack parameters: grid=1x1, blocksize=None
  Wavefunction extrapolation:
    Improved wavefunction reuse through dual PAW basis

Occupation numbers: Fermi-Dirac:
  width: 0.1000  # eV

Eigensolver
   Davidson(niter=2)

Densities:
  Coarse grid: 48*48*48 grid
  Fine grid: 96*96*96 grid
  Total Charge: 0.000000

Density mixing:
  Method: difference
  Backend: pulay
  Linear mixing parameter: 0.05
  old densities: 5
  Damping of long wavelength oscillations: 50

Hamiltonian:
  XC and Coulomb potentials evaluated on a 96*96*96 grid
  Using the PBE Exchange-Correlation functional
  External potential:
    NoExternalPotential

XC parameters: PBE with 2 nearest neighbor stencil

Total number of cores used: 64
Parallelization over k-points: 4
Domain decomposition: 4 x 2 x 2

Number of atoms: 108
Number of atomic orbitals: 961
Number of bands in calculation: 649
Number of valence electrons: 945
Bands to converge: occupied

... initialized

Initializing position-dependent things.

Density initialized from atomic densities
Creating initial wave functions:
  649 bands from LCAO basis set

       /|                     Ni   |
      / |            Cr Ni     NiNi|
     /  |       Al       Ni       Fe
    /   |Cr       Fer     CAlo     |
   /i   | Coi        Co      Fe    |
  /  FeCr   CFe       Cr           |
 *      Co     CrNi   FeAlFeFe   Ni|
 |      |CrFe   CrCoAl   FeCrCo   Co
 | NiCo | AlNi   FeAlAl     Cr     |
 |     Co  NiFe Fe  Ni NiNi  CrCr  |
 |      CoFe   AlFe   NiAlCoFe  Fe |
 |Co    |AlAl   CrFeCo   CrCo     Cr
 |      .-CrAl-----FeNi-CoAlCoNi---.
 |     /   Al Cr    Fe FeNi    Cr /
 |    Cr       CNio       Co     /
 |   /  Fe         Cr       Ni  /
 |  /      Fe       Co       Cr/
 | / Ni     Co       Cr Ni    /
 |/             Al       Co  /
 *--------Al----------------*

Positions:
   0 Fe    10.765021   10.860003   10.805576    ( 0.0000,  0.0000,  2.0000)
   1 Cr    10.786500    1.792237    1.813315    ( 0.0000,  0.0000,  0.0000)
   2 Ni     1.745006    0.036459    1.851479    ( 0.0000,  0.0000,  1.5000)
   3 Cr     1.736404    1.831147   10.798218    ( 0.0000,  0.0000,  0.0000)
   4 Al     3.574476    0.056551    0.060510    ( 0.0000,  0.0000,  0.0000)
   5 Fe     3.594256    1.817697    1.844272    ( 0.0000,  0.0000,  2.0000)
   6 Ni     5.428973   10.817089    1.864842    ( 0.0000,  0.0000,  1.5000)
   7 Al     5.429363    1.929039    0.055739    ( 0.0000,  0.0000,  0.0000)
   8 Al     7.316527   10.722097    0.087239    ( 0.0000,  0.0000,  0.0000)
   9 Co     7.262598    1.825228    1.868088    ( 0.0000,  0.0000,  2.1000)
  10 Ni     9.063589    0.024491    1.863349    ( 0.0000,  0.0000,  1.5000)
  11 Co     9.049847    1.828821    0.033673    ( 0.0000,  0.0000,  2.1000)
  12 Ni     0.004822    3.559468   10.795221    ( 0.0000,  0.0000,  1.5000)
  13 Cr    10.759979    5.390951    1.778268    ( 0.0000,  0.0000,  0.0000)
  14 Fe     1.734229    3.561870    1.760371    ( 0.0000,  0.0000,  2.0000)
  15 Cr     1.777391    5.392617   10.795405    ( 0.0000,  0.0000,  0.0000)
  16 Co     3.565452    3.619943   10.831437    ( 0.0000,  0.0000,  2.1000)
  17 Cr     3.633339    5.394402    1.719567    ( 0.0000,  0.0000,  0.0000)
  18 Co     5.470957    3.658767    1.834664    ( 0.0000,  0.0000,  2.1000)
  19 Fe     5.439556    5.374146   -0.003410    ( 0.0000,  0.0000,  2.0000)
  20 Cr     7.258573    3.609307    0.031037    ( 0.0000,  0.0000,  0.0000)
  21 Fe     7.267619    5.378540    1.784966    ( 0.0000,  0.0000,  2.0000)
  22 Co     9.030154    3.577581    1.833062    ( 0.0000,  0.0000,  2.1000)
  23 Al     9.040065    5.373302   10.802038    ( 0.0000,  0.0000,  0.0000)
  24 Ni    10.791726    7.196204   10.793230    ( 0.0000,  0.0000,  1.5000)
  25 Cr    10.759405    9.040076    1.848676    ( 0.0000,  0.0000,  0.0000)
  26 Cr     1.691770    7.202459    1.786946    ( 0.0000,  0.0000,  0.0000)
  27 Al     1.653822    8.980088    0.027156    ( 0.0000,  0.0000,  0.0000)
  28 Cr     3.631099    7.164630    0.034352    ( 0.0000,  0.0000,  0.0000)
  29 Cr     3.625559    9.064422    1.803176    ( 0.0000,  0.0000,  0.0000)
  30 Fe     5.489600    7.187332    1.746770    ( 0.0000,  0.0000,  2.0000)
  31 Fe     5.425608    8.988917    0.009259    ( 0.0000,  0.0000,  2.0000)
  32 Ni     7.228287    7.237798   -0.007978    ( 0.0000,  0.0000,  1.5000)
  33 Cr     7.247407    8.996026    1.811508    ( 0.0000,  0.0000,  0.0000)
  34 Co     9.051373    7.204774    1.765002    ( 0.0000,  0.0000,  2.1000)
  35 Ni     9.092620    8.989112   10.809309    ( 0.0000,  0.0000,  1.5000)
  36 Ni    -0.000789   10.826243    3.639496    ( 0.0000,  0.0000,  1.5000)
  37 Co    10.821915    1.772003    5.421540    ( 0.0000,  0.0000,  2.1000)
  38 Co     1.753889   10.803012    5.429114    ( 0.0000,  0.0000,  2.1000)
  39 Cr     1.741955    1.774892    3.610735    ( 0.0000,  0.0000,  0.0000)
  40 Fe     3.591399   10.796552    3.613602    ( 0.0000,  0.0000,  2.0000)
  41 Al     3.593260    1.737973    5.456966    ( 0.0000,  0.0000,  0.0000)
  42 Fe     5.437803   10.796054    5.402085    ( 0.0000,  0.0000,  2.0000)
  43 Ni     5.452237    1.783386    3.601408    ( 0.0000,  0.0000,  1.5000)
  44 Cr     7.225906    0.008307    3.626165    ( 0.0000,  0.0000,  0.0000)
  45 Co     7.236911    1.766863    5.381742    ( 0.0000,  0.0000,  2.1000)
  46 Co     9.034623   10.848641    5.403264    ( 0.0000,  0.0000,  2.1000)
  47 Ni     9.031171    1.804778    3.615680    ( 0.0000,  0.0000,  1.5000)
  48 Ni    10.773396    3.543876    3.616913    ( 0.0000,  0.0000,  1.5000)
  49 Cr    10.771481    5.358056    5.453655    ( 0.0000,  0.0000,  0.0000)
  50 Co     1.756714    3.575298    5.429114    ( 0.0000,  0.0000,  2.1000)
  51 Al     1.622443    5.385887    3.572377    ( 0.0000,  0.0000,  0.0000)
  52 Al     3.634865    3.631683    3.540911    ( 0.0000,  0.0000,  0.0000)
  53 Fe     3.550866    5.396090    5.405255    ( 0.0000,  0.0000,  2.0000)
  54 Fe     5.403297    3.609999    5.371171    ( 0.0000,  0.0000,  2.0000)
  55 Fe     5.459833    5.432425    3.575731    ( 0.0000,  0.0000,  2.0000)
  56 Ni     7.249690    3.614565    3.622107    ( 0.0000,  0.0000,  1.5000)
  57 Ni     7.248705    5.409843    5.361746    ( 0.0000,  0.0000,  1.5000)
  58 Co     9.057703    3.565224    5.379243    ( 0.0000,  0.0000,  2.1000)
  59 Co     9.073230    5.365414    3.587817    ( 0.0000,  0.0000,  2.1000)
[...]
  93 Cr     7.211310    5.389295    9.040736    ( 0.0000,  0.0000,  0.0000)
  94 Fe     9.095293    3.598778    8.982101    ( 0.0000,  0.0000,  2.0000)
  95 Cr     9.078532    5.402420    7.227681    ( 0.0000,  0.0000,  0.0000)
  96 Ni    10.762879    7.244117    7.259601    ( 0.0000,  0.0000,  1.5000)
  97 Fe    10.795286    9.033606    8.977426    ( 0.0000,  0.0000,  2.0000)
  98 Co     1.739790    7.178881    8.983756    ( 0.0000,  0.0000,  2.1000)
  99 Ni     1.733839    9.080004    7.235656    ( 0.0000,  0.0000,  1.5000)
 100 Cr     3.580178    7.153648    7.247125    ( 0.0000,  0.0000,  0.0000)
 101 Al     3.612434    8.970512    8.956500    ( 0.0000,  0.0000,  0.0000)
 102 Cr     5.410968    7.156212    9.065915    ( 0.0000,  0.0000,  0.0000)
 103 Co     5.467126    9.064206    7.220442    ( 0.0000,  0.0000,  2.1000)
 104 Al     7.308022    7.271179    7.288946    ( 0.0000,  0.0000,  0.0000)
 105 Ni     7.271341    9.043896    9.027535    ( 0.0000,  0.0000,  1.5000)
 106 Co     9.081800    7.219825    9.041548    ( 0.0000,  0.0000,  2.1000)
 107 Fe     9.064173    9.082341    7.213279    ( 0.0000,  0.0000,  2.0000)

Unit cell:
           periodic     x           y           z      points  spacing
  1. axis:    yes   10.820400    0.000000    0.000000    48     0.2254
  2. axis:    yes    0.000000   10.820400    0.000000    48     0.2254
  3. axis:    yes    0.000000    0.000000   10.820400    48     0.2254

  Lengths:  10.820400  10.820400  10.820400
  Angles:   90.000000  90.000000  90.000000

Effective grid spacing dv^(1/3) = 0.2254

     iter     time        total  log10-change:  magmom
                         energy  eigst   dens
iter:   1 23:25:21  -996.866269                  +129.0863
iter:   2 23:26:40  -888.902674  -0.19  -1.18    +70.8548
iter:   3 23:27:58  -876.061102  -0.82  -1.19    +61.2219
iter:   4 23:29:18  -851.794530  -1.23  -1.26    +57.0176
iter:   5 23:30:40  -843.649158  -1.55  -1.30    +54.8519
iter:   6 23:32:00  -844.604083  -1.33  -1.35    +55.5190
iter:   7 23:33:21  -834.922166  -1.30  -1.39    +54.2089
iter:   8 23:34:44  -828.006070  -1.64  -1.53    +54.0966
iter:   9 23:36:04  -827.453898  -1.86  -1.66    +55.6035
iter:  10 23:37:25  -824.999423  -2.41  -1.72    +56.4562
iter:  11 23:38:45  -825.454946  -2.49  -1.80    +59.0654
iter:  12 23:40:05  -827.068090  -2.41  -1.86    +60.3981
iter:  13 23:41:26  -826.481802  -2.43  -1.86    +61.1573
iter:  14 23:42:45  -826.761789  -2.49  -1.93    +62.4726
iter:  15 23:44:07  -826.585041  -2.65  -1.96    +62.9013
iter:  16 23:45:29  -826.206333  -2.90  -2.02    +63.0876
iter:  17 23:46:48  -826.742353  -2.94  -2.08    +64.0627
iter:  18 23:48:09  -826.210016  -3.06  -2.06    +64.0849
iter:  19 23:49:30  -826.319936  -3.03  -2.19    +64.2657
iter:  20 23:50:51  -826.508089  -3.00  -2.24    +64.4744
iter:  21 23:52:12  -826.241230  -3.21  -2.25    +64.7672
iter:  22 23:53:32  -826.304388  -3.36  -2.37    +64.9191
iter:  23 23:54:54  -826.234954c -3.52  -2.39    +65.0079
iter:  24 23:56:14  -826.277616c -3.63  -2.49    +65.1758
iter:  25 23:57:36  -826.326518c -3.67  -2.51    +65.2096
iter:  26 23:58:55  -826.345266c -3.81  -2.55    +65.3439
iter:  27 00:00:16  -826.356129c -3.96  -2.54    +65.3584
iter:  28 00:01:37  -826.396068c -3.93  -2.60    +65.2799
iter:  29 00:02:57  -826.418639c -4.19  -2.63    +65.3674
iter:  30 00:04:19  -826.451646c -4.04  -2.67    +65.3279
iter:  31 00:05:40  -826.477753c -4.10  -2.69    +65.3041
iter:  32 00:06:59  -826.497466c -4.27  -2.74    +65.4319
iter:  33 00:08:20  -826.509536c -4.23  -2.75    +65.4133
iter:  34 00:09:40  -826.526491c -4.43  -2.80    +65.3322
iter:  35 00:11:00  -826.551359c -4.38  -2.85    +65.3874
iter:  36 00:12:21  -826.560709c -4.50  -2.86    +65.3454
iter:  37 00:13:42  -826.587421c -4.41  -2.91    +65.2836
iter:  38 00:15:02  -826.600094c -4.44  -2.95    +65.3203
iter:  39 00:16:24  -826.606641c -4.62  -2.95    +65.2687
iter:  40 00:17:44  -826.617695c -4.55  -3.00    +65.2133
iter:  41 00:19:04  -826.625521c -4.83  -3.06    +65.2183
iter:  42 00:20:25  -826.633760c -4.76  -3.09    +65.1868
iter:  43 00:21:45  -826.651877c -4.60  -3.13    +65.1790
iter:  44 00:23:05  -826.661108c -4.58  -3.14    +65.1718
iter:  45 00:24:26  -826.662714c -4.94  -3.18    +65.1519
iter:  46 00:25:49  -826.665575c -5.11  -3.21    +65.1436
iter:  47 00:27:09  -826.671159c -5.09  -3.26    +65.1090
iter:  48 00:28:29  -826.669106c -5.15  -3.27    +65.1147
iter:  49 00:29:48  -826.671541c -5.31  -3.32    +65.0998
iter:  50 00:31:11  -826.673422c -5.37  -3.37    +65.0861
iter:  51 00:32:31  -826.673644c -5.59  -3.37    +65.0804
iter:  52 00:33:51  -826.675153c -5.52  -3.41    +65.0798
iter:  53 00:35:14  -826.677147c -5.46  -3.46    +65.0594
iter:  54 00:36:34  -826.677475c -5.65  -3.48    +65.0520
iter:  55 00:37:54  -826.679149c -5.73  -3.52    +65.0418
iter:  56 00:39:15  -826.680945c -5.62  -3.55    +65.0288
iter:  57 00:40:35  -826.681616c -5.74  -3.57    +65.0179
iter:  58 00:41:56  -826.682939c -5.66  -3.58    +65.0047
iter:  59 00:43:16  -826.683628c -5.81  -3.66    +64.9933
iter:  60 00:44:35  -826.684839c -5.91  -3.74    +64.9695
iter:  61 00:45:55  -826.685775c -6.11  -3.76    +64.9583
iter:  62 00:47:16  -826.687669c -5.70  -3.80    +64.9163
iter:  63 00:48:36  -826.688554c -5.95  -3.80    +64.9095
iter:  64 00:49:56  -826.689454c -6.05  -3.83    +64.8971
iter:  65 00:51:17  -826.690602c -5.99  -3.88    +64.8622
iter:  66 00:52:37  -826.691974c -5.82  -3.94    +64.8310
iter:  67 00:53:58  -826.693604c -5.79  -3.93    +64.7878
iter:  68 00:55:21  -826.698231c -5.12  -3.92    +64.6971
iter:  69 00:56:42  -826.700628c -5.38  -3.75    +64.6679
iter:  70 00:58:03  -826.710974c -4.31  -3.71    +64.5066
iter:  71 00:59:22  -826.714086c -4.86  -3.48    +64.4682
iter:  72 01:00:41  -826.711415c -5.72  -3.43    +64.5003
iter:  73 01:02:03  -826.712075c -6.00  -3.49    +64.4898
iter:  74 01:03:23  -826.712085c -6.36  -3.49    +64.4885
iter:  75 01:04:43  -826.713147c -4.91  -3.49    +64.4823
iter:  76 01:06:05  -826.709496c -5.45  -3.35    +64.4781
iter:  77 01:07:27  -826.709857c -5.33  -3.48    +64.4594
iter:  78 01:08:48  -826.707345c -5.78  -3.47    +64.4324
iter:  79 01:10:09  -826.713511c -5.13  -3.59    +64.4116
iter:  80 01:11:30  -826.708703c -5.33  -3.39    +64.4021
iter:  81 01:12:51  -826.707633c -5.29  -3.57    +64.3794
iter:  82 01:14:12  -826.707232c -5.54  -3.59    +64.3746
iter:  83 01:15:33  -826.707006c -5.75  -3.67    +64.3641
iter:  84 01:16:53  -826.706797c -6.03  -3.73    +64.3744
iter:  85 01:18:14  -826.706274c -6.33  -3.82    +64.3631
iter:  86 01:19:34  -826.706598c -6.37  -3.86    +64.3600
iter:  87 01:20:56  -826.706839c -6.50  -3.88    +64.3620
iter:  88 01:22:16  -826.706587c -6.17  -3.92    +64.3642
iter:  89 01:23:36  -826.706674c -6.29  -3.87    +64.3624
iter:  90 01:24:56  -826.706655c -6.23  -3.92    +64.3576
iter:  91 01:26:15  -826.707161c -6.41  -3.91    +64.3664
iter:  92 01:27:36  -826.706816c -6.31  -3.99    +64.3696
iter:  93 01:28:57  -826.706560c -6.74  -4.00    +64.3693
iter:  94 01:30:18  -826.706895c -6.73  -4.08c   +64.3686
iter:  95 01:31:40  -826.706871c -6.85  -4.12c   +64.3720
iter:  96 01:32:59  -826.707008c -6.92  -4.11c   +64.3751
iter:  97 01:34:19  -826.706981c -6.85  -4.14c   +64.3725
iter:  98 01:35:38  -826.707292c -6.97  -4.17c   +64.3725
iter:  99 01:36:59  -826.707458c -6.68  -4.15c   +64.3755
iter: 100 01:38:20  -826.707208c -6.73  -4.20c   +64.3773
iter: 101 01:39:40  -826.707551c -6.53  -4.29c   +64.3749
iter: 102 01:41:02  -826.707427c -6.85  -4.22c   +64.3747
iter: 103 01:42:23  -826.707771c -6.82  -4.39c   +64.3822
iter: 104 01:43:43  -826.707728c -6.88  -4.43c   +64.3810
iter: 105 01:45:03  -826.707751c -7.45c -4.45c   +64.3808

Converged after 105 iterations.

Dipole moment: (27.519065, -2.626578, -8.626120) |e|*Ang

Total magnetic moment: (0.000000, 0.000000, 64.380762)
Local magnetic moments:
   0 Fe ( 0.000000,  0.000000,  2.163493)
   1 Cr ( 0.000000,  0.000000,  1.393674)
   2 Ni ( 0.000000,  0.000000, -0.008793)
   3 Cr ( 0.000000,  0.000000, -1.884691)
   4 Al ( 0.000000,  0.000000, -0.013408)
   5 Fe ( 0.000000,  0.000000,  2.197823)
   6 Ni ( 0.000000,  0.000000,  0.174307)
   7 Al ( 0.000000,  0.000000, -0.017793)
   8 Al ( 0.000000,  0.000000, -0.014813)
   9 Co ( 0.000000,  0.000000,  1.419106)
  10 Ni ( 0.000000,  0.000000,  0.200922)
  11 Co ( 0.000000,  0.000000,  1.111688)
  12 Ni ( 0.000000,  0.000000,  0.247759)
  13 Cr ( 0.000000,  0.000000,  1.237883)
  14 Fe ( 0.000000,  0.000000,  1.473649)
  15 Cr ( 0.000000,  0.000000, -1.576744)
  16 Co ( 0.000000,  0.000000,  0.749913)
  17 Cr ( 0.000000,  0.000000,  0.397827)
  18 Co ( 0.000000,  0.000000,  1.065738)
  19 Fe ( 0.000000,  0.000000,  1.829620)
  20 Cr ( 0.000000,  0.000000, -1.986309)
  21 Fe ( 0.000000,  0.000000,  2.341960)
  22 Co ( 0.000000,  0.000000,  1.046916)
  23 Al ( 0.000000,  0.000000, -0.028539)
  24 Ni ( 0.000000,  0.000000,  0.196192)
  25 Cr ( 0.000000,  0.000000,  0.362572)
  26 Cr ( 0.000000,  0.000000, -0.468243)
  27 Al ( 0.000000,  0.000000, -0.017772)
  28 Cr ( 0.000000,  0.000000, -0.590812)
  29 Cr ( 0.000000,  0.000000, -1.841738)
  30 Fe ( 0.000000,  0.000000,  1.732797)
  31 Fe ( 0.000000,  0.000000,  1.593501)
  32 Ni ( 0.000000,  0.000000,  0.259695)
  33 Cr ( 0.000000,  0.000000,  1.557389)
  34 Co ( 0.000000,  0.000000,  0.898457)
  35 Ni ( 0.000000,  0.000000,  0.340181)
  36 Ni ( 0.000000,  0.000000,  0.173118)
  37 Co ( 0.000000,  0.000000,  1.560635)
  38 Co ( 0.000000,  0.000000,  1.258496)
  39 Cr ( 0.000000,  0.000000, -1.888959)
  40 Fe ( 0.000000,  0.000000,  2.186944)
  41 Al ( 0.000000,  0.000000, -0.039381)
  42 Fe ( 0.000000,  0.000000,  2.243262)
  43 Ni ( 0.000000,  0.000000,  0.394443)
  44 Cr ( 0.000000,  0.000000, -1.691796)
  45 Co ( 0.000000,  0.000000,  1.496645)
  46 Co ( 0.000000,  0.000000,  1.299461)
  47 Ni ( 0.000000,  0.000000,  0.420062)
  48 Ni ( 0.000000,  0.000000,  0.293146)
  49 Cr ( 0.000000,  0.000000,  1.527245)
  50 Co ( 0.000000,  0.000000,  0.979655)
  51 Al ( 0.000000,  0.000000, -0.027350)
  52 Al ( 0.000000,  0.000000, -0.039423)
  53 Fe ( 0.000000,  0.000000,  2.069615)
  54 Fe ( 0.000000,  0.000000,  2.384123)
  55 Fe ( 0.000000,  0.000000,  2.212345)
  56 Ni ( 0.000000,  0.000000,  0.550778)
  57 Ni ( 0.000000,  0.000000,  0.180332)
  58 Co ( 0.000000,  0.000000,  1.210752)
  59 Co ( 0.000000,  0.000000,  0.854472)
[...]
  93 Cr ( 0.000000,  0.000000,  1.695345)
  94 Fe ( 0.000000,  0.000000,  2.121878)
  95 Cr ( 0.000000,  0.000000, -1.437197)
  96 Ni ( 0.000000,  0.000000,  0.224912)
  97 Fe ( 0.000000,  0.000000,  2.424891)
  98 Co ( 0.000000,  0.000000,  0.515284)
  99 Ni ( 0.000000,  0.000000,  0.380059)
 100 Cr ( 0.000000,  0.000000,  1.532014)
 101 Al ( 0.000000,  0.000000, -0.009856)
 102 Cr ( 0.000000,  0.000000, -1.479878)
 103 Co ( 0.000000,  0.000000,  0.768216)
 104 Al ( 0.000000,  0.000000, -0.019938)
 105 Ni ( 0.000000,  0.000000,  0.276721)
 106 Co ( 0.000000,  0.000000,  1.111900)
 107 Fe ( 0.000000,  0.000000,  2.193448)

Energy contributions relative to reference atoms: (reference = -3382523.201499)

Kinetic:       +217.187143
Potential:     -227.442899
External:        +0.000000
XC:            -847.608582
Entropy (-ST):   -4.178430
Local:          +33.245801
Free energy:   -828.796966
Extrapolated:  -826.707751

Spin contamination: 27.634643 electrons
Showing only first 2 kpts
                      Up                     Down
 Kpt  Band  Eigenvalues  Occupancy  Eigenvalues  Occupancy
  0   470      9.12190    0.99655     10.07937    0.01965
  0   471      9.12840    0.99631     10.09438    0.01695
  0   472      9.13820    0.99594     10.10526    0.01523
  0   473      9.15124    0.99537     10.11404    0.01397

  1   470      9.12107    0.99657     10.08438    0.01870
  1   471      9.13921    0.99590     10.09566    0.01674
  1   472      9.15991    0.99496     10.09721    0.01649
  1   473      9.17298    0.99426     10.12329    0.01275

Fermi level: 9.68837

No gap

Forces in eV/Ang:
  0 Fe   -0.02746    0.13221   -0.16459
  1 Cr    0.05356    0.21009    0.01829
  2 Ni    0.11964   -0.35328   -0.39429
  3 Cr   -0.18023    0.39976    0.19334
  4 Al    0.10337   -0.16339   -0.19535
  5 Fe   -0.26950    0.34170    0.01485
  6 Ni    0.01381    0.40585   -0.42624
  7 Al   -0.43913   -0.15528    0.12991
  8 Al    0.28950    0.65419   -0.38628
  9 Co    0.09590    0.25722   -0.15728
 10 Ni   -0.14752   -0.06275   -0.26502
 11 Co   -0.17702    0.01175   -0.00361
 12 Ni   -0.08929    0.13444    0.05132
 13 Cr    0.04796   -0.06940    0.19106
 14 Fe    0.51619    0.09004   -0.04225
 15 Cr   -0.20544   -0.32241   -0.21249
 16 Co   -0.15294    0.25898    0.10022
 17 Cr   -0.28937    0.23760   -0.75908
 18 Co    0.01678   -0.28616    0.11393
 19 Fe   -0.36529   -0.06479    0.32061
 20 Cr    0.29244    0.43343    0.06219
 21 Fe    0.00817   -0.14908   -0.01492
 22 Co   -0.10082   -0.16058   -0.11746
 23 Al    0.25787    0.67541   -0.10993
 24 Ni    0.02899   -0.08767    0.06109
 25 Cr   -0.44414   -0.36097    0.29700
 26 Cr   -0.21099    0.09101    0.11390
 27 Al    0.22023    0.27230   -0.52958
 28 Cr   -0.15775   -0.15453    0.43948
 29 Cr    0.23798   -0.01547    0.16528
 30 Fe   -0.36888    0.18494   -0.02681
 31 Fe   -0.32622    0.02327   -0.07448
 32 Ni    0.14152    0.05629   -0.18291
 33 Cr    0.09244   -0.20256    0.31365
 34 Co    0.28060    0.28287    0.13217
 35 Ni   -0.13316    0.01134    0.29523
 36 Ni   -0.10935    0.03805   -0.03646
 37 Co    0.20585    0.36199   -0.07678
 38 Co    0.12959   -0.10815   -0.07208
 39 Cr   -0.41500    0.18258   -0.42474
 40 Fe   -0.01750   -0.24026   -0.30750
 41 Al   -0.14146    0.45319    0.05358
 42 Fe    0.17048   -0.14384   -0.01122
 43 Ni   -0.21101    0.28502   -0.01422
 44 Cr   -0.11529    0.09982    0.04192
 45 Co   -0.21642    0.01060    0.18431
 46 Co   -0.16678   -0.07602   -0.26872
 47 Ni   -0.13803   -0.13712    0.06834
 48 Ni    0.33041    0.19850    0.01715
 49 Cr   -0.72759   -0.31724    0.32412
 50 Co    0.27411   -0.13693   -0.17678
 51 Al    0.55973   -0.55254    0.28192
 52 Al    0.01124   -0.14988    0.32608
 53 Fe   -0.00262   -0.03313   -0.44278
 54 Fe    0.13213    0.18295    0.06533
 55 Fe   -0.24549   -0.21332   -0.15461
 56 Ni    0.03479   -0.20765   -0.09372
 57 Ni   -0.00382    0.40040    0.16368
 58 Co    0.05026    0.19863    0.05025
 59 Co    0.03899    0.00404    0.16394
[...]
 93 Cr   -0.20080    0.12207   -0.28820
 94 Fe    0.07028   -0.47701   -0.10139
 95 Cr    0.62886    0.02487    0.02950
 96 Ni    0.18477   -0.19585   -0.05210
 97 Fe    0.11402   -0.24383    0.01043
 98 Co    0.27870    0.02564    0.28842
 99 Ni    0.41579   -0.27258    0.04690
100 Cr    0.04350    0.06698   -0.02528
101 Al   -0.60261    0.13230   -0.02184
102 Cr    0.34166    0.15408    0.11690
103 Co    0.05519   -0.01027    0.07216
104 Al   -0.50448   -0.02956   -0.10713
105 Ni   -0.19543   -0.06666   -0.05458
106 Co   -0.28479    0.01238   -0.06656
107 Fe   -0.05245   -0.18272   -0.18561

Date: Sat Apr  8 01:45:25 2023