User:   c.zeng@d0075
Date:   Thu Apr 13 20:29:18 2023
Arch:   x86_64
Pid:    73018
CWD:    /home/c.zeng/projects/hea-corrosion/hea-mlp/data-curation/bulk-md/dft-jobs/46
Python: 3.8.1
gpaw:   /home/c.zeng/usr/installs/gpaw/source/gpaw-22.8.0/gpaw
_gpaw:  /home/c.zeng/usr/installs/gpaw/source/gpaw-22.8.0/
        _gpaw.cpython-38-x86_64-linux-gnu.so
ase:    /home/c.zeng/.local/lib/python3.8/site-packages/ase-3.22.1-py3.8.egg/ase (version 3.22.1)
numpy:  /shared/centos7/python/3.8.1/lib/python3.8/site-packages/numpy (version 1.17.4)
scipy:  /shared/centos7/python/3.8.1/lib/python3.8/site-packages/scipy (version 1.4.1)
units:  Angstrom and eV
cores: 30
OpenMP: False
OMP_NUM_THREADS: 1

Input parameters:
  convergence: {energy: 0.0001}
  kpts: [2 2 2]
  maxiter: 666
  mode: {ecut: 350.0,
         name: pw}
  occupations: {fixmagmom: False,
                name: fermi-dirac,
                width: 0.1}
  spinpol: True
  xc: PBE

System changes: positions, numbers, cell, pbc, initial_charges, initial_magmoms

Initialize ...

species:
  Co:
    name: Cobalt
    id: 339d20d5b0b93d2de9531a1bee871d91
    Z: 27.0
    valence: 9
    core: 18
    charge: 0.0
    file: /home/c.zeng/usr/data/gpaw-setups-0.9.20000/Co.PBE.gz
    compensation charges: {type: gauss,
                           rc: 0.32,
                           lmax: 2}
    cutoffs: {filter: 1.87,
              core: 2.55}
    valence states:
      #              energy  rcut
      - 4s(2.00)    -5.469   1.005
      - 4p(0.00)    -1.277   1.058
      - 3d(7.00)    -8.205   1.005
      -  s          21.742   1.005
      -  p          25.934   1.058
      -  d          19.007   1.005

    # Using partial waves for Co as LCAO basis

  Ni:
    name: Nickel
    id: 0d9f38a9d6e76a2886f07bb4381f212b
    Z: 28.0
    valence: 16
    core: 12
    charge: 0.0
    file: /home/c.zeng/usr/data/gpaw-setups-0.9.20000/Ni.PBE.gz
    compensation charges: {type: gauss,
                           rc: 0.36,
                           lmax: 2}
    cutoffs: {filter: 2.14,
              core: 1.98}
    valence states:
      #              energy  rcut
      - 4s(2.00)    -5.642   1.164
      - 3p(6.00)   -71.394   1.207
      - 4p(0.00)    -1.226   1.207
      - 3d(8.00)    -8.875   1.138
      -  s          21.570   1.164
      -  d          18.337   1.138

[...]

  Al:
    name: Aluminium
    id: 0292cae29f5d6237e50f6abdd43a7bdd
    Z: 13.0
    valence: 3
    core: 10
    charge: 0.0
    file: /home/c.zeng/usr/data/gpaw-setups-0.9.20000/Al.PBE.gz
    compensation charges: {type: gauss,
                           rc: 0.34,
                           lmax: 2}
    cutoffs: {filter: 1.91,
              core: 2.36}
    valence states:
      #              energy  rcut
      - 3s(2.00)    -7.753   1.085
      - 3p(1.00)    -2.712   1.085
      -  s          19.459   1.085
      -  p          24.499   1.085
      -  d           0.000   1.085

[...]

  Cr:
    name: Chromium
    id: 33f258bda2ca9f93018e70263a35547b
    Z: 24.0
    valence: 6
    core: 18
    charge: 0.0
    file: /home/c.zeng/usr/data/gpaw-setups-0.9.20000/Cr.PBE.gz
    compensation charges: {type: gauss,
                           rc: 0.35,
                           lmax: 2}
    cutoffs: {filter: 2.14,
              core: 3.04}
    valence states:
      #              energy  rcut
      - 4s(1.00)    -4.007   1.164
      - 4p(0.00)    -0.989   1.217
      - 3d(5.00)    -2.913   1.111
      -  s          23.205   1.164
      -  p          26.223   1.217
      -  d          24.299   1.111

[...]

  Fe:
    name: Iron
    id: 37abbd8d6c3c35915a9b583b742da910
    Z: 26.0
    valence: 8
    core: 18
    charge: 0.0
    file: /home/c.zeng/usr/data/gpaw-setups-0.9.20000/Fe.PBE.gz
    compensation charges: {type: gauss,
                           rc: 0.33,
                           lmax: 2}
    cutoffs: {filter: 2.06,
              core: 2.67}
    valence states:
      #              energy  rcut
      - 4s(2.00)    -5.291   1.164
      - 4p(0.00)    -1.326   1.058
      - 3d(6.00)    -7.505   1.058
      -  s          21.920   1.164
      -  p          25.885   1.058
      -  d          19.706   1.058

    # Using partial waves for Fe as LCAO basis

Reference energy: -3548577.034362  # eV

Spin-polarized calculation.
Magnetic moment: 136.400000

Convergence criteria:
 Maximum [total energy] change in last 3 cyles: 0.0001 eV / electron
 Maximum integral of absolute [dens]ity change: 0.0001 electrons / valence electron
 Maximum integral of absolute [eigenst]ate change: 4e-08 eV^2 / valence electron
 Maximum number of scf [iter]ations: 666
 (Square brackets indicate name in SCF output, whereas a 'c' in
 the SCF output indicates the quantity has converged.)

Symmetries present (total): 1

  ( 1  0  0)
  ( 0  1  0)
  ( 0  0  1)

8 k-points: 2 x 2 x 2 Monkhorst-Pack grid
4 k-points in the irreducible part of the Brillouin zone
       k-points in crystal coordinates                weights
   0:     0.25000000   -0.25000000   -0.25000000          2/8
   1:     0.25000000   -0.25000000    0.25000000          2/8
   2:     0.25000000    0.25000000   -0.25000000          2/8
   3:     0.25000000    0.25000000    0.25000000          2/8

Wave functions: Plane wave expansion
  Cutoff energy: 350.000 eV
  Number of coefficients (min, max): 18331, 18331
  Pulay-stress correction: 0.000000 eV/Ang^3 (de/decut=0.000000)
  Using FFTW library
  ScaLapack parameters: grid=1x1, blocksize=None
  Wavefunction extrapolation:
    Improved wavefunction reuse through dual PAW basis

Occupation numbers: Fermi-Dirac:
  width: 0.1000  # eV

Eigensolver
   Davidson(niter=2)

Densities:
  Coarse grid: 48*48*48 grid
  Fine grid: 96*96*96 grid
  Total Charge: 0.000000

Density mixing:
  Method: difference
  Backend: pulay
  Linear mixing parameter: 0.05
  old densities: 5
  Damping of long wavelength oscillations: 50

Hamiltonian:
  XC and Coulomb potentials evaluated on a 96*96*96 grid
  Using the PBE Exchange-Correlation functional
  External potential:
    NoExternalPotential

XC parameters: PBE with 2 nearest neighbor stencil

Total number of cores used: 30
Parallelization over k-points: 2
Domain decomposition: 5 x 3 x 1

Number of atoms: 108
Number of atomic orbitals: 994
Number of bands in calculation: 674
Number of valence electrons: 980
Bands to converge: occupied

... initialized

Initializing position-dependent things.

Density initialized from atomic densities
Creating initial wave functions:
  674 bands from LCAO basis set

        .--------Cr---------------.
       /|  Cr       Fe            |
      / |     Fe       Fe       Fe|
     /  |                    Al   |
    /   AlNi   Ni Coe   Ni       Ni
   /    |   Cre     CoNi NiFeCo   |
  /  Co |  Co  Fe      Al    Fe   |
 *      Ni    CoAl   CoCCr     Co |
 |Co   NiFeFe    CoCr   CrCr      |
 |  CrCo| CrCoFe CCo Fe    Fe     Ni
 |     Fe    NiCr   CrCo    NiFe  |
 |      FeFe  CoCo     CNir    Ni |
 | Ni   |NiNi   NiCCo   CrFe     Al
 |      .-NiNi-----CCr------FCr---Co
 |    Co      Cr      AlNi   CFe /
 |    /        Ni        Cr     /
 |   /  Al      AlCr       CNi /
 |  /Al    Fe      Fe         /
 | /          Fe    Co Fe    /
 |/    Cr                   /
 *----------------Cr-------*

Positions:
   0 Co    10.664462   -0.085217   11.001676    ( 0.0000,  0.0000,  2.1000)
   1 Ni    10.641609    2.093635    1.879380    ( 0.0000,  0.0000,  1.5000)
   2 Al     1.519450    0.015819    2.100039    ( 0.0000,  0.0000,  0.0000)
   3 Cr     1.897612    1.610914   10.764333    ( 0.0000,  0.0000,  0.0000)
   4 Cr     3.555438   -0.107701   10.673438    ( 0.0000,  0.0000,  0.0000)
   5 Fe     3.481162    1.664977    1.815678    ( 0.0000,  0.0000,  2.0000)
   6 Fe     5.540691    0.018591    1.899000    ( 0.0000,  0.0000,  2.0000)
   7 Fe     5.394900    1.546154   -0.033084    ( 0.0000,  0.0000,  2.0000)
   8 Cr     7.200395    0.014709    0.278536    ( 0.0000,  0.0000,  0.0000)
   9 Fe     7.121833    1.756348    1.920164    ( 0.0000,  0.0000,  2.0000)
  10 Fe     8.930592    0.109409    1.932450    ( 0.0000,  0.0000,  2.0000)
  11 Al     8.778330    1.705808   -0.092337    ( 0.0000,  0.0000,  0.0000)
  12 Co    10.606895    3.449820   10.588909    ( 0.0000,  0.0000,  2.1000)
  13 Fe    10.709407    5.409197    1.864603    ( 0.0000,  0.0000,  2.0000)
  14 Al     1.863916    3.553695    1.792914    ( 0.0000,  0.0000,  0.0000)
  15 Al     1.621147    5.346799   10.581827    ( 0.0000,  0.0000,  0.0000)
  16 Cr     3.412004    3.463882   10.719412    ( 0.0000,  0.0000,  0.0000)
  17 Cr     3.761120    5.767954    1.686739    ( 0.0000,  0.0000,  0.0000)
  18 Al     5.165429    3.597369    1.665487    ( 0.0000,  0.0000,  0.0000)
  19 Co     5.514754    5.411899   10.607486    ( 0.0000,  0.0000,  2.1000)
  20 Co     6.984039    3.423006    0.119940    ( 0.0000,  0.0000,  2.1000)
  21 Cr     7.198122    5.521310    1.615488    ( 0.0000,  0.0000,  0.0000)
  22 Cr     9.007155    3.718897    1.783257    ( 0.0000,  0.0000,  0.0000)
  23 Cr     9.178535    5.454242    0.199721    ( 0.0000,  0.0000,  0.0000)
  24 Fe    10.721478    7.119919   10.661422    ( 0.0000,  0.0000,  2.0000)
  25 Al    10.677995    8.836062    2.097101    ( 0.0000,  0.0000,  0.0000)
  26 Ni     1.881514    7.112884    1.842076    ( 0.0000,  0.0000,  1.5000)
  27 Cr     1.817875    8.849702   10.557025    ( 0.0000,  0.0000,  0.0000)
  28 Fe     3.513013    7.230181   10.681387    ( 0.0000,  0.0000,  2.0000)
  29 Ni     3.576168    8.939719    1.799055    ( 0.0000,  0.0000,  1.5000)
  30 Co     5.412659    7.143144    1.634403    ( 0.0000,  0.0000,  2.1000)
  31 Fe     5.395715    8.997356   10.652619    ( 0.0000,  0.0000,  2.0000)
  32 Fe     7.205117    7.292456   10.683390    ( 0.0000,  0.0000,  2.0000)
  33 Cr     7.082427    8.971699    1.834863    ( 0.0000,  0.0000,  0.0000)
  34 Fe     9.039261    7.131797    1.803751    ( 0.0000,  0.0000,  2.0000)
  35 Cr     8.962652    8.949060    0.140107    ( 0.0000,  0.0000,  0.0000)
  36 Ni    10.641766   -0.272694    3.714637    ( 0.0000,  0.0000,  1.5000)
  37 Ni     0.153488    1.739780    5.330974    ( 0.0000,  0.0000,  1.5000)
  38 Co     1.935385    0.002437    5.206460    ( 0.0000,  0.0000,  2.1000)
  39 Ni     1.537493    1.903935    3.517432    ( 0.0000,  0.0000,  1.5000)
  40 Co     3.616082   -0.048551    3.472716    ( 0.0000,  0.0000,  2.1000)
  41 Ni     3.743615    1.939991    5.244781    ( 0.0000,  0.0000,  1.5000)
  42 Co     5.414201   -0.029489    5.023083    ( 0.0000,  0.0000,  2.1000)
  43 Ni     5.179357    1.939775    3.396255    ( 0.0000,  0.0000,  1.5000)
  44 Cr     7.201866    0.049915    3.593603    ( 0.0000,  0.0000,  0.0000)
  45 Co     7.034408    1.880237    5.366135    ( 0.0000,  0.0000,  2.1000)
  46 Al     8.813331   10.758266    5.265080    ( 0.0000,  0.0000,  0.0000)
  47 Ni     8.839712    1.847639    3.611288    ( 0.0000,  0.0000,  1.5000)
  48 Cr    10.689286    3.822573    3.775900    ( 0.0000,  0.0000,  0.0000)
  49 Fe    -0.134334    5.475034    5.200525    ( 0.0000,  0.0000,  2.0000)
  50 Fe     1.774253    3.657756    5.320067    ( 0.0000,  0.0000,  2.0000)
  51 Ni     1.985329    5.566719    3.678731    ( 0.0000,  0.0000,  1.5000)
  52 Ni     3.713656    3.765762    3.585028    ( 0.0000,  0.0000,  1.5000)
  53 Ni     3.377452    5.482419    5.390623    ( 0.0000,  0.0000,  1.5000)
  54 Co     5.264477    3.748652    5.345087    ( 0.0000,  0.0000,  2.1000)
  55 Cr     5.438647    5.540867    3.429742    ( 0.0000,  0.0000,  0.0000)
  56 Cr     6.835551    3.672191    3.496837    ( 0.0000,  0.0000,  0.0000)
  57 Co     7.273359    5.372350    5.361794    ( 0.0000,  0.0000,  2.1000)
  58 Cr     8.961988    3.512265    5.260557    ( 0.0000,  0.0000,  0.0000)
  59 Fe     8.803718    5.301018    3.652222    ( 0.0000,  0.0000,  2.0000)
[...]
  93 Ni     7.251168    5.628093    8.981187    ( 0.0000,  0.0000,  1.5000)
  94 Cr     8.665706    3.477397    8.960300    ( 0.0000,  0.0000,  0.0000)
  95 Cr     9.020110    5.148495    7.407916    ( 0.0000,  0.0000,  0.0000)
  96 Co    10.639490    6.885054    6.973791    ( 0.0000,  0.0000,  2.1000)
  97 Ni    10.636236    8.868808    8.770590    ( 0.0000,  0.0000,  1.5000)
  98 Ni     1.857578    7.257638    8.883164    ( 0.0000,  0.0000,  1.5000)
  99 Co     1.758643    8.869466    7.032032    ( 0.0000,  0.0000,  2.1000)
 100 Co     3.655587    7.089487    7.144184    ( 0.0000,  0.0000,  2.1000)
 101 Ni     3.388772    8.797153    8.717267    ( 0.0000,  0.0000,  1.5000)
 102 Fe     5.555639    7.083524    9.002380    ( 0.0000,  0.0000,  2.0000)
 103 Co     5.315523    9.061600    7.097227    ( 0.0000,  0.0000,  2.1000)
 104 Co     7.051088    7.218198    7.027616    ( 0.0000,  0.0000,  2.1000)
 105 Ni     7.153995    8.831603    8.603814    ( 0.0000,  0.0000,  1.5000)
 106 Fe     8.997336    7.151037    8.790992    ( 0.0000,  0.0000,  2.0000)
 107 Fe     8.954148    8.950966    6.871568    ( 0.0000,  0.0000,  2.0000)

Unit cell:
           periodic     x           y           z      points  spacing
  1. axis:    yes   10.722400    0.000000    0.000000    48     0.2234
  2. axis:    yes    0.000000   10.722400    0.000000    48     0.2234
  3. axis:    yes    0.000000    0.000000   10.722400    48     0.2234

  Lengths:  10.722400  10.722400  10.722400
  Angles:   90.000000  90.000000  90.000000

Effective grid spacing dv^(1/3) = 0.2234

     iter     time        total  log10-change:  magmom
                         energy  eigst   dens
iter:   1 20:34:58 -1017.468112                  +136.6834
iter:   2 20:37:32  -900.131664  -0.22  -1.18    +74.4391
iter:   3 20:40:07  -893.957085  -0.81  -1.20    +62.2908
iter:   4 20:42:41  -870.456715  -1.20  -1.27    +58.2919
iter:   5 20:45:15  -856.304278  -1.62  -1.28    +54.9091
iter:   6 20:47:49  -860.794185  -1.23  -1.36    +55.0659
iter:   7 20:50:24  -847.243165  -1.26  -1.42    +53.3977
iter:   8 20:52:58  -839.649849  -1.63  -1.57    +52.4454
iter:   9 20:55:33  -839.775642  -2.02  -1.73    +52.8528
iter:  10 20:58:07  -837.919155  -2.25  -1.74    +53.6546
iter:  11 21:00:41  -838.374396  -2.49  -1.83    +54.3192
iter:  12 21:03:15  -838.299582  -2.44  -1.83    +55.7743
iter:  13 21:05:49  -839.877030  -2.38  -1.89    +56.4227
iter:  14 21:08:23  -838.706442  -2.38  -1.89    +56.5396
iter:  15 21:10:57  -839.488635  -2.52  -2.00    +57.5082
iter:  16 21:13:32  -838.737527  -2.57  -1.99    +57.6145
iter:  17 21:16:07  -838.375221  -2.83  -2.05    +58.1627
iter:  18 21:18:41  -838.731135  -2.73  -2.13    +58.2893
iter:  19 21:21:15  -838.437427  -2.89  -2.12    +58.8733
iter:  20 21:23:49  -838.233647  -3.01  -2.17    +59.3202
iter:  21 21:26:24  -838.419019  -3.03  -2.25    +59.3062
iter:  22 21:28:56  -838.369968  -2.97  -2.26    +59.8092
iter:  23 21:31:27  -838.189522  -3.08  -2.29    +59.9038
iter:  24 21:34:01  -838.124438  -3.24  -2.33    +60.2130
iter:  25 21:36:35  -838.228473  -3.23  -2.41    +60.2074
iter:  26 21:39:09  -838.033349  -3.45  -2.39    +60.4317
iter:  27 21:41:43  -838.054948  -3.63  -2.49    +60.8444
iter:  28 21:44:17  -838.033449c -3.70  -2.53    +60.8181
iter:  29 21:46:51  -838.102028c -3.59  -2.59    +60.9928
iter:  30 21:49:25  -838.018759c -3.87  -2.54    +61.0355
iter:  31 21:51:59  -838.101278c -3.79  -2.66    +61.2168
iter:  32 21:54:33  -838.071157c -3.87  -2.60    +61.1337
iter:  33 21:57:07  -838.076044c -3.94  -2.67    +61.0408
iter:  34 21:59:41  -838.054697c -4.13  -2.68    +61.1769
iter:  35 22:02:16  -838.093240c -3.98  -2.75    +61.1474
iter:  36 22:04:49  -838.069317c -4.30  -2.71    +61.1531
iter:  37 22:07:24  -838.069753c -4.28  -2.77    +61.0728
iter:  38 22:09:58  -838.076047c -4.44  -2.79    +61.1294
iter:  39 22:12:32  -838.086755c -4.37  -2.81    +61.1544
iter:  40 22:15:06  -838.086987c -4.55  -2.83    +61.0973
iter:  41 22:17:40  -838.111471c -4.35  -2.85    +61.1106
iter:  42 22:20:14  -838.096938c -4.37  -2.83    +61.0886
iter:  43 22:22:48  -838.116689c -4.39  -2.86    +61.1072
iter:  44 22:25:23  -838.118652c -4.48  -2.85    +61.0471
iter:  45 22:27:58  -838.117807c -4.41  -2.89    +60.9952
iter:  46 22:30:31  -838.111543c -4.57  -2.90    +61.0471
iter:  47 22:33:03  -838.119487c -4.75  -2.94    +60.9911
iter:  48 22:35:34  -838.127533c -4.58  -2.97    +60.9706
iter:  49 22:38:09  -838.129576c -4.59  -2.94    +60.9117
iter:  50 22:40:43  -838.135107c -4.61  -2.96    +60.8935
iter:  51 22:43:17  -838.143102c -4.46  -2.98    +60.8472
iter:  52 22:45:52  -838.146221c -4.40  -2.99    +60.7745
iter:  53 22:48:26  -838.140049c -4.69  -2.98    +60.7821
iter:  54 22:50:59  -838.142451c -4.49  -3.08    +60.7610
iter:  55 22:53:34  -838.142233c -4.74  -3.03    +60.7844
iter:  56 22:56:08  -838.140806c -4.93  -3.09    +60.7437
iter:  57 22:58:43  -838.140207c -5.00  -3.17    +60.7353
iter:  58 23:01:17  -838.142656c -4.91  -3.19    +60.7610
iter:  59 23:03:52  -838.141247c -5.33  -3.18    +60.7302
iter:  60 23:06:26  -838.150713c -4.91  -3.27    +60.7169
iter:  61 23:09:01  -838.149890c -4.95  -3.17    +60.6864
iter:  62 23:11:35  -838.148715c -5.02  -3.21    +60.6691
iter:  63 23:14:09  -838.149657c -5.07  -3.27    +60.6445
iter:  64 23:16:44  -838.153355c -5.00  -3.30    +60.6078
iter:  65 23:19:19  -838.149141c -5.38  -3.27    +60.6144
iter:  66 23:21:54  -838.149719c -5.50  -3.39    +60.5960
iter:  67 23:24:28  -838.150163c -5.99  -3.40    +60.6022
iter:  68 23:27:02  -838.152550c -5.70  -3.44    +60.5788
iter:  69 23:29:37  -838.153559c -5.64  -3.44    +60.5898
iter:  70 23:32:11  -838.157478c -5.23  -3.42    +60.5962
iter:  71 23:34:46  -838.158102c -5.08  -3.43    +60.5689
iter:  72 23:37:19  -838.160313c -5.16  -3.41    +60.5664
iter:  73 23:39:51  -838.159655c -5.21  -3.44    +60.5615
iter:  74 23:42:25  -838.157329c -5.50  -3.50    +60.5644
iter:  75 23:45:00  -838.157820c -5.72  -3.64    +60.5671
iter:  76 23:47:35  -838.158454c -6.24  -3.75    +60.5624
iter:  77 23:50:11  -838.160086c -5.68  -3.84    +60.5669
iter:  78 23:52:45  -838.159439c -6.26  -3.73    +60.5582
iter:  79 23:55:20  -838.160860c -6.03  -4.04c   +60.5577
iter:  80 23:57:55  -838.161041c -6.24  -3.96    +60.5465
iter:  81 00:00:29  -838.161148c -6.30  -4.02c   +60.5400
iter:  82 00:03:04  -838.161982c -6.17  -4.24c   +60.5331
iter:  83 00:05:38  -838.163001c -6.01  -4.15c   +60.5193
iter:  84 00:08:13  -838.163945c -5.98  -4.05c   +60.5146
iter:  85 00:10:47  -838.165627c -5.70  -3.98    +60.5214
iter:  86 00:13:21  -838.165841c -6.43  -3.92    +60.5152
iter:  87 00:15:55  -838.166650c -6.11  -3.92    +60.5153
iter:  88 00:18:30  -838.168044c -5.89  -3.89    +60.5222
iter:  89 00:21:04  -838.168452c -6.01  -3.70    +60.5204
iter:  90 00:23:38  -838.168063c -5.72  -3.67    +60.5258
iter:  91 00:26:12  -838.168498c -6.05  -3.67    +60.5425
iter:  92 00:28:47  -838.168339c -5.80  -3.76    +60.5414
iter:  93 00:31:21  -838.168907c -5.64  -3.73    +60.5207
iter:  94 00:33:56  -838.167778c -5.94  -3.70    +60.5172
iter:  95 00:36:30  -838.168350c -6.28  -3.88    +60.5120
iter:  96 00:39:05  -838.167923c -6.53  -3.90    +60.5113
iter:  97 00:41:39  -838.168062c -6.50  -3.95    +60.5186
iter:  98 00:44:06  -838.168257c -6.99  -3.95    +60.5153
iter:  99 00:46:32  -838.168286c -6.61  -3.98    +60.5057
iter: 100 00:48:54  -838.168681c -6.37  -3.99    +60.5088
iter: 101 00:51:16  -838.168402c -6.42  -3.93    +60.5098
iter: 102 00:53:38  -838.168908c -6.47  -3.98    +60.5037
iter: 103 00:55:58  -838.169468c -6.14  -4.01c   +60.4997
iter: 104 00:58:19  -838.168689c -6.36  -3.91    +60.5047
iter: 105 01:00:39  -838.168926c -6.64  -4.03c   +60.5180
iter: 106 01:03:00  -838.168917c -6.98  -4.13c   +60.5115
iter: 107 01:05:21  -838.169046c -7.12  -4.17c   +60.5085
iter: 108 01:07:42  -838.169069c -7.25  -4.19c   +60.5081
iter: 109 01:10:03  -838.169355c -6.57  -4.19c   +60.5084
iter: 110 01:12:24  -838.169293c -7.53c -4.15c   +60.5125

Converged after 110 iterations.

Dipole moment: (26.279830, 19.250451, -0.998677) |e|*Ang

Total magnetic moment: (0.000000, 0.000000, 60.512543)
Local magnetic moments:
   0 Co ( 0.000000,  0.000000,  0.997134)
   1 Ni ( 0.000000,  0.000000,  0.088305)
   2 Al ( 0.000000,  0.000000, -0.012949)
   3 Cr ( 0.000000,  0.000000, -0.697750)
   4 Cr ( 0.000000,  0.000000, -0.477792)
   5 Fe ( 0.000000,  0.000000,  1.937971)
   6 Fe ( 0.000000,  0.000000,  1.094917)
   7 Fe ( 0.000000,  0.000000,  1.627118)
   8 Cr ( 0.000000,  0.000000, -0.388243)
   9 Fe ( 0.000000,  0.000000,  1.330908)
  10 Fe ( 0.000000,  0.000000,  1.877182)
  11 Al ( 0.000000,  0.000000, -0.017910)
  12 Co ( 0.000000,  0.000000,  0.582708)
  13 Fe ( 0.000000,  0.000000,  1.606306)
  14 Al ( 0.000000,  0.000000, -0.010660)
  15 Al ( 0.000000,  0.000000, -0.034873)
  16 Cr ( 0.000000,  0.000000,  1.295614)
  17 Cr ( 0.000000,  0.000000, -0.876258)
  18 Al ( 0.000000,  0.000000, -0.014450)
  19 Co ( 0.000000,  0.000000,  1.002821)
  20 Co ( 0.000000,  0.000000,  0.884331)
  21 Cr ( 0.000000,  0.000000, -0.702229)
  22 Cr ( 0.000000,  0.000000,  0.561220)
  23 Cr ( 0.000000,  0.000000, -0.873985)
  24 Fe ( 0.000000,  0.000000,  1.775610)
  25 Al ( 0.000000,  0.000000, -0.013246)
  26 Ni ( 0.000000,  0.000000,  0.189345)
  27 Cr ( 0.000000,  0.000000, -1.635282)
  28 Fe ( 0.000000,  0.000000,  1.774411)
  29 Ni ( 0.000000,  0.000000,  0.190838)
  30 Co ( 0.000000,  0.000000,  0.491080)
  31 Fe ( 0.000000,  0.000000,  2.152341)
  32 Fe ( 0.000000,  0.000000,  1.412933)
  33 Cr ( 0.000000,  0.000000, -0.312944)
  34 Fe ( 0.000000,  0.000000,  1.161808)
  35 Cr ( 0.000000,  0.000000, -1.353769)
  36 Ni ( 0.000000,  0.000000,  0.221230)
  37 Ni ( 0.000000,  0.000000,  0.247096)
  38 Co ( 0.000000,  0.000000,  1.617907)
  39 Ni ( 0.000000,  0.000000,  0.215874)
  40 Co ( 0.000000,  0.000000,  1.375971)
  41 Ni ( 0.000000,  0.000000,  0.501377)
  42 Co ( 0.000000,  0.000000,  1.050031)
  43 Ni ( 0.000000,  0.000000,  0.234168)
  44 Cr ( 0.000000,  0.000000, -0.806243)
  45 Co ( 0.000000,  0.000000,  0.992565)
  46 Al ( 0.000000,  0.000000, -0.008407)
  47 Ni ( 0.000000,  0.000000,  0.074341)
  48 Cr ( 0.000000,  0.000000, -1.120773)
  49 Fe ( 0.000000,  0.000000,  1.679447)
  50 Fe ( 0.000000,  0.000000,  2.422801)
  51 Ni ( 0.000000,  0.000000,  0.277142)
  52 Ni ( 0.000000,  0.000000,  0.286303)
  53 Ni ( 0.000000,  0.000000,  0.263932)
  54 Co ( 0.000000,  0.000000,  1.357891)
  55 Cr ( 0.000000,  0.000000,  0.527080)
  56 Cr ( 0.000000,  0.000000, -1.244529)
  57 Co ( 0.000000,  0.000000,  0.725175)
  58 Cr ( 0.000000,  0.000000,  1.139701)
  59 Fe ( 0.000000,  0.000000, -1.256426)
[...]
  93 Ni ( 0.000000,  0.000000,  0.396029)
  94 Cr ( 0.000000,  0.000000,  1.246434)
  95 Cr ( 0.000000,  0.000000, -1.341422)
  96 Co ( 0.000000,  0.000000,  0.964213)
  97 Ni ( 0.000000,  0.000000,  0.205656)
  98 Ni ( 0.000000,  0.000000,  0.352858)
  99 Co ( 0.000000,  0.000000,  1.485626)
 100 Co ( 0.000000,  0.000000,  1.438791)
 101 Ni ( 0.000000,  0.000000,  0.468478)
 102 Fe ( 0.000000,  0.000000,  2.270507)
 103 Co ( 0.000000,  0.000000,  1.370040)
 104 Co ( 0.000000,  0.000000,  1.204942)
 105 Ni ( 0.000000,  0.000000,  0.433121)
 106 Fe ( 0.000000,  0.000000,  2.199262)
 107 Fe ( 0.000000,  0.000000,  1.588715)

Energy contributions relative to reference atoms: (reference = -3548577.034362)

Kinetic:       +354.353804
Potential:     -352.128644
External:        +0.000000
XC:            -873.785642
Entropy (-ST):   -4.430968
Local:          +35.606674
Free energy:   -840.384777
Extrapolated:  -838.169293

Spin contamination: 22.879339 electrons
Showing only first 2 kpts
                      Up                     Down
 Kpt  Band  Eigenvalues  Occupancy  Eigenvalues  Occupancy
  0   488      9.51400    0.99388     10.37871    0.02773
  0   489      9.52374    0.99326     10.38349    0.02647
  0   490      9.53199    0.99268     10.40415    0.02164
  0   491      9.55436    0.99086     10.40835    0.02077

  1   488      9.49812    0.99477     10.37069    0.02998
  1   489      9.51112    0.99405     10.38017    0.02734
  1   490      9.53413    0.99253     10.39265    0.02421
  1   491      9.54616    0.99158     10.41370    0.01971

Fermi level: 10.02300

No gap

Forces in eV/Ang:
  0 Co    0.23586   -0.22633   -1.11744
  1 Ni   -0.36538   -1.50400   -0.72889
  2 Al    1.76722    0.14371   -0.89062
  3 Cr   -0.56026    0.44841   -0.74763
  4 Cr    0.18544    0.18805    0.31978
  5 Fe    0.12907   -0.42040   -0.22656
  6 Fe   -1.45246   -0.24715   -0.08562
  7 Fe   -0.76654    0.70081    0.55607
  8 Cr   -1.04425   -1.59934   -1.33935
  9 Fe    0.28525    0.63428   -0.37890
 10 Fe    0.28377   -0.43543   -0.18436
 11 Al    1.73828    0.55762    0.93186
 12 Co    0.30124    0.37248    0.03437
 13 Fe    0.86258    0.27605    0.72072
 14 Al   -0.78756    1.02044    1.21725
 15 Al    0.74195   -0.18412    0.73144
 16 Cr   -0.46429   -0.05119    0.11109
 17 Cr   -1.45388   -1.98537    0.17530
 18 Al    0.34596   -0.15813   -0.32801
 19 Co   -0.72453    0.17300    1.27059
 20 Co    0.70985    0.96587   -0.28114
 21 Cr   -0.34395   -0.57684    0.05536
 22 Cr   -1.27186   -0.25113    0.07752
 23 Cr   -1.10907   -0.56717   -1.44746
 24 Fe   -0.10153    1.80587    0.37956
 25 Al    0.39288   -0.83150   -1.07103
 26 Ni   -1.39995    0.67552   -0.55343
 27 Cr   -0.75969    1.14646    1.06262
 28 Fe    0.63875    0.95882    0.03678
 29 Ni   -0.07573    0.04324   -0.32177
 30 Co    0.57749    1.23841   -0.61724
 31 Fe   -0.27554    0.16520    0.06111
 32 Fe    0.62858    0.31697    0.57088
 33 Cr    0.87803   -0.61365    0.43643
 34 Fe   -1.26338   -0.06062   -0.40666
 35 Cr   -0.04344   -0.53281   -0.78925
 36 Ni    0.44883    2.12113    0.44265
 37 Ni   -0.89014   -0.01333    0.41180
 38 Co   -0.09198    0.89161    1.09561
 39 Ni    2.00554   -0.18121    0.73422
 40 Co    0.15022    0.54665    0.88306
 41 Ni   -1.22875   -0.64289    0.59133
 42 Co   -0.75384    0.28898    0.83466
 43 Ni    1.31940   -1.15051    0.94031
 44 Cr   -1.73587    0.04778   -1.33639
 45 Co   -0.60704    0.62909   -0.42421
 46 Al    1.98388    0.43691    0.15813
 47 Ni    0.85247    0.45998   -0.02267
 48 Cr    0.25230   -1.64893   -0.69336
 49 Fe    0.70913   -1.02672    1.64973
 50 Fe    0.39369   -0.14808    0.11796
 51 Ni   -2.58727   -2.29800   -2.39808
 52 Ni   -1.36927    0.04307   -0.44444
 53 Ni    2.81330   -1.79399    1.07666
 54 Co    0.99218    0.02640    0.72267
 55 Cr   -0.33288   -0.07732    1.39666
 56 Cr    1.72642    0.03130    0.74061
 57 Co   -1.15037   -0.02806    0.54474
 58 Cr   -0.55399    0.36171    0.84658
 59 Fe   -0.07487    0.38769   -1.32933
[...]
 93 Ni    0.42893   -2.26074   -0.30050
 94 Cr    1.61224    0.84903   -0.31965
 95 Cr   -0.74611    0.36016   -1.44795
 96 Co    0.31269    2.16787    1.29845
 97 Ni    0.41886    0.24014    1.06791
 98 Ni   -2.29371   -1.76422   -0.43732
 99 Co    0.56899   -0.08652   -0.48609
100 Co   -0.68404    0.11199    0.41552
101 Ni    2.64899    2.04236    0.81427
102 Fe   -1.92734    1.55167   -0.69177
103 Co   -0.02350   -1.16114    0.27478
104 Co    0.08811   -1.65341    0.24257
105 Ni   -0.19486    0.54271    2.16874
106 Fe   -0.40505    0.72219    0.24280
107 Fe   -0.06430   -0.64669    1.17111

Date: Fri Apr 14 01:12:48 2023