User:   c.zeng@d0109
Date:   Sat Apr 15 01:20:29 2023
Arch:   x86_64
Pid:    245119
CWD:    /home/c.zeng/projects/hea-corrosion/hea-mlp/data-curation/bulk-mcmc/dft-jobs/199
Python: 3.8.1
gpaw:   /home/c.zeng/usr/installs/gpaw/source/gpaw-22.8.0/gpaw
_gpaw:  /home/c.zeng/usr/installs/gpaw/source/gpaw-22.8.0/
        _gpaw.cpython-38-x86_64-linux-gnu.so
ase:    /home/c.zeng/.local/lib/python3.8/site-packages/ase-3.22.1-py3.8.egg/ase (version 3.22.1)
numpy:  /shared/centos7/python/3.8.1/lib/python3.8/site-packages/numpy (version 1.17.4)
scipy:  /shared/centos7/python/3.8.1/lib/python3.8/site-packages/scipy (version 1.4.1)
units:  Angstrom and eV
cores: 30
OpenMP: False
OMP_NUM_THREADS: 1

Input parameters:
  convergence: {energy: 0.0001}
  kpts: [2 2 2]
  maxiter: 666
  mode: {ecut: 350.0,
         name: pw}
  occupations: {fixmagmom: False,
                name: fermi-dirac,
                width: 0.1}
  spinpol: True
  xc: PBE

System changes: positions, numbers, cell, pbc, initial_charges, initial_magmoms

Initialize ...

species:
  Co:
    name: Cobalt
    id: 339d20d5b0b93d2de9531a1bee871d91
    Z: 27.0
    valence: 9
    core: 18
    charge: 0.0
    file: /home/c.zeng/usr/data/gpaw-setups-0.9.20000/Co.PBE.gz
    compensation charges: {type: gauss,
                           rc: 0.32,
                           lmax: 2}
    cutoffs: {filter: 1.87,
              core: 2.55}
    valence states:
      #              energy  rcut
      - 4s(2.00)    -5.469   1.005
      - 4p(0.00)    -1.277   1.058
      - 3d(7.00)    -8.205   1.005
      -  s          21.742   1.005
      -  p          25.934   1.058
      -  d          19.007   1.005

    # Using partial waves for Co as LCAO basis

  Fe:
    name: Iron
    id: 37abbd8d6c3c35915a9b583b742da910
    Z: 26.0
    valence: 8
    core: 18
    charge: 0.0
    file: /home/c.zeng/usr/data/gpaw-setups-0.9.20000/Fe.PBE.gz
    compensation charges: {type: gauss,
                           rc: 0.33,
                           lmax: 2}
    cutoffs: {filter: 2.06,
              core: 2.67}
    valence states:
      #              energy  rcut
      - 4s(2.00)    -5.291   1.164
      - 4p(0.00)    -1.326   1.058
      - 3d(6.00)    -7.505   1.058
      -  s          21.920   1.164
      -  p          25.885   1.058
      -  d          19.706   1.058

[...]

  Al:
    name: Aluminium
    id: 0292cae29f5d6237e50f6abdd43a7bdd
    Z: 13.0
    valence: 3
    core: 10
    charge: 0.0
    file: /home/c.zeng/usr/data/gpaw-setups-0.9.20000/Al.PBE.gz
    compensation charges: {type: gauss,
                           rc: 0.34,
                           lmax: 2}
    cutoffs: {filter: 1.91,
              core: 2.36}
    valence states:
      #              energy  rcut
      - 3s(2.00)    -7.753   1.085
      - 3p(1.00)    -2.712   1.085
      -  s          19.459   1.085
      -  p          24.499   1.085
      -  d           0.000   1.085

[...]

  Cr:
    name: Chromium
    id: 33f258bda2ca9f93018e70263a35547b
    Z: 24.0
    valence: 6
    core: 18
    charge: 0.0
    file: /home/c.zeng/usr/data/gpaw-setups-0.9.20000/Cr.PBE.gz
    compensation charges: {type: gauss,
                           rc: 0.35,
                           lmax: 2}
    cutoffs: {filter: 2.14,
              core: 3.04}
    valence states:
      #              energy  rcut
      - 4s(1.00)    -4.007   1.164
      - 4p(0.00)    -0.989   1.217
      - 3d(5.00)    -2.913   1.111
      -  s          23.205   1.164
      -  p          26.223   1.217
      -  d          24.299   1.111

[...]

  Ni:
    name: Nickel
    id: 0d9f38a9d6e76a2886f07bb4381f212b
    Z: 28.0
    valence: 16
    core: 12
    charge: 0.0
    file: /home/c.zeng/usr/data/gpaw-setups-0.9.20000/Ni.PBE.gz
    compensation charges: {type: gauss,
                           rc: 0.36,
                           lmax: 2}
    cutoffs: {filter: 2.14,
              core: 1.98}
    valence states:
      #              energy  rcut
      - 4s(2.00)    -5.642   1.164
      - 3p(6.00)   -71.394   1.207
      - 4p(0.00)    -1.226   1.207
      - 3d(8.00)    -8.875   1.138
      -  s          21.570   1.164
      -  d          18.337   1.138

    # Using partial waves for Ni as LCAO basis

Reference energy: -3382523.201499  # eV

Spin-polarized calculation.
Magnetic moment: 128.800000

Convergence criteria:
 Maximum [total energy] change in last 3 cyles: 0.0001 eV / electron
 Maximum integral of absolute [dens]ity change: 0.0001 electrons / valence electron
 Maximum integral of absolute [eigenst]ate change: 4e-08 eV^2 / valence electron
 Maximum number of scf [iter]ations: 666
 (Square brackets indicate name in SCF output, whereas a 'c' in
 the SCF output indicates the quantity has converged.)

Symmetries present (total): 1

  ( 1  0  0)
  ( 0  1  0)
  ( 0  0  1)

8 k-points: 2 x 2 x 2 Monkhorst-Pack grid
4 k-points in the irreducible part of the Brillouin zone
       k-points in crystal coordinates                weights
   0:     0.25000000   -0.25000000   -0.25000000          2/8
   1:     0.25000000   -0.25000000    0.25000000          2/8
   2:     0.25000000    0.25000000   -0.25000000          2/8
   3:     0.25000000    0.25000000    0.25000000          2/8

Wave functions: Plane wave expansion
  Cutoff energy: 350.000 eV
  Number of coefficients (min, max): 18865, 18865
  Pulay-stress correction: 0.000000 eV/Ang^3 (de/decut=0.000000)
  Using FFTW library
  ScaLapack parameters: grid=1x1, blocksize=None
  Wavefunction extrapolation:
    Improved wavefunction reuse through dual PAW basis

Occupation numbers: Fermi-Dirac:
  width: 0.1000  # eV

Eigensolver
   Davidson(niter=2)

Densities:
  Coarse grid: 48*48*48 grid
  Fine grid: 96*96*96 grid
  Total Charge: 0.000000

Density mixing:
  Method: difference
  Backend: pulay
  Linear mixing parameter: 0.05
  old densities: 5
  Damping of long wavelength oscillations: 50

Hamiltonian:
  XC and Coulomb potentials evaluated on a 96*96*96 grid
  Using the PBE Exchange-Correlation functional
  External potential:
    NoExternalPotential

XC parameters: PBE with 2 nearest neighbor stencil

Total number of cores used: 30
Parallelization over k-points: 2
Domain decomposition: 5 x 3 x 1

Number of atoms: 108
Number of atomic orbitals: 961
Number of bands in calculation: 649
Number of valence electrons: 945
Bands to converge: occupied

... initialized

Initializing position-dependent things.

Density initialized from atomic densities
Creating initial wave functions:
  649 bands from LCAO basis set

       /|                     Fe   |
      / |            Fe Fe     CrCo|
     /  |       Cr       Ni       Cr
    /   |Fe       Fel     CCor     |
   /i   | Feo        Co      Co    |
  /  CrAl   NCr       Ni           |
 *      Ni     FeFe   AlFeCrCo   Cr|
 |      |CoNi   CrNiAl   NiAlNi   Co
 | CrFe | AlNi   AlAlCo     Ni     |
 |     Fe  FeCr Cr  Fe FeNi  CrNi  |
 |      CoNi   AlCr   FeCoFeNi  Fe |
 |Al    |CoCr   AlCrCo   CrCo     Co
 |      .-CrCo-----NiCr-CoFeCrNi---.
 |     /   Ni Fe    Cr FeNi    Al /
 |    Fe       AFei       Al     /
 |   /  Co         Al       Cr  /
 |  /      Co       Al       Co/
 | / Fe     Co       Ni Ni    /
 |/             Cr       Ni  /
 *--------Co----------------*

Positions:
   0 Co    10.764147   10.861293   10.805330    ( 0.0000,  0.0000,  2.0000)
   1 Co    10.786221    1.792513    1.813624    ( 0.0000,  0.0000,  0.0000)
   2 Fe     1.744156    0.036560    1.851269    ( 0.0000,  0.0000,  1.5000)
   3 Al     1.736571    1.831142   10.798805    ( 0.0000,  0.0000,  0.0000)
   4 Co     3.575126    0.057318    0.061759    ( 0.0000,  0.0000,  0.0000)
   5 Co     3.594289    1.817617    1.845577    ( 0.0000,  0.0000,  2.0000)
   6 Fe     5.429813   10.817005    1.865054    ( 0.0000,  0.0000,  1.5000)
   7 Cr     5.429608    1.929425    0.057134    ( 0.0000,  0.0000,  0.0000)
   8 Fe     7.316909   10.723332    0.087382    ( 0.0000,  0.0000,  0.0000)
   9 Al     7.263142    1.825786    1.869404    ( 0.0000,  0.0000,  2.1000)
  10 Ni     9.063554    0.025226    1.863474    ( 0.0000,  0.0000,  1.5000)
  11 Ni     9.049217    1.829703    0.033106    ( 0.0000,  0.0000,  2.1000)
  12 Ni     0.004792    3.558981   10.794801    ( 0.0000,  0.0000,  1.5000)
  13 Al    10.759710    5.390697    1.778165    ( 0.0000,  0.0000,  0.0000)
  14 Co     1.733585    3.561849    1.761112    ( 0.0000,  0.0000,  2.0000)
  15 Fe     1.776899    5.391834   10.795505    ( 0.0000,  0.0000,  0.0000)
  16 Co     3.565452    3.619360   10.832619    ( 0.0000,  0.0000,  2.1000)
  17 Fe     3.633221    5.394614    1.719551    ( 0.0000,  0.0000,  0.0000)
  18 Ni     5.471624    3.659114    1.836033    ( 0.0000,  0.0000,  2.1000)
  19 Fe     5.440212    5.373060   -0.002773    ( 0.0000,  0.0000,  2.0000)
  20 Ni     7.258997    3.609080    0.031294    ( 0.0000,  0.0000,  0.0000)
  21 Fe     7.268941    5.378362    1.785274    ( 0.0000,  0.0000,  2.0000)
  22 Al     9.030724    3.577636    1.833728    ( 0.0000,  0.0000,  2.1000)
  23 Co     9.040420    5.372281   10.801110    ( 0.0000,  0.0000,  0.0000)
  24 Co    10.791663    7.196206   10.792486    ( 0.0000,  0.0000,  1.5000)
  25 Co    10.758434    9.040387    1.848239    ( 0.0000,  0.0000,  0.0000)
  26 Cr     1.690487    7.202493    1.786032    ( 0.0000,  0.0000,  0.0000)
  27 Ni     1.652691    8.981047    0.027217    ( 0.0000,  0.0000,  0.0000)
  28 Al     3.631241    7.164437    0.034633    ( 0.0000,  0.0000,  0.0000)
  29 Al     3.625452    9.063759    1.801678    ( 0.0000,  0.0000,  0.0000)
  30 Ni     5.490852    7.187095    1.746342    ( 0.0000,  0.0000,  2.0000)
  31 Cr     5.426935    8.989152    0.009861    ( 0.0000,  0.0000,  2.0000)
  32 Fe     7.229122    7.237075   -0.008698    ( 0.0000,  0.0000,  1.5000)
  33 Cr     7.249194    8.995850    1.810713    ( 0.0000,  0.0000,  0.0000)
  34 Cr     9.052073    7.204300    1.764218    ( 0.0000,  0.0000,  2.1000)
  35 Fe     9.092553    8.989639   10.808760    ( 0.0000,  0.0000,  1.5000)
  36 Cr    -0.000975   10.826235    3.639789    ( 0.0000,  0.0000,  1.5000)
  37 Al    10.822772    1.771770    5.422044    ( 0.0000,  0.0000,  2.1000)
  38 Ni     1.754263   10.802084    5.428872    ( 0.0000,  0.0000,  2.1000)
  39 Fe     1.741873    1.774270    3.610801    ( 0.0000,  0.0000,  0.0000)
  40 Al     3.591183   10.794152    3.612143    ( 0.0000,  0.0000,  2.0000)
  41 Cr     3.593088    1.736744    5.455177    ( 0.0000,  0.0000,  0.0000)
  42 Al     5.437150   10.794563    5.400804    ( 0.0000,  0.0000,  2.0000)
  43 Fe     5.451931    1.783251    3.601387    ( 0.0000,  0.0000,  1.5000)
  44 Al     7.226222    0.007781    3.626209    ( 0.0000,  0.0000,  0.0000)
  45 Co     7.236069    1.766512    5.381392    ( 0.0000,  0.0000,  2.1000)
  46 Co     9.034587   10.848850    5.403844    ( 0.0000,  0.0000,  2.1000)
  47 Ni     9.031558    1.804946    3.616730    ( 0.0000,  0.0000,  1.5000)
  48 Ni    10.773885    3.543973    3.617867    ( 0.0000,  0.0000,  1.5000)
  49 Ni    10.772186    5.358409    5.454917    ( 0.0000,  0.0000,  0.0000)
  50 Co     1.757531    3.575678    5.428937    ( 0.0000,  0.0000,  2.1000)
  51 Co     1.621766    5.386986    3.572550    ( 0.0000,  0.0000,  0.0000)
[...]
  58 Fe     9.058230    3.565236    5.380082    ( 0.0000,  0.0000,  2.1000)
  59 Co     9.074071    5.365323    3.589008    ( 0.0000,  0.0000,  2.1000)
[...]
  93 Ni     7.211073    5.388295    9.040181    ( 0.0000,  0.0000,  0.0000)
  94 Cr     9.095052    3.598119    8.980636    ( 0.0000,  0.0000,  2.0000)
  95 Al     9.078205    5.402416    7.227759    ( 0.0000,  0.0000,  0.0000)
  96 Cr    10.763411    7.244682    7.260285    ( 0.0000,  0.0000,  1.5000)
  97 Cr    10.795093    9.034566    8.977574    ( 0.0000,  0.0000,  2.0000)
  98 Fe     1.740045    7.178947    8.984662    ( 0.0000,  0.0000,  2.1000)
  99 Co     1.734429    9.080207    7.236696    ( 0.0000,  0.0000,  1.5000)
 100 Fe     3.580482    7.154277    7.248285    ( 0.0000,  0.0000,  0.0000)
 101 Cr     3.612835    8.970898    8.958086    ( 0.0000,  0.0000,  0.0000)
 102 Al     5.410943    7.155878    9.067049    ( 0.0000,  0.0000,  0.0000)
 103 Co     5.466441    9.064062    7.220963    ( 0.0000,  0.0000,  2.1000)
 104 Fe     7.307203    7.271549    7.289738    ( 0.0000,  0.0000,  0.0000)
 105 Ni     7.271073    9.044683    9.027879    ( 0.0000,  0.0000,  1.5000)
 106 Cr     9.081743    7.219805    9.041166    ( 0.0000,  0.0000,  2.1000)
 107 Co     9.063684    9.083009    7.213865    ( 0.0000,  0.0000,  2.0000)

Unit cell:
           periodic     x           y           z      points  spacing
  1. axis:    yes   10.820500    0.000000    0.000000    48     0.2254
  2. axis:    yes    0.000000   10.820500    0.000000    48     0.2254
  3. axis:    yes    0.000000    0.000000   10.820500    48     0.2254

  Lengths:  10.820500  10.820500  10.820500
  Angles:   90.000000  90.000000  90.000000

Effective grid spacing dv^(1/3) = 0.2254

     iter     time        total  log10-change:  magmom
                         energy  eigst   dens
iter:   1 01:25:09  -895.259523                  +128.4417
iter:   2 01:27:15  -862.807828  -0.41  -1.31    +96.6985
iter:   3 01:29:21  -844.431360  -0.94  -1.29    +68.2305
iter:   4 01:31:26  -833.313771  -1.26  -1.37    +57.7789
iter:   5 01:33:33  -826.130288  -1.85  -1.40    +53.1435
iter:   6 01:35:39  -827.398439  -1.97  -1.47    +51.0375
iter:   7 01:37:44  -826.682705  -1.69  -1.49    +49.5876
iter:   8 01:39:50  -826.350288  -1.76  -1.54    +49.5902
iter:   9 01:41:57  -828.670527  -1.78  -1.63    +49.9607
iter:  10 01:44:03  -823.392413  -1.98  -1.66    +49.3097
iter:  11 01:46:09  -824.830804  -2.22  -1.81    +50.2280
iter:  12 01:48:14  -823.108748  -2.37  -1.80    +50.7309
iter:  13 01:50:19  -823.465694  -2.64  -1.89    +51.6573
iter:  14 01:53:24  -824.369373  -2.53  -1.93    +52.5008
iter:  15 01:55:41  -825.188234  -2.50  -1.94    +53.3789
iter:  16 01:57:47  -824.943190  -2.43  -1.94    +54.4561
iter:  17 01:59:53  -824.597404  -2.66  -1.97    +54.7116
iter:  18 02:02:00  -824.915539  -2.64  -2.08    +55.5154
iter:  19 02:04:07  -824.568299  -2.80  -2.10    +55.9633
iter:  20 02:06:13  -824.519059  -3.10  -2.15    +56.6456
iter:  21 02:08:19  -824.926969  -3.07  -2.25    +57.0015
iter:  22 02:10:25  -824.939890  -3.08  -2.23    +57.2589
iter:  23 02:12:32  -824.934594c -3.23  -2.24    +57.9280
iter:  24 02:14:39  -825.029806  -3.32  -2.31    +58.1980
iter:  25 02:16:45  -825.099822  -3.36  -2.34    +58.3812
iter:  26 02:18:51  -825.146841  -3.47  -2.37    +58.4146
iter:  27 02:20:57  -825.244171  -3.44  -2.40    +58.5903
iter:  28 02:23:03  -825.382485  -3.35  -2.40    +58.5876
iter:  29 02:25:09  -825.390311  -3.36  -2.42    +58.4387
iter:  30 02:27:15  -825.329232c -3.56  -2.42    +58.5041
iter:  31 02:29:21  -825.406236c -3.59  -2.51    +58.4940
iter:  32 02:31:27  -825.393171c -3.70  -2.53    +58.5279
iter:  33 02:33:32  -825.425615c -3.86  -2.56    +58.3543
iter:  34 02:35:38  -825.429494c -4.00  -2.60    +58.2528
iter:  35 02:38:09  -825.550372  -3.64  -2.65    +58.1669
iter:  36 02:41:01  -825.481934  -3.89  -2.56    +58.0639
iter:  37 02:43:07  -825.516401c -3.94  -2.70    +57.9023
iter:  38 02:45:14  -825.574896c -3.80  -2.74    +57.7207
iter:  39 02:47:20  -825.561719c -3.89  -2.69    +57.6800
iter:  40 02:49:26  -825.541398c -4.11  -2.73    +57.5720
iter:  41 02:51:32  -825.562620c -4.21  -2.85    +57.4691
iter:  42 02:53:38  -825.552615c -4.64  -2.82    +57.4398
iter:  43 02:55:44  -825.576851c -4.64  -2.92    +57.3455
iter:  44 02:57:51  -825.620660c -4.31  -2.92    +57.2451
iter:  45 02:59:57  -825.634033c -4.56  -2.86    +57.2542
iter:  46 03:02:03  -825.662335c -4.42  -2.90    +57.2386
iter:  47 03:04:09  -825.638644c -4.48  -2.89    +57.2542
iter:  48 03:06:15  -825.653412c -4.55  -3.15    +57.2469
iter:  49 03:08:21  -825.663860c -4.26  -3.16    +57.2744
iter:  50 03:10:27  -825.652345c -4.72  -3.07    +57.1975
iter:  51 03:12:33  -825.659467c -5.12  -3.33    +57.1719
iter:  52 03:14:39  -825.673742c -4.79  -3.34    +57.1907
iter:  53 03:16:45  -825.710179c -4.11  -3.28    +57.2939
iter:  54 03:18:51  -825.698814c -5.13  -3.13    +57.2758
iter:  55 03:20:58  -825.715074c -4.75  -3.16    +57.3362
iter:  56 03:23:03  -825.711847c -5.35  -3.12    +57.3799
iter:  57 03:25:10  -825.715709c -4.71  -3.15    +57.4479
iter:  58 03:27:16  -825.707044c -4.54  -3.10    +57.4457
iter:  59 03:29:55  -825.718477c -4.72  -3.20    +57.3696
iter:  60 03:32:38  -825.710496c -4.93  -3.12    +57.3656
iter:  61 03:34:44  -825.711963c -5.08  -3.23    +57.3326
iter:  62 03:36:51  -825.717660c -4.63  -3.29    +57.3017
iter:  63 03:38:58  -825.710723c -4.99  -3.19    +57.3068
iter:  64 03:41:05  -825.713142c -5.41  -3.43    +57.2872
iter:  65 03:43:12  -825.714089c -5.32  -3.46    +57.2684
iter:  66 03:45:19  -825.717408c -5.24  -3.44    +57.2320
iter:  67 03:47:25  -825.715132c -5.54  -3.43    +57.2063
iter:  68 03:49:32  -825.716979c -5.64  -3.55    +57.1856
iter:  69 03:51:39  -825.718502c -5.65  -3.62    +57.1683
iter:  70 03:53:46  -825.719681c -5.75  -3.62    +57.1518
iter:  71 03:55:53  -825.720706c -5.90  -3.63    +57.1377
iter:  72 03:58:00  -825.721850c -5.83  -3.68    +57.1124
iter:  73 04:00:06  -825.723908c -5.59  -3.73    +57.0820
iter:  74 04:02:13  -825.724526c -5.87  -3.78    +57.0667
iter:  75 04:04:20  -825.725470c -5.95  -3.78    +57.0448
iter:  76 04:06:27  -825.726512c -5.93  -3.85    +57.0254
iter:  77 04:08:33  -825.727768c -5.84  -3.86    +57.0047
iter:  78 04:10:40  -825.729301c -5.73  -3.89    +56.9730
iter:  79 04:12:45  -825.733439c -5.05  -3.90    +56.9077
iter:  80 04:15:51  -825.734666c -5.30  -3.70    +56.8938
iter:  81 04:18:10  -825.734749c -5.82  -3.67    +56.9049
iter:  82 04:20:16  -825.734842c -6.28  -3.73    +56.9170
iter:  83 04:22:24  -825.735145c -6.39  -3.73    +56.9361
iter:  84 04:24:22  -825.735694c -5.53  -3.73    +56.9337
iter:  85 04:26:02  -825.734799c -5.82  -3.55    +56.9465
iter:  86 04:28:22  -825.734973c -6.15  -3.75    +56.9553
iter:  87 04:30:42  -825.734639c -6.51  -3.79    +56.9602
iter:  88 04:33:02  -825.735101c -6.21  -3.86    +56.9695
iter:  89 04:35:22  -825.734784c -6.67  -3.85    +56.9733
iter:  90 04:37:41  -825.735022c -6.45  -3.90    +56.9829
iter:  91 04:40:00  -825.735083c -6.65  -3.91    +56.9861
iter:  92 04:42:20  -825.735370c -6.40  -3.93    +56.9974
iter:  93 04:44:39  -825.735233c -6.69  -3.92    +57.0018
iter:  94 04:46:58  -825.735480c -6.56  -4.02c   +57.0184
iter:  95 04:49:18  -825.735418c -6.57  -4.09c   +57.0216
iter:  96 04:51:37  -825.735720c -6.68  -4.10c   +57.0308
iter:  97 04:53:57  -825.735579c -6.77  -4.13c   +57.0401
iter:  98 04:56:16  -825.735854c -6.86  -4.23c   +57.0480
iter:  99 04:58:35  -825.735943c -6.95  -4.31c   +57.0539
iter: 100 05:00:54  -825.736009c -7.20  -4.34c   +57.0574
iter: 101 05:03:13  -825.736183c -6.99  -4.34c   +57.0642
iter: 102 05:05:32  -825.736392c -7.08  -4.41c   +57.0686
iter: 103 05:07:51  -825.736404c -7.06  -4.36c   +57.0749
iter: 104 05:10:10  -825.736571c -7.29  -4.47c   +57.0814
iter: 105 05:12:30  -825.736656c -7.23  -4.50c   +57.0839
iter: 106 05:14:49  -825.736586c -7.02  -4.50c   +57.0873
iter: 107 05:17:07  -825.736779c -7.03  -4.45c   +57.0976
iter: 108 05:19:26  -825.736665c -7.28  -4.50c   +57.0894
iter: 109 05:21:45  -825.736659c -6.80  -4.62c   +57.0852
iter: 110 05:24:05  -825.736854c -6.90  -4.53c   +57.0963
iter: 111 05:26:24  -825.736784c -6.42  -4.60c   +57.0894
iter: 112 05:28:43  -825.737065c -6.95  -4.43c   +57.1030
iter: 113 05:31:02  -825.735045c -4.98  -4.49c   +56.9913
iter: 114 05:33:21  -825.734659c -5.51  -3.92    +56.9730
iter: 115 05:35:40  -825.734763c -6.43  -3.82    +56.9912
iter: 116 05:37:59  -825.734995c -6.58  -3.82    +57.0246
iter: 117 05:40:19  -825.734979c -7.21  -3.83    +57.0149
iter: 118 05:42:38  -825.735357c -6.44  -3.84    +57.0305
iter: 119 05:44:58  -825.735038c -5.19  -3.78    +57.0215
iter: 120 05:47:17  -825.734571c -5.62  -3.78    +57.0608
iter: 121 05:49:36  -825.734218c -6.19  -3.82    +57.0520
iter: 122 05:51:54  -825.734462c -6.59  -4.15c   +57.0608
iter: 123 05:54:14  -825.735032c -6.09  -4.21c   +57.0758
iter: 124 05:56:32  -825.735731c -5.99  -4.23c   +57.0947
iter: 125 05:58:51  -825.735759c -6.43  -4.44c   +57.0994
iter: 126 06:01:10  -825.736151c -6.39  -4.57c   +57.1056
iter: 127 06:03:29  -825.736167c -7.20  -4.56c   +57.1064
iter: 128 06:05:48  -825.736482c -6.66  -4.62c   +57.1163
iter: 129 06:08:07  -825.736339c -7.23  -4.52c   +57.1117
iter: 130 06:10:26  -825.736567c -7.00  -4.50c   +57.1121
iter: 131 06:12:45  -825.736496c -7.58c -4.60c   +57.1128

Converged after 131 iterations.

Dipole moment: (29.226006, -4.066691, -10.154423) |e|*Ang

Total magnetic moment: (0.000000, 0.000000, 57.112817)
Local magnetic moments:
   0 Co ( 0.000000,  0.000000,  1.134230)
   1 Co ( 0.000000,  0.000000,  1.387976)
   2 Fe ( 0.000000,  0.000000,  2.353548)
   3 Al ( 0.000000,  0.000000, -0.038834)
   4 Co ( 0.000000,  0.000000,  1.306873)
   5 Co ( 0.000000,  0.000000,  1.447708)
   6 Fe ( 0.000000,  0.000000,  1.916358)
   7 Cr ( 0.000000,  0.000000, -2.390324)
   8 Fe ( 0.000000,  0.000000,  2.083523)
   9 Al ( 0.000000,  0.000000, -0.013571)
  10 Ni ( 0.000000,  0.000000,  0.168111)
  11 Ni ( 0.000000,  0.000000,  0.163051)
  12 Ni ( 0.000000,  0.000000,  0.168608)
  13 Al ( 0.000000,  0.000000, -0.022737)
  14 Co ( 0.000000,  0.000000,  1.338362)
  15 Fe ( 0.000000,  0.000000,  2.030095)
  16 Co ( 0.000000,  0.000000,  1.274323)
  17 Fe ( 0.000000,  0.000000,  2.249610)
  18 Ni ( 0.000000,  0.000000,  0.239803)
  19 Fe ( 0.000000,  0.000000,  2.102004)
  20 Ni ( 0.000000,  0.000000,  0.063445)
  21 Fe ( 0.000000,  0.000000,  2.204975)
  22 Al ( 0.000000,  0.000000, -0.020990)
  23 Co ( 0.000000,  0.000000,  0.821250)
  24 Co ( 0.000000,  0.000000,  0.510119)
  25 Co ( 0.000000,  0.000000,  0.916972)
  26 Cr ( 0.000000,  0.000000, -1.909994)
  27 Ni ( 0.000000,  0.000000,  0.115074)
  28 Al ( 0.000000,  0.000000, -0.019731)
  29 Al ( 0.000000,  0.000000, -0.022552)
  30 Ni ( 0.000000,  0.000000,  0.280285)
  31 Cr ( 0.000000,  0.000000,  1.472313)
  32 Fe ( 0.000000,  0.000000,  1.985369)
  33 Cr ( 0.000000,  0.000000, -1.468841)
  34 Cr ( 0.000000,  0.000000, -1.630906)
  35 Fe ( 0.000000,  0.000000,  1.816075)
  36 Cr ( 0.000000,  0.000000, -1.463463)
  37 Al ( 0.000000,  0.000000, -0.028474)
  38 Ni ( 0.000000,  0.000000,  0.124214)
  39 Fe ( 0.000000,  0.000000,  2.274550)
  40 Al ( 0.000000,  0.000000, -0.037821)
  41 Cr ( 0.000000,  0.000000, -1.994474)
  42 Al ( 0.000000,  0.000000, -0.021544)
  43 Fe ( 0.000000,  0.000000,  1.902998)
  44 Al ( 0.000000,  0.000000, -0.027669)
  45 Co ( 0.000000,  0.000000,  0.829819)
  46 Co ( 0.000000,  0.000000,  1.026672)
  47 Ni ( 0.000000,  0.000000,  0.134487)
  48 Ni ( 0.000000,  0.000000,  0.361788)
  49 Ni ( 0.000000,  0.000000,  0.282439)
  50 Co ( 0.000000,  0.000000,  1.125139)
  51 Co ( 0.000000,  0.000000,  1.186513)
  52 Co ( 0.000000,  0.000000,  1.270499)
  53 Cr ( 0.000000,  0.000000,  1.502019)
  54 Cr ( 0.000000,  0.000000, -0.035055)
  55 Cr ( 0.000000,  0.000000, -1.592597)
  56 Cr ( 0.000000,  0.000000, -1.263852)
  57 Fe ( 0.000000,  0.000000,  2.199903)
  58 Fe ( 0.000000,  0.000000,  2.236849)
  59 Co ( 0.000000,  0.000000,  0.986817)
[...]
  93 Ni ( 0.000000,  0.000000,  0.284484)
  94 Cr ( 0.000000,  0.000000,  1.597719)
  95 Al ( 0.000000,  0.000000, -0.018769)
  96 Cr ( 0.000000,  0.000000,  1.031872)
  97 Cr ( 0.000000,  0.000000, -1.087617)
  98 Fe ( 0.000000,  0.000000,  1.832096)
  99 Co ( 0.000000,  0.000000,  0.705607)
 100 Fe ( 0.000000,  0.000000, -1.695947)
 101 Cr ( 0.000000,  0.000000, -2.095070)
 102 Al ( 0.000000,  0.000000, -0.009135)
 103 Co ( 0.000000,  0.000000,  1.031189)
 104 Fe ( 0.000000,  0.000000,  2.483989)
 105 Ni ( 0.000000,  0.000000,  0.222756)
 106 Cr ( 0.000000,  0.000000, -1.369813)
 107 Co ( 0.000000,  0.000000,  0.886024)

Energy contributions relative to reference atoms: (reference = -3382523.201499)

Kinetic:       +212.607683
Potential:     -222.524323
External:        +0.000000
XC:            -846.998231
Entropy (-ST):   -4.214221
Local:          +33.285486
Free energy:   -827.843607
Extrapolated:  -825.736496

Spin contamination: 29.620607 electrons
Showing only first 2 kpts
                      Up                     Down
 Kpt  Band  Eigenvalues  Occupancy  Eigenvalues  Occupancy
  0   470      9.15888    0.99473     10.03523    0.02866
  0   471      9.17296    0.99394     10.04964    0.02491
  0   472      9.18688    0.99304     10.06315    0.02183
  0   473      9.19230    0.99265     10.07321    0.01978

  1   470      9.16053    0.99464     10.03858    0.02774
  1   471      9.17395    0.99388     10.04869    0.02514
  1   472      9.18583    0.99311     10.06680    0.02106
  1   473      9.19135    0.99272     10.07652    0.01915

Fermi level: 9.68290

No gap

Forces in eV/Ang:
  0 Co    0.02437   -0.41339    0.23001
  1 Co    0.43414   -0.26972    0.09671
  2 Fe   -0.14518   -0.11016   -0.80843
  3 Al    0.35219   -0.05272    0.01969
  4 Co    0.25448   -0.26701   -0.45630
  5 Co    0.07383    0.41634   -0.12356
  6 Fe    0.17728    0.40172   -0.94421
  7 Cr   -1.08594   -0.98001   -0.76313
  8 Fe   -0.48070    0.52557   -0.37123
  9 Al   -0.21091   -0.52708   -1.22872
 10 Ni   -0.12806   -0.20290   -0.37425
 11 Ni   -0.18268   -0.44421   -0.43237
 12 Ni   -0.29182    0.52248    0.07745
 13 Al    0.72002   -0.40313   -0.19457
 14 Co    0.59120    0.19879    0.70945
 15 Fe   -0.16845   -0.20379   -0.00582
 16 Co    0.38613    0.07951    0.39434
 17 Fe   -0.52453   -0.85859    0.99382
 18 Ni   -0.54619   -0.24061    0.04874
 19 Fe    0.18582   -0.44728    0.12347
 20 Ni   -0.06415   -0.07444   -0.36665
 21 Fe   -0.05020    0.58179    0.40968
 22 Al    0.64032   -0.03880   -0.58058
 23 Co   -0.24665    0.61443   -0.50273
 24 Co    0.26062   -0.05560   -0.06488
 25 Co    0.28231   -0.02545   -0.30847
 26 Cr   -0.68425    0.29054    0.04531
 27 Ni    0.73644    0.48324   -0.21857
 28 Al   -0.85792    0.31693    0.10639
 29 Al   -0.53218    0.40640   -1.07953
 30 Ni   -0.20340    0.13093    0.54443
 31 Cr    0.40195    1.18042   -0.41783
 32 Fe    0.72390   -0.38929    0.12532
 33 Cr   -0.03903    0.05204   -0.38550
 34 Cr   -0.41082    0.35952   -0.02311
 35 Fe    0.00581    0.11547    0.24336
 36 Cr    0.04407   -0.73595   -0.83978
 37 Al   -0.13183   -0.01145   -0.06728
 38 Ni    0.22011   -0.07844    0.13394
 39 Fe    0.40667    0.71873   -0.19576
 40 Al   -0.45676    0.84249   -0.28629
 41 Cr   -0.40380    1.55064    0.14133
 42 Al    0.40749   -0.19389    1.11683
 43 Fe   -0.61902    0.70076    0.11837
 44 Al    1.02269   -0.11860    0.18066
 45 Co    0.01351    0.53891    0.49440
 46 Co   -0.18862   -0.44048    0.14548
 47 Ni   -0.05335   -0.16828    0.02056
 48 Ni    0.62637    0.38021   -0.03914
 49 Ni    0.42379    0.20815   -0.41498
 50 Co    0.54414    0.23870   -0.33604
 51 Co    1.00249   -0.11252    0.28236
 52 Co   -0.26075   -0.00971    0.23529
 53 Cr   -0.03495   -0.89066   -0.26453
 54 Cr    0.10651    0.07992    0.28878
 55 Cr   -0.11511   -0.58560   -0.06422
 56 Cr   -0.85146    0.42879    1.26266
 57 Fe    0.07236    0.12847   -0.12867
 58 Fe   -0.76515    0.17875    0.12382
 59 Co   -0.43384    0.55912    0.47559
[...]
 93 Ni    0.38037   -0.14240   -0.21717
 94 Cr    0.16722    0.38113    0.61952
 95 Al   -1.33300   -0.07080   -0.78164
 96 Cr   -0.15522    0.40211    0.64785
 97 Cr    0.29048    0.21969    0.36724
 98 Fe    0.12934    0.30643   -0.22258
 99 Co    0.26910   -0.28232    0.27101
100 Fe   -0.46559    0.44344   -0.36059
101 Cr   -0.38765    1.04174    0.30010
102 Al    0.99939    0.23709   -1.47400
103 Co   -0.15136   -0.41876    0.31760
104 Fe   -0.05827    0.05636   -0.47154
105 Ni    0.04034    0.20712   -0.09217
106 Cr   -0.75101    0.23022    0.33291
107 Co   -0.32225   -0.10016   -0.03708

Date: Sat Apr 15 06:13:05 2023