User:   c.zeng@d0103
Date:   Sat Apr 15 07:22:11 2023
Arch:   x86_64
Pid:    138583
CWD:    /home/c.zeng/projects/hea-corrosion/hea-mlp/data-curation/bulk-mcmc/dft-jobs/223
Python: 3.8.1
gpaw:   /home/c.zeng/usr/installs/gpaw/source/gpaw-22.8.0/gpaw
_gpaw:  /home/c.zeng/usr/installs/gpaw/source/gpaw-22.8.0/
        _gpaw.cpython-38-x86_64-linux-gnu.so
ase:    /home/c.zeng/.local/lib/python3.8/site-packages/ase-3.22.1-py3.8.egg/ase (version 3.22.1)
numpy:  /shared/centos7/python/3.8.1/lib/python3.8/site-packages/numpy (version 1.17.4)
scipy:  /shared/centos7/python/3.8.1/lib/python3.8/site-packages/scipy (version 1.4.1)
units:  Angstrom and eV
cores: 30
OpenMP: False
OMP_NUM_THREADS: 1

Input parameters:
  convergence: {energy: 0.0001}
  kpts: [2 2 2]
  maxiter: 666
  mode: {ecut: 350.0,
         name: pw}
  occupations: {fixmagmom: False,
                name: fermi-dirac,
                width: 0.1}
  spinpol: True
  xc: PBE

System changes: positions, numbers, cell, pbc, initial_charges, initial_magmoms

Initialize ...

species:
  Cr:
    name: Chromium
    id: 33f258bda2ca9f93018e70263a35547b
    Z: 24.0
    valence: 6
    core: 18
    charge: 0.0
    file: /home/c.zeng/usr/data/gpaw-setups-0.9.20000/Cr.PBE.gz
    compensation charges: {type: gauss,
                           rc: 0.35,
                           lmax: 2}
    cutoffs: {filter: 2.14,
              core: 3.04}
    valence states:
      #              energy  rcut
      - 4s(1.00)    -4.007   1.164
      - 4p(0.00)    -0.989   1.217
      - 3d(5.00)    -2.913   1.111
      -  s          23.205   1.164
      -  p          26.223   1.217
      -  d          24.299   1.111

    # Using partial waves for Cr as LCAO basis

  Al:
    name: Aluminium
    id: 0292cae29f5d6237e50f6abdd43a7bdd
    Z: 13.0
    valence: 3
    core: 10
    charge: 0.0
    file: /home/c.zeng/usr/data/gpaw-setups-0.9.20000/Al.PBE.gz
    compensation charges: {type: gauss,
                           rc: 0.34,
                           lmax: 2}
    cutoffs: {filter: 1.91,
              core: 2.36}
    valence states:
      #              energy  rcut
      - 3s(2.00)    -7.753   1.085
      - 3p(1.00)    -2.712   1.085
      -  s          19.459   1.085
      -  p          24.499   1.085
      -  d           0.000   1.085

[...]

  Ni:
    name: Nickel
    id: 0d9f38a9d6e76a2886f07bb4381f212b
    Z: 28.0
    valence: 16
    core: 12
    charge: 0.0
    file: /home/c.zeng/usr/data/gpaw-setups-0.9.20000/Ni.PBE.gz
    compensation charges: {type: gauss,
                           rc: 0.36,
                           lmax: 2}
    cutoffs: {filter: 2.14,
              core: 1.98}
    valence states:
      #              energy  rcut
      - 4s(2.00)    -5.642   1.164
      - 3p(6.00)   -71.394   1.207
      - 4p(0.00)    -1.226   1.207
      - 3d(8.00)    -8.875   1.138
      -  s          21.570   1.164
      -  d          18.337   1.138

[...]

  Co:
    name: Cobalt
    id: 339d20d5b0b93d2de9531a1bee871d91
    Z: 27.0
    valence: 9
    core: 18
    charge: 0.0
    file: /home/c.zeng/usr/data/gpaw-setups-0.9.20000/Co.PBE.gz
    compensation charges: {type: gauss,
                           rc: 0.32,
                           lmax: 2}
    cutoffs: {filter: 1.87,
              core: 2.55}
    valence states:
      #              energy  rcut
      - 4s(2.00)    -5.469   1.005
      - 4p(0.00)    -1.277   1.058
      - 3d(7.00)    -8.205   1.005
      -  s          21.742   1.005
      -  p          25.934   1.058
      -  d          19.007   1.005

[...]

  Fe:
    name: Iron
    id: 37abbd8d6c3c35915a9b583b742da910
    Z: 26.0
    valence: 8
    core: 18
    charge: 0.0
    file: /home/c.zeng/usr/data/gpaw-setups-0.9.20000/Fe.PBE.gz
    compensation charges: {type: gauss,
                           rc: 0.33,
                           lmax: 2}
    cutoffs: {filter: 2.06,
              core: 2.67}
    valence states:
      #              energy  rcut
      - 4s(2.00)    -5.291   1.164
      - 4p(0.00)    -1.326   1.058
      - 3d(6.00)    -7.505   1.058
      -  s          21.920   1.164
      -  p          25.885   1.058
      -  d          19.706   1.058

    # Using partial waves for Fe as LCAO basis

Reference energy: -3235165.067515  # eV

Spin-polarized calculation.
Magnetic moment: 121.100000

Convergence criteria:
 Maximum [total energy] change in last 3 cyles: 0.0001 eV / electron
 Maximum integral of absolute [dens]ity change: 0.0001 electrons / valence electron
 Maximum integral of absolute [eigenst]ate change: 4e-08 eV^2 / valence electron
 Maximum number of scf [iter]ations: 666
 (Square brackets indicate name in SCF output, whereas a 'c' in
 the SCF output indicates the quantity has converged.)

Symmetries present (total): 1

  ( 1  0  0)
  ( 0  1  0)
  ( 0  0  1)

8 k-points: 2 x 2 x 2 Monkhorst-Pack grid
4 k-points in the irreducible part of the Brillouin zone
       k-points in crystal coordinates                weights
   0:     0.25000000   -0.25000000   -0.25000000          2/8
   1:     0.25000000   -0.25000000    0.25000000          2/8
   2:     0.25000000    0.25000000   -0.25000000          2/8
   3:     0.25000000    0.25000000    0.25000000          2/8

Wave functions: Plane wave expansion
  Cutoff energy: 350.000 eV
  Number of coefficients (min, max): 19084, 19084
  Pulay-stress correction: 0.000000 eV/Ang^3 (de/decut=0.000000)
  Using FFTW library
  ScaLapack parameters: grid=1x1, blocksize=None
  Wavefunction extrapolation:
    Improved wavefunction reuse through dual PAW basis

Occupation numbers: Fermi-Dirac:
  width: 0.1000  # eV

Eigensolver
   Davidson(niter=2)

Densities:
  Coarse grid: 48*48*48 grid
  Fine grid: 96*96*96 grid
  Total Charge: 0.000000

Density mixing:
  Method: difference
  Backend: pulay
  Linear mixing parameter: 0.05
  old densities: 5
  Damping of long wavelength oscillations: 50

Hamiltonian:
  XC and Coulomb potentials evaluated on a 96*96*96 grid
  Using the PBE Exchange-Correlation functional
  External potential:
    NoExternalPotential

XC parameters: PBE with 2 nearest neighbor stencil

Total number of cores used: 30
Parallelization over k-points: 2
Domain decomposition: 5 x 3 x 1

Number of atoms: 108
Number of atomic orbitals: 933
Number of bands in calculation: 624
Number of valence electrons: 912
Bands to converge: occupied

... initialized

Initializing position-dependent things.

Density initialized from atomic densities
Creating initial wave functions:
  624 bands from LCAO basis set

        .--------Al----------------.
       /|           Fe             |
      / |    FeFe     Ni           |
     / Ni       Cr       Al        |
    /   |Fe      CrCo       Fe     |
   /    | CrNi      ACo            |
  /    Co  FerAlAl    Co Fe  CoAl  |
 *      Fe     AlCoAl   NiFe     Cr|
 |      |FeCr   NiFeFe   AlCrNi   Co
 |      | CoCr   AlCoCoAl NiCrFe   |
 |     Fe  Al CoCo  CrNi Ni  NiNi  |
 |      Ni  Ni CrNiCo CoNiCoAl   Fe|
 |      |CrCo   CoAlAl   CoCrFe   Fe
 |      .-FeCr-----CrNi-Al--NiFe---.
 |     Al  Ni CoCr    Al Co  Ni Cr/
 |    / Co              Ni       Cr
 |   /           Ali      CrFe  /
 |  /      Cr       Fe     CrAl/
 | /                   Fe     /i
 *--------------------------Cr

Positions:
   0 Cr    10.797848    0.093654    0.085777    ( 0.0000,  0.0000,  0.0000)
   1 Al    10.831824    1.844742    1.870716    ( 0.0000,  0.0000,  2.0000)
   2 Ni     1.786803   10.847372    1.827335    ( 0.0000,  0.0000,  0.0000)
   3 Co     1.769614    1.870531   -0.031264    ( 0.0000,  0.0000,  0.0000)
   4 Al     3.620857   10.822050   10.833629    ( 0.0000,  0.0000,  1.5000)
   5 Cr     3.571246    1.883176    1.708402    ( 0.0000,  0.0000,  0.0000)
   6 Co     5.521103   10.788063    1.666217    ( 0.0000,  0.0000,  0.0000)
   7 Al     5.520831    1.813973   10.830911    ( 0.0000,  0.0000,  1.5000)
   8 Al     7.330846    0.011025   10.815657    ( 0.0000,  0.0000,  2.0000)
   9 Fe     7.282018    1.809483    1.793250    ( 0.0000,  0.0000,  2.1000)
  10 Fe     9.029996    0.022005    1.811918    ( 0.0000,  0.0000,  1.5000)
  11 Fe     9.007196    1.868639   10.825714    ( 0.0000,  0.0000,  2.0000)
  12 Ni    10.861310    3.649723    0.014171    ( 0.0000,  0.0000,  2.0000)
  13 Cr    10.867442    5.463468    1.819235    ( 0.0000,  0.0000,  2.1000)
  14 Co     1.756088    3.650267    1.845949    ( 0.0000,  0.0000,  0.0000)
  15 Fe     1.790358    5.439092   10.869084    ( 0.0000,  0.0000,  2.1000)
  16 Ni     3.687842    3.622792   -0.049287    ( 0.0000,  0.0000,  2.0000)
  17 Co     3.667347    5.391145    1.745368    ( 0.0000,  0.0000,  0.0000)
  18 Al     5.497977    3.634415    1.792370    ( 0.0000,  0.0000,  2.0000)
  19 Ni     5.524908    5.448029    0.002551    ( 0.0000,  0.0000,  2.0000)
  20 Co     7.223340    3.611877   10.834270    ( 0.0000,  0.0000,  0.0000)
  21 Al     7.217762    5.474830    1.807776    ( 0.0000,  0.0000,  2.1000)
  22 Cr     9.073442    3.654344    1.775148    ( 0.0000,  0.0000,  0.0000)
  23 Cr     9.008740    5.418608    0.007692    ( 0.0000,  0.0000,  2.0000)
  24 Cr    10.859190    7.178720    0.014480    ( 0.0000,  0.0000,  1.5000)
  25 Fe    -0.018106    8.970948    1.875391    ( 0.0000,  0.0000,  0.0000)
  26 Fe     1.817615    7.224025    1.802546    ( 0.0000,  0.0000,  1.5000)
  27 Ni     1.880729    8.993464   10.874031    ( 0.0000,  0.0000,  0.0000)
  28 Fe     3.684428    7.260447   -0.001356    ( 0.0000,  0.0000,  2.0000)
  29 Co     3.612616    9.025636    1.761807    ( 0.0000,  0.0000,  1.5000)
  30 Cr     5.481440    7.275114    1.811211    ( 0.0000,  0.0000,  1.5000)
  31 Fe     5.461261    9.048153   10.833988    ( 0.0000,  0.0000,  1.5000)
  32 Ni     7.245704    7.257881    0.056891    ( 0.0000,  0.0000,  2.1000)
  33 Co     7.301969    9.004609    1.790315    ( 0.0000,  0.0000,  0.0000)
  34 Ni     9.029343    7.181775    1.815549    ( 0.0000,  0.0000,  2.0000)
  35 Ni     9.030561    9.042010    0.020232    ( 0.0000,  0.0000,  1.5000)
  36 Fe    -0.031046    0.001947    3.645701    ( 0.0000,  0.0000,  2.0000)
  37 Fe    10.825910    1.804351    5.434602    ( 0.0000,  0.0000,  2.1000)
  38 Cr     1.743552   10.849296    5.484376    ( 0.0000,  0.0000,  0.0000)
  39 Al     1.769755    1.791891    3.636068    ( 0.0000,  0.0000,  1.5000)
  40 Al     3.516667   10.719828    3.663227    ( 0.0000,  0.0000,  0.0000)
  41 Co     3.644244    1.785205    5.586728    ( 0.0000,  0.0000,  0.0000)
  42 Al     5.484778   10.815439    5.504022    ( 0.0000,  0.0000,  0.0000)
  43 Cr     5.457934    1.842230    3.658769    ( 0.0000,  0.0000,  0.0000)
  44 Ni     7.360615   10.815439    3.672229    ( 0.0000,  0.0000,  0.0000)
  45 Al     7.266884    1.811614    5.485528    ( 0.0000,  0.0000,  2.1000)
  46 Al     9.077986    0.023590    5.491921    ( 0.0000,  0.0000,  0.0000)
  47 Co     9.066788    1.824226    3.671175    ( 0.0000,  0.0000,  1.5000)
  48 Fe    -0.047135    3.649615    3.617291    ( 0.0000,  0.0000,  2.0000)
  49 Ni    10.809264    5.435993    5.379805    ( 0.0000,  0.0000,  2.0000)
  50 Ni     1.752316    3.624989    5.344676    ( 0.0000,  0.0000,  0.0000)
  51 Cr     1.805786    5.472046    3.619389    ( 0.0000,  0.0000,  2.1000)
[...]
 100 Al     3.683906    7.292456    7.235550    ( 0.0000,  0.0000,  2.0000)
 101 Cr     3.628218    9.069550    9.051262    ( 0.0000,  0.0000,  2.1000)
 102 Co     5.530605    7.331890    9.040129    ( 0.0000,  0.0000,  0.0000)
 103 Al     5.476232    9.097209    7.250467    ( 0.0000,  0.0000,  2.0000)
 104 Ni     7.256827    7.264242    7.208456    ( 0.0000,  0.0000,  2.1000)
 105 Al     7.272548    9.136437    9.056861    ( 0.0000,  0.0000,  1.5000)
 106 Fe     8.936493    7.190875    9.109767    ( 0.0000,  0.0000,  0.0000)
 107 Co     8.994682    9.112169    7.218480    ( 0.0000,  0.0000,  0.0000)

Unit cell:
           periodic     x           y           z      points  spacing
  1. axis:    yes   10.872400    0.000000    0.000000    48     0.2265
  2. axis:    yes    0.000000   10.872400    0.000000    48     0.2265
  3. axis:    yes    0.000000    0.000000   10.872400    48     0.2265

  Lengths:  10.872400  10.872400  10.872400
  Angles:   90.000000  90.000000  90.000000

Effective grid spacing dv^(1/3) = 0.2265

     iter     time        total  log10-change:  magmom
                         energy  eigst   dens
iter:   1 07:26:44  -912.853644                  +120.1257
iter:   2 07:28:47  -845.545467  -0.30  -1.26    +81.1344
iter:   3 07:30:52  -846.875838  -0.72  -1.26    +48.5528
iter:   4 07:32:56  -816.500752  -1.15  -1.27    +43.0840
iter:   5 07:35:00  -810.162900  -1.62  -1.36    +39.5852
iter:   6 07:37:04  -810.171796  -1.73  -1.40    +38.5876
iter:   7 07:39:08  -804.759950  -1.58  -1.43    +37.9591
iter:   8 07:41:12  -802.972653  -1.70  -1.52    +38.0633
iter:   9 07:43:16  -810.882854  -1.76  -1.62    +38.7798
iter:  10 07:45:18  -802.590041  -1.89  -1.57    +39.0943
iter:  11 07:47:18  -803.483764  -2.17  -1.74    +39.9014
iter:  12 07:49:23  -801.794258  -2.36  -1.76    +41.0241
iter:  13 07:51:28  -802.795752  -2.37  -1.85    +42.4030
iter:  14 07:53:32  -802.170838  -2.50  -1.86    +43.3280
iter:  15 07:55:36  -803.382065  -2.46  -1.93    +44.9433
iter:  16 07:57:41  -804.439189  -2.34  -1.92    +46.0715
iter:  17 07:59:46  -803.231147  -2.56  -1.90    +46.9046
iter:  18 08:01:51  -803.216499  -2.63  -2.01    +47.7997
iter:  19 08:03:55  -803.060026  -2.80  -2.03    +48.8247
iter:  20 08:06:00  -802.999776  -2.94  -2.09    +50.1331
iter:  21 08:08:02  -803.026034c -3.25  -2.12    +51.0119
iter:  22 08:10:05  -803.594499  -2.99  -2.18    +51.6828
iter:  23 08:12:10  -803.390181  -3.13  -2.12    +52.5506
iter:  24 08:14:14  -803.848427  -2.99  -2.21    +53.5118
iter:  25 08:16:18  -803.688042  -3.15  -2.16    +53.8838
iter:  26 08:18:22  -804.010132  -3.00  -2.24    +54.4834
iter:  27 08:20:27  -803.750132  -3.30  -2.21    +54.8341
iter:  28 08:22:31  -804.174326  -3.14  -2.29    +55.8327
iter:  29 08:24:36  -803.974975  -3.32  -2.27    +55.9925
iter:  30 08:26:41  -804.040591  -3.42  -2.33    +56.5578
iter:  31 08:28:45  -804.064952c -3.68  -2.34    +57.1269
iter:  32 08:30:50  -804.199394  -3.45  -2.39    +57.8126
iter:  33 08:32:54  -804.215337  -3.58  -2.37    +58.0331
iter:  34 08:34:57  -804.318681  -3.50  -2.41    +58.2125
iter:  35 08:37:00  -804.555665  -3.23  -2.44    +58.5097
iter:  36 08:39:05  -804.528617  -3.23  -2.39    +58.7346
iter:  37 08:41:10  -804.400470  -3.42  -2.42    +58.7828
iter:  38 08:43:14  -804.423210  -3.46  -2.51    +58.7896
iter:  39 08:45:18  -804.356282c -3.74  -2.53    +59.0072
iter:  40 08:47:23  -804.350789c -4.13  -2.60    +59.3847
iter:  41 08:49:28  -804.368407c -4.14  -2.67    +59.5639
iter:  42 08:51:32  -804.373481c -4.58  -2.68    +59.6942
iter:  43 08:53:35  -804.418635c -4.21  -2.73    +59.8572
iter:  44 08:55:37  -804.439058c -4.13  -2.73    +59.8823
iter:  45 08:57:42  -804.467070c -3.95  -2.81    +59.9770
iter:  46 08:59:46  -804.489133c -4.03  -2.90    +59.9897
iter:  47 09:01:51  -804.479185c -4.25  -2.88    +60.1476
iter:  48 09:03:56  -804.513301c -4.30  -3.18    +60.2681
iter:  49 09:06:00  -804.509978c -4.82  -3.06    +60.3050
iter:  50 09:08:04  -804.548382c -4.55  -3.24    +60.4417
iter:  51 09:10:09  -804.500880c -4.69  -3.26    +60.2615
iter:  52 09:12:14  -804.383043  -3.42  -3.29    +59.5995
iter:  53 09:14:18  -804.384608  -4.28  -3.26    +59.4927
iter:  54 09:16:20  -804.396779c -4.91  -3.27    +59.5253
iter:  55 09:18:24  -804.408229c -4.97  -3.32    +59.5525
iter:  56 09:20:29  -804.420685c -4.85  -3.37    +59.5730
iter:  57 09:22:34  -804.425385c -5.29  -3.36    +59.5880
iter:  58 09:24:38  -804.435584c -5.08  -3.39    +59.6075
iter:  59 09:26:42  -804.437732c -5.67  -3.39    +59.6108
iter:  60 09:28:47  -804.450754c -4.99  -3.40    +59.6365
iter:  61 09:30:52  -804.442588c -5.63  -3.39    +59.6216
iter:  62 09:32:56  -804.440969c -5.71  -3.42    +59.5596
iter:  63 09:34:58  -804.453581c -5.12  -3.43    +59.6128
iter:  64 09:37:01  -804.450430c -5.31  -3.45    +59.5734
iter:  65 09:39:05  -804.463951c -4.90  -3.53    +59.6282
iter:  66 09:41:10  -804.467196c -5.15  -3.53    +59.6297
iter:  67 09:43:14  -804.475452c -5.02  -3.46    +59.6291
iter:  68 09:45:18  -804.482190c -5.34  -3.69    +59.6283
iter:  69 09:47:22  -804.461253c -4.76  -3.69    +59.5736
iter:  70 09:49:27  -804.454541c -4.99  -3.72    +59.5182
iter:  71 09:51:31  -804.460268c -5.26  -3.82    +59.4492
iter:  72 09:53:35  -804.469396c -5.18  -3.76    +59.3930
iter:  73 09:55:38  -804.484307c -4.81  -3.80    +59.3187
iter:  74 09:57:40  -804.479796c -6.01  -3.64    +59.3479
iter:  75 09:59:45  -804.515116c -4.21  -3.63    +59.1177
iter:  76 10:01:49  -804.555815c -3.84  -3.41    +58.8377
iter:  77 10:03:53  -804.576641c -4.04  -3.20    +58.6698
iter:  78 10:05:57  -804.578342c -4.89  -3.10    +58.6646
iter:  79 10:08:01  -804.582576c -5.16  -3.09    +58.6293
iter:  80 10:10:05  -804.581973c -5.44  -3.07    +58.6045
iter:  81 10:12:08  -804.590392c -5.16  -3.08    +58.5707
iter:  82 10:14:12  -804.607207c -4.29  -3.05    +58.5432
iter:  83 10:16:14  -804.591032c -4.53  -2.88    +58.4488
iter:  84 10:18:18  -804.582421c -4.16  -3.03    +58.3309
iter:  85 10:20:23  -804.573285c -4.97  -3.02    +58.2875
iter:  86 10:22:27  -804.580508c -4.73  -3.15    +58.1093
iter:  87 10:24:32  -804.574053c -4.89  -3.09    +58.0918
iter:  88 10:26:36  -804.590525c -4.44  -3.19    +57.9322
iter:  89 10:28:40  -804.576623c -4.58  -3.06    +57.9074
iter:  90 10:30:45  -804.582032c -4.64  -3.27    +57.8152
iter:  91 10:32:49  -804.580422c -4.96  -3.24    +57.7407
iter:  92 10:34:52  -804.582337c -5.17  -3.34    +57.6646
iter:  93 10:36:55  -804.584695c -5.29  -3.41    +57.5712
iter:  94 10:38:59  -804.588590c -5.27  -3.45    +57.4832
iter:  95 10:41:04  -804.589461c -5.64  -3.43    +57.4335
iter:  96 10:43:09  -804.593197c -5.46  -3.48    +57.3328
iter:  97 10:45:13  -804.600284c -5.08  -3.51    +57.1626
iter:  98 10:47:17  -804.602413c -5.77  -3.46    +57.1416
iter:  99 10:49:21  -804.603409c -5.75  -3.41    +57.1182
iter: 100 10:51:27  -804.610558c -4.92  -3.41    +56.9608
iter: 101 10:53:28  -804.615817c -4.63  -3.37    +56.7121
iter: 102 10:55:32  -804.619042c -4.98  -3.40    +56.6103
iter: 103 10:57:36  -804.621654c -4.84  -3.47    +56.6031
iter: 104 10:59:41  -804.621231c -5.23  -3.38    +56.5345
iter: 105 11:01:45  -804.621410c -5.38  -3.63    +56.5051
iter: 106 11:03:50  -804.624944c -5.45  -3.75    +56.4373
iter: 107 11:05:54  -804.626870c -5.79  -3.76    +56.3934
iter: 108 11:07:59  -804.626468c -6.30  -3.79    +56.3932
iter: 109 11:10:02  -804.628950c -5.68  -3.82    +56.3473
iter: 110 11:12:06  -804.627542c -5.75  -3.83    +56.3697
iter: 111 11:14:02  -804.629269c -5.09  -3.81    +56.3383
iter: 112 11:15:23  -804.630349c -4.97  -3.66    +56.3092
iter: 113 11:16:44  -804.635841c -5.11  -3.84    +56.2060
[...]
iter: 135 11:46:32  -804.629405c -5.39  -3.72    +56.4945
iter: 136 11:47:53  -804.627783c -5.99  -3.61    +56.5026
iter: 137 11:49:14  -804.629195c -5.59  -3.68    +56.4892
iter: 138 11:50:35  -804.629963c -5.87  -3.69    +56.4689
iter: 139 11:51:56  -804.630799c -5.55  -3.64    +56.4590
iter: 140 11:53:17  -804.629610c -5.29  -3.56    +56.4433
iter: 141 11:54:39  -804.629254c -5.50  -3.58    +56.4024
iter: 142 11:56:00  -804.628831c -6.10  -3.66    +56.3849
iter: 143 11:57:21  -804.629515c -6.05  -3.80    +56.3733
iter: 144 11:58:42  -804.629351c -6.23  -3.80    +56.3540
iter: 145 12:00:03  -804.629532c -6.20  -3.87    +56.3304
iter: 146 12:01:24  -804.629927c -6.19  -3.86    +56.3199
iter: 147 12:02:45  -804.630633c -5.71  -3.90    +56.3105
iter: 148 12:04:06  -804.630067c -6.03  -3.76    +56.2944
iter: 149 12:05:27  -804.630007c -6.31  -3.97    +56.2696
iter: 150 12:06:49  -804.630209c -6.56  -4.09c   +56.2611
iter: 151 12:08:10  -804.630482c -6.61  -4.12c   +56.2491
iter: 152 12:09:31  -804.630404c -6.99  -4.13c   +56.2411
iter: 153 12:10:52  -804.630793c -6.53  -4.21c   +56.2165
iter: 154 12:12:13  -804.629859c -5.92  -4.22c   +56.2773
iter: 155 12:13:34  -804.629705c -6.37  -4.23c   +56.2962
iter: 156 12:14:56  -804.629701c -6.47  -4.26c   +56.2983
iter: 157 12:16:17  -804.629788c -6.81  -4.21c   +56.2941
iter: 158 12:17:38  -804.629883c -7.10  -4.38c   +56.2890
iter: 159 12:18:59  -804.630074c -6.66  -4.44c   +56.2789
iter: 160 12:20:21  -804.629995c -6.85  -4.26c   +56.2816
iter: 161 12:21:42  -804.630137c -6.95  -4.38c   +56.2713
iter: 162 12:23:03  -804.630201c -7.39  -4.56c   +56.2642
iter: 163 12:24:24  -804.630238c -7.48c -4.69c   +56.2598

Converged after 163 iterations.

Dipole moment: (29.392108, 16.652783, 7.690959) |e|*Ang

Total magnetic moment: (0.000000, 0.000000, 56.259802)
Local magnetic moments:
   0 Cr ( 0.000000,  0.000000, -2.384620)
   1 Al ( 0.000000,  0.000000, -0.028637)
   2 Ni ( 0.000000,  0.000000,  0.194234)
   3 Co ( 0.000000,  0.000000,  0.834870)
   4 Al ( 0.000000,  0.000000, -0.032993)
   5 Cr ( 0.000000,  0.000000,  2.143017)
   6 Co ( 0.000000,  0.000000,  1.179346)
   7 Al ( 0.000000,  0.000000, -0.035488)
   8 Al ( 0.000000,  0.000000, -0.047014)
   9 Fe ( 0.000000,  0.000000,  2.191738)
  10 Fe ( 0.000000,  0.000000,  2.346140)
  11 Fe ( 0.000000,  0.000000,  2.120979)
  12 Ni ( 0.000000,  0.000000,  0.196609)
  13 Cr ( 0.000000,  0.000000,  0.560035)
  14 Co ( 0.000000,  0.000000,  0.794187)
  15 Fe ( 0.000000,  0.000000,  1.982296)
  16 Ni ( 0.000000,  0.000000,  0.319803)
  17 Co ( 0.000000,  0.000000,  0.993957)
  18 Al ( 0.000000,  0.000000, -0.025425)
  19 Ni ( 0.000000,  0.000000,  0.302987)
  20 Co ( 0.000000,  0.000000,  0.937740)
  21 Al ( 0.000000,  0.000000,  0.006130)
  22 Cr ( 0.000000,  0.000000, -1.736018)
  23 Cr ( 0.000000,  0.000000,  1.105895)
  24 Cr ( 0.000000,  0.000000, -1.800960)
  25 Fe ( 0.000000,  0.000000,  2.395802)
  26 Fe ( 0.000000,  0.000000,  2.060180)
  27 Ni ( 0.000000,  0.000000,  0.188700)
  28 Fe ( 0.000000,  0.000000,  2.197790)
  29 Co ( 0.000000,  0.000000,  1.042445)
  30 Cr ( 0.000000,  0.000000, -1.718310)
  31 Fe ( 0.000000,  0.000000,  2.181410)
  32 Ni ( 0.000000,  0.000000,  0.313593)
  33 Co ( 0.000000,  0.000000,  1.334102)
  34 Ni ( 0.000000,  0.000000,  0.176396)
  35 Ni ( 0.000000,  0.000000,  0.175629)
  36 Fe ( 0.000000,  0.000000,  2.224394)
  37 Fe ( 0.000000,  0.000000,  1.937287)
  38 Cr ( 0.000000,  0.000000, -1.501499)
  39 Al ( 0.000000,  0.000000, -0.034831)
  40 Al ( 0.000000,  0.000000,  0.005705)
  41 Co ( 0.000000,  0.000000,  0.868586)
  42 Al ( 0.000000,  0.000000, -0.006070)
  43 Cr ( 0.000000,  0.000000, -2.302578)
  44 Ni ( 0.000000,  0.000000,  0.048360)
  45 Al ( 0.000000,  0.000000, -0.018822)
  46 Al ( 0.000000,  0.000000, -0.030409)
  47 Co ( 0.000000,  0.000000,  1.175837)
  48 Fe ( 0.000000,  0.000000,  2.066237)
  49 Ni ( 0.000000,  0.000000,  0.146077)
  50 Ni ( 0.000000,  0.000000,  0.199469)
  51 Cr ( 0.000000,  0.000000, -1.779532)
  52 Cr ( 0.000000,  0.000000,  1.669295)
  53 Co ( 0.000000,  0.000000,  0.849496)
  54 Ni ( 0.000000,  0.000000,  0.151954)
  55 Al ( 0.000000,  0.000000, -0.015975)
  56 Ni ( 0.000000,  0.000000,  0.003309)
  57 Ni ( 0.000000,  0.000000,  0.197863)
  58 Co ( 0.000000,  0.000000,  1.277312)
  59 Cr ( 0.000000,  0.000000, -1.460904)
[...]
  93 Co ( 0.000000,  0.000000,  1.355795)
  94 Fe ( 0.000000,  0.000000,  2.202123)
  95 Cr ( 0.000000,  0.000000, -1.307920)
  96 Cr ( 0.000000,  0.000000, -1.760199)
  97 Ni ( 0.000000,  0.000000,  0.159791)
  98 Cr ( 0.000000,  0.000000,  1.672352)
  99 Fe ( 0.000000,  0.000000,  1.957490)
 100 Al ( 0.000000,  0.000000, -0.031436)
 101 Cr ( 0.000000,  0.000000, -1.571957)
 102 Co ( 0.000000,  0.000000,  0.860587)
 103 Al ( 0.000000,  0.000000, -0.004072)
 104 Ni ( 0.000000,  0.000000,  0.218627)
 105 Al ( 0.000000,  0.000000, -0.028052)
 106 Fe ( 0.000000,  0.000000,  2.375842)
 107 Co ( 0.000000,  0.000000,  0.780901)

Energy contributions relative to reference atoms: (reference = -3235165.067515)

Kinetic:       +257.631951
Potential:     -245.687716
External:        +0.000000
XC:            -845.686341
Entropy (-ST):   -4.152851
Local:          +31.188293
Free energy:   -806.706664
Extrapolated:  -804.630238

Spin contamination: 28.713539 electrons
Showing only first 2 kpts
                      Up                     Down
 Kpt  Band  Eigenvalues  Occupancy  Eigenvalues  Occupancy
  0   454      9.02312    0.99392      9.88847    0.02776
  0   455      9.05088    0.99200      9.91170    0.02213
  0   456      9.06010    0.99123      9.92295    0.01982
  0   457      9.08660    0.98860      9.93625    0.01740

  1   454      9.01843    0.99420      9.88446    0.02886
  1   455      9.03496    0.99317      9.88971    0.02742
  1   456      9.05495    0.99167      9.90682    0.02321
  1   457      9.06821    0.99050      9.92077    0.02025

Fermi level: 9.53286

No gap

Forces in eV/Ang:
  0 Cr    0.64560   -0.95969   -0.62431
  1 Al    0.18314    0.24661   -0.66611
  2 Ni   -0.07011    0.15529   -0.08076
  3 Co    0.27536   -0.26330   -0.34696
  4 Al   -0.54878   -0.01387    0.86295
  5 Cr    0.03424   -0.47256    0.28216
  6 Co   -0.07692    0.11698    1.03376
  7 Al   -0.35107    0.26725   -0.26502
  8 Al   -0.62532   -0.18892    1.88446
  9 Fe    0.20931   -0.00469    0.90178
 10 Fe    0.06135   -0.42098    0.46447
 11 Fe    0.58849    0.38957    0.05168
 12 Ni    0.03947   -0.25076   -0.05827
 13 Cr   -0.00628   -0.47249   -0.23484
 14 Co    0.33187    0.07601   -0.42820
 15 Fe    0.52410   -0.35832    0.64696
 16 Ni   -0.28045   -0.10056    0.22364
 17 Co   -0.36671    0.27907    0.31658
 18 Al   -0.41128   -0.08223   -0.42102
 19 Ni   -0.20660    0.08896   -0.18114
 20 Co    0.33004    0.12741   -0.13818
 21 Al    1.10789    0.13658   -0.37160
 22 Cr   -0.80325   -0.00176    0.12685
 23 Cr   -0.16627   -0.31054    0.08013
 24 Cr   -0.04093    1.07828    0.27575
 25 Fe   -0.38014    0.26158   -0.84279
 26 Fe    0.26435    0.03043   -0.22398
 27 Ni   -0.71496    0.27992    0.04209
 28 Fe    0.11588   -0.06254    0.53039
 29 Co    0.16612   -0.32576    0.34552
 30 Cr   -1.43282    1.02954   -0.82006
 31 Fe   -0.03711   -0.49231    0.42732
 32 Ni    0.10706   -0.07769   -0.48624
 33 Co   -0.35004    0.21680    0.61485
 34 Ni    0.11358    0.53440    0.05871
 35 Ni    0.18374    0.09372   -0.31793
 36 Fe   -0.22322   -0.29634   -0.08571
 37 Fe    0.21711    0.96278    0.01629
 38 Cr    0.44206    0.07453    0.53957
 39 Al    0.70519    0.70094    0.59498
 40 Al    1.38240    0.98586   -0.69794
 41 Co   -0.10530    0.17347   -0.32140
 42 Al   -0.80279    1.42508   -0.76062
 43 Cr   -0.77543   -0.29066   -0.96886
 44 Ni   -0.78664    0.22123   -0.06374
 45 Al    0.18899    1.28031   -0.19394
 46 Al   -0.17840   -0.61542   -0.97307
 47 Co   -0.24218    0.15778   -0.29749
 48 Fe   -0.09309    0.30897    0.41296
 49 Ni    0.30508   -0.27674    0.59952
 50 Ni    0.41743    0.06010    0.87880
 51 Cr    0.30741   -0.09038    0.08343
 52 Cr   -0.41956    0.10170    0.71966
 53 Co   -0.59759   -0.04835    0.15377
 54 Ni   -0.01838   -0.47414   -0.02975
 55 Al   -0.05348    0.30726    1.42847
 56 Ni    0.19045   -0.41974   -0.77557
 57 Ni    0.29671   -0.27293   -0.06360
 58 Co    0.10488    0.46243   -0.26570
 59 Cr    0.68043   -0.39503    0.65044
[...]
 93 Co    0.04582    0.36988   -0.05608
 94 Fe    0.03293   -0.29484   -0.27694
 95 Cr   -0.21724   -0.28913   -0.26232
 96 Cr    0.18079    0.48030    0.52258
 97 Ni   -0.48500   -0.30019    0.00270
 98 Cr   -0.90972    0.32493    0.20568
 99 Fe   -0.95509    0.19421   -0.29383
100 Al   -0.36357   -0.81513   -0.86257
101 Cr   -0.17895   -0.18170    0.13921
102 Co   -0.33009   -0.61429    0.30660
103 Al   -0.05665   -0.88867    0.76111
104 Ni    0.03742   -0.22211    0.49985
105 Al   -0.06081   -2.03415   -0.36641
106 Fe    0.81818    0.26218   -0.83557
107 Co    0.88852   -0.62984    0.35827

Date: Sat Apr 15 12:24:43 2023