User:   c.zeng@d0026
Date:   Mon Apr 17 04:24:29 2023
Arch:   x86_64
Pid:    253693
CWD:    /home/c.zeng/projects/hea-corrosion/hea-mlp/data-curation/bulk-mcmc/dft-jobs/27
Python: 3.8.1
gpaw:   /home/c.zeng/usr/installs/gpaw/source/gpaw-22.8.0/gpaw
_gpaw:  /home/c.zeng/usr/installs/gpaw/source/gpaw-22.8.0/
        _gpaw.cpython-38-x86_64-linux-gnu.so
ase:    /home/c.zeng/.local/lib/python3.8/site-packages/ase-3.22.1-py3.8.egg/ase (version 3.22.1)
numpy:  /home/c.zeng/.local/lib/python3.8/site-packages/numpy (version 1.24.2)
scipy:  /home/c.zeng/.local/lib/python3.8/site-packages/scipy (version 1.10.1)
units:  Angstrom and eV
cores: 30
OpenMP: False
OMP_NUM_THREADS: 1

Input parameters:
  convergence: {energy: 0.0001}
  kpts: [2 2 2]
  maxiter: 666
  mode: {ecut: 350.0,
         name: pw}
  occupations: {fixmagmom: False,
                name: fermi-dirac,
                width: 0.1}
  spinpol: True
  xc: PBE

System changes: positions, numbers, cell, pbc, initial_charges, initial_magmoms

Initialize ...

species:
  Co:
    name: Cobalt
    id: 339d20d5b0b93d2de9531a1bee871d91
    Z: 27.0
    valence: 9
    core: 18
    charge: 0.0
    file: /home/c.zeng/usr/data/gpaw-setups-0.9.20000/Co.PBE.gz
    compensation charges: {type: gauss,
                           rc: 0.32,
                           lmax: 2}
    cutoffs: {filter: 1.87,
              core: 2.55}
    valence states:
      #              energy  rcut
      - 4s(2.00)    -5.469   1.005
      - 4p(0.00)    -1.277   1.058
      - 3d(7.00)    -8.205   1.005
      -  s          21.742   1.005
      -  p          25.934   1.058
      -  d          19.007   1.005

    # Using partial waves for Co as LCAO basis

  Fe:
    name: Iron
    id: 37abbd8d6c3c35915a9b583b742da910
    Z: 26.0
    valence: 8
    core: 18
    charge: 0.0
    file: /home/c.zeng/usr/data/gpaw-setups-0.9.20000/Fe.PBE.gz
    compensation charges: {type: gauss,
                           rc: 0.33,
                           lmax: 2}
    cutoffs: {filter: 2.06,
              core: 2.67}
    valence states:
      #              energy  rcut
      - 4s(2.00)    -5.291   1.164
      - 4p(0.00)    -1.326   1.058
      - 3d(6.00)    -7.505   1.058
      -  s          21.920   1.164
      -  p          25.885   1.058
      -  d          19.706   1.058

[...]

  Ni:
    name: Nickel
    id: 0d9f38a9d6e76a2886f07bb4381f212b
    Z: 28.0
    valence: 16
    core: 12
    charge: 0.0
    file: /home/c.zeng/usr/data/gpaw-setups-0.9.20000/Ni.PBE.gz
    compensation charges: {type: gauss,
                           rc: 0.36,
                           lmax: 2}
    cutoffs: {filter: 2.14,
              core: 1.98}
    valence states:
      #              energy  rcut
      - 4s(2.00)    -5.642   1.164
      - 3p(6.00)   -71.394   1.207
      - 4p(0.00)    -1.226   1.207
      - 3d(8.00)    -8.875   1.138
      -  s          21.570   1.164
      -  d          18.337   1.138

[...]

  Cr:
    name: Chromium
    id: 33f258bda2ca9f93018e70263a35547b
    Z: 24.0
    valence: 6
    core: 18
    charge: 0.0
    file: /home/c.zeng/usr/data/gpaw-setups-0.9.20000/Cr.PBE.gz
    compensation charges: {type: gauss,
                           rc: 0.35,
                           lmax: 2}
    cutoffs: {filter: 2.14,
              core: 3.04}
    valence states:
      #              energy  rcut
      - 4s(1.00)    -4.007   1.164
      - 4p(0.00)    -0.989   1.217
      - 3d(5.00)    -2.913   1.111
      -  s          23.205   1.164
      -  p          26.223   1.217
      -  d          24.299   1.111

    # Using partial waves for Cr as LCAO basis

Reference energy: -3846758.590871  # eV

Spin-polarized calculation.
Magnetic moment: 151.200000

Convergence criteria:
 Maximum [total energy] change in last 3 cyles: 0.0001 eV / electron
 Maximum integral of absolute [dens]ity change: 0.0001 electrons / valence electron
 Maximum integral of absolute [eigenst]ate change: 4e-08 eV^2 / valence electron
 Maximum number of scf [iter]ations: 666
 (Square brackets indicate name in SCF output, whereas a 'c' in
 the SCF output indicates the quantity has converged.)

Symmetries present (total): 1

  ( 1  0  0)
  ( 0  1  0)
  ( 0  0  1)

8 k-points: 2 x 2 x 2 Monkhorst-Pack grid
4 k-points in the irreducible part of the Brillouin zone
       k-points in crystal coordinates                weights
   0:     0.25000000   -0.25000000   -0.25000000          2/8
   1:     0.25000000   -0.25000000    0.25000000          2/8
   2:     0.25000000    0.25000000   -0.25000000          2/8
   3:     0.25000000    0.25000000    0.25000000          2/8

Wave functions: Plane wave expansion
  Cutoff energy: 350.000 eV
  Number of coefficients (min, max): 17755, 17755
  Pulay-stress correction: 0.000000 eV/Ang^3 (de/decut=0.000000)
  Using FFTW library
  ScaLapack parameters: grid=1x1, blocksize=None
  Wavefunction extrapolation:
    Improved wavefunction reuse through dual PAW basis

Occupation numbers: Fermi-Dirac:
  width: 0.1000  # eV

Eigensolver
   Davidson(niter=2)

Densities:
  Coarse grid: 48*48*48 grid
  Fine grid: 96*96*96 grid
  Total Charge: 0.000000

Density mixing:
  Method: difference
  Backend: pulay
  Linear mixing parameter: 0.05
  old densities: 5
  Damping of long wavelength oscillations: 50

Hamiltonian:
  XC and Coulomb potentials evaluated on a 96*96*96 grid
  Using the PBE Exchange-Correlation functional
  External potential:
    NoExternalPotential

XC parameters: PBE with 2 nearest neighbor stencil

Total number of cores used: 30
Parallelization over k-points: 2
Domain decomposition: 5 x 3 x 1

Number of atoms: 108
Number of atomic orbitals: 1053
Number of bands in calculation: 727
Number of valence electrons: 1053
Bands to converge: occupied

... initialized

Initializing position-dependent things.

Density initialized from atomic densities
Creating initial wave functions:
  727 bands from LCAO basis set

       /|  Cr       Cr      Ni    |
      / |   NiFe     Ni           |
     /  |       Co      Fe       Fe
    /   |Ni      CFe       Co     Ni
   /    | Co       Ni       CFe   |
  /  CCo|  FeCr     CoCr          |
 *    CrNi    FeNi   FeNiCo       |
 |      |CoCr   FeFeNi  CoCrFe   Cr
 |      | NiCo     CoNiFeNiCrCr   |
 |    Co|  CoFeCr   CoCrFe   CrCo |
 |      Ni    CrCrCr NiNiCr     Ni|
 |      |FeFe  CoFeNi   FeCrFe   Cr
 |      .-FeCo-----CrNiFe--NiCr---Co
 |   Cro     Fe       Ni         /
 |    CrCo     Cor     CCre     /
 |   /    Co               Ni  /
 |  /      Fe       Fe    NiFe/
 | / Fe     Ni       NiCr    /
 |/            Co       Ni  /
 *--------Co------Co-------*

Positions:
   0 Co    -0.012479   -0.003723   10.616104    ( 0.0000,  0.0000,  2.1000)
   1 Fe    -0.011321    1.761305    1.763386    ( 0.0000,  0.0000,  2.1000)
   2 Fe     1.758365    0.001326    1.769011    ( 0.0000,  0.0000,  2.0000)
   3 Co     1.752686    1.779222   10.610436    ( 0.0000,  0.0000,  2.0000)
   4 Co     3.541196    0.004726   10.616104    ( 0.0000,  0.0000,  0.0000)
   5 Fe     3.534711    1.782438    1.778999    ( 0.0000,  0.0000,  0.0000)
   6 Ni     5.305717   10.600629    1.767950    ( 0.0000,  0.0000,  2.1000)
   7 Co     5.324780    1.765604   10.614618    ( 0.0000,  0.0000,  0.0000)
   8 Co     7.089121    0.014598   10.619926    ( 0.0000,  0.0000,  2.0000)
   9 Fe     7.085279    1.771219    1.773543    ( 0.0000,  0.0000,  1.5000)
  10 Cr     8.850554    0.011470    1.768756    ( 0.0000,  0.0000,  1.5000)
  11 Ni     8.842381    1.777333   10.615680    ( 0.0000,  0.0000,  2.1000)
  12 Fe    10.590535    3.538203   -0.001956    ( 0.0000,  0.0000,  0.0000)
  13 Ni    10.624277    5.310674    1.769786    ( 0.0000,  0.0000,  2.0000)
  14 Co     1.761379    3.535623    1.784572    ( 0.0000,  0.0000,  0.0000)
  15 Ni     1.770200    5.301408   10.611753    ( 0.0000,  0.0000,  2.0000)
  16 Ni     3.556003    3.551407   10.618333    ( 0.0000,  0.0000,  1.5000)
  17 Fe     3.539370    5.311290    1.775199    ( 0.0000,  0.0000,  2.1000)
  18 Cr     5.320142    3.545059    1.779678    ( 0.0000,  0.0000,  1.5000)
  19 Fe     5.306980    5.314654   10.602720    ( 0.0000,  0.0000,  0.0000)
  20 Ni     7.081585    3.529127   10.614725    ( 0.0000,  0.0000,  2.1000)
  21 Ni     7.069241    5.303361    1.781271    ( 0.0000,  0.0000,  1.5000)
  22 Fe     8.841447    3.542671    1.781600    ( 0.0000,  0.0000,  2.1000)
  23 Ni     8.850893    5.290379    0.000220    ( 0.0000,  0.0000,  0.0000)
  24 Cr     0.005868    7.083411   10.614937    ( 0.0000,  0.0000,  2.0000)
  25 Cr    10.601043    8.849694    1.772960    ( 0.0000,  0.0000,  2.1000)
  26 Fe     1.773713    7.072329    1.777184    ( 0.0000,  0.0000,  0.0000)
  27 Cr     1.755520    8.842943   10.608324    ( 0.0000,  0.0000,  0.0000)
  28 Fe     3.544009    7.063116   10.610489    ( 0.0000,  0.0000,  2.0000)
  29 Co     3.542225    8.826820    1.785580    ( 0.0000,  0.0000,  0.0000)
  30 Cr     5.309835    7.081776    1.776600    ( 0.0000,  0.0000,  2.1000)
  31 Cr     5.331945    8.840321   10.604673    ( 0.0000,  0.0000,  2.1000)
  32 Co     7.068434    7.069028   10.623110    ( 0.0000,  0.0000,  0.0000)
  33 Fe     7.083750    8.846796    1.774509    ( 0.0000,  0.0000,  1.5000)
  34 Ni     8.841404    7.058180    1.777173    ( 0.0000,  0.0000,  1.5000)
  35 Ni     8.835524    8.853600   10.611753    ( 0.0000,  0.0000,  0.0000)
  36 Ni    -0.009351   10.618864    3.531070    ( 0.0000,  0.0000,  2.0000)
  37 Fe    10.602508    1.764818    5.300452    ( 0.0000,  0.0000,  1.5000)
  38 Cr     1.756720    0.001379    5.295867    ( 0.0000,  0.0000,  0.0000)
  39 Co     1.766506    1.767154    3.539222    ( 0.0000,  0.0000,  2.0000)
  40 Co     3.539742    0.013881    3.542873    ( 0.0000,  0.0000,  2.0000)
  41 Fe     3.548944    1.788658    5.306237    ( 0.0000,  0.0000,  2.1000)
  42 Fe     5.320174   -0.004685    5.301386    ( 0.0000,  0.0000,  0.0000)
  43 Co     5.316862    1.765551    3.538935    ( 0.0000,  0.0000,  2.0000)
  44 Ni     7.081086   -0.000289    3.531325    ( 0.0000,  0.0000,  2.0000)
  45 Ni     7.072902    1.777407    5.300537    ( 0.0000,  0.0000,  2.0000)
  46 Fe     8.840544    0.012372    5.307851    ( 0.0000,  0.0000,  1.5000)
  47 Cr     8.833592    1.767928    3.534318    ( 0.0000,  0.0000,  2.1000)
  48 Cr    -0.004066    3.525285    3.545951    ( 0.0000,  0.0000,  0.0000)
  49 Co    -0.001689    5.317934    5.307787    ( 0.0000,  0.0000,  1.5000)
  50 Ni     1.769043    3.555101    5.297279    ( 0.0000,  0.0000,  2.0000)
  51 Fe     1.773692    5.305929    3.538266    ( 0.0000,  0.0000,  2.1000)
  52 Co     3.542746    3.537364    3.547575    ( 0.0000,  0.0000,  2.1000)
  53 Fe     3.548477    5.306927    5.301153    ( 0.0000,  0.0000,  2.0000)
  54 Cr     5.316246    3.553031    5.303637    ( 0.0000,  0.0000,  2.0000)
  55 Fe     5.303286    5.303531    3.542385    ( 0.0000,  0.0000,  1.5000)
  56 Ni     7.074962    3.533023    3.537215    ( 0.0000,  0.0000,  1.5000)
  57 Cr     7.066046    5.306046    5.300081    ( 0.0000,  0.0000,  2.0000)
  58 Cr     8.834526    3.538160    5.294530    ( 0.0000,  0.0000,  2.1000)
  59 Cr     8.846255    5.300452    3.537672    ( 0.0000,  0.0000,  1.5000)
[...]
[...]
iter:  71 06:22:05  -890.237530c -6.94  -4.17c   +60.4928
iter:  72 06:23:42  -890.237871c -6.68  -4.19c   +60.4818
iter:  73 06:25:19  -890.238659c -6.46  -4.22c   +60.4584
iter:  74 06:26:57  -890.237438c -6.35  -4.24c   +60.4871
iter:  75 06:28:34  -890.236709c -6.21  -4.20c   +60.5186
iter:  76 06:30:12  -890.237398c -6.87  -4.28c   +60.4981
iter:  77 06:31:49  -890.235147c -5.76  -4.36c   +60.5626
iter:  78 06:33:27  -890.234491c -6.29  -4.24c   +60.5741
iter:  79 06:35:04  -890.234857c -6.99  -4.28c   +60.5648
iter:  80 06:36:42  -890.235220c -7.03  -4.32c   +60.5531
iter:  81 06:38:19  -890.234773c -6.65  -4.38c   +60.5659
iter:  82 06:39:57  -890.234900c -6.53  -4.34c   +60.5653
iter:  83 06:41:32  -890.235572c -6.70  -4.32c   +60.5476
iter:  84 06:43:08  -890.233419c -5.53  -4.43c   +60.6187
iter:  85 06:44:43  -890.232172c -5.56  -4.09c   +60.6724
iter:  86 06:46:18  -890.231958c -5.99  -3.94    +60.6982
iter:  87 06:47:53  -890.232468c -5.91  -3.86    +60.7250
iter:  88 06:49:28  -890.233178c -6.40  -3.82    +60.7112
iter:  89 06:51:03  -890.231225c -5.66  -3.82    +60.7435
iter:  90 06:52:38  -890.233886c -5.62  -3.72    +60.6963
iter:  91 06:54:14  -890.234862c -5.63  -3.74    +60.7145
iter:  92 06:55:49  -890.234713c -5.20  -3.59    +60.6767
iter:  93 06:57:24  -890.232538c -5.73  -3.62    +60.6901
iter:  94 06:59:00  -890.232575c -6.28  -4.00    +60.6743
iter:  95 07:00:35  -890.233301c -6.46  -4.14c   +60.6700
iter:  96 07:02:10  -890.234483c -6.02  -4.17c   +60.6557
iter:  97 07:03:46  -890.236229c -5.81  -4.29c   +60.6097
iter:  98 07:05:21  -890.234219c -5.87  -4.27c   +60.6630
iter:  99 07:06:57  -890.230574c -5.02  -4.21c   +60.7704
iter: 100 07:08:32  -890.230745c -6.16  -3.89    +60.7685
iter: 101 07:10:08  -890.231281c -6.29  -3.91    +60.7476
iter: 102 07:11:43  -890.231415c -6.91  -3.98    +60.7392
iter: 103 07:13:18  -890.231020c -6.52  -4.02c   +60.7530
iter: 104 07:14:53  -890.232733c -5.94  -3.95    +60.7246
iter: 105 07:16:29  -890.230806c -6.09  -3.86    +60.7511
iter: 106 07:18:04  -890.230839c -6.03  -4.01c   +60.7534
iter: 107 07:19:40  -890.231968c -5.72  -3.83    +60.7404
iter: 108 07:21:15  -890.231305c -5.93  -3.78    +60.7513
iter: 109 07:22:50  -890.231659c -6.26  -4.01c   +60.7337
iter: 110 07:24:25  -890.232541c -6.39  -4.18c   +60.7304
iter: 111 07:26:00  -890.232481c -6.52  -4.08c   +60.7282
iter: 112 07:27:35  -890.233570c -6.04  -4.38c   +60.7042
iter: 113 07:29:11  -890.234446c -6.21  -4.44c   +60.6791
iter: 114 07:30:47  -890.233128c -6.14  -4.39c   +60.7184
iter: 115 07:32:22  -890.230695c -5.35  -4.42c   +60.7952
iter: 116 07:33:57  -890.229954c -5.67  -4.07c   +60.8395
iter: 117 07:35:32  -890.228414c -4.91  -3.95    +60.9924
iter: 118 07:37:08  -890.228893c -5.60  -3.73    +61.0256
iter: 119 07:38:43  -890.229775c -5.58  -3.70    +61.0798
iter: 120 07:40:18  -890.228925c -5.86  -3.66    +61.1024
iter: 121 07:41:54  -890.229176c -6.48  -3.68    +61.0845
iter: 122 07:43:29  -890.227322c -5.34  -3.69    +61.0733
iter: 123 07:45:04  -890.226010c -5.55  -3.57    +61.0791
iter: 124 07:46:40  -890.226536c -5.32  -3.63    +61.0776
iter: 125 07:48:15  -890.226353c -5.64  -3.66    +61.0582
iter: 126 07:49:51  -890.225819c -5.82  -3.69    +61.0421
iter: 127 07:51:27  -890.226491c -6.13  -3.91    +61.0253
iter: 128 07:53:02  -890.227620c -5.75  -4.05c   +60.9939
iter: 129 07:54:37  -890.228472c -6.03  -4.00    +60.9673
iter: 130 07:56:12  -890.228208c -6.35  -4.09c   +60.9516
iter: 131 07:57:47  -890.228960c -6.24  -4.15c   +60.9332
iter: 132 07:59:23  -890.229541c -6.14  -4.07c   +60.9061
iter: 133 08:00:58  -890.229572c -6.31  -4.11c   +60.8913
iter: 134 08:02:33  -890.229826c -6.67  -4.23c   +60.8842
iter: 135 08:04:08  -890.230565c -6.17  -4.36c   +60.8529
iter: 136 08:05:44  -890.230550c -7.01  -4.40c   +60.8549
iter: 137 08:07:19  -890.231151c -6.43  -4.46c   +60.8288
iter: 138 08:08:55  -890.232327c -5.99  -4.47c   +60.7816
iter: 139 08:10:31  -890.226579c -4.66  -4.37c   +61.0553
iter: 140 08:12:06  -890.222390c -4.38  -4.10c   +61.3710
iter: 141 08:13:42  -890.223801c -5.57  -3.72    +61.2612
iter: 142 08:15:18  -890.225588c -5.27  -3.83    +61.1313
iter: 143 08:16:53  -890.225648c -6.66  -3.95    +61.1308
iter: 144 08:18:29  -890.225684c -6.63  -3.94    +61.1120
iter: 145 08:20:04  -890.225979c -6.77  -3.95    +61.1124
iter: 146 08:21:40  -890.226313c -6.65  -3.92    +61.1013
iter: 147 08:23:16  -890.227881c -5.33  -3.94    +61.0969
iter: 148 08:24:52  -890.228096c -5.29  -3.57    +61.1036
iter: 149 08:26:27  -890.225533c -5.77  -3.56    +61.0576
iter: 150 08:28:03  -890.226660c -6.08  -4.10c   +61.0352
iter: 151 08:29:39  -890.227173c -6.15  -4.07c   +61.0040
iter: 152 08:31:15  -890.227842c -5.99  -4.18c   +60.9726
iter: 153 08:32:50  -890.228767c -5.99  -4.34c   +60.9201
iter: 154 08:34:26  -890.227994c -6.56  -4.47c   +60.9534
iter: 155 08:36:01  -890.226586c -5.88  -4.54c   +61.0113
iter: 156 08:37:37  -890.226806c -7.32  -4.41c   +61.0007
iter: 157 08:39:13  -890.226011c -6.31  -4.46c   +61.0414
iter: 158 08:40:49  -890.226011c -7.18  -4.31c   +61.0467
iter: 159 08:42:24  -890.226643c -6.52  -4.31c   +61.0311
iter: 160 08:44:00  -890.226520c -6.78  -4.21c   +61.0211
iter: 161 08:45:36  -890.227035c -6.65  -4.26c   +61.0026
iter: 162 08:47:12  -890.227194c -6.76  -4.49c   +60.9986
iter: 163 08:48:48  -890.227458c -6.52  -4.23c   +60.9747
iter: 164 08:50:24  -890.228501c -6.09  -4.53c   +60.9337
iter: 165 08:52:00  -890.226813c -5.89  -4.29c   +61.0085
iter: 166 08:53:35  -890.223351c -4.95  -4.45c   +61.1934
iter: 167 08:55:11  -890.223890c -6.17  -4.07c   +61.1630
iter: 168 08:56:47  -890.224924c -6.06  -4.07c   +61.0811
iter: 169 08:58:23  -890.225223c -6.58  -4.15c   +61.0620
iter: 170 08:59:59  -890.225028c -6.65  -4.15c   +61.0872
iter: 171 09:01:35  -890.225894c -6.07  -4.07c   +61.0733
iter: 172 09:03:10  -890.224993c -6.32  -3.80    +61.0645
iter: 173 09:04:45  -890.226995c -5.71  -4.13c   +61.0424
iter: 174 09:06:21  -890.225410c -5.90  -3.72    +61.0516
iter: 175 09:07:56  -890.225725c -6.03  -3.89    +61.0000
iter: 176 09:09:32  -890.225482c -6.64  -3.97    +61.0019
iter: 177 09:11:08  -890.226563c -6.29  -4.41c   +60.9727
iter: 178 09:12:45  -890.226074c -6.71  -4.26c   +60.9795
iter: 179 09:14:20  -890.226201c -6.44  -4.35c   +60.9916
iter: 180 09:15:56  -890.226755c -6.39  -4.18c   +60.9570
iter: 181 09:17:31  -890.226777c -6.74  -4.48c   +60.9577
iter: 182 09:19:07  -890.227299c -6.47  -4.31c   +60.9308
iter: 183 09:20:43  -890.227114c -7.38  -4.47c   +60.9354
iter: 184 09:22:19  -890.227354c -6.55  -4.63c   +60.9289
iter: 185 09:23:55  -890.228125c -6.43  -4.62c   +60.9043
iter: 186 09:25:31  -890.226498c -6.03  -4.49c   +60.9617
iter: 187 09:27:07  -890.222752c -5.02  -4.62c   +61.1156
iter: 188 09:28:42  -890.213847c -4.17  -4.11c   +61.5053
iter: 189 09:30:18  -890.232683c -3.81  -3.60    +60.7672
iter: 190 09:31:53  -890.200583c -3.47  -4.06c   +61.8628
iter: 191 09:33:29  -890.271565c -2.99  -3.38    +60.0068
iter: 192 09:35:04  -890.159624  -2.82  -3.41    +62.3028
iter: 193 09:36:40  -890.311418  -2.36  -3.21    +58.6738
iter: 194 09:38:16  -890.256583  -3.28  -3.05    +60.3774
iter: 195 09:39:52  -890.294103c -4.17  -3.48    +59.8872
iter: 196 09:41:28  -890.271406c -4.40  -3.29    +60.2254
iter: 197 09:43:05  -890.298912c -4.42  -3.39    +59.9087
iter: 198 09:44:41  -890.287484c -5.15  -3.26    +60.0507
iter: 199 09:46:17  -890.293965c -4.34  -3.29    +59.7961
iter: 200 09:47:53  -890.318673c -4.34  -3.28    +59.6940
iter: 201 09:49:29  -890.295554c -4.73  -2.99    +59.7320
iter: 202 09:51:05  -890.303891c -4.40  -3.26    +59.6799
iter: 203 09:52:41  -890.300149c -4.44  -3.09    +59.6715
iter: 204 09:54:17  -890.288801c -4.84  -3.17    +59.4811
iter: 205 09:55:52  -890.290389c -5.26  -3.41    +59.3832
iter: 206 09:57:29  -890.292972c -5.23  -3.46    +59.2315
iter: 207 09:59:05  -890.293233c -5.37  -3.49    +59.1578
iter: 208 10:00:42  -890.294675c -5.41  -3.55    +59.0978
iter: 209 10:02:17  -890.295842c -5.55  -3.53    +59.0942
iter: 210 10:03:53  -890.295862c -5.18  -3.51    +59.0791
iter: 211 10:05:29  -890.295540c -5.45  -3.52    +59.0320
iter: 212 10:07:05  -890.295736c -5.20  -3.58    +59.0114
iter: 213 10:08:40  -890.295693c -5.44  -3.63    +59.0000
iter: 214 10:10:17  -890.294130c -5.77  -3.62    +58.9630
iter: 215 10:11:53  -890.294420c -6.08  -3.82    +58.9331
iter: 216 10:13:29  -890.294881c -6.19  -3.97    +58.9167
iter: 217 10:15:05  -890.294646c -6.42  -3.91    +58.9019
iter: 218 10:16:41  -890.294936c -6.37  -4.05c   +58.8827
iter: 219 10:18:17  -890.295172c -6.46  -4.02c   +58.8780
iter: 220 10:19:53  -890.295346c -6.50  -4.04c   +58.8717
iter: 221 10:21:29  -890.295151c -6.30  -4.08c   +58.8598
iter: 222 10:23:05  -890.295394c -6.39  -4.00c   +58.8535
iter: 223 10:24:41  -890.295427c -6.54  -4.06c   +58.8541
iter: 224 10:26:17  -890.295438c -6.71  -4.19c   +58.8523
iter: 225 10:27:53  -890.295364c -6.93  -4.20c   +58.8441
iter: 226 10:29:29  -890.295404c -7.15  -4.32c   +58.8366
iter: 227 10:31:07  -890.295495c -7.29  -4.41c   +58.8334
iter: 228 10:32:45  -890.295772c -6.57  -4.42c   +58.8256
iter: 229 10:34:23  -890.295827c -7.17  -4.23c   +58.8297
iter: 230 10:36:01  -890.295840c -7.25  -4.25c   +58.8301
iter: 231 10:37:39  -890.295831c -7.28  -4.25c   +58.8281
iter: 232 10:39:17  -890.295820c -7.63c -4.27c   +58.8266

Converged after 232 iterations.

Dipole moment: (6.924193, -2.090893, 0.755239) |e|*Ang

Total magnetic moment: (0.000000, 0.000000, 58.826638)
Local magnetic moments:
   0 Co ( 0.000000,  0.000000,  1.132338)
   1 Fe ( 0.000000,  0.000000,  1.969033)
   2 Fe ( 0.000000,  0.000000,  2.061177)
   3 Co ( 0.000000,  0.000000,  1.159238)
   4 Co ( 0.000000,  0.000000,  1.260600)
   5 Fe ( 0.000000,  0.000000,  2.399066)
   6 Ni ( 0.000000,  0.000000,  0.434439)
   7 Co ( 0.000000,  0.000000,  1.394422)
   8 Co ( 0.000000,  0.000000,  1.182698)
   9 Fe ( 0.000000,  0.000000,  2.160546)
  10 Cr ( 0.000000,  0.000000, -1.055792)
  11 Ni ( 0.000000,  0.000000,  0.317984)
  12 Fe ( 0.000000,  0.000000, -2.343405)
  13 Ni ( 0.000000,  0.000000,  0.027532)
  14 Co ( 0.000000,  0.000000,  1.261867)
  15 Ni ( 0.000000,  0.000000,  0.102175)
  16 Ni ( 0.000000,  0.000000,  0.292110)
  17 Fe ( 0.000000,  0.000000,  1.915709)
  18 Cr ( 0.000000,  0.000000, -1.882712)
  19 Fe ( 0.000000,  0.000000,  2.131493)
  20 Ni ( 0.000000,  0.000000,  0.364475)
  21 Ni ( 0.000000,  0.000000,  0.281259)
  22 Fe ( 0.000000,  0.000000,  2.028880)
  23 Ni ( 0.000000,  0.000000,  0.183801)
  24 Cr ( 0.000000,  0.000000, -0.964848)
  25 Cr ( 0.000000,  0.000000,  0.642389)
  26 Fe ( 0.000000,  0.000000, -1.523137)
  27 Cr ( 0.000000,  0.000000, -1.103517)
  28 Fe ( 0.000000,  0.000000,  1.893985)
  29 Co ( 0.000000,  0.000000,  1.005360)
  30 Cr ( 0.000000,  0.000000, -1.322458)
  31 Cr ( 0.000000,  0.000000, -1.559586)
  32 Co ( 0.000000,  0.000000,  1.020740)
  33 Fe ( 0.000000,  0.000000,  2.118369)
  34 Ni ( 0.000000,  0.000000,  0.178972)
  35 Ni ( 0.000000,  0.000000,  0.233816)
  36 Ni ( 0.000000,  0.000000,  0.129094)
  37 Fe ( 0.000000,  0.000000,  1.891832)
  38 Cr ( 0.000000,  0.000000, -1.722653)
  39 Co ( 0.000000,  0.000000,  1.232815)
  40 Co ( 0.000000,  0.000000,  1.318917)
  41 Fe ( 0.000000,  0.000000,  2.140377)
  42 Fe ( 0.000000,  0.000000,  2.220394)
  43 Co ( 0.000000,  0.000000,  1.282824)
  44 Ni ( 0.000000,  0.000000,  0.192091)
  45 Ni ( 0.000000,  0.000000,  0.268220)
  46 Fe ( 0.000000,  0.000000,  1.618426)
  47 Cr ( 0.000000,  0.000000, -0.507114)
  48 Cr ( 0.000000,  0.000000, -1.358380)
  49 Co ( 0.000000,  0.000000,  0.437485)
  50 Ni ( 0.000000,  0.000000,  0.351060)
  51 Fe ( 0.000000,  0.000000,  2.063012)
  52 Co ( 0.000000,  0.000000,  1.062152)
  53 Fe ( 0.000000,  0.000000,  2.111924)
  54 Cr ( 0.000000,  0.000000, -1.546003)
  55 Fe ( 0.000000,  0.000000,  1.883663)
  56 Ni ( 0.000000,  0.000000,  0.172314)
  57 Cr ( 0.000000,  0.000000, -0.444599)
  58 Cr ( 0.000000,  0.000000, -0.022623)
  59 Cr ( 0.000000,  0.000000,  0.293666)
[...]
  93 Cr ( 0.000000,  0.000000, -1.401152)
  94 Co ( 0.000000,  0.000000,  0.896749)
  95 Cr ( 0.000000,  0.000000,  0.955936)
  96 Cr ( 0.000000,  0.000000, -0.930195)
  97 Fe ( 0.000000,  0.000000,  1.986202)
  98 Co ( 0.000000,  0.000000,  0.881959)
  99 Fe ( 0.000000,  0.000000,  2.081209)
 100 Fe ( 0.000000,  0.000000,  2.173355)
 101 Co ( 0.000000,  0.000000,  1.335017)
 102 Ni ( 0.000000,  0.000000,  0.301333)
 103 Co ( 0.000000,  0.000000,  1.451793)
 104 Ni ( 0.000000,  0.000000,  0.223093)
 105 Fe ( 0.000000,  0.000000,  2.196716)
 106 Co ( 0.000000,  0.000000,  0.833882)
 107 Cr ( 0.000000,  0.000000, -0.554805)

Energy contributions relative to reference atoms: (reference = -3846758.590871)

Kinetic:       +123.135556
Potential:     -189.561063
External:        +0.000000
XC:            -861.567033
Entropy (-ST):   -4.609708
Local:          +40.001573
Free energy:   -892.600674
Extrapolated:  -890.295820

Spin contamination: 33.022218 electrons
Showing only first 2 kpts
                      Up                     Down
 Kpt  Band  Eigenvalues  Occupancy  Eigenvalues  Occupancy
  0   524      9.86057    0.99316     10.69091    0.03472
  0   525      9.87780    0.99189     10.70101    0.03149
  0   526      9.89396    0.99048     10.71089    0.02861
  0   527      9.91204    0.98861     10.72294    0.02545

  1   524      9.87042    0.99246     10.69142    0.03455
  1   525      9.88413    0.99136     10.70314    0.03085
  1   526      9.89128    0.99073     10.71440    0.02765
  1   527      9.89829    0.99006     10.72826    0.02416

Fermi level: 10.35840

No gap

Forces in eV/Ang:
  0 Co    0.05700   -0.02268    0.09223
  1 Fe    0.18323    0.07959   -0.14374
  2 Fe    0.10424   -0.10146    0.03160
  3 Co    0.08769    0.01342    0.10584
  4 Co   -0.08879    0.00936   -0.03092
  5 Fe    0.09782    0.03048    0.00422
  6 Ni   -0.07251    0.01994   -0.11894
  7 Co   -0.17396   -0.08927   -0.04645
  8 Co   -0.20658    0.03771    0.02812
  9 Fe   -0.19974   -0.29990    0.00161
 10 Cr    0.02595    0.03776   -0.46985
 11 Ni    0.06934    0.00178    0.06655
 12 Fe    0.18132    0.20612   -0.07781
 13 Ni    0.01317   -0.05302    0.03869
 14 Co    0.08749   -0.04623   -0.23459
 15 Ni   -0.05460    0.06951    0.12018
 16 Ni   -0.11795   -0.26071   -0.07422
 17 Fe   -0.14928   -0.08468   -0.00387
 18 Cr   -0.22490   -0.02316   -0.04848
 19 Fe    0.16694    0.01589    0.06060
 20 Ni   -0.12329    0.11769   -0.01583
 21 Ni   -0.02121   -0.00919   -0.06205
 22 Fe    0.24454   -0.10340   -0.01701
 23 Ni    0.00916    0.11149   -0.21519
 24 Cr   -0.15459   -0.33234   -0.37103
 25 Cr    0.41333   -0.06170    0.21560
 26 Fe   -0.08339    0.14092   -0.32591
 27 Cr    0.43587    0.17859    0.00018
 28 Fe   -0.15176    0.33179    0.14073
 29 Co   -0.07256    0.11029    0.00216
 30 Cr    0.06821   -0.31047   -0.17171
 31 Cr   -0.21438    0.27365   -0.10100
 32 Co    0.04912    0.02601   -0.00706
 33 Fe   -0.05634    0.05248   -0.08461
 34 Ni    0.03587    0.21863   -0.14080
 35 Ni    0.08895   -0.14660    0.04696
 36 Ni    0.17814    0.10032    0.05576
 37 Fe    0.37737   -0.09354   -0.04204
 38 Cr    0.19214    0.13527    0.04804
 39 Co   -0.02204    0.23113    0.05494
 40 Co   -0.00110   -0.33134   -0.06425
 41 Fe   -0.48334   -0.09628   -0.27175
 42 Fe    0.06674   -0.16603   -0.07390
 43 Co   -0.27079    0.14399    0.12915
 44 Ni    0.00521    0.03266    0.21844
 45 Ni    0.07988   -0.01609   -0.13809
 46 Fe   -0.09227   -0.17943   -0.20322
 47 Cr   -0.15558   -0.07357    0.22771
 48 Cr    0.54976    0.05286   -0.05338
 49 Co    0.15655   -0.13338    0.02210
 50 Ni   -0.03800   -0.16689    0.22877
 51 Fe   -0.11738   -0.11906   -0.03697
 52 Co   -0.08167   -0.07861   -0.14643
 53 Fe   -0.17426   -0.23395   -0.02656
 54 Cr    0.01325   -0.21657   -0.30013
 55 Fe    0.26133   -0.04091   -0.07684
 56 Ni    0.03374   -0.00619   -0.08658
 57 Cr    0.03946    0.35861   -0.04375
 58 Cr   -0.40990   -0.02235    0.02944
 59 Cr   -0.01919    0.23949    0.30447
[...]
 93 Cr    0.17540    0.10844    0.04683
 94 Co    0.16677    0.10068   -0.10622
 95 Cr    0.22298    0.25534    0.16742
 96 Cr    0.29852   -0.45495    0.54794
 97 Fe    0.12507   -0.10571    0.19882
 98 Co   -0.23848   -0.09641    0.13871
 99 Fe    0.09877    0.10849    0.35476
100 Fe   -0.05177   -0.00844    0.41544
101 Co   -0.14431    0.13266    0.04443
102 Ni    0.14040    0.12002    0.13201
103 Co   -0.17640    0.27475   -0.17828
104 Ni    0.15008    0.12253    0.15558
105 Fe    0.06965   -0.26839    0.21012
106 Co    0.02875   -0.01058   -0.00840
107 Cr    0.03631   -0.42261   -0.02046

Date: Mon Apr 17 10:39:36 2023