User:   c.zeng@d0133
Date:   Sat Apr  8 15:56:29 2023
Arch:   x86_64
Pid:    127858
CWD:    /home/c.zeng/projects/hea-corrosion/hea-mlp/data-curation/volume/dft-jobs/9
Python: 3.8.1
gpaw:   /home/c.zeng/usr/installs/gpaw/source/gpaw-22.8.0/gpaw
_gpaw:  /home/c.zeng/usr/installs/gpaw/source/gpaw-22.8.0/
        _gpaw.cpython-38-x86_64-linux-gnu.so
ase:    /home/c.zeng/.local/lib/python3.8/site-packages/ase-3.22.1-py3.8.egg/ase (version 3.22.1)
numpy:  /shared/centos7/python/3.8.1/lib/python3.8/site-packages/numpy (version 1.17.4)
scipy:  /shared/centos7/python/3.8.1/lib/python3.8/site-packages/scipy (version 1.4.1)
units:  Angstrom and eV
cores: 64
OpenMP: False
OMP_NUM_THREADS: 1

Input parameters:
  convergence: {energy: 0.0001}
  kpts: [2 2 2]
  maxiter: 666
  mode: {ecut: 350.0,
         name: pw}
  occupations: {fixmagmom: False,
                name: fermi-dirac,
                width: 0.1}
  spinpol: True
  xc: PBE

System changes: positions, numbers, cell, pbc, initial_charges, initial_magmoms

Initialize ...

species:
  Co:
    name: Cobalt
    id: 339d20d5b0b93d2de9531a1bee871d91
    Z: 27.0
    valence: 9
    core: 18
    charge: 0.0
    file: /home/c.zeng/usr/data/gpaw-setups-0.9.20000/Co.PBE.gz
    compensation charges: {type: gauss,
                           rc: 0.32,
                           lmax: 2}
    cutoffs: {filter: 1.87,
              core: 2.55}
    valence states:
      #              energy  rcut
      - 4s(2.00)    -5.469   1.005
      - 4p(0.00)    -1.277   1.058
      - 3d(7.00)    -8.205   1.005
      -  s          21.742   1.005
      -  p          25.934   1.058
      -  d          19.007   1.005

    # Using partial waves for Co as LCAO basis

  Fe:
    name: Iron
    id: 37abbd8d6c3c35915a9b583b742da910
    Z: 26.0
    valence: 8
    core: 18
    charge: 0.0
    file: /home/c.zeng/usr/data/gpaw-setups-0.9.20000/Fe.PBE.gz
    compensation charges: {type: gauss,
                           rc: 0.33,
                           lmax: 2}
    cutoffs: {filter: 2.06,
              core: 2.67}
    valence states:
      #              energy  rcut
      - 4s(2.00)    -5.291   1.164
      - 4p(0.00)    -1.326   1.058
      - 3d(6.00)    -7.505   1.058
      -  s          21.920   1.164
      -  p          25.885   1.058
      -  d          19.706   1.058

[...]

  Cr:
    name: Chromium
    id: 33f258bda2ca9f93018e70263a35547b
    Z: 24.0
    valence: 6
    core: 18
    charge: 0.0
    file: /home/c.zeng/usr/data/gpaw-setups-0.9.20000/Cr.PBE.gz
    compensation charges: {type: gauss,
                           rc: 0.35,
                           lmax: 2}
    cutoffs: {filter: 2.14,
              core: 3.04}
    valence states:
      #              energy  rcut
      - 4s(1.00)    -4.007   1.164
      - 4p(0.00)    -0.989   1.217
      - 3d(5.00)    -2.913   1.111
      -  s          23.205   1.164
      -  p          26.223   1.217
      -  d          24.299   1.111

[...]

  Ni:
    name: Nickel
    id: 0d9f38a9d6e76a2886f07bb4381f212b
    Z: 28.0
    valence: 16
    core: 12
    charge: 0.0
    file: /home/c.zeng/usr/data/gpaw-setups-0.9.20000/Ni.PBE.gz
    compensation charges: {type: gauss,
                           rc: 0.36,
                           lmax: 2}
    cutoffs: {filter: 2.14,
              core: 1.98}
    valence states:
      #              energy  rcut
      - 4s(2.00)    -5.642   1.164
      - 3p(6.00)   -71.394   1.207
      - 4p(0.00)    -1.226   1.207
      - 3d(8.00)    -8.875   1.138
      -  s          21.570   1.164
      -  d          18.337   1.138

    # Using partial waves for Ni as LCAO basis

Reference energy: -3846758.590871  # eV

Spin-polarized calculation.
Magnetic moment: 151.200000

Convergence criteria:
 Maximum [total energy] change in last 3 cyles: 0.0001 eV / electron
 Maximum integral of absolute [dens]ity change: 0.0001 electrons / valence electron
 Maximum integral of absolute [eigenst]ate change: 4e-08 eV^2 / valence electron
 Maximum number of scf [iter]ations: 666
 (Square brackets indicate name in SCF output, whereas a 'c' in
 the SCF output indicates the quantity has converged.)

Symmetries present (total): 1

  ( 1  0  0)
  ( 0  1  0)
  ( 0  0  1)

8 k-points: 2 x 2 x 2 Monkhorst-Pack grid
4 k-points in the irreducible part of the Brillouin zone
       k-points in crystal coordinates                weights
   0:     0.25000000   -0.25000000   -0.25000000          2/8
   1:     0.25000000   -0.25000000    0.25000000          2/8
   2:     0.25000000    0.25000000   -0.25000000          2/8
   3:     0.25000000    0.25000000    0.25000000          2/8

Wave functions: Plane wave expansion
  Cutoff energy: 350.000 eV
  Number of coefficients (min, max): 20098, 20098
  Pulay-stress correction: 0.000000 eV/Ang^3 (de/decut=0.000000)
  Using FFTW library
  ScaLapack parameters: grid=1x1, blocksize=None
  Wavefunction extrapolation:
    Improved wavefunction reuse through dual PAW basis

Occupation numbers: Fermi-Dirac:
  width: 0.1000  # eV

Eigensolver
   Davidson(niter=2)

Densities:
  Coarse grid: 48*48*48 grid
  Fine grid: 96*96*96 grid
  Total Charge: 0.000000

Density mixing:
  Method: difference
  Backend: pulay
  Linear mixing parameter: 0.05
  old densities: 5
  Damping of long wavelength oscillations: 50

Hamiltonian:
  XC and Coulomb potentials evaluated on a 96*96*96 grid
  Using the PBE Exchange-Correlation functional
  External potential:
    NoExternalPotential

XC parameters: PBE with 2 nearest neighbor stencil

Total number of cores used: 64
Parallelization over k-points: 4
Domain decomposition: 4 x 2 x 2

Number of atoms: 108
Number of atomic orbitals: 1053
Number of bands in calculation: 727
Number of valence electrons: 1053
Bands to converge: occupied

... initialized

Initializing position-dependent things.

Density initialized from atomic densities
Creating initial wave functions:
  727 bands from LCAO basis set

       /|  Cr       Co       Cr    |
      Fe|      Fe     FeCr         |
     / CoFe              Co        |
    /   |       CrCr               |
   /    CoFeNi     FeCo     Cr     |
  /  Co |  Cr FeCr  CoNi Co  Cr    |
 Co   NiCrCr   CoNiFe   NiNi       |
 |Co    |NiCo   NiCoFe   CoCr     Fe
 |   Fe FeFeCr     CoNiCo   CrCr   |
 |     Cr  Ni   Cr  Ni       Ni    |
 |   Ni |    Fe       Fe Ni        |
 |    NiFeCr   FeFeNi CoFeCo       |
 |Ni    |CoCo   CrNiFe   NiNi     Co
 | CrCr .-CrCo-Cr--CoNiNi---Ni-----.
 |   FeFe    Co Fe     NiCo       /
 |    / CrFe     NiFe     Co     /
 |   /     Cr       Ni     Cr   /
 |Co/                          /
 | /rFe                 Ni    /
 |/    Fe                    /

Positions:
   0 Co     0.000016    0.000012   -0.000001    ( 0.0000,  0.0000,  2.1000)
   1 Co     0.000016    1.842721    1.842754    ( 0.0000,  0.0000,  2.1000)
   2 Fe     1.842732    0.000028    1.842765    ( 0.0000,  0.0000,  2.0000)
   3 Fe     1.842743    1.842732   11.056500    ( 0.0000,  0.0000,  2.0000)
   4 Cr     3.685485    0.000020   11.056489    ( 0.0000,  0.0000,  0.0000)
   5 Cr     3.685474    1.842732    1.842787    ( 0.0000,  0.0000,  0.0000)
   6 Co     5.528272   -0.000001    1.842765    ( 0.0000,  0.0000,  2.1000)
   7 Cr     5.528283    1.842732   11.056467    ( 0.0000,  0.0000,  0.0000)
   8 Fe     7.370993    0.000009   11.056489    ( 0.0000,  0.0000,  2.0000)
   9 Ni     7.371004    1.842732    1.842765    ( 0.0000,  0.0000,  1.5000)
  10 Ni     9.213757    0.000019    1.842765    ( 0.0000,  0.0000,  1.5000)
  11 Co     9.213735    1.842743   11.056489    ( 0.0000,  0.0000,  2.1000)
  12 Cr     0.000001    3.685507    0.000005    ( 0.0000,  0.0000,  0.0000)
  13 Fe    11.056500    5.528272    1.842732    ( 0.0000,  0.0000,  2.0000)
  14 Cr     1.842743    3.685496    1.842754    ( 0.0000,  0.0000,  0.0000)
  15 Fe     1.842754    5.528272   11.056489    ( 0.0000,  0.0000,  2.0000)
  16 Ni     3.685485    3.685529   11.056478    ( 0.0000,  0.0000,  1.5000)
  17 Co     3.685485    5.528272    1.842743    ( 0.0000,  0.0000,  2.1000)
  18 Ni     5.528261    3.685507    1.842776    ( 0.0000,  0.0000,  1.5000)
  19 Cr     5.528217    5.528272   11.056478    ( 0.0000,  0.0000,  0.0000)
  20 Co     7.371004    3.685474   11.056489    ( 0.0000,  0.0000,  2.1000)
  21 Ni     7.371015    5.528261    1.842776    ( 0.0000,  0.0000,  1.5000)
  22 Co     9.213735    3.685507    1.842754    ( 0.0000,  0.0000,  2.1000)
  23 Cr     9.213779    5.528239    0.000018    ( 0.0000,  0.0000,  0.0000)
  24 Fe     0.000022    7.370982   -0.000002    ( 0.0000,  0.0000,  2.0000)
  25 Co    -0.000004    9.213757    1.842765    ( 0.0000,  0.0000,  2.1000)
  26 Cr     1.842743    7.370959    1.842743    ( 0.0000,  0.0000,  0.0000)
  27 Cr     1.842721    9.213746   11.056478    ( 0.0000,  0.0000,  0.0000)
  28 Fe     3.685496    7.370959   11.056478    ( 0.0000,  0.0000,  2.0000)
  29 Cr     3.685518    9.213746    1.842776    ( 0.0000,  0.0000,  0.0000)
  30 Co     5.528250    7.371004    1.842754    ( 0.0000,  0.0000,  2.1000)
  31 Co     5.528272    9.213746   11.056478    ( 0.0000,  0.0000,  2.1000)
  32 Cr     7.370971    7.371015   -0.000001    ( 0.0000,  0.0000,  0.0000)
  33 Ni     7.370993    9.213757    1.842765    ( 0.0000,  0.0000,  1.5000)
  34 Ni     9.213757    7.370982    1.842765    ( 0.0000,  0.0000,  1.5000)
  35 Cr     9.213757    9.213768   11.056489    ( 0.0000,  0.0000,  0.0000)
  36 Fe     0.000012   11.056489    3.685496    ( 0.0000,  0.0000,  2.0000)
  37 Ni     0.000000    1.842732    5.528228    ( 0.0000,  0.0000,  1.5000)
  38 Cr     1.842732    0.000007    5.528206    ( 0.0000,  0.0000,  0.0000)
  39 Fe     1.842754    1.842732    3.685496    ( 0.0000,  0.0000,  2.0000)
  40 Fe     3.685496    0.000009    3.685485    ( 0.0000,  0.0000,  2.0000)
  41 Co     3.685507    1.842776    5.528206    ( 0.0000,  0.0000,  2.1000)
  42 Cr     5.528272    0.000021    5.528206    ( 0.0000,  0.0000,  0.0000)
  43 Fe     5.528261    1.842743    3.685518    ( 0.0000,  0.0000,  2.0000)
  44 Fe     7.370993    0.000007    3.685496    ( 0.0000,  0.0000,  2.0000)
  45 Fe     7.370993    1.842765    5.528239    ( 0.0000,  0.0000,  2.0000)
  46 Ni     9.213746    0.000012    5.528228    ( 0.0000,  0.0000,  1.5000)
  47 Co     9.213735    1.842732    3.685507    ( 0.0000,  0.0000,  2.1000)
  48 Cr     0.000009    3.685485    3.685507    ( 0.0000,  0.0000,  0.0000)
  49 Ni     0.000031    5.528261    5.528239    ( 0.0000,  0.0000,  1.5000)
  50 Fe     1.842765    3.685518    5.528239    ( 0.0000,  0.0000,  2.0000)
  51 Co     1.842765    5.528250    3.685518    ( 0.0000,  0.0000,  2.1000)
  52 Co     3.685507    3.685496    3.685541    ( 0.0000,  0.0000,  2.1000)
  53 Fe     3.685496    5.528250    5.528239    ( 0.0000,  0.0000,  2.0000)
  54 Fe     5.528261    3.685507    5.528239    ( 0.0000,  0.0000,  2.0000)
  55 Ni     5.528239    5.528261    3.685529    ( 0.0000,  0.0000,  1.5000)
  56 Ni     7.370993    3.685485    3.685529    ( 0.0000,  0.0000,  1.5000)
  57 Fe     7.370982    5.528239    5.528239    ( 0.0000,  0.0000,  2.0000)
  58 Co     9.213724    3.685496    5.528250    ( 0.0000,  0.0000,  2.1000)
  59 Ni     9.213735    5.528250    3.685496    ( 0.0000,  0.0000,  1.5000)
[...]
  93 Ni     7.370971    5.528239    9.213735    ( 0.0000,  0.0000,  1.5000)
  94 Ni     9.213724    3.685474    9.213757    ( 0.0000,  0.0000,  1.5000)
  95 Cr     9.213735    5.528239    7.370982    ( 0.0000,  0.0000,  0.0000)
  96 Ni     0.000039    7.371015    7.371004    ( 0.0000,  0.0000,  1.5000)
  97 Co     0.000012    9.213757    9.213746    ( 0.0000,  0.0000,  2.1000)
  98 Fe     1.842765    7.370982    9.213768    ( 0.0000,  0.0000,  2.0000)
  99 Cr     1.842721    9.213724    7.370993    ( 0.0000,  0.0000,  0.0000)
 100 Co     3.685507    7.370971    7.371004    ( 0.0000,  0.0000,  2.1000)
 101 Cr     3.685518    9.213724    9.213757    ( 0.0000,  0.0000,  0.0000)
 102 Fe     5.528228    7.371004    9.213746    ( 0.0000,  0.0000,  2.0000)
 103 Co     5.528272    9.213735    7.371026    ( 0.0000,  0.0000,  2.1000)
 104 Ni     7.370959    7.370993    7.370993    ( 0.0000,  0.0000,  1.5000)
 105 Co     7.370971    9.213779    9.213746    ( 0.0000,  0.0000,  2.1000)
 106 Cr     9.213768    7.370993    9.213757    ( 0.0000,  0.0000,  0.0000)
 107 Cr     9.213757    9.213768    7.370993    ( 0.0000,  0.0000,  0.0000)

Unit cell:
           periodic     x           y           z      points  spacing
  1. axis:    yes   11.056500    0.000000    0.000000    48     0.2303
  2. axis:    yes    0.000000   11.056500    0.000000    48     0.2303
  3. axis:    yes    0.000000    0.000000   11.056500    48     0.2303

  Lengths:  11.056500  11.056500  11.056500
  Angles:   90.000000  90.000000  90.000000

Effective grid spacing dv^(1/3) = 0.2303

     iter     time        total  log10-change:  magmom
                         energy  eigst   dens
iter:   1 15:59:19 -1108.040495                  +151.4725
iter:   2 16:00:40  -948.934954  -0.20  -1.18    +84.8212
iter:   3 16:02:04  -952.326420  -0.78  -1.20    +78.6452
iter:   4 16:03:29  -920.593244  -1.12  -1.26    +73.6739
iter:   5 16:04:50  -900.401730  -1.63  -1.28    +70.7120
iter:   6 16:06:11  -902.412153  -1.40  -1.36    +74.3928
iter:   7 16:07:33  -890.854977  -1.25  -1.41    +75.2235
iter:   8 16:08:55  -883.331795  -1.50  -1.54    +76.2382
iter:   9 16:10:17  -879.891782  -1.95  -1.73    +77.6398
iter:  10 16:11:40  -879.417275  -2.21  -1.79    +80.6683
iter:  11 16:13:02  -879.274547  -2.49  -1.84    +82.6249
iter:  12 16:14:23  -879.718062  -2.67  -1.89    +83.8481
iter:  13 16:15:45  -880.231185  -2.71  -1.92    +84.7075
iter:  14 16:17:05  -881.077563  -2.51  -1.96    +85.6336
iter:  15 16:18:28  -881.475461  -2.63  -2.04    +85.1973
iter:  16 16:19:51  -882.535139  -2.51  -2.08    +84.1558
iter:  17 16:21:12  -881.271852  -2.73  -2.04    +84.8402
iter:  18 16:22:34  -881.455025  -3.00  -2.22    +84.4900
iter:  19 16:23:55  -881.403601  -3.30  -2.25    +83.6613
iter:  20 16:25:16  -881.579003  -3.33  -2.32    +82.8487
iter:  21 16:26:37  -881.677137  -3.46  -2.37    +82.5787
iter:  22 16:27:58  -881.829784  -3.45  -2.37    +81.7717
iter:  23 16:29:19  -882.128507  -3.29  -2.42    +80.9751
iter:  24 16:30:40  -882.032216  -3.36  -2.39    +80.6648
iter:  25 16:32:01  -882.159046  -3.39  -2.49    +79.9774
iter:  26 16:33:22  -882.172172  -3.51  -2.50    +79.5870
iter:  27 16:34:44  -882.268125  -3.55  -2.58    +79.0351
iter:  28 16:36:05  -882.320398  -3.73  -2.60    +78.7155
iter:  29 16:37:26  -882.366020c -3.93  -2.61    +78.2910
iter:  30 16:38:48  -882.434285  -4.17  -2.64    +77.6332
iter:  31 16:40:08  -882.687067  -3.61  -2.65    +76.3959
iter:  32 16:41:29  -882.629510  -3.98  -2.54    +76.5720
iter:  33 16:42:52  -882.735041  -3.56  -2.64    +76.0860
iter:  34 16:44:15  -882.657255  -3.81  -2.65    +76.0550
iter:  35 16:45:35  -882.695312c -4.19  -2.85    +75.7262
iter:  36 16:46:58  -882.767022  -3.83  -2.88    +75.1546
iter:  37 16:48:19  -882.798341c -4.18  -2.86    +74.7104
iter:  38 16:49:39  -882.809688c -4.64  -2.86    +74.6334
iter:  39 16:51:00  -882.898133c -4.13  -2.87    +74.3192
iter:  40 16:52:20  -882.873441c -4.71  -2.74    +74.4364
iter:  41 16:53:39  -882.912317c -4.49  -2.77    +74.3653
iter:  42 16:55:00  -882.935484c -3.87  -2.73    +74.3726
iter:  43 16:56:21  -882.886406c -4.06  -2.72    +74.2355
iter:  44 16:57:41  -882.936877c -3.76  -2.85    +74.1007
iter:  45 16:59:02  -882.893491c -4.18  -2.79    +74.0701
iter:  46 17:00:23  -882.894877c -4.23  -2.91    +73.8892
iter:  47 17:01:43  -882.900473c -4.37  -2.95    +73.8806
iter:  48 17:03:02  -882.900623c -4.47  -2.99    +73.8162
iter:  49 17:04:23  -882.912173c -4.36  -3.04    +73.7445
iter:  50 17:05:44  -882.905651c -4.54  -2.99    +73.6917
iter:  51 17:07:04  -882.912007c -4.60  -3.11    +73.7557
iter:  52 17:08:23  -882.917824c -4.63  -3.11    +73.7128
iter:  53 17:09:40  -882.909865c -4.92  -3.09    +73.6023
iter:  54 17:11:00  -882.911021c -5.00  -3.21    +73.5590
iter:  55 17:12:20  -882.912676c -5.46  -3.24    +73.5455
iter:  56 17:13:42  -882.915120c -5.44  -3.28    +73.5259
iter:  57 17:15:03  -882.919016c -5.30  -3.33    +73.5202
iter:  58 17:16:22  -882.921679c -4.83  -3.37    +73.5079
iter:  59 17:17:44  -882.919389c -5.19  -3.42    +73.5065
iter:  60 17:19:04  -882.920488c -5.59  -3.57    +73.5145
iter:  61 17:20:24  -882.921983c -5.78  -3.69    +73.5277
iter:  62 17:21:45  -882.923200c -5.83  -3.69    +73.5282
iter:  63 17:23:06  -882.924250c -6.03  -3.72    +73.5337
iter:  64 17:24:25  -882.926774c -5.66  -3.76    +73.5328
iter:  65 17:25:46  -882.925900c -5.89  -3.70    +73.5337
iter:  66 17:27:05  -882.926864c -5.91  -3.79    +73.5277
iter:  67 17:28:26  -882.926724c -6.28  -3.82    +73.5258
iter:  68 17:29:46  -882.926930c -6.55  -3.96    +73.5274
iter:  69 17:31:04  -882.927135c -6.73  -4.01c   +73.5258
iter:  70 17:32:25  -882.927591c -6.74  -4.06c   +73.5247
iter:  71 17:33:45  -882.927590c -6.67  -4.12c   +73.5243
iter:  72 17:35:04  -882.927938c -6.76  -4.12c   +73.5227
iter:  73 17:36:24  -882.928208c -6.79  -4.20c   +73.5209
iter:  74 17:37:45  -882.928258c -6.99  -4.15c   +73.5208
iter:  75 17:39:02  -882.928330c -7.00  -4.28c   +73.5211
iter:  76 17:40:22  -882.928548c -7.14  -4.28c   +73.5203
iter:  77 17:41:44  -882.928689c -7.28  -4.35c   +73.5174
iter:  78 17:43:07  -882.928651c -7.21  -4.42c   +73.5184
iter:  79 17:44:29  -882.928869c -7.28  -4.36c   +73.5185
iter:  80 17:45:51  -882.928928c -7.51c -4.46c   +73.5184

Converged after 80 iterations.

Dipole moment: (-0.158701, 0.134010, -0.023472) |e|*Ang

Total magnetic moment: (0.000000, 0.000000, 73.518416)
Local magnetic moments:
   0 Co ( 0.000000,  0.000000,  1.595289)
   1 Co ( 0.000000,  0.000000,  1.330381)
   2 Fe ( 0.000000,  0.000000,  2.410137)
   3 Fe ( 0.000000,  0.000000,  2.258531)
   4 Cr ( 0.000000,  0.000000,  1.617512)
   5 Cr ( 0.000000,  0.000000, -2.183901)
   6 Co ( 0.000000,  0.000000,  1.248214)
   7 Cr ( 0.000000,  0.000000, -2.281211)
   8 Fe ( 0.000000,  0.000000,  2.668641)
   9 Ni ( 0.000000,  0.000000,  0.518164)
  10 Ni ( 0.000000,  0.000000,  0.604022)
  11 Co ( 0.000000,  0.000000,  1.755102)
  12 Cr ( 0.000000,  0.000000, -2.004026)
  13 Fe ( 0.000000,  0.000000,  2.304618)
  14 Cr ( 0.000000,  0.000000, -2.168178)
  15 Fe ( 0.000000,  0.000000,  2.286558)
  16 Ni ( 0.000000,  0.000000,  0.170688)
  17 Co ( 0.000000,  0.000000,  1.410992)
  18 Ni ( 0.000000,  0.000000,  0.352058)
  19 Cr ( 0.000000,  0.000000, -2.465082)
  20 Co ( 0.000000,  0.000000,  1.527906)
  21 Ni ( 0.000000,  0.000000,  0.397564)
  22 Co ( 0.000000,  0.000000,  1.523077)
  23 Cr ( 0.000000,  0.000000, -2.176917)
  24 Fe ( 0.000000,  0.000000,  2.373278)
  25 Co ( 0.000000,  0.000000,  1.453354)
  26 Cr ( 0.000000,  0.000000, -2.097096)
  27 Cr ( 0.000000,  0.000000, -1.964767)
  28 Fe ( 0.000000,  0.000000,  2.334186)
  29 Cr ( 0.000000,  0.000000, -2.037989)
  30 Co ( 0.000000,  0.000000,  1.500461)
  31 Co ( 0.000000,  0.000000,  1.181895)
  32 Cr ( 0.000000,  0.000000,  1.984174)
  33 Ni ( 0.000000,  0.000000,  0.511728)
  34 Ni ( 0.000000,  0.000000,  0.386627)
  35 Cr ( 0.000000,  0.000000, -2.415208)
  36 Fe ( 0.000000,  0.000000,  2.706551)
  37 Ni ( 0.000000,  0.000000,  0.361149)
  38 Cr ( 0.000000,  0.000000, -2.131705)
  39 Fe ( 0.000000,  0.000000,  2.325241)
  40 Fe ( 0.000000,  0.000000,  2.542772)
  41 Co ( 0.000000,  0.000000,  0.969024)
  42 Cr ( 0.000000,  0.000000, -2.281795)
  43 Fe ( 0.000000,  0.000000,  2.572249)
  44 Fe ( 0.000000,  0.000000,  2.765269)
  45 Fe ( 0.000000,  0.000000,  2.615359)
  46 Ni ( 0.000000,  0.000000,  0.535962)
  47 Co ( 0.000000,  0.000000,  1.719296)
  48 Cr ( 0.000000,  0.000000, -2.339242)
  49 Ni ( 0.000000,  0.000000,  0.240467)
  50 Fe ( 0.000000,  0.000000,  2.453477)
  51 Co ( 0.000000,  0.000000,  1.395976)
  52 Co ( 0.000000,  0.000000,  1.403177)
  53 Fe ( 0.000000,  0.000000,  2.654281)
  54 Fe ( 0.000000,  0.000000,  2.531915)
  55 Ni ( 0.000000,  0.000000,  0.624943)
  56 Ni ( 0.000000,  0.000000,  0.585553)
  57 Fe ( 0.000000,  0.000000,  2.637613)
  58 Co ( 0.000000,  0.000000,  1.482088)
  59 Ni ( 0.000000,  0.000000,  0.438894)
[...]
  93 Ni ( 0.000000,  0.000000,  0.266814)
  94 Ni ( 0.000000,  0.000000,  0.229962)
  95 Cr ( 0.000000,  0.000000, -2.293137)
  96 Ni ( 0.000000,  0.000000,  0.213517)
  97 Co ( 0.000000,  0.000000,  1.080974)
  98 Fe ( 0.000000,  0.000000,  2.369521)
  99 Cr ( 0.000000,  0.000000, -2.226547)
 100 Co ( 0.000000,  0.000000,  1.494222)
 101 Cr ( 0.000000,  0.000000, -2.109751)
 102 Fe ( 0.000000,  0.000000,  2.584255)
 103 Co ( 0.000000,  0.000000,  1.478385)
 104 Ni ( 0.000000,  0.000000,  0.265595)
 105 Co ( 0.000000,  0.000000,  1.361099)
 106 Cr ( 0.000000,  0.000000,  2.055037)
 107 Cr ( 0.000000,  0.000000, -2.361861)

Energy contributions relative to reference atoms: (reference = -3846758.590871)

Kinetic:       -194.696291
Potential:      +67.367576
External:        +0.000000
XC:            -791.469345
Entropy (-ST):   -4.656807
Local:          +38.197535
Free energy:   -885.257332
Extrapolated:  -882.928928

Spin contamination: 54.446918 electrons
Showing only first 2 kpts
                      Up                     Down
 Kpt  Band  Eigenvalues  Occupancy  Eigenvalues  Occupancy
  0   524      8.08684    0.99910      9.14713    0.02696
  0   525      8.09394    0.99904      9.16116    0.02351
  0   526      8.10551    0.99892      9.17021    0.02152
  0   527      8.11489    0.99881      9.17587    0.02036

  1   524      8.07777    0.99918      9.14417    0.02774
  1   525      8.09740    0.99900      9.15972    0.02384
  1   526      8.09977    0.99898      9.16747    0.02210
  1   527      8.10740    0.99890      9.17834    0.01987

Fermi level: 8.78851

No gap

Forces in eV/Ang:
  0 Co   -0.03899   -0.07459   -0.04678
  1 Co   -0.19858    0.11877   -0.00062
  2 Fe   -0.39914   -0.10795   -0.03722
  3 Fe   -0.18017    0.23177    0.17608
  4 Cr    0.17341   -0.38044    0.08372
  5 Cr    0.13070   -0.27947    0.37839
  6 Co    0.13538   -0.14360    0.05206
  7 Cr    0.27567    0.12235   -0.29436
  8 Fe   -0.11049   -0.20474    0.28845
  9 Ni    0.15122    0.11748   -0.00199
 10 Ni    0.03312    0.12175   -0.02453
 11 Co    0.15514   -0.06654    0.12731
 12 Cr   -0.08867   -0.27940   -0.53953
 13 Fe   -0.03502   -0.09446    0.19133
 14 Cr    0.40147    0.49321   -0.21902
 15 Fe    0.07586   -0.09265    0.29928
 16 Ni   -0.11428   -0.09133    0.00999
 17 Co    0.09096   -0.11319    0.18870
 18 Ni    0.03210   -0.02091    0.04186
 19 Cr    0.08938   -0.09915    0.16330
 20 Co    0.08547   -0.07373    0.03654
 21 Ni    0.12355   -0.04639    0.11181
 22 Co   -0.02837   -0.27928   -0.14850
 23 Cr   -0.32343    0.29027   -0.14555
 24 Fe    0.21634    0.26697    0.24530
 25 Co   -0.00443    0.01995    0.08987
 26 Cr   -0.32374   -0.53644    0.22225
 27 Cr   -0.89641    0.37166   -0.03687
 28 Fe    0.09849    0.36532    0.49296
 29 Cr    0.72491    0.38767    0.08127
 30 Co   -0.21347    0.08838    0.06198
 31 Co   -0.01265   -0.10024    0.25963
 32 Cr   -0.07693    0.08631    0.66424
 33 Ni   -0.15558    0.06444    0.09173
 34 Ni    0.03227    0.05284    0.01598
 35 Cr    0.19084   -0.12399    0.08741
 36 Fe   -0.30416    0.01683   -0.20384
 37 Ni   -0.09583   -0.06341    0.02338
 38 Cr    0.14371    0.46415   -0.28775
 39 Fe    0.02340    0.35820    0.06041
 40 Fe    0.11650   -0.39087    0.06336
 41 Co    0.10074    0.29897   -0.18465
 42 Cr   -0.17780   -0.43087   -0.19666
 43 Fe   -0.01083    0.37092   -0.19348
 44 Fe    0.17482   -0.32367   -0.28177
 45 Fe    0.32441    0.28685    0.26617
 46 Ni    0.03764   -0.04311   -0.03184
 47 Co   -0.03416    0.14030   -0.14135
 48 Cr   -0.44920   -0.03314    0.32339
 49 Ni    0.00655   -0.00742    0.02512
 50 Fe   -0.09152    0.05567   -0.08545
 51 Co    0.14570   -0.14091    0.04137
 52 Co   -0.09579    0.08044   -0.14037
 53 Fe    0.19036    0.07201    0.04056
 54 Fe   -0.17464    0.02089    0.06662
 55 Ni   -0.07609   -0.02962   -0.11212
 56 Ni    0.05153   -0.05910    0.06847
 57 Fe   -0.15764   -0.16632    0.07809
 58 Co   -0.13740   -0.09475   -0.06965
 59 Ni   -0.01930   -0.03828    0.00185
[...]
 93 Ni   -0.10249   -0.19450   -0.09370
 94 Ni    0.02430   -0.01376    0.15329
 95 Cr   -0.19148   -0.04250    0.43093
 96 Ni   -0.05004   -0.04657    0.06663
 97 Co    0.20173    0.20899   -0.07293
 98 Fe   -0.29827    0.10803   -0.32396
 99 Cr   -0.32329   -0.15045    0.11024
100 Co    0.22403    0.23397    0.04093
101 Cr    0.94528   -0.18783   -0.01979
102 Fe    0.03917    0.18781   -0.54532
103 Co    0.16021   -0.14020   -0.14810
104 Ni   -0.03874    0.17406   -0.06725
105 Co   -0.28943    0.28965   -0.37715
106 Cr    0.02389   -0.03771   -0.69690
107 Cr   -0.02857    0.44571    0.57186

Date: Sat Apr  8 17:46:13 2023