User:   c.zeng@d0014
Date:   Fri Apr 14 09:57:37 2023
Arch:   x86_64
Pid:    205469
CWD:    /home/c.zeng/projects/hea-corrosion/hea-mlp/data-curation/bulk-mcmc/dft-jobs/121
Python: 3.8.1
gpaw:   /home/c.zeng/usr/installs/gpaw/source/gpaw-22.8.0/gpaw
_gpaw:  /home/c.zeng/usr/installs/gpaw/source/gpaw-22.8.0/
        _gpaw.cpython-38-x86_64-linux-gnu.so
ase:    /home/c.zeng/.local/lib/python3.8/site-packages/ase-3.22.1-py3.8.egg/ase (version 3.22.1)
numpy:  /shared/centos7/python/3.8.1/lib/python3.8/site-packages/numpy (version 1.17.4)
scipy:  /shared/centos7/python/3.8.1/lib/python3.8/site-packages/scipy (version 1.4.1)
units:  Angstrom and eV
cores: 30
OpenMP: False
OMP_NUM_THREADS: 1

Input parameters:
  convergence: {energy: 0.0001}
  kpts: [2 2 2]
  maxiter: 666
  mode: {ecut: 350.0,
         name: pw}
  occupations: {fixmagmom: False,
                name: fermi-dirac,
                width: 0.1}
  spinpol: True
  xc: PBE

System changes: positions, numbers, cell, pbc, initial_charges, initial_magmoms

Initialize ...

species:
  Co:
    name: Cobalt
    id: 339d20d5b0b93d2de9531a1bee871d91
    Z: 27.0
    valence: 9
    core: 18
    charge: 0.0
    file: /home/c.zeng/usr/data/gpaw-setups-0.9.20000/Co.PBE.gz
    compensation charges: {type: gauss,
                           rc: 0.32,
                           lmax: 2}
    cutoffs: {filter: 1.87,
              core: 2.55}
    valence states:
      #              energy  rcut
      - 4s(2.00)    -5.469   1.005
      - 4p(0.00)    -1.277   1.058
      - 3d(7.00)    -8.205   1.005
      -  s          21.742   1.005
      -  p          25.934   1.058
      -  d          19.007   1.005

    # Using partial waves for Co as LCAO basis

  Fe:
    name: Iron
    id: 37abbd8d6c3c35915a9b583b742da910
    Z: 26.0
    valence: 8
    core: 18
    charge: 0.0
    file: /home/c.zeng/usr/data/gpaw-setups-0.9.20000/Fe.PBE.gz
    compensation charges: {type: gauss,
                           rc: 0.33,
                           lmax: 2}
    cutoffs: {filter: 2.06,
              core: 2.67}
    valence states:
      #              energy  rcut
      - 4s(2.00)    -5.291   1.164
      - 4p(0.00)    -1.326   1.058
      - 3d(6.00)    -7.505   1.058
      -  s          21.920   1.164
      -  p          25.885   1.058
      -  d          19.706   1.058

[...]

  Ni:
    name: Nickel
    id: 0d9f38a9d6e76a2886f07bb4381f212b
    Z: 28.0
    valence: 16
    core: 12
    charge: 0.0
    file: /home/c.zeng/usr/data/gpaw-setups-0.9.20000/Ni.PBE.gz
    compensation charges: {type: gauss,
                           rc: 0.36,
                           lmax: 2}
    cutoffs: {filter: 2.14,
              core: 1.98}
    valence states:
      #              energy  rcut
      - 4s(2.00)    -5.642   1.164
      - 3p(6.00)   -71.394   1.207
      - 4p(0.00)    -1.226   1.207
      - 3d(8.00)    -8.875   1.138
      -  s          21.570   1.164
      -  d          18.337   1.138

[...]

  Al:
    name: Aluminium
    id: 0292cae29f5d6237e50f6abdd43a7bdd
    Z: 13.0
    valence: 3
    core: 10
    charge: 0.0
    file: /home/c.zeng/usr/data/gpaw-setups-0.9.20000/Al.PBE.gz
    compensation charges: {type: gauss,
                           rc: 0.34,
                           lmax: 2}
    cutoffs: {filter: 1.91,
              core: 2.36}
    valence states:
      #              energy  rcut
      - 3s(2.00)    -7.753   1.085
      - 3p(1.00)    -2.712   1.085
      -  s          19.459   1.085
      -  p          24.499   1.085
      -  d           0.000   1.085

[...]

  Cr:
    name: Chromium
    id: 33f258bda2ca9f93018e70263a35547b
    Z: 24.0
    valence: 6
    core: 18
    charge: 0.0
    file: /home/c.zeng/usr/data/gpaw-setups-0.9.20000/Cr.PBE.gz
    compensation charges: {type: gauss,
                           rc: 0.35,
                           lmax: 2}
    cutoffs: {filter: 2.14,
              core: 3.04}
    valence states:
      #              energy  rcut
      - 4s(1.00)    -4.007   1.164
      - 4p(0.00)    -0.989   1.217
      - 3d(5.00)    -2.913   1.111
      -  s          23.205   1.164
      -  p          26.223   1.217
      -  d          24.299   1.111

    # Using partial waves for Cr as LCAO basis

Reference energy: -3548577.034362  # eV

Spin-polarized calculation.
Magnetic moment: 136.400000

Convergence criteria:
 Maximum [total energy] change in last 3 cyles: 0.0001 eV / electron
 Maximum integral of absolute [dens]ity change: 0.0001 electrons / valence electron
 Maximum integral of absolute [eigenst]ate change: 4e-08 eV^2 / valence electron
 Maximum number of scf [iter]ations: 666
 (Square brackets indicate name in SCF output, whereas a 'c' in
 the SCF output indicates the quantity has converged.)

Symmetries present (total): 1

  ( 1  0  0)
  ( 0  1  0)
  ( 0  0  1)

8 k-points: 2 x 2 x 2 Monkhorst-Pack grid
4 k-points in the irreducible part of the Brillouin zone
       k-points in crystal coordinates                weights
   0:     0.25000000   -0.25000000   -0.25000000          2/8
   1:     0.25000000   -0.25000000    0.25000000          2/8
   2:     0.25000000    0.25000000   -0.25000000          2/8
   3:     0.25000000    0.25000000    0.25000000          2/8

Wave functions: Plane wave expansion
  Cutoff energy: 350.000 eV
  Number of coefficients (min, max): 18331, 18331
  Pulay-stress correction: 0.000000 eV/Ang^3 (de/decut=0.000000)
  Using FFTW library
  ScaLapack parameters: grid=1x1, blocksize=None
  Wavefunction extrapolation:
    Improved wavefunction reuse through dual PAW basis

Occupation numbers: Fermi-Dirac:
  width: 0.1000  # eV

Eigensolver
   Davidson(niter=2)

Densities:
  Coarse grid: 48*48*48 grid
  Fine grid: 96*96*96 grid
  Total Charge: 0.000000

Density mixing:
  Method: difference
  Backend: pulay
  Linear mixing parameter: 0.05
  old densities: 5
  Damping of long wavelength oscillations: 50

Hamiltonian:
  XC and Coulomb potentials evaluated on a 96*96*96 grid
  Using the PBE Exchange-Correlation functional
  External potential:
    NoExternalPotential

XC parameters: PBE with 2 nearest neighbor stencil

Total number of cores used: 30
Parallelization over k-points: 2
Domain decomposition: 5 x 3 x 1

Number of atoms: 108
Number of atomic orbitals: 994
Number of bands in calculation: 674
Number of valence electrons: 980
Bands to converge: occupied

... initialized

Initializing position-dependent things.

Density initialized from atomic densities
Creating initial wave functions:
  674 bands from LCAO basis set

        Co-------Co---------------.
       /|  Co       Fe            |
      / |   AlCr     CrCo     CrCo|
     / Ni       CAl     Al        |
    /   CCo      Ni      FAl      |
   /    | CoCo     Co      CoCo   |
  /   Co|  NiFeAl   NiNi    CrCr  |
 *      Cr  CrCoNi   CoNiNi   FeNi|
 |Fe   NiNiCr   CrACr   FeCr      |
 | Fe   | NiNi   NiNiCr    Cr     |
 |     Co  CoFeNi   FeNiAl  NiNi  |
 |      Fe    FeNi   FeAlFe   AlCr|
 |Cr    |CoNi   NFeFe   FeFe     Fe
 |      .-FeCr-----FeCr--FeCoNi---.
 |     Cr    CoCr     FeCo  Cr Fe/
 |    / Al      Co       Cr     /
 Cr  /            Cr           /
 |  /      Ni      Cr       Fe/
 | / Co              Fe      /
 |/                     Co  /

Positions:
   0 Co    10.732479   -0.010418   10.721263    ( 0.0000,  0.0000,  2.1000)
   1 Fe    10.706231    1.787006    1.816653    ( 0.0000,  0.0000,  1.5000)
   2 Co     1.827923    0.046024    1.820803    ( 0.0000,  0.0000,  0.0000)
   3 Co     1.781666    1.794790   10.668295    ( 0.0000,  0.0000,  0.0000)
   4 Co     3.605675   -0.024615   10.696977    ( 0.0000,  0.0000,  0.0000)
   5 Ni     3.626284    1.755611    1.827590    ( 0.0000,  0.0000,  2.0000)
   6 Fe     5.347186   -0.032870    1.798425    ( 0.0000,  0.0000,  2.0000)
   7 Al     5.383406    1.755353   -0.004078    ( 0.0000,  0.0000,  2.0000)
   8 Fe     7.108694   -0.021619    0.052076    ( 0.0000,  0.0000,  0.0000)
   9 Cr     7.129131    1.783639    1.838109    ( 0.0000,  0.0000,  2.0000)
  10 Al     8.928414   -0.004386    1.840918    ( 0.0000,  0.0000,  2.0000)
  11 Co     8.945645    1.852509    0.063651    ( 0.0000,  0.0000,  0.0000)
  12 Co    10.721403    3.615743   10.707625    ( 0.0000,  0.0000,  2.1000)
  13 Fe    10.714905    5.407607    1.816064    ( 0.0000,  0.0000,  2.0000)
  14 Al     1.786931    3.537020    1.885127    ( 0.0000,  0.0000,  0.0000)
  15 Co     1.774396    5.426328   10.657058    ( 0.0000,  0.0000,  0.0000)
  16 Co     3.564340    3.564490   10.690115    ( 0.0000,  0.0000,  0.0000)
  17 Co     3.570334    5.434059    1.813919    ( 0.0000,  0.0000,  0.0000)
  18 Co     5.350145    3.574934    1.808708    ( 0.0000,  0.0000,  0.0000)
  19 Al     5.345084    5.410577   10.703464    ( 0.0000,  0.0000,  2.1000)
  20 Fe     7.157695    3.624514    0.002553    ( 0.0000,  0.0000,  2.1000)
  21 Fe     7.157792    5.380200    1.803904    ( 0.0000,  0.0000,  0.0000)
  22 Cr     8.944980    3.620622    1.842988    ( 0.0000,  0.0000,  0.0000)
  23 Al     8.940316    5.370571   -0.005231    ( 0.0000,  0.0000,  0.0000)
  24 Co    10.674578    7.138041   10.683446    ( 0.0000,  0.0000,  2.0000)
  25 Fe    10.668413    8.869012    1.800001    ( 0.0000,  0.0000,  0.0000)
  26 Fe     1.807904    7.157309    1.806960    ( 0.0000,  0.0000,  1.5000)
  27 Co     1.808086    8.895217   10.689064    ( 0.0000,  0.0000,  0.0000)
  28 Cr     3.612462    7.185391   10.698339    ( 0.0000,  0.0000,  2.0000)
  29 Ni     3.598277    8.905404    1.808097    ( 0.0000,  0.0000,  1.5000)
  30 Fe     5.362229    7.149643    1.778835    ( 0.0000,  0.0000,  2.1000)
  31 Fe     5.368084    8.904170   10.708750    ( 0.0000,  0.0000,  2.0000)
  32 Co     7.127640    7.124156   10.700741    ( 0.0000,  0.0000,  2.0000)
  33 Fe     7.139982    8.914904    1.783157    ( 0.0000,  0.0000,  0.0000)
  34 Co     8.884516    7.107975    1.798232    ( 0.0000,  0.0000,  2.0000)
  35 Cr     8.895410    8.880302    0.005476    ( 0.0000,  0.0000,  0.0000)
  36 Cr    10.737840    0.006469    3.587908    ( 0.0000,  0.0000,  1.5000)
  37 Cr     0.009110    1.816214    5.359506    ( 0.0000,  0.0000,  1.5000)
  38 Cr     1.833434   -0.010553    5.335488    ( 0.0000,  0.0000,  2.1000)
  39 Cr     1.814369    1.777409    3.664755    ( 0.0000,  0.0000,  1.5000)
  40 Ni     3.608002   -0.027958    3.615958    ( 0.0000,  0.0000,  2.1000)
  41 Ni     3.597397    1.774364    5.368180    ( 0.0000,  0.0000,  1.5000)
  42 Co     5.355185   -0.018813    5.365682    ( 0.0000,  0.0000,  2.1000)
  43 Cr     5.354005    1.762698    3.609396    ( 0.0000,  0.0000,  1.5000)
  44 Cr     7.096449    0.004839    3.553950    ( 0.0000,  0.0000,  0.0000)
  45 Fe     7.124574    1.817747    5.354692    ( 0.0000,  0.0000,  2.1000)
  46 Fe     8.888698   10.712332    5.289714    ( 0.0000,  0.0000,  0.0000)
  47 Co     8.931727    1.815495    3.558979    ( 0.0000,  0.0000,  1.5000)
  48 Ni    10.700248    3.599864    3.631730    ( 0.0000,  0.0000,  0.0000)
  49 Ni    -0.007893    5.382698    5.388017    ( 0.0000,  0.0000,  2.0000)
  50 Fe     1.794265    3.594073    5.365264    ( 0.0000,  0.0000,  2.0000)
  51 Co     1.782020    5.398675    3.628600    ( 0.0000,  0.0000,  1.5000)
[...]
 106 Co     8.907419    7.146362    8.906765    ( 0.0000,  0.0000,  2.0000)
 107 Cr     8.922313    8.892279    7.115031    ( 0.0000,  0.0000,  2.0000)

Unit cell:
           periodic     x           y           z      points  spacing
  1. axis:    yes   10.722400    0.000000    0.000000    48     0.2234
  2. axis:    yes    0.000000   10.722400    0.000000    48     0.2234
  3. axis:    yes    0.000000    0.000000   10.722400    48     0.2234

  Lengths:  10.722400  10.722400  10.722400
  Angles:   90.000000  90.000000  90.000000

Effective grid spacing dv^(1/3) = 0.2234

     iter     time        total  log10-change:  magmom
                         energy  eigst   dens
iter:   1 10:03:12  -924.951742                  +135.8763
iter:   2 10:05:43  -892.842650  -0.47  -1.32    +98.5914
iter:   3 10:08:15  -889.227863  -0.86  -1.31    +68.9968
iter:   4 10:10:46  -858.002694  -1.41  -1.31    +59.7919
iter:   5 10:13:18  -856.061638  -1.79  -1.45    +53.5467
iter:   6 10:15:50  -855.170158  -1.95  -1.46    +50.9104
iter:   7 10:18:21  -856.690213  -1.67  -1.51    +49.3991
iter:   8 10:20:52  -851.591134  -1.67  -1.52    +48.7013
iter:   9 10:23:20  -864.063578  -1.64  -1.68    +48.6757
iter:  10 10:25:52  -850.419737  -1.84  -1.57    +47.9698
iter:  11 10:28:24  -849.480366  -2.26  -1.82    +48.0381
iter:  12 10:30:56  -848.980112  -2.54  -1.85    +48.4275
iter:  13 10:33:28  -850.073380  -2.42  -1.90    +48.8921
iter:  14 10:36:00  -849.353635  -2.61  -1.88    +49.6529
iter:  15 10:38:32  -851.542688  -2.43  -1.97    +50.0977
iter:  16 10:41:04  -851.368016  -2.39  -1.93    +50.9642
iter:  17 10:43:38  -850.960691  -2.45  -1.93    +50.9124
iter:  18 10:46:10  -849.908486  -2.72  -1.98    +51.5496
iter:  19 10:48:42  -850.133881  -2.73  -2.07    +52.3135
iter:  20 10:51:14  -849.436136  -3.10  -2.07    +52.8147
iter:  21 10:53:46  -849.596903  -3.33  -2.17    +53.7394
iter:  22 10:56:18  -849.854001  -3.28  -2.20    +54.2837
iter:  23 10:58:50  -849.931867  -3.31  -2.18    +54.8779
iter:  24 11:01:22  -850.245466  -3.12  -2.22    +55.4652
iter:  25 11:03:54  -850.904008  -2.98  -2.24    +55.6292
iter:  26 11:06:25  -850.905191  -2.88  -2.16    +56.4304
iter:  27 11:08:57  -850.792827  -3.02  -2.22    +56.8395
iter:  28 11:11:29  -850.835270  -3.08  -2.24    +57.6367
iter:  29 11:14:00  -850.669083  -3.34  -2.28    +57.7206
iter:  30 11:16:32  -850.646099  -3.81  -2.35    +58.2290
iter:  31 11:19:01  -850.779164  -3.73  -2.39    +58.7538
iter:  32 11:21:33  -850.866913  -3.92  -2.40    +59.3327
iter:  33 11:24:05  -851.092262  -3.58  -2.42    +59.8724
iter:  34 11:26:38  -851.193812  -3.46  -2.40    +60.0319
iter:  35 11:29:09  -851.534486  -3.22  -2.50    +60.1779
iter:  36 11:31:42  -851.285169  -3.30  -2.41    +59.9206
iter:  37 11:34:14  -851.340898  -3.48  -2.54    +60.1082
iter:  38 11:36:46  -851.347239c -3.58  -2.62    +60.3142
iter:  39 11:39:18  -851.302621c -3.73  -2.62    +60.4119
iter:  40 11:41:52  -851.287401c -4.11  -2.69    +60.5014
iter:  41 11:44:24  -851.300418c -4.24  -2.84    +60.5059
iter:  42 11:46:56  -851.311284c -4.48  -2.89    +60.6867
iter:  43 11:49:29  -851.333763c -4.68  -2.91    +60.7322
iter:  44 11:52:01  -851.418528  -3.82  -2.96    +60.8579
iter:  45 11:54:34  -851.465655  -3.90  -2.93    +61.0195
iter:  46 11:57:05  -851.471676c -4.56  -2.88    +61.0939
iter:  47 11:59:37  -851.481198c -4.71  -2.91    +61.1343
iter:  48 12:02:10  -851.491536c -4.78  -2.91    +61.2166
iter:  49 12:04:42  -851.550446c -4.17  -2.87    +61.2558
iter:  50 12:07:14  -851.589348c -3.89  -2.80    +61.2482
iter:  51 12:09:46  -851.514136c -4.15  -2.74    +61.2584
iter:  52 12:12:16  -851.550960c -4.16  -2.96    +61.3171
iter:  53 12:14:45  -851.531866c -4.15  -2.88    +61.2569
iter:  54 12:17:17  -851.524902c -4.41  -3.02    +61.2794
iter:  55 12:19:50  -851.528363c -4.81  -3.09    +61.3654
iter:  56 12:22:22  -851.540670c -4.87  -3.17    +61.4200
iter:  57 12:24:54  -851.543258c -5.23  -3.21    +61.4323
iter:  58 12:27:27  -851.554186c -5.00  -3.19    +61.4932
iter:  59 12:29:59  -851.564170c -4.94  -3.23    +61.5649
iter:  60 12:32:32  -851.585611c -4.68  -3.30    +61.7215
iter:  61 12:35:05  -851.587665c -5.08  -3.25    +61.7279
iter:  62 12:37:37  -851.597451c -5.01  -3.24    +61.8225
iter:  63 12:40:10  -851.611540c -5.10  -3.29    +61.9060
iter:  64 12:42:43  -851.589799c -4.98  -3.23    +61.7158
iter:  65 12:45:16  -851.632425c -4.30  -3.34    +62.0968
iter:  66 12:47:48  -851.637496c -4.85  -3.21    +62.1665
iter:  67 12:50:21  -851.644024c -4.77  -3.22    +62.2815
iter:  68 12:52:53  -851.653111c -4.81  -3.23    +62.4021
iter:  69 12:55:25  -851.660930c -4.89  -3.16    +62.3928
iter:  70 12:57:57  -851.691072c -4.36  -3.16    +62.4129
iter:  71 13:00:30  -851.674232c -4.49  -2.93    +62.4381
iter:  72 13:03:02  -851.671995c -4.43  -3.06    +62.4266
iter:  73 13:05:34  -851.688369c -4.31  -3.07    +62.4434
iter:  74 13:08:07  -851.672913c -4.35  -2.98    +62.5087
iter:  75 13:10:39  -851.660534c -4.64  -3.08    +62.5452
iter:  76 13:13:11  -851.662690c -5.20  -3.34    +62.5548
iter:  77 13:15:41  -851.664784c -5.40  -3.38    +62.6054
iter:  78 13:18:12  -851.666741c -5.64  -3.39    +62.6349
iter:  79 13:20:44  -851.668169c -5.94  -3.44    +62.6533
iter:  80 13:23:16  -851.675682c -5.11  -3.46    +62.7403
iter:  81 13:25:49  -851.674000c -5.67  -3.39    +62.7172
iter:  82 13:28:20  -851.680059c -5.29  -3.51    +62.7600
iter:  83 13:30:52  -851.685746c -5.06  -3.53    +62.7718
iter:  84 13:33:25  -851.683099c -5.45  -3.45    +62.7719
iter:  85 13:35:58  -851.687249c -5.44  -3.69    +62.8118
iter:  86 13:38:32  -851.687984c -5.97  -3.74    +62.8192
iter:  87 13:41:04  -851.692073c -5.54  -3.75    +62.8686
iter:  88 13:43:37  -851.694567c -5.83  -3.81    +62.8896
iter:  89 13:46:09  -851.689777c -5.76  -3.80    +62.8226
iter:  90 13:48:42  -851.699290c -5.19  -3.78    +62.9265
iter:  91 13:51:14  -851.687596c -5.06  -3.73    +62.7928
iter:  92 13:53:47  -851.669591c -4.44  -3.81    +62.5301
iter:  93 13:56:19  -851.677032c -5.52  -3.79    +62.6413
iter:  94 13:58:52  -851.675801c -6.45  -3.90    +62.6188
iter:  95 14:01:24  -851.681689c -5.50  -3.94    +62.6947
iter:  96 14:03:56  -851.667239c -4.74  -3.95    +62.5320
iter:  97 14:06:29  -851.633896c -3.61  -3.89    +61.9371
iter:  98 14:09:01  -851.630461c -4.19  -3.45    +61.7513
iter:  99 14:11:33  -851.626185c -3.92  -3.38    +61.3241
iter: 100 14:14:05  -851.626522c -4.40  -3.25    +61.1783
iter: 101 14:16:36  -851.627653c -4.68  -3.21    +61.0849
iter: 102 14:19:07  -851.622631c -5.05  -3.19    +61.0410
iter: 103 14:21:40  -851.619699c -5.23  -3.21    +61.0531
iter: 104 14:24:12  -851.623921c -4.67  -3.19    +61.0476
iter: 105 14:26:45  -851.626151c -4.52  -3.12    +61.0580
[...]
iter: 108 14:34:22  -851.612789c -5.25  -3.36    +61.2902
iter: 109 14:36:54  -851.614900c -5.22  -3.41    +61.3661
iter: 110 14:39:26  -851.613027c -5.23  -3.36    +61.4005
iter: 111 14:41:59  -851.613671c -5.13  -3.49    +61.4079
iter: 112 14:44:32  -851.613459c -5.18  -3.40    +61.4457
iter: 113 14:47:04  -851.614838c -5.26  -3.51    +61.4650
iter: 114 14:49:36  -851.611869c -5.43  -3.48    +61.4952
iter: 115 14:52:09  -851.613904c -5.44  -3.61    +61.5531
iter: 116 14:54:41  -851.612369c -5.81  -3.55    +61.5755
iter: 117 14:57:13  -851.612827c -5.86  -3.83    +61.6311
iter: 118 14:59:46  -851.612902c -6.30  -3.82    +61.6471
iter: 119 15:02:18  -851.613510c -6.12  -3.95    +61.6719
iter: 120 15:04:49  -851.614110c -6.13  -3.85    +61.6811
iter: 121 15:07:17  -851.613841c -6.16  -3.90    +61.6973
iter: 122 15:09:49  -851.614207c -6.27  -3.98    +61.7212
iter: 123 15:12:21  -851.614670c -6.18  -4.02c   +61.7338
iter: 124 15:14:53  -851.614737c -6.43  -3.99    +61.7460
iter: 125 15:17:24  -851.615114c -6.30  -4.14c   +61.7625
iter: 126 15:19:56  -851.614944c -7.08  -4.15c   +61.7591
iter: 127 15:22:28  -851.615575c -6.44  -4.23c   +61.7800
iter: 128 15:25:00  -851.614865c -6.44  -4.23c   +61.7516
iter: 129 15:27:31  -851.611192c -4.53  -4.30c   +61.5254
iter: 130 15:30:03  -851.610177c -4.67  -3.98    +61.3796
iter: 131 15:32:35  -851.610237c -5.39  -3.80    +61.3560
iter: 132 15:35:07  -851.610403c -5.53  -3.77    +61.3089
iter: 133 15:37:40  -851.610742c -5.79  -3.73    +61.2905
iter: 134 15:40:13  -851.611474c -5.88  -3.70    +61.2899
iter: 135 15:42:47  -851.611086c -5.83  -3.60    +61.3001
iter: 136 15:45:21  -851.611139c -5.78  -3.63    +61.3124
iter: 137 15:47:55  -851.614531c -5.34  -3.61    +61.3268
iter: 138 15:50:29  -851.611477c -5.27  -3.45    +61.3445
iter: 139 15:53:00  -851.609967c -5.81  -3.61    +61.3377
iter: 140 15:55:31  -851.610428c -6.18  -3.81    +61.3425
iter: 141 15:58:06  -851.610247c -6.31  -3.89    +61.3486
iter: 142 16:00:40  -851.610695c -6.15  -3.96    +61.3549
iter: 143 16:03:14  -851.610428c -6.11  -3.88    +61.3540
iter: 144 16:05:49  -851.610952c -6.15  -3.93    +61.3648
iter: 145 16:08:23  -851.611004c -6.25  -3.94    +61.3745
iter: 146 16:10:57  -851.610503c -6.23  -4.02c   +61.3764
iter: 147 16:13:31  -851.610679c -6.60  -4.03c   +61.3815
iter: 148 16:16:05  -851.610753c -6.81  -4.25c   +61.3898
iter: 149 16:18:39  -851.610924c -6.82  -4.30c   +61.3960
iter: 150 16:21:13  -851.610860c -7.14  -4.31c   +61.3974
iter: 151 16:23:47  -851.611003c -6.84  -4.38c   +61.4072
iter: 152 16:26:21  -851.611086c -7.43c -4.41c   +61.4075

Converged after 152 iterations.

Dipole moment: (-1.765131, 13.234188, 14.535110) |e|*Ang

Total magnetic moment: (0.000000, 0.000000, 61.407484)
Local magnetic moments:
   0 Co ( 0.000000,  0.000000,  1.032642)
   1 Fe ( 0.000000,  0.000000,  2.173069)
   2 Co ( 0.000000,  0.000000,  1.454042)
   3 Co ( 0.000000,  0.000000,  1.117648)
   4 Co ( 0.000000,  0.000000,  1.077629)
   5 Ni ( 0.000000,  0.000000,  0.196834)
   6 Fe ( 0.000000,  0.000000,  1.931368)
   7 Al ( 0.000000,  0.000000, -0.017622)
   8 Fe ( 0.000000,  0.000000, -1.375380)
   9 Cr ( 0.000000,  0.000000,  0.991760)
  10 Al ( 0.000000,  0.000000, -0.015985)
  11 Co ( 0.000000,  0.000000,  1.005715)
  12 Co ( 0.000000,  0.000000,  1.021796)
  13 Fe ( 0.000000,  0.000000,  2.269766)
  14 Al ( 0.000000,  0.000000, -0.030753)
  15 Co ( 0.000000,  0.000000,  1.260117)
  16 Co ( 0.000000,  0.000000,  1.247888)
  17 Co ( 0.000000,  0.000000,  1.126887)
  18 Co ( 0.000000,  0.000000,  1.072333)
  19 Al ( 0.000000,  0.000000, -0.039416)
  20 Fe ( 0.000000,  0.000000,  2.190075)
  21 Fe ( 0.000000,  0.000000,  2.065461)
  22 Cr ( 0.000000,  0.000000, -1.344332)
  23 Al ( 0.000000,  0.000000, -0.035353)
  24 Co ( 0.000000,  0.000000,  1.206555)
  25 Fe ( 0.000000,  0.000000,  2.230977)
  26 Fe ( 0.000000,  0.000000,  2.315120)
  27 Co ( 0.000000,  0.000000,  1.475568)
  28 Cr ( 0.000000,  0.000000, -2.079055)
  29 Ni ( 0.000000,  0.000000,  0.480256)
  30 Fe ( 0.000000,  0.000000,  1.948916)
  31 Fe ( 0.000000,  0.000000,  2.015188)
  32 Co ( 0.000000,  0.000000,  1.050726)
  33 Fe ( 0.000000,  0.000000,  1.807625)
  34 Co ( 0.000000,  0.000000,  1.108598)
  35 Cr ( 0.000000,  0.000000, -1.293171)
  36 Cr ( 0.000000,  0.000000, -1.611166)
  37 Cr ( 0.000000,  0.000000,  0.223309)
  38 Cr ( 0.000000,  0.000000,  0.882510)
  39 Cr ( 0.000000,  0.000000,  0.228169)
  40 Ni ( 0.000000,  0.000000,  0.283144)
  41 Ni ( 0.000000,  0.000000,  0.167187)
  42 Co ( 0.000000,  0.000000,  1.034211)
  43 Cr ( 0.000000,  0.000000,  0.486575)
  44 Cr ( 0.000000,  0.000000, -1.441261)
  45 Fe ( 0.000000,  0.000000,  1.541443)
  46 Fe ( 0.000000,  0.000000,  1.961706)
  47 Co ( 0.000000,  0.000000,  0.452397)
  48 Ni ( 0.000000,  0.000000,  0.271304)
  49 Ni ( 0.000000,  0.000000,  0.197472)
  50 Fe ( 0.000000,  0.000000,  2.140132)
  51 Co ( 0.000000,  0.000000,  1.228143)
  52 Cr ( 0.000000,  0.000000, -1.699326)
  53 Fe ( 0.000000,  0.000000,  2.272587)
  54 Ni ( 0.000000,  0.000000,  0.147203)
  55 Fe ( 0.000000,  0.000000,  2.184097)
  56 Cr ( 0.000000,  0.000000, -1.401609)
  57 Ni ( 0.000000,  0.000000,  0.185059)
  58 Fe ( 0.000000,  0.000000,  1.778376)
  59 Fe ( 0.000000,  0.000000,  1.731677)
[...]
  93 Ni ( 0.000000,  0.000000,  0.223665)
  94 Ni ( 0.000000,  0.000000,  0.168176)
  95 Cr ( 0.000000,  0.000000, -0.995928)
  96 Ni ( 0.000000,  0.000000,  0.077860)
  97 Ni ( 0.000000,  0.000000,  0.195019)
  98 Co ( 0.000000,  0.000000,  1.371447)
  99 Ni ( 0.000000,  0.000000,  0.197752)
 100 Co ( 0.000000,  0.000000,  1.348405)
 101 Co ( 0.000000,  0.000000,  1.217370)
 102 Co ( 0.000000,  0.000000,  1.182164)
 103 Ni ( 0.000000,  0.000000,  0.277867)
 104 Ni ( 0.000000,  0.000000,  0.161365)
 105 Al ( 0.000000,  0.000000, -0.013298)
 106 Co ( 0.000000,  0.000000,  0.418515)
 107 Cr ( 0.000000,  0.000000,  0.365847)

Energy contributions relative to reference atoms: (reference = -3548577.034362)

Kinetic:       +183.572519
Potential:     -215.475770
External:        +0.000000
XC:            -853.348312
Entropy (-ST):   -4.572939
Local:          +35.926947
Free energy:   -853.897556
Extrapolated:  -851.611086

Spin contamination: 27.276377 electrons
Showing only first 2 kpts
                      Up                     Down
 Kpt  Band  Eigenvalues  Occupancy  Eigenvalues  Occupancy
  0   488      9.49170    0.99364     10.34909    0.02868
  0   489      9.51635    0.99188     10.36565    0.02440
  0   490      9.52495    0.99115     10.37550    0.02217
  0   491      9.53121    0.99059     10.39259    0.01875

  1   488      9.49691    0.99330     10.36646    0.02421
  1   489      9.50499    0.99274     10.38122    0.02096
  1   490      9.52040    0.99154     10.38943    0.01934
  1   491      9.53841    0.98989     10.40551    0.01651

Fermi level: 9.99682

No gap

Forces in eV/Ang:
  0 Co   -0.23708    0.14705    0.10302
  1 Fe    0.14206    0.03507   -0.26811
  2 Co   -0.17058   -0.44442   -0.17253
  3 Co    0.06916    0.03070    0.47841
  4 Co   -0.33811   -0.13734    0.47557
  5 Ni   -0.44933    0.07486   -0.24322
  6 Fe   -0.24194   -0.48735    0.06659
  7 Al   -0.75797    0.78526    0.43789
  8 Fe    0.52136    0.28193   -0.41857
  9 Cr    0.04503    0.54118   -0.04152
 10 Al    0.31115   -0.03927   -0.84119
 11 Co   -0.00228   -0.09766   -0.72993
 12 Co    0.08668   -0.39217    0.07755
 13 Fe    0.15451   -0.05775   -0.25413
 14 Al   -0.00057    0.67997   -1.35965
 15 Co    0.17934   -0.30743    0.23000
 16 Co   -0.26588    0.23230    0.32564
 17 Co   -0.17059   -0.39803   -0.01170
 18 Co   -0.02777    0.24198    0.13381
 19 Al    0.35440   -1.15939    0.01551
 20 Fe    0.07825   -0.60851   -0.15233
 21 Fe   -0.18253   -0.41599    0.06746
 22 Cr    0.33813   -0.79084    0.03197
 23 Al   -0.26335    0.46283   -0.50880
 24 Co    0.48816    0.25367    0.18520
 25 Fe    0.50904    0.15819   -0.40845
 26 Fe   -0.03492    0.07348   -0.44005
 27 Co   -0.08692   -0.10422    0.56905
 28 Cr   -1.06264    0.58102   -0.02905
 29 Ni   -0.39160    0.42662   -0.16061
 30 Fe   -0.31048    0.23519    0.02112
 31 Fe   -0.27732    0.10434    0.36133
 32 Co    0.17585    0.42918    0.25269
 33 Fe   -0.03245    0.07665   -0.28166
 34 Co    0.35284    0.32355   -0.01893
 35 Cr    0.57565   -0.39389   -0.00320
 36 Cr    0.53174   -0.33911    0.78233
 37 Cr    0.14488   -0.03439   -0.28239
 38 Cr   -0.57929    0.33556    0.24669
 39 Cr    0.05917   -0.85911   -0.16738
 40 Ni   -0.11138    0.26844   -0.40753
 41 Ni   -0.09355   -0.06160    0.03423
 42 Co    0.19444    0.03335    0.03130
 43 Cr   -0.12112    0.11075   -0.06294
 44 Cr   -0.36192    0.09911    0.75483
 45 Fe    0.14324   -0.29882   -0.30649
 46 Fe    0.47567   -0.39232    0.18635
 47 Co    0.12896    0.16534    0.46694
 48 Ni    0.05876   -0.05824   -0.13690
 49 Ni   -0.11880   -0.29118   -0.10516
 50 Fe   -0.04456   -0.16908    0.22240
 51 Co    0.21020    0.10155   -0.10756
 52 Cr    0.67746    0.10415   -0.04985
 53 Fe   -0.52636    0.03347   -0.31911
 54 Ni    0.11389   -0.07368   -0.16258
 55 Fe   -0.36903   -0.96962   -0.50875
 56 Cr   -0.40486    0.00583    0.14066
 57 Ni    0.09461   -0.06401   -0.22407
 58 Fe    0.13330    0.25376   -0.50827
 59 Fe    0.10879   -0.27537    0.19763
[...]
 93 Ni    0.03816   -0.18114   -0.10230
 94 Ni    0.12608   -0.26265    0.56593
 95 Cr    0.07575   -0.09680    0.08445
 96 Ni   -0.15626   -0.01228   -0.03125
 97 Ni   -0.28111    0.14895   -0.07655
 98 Co    0.18817   -0.24284    0.43901
 99 Ni   -0.39464    0.08121    0.16434
100 Co   -0.18449    0.10712    0.24513
101 Co    0.22192   -0.34306    0.25036
102 Co   -0.41743    0.22867   -0.02461
103 Ni   -0.11868    0.06253   -0.03631
104 Ni    0.20545    0.12279   -0.02317
105 Al   -0.18301   -0.53102   -0.10369
106 Co    0.30912    0.22305   -0.09885
107 Cr    0.59650    0.37615   -0.02026

Date: Fri Apr 14 16:26:42 2023