User:   c.zeng@d0150
Date:   Sat Apr  8 12:16:42 2023
Arch:   x86_64
Pid:    11986
CWD:    /home/c.zeng/projects/hea-corrosion/hea-mlp/data-curation/volume/dft-jobs/63
Python: 3.8.1
gpaw:   /home/c.zeng/usr/installs/gpaw/source/gpaw-22.8.0/gpaw
_gpaw:  /home/c.zeng/usr/installs/gpaw/source/gpaw-22.8.0/
        _gpaw.cpython-38-x86_64-linux-gnu.so
ase:    /home/c.zeng/.local/lib/python3.8/site-packages/ase-3.22.1-py3.8.egg/ase (version 3.22.1)
numpy:  /shared/centos7/python/3.8.1/lib/python3.8/site-packages/numpy (version 1.17.4)
scipy:  /shared/centos7/python/3.8.1/lib/python3.8/site-packages/scipy (version 1.4.1)
units:  Angstrom and eV
cores: 64
OpenMP: False
OMP_NUM_THREADS: 1

Input parameters:
  convergence: {energy: 0.0001}
  kpts: [2 2 2]
  maxiter: 666
  mode: {ecut: 350.0,
         name: pw}
  occupations: {fixmagmom: False,
                name: fermi-dirac,
                width: 0.1}
  spinpol: True
  xc: PBE

System changes: positions, numbers, cell, pbc, initial_charges, initial_magmoms

Initialize ...

species:
  Co:
    name: Cobalt
    id: 339d20d5b0b93d2de9531a1bee871d91
    Z: 27.0
    valence: 9
    core: 18
    charge: 0.0
    file: /home/c.zeng/usr/data/gpaw-setups-0.9.20000/Co.PBE.gz
    compensation charges: {type: gauss,
                           rc: 0.32,
                           lmax: 2}
    cutoffs: {filter: 1.87,
              core: 2.55}
    valence states:
      #              energy  rcut
      - 4s(2.00)    -5.469   1.005
      - 4p(0.00)    -1.277   1.058
      - 3d(7.00)    -8.205   1.005
      -  s          21.742   1.005
      -  p          25.934   1.058
      -  d          19.007   1.005

    # Using partial waves for Co as LCAO basis

  Ni:
    name: Nickel
    id: 0d9f38a9d6e76a2886f07bb4381f212b
    Z: 28.0
    valence: 16
    core: 12
    charge: 0.0
    file: /home/c.zeng/usr/data/gpaw-setups-0.9.20000/Ni.PBE.gz
    compensation charges: {type: gauss,
                           rc: 0.36,
                           lmax: 2}
    cutoffs: {filter: 2.14,
              core: 1.98}
    valence states:
      #              energy  rcut
      - 4s(2.00)    -5.642   1.164
      - 3p(6.00)   -71.394   1.207
      - 4p(0.00)    -1.226   1.207
      - 3d(8.00)    -8.875   1.138
      -  s          21.570   1.164
      -  d          18.337   1.138

[...]

  Al:
    name: Aluminium
    id: 0292cae29f5d6237e50f6abdd43a7bdd
    Z: 13.0
    valence: 3
    core: 10
    charge: 0.0
    file: /home/c.zeng/usr/data/gpaw-setups-0.9.20000/Al.PBE.gz
    compensation charges: {type: gauss,
                           rc: 0.34,
                           lmax: 2}
    cutoffs: {filter: 1.91,
              core: 2.36}
    valence states:
      #              energy  rcut
      - 3s(2.00)    -7.753   1.085
      - 3p(1.00)    -2.712   1.085
      -  s          19.459   1.085
      -  p          24.499   1.085
      -  d           0.000   1.085

[...]

  Cr:
    name: Chromium
    id: 33f258bda2ca9f93018e70263a35547b
    Z: 24.0
    valence: 6
    core: 18
    charge: 0.0
    file: /home/c.zeng/usr/data/gpaw-setups-0.9.20000/Cr.PBE.gz
    compensation charges: {type: gauss,
                           rc: 0.35,
                           lmax: 2}
    cutoffs: {filter: 2.14,
              core: 3.04}
    valence states:
      #              energy  rcut
      - 4s(1.00)    -4.007   1.164
      - 4p(0.00)    -0.989   1.217
      - 3d(5.00)    -2.913   1.111
      -  s          23.205   1.164
      -  p          26.223   1.217
      -  d          24.299   1.111

[...]

  Fe:
    name: Iron
    id: 37abbd8d6c3c35915a9b583b742da910
    Z: 26.0
    valence: 8
    core: 18
    charge: 0.0
    file: /home/c.zeng/usr/data/gpaw-setups-0.9.20000/Fe.PBE.gz
    compensation charges: {type: gauss,
                           rc: 0.33,
                           lmax: 2}
    cutoffs: {filter: 2.06,
              core: 2.67}
    valence states:
      #              energy  rcut
      - 4s(2.00)    -5.291   1.164
      - 4p(0.00)    -1.326   1.058
      - 3d(6.00)    -7.505   1.058
      -  s          21.920   1.164
      -  p          25.885   1.058
      -  d          19.706   1.058

    # Using partial waves for Fe as LCAO basis

Reference energy: -3548577.034362  # eV

Spin-polarized calculation.
Magnetic moment: 136.400000

Convergence criteria:
 Maximum [total energy] change in last 3 cyles: 0.0001 eV / electron
 Maximum integral of absolute [dens]ity change: 0.0001 electrons / valence electron
 Maximum integral of absolute [eigenst]ate change: 4e-08 eV^2 / valence electron
 Maximum number of scf [iter]ations: 666
 (Square brackets indicate name in SCF output, whereas a 'c' in
 the SCF output indicates the quantity has converged.)

Symmetries present (total): 1

  ( 1  0  0)
  ( 0  1  0)
  ( 0  0  1)

8 k-points: 2 x 2 x 2 Monkhorst-Pack grid
4 k-points in the irreducible part of the Brillouin zone
       k-points in crystal coordinates                weights
   0:     0.25000000   -0.25000000   -0.25000000          2/8
   1:     0.25000000   -0.25000000    0.25000000          2/8
   2:     0.25000000    0.25000000   -0.25000000          2/8
   3:     0.25000000    0.25000000    0.25000000          2/8

Wave functions: Plane wave expansion
  Cutoff energy: 350.000 eV
  Number of coefficients (min, max): 26661, 26661
  Pulay-stress correction: 0.000000 eV/Ang^3 (de/decut=0.000000)
  Using FFTW library
  ScaLapack parameters: grid=1x1, blocksize=None
  Wavefunction extrapolation:
    Improved wavefunction reuse through dual PAW basis

Occupation numbers: Fermi-Dirac:
  width: 0.1000  # eV

Eigensolver
   Davidson(niter=2)

Densities:
  Coarse grid: 54*54*54 grid
  Fine grid: 108*108*108 grid
  Total Charge: 0.000000

Density mixing:
  Method: difference
  Backend: pulay
  Linear mixing parameter: 0.05
  old densities: 5
  Damping of long wavelength oscillations: 50

Hamiltonian:
  XC and Coulomb potentials evaluated on a 108*108*108 grid
  Using the PBE Exchange-Correlation functional
  External potential:
    NoExternalPotential

XC parameters: PBE with 2 nearest neighbor stencil

Total number of cores used: 64
Parallelization over k-points: 4
Domain decomposition: 4 x 2 x 2

Number of atoms: 108
Number of atomic orbitals: 994
Number of bands in calculation: 674
Number of valence electrons: 980
Bands to converge: occupied

... initialized

Initializing position-dependent things.

Density initialized from atomic densities
Creating initial wave functions:
  674 bands from LCAO basis set

    /  Ni        Ni        Ni         |
   /    |  Ni        Fe        Fe     |
  / Co  |   CoFe      Co Ni     Fe    |
 *    CoNi      CoAl      CoCr        |
 |Co    | FeFe     Co Cr     Cr       |
 |     Ni        Co        Cr         |
 | Cr Co|  CrCo Fe   CoFe Al   Fe     |
 |  Fe Fe   NiNi Cr   Cr CoNi   Ni    |
 Al   NiFe Fe   CoCo Ni   CrCr        |
 |Ni    |   Ni        Co              |
 |     Al Ni     NiCr      CrFe       |
 | Cr Co.--NiNi-Co---CoCr-Al---Fe-----.
 |  Fe Ni   CrCr Ni   Fe CrNi   Cr   /
 Ni   FeAl Co   FeAl Cr   FeCr      /
 |Ni /      Fe        Fe           /
 |  / Al  Al    Fe Co     Fe Cr   /
 | /o        Cr        Co        /
 |/    Cr        Fe        Al   /
 Co--------Cr--------Cr--------*

Positions:
   0 Co     0.000000    0.000000    0.000000    ( 0.0000,  0.0000,  2.1000)
   1 Ni     0.000000    2.025004    2.025004    ( 0.0000,  0.0000,  1.5000)
   2 Al     2.025004    0.000000    2.025004    ( 0.0000,  0.0000,  0.0000)
   3 Cr     2.025004    2.025004    0.000000    ( 0.0000,  0.0000,  0.0000)
   4 Cr     4.049996    0.000000    0.000000    ( 0.0000,  0.0000,  0.0000)
   5 Fe     4.049996    2.025004    2.025004    ( 0.0000,  0.0000,  2.0000)
   6 Fe     6.075000    0.000000    2.025004    ( 0.0000,  0.0000,  2.0000)
   7 Fe     6.075000    2.025004    0.000000    ( 0.0000,  0.0000,  2.0000)
   8 Cr     8.100004    0.000000    0.000000    ( 0.0000,  0.0000,  0.0000)
   9 Fe     8.100004    2.025004    2.025004    ( 0.0000,  0.0000,  2.0000)
  10 Fe    10.124996    0.000000    2.025004    ( 0.0000,  0.0000,  2.0000)
  11 Al    10.124996    2.025004    0.000000    ( 0.0000,  0.0000,  0.0000)
  12 Co     0.000000    4.049996    0.000000    ( 0.0000,  0.0000,  2.1000)
  13 Fe     0.000000    6.075000    2.025004    ( 0.0000,  0.0000,  2.0000)
  14 Al     2.025004    4.049996    2.025004    ( 0.0000,  0.0000,  0.0000)
  15 Al     2.025004    6.075000    0.000000    ( 0.0000,  0.0000,  0.0000)
  16 Cr     4.049996    4.049996    0.000000    ( 0.0000,  0.0000,  0.0000)
  17 Cr     4.049996    6.075000    2.025004    ( 0.0000,  0.0000,  0.0000)
  18 Al     6.075000    4.049996    2.025004    ( 0.0000,  0.0000,  0.0000)
  19 Co     6.075000    6.075000    0.000000    ( 0.0000,  0.0000,  2.1000)
  20 Co     8.100004    4.049996    0.000000    ( 0.0000,  0.0000,  2.1000)
  21 Cr     8.100004    6.075000    2.025004    ( 0.0000,  0.0000,  0.0000)
  22 Cr    10.124996    4.049996    2.025004    ( 0.0000,  0.0000,  0.0000)
  23 Cr    10.124996    6.075000    0.000000    ( 0.0000,  0.0000,  0.0000)
  24 Fe     0.000000    8.100004    0.000000    ( 0.0000,  0.0000,  2.0000)
  25 Al     0.000000   10.124996    2.025004    ( 0.0000,  0.0000,  0.0000)
  26 Ni     2.025004    8.100004    2.025004    ( 0.0000,  0.0000,  1.5000)
  27 Cr     2.025004   10.124996    0.000000    ( 0.0000,  0.0000,  0.0000)
  28 Fe     4.049996    8.100004    0.000000    ( 0.0000,  0.0000,  2.0000)
  29 Ni     4.049996   10.124996    2.025004    ( 0.0000,  0.0000,  1.5000)
  30 Co     6.075000    8.100004    2.025004    ( 0.0000,  0.0000,  2.1000)
  31 Fe     6.075000   10.124996    0.000000    ( 0.0000,  0.0000,  2.0000)
  32 Fe     8.100004    8.100004    0.000000    ( 0.0000,  0.0000,  2.0000)
  33 Cr     8.100004   10.124996    2.025004    ( 0.0000,  0.0000,  0.0000)
  34 Fe    10.124996    8.100004    2.025004    ( 0.0000,  0.0000,  2.0000)
  35 Cr    10.124996   10.124996    0.000000    ( 0.0000,  0.0000,  0.0000)
  36 Ni     0.000000    0.000000    4.049996    ( 0.0000,  0.0000,  1.5000)
  37 Ni     0.000000    2.025004    6.075000    ( 0.0000,  0.0000,  1.5000)
  38 Co     2.025004    0.000000    6.075000    ( 0.0000,  0.0000,  2.1000)
  39 Ni     2.025004    2.025004    4.049996    ( 0.0000,  0.0000,  1.5000)
  40 Co     4.049996    0.000000    4.049996    ( 0.0000,  0.0000,  2.1000)
  41 Ni     4.049996    2.025004    6.075000    ( 0.0000,  0.0000,  1.5000)
  42 Co     6.075000    0.000000    6.075000    ( 0.0000,  0.0000,  2.1000)
  43 Ni     6.075000    2.025004    4.049996    ( 0.0000,  0.0000,  1.5000)
  44 Cr     8.100004    0.000000    4.049996    ( 0.0000,  0.0000,  0.0000)
  45 Co     8.100004    2.025004    6.075000    ( 0.0000,  0.0000,  2.1000)
  46 Al    10.124996    0.000000    6.075000    ( 0.0000,  0.0000,  0.0000)
  47 Ni    10.124996    2.025004    4.049996    ( 0.0000,  0.0000,  1.5000)
  48 Cr     0.000000    4.049996    4.049996    ( 0.0000,  0.0000,  0.0000)
  49 Fe     0.000000    6.075000    6.075000    ( 0.0000,  0.0000,  2.0000)
  50 Fe     2.025004    4.049996    6.075000    ( 0.0000,  0.0000,  2.0000)
  51 Ni     2.025004    6.075000    4.049996    ( 0.0000,  0.0000,  1.5000)
  52 Ni     4.049996    4.049996    4.049996    ( 0.0000,  0.0000,  1.5000)
  53 Ni     4.049996    6.075000    6.075000    ( 0.0000,  0.0000,  1.5000)
  54 Co     6.075000    4.049996    6.075000    ( 0.0000,  0.0000,  2.1000)
  55 Cr     6.075000    6.075000    4.049996    ( 0.0000,  0.0000,  0.0000)
  56 Cr     8.100004    4.049996    4.049996    ( 0.0000,  0.0000,  0.0000)
  57 Co     8.100004    6.075000    6.075000    ( 0.0000,  0.0000,  2.1000)
  58 Cr    10.124996    4.049996    6.075000    ( 0.0000,  0.0000,  0.0000)
  59 Fe    10.124996    6.075000    4.049996    ( 0.0000,  0.0000,  2.0000)
[...]
  93 Ni     8.100004    6.075000   10.124996    ( 0.0000,  0.0000,  1.5000)
  94 Cr    10.124996    4.049996   10.124996    ( 0.0000,  0.0000,  0.0000)
  95 Cr    10.124996    6.075000    8.100004    ( 0.0000,  0.0000,  0.0000)
  96 Co     0.000000    8.100004    8.100004    ( 0.0000,  0.0000,  2.1000)
  97 Ni     0.000000   10.124996   10.124996    ( 0.0000,  0.0000,  1.5000)
  98 Ni     2.025004    8.100004   10.124996    ( 0.0000,  0.0000,  1.5000)
  99 Co     2.025004   10.124996    8.100004    ( 0.0000,  0.0000,  2.1000)
 100 Co     4.049996    8.100004    8.100004    ( 0.0000,  0.0000,  2.1000)
 101 Ni     4.049996   10.124996   10.124996    ( 0.0000,  0.0000,  1.5000)
 102 Fe     6.075000    8.100004   10.124996    ( 0.0000,  0.0000,  2.0000)
 103 Co     6.075000   10.124996    8.100004    ( 0.0000,  0.0000,  2.1000)
 104 Co     8.100004    8.100004    8.100004    ( 0.0000,  0.0000,  2.1000)
 105 Ni     8.100004   10.124996   10.124996    ( 0.0000,  0.0000,  1.5000)
 106 Fe    10.124996    8.100004   10.124996    ( 0.0000,  0.0000,  2.0000)
 107 Fe    10.124996   10.124996    8.100004    ( 0.0000,  0.0000,  2.0000)

Unit cell:
           periodic     x           y           z      points  spacing
  1. axis:    yes   12.150000    0.000000    0.000000    54     0.2250
  2. axis:    yes    0.000000   12.150000    0.000000    54     0.2250
  3. axis:    yes    0.000000    0.000000   12.150000    54     0.2250

  Lengths:  12.150000  12.150000  12.150000
  Angles:   90.000000  90.000000  90.000000

Effective grid spacing dv^(1/3) = 0.2250

     iter     time        total  log10-change:  magmom
                         energy  eigst   dens
iter:   1 12:19:37 -1043.507816                  +136.6826
iter:   2 12:21:05  -882.029657  +0.09  -1.13    +71.5274
iter:   3 12:22:36  -927.284183  -0.26  -1.02    +76.3765
iter:   4 12:24:02  -801.801511  -0.97  -1.10    +69.9092
iter:   5 12:25:33  -786.881500  -1.59  -1.27    +71.9877
iter:   6 12:27:02  -789.543729  -1.82  -1.32    +83.9191
iter:   7 12:28:28  -792.430437  -1.43  -1.33    +93.8793
iter:   8 12:29:58  -785.598891  -1.65  -1.33    +95.6116
iter:   9 12:31:27  -792.722633  -1.31  -1.40    +97.3859
iter:  10 12:32:59  -790.545570  -1.41  -1.43    +97.0355
iter:  11 12:34:27  -791.080663  -1.52  -1.48    +93.4277
iter:  12 12:35:57  -792.521472  -1.45  -1.46    +93.1529
iter:  13 12:37:28  -792.099870  -1.61  -1.47    +91.4285
iter:  14 12:38:57  -779.807212  -1.93  -1.52    +90.9229
iter:  15 12:40:27  -780.766418  -2.36  -1.72    +88.3354
iter:  16 12:41:54  -782.570557  -2.31  -1.77    +86.5524
iter:  17 12:43:21  -784.424350  -2.49  -1.80    +85.0830
iter:  18 12:44:51  -784.926723  -2.56  -1.79    +83.2136
iter:  19 12:46:23  -786.010988  -2.58  -1.85    +82.4733
iter:  20 12:47:51  -786.992687  -2.62  -1.93    +81.9405
iter:  21 12:49:18  -788.126356  -2.52  -1.96    +80.7929
iter:  22 12:50:49  -788.493431  -2.71  -2.03    +80.8804
iter:  23 12:52:20  -789.451014  -2.82  -2.10    +80.7729
iter:  24 12:53:52  -790.071437  -2.99  -2.14    +80.7994
iter:  25 12:55:18  -790.952794  -3.00  -2.15    +80.6553
iter:  26 12:56:49  -792.193618  -2.81  -2.15    +81.3894
iter:  27 12:58:19  -793.434738  -2.76  -2.08    +82.9052
iter:  28 12:59:49  -793.233339  -3.04  -2.03    +83.0546
iter:  29 13:01:20  -792.821383  -2.99  -2.04    +83.9896
iter:  30 13:02:50  -792.673031  -3.34  -2.11    +84.7057
iter:  31 13:04:22  -792.195383  -3.01  -2.12    +85.0700
iter:  32 13:05:54  -792.915671  -2.54  -2.16    +84.9497
iter:  33 13:07:25  -792.030812  -2.93  -2.04    +84.2893
iter:  34 13:08:55  -791.917631  -3.30  -2.23    +83.6560
iter:  35 13:10:27  -792.050308  -3.07  -2.29    +83.5061
iter:  36 13:11:57  -791.923896  -3.34  -2.28    +83.3843
iter:  37 13:13:28  -791.833481  -3.34  -2.36    +83.2425
iter:  38 13:14:58  -791.913787c -3.31  -2.43    +83.2747
iter:  39 13:16:29  -791.799017  -3.52  -2.43    +83.4165
iter:  40 13:17:59  -791.812978  -3.58  -2.55    +83.5413
iter:  41 13:19:26  -791.816427c -3.73  -2.53    +83.4698
iter:  42 13:20:55  -791.766854c -4.13  -2.58    +83.6343
iter:  43 13:22:26  -791.773506c -4.17  -2.66    +83.6415
iter:  44 13:23:57  -791.782044c -4.25  -2.68    +83.6608
iter:  45 13:25:29  -791.770911c -4.56  -2.70    +83.7051
iter:  46 13:27:01  -791.789072c -4.18  -2.74    +83.7357
iter:  47 13:28:32  -791.773638c -4.25  -2.77    +83.7448
iter:  48 13:30:02  -791.766885c -4.56  -2.84    +83.6451
iter:  49 13:31:33  -791.762140c -4.64  -2.90    +83.6893
iter:  50 13:33:00  -791.768023c -4.63  -2.95    +83.7088
iter:  51 13:34:30  -791.763287c -4.68  -2.98    +83.7061
iter:  52 13:36:02  -791.769999c -4.63  -2.99    +83.6931
iter:  53 13:37:34  -791.759627c -4.55  -3.05    +83.7127
iter:  54 13:39:04  -791.765460c -4.71  -3.12    +83.6927
iter:  55 13:40:34  -791.758674c -4.94  -3.10    +83.6835
iter:  56 13:42:04  -791.758784c -5.37  -3.24    +83.6800
iter:  57 13:43:35  -791.763167c -5.03  -3.24    +83.6670
iter:  58 13:45:06  -791.771214c -4.77  -3.24    +83.6672
iter:  59 13:46:37  -791.759922c -5.07  -3.17    +83.6873
iter:  60 13:48:08  -791.759194c -5.24  -3.35    +83.6935
iter:  61 13:49:32  -791.763484c -5.21  -3.32    +83.6740
iter:  62 13:51:03  -791.759182c -5.42  -3.32    +83.6581
iter:  63 13:52:32  -791.758281c -5.82  -3.43    +83.6678
iter:  64 13:54:03  -791.770453c -4.90  -3.48    +83.6638
iter:  65 13:55:32  -791.758331c -5.11  -3.26    +83.6629
iter:  66 13:57:02  -791.759082c -5.59  -3.50    +83.6599
iter:  67 13:58:32  -791.761675c -5.38  -3.57    +83.6586
iter:  68 14:00:04  -791.758318c -5.83  -3.59    +83.6707
iter:  69 14:01:33  -791.759284c -5.83  -3.77    +83.6640
iter:  70 14:03:03  -791.758974c -6.16  -3.80    +83.6693
iter:  71 14:04:35  -791.759163c -6.22  -3.94    +83.6773
iter:  72 14:06:05  -791.759039c -6.44  -3.92    +83.6810
iter:  73 14:07:36  -791.759488c -6.52  -3.99    +83.6842
iter:  74 14:09:06  -791.759041c -6.59  -3.99    +83.6876
iter:  75 14:10:36  -791.759711c -6.65  -4.05c   +83.6860
iter:  76 14:12:07  -791.759207c -6.95  -3.99    +83.6868
iter:  77 14:13:37  -791.759430c -7.13  -4.09c   +83.6852
iter:  78 14:15:07  -791.759190c -7.19  -4.12c   +83.6872
iter:  79 14:16:38  -791.759346c -7.39  -4.15c   +83.6872
iter:  80 14:18:07  -791.759259c -7.35  -4.18c   +83.6867
iter:  81 14:19:37  -791.759100c -7.32  -4.18c   +83.6870
iter:  82 14:21:06  -791.759363c -7.12  -4.23c   +83.6854
iter:  83 14:22:36  -791.759353c -7.43c -4.19c   +83.6853

Converged after 83 iterations.

Dipole moment: (0.035892, 0.157928, -0.704481) |e|*Ang

Total magnetic moment: (0.000000, 0.000000, 83.685320)
Local magnetic moments:
   0 Co ( 0.000000,  0.000000,  1.428052)
   1 Ni ( 0.000000,  0.000000,  0.352601)
   2 Al ( 0.000000,  0.000000,  0.011735)
   3 Cr ( 0.000000,  0.000000, -3.319175)
   4 Cr ( 0.000000,  0.000000, -3.270197)
   5 Fe ( 0.000000,  0.000000,  2.842276)
   6 Fe ( 0.000000,  0.000000,  2.951363)
   7 Fe ( 0.000000,  0.000000,  2.783214)
   8 Cr ( 0.000000,  0.000000, -3.194846)
   9 Fe ( 0.000000,  0.000000,  2.872112)
  10 Fe ( 0.000000,  0.000000,  2.866669)
  11 Al ( 0.000000,  0.000000, -0.046698)
  12 Co ( 0.000000,  0.000000,  1.590188)
  13 Fe ( 0.000000,  0.000000,  2.952295)
  14 Al ( 0.000000,  0.000000,  0.010303)
  15 Al ( 0.000000,  0.000000, -0.021385)
  16 Cr ( 0.000000,  0.000000, -3.201317)
  17 Cr ( 0.000000,  0.000000, -3.265951)
  18 Al ( 0.000000,  0.000000, -0.002357)
  19 Co ( 0.000000,  0.000000,  1.630965)
  20 Co ( 0.000000,  0.000000,  1.690618)
  21 Cr ( 0.000000,  0.000000, -3.168717)
  22 Cr ( 0.000000,  0.000000,  3.091199)
  23 Cr ( 0.000000,  0.000000, -3.260868)
  24 Fe ( 0.000000,  0.000000,  2.894610)
  25 Al ( 0.000000,  0.000000, -0.012877)
  26 Ni ( 0.000000,  0.000000,  0.404142)
  27 Cr ( 0.000000,  0.000000, -3.308751)
  28 Fe ( 0.000000,  0.000000,  3.032153)
  29 Ni ( 0.000000,  0.000000,  0.335003)
  30 Co ( 0.000000,  0.000000,  1.674249)
  31 Fe ( 0.000000,  0.000000,  2.964576)
  32 Fe ( 0.000000,  0.000000,  2.947792)
  33 Cr ( 0.000000,  0.000000, -3.182261)
  34 Fe ( 0.000000,  0.000000,  2.867214)
  35 Cr ( 0.000000,  0.000000, -3.225147)
  36 Ni ( 0.000000,  0.000000,  0.514955)
  37 Ni ( 0.000000,  0.000000,  0.350593)
  38 Co ( 0.000000,  0.000000,  1.978101)
  39 Ni ( 0.000000,  0.000000,  0.539371)
  40 Co ( 0.000000,  0.000000,  1.925120)
  41 Ni ( 0.000000,  0.000000,  0.710763)
  42 Co ( 0.000000,  0.000000,  1.845882)
  43 Ni ( 0.000000,  0.000000,  0.570798)
  44 Cr ( 0.000000,  0.000000,  3.089766)
  45 Co ( 0.000000,  0.000000,  1.786894)
  46 Al ( 0.000000,  0.000000, -0.016803)
  47 Ni ( 0.000000,  0.000000,  0.557045)
  48 Cr ( 0.000000,  0.000000, -3.241797)
  49 Fe ( 0.000000,  0.000000,  2.988594)
  50 Fe ( 0.000000,  0.000000,  3.112814)
  51 Ni ( 0.000000,  0.000000,  0.471938)
  52 Ni ( 0.000000,  0.000000,  0.336506)
  53 Ni ( 0.000000,  0.000000,  0.643556)
  54 Co ( 0.000000,  0.000000,  1.905648)
  55 Cr ( 0.000000,  0.000000, -3.236367)
  56 Cr ( 0.000000,  0.000000,  3.030952)
  57 Co ( 0.000000,  0.000000,  1.804331)
  58 Cr ( 0.000000,  0.000000,  3.106570)
  59 Fe ( 0.000000,  0.000000,  2.954803)
[...]
  93 Ni ( 0.000000,  0.000000,  0.547739)
  94 Cr ( 0.000000,  0.000000,  3.063521)
  95 Cr ( 0.000000,  0.000000, -3.269265)
  96 Co ( 0.000000,  0.000000,  1.856208)
  97 Ni ( 0.000000,  0.000000,  0.463276)
  98 Ni ( 0.000000,  0.000000,  0.595479)
  99 Co ( 0.000000,  0.000000,  1.951302)
 100 Co ( 0.000000,  0.000000,  1.967465)
 101 Ni ( 0.000000,  0.000000,  0.590623)
 102 Fe ( 0.000000,  0.000000,  3.115218)
 103 Co ( 0.000000,  0.000000,  1.965117)
 104 Co ( 0.000000,  0.000000,  1.887996)
 105 Ni ( 0.000000,  0.000000,  0.434175)
 106 Fe ( 0.000000,  0.000000,  3.015529)
 107 Fe ( 0.000000,  0.000000,  2.937286)

Energy contributions relative to reference atoms: (reference = -3548577.034362)

Kinetic:       -354.129971
Potential:     +216.847979
External:        +0.000000
XC:            -682.399316
Entropy (-ST):   -5.022901
Local:          +30.433406
Free energy:   -794.270803
Extrapolated:  -791.759353

Spin contamination: 71.726111 electrons
Showing only first 2 kpts
                      Up                     Down
 Kpt  Band  Eigenvalues  Occupancy  Eigenvalues  Occupancy
  0   488      5.08292    0.99977      6.25624    0.03365
  0   489      5.08860    0.99976      6.26483    0.03097
  0   490      5.09719    0.99973      6.27428    0.02825
  0   491      5.11786    0.99967      6.28149    0.02634

  1   488      5.08024    0.99978      6.25992    0.03247
  1   489      5.08976    0.99975      6.26859    0.02986
  1   490      5.09656    0.99974      6.27271    0.02869
  1   491      5.10641    0.99971      6.28577    0.02526

Fermi level: 5.92049

No gap

Forces in eV/Ang:
  0 Co   -0.00933   -0.00256   -0.06541
  1 Ni   -0.06892   -0.08208   -0.00039
  2 Al   -0.03218    0.21578    0.68005
  3 Cr   -0.83766   -0.04727   -0.43736
  4 Cr    0.91942   -0.08840   -0.26369
  5 Fe    0.22561   -0.19773    0.20904
  6 Fe   -0.29645    0.14349   -0.02183
  7 Fe   -0.14856    0.04033    0.12994
  8 Cr   -0.67611    0.32061   -0.24296
  9 Fe   -0.20956   -0.27088   -0.28476
 10 Fe    0.24517    0.21682   -0.00765
 11 Al    0.54659    0.34797    0.33437
 12 Co    0.30802    0.05470   -0.17690
 13 Fe    0.16513    0.41783    0.13714
 14 Al   -0.17924   -0.26748    0.51567
 15 Al   -0.30467    0.29309   -0.42854
 16 Cr    0.30221   -0.14333   -0.51128
 17 Cr   -0.20560    0.79452    0.18083
 18 Al    0.08487   -0.37742    0.06651
 19 Co   -0.03665    0.26199   -0.11676
 20 Co   -0.43834   -0.15847    0.02756
 21 Cr    0.18363    0.14996    0.04172
 22 Cr    0.28401   -0.11735   -0.21317
 23 Cr    0.24306   -0.04504   -0.35774
 24 Fe    0.01511    0.01775   -0.25407
 25 Al   -0.09134   -0.23923    0.72093
 26 Ni   -0.06983   -0.08837    0.01902
 27 Cr   -0.21545   -0.48471   -0.43658
 28 Fe    0.25762    0.09990    0.04167
 29 Ni    0.06556   -0.07888    0.05654
 30 Co   -0.30109   -0.03482   -0.42143
 31 Fe   -0.11495   -0.16219    0.02273
 32 Fe   -0.26307   -0.07933   -0.04870
 33 Cr    0.08008   -0.31828    0.37765
 34 Fe    0.20317   -0.14701    0.09073
 35 Cr    0.51519   -0.55135   -0.35684
 36 Ni    0.03858    0.05252   -0.03209
 37 Ni    0.18926   -0.13990   -0.01432
 38 Co    0.27446   -0.09909   -0.12181
 39 Ni    0.06402   -0.07171    0.06407
 40 Co    0.08975    0.12205    0.30619
 41 Ni   -0.12827   -0.03652   -0.05746
 42 Co   -0.31612    0.08275    0.09718
 43 Ni   -0.03023   -0.00674    0.07161
 44 Cr   -0.17532   -0.16731    0.29719
 45 Co   -0.21911    0.01718    0.29230
 46 Al    0.13061    0.36832   -0.34888
 47 Ni   -0.02205   -0.09793   -0.12320
 48 Cr   -0.32108   -0.06793    0.30422
 49 Fe    0.29922    0.42530   -0.00796
 50 Fe    0.33987   -0.06718   -0.19149
 51 Ni    0.00979   -0.01405    0.05720
 52 Ni   -0.02845   -0.06746    0.02881
 53 Ni    0.01386   -0.02661    0.09258
 54 Co   -0.04063    0.00987    0.19892
 55 Cr   -0.04542    0.18903    0.91615
 56 Cr   -0.48309    0.06988    0.21954
 57 Co   -0.04826    0.06399    0.16806
 58 Cr    0.29762   -0.41829    0.25375
 59 Fe    0.19072    0.53585    0.21534
[...]
 93 Ni   -0.13128    0.05794   -0.00720
 94 Cr    0.31638    0.40541   -0.07768
 95 Cr   -0.31945    0.32030    0.09353
 96 Co    0.01449    0.17051    0.15674
 97 Ni   -0.03090    0.00661   -0.07152
 98 Ni   -0.02765   -0.08046   -0.10598
 99 Co    0.15933   -0.06042    0.04650
100 Co    0.18190    0.13520    0.03609
101 Ni   -0.01512   -0.02950   -0.10090
102 Fe    0.19704    0.00658   -0.11876
103 Co   -0.04576    0.03366   -0.04077
104 Co   -0.10338   -0.10005    0.02957
105 Ni   -0.05242    0.01479    0.04326
106 Fe   -0.03473   -0.11269   -0.25836
107 Fe   -0.02383   -0.49041    0.04112

Date: Sat Apr  8 14:23:02 2023