User:   c.zeng@d0098
Date:   Fri Apr 14 17:41:47 2023
Arch:   x86_64
Pid:    100865
CWD:    /home/c.zeng/projects/hea-corrosion/hea-mlp/data-curation/bulk-mcmc/dft-jobs/151
Python: 3.8.1
gpaw:   /home/c.zeng/usr/installs/gpaw/source/gpaw-22.8.0/gpaw
_gpaw:  /home/c.zeng/usr/installs/gpaw/source/gpaw-22.8.0/
        _gpaw.cpython-38-x86_64-linux-gnu.so
ase:    /home/c.zeng/.local/lib/python3.8/site-packages/ase-3.22.1-py3.8.egg/ase (version 3.22.1)
numpy:  /shared/centos7/python/3.8.1/lib/python3.8/site-packages/numpy (version 1.17.4)
scipy:  /shared/centos7/python/3.8.1/lib/python3.8/site-packages/scipy (version 1.4.1)
units:  Angstrom and eV
cores: 30
OpenMP: False
OMP_NUM_THREADS: 1

Input parameters:
  convergence: {energy: 0.0001}
  kpts: [2 2 2]
  maxiter: 666
  mode: {ecut: 350.0,
         name: pw}
  occupations: {fixmagmom: False,
                name: fermi-dirac,
                width: 0.1}
  spinpol: True
  xc: PBE

System changes: positions, numbers, cell, pbc, initial_charges, initial_magmoms

Initialize ...

species:
  Co:
    name: Cobalt
    id: 339d20d5b0b93d2de9531a1bee871d91
    Z: 27.0
    valence: 9
    core: 18
    charge: 0.0
    file: /home/c.zeng/usr/data/gpaw-setups-0.9.20000/Co.PBE.gz
    compensation charges: {type: gauss,
                           rc: 0.32,
                           lmax: 2}
    cutoffs: {filter: 1.87,
              core: 2.55}
    valence states:
      #              energy  rcut
      - 4s(2.00)    -5.469   1.005
      - 4p(0.00)    -1.277   1.058
      - 3d(7.00)    -8.205   1.005
      -  s          21.742   1.005
      -  p          25.934   1.058
      -  d          19.007   1.005

    # Using partial waves for Co as LCAO basis

  Fe:
    name: Iron
    id: 37abbd8d6c3c35915a9b583b742da910
    Z: 26.0
    valence: 8
    core: 18
    charge: 0.0
    file: /home/c.zeng/usr/data/gpaw-setups-0.9.20000/Fe.PBE.gz
    compensation charges: {type: gauss,
                           rc: 0.33,
                           lmax: 2}
    cutoffs: {filter: 2.06,
              core: 2.67}
    valence states:
      #              energy  rcut
      - 4s(2.00)    -5.291   1.164
      - 4p(0.00)    -1.326   1.058
      - 3d(6.00)    -7.505   1.058
      -  s          21.920   1.164
      -  p          25.885   1.058
      -  d          19.706   1.058

[...]

  Al:
    name: Aluminium
    id: 0292cae29f5d6237e50f6abdd43a7bdd
    Z: 13.0
    valence: 3
    core: 10
    charge: 0.0
    file: /home/c.zeng/usr/data/gpaw-setups-0.9.20000/Al.PBE.gz
    compensation charges: {type: gauss,
                           rc: 0.34,
                           lmax: 2}
    cutoffs: {filter: 1.91,
              core: 2.36}
    valence states:
      #              energy  rcut
      - 3s(2.00)    -7.753   1.085
      - 3p(1.00)    -2.712   1.085
      -  s          19.459   1.085
      -  p          24.499   1.085
      -  d           0.000   1.085

[...]

  Cr:
    name: Chromium
    id: 33f258bda2ca9f93018e70263a35547b
    Z: 24.0
    valence: 6
    core: 18
    charge: 0.0
    file: /home/c.zeng/usr/data/gpaw-setups-0.9.20000/Cr.PBE.gz
    compensation charges: {type: gauss,
                           rc: 0.35,
                           lmax: 2}
    cutoffs: {filter: 2.14,
              core: 3.04}
    valence states:
      #              energy  rcut
      - 4s(1.00)    -4.007   1.164
      - 4p(0.00)    -0.989   1.217
      - 3d(5.00)    -2.913   1.111
      -  s          23.205   1.164
      -  p          26.223   1.217
      -  d          24.299   1.111

[...]

  Ni:
    name: Nickel
    id: 0d9f38a9d6e76a2886f07bb4381f212b
    Z: 28.0
    valence: 16
    core: 12
    charge: 0.0
    file: /home/c.zeng/usr/data/gpaw-setups-0.9.20000/Ni.PBE.gz
    compensation charges: {type: gauss,
                           rc: 0.36,
                           lmax: 2}
    cutoffs: {filter: 2.14,
              core: 1.98}
    valence states:
      #              energy  rcut
      - 4s(2.00)    -5.642   1.164
      - 3p(6.00)   -71.394   1.207
      - 4p(0.00)    -1.226   1.207
      - 3d(8.00)    -8.875   1.138
      -  s          21.570   1.164
      -  d          18.337   1.138

    # Using partial waves for Ni as LCAO basis

Reference energy: -3382523.201499  # eV

Spin-polarized calculation.
Magnetic moment: 128.800000

Convergence criteria:
 Maximum [total energy] change in last 3 cyles: 0.0001 eV / electron
 Maximum integral of absolute [dens]ity change: 0.0001 electrons / valence electron
 Maximum integral of absolute [eigenst]ate change: 4e-08 eV^2 / valence electron
 Maximum number of scf [iter]ations: 666
 (Square brackets indicate name in SCF output, whereas a 'c' in
 the SCF output indicates the quantity has converged.)

Symmetries present (total): 1

  ( 1  0  0)
  ( 0  1  0)
  ( 0  0  1)

8 k-points: 2 x 2 x 2 Monkhorst-Pack grid
4 k-points in the irreducible part of the Brillouin zone
       k-points in crystal coordinates                weights
   0:     0.25000000   -0.25000000   -0.25000000          2/8
   1:     0.25000000   -0.25000000    0.25000000          2/8
   2:     0.25000000    0.25000000   -0.25000000          2/8
   3:     0.25000000    0.25000000    0.25000000          2/8

Wave functions: Plane wave expansion
  Cutoff energy: 350.000 eV
  Number of coefficients (min, max): 18865, 18865
  Pulay-stress correction: 0.000000 eV/Ang^3 (de/decut=0.000000)
  Using FFTW library
  ScaLapack parameters: grid=1x1, blocksize=None
  Wavefunction extrapolation:
    Improved wavefunction reuse through dual PAW basis

Occupation numbers: Fermi-Dirac:
  width: 0.1000  # eV

Eigensolver
   Davidson(niter=2)

Densities:
  Coarse grid: 48*48*48 grid
  Fine grid: 96*96*96 grid
  Total Charge: 0.000000

Density mixing:
  Method: difference
  Backend: pulay
  Linear mixing parameter: 0.05
  old densities: 5
  Damping of long wavelength oscillations: 50

Hamiltonian:
  XC and Coulomb potentials evaluated on a 96*96*96 grid
  Using the PBE Exchange-Correlation functional
  External potential:
    NoExternalPotential

XC parameters: PBE with 2 nearest neighbor stencil

Total number of cores used: 30
Parallelization over k-points: 2
Domain decomposition: 5 x 3 x 1

Number of atoms: 108
Number of atomic orbitals: 961
Number of bands in calculation: 649
Number of valence electrons: 945
Bands to converge: occupied

... initialized

Initializing position-dependent things.

Density initialized from atomic densities
Creating initial wave functions:
  649 bands from LCAO basis set

       /|                     Co   |
      / |            Fe Fe     CrFe|
     /  |       Cr       Ni       Cr
    /   |Fe       Fel     CFer     |
   /i   | Coo        Fe      Co    |
  /  CrAl   NCr       Ni           |
 *      Ni     FeCo   AlFeCrCo   Cr|
 |      |CoNi   CrNiAl   NiAlNi   Co
 | CrCo | AlNi   AlAlFe     Ni     |
 |     Fe  FeCr Cr  Fe CoNi  CrNi  |
 |      CoNi   AlCr   FeCoFeNi  Co |
 |Al    |FeCr   AlCrFe   CrFe     Co
 |      .-CrCo-----NiCr-CoCoCrNi---.
 |     /   Ni Fe    Cr CoNi    Al /
 |    Fe       AFei       Al     /
 |   /  Fe         Al       Cr  /
 |  /      Co       Al       Co/
 | / Fe     Co       Ni Ni    /
 |/             Cr       Ni  /
 *--------Co----------------*

Positions:
   0 Co    10.764147   10.861293   10.805330    ( 0.0000,  0.0000,  2.0000)
   1 Co    10.786221    1.792513    1.813624    ( 0.0000,  0.0000,  0.0000)
   2 Fe     1.744156    0.036560    1.851269    ( 0.0000,  0.0000,  1.5000)
   3 Al     1.736571    1.831142   10.798805    ( 0.0000,  0.0000,  0.0000)
   4 Co     3.575126    0.057318    0.061759    ( 0.0000,  0.0000,  0.0000)
   5 Co     3.594289    1.817617    1.845577    ( 0.0000,  0.0000,  2.0000)
   6 Fe     5.429813   10.817005    1.865054    ( 0.0000,  0.0000,  1.5000)
   7 Cr     5.429608    1.929425    0.057134    ( 0.0000,  0.0000,  0.0000)
   8 Co     7.316909   10.723332    0.087382    ( 0.0000,  0.0000,  0.0000)
   9 Al     7.263142    1.825786    1.869404    ( 0.0000,  0.0000,  2.1000)
  10 Ni     9.063554    0.025226    1.863474    ( 0.0000,  0.0000,  1.5000)
  11 Ni     9.049217    1.829703    0.033106    ( 0.0000,  0.0000,  2.1000)
  12 Ni     0.004792    3.558981   10.794801    ( 0.0000,  0.0000,  1.5000)
  13 Al    10.759710    5.390697    1.778165    ( 0.0000,  0.0000,  0.0000)
  14 Fe     1.733585    3.561849    1.761112    ( 0.0000,  0.0000,  2.0000)
  15 Fe     1.776899    5.391834   10.795505    ( 0.0000,  0.0000,  0.0000)
  16 Co     3.565452    3.619360   10.832619    ( 0.0000,  0.0000,  2.1000)
  17 Fe     3.633221    5.394614    1.719551    ( 0.0000,  0.0000,  0.0000)
  18 Ni     5.471624    3.659114    1.836033    ( 0.0000,  0.0000,  2.1000)
  19 Fe     5.440212    5.373060   -0.002773    ( 0.0000,  0.0000,  2.0000)
  20 Ni     7.258997    3.609080    0.031294    ( 0.0000,  0.0000,  0.0000)
  21 Co     7.268941    5.378362    1.785274    ( 0.0000,  0.0000,  2.0000)
  22 Al     9.030724    3.577636    1.833728    ( 0.0000,  0.0000,  2.1000)
  23 Fe     9.040420    5.372281   10.801110    ( 0.0000,  0.0000,  0.0000)
  24 Fe    10.791663    7.196206   10.792486    ( 0.0000,  0.0000,  1.5000)
  25 Co    10.758434    9.040387    1.848239    ( 0.0000,  0.0000,  0.0000)
  26 Cr     1.690487    7.202493    1.786032    ( 0.0000,  0.0000,  0.0000)
  27 Ni     1.652691    8.981047    0.027217    ( 0.0000,  0.0000,  0.0000)
  28 Al     3.631241    7.164437    0.034633    ( 0.0000,  0.0000,  0.0000)
  29 Al     3.625452    9.063759    1.801678    ( 0.0000,  0.0000,  0.0000)
  30 Ni     5.490852    7.187095    1.746342    ( 0.0000,  0.0000,  2.0000)
  31 Cr     5.426935    8.989152    0.009861    ( 0.0000,  0.0000,  2.0000)
  32 Fe     7.229122    7.237075   -0.008698    ( 0.0000,  0.0000,  1.5000)
  33 Cr     7.249194    8.995850    1.810713    ( 0.0000,  0.0000,  0.0000)
  34 Cr     9.052073    7.204300    1.764218    ( 0.0000,  0.0000,  2.1000)
  35 Co     9.092553    8.989639   10.808760    ( 0.0000,  0.0000,  1.5000)
  36 Cr    -0.000975   10.826235    3.639789    ( 0.0000,  0.0000,  1.5000)
  37 Al    10.822772    1.771770    5.422044    ( 0.0000,  0.0000,  2.1000)
  38 Ni     1.754263   10.802084    5.428872    ( 0.0000,  0.0000,  2.1000)
  39 Fe     1.741873    1.774270    3.610801    ( 0.0000,  0.0000,  0.0000)
  40 Al     3.591183   10.794152    3.612143    ( 0.0000,  0.0000,  2.0000)
  41 Cr     3.593088    1.736744    5.455177    ( 0.0000,  0.0000,  0.0000)
  42 Al     5.437150   10.794563    5.400804    ( 0.0000,  0.0000,  2.0000)
  43 Fe     5.451931    1.783251    3.601387    ( 0.0000,  0.0000,  1.5000)
  44 Al     7.226222    0.007781    3.626209    ( 0.0000,  0.0000,  0.0000)
  45 Fe     7.236069    1.766512    5.381392    ( 0.0000,  0.0000,  2.1000)
  46 Co     9.034587   10.848850    5.403844    ( 0.0000,  0.0000,  2.1000)
  47 Ni     9.031558    1.804946    3.616730    ( 0.0000,  0.0000,  1.5000)
  48 Ni    10.773885    3.543973    3.617867    ( 0.0000,  0.0000,  1.5000)
  49 Ni    10.772186    5.358409    5.454917    ( 0.0000,  0.0000,  0.0000)
  50 Co     1.757531    3.575678    5.428937    ( 0.0000,  0.0000,  2.1000)
  51 Fe     1.621766    5.386986    3.572550    ( 0.0000,  0.0000,  0.0000)
[...]
iter:   9 18:05:46  -828.560503  -1.81  -1.66    +50.1375
iter:  10 18:08:04  -823.263523  -2.00  -1.65    +49.7578
iter:  11 18:10:13  -824.145848  -2.24  -1.79    +50.4610
iter:  12 18:12:21  -822.467339  -2.41  -1.81    +51.0484
iter:  13 18:14:29  -823.079984  -2.56  -1.89    +52.0332
iter:  14 18:16:37  -823.722996  -2.51  -1.93    +53.0908
iter:  15 18:18:45  -824.562587  -2.49  -1.93    +53.7192
iter:  16 18:20:57  -824.378984  -2.42  -1.94    +55.1121
iter:  17 18:23:47  -824.454117  -2.60  -1.96    +55.4297
iter:  18 18:25:56  -823.833722  -2.67  -2.02    +56.1748
iter:  19 18:28:04  -823.911927  -2.88  -2.11    +56.7790
iter:  20 18:30:12  -823.791381  -3.06  -2.13    +57.4379
iter:  21 18:32:19  -824.067186  -3.18  -2.19    +58.0604
iter:  22 18:34:28  -824.156375  -3.12  -2.20    +58.2932
iter:  23 18:36:36  -824.195431  -3.27  -2.19    +58.9043
iter:  24 18:38:44  -824.280741  -3.27  -2.24    +59.3072
iter:  25 18:40:52  -824.503761  -3.26  -2.27    +59.6299
iter:  26 18:43:00  -824.552405  -3.23  -2.27    +59.7874
iter:  27 18:45:08  -824.733542  -3.22  -2.33    +59.9968
iter:  28 18:47:15  -824.959052  -3.10  -2.30    +60.2700
iter:  29 18:49:24  -824.864133  -3.20  -2.30    +60.2160
iter:  30 18:51:32  -824.783307  -3.43  -2.34    +60.3529
iter:  31 18:53:40  -824.810671c -3.53  -2.43    +60.4115
iter:  32 18:55:48  -824.792787c -3.94  -2.43    +60.5652
iter:  33 18:57:55  -824.917758  -3.74  -2.50    +60.6357
iter:  34 19:00:04  -824.900174  -4.16  -2.48    +60.6718
iter:  35 19:02:12  -825.178600  -3.53  -2.54    +60.7667
iter:  36 19:04:46  -825.056413  -3.62  -2.45    +60.7586
iter:  37 19:07:15  -825.292481  -3.36  -2.60    +60.7788
iter:  38 19:09:23  -825.127197  -3.63  -2.53    +60.6450
iter:  39 19:11:31  -825.265224  -3.57  -2.72    +60.5794
iter:  40 19:13:40  -825.209424  -3.81  -2.64    +60.6097
iter:  41 19:15:48  -825.221484c -4.13  -2.77    +60.5193
iter:  42 19:17:55  -825.287842c -4.20  -2.83    +60.4434
iter:  43 19:20:07  -825.435916  -3.72  -2.84    +60.2456
iter:  44 19:22:16  -825.389872  -5.06  -2.75    +60.2895
iter:  45 19:24:24  -825.483610c -4.02  -2.77    +60.0834
iter:  46 19:26:35  -825.485179  -4.33  -2.73    +60.0269
iter:  47 19:28:44  -825.536953c -4.16  -2.76    +59.8572
iter:  48 19:30:52  -825.562499c -4.33  -2.75    +59.7545
iter:  49 19:33:01  -825.588400c -4.05  -2.79    +59.5362
iter:  50 19:35:12  -825.665344  -3.94  -2.68    +59.4711
iter:  51 19:37:25  -825.750207  -3.60  -2.65    +59.4268
iter:  52 19:39:34  -825.737795c -3.48  -2.59    +59.2697
iter:  53 19:41:47  -825.605238  -3.90  -2.65    +59.0725
iter:  54 19:44:05  -825.634521  -4.09  -2.91    +58.8498
iter:  55 19:46:22  -825.620250c -4.34  -2.89    +58.6281
iter:  56 19:48:39  -825.626302c -4.84  -3.04    +58.4766
iter:  57 19:51:04  -825.651587c -4.60  -3.08    +58.1724
iter:  58 19:53:15  -825.694709c -4.28  -3.05    +57.8306
iter:  59 19:55:26  -825.715453c -4.48  -2.94    +57.6908
iter:  60 19:57:36  -825.712352c -4.06  -2.94    +57.5533
iter:  61 19:59:53  -825.714723c -4.58  -3.07    +57.4663
iter:  62 20:02:09  -825.714889c -4.95  -3.10    +57.3569
iter:  63 20:04:18  -825.720876c -4.48  -3.15    +57.2963
iter:  64 20:06:37  -825.710246c -4.89  -3.10    +57.2745
iter:  65 20:08:47  -825.712988c -5.25  -3.30    +57.1123
iter:  66 20:10:58  -825.714709c -5.28  -3.32    +57.0394
iter:  67 20:13:19  -825.716382c -5.25  -3.37    +56.9734
iter:  68 20:15:31  -825.718237c -5.29  -3.43    +56.9412
iter:  69 20:17:40  -825.717741c -5.34  -3.42    +56.9344
iter:  70 20:19:58  -825.717684c -5.54  -3.49    +56.9311
iter:  71 20:22:14  -825.718084c -5.67  -3.53    +56.9127
iter:  72 20:24:25  -825.717818c -5.97  -3.58    +56.9185
iter:  73 20:26:37  -825.718433c -5.98  -3.61    +56.9250
iter:  74 20:28:56  -825.718192c -5.98  -3.63    +56.9224
iter:  75 20:31:05  -825.718433c -6.21  -3.70    +56.9304
iter:  76 20:33:18  -825.718531c -6.04  -3.72    +56.9408
iter:  77 20:35:27  -825.718789c -6.22  -3.71    +56.9417
iter:  78 20:37:38  -825.718727c -6.26  -3.78    +56.9555
iter:  79 20:39:48  -825.719059c -6.29  -3.80    +56.9637
iter:  80 20:41:58  -825.719072c -6.45  -3.83    +56.9693
iter:  81 20:44:07  -825.719095c -6.62  -3.89    +56.9775
iter:  82 20:46:16  -825.719395c -6.47  -3.92    +56.9900
iter:  83 20:48:37  -825.719485c -6.70  -3.93    +56.9899
iter:  84 20:50:56  -825.719535c -6.53  -3.97    +57.0080
iter:  85 20:53:06  -825.719780c -6.71  -4.00c   +57.0130
iter:  86 20:55:22  -825.719861c -6.65  -4.04c   +57.0246
iter:  87 20:57:37  -825.719829c -7.10  -4.09c   +57.0260
iter:  88 20:59:48  -825.720158c -6.57  -4.12c   +57.0394
iter:  89 21:01:59  -825.720059c -6.85  -4.12c   +57.0300
iter:  90 21:04:09  -825.720026c -6.89  -4.15c   +57.0456
iter:  91 21:06:19  -825.720307c -6.88  -4.21c   +57.0509
iter:  92 21:08:29  -825.720414c -6.79  -4.20c   +57.0644
iter:  93 21:10:38  -825.720265c -7.13  -4.24c   +57.0489
iter:  94 21:12:48  -825.719667c -5.78  -4.28c   +56.9663
iter:  95 21:14:58  -825.719811c -7.10  -4.21c   +56.9818
iter:  96 21:17:08  -825.719857c -7.08  -4.26c   +56.9951
iter:  97 21:19:19  -825.719999c -7.27  -4.31c   +56.9998
iter:  98 21:21:28  -825.719932c -6.88  -4.44c   +57.0119
iter:  99 21:24:02  -825.720016c -7.25  -4.54c   +57.0157
iter: 100 21:26:19  -825.720202c -6.80  -4.72c   +57.0326
iter: 101 21:28:28  -825.720062c -6.93  -4.68c   +57.0179
iter: 102 21:30:37  -825.719836c -6.06  -4.76c   +56.9890
iter: 103 21:32:46  -825.719836c -6.85  -4.37c   +56.9920
iter: 104 21:34:54  -825.719993c -6.37  -4.31c   +57.0164
iter: 105 21:37:03  -825.719983c -7.03  -4.23c   +57.0130
iter: 106 21:39:11  -825.720159c -6.09  -4.32c   +57.0394
iter: 107 21:41:20  -825.720022c -6.30  -4.12c   +57.0333
iter: 108 21:43:29  -825.720371c -5.80  -4.32c   +57.0620
iter: 109 21:45:37  -825.720405c -6.29  -4.01c   +57.0639
iter: 110 21:47:45  -825.720540c -6.66  -4.24c   +57.0832
iter: 111 21:49:53  -825.719827c -5.06  -4.12c   +56.9753
iter: 112 21:52:01  -825.720010c -6.41  -4.19c   +57.0194
iter: 113 21:54:09  -825.720039c -7.05  -4.66c   +57.0209
iter: 114 21:56:17  -825.720183c -6.49  -4.54c   +57.0359
iter: 115 21:58:25  -825.720227c -6.26  -4.86c   +57.0340
iter: 116 22:00:33  -825.720428c -6.08  -4.41c   +57.0568
iter: 117 22:02:41  -825.720501c -6.57  -4.67c   +57.0646
iter: 118 22:04:49  -825.720286c -5.10  -4.53c   +57.0426
iter: 119 22:06:57  -825.720431c -6.36  -3.97    +57.0624
iter: 120 22:09:20  -825.719764c -5.58  -3.99    +56.9731
iter: 121 22:12:01  -825.719688c -5.83  -3.89    +56.9205
iter: 122 22:14:09  -825.719730c -5.77  -3.84    +56.8622
iter: 123 22:16:17  -825.719996c -5.04  -3.79    +56.7313
iter: 124 22:18:06  -825.719022c -5.27  -3.71    +56.8693
iter: 125 22:20:00  -825.719120c -6.23  -3.81    +56.8592
iter: 126 22:21:40  -825.719150c -6.33  -3.97    +56.8803
iter: 127 22:23:20  -825.719912c -5.96  -3.98    +56.8825
iter: 128 22:25:02  -825.719093c -6.36  -3.89    +56.8852
iter: 129 22:27:02  -825.719416c -6.17  -4.08c   +56.9000
iter: 130 22:29:10  -825.719587c -6.49  -4.09c   +56.9140
iter: 131 22:31:18  -825.719587c -6.48  -4.28c   +56.9229
iter: 132 22:32:59  -825.719780c -6.50  -4.33c   +56.9330
iter: 133 22:34:43  -825.719670c -6.69  -4.29c   +56.9411
iter: 134 22:36:24  -825.720010c -6.60  -4.39c   +56.9536
iter: 135 22:38:04  -825.719955c -6.98  -4.43c   +56.9601
iter: 136 22:39:58  -825.719996c -6.72  -4.70c   +56.9778
iter: 137 22:42:05  -825.719873c -6.43  -4.62c   +56.9390
iter: 138 22:44:13  -825.719733c -5.00  -4.68c   +56.7551
iter: 139 22:45:54  -825.720180c -5.32  -4.03c   +56.6702
iter: 140 22:47:34  -825.721049c -5.27  -3.89    +56.5773
iter: 141 22:49:15  -825.722028c -5.41  -3.77    +56.5127
iter: 142 22:51:02  -825.723358c -5.35  -3.71    +56.4443
iter: 143 22:53:10  -825.724418c -5.41  -3.65    +56.3877
iter: 144 22:55:17  -825.723587c -6.02  -3.59    +56.4356
iter: 145 22:56:58  -825.724369c -6.10  -3.63    +56.4253
iter: 146 22:58:52  -825.724841c -5.40  -3.58    +56.4344
iter: 147 23:00:32  -825.726240c -5.01  -3.46    +56.4401
iter: 148 23:02:12  -825.725118c -5.27  -3.36    +56.4459
iter: 149 23:03:54  -825.724218c -5.16  -3.51    +56.4600
iter: 150 23:06:00  -825.721642c -5.83  -3.51    +56.4442
iter: 151 23:08:07  -825.722765c -5.88  -3.80    +56.4415
iter: 152 23:10:15  -825.722609c -5.69  -3.76    +56.4337
iter: 153 23:11:57  -825.722375c -5.83  -3.73    +56.4385
iter: 154 23:13:41  -825.722111c -5.57  -3.79    +56.4334
iter: 155 23:15:22  -825.721762c -5.98  -3.68    +56.4259
iter: 156 23:17:25  -825.721906c -6.24  -4.01c   +56.4379
iter: 157 23:19:32  -825.721420c -6.62  -3.94    +56.4353
iter: 158 23:21:39  -825.721642c -6.68  -4.07c   +56.4370
iter: 159 23:23:23  -825.721669c -6.65  -4.10c   +56.4393
iter: 160 23:25:03  -825.721861c -6.61  -4.06c   +56.4450
iter: 161 23:26:59  -825.721454c -6.63  -4.14c   +56.4489
iter: 162 23:29:07  -825.721631c -6.46  -4.09c   +56.4502
iter: 163 23:30:47  -825.721617c -6.62  -4.09c   +56.4566
iter: 164 23:32:40  -825.721342c -6.60  -4.22c   +56.4630
iter: 165 23:34:47  -825.721446c -6.68  -4.17c   +56.4645
iter: 166 23:36:29  -825.721321c -6.98  -4.22c   +56.4686
iter: 167 23:39:09  -825.721533c -6.87  -4.43c   +56.4752
iter: 168 23:41:04  -825.721288c -7.28  -4.31c   +56.4786
iter: 169 23:42:45  -825.721256c -7.29  -4.51c   +56.4848
iter: 170 23:44:32  -825.721348c -7.61c -4.50c   +56.4868

Converged after 170 iterations.

Dipole moment: (29.606574, -3.479283, -11.104652) |e|*Ang

Total magnetic moment: (0.000000, 0.000000, 56.486840)
Local magnetic moments:
   0 Co ( 0.000000,  0.000000,  1.238758)
   1 Co ( 0.000000,  0.000000,  1.346967)
   2 Fe ( 0.000000,  0.000000,  2.359496)
   3 Al ( 0.000000,  0.000000, -0.039074)
   4 Co ( 0.000000,  0.000000,  1.341670)
   5 Co ( 0.000000,  0.000000,  1.438882)
   6 Fe ( 0.000000,  0.000000,  1.974638)
   7 Cr ( 0.000000,  0.000000, -2.346861)
   8 Co ( 0.000000,  0.000000,  0.840060)
   9 Al ( 0.000000,  0.000000, -0.011066)
  10 Ni ( 0.000000,  0.000000,  0.180488)
  11 Ni ( 0.000000,  0.000000,  0.157701)
  12 Ni ( 0.000000,  0.000000,  0.238012)
  13 Al ( 0.000000,  0.000000, -0.037503)
  14 Fe ( 0.000000,  0.000000,  2.322590)
  15 Fe ( 0.000000,  0.000000,  2.019636)
  16 Co ( 0.000000,  0.000000,  1.298454)
  17 Fe ( 0.000000,  0.000000,  2.156664)
  18 Ni ( 0.000000,  0.000000,  0.273321)
  19 Fe ( 0.000000,  0.000000,  2.207880)
  20 Ni ( 0.000000,  0.000000,  0.115384)
  21 Co ( 0.000000,  0.000000,  1.216386)
  22 Al ( 0.000000,  0.000000, -0.023028)
  23 Fe ( 0.000000,  0.000000,  2.062241)
  24 Fe ( 0.000000,  0.000000,  1.629966)
  25 Co ( 0.000000,  0.000000,  0.979074)
  26 Cr ( 0.000000,  0.000000, -1.857950)
  27 Ni ( 0.000000,  0.000000,  0.098453)
  28 Al ( 0.000000,  0.000000, -0.009164)
  29 Al ( 0.000000,  0.000000, -0.021561)
  30 Ni ( 0.000000,  0.000000,  0.333256)
  31 Cr ( 0.000000,  0.000000,  1.595189)
  32 Fe ( 0.000000,  0.000000,  1.999605)
  33 Cr ( 0.000000,  0.000000, -1.511142)
  34 Cr ( 0.000000,  0.000000, -1.613595)
  35 Co ( 0.000000,  0.000000,  0.946596)
  36 Cr ( 0.000000,  0.000000, -1.537625)
  37 Al ( 0.000000,  0.000000, -0.027725)
  38 Ni ( 0.000000,  0.000000,  0.115305)
  39 Fe ( 0.000000,  0.000000,  2.257296)
  40 Al ( 0.000000,  0.000000, -0.040134)
  41 Cr ( 0.000000,  0.000000, -2.038284)
  42 Al ( 0.000000,  0.000000, -0.027754)
  43 Fe ( 0.000000,  0.000000,  1.855408)
  44 Al ( 0.000000,  0.000000, -0.032692)
  45 Fe ( 0.000000,  0.000000,  1.704147)
  46 Co ( 0.000000,  0.000000,  0.919914)
  47 Ni ( 0.000000,  0.000000,  0.129710)
  48 Ni ( 0.000000,  0.000000,  0.408790)
  49 Ni ( 0.000000,  0.000000,  0.302162)
  50 Co ( 0.000000,  0.000000,  1.246537)
  51 Fe ( 0.000000,  0.000000,  2.343681)
  52 Co ( 0.000000,  0.000000,  1.109867)
  53 Cr ( 0.000000,  0.000000, -1.910946)
  54 Cr ( 0.000000,  0.000000, -0.650233)
  55 Cr ( 0.000000,  0.000000,  1.488968)
  56 Cr ( 0.000000,  0.000000, -1.644657)
  57 Co ( 0.000000,  0.000000,  0.724687)
  58 Fe ( 0.000000,  0.000000,  2.123530)
  59 Fe ( 0.000000,  0.000000,  2.197176)
[...]
  93 Ni ( 0.000000,  0.000000,  0.263501)
  94 Cr ( 0.000000,  0.000000,  1.513721)
  95 Al ( 0.000000,  0.000000, -0.001663)
  96 Cr ( 0.000000,  0.000000,  1.268568)
  97 Cr ( 0.000000,  0.000000, -1.284089)
  98 Co ( 0.000000,  0.000000,  0.259453)
  99 Co ( 0.000000,  0.000000,  0.981667)
 100 Fe ( 0.000000,  0.000000,  2.029651)
 101 Cr ( 0.000000,  0.000000, -2.279904)
 102 Al ( 0.000000,  0.000000, -0.029824)
 103 Fe ( 0.000000,  0.000000,  2.158941)
 104 Fe ( 0.000000,  0.000000,  2.480415)
 105 Ni ( 0.000000,  0.000000,  0.255139)
 106 Cr ( 0.000000,  0.000000, -1.464340)
 107 Co ( 0.000000,  0.000000,  0.859411)

Energy contributions relative to reference atoms: (reference = -3382523.201499)

Kinetic:       +227.105474
Potential:     -234.140081
External:        +0.000000
XC:            -849.888989
Entropy (-ST):   -4.103581
Local:          +33.254039
Free energy:   -827.773138
Extrapolated:  -825.721348

Spin contamination: 31.907847 electrons
Showing only first 2 kpts
                      Up                     Down
 Kpt  Band  Eigenvalues  Occupancy  Eigenvalues  Occupancy
  0   470      9.14803    0.99570     10.04316    0.02914
  0   471      9.16382    0.99497     10.06500    0.02356
  0   472      9.17609    0.99432     10.07118    0.02218
  0   473      9.20725    0.99226     10.07956    0.02043

  1   470      9.16004    0.99516     10.03793    0.03066
  1   471      9.16712    0.99480     10.04864    0.02763
  1   472      9.19389    0.99322     10.07005    0.02243
  1   473      9.20404    0.99250     10.07987    0.02037

Fermi level: 9.69256

No gap

Forces in eV/Ang:
  0 Co    0.15274   -0.52949    0.22896
  1 Co    0.41491   -0.30087   -0.00208
  2 Fe   -0.16904   -0.06162   -0.80168
  3 Al    0.36371   -0.36335   -0.29433
  4 Co    0.21450   -0.27753   -0.49977
  5 Co    0.22516    0.33164   -0.21243
  6 Fe    0.24313    0.36643   -0.98916
  7 Cr   -1.14297   -0.99667   -0.80708
  8 Co   -0.56900    0.44229   -0.46317
  9 Al   -0.22392   -0.68210   -1.41278
 10 Ni   -0.17959   -0.30419   -0.40931
 11 Ni   -0.16790   -0.33271   -0.46932
 12 Ni   -0.29896    0.53121    0.09246
 13 Al    0.79763   -0.21646   -0.21274
 14 Fe    0.62207    0.07455    0.78233
 15 Fe   -0.13464   -0.15485   -0.11320
 16 Co    0.46972    0.01583    0.31210
 17 Fe   -0.54360   -0.69471    0.66763
 18 Ni   -0.50065   -0.25799   -0.02811
 19 Fe    0.30298   -0.60926    0.29358
 20 Ni   -0.15001   -0.04336   -0.41048
 21 Co   -0.01670    0.46585    0.03071
 22 Al    0.47756   -0.27666   -0.68394
 23 Fe   -0.48350    0.73065   -0.36797
 24 Fe    0.33614    0.17558   -0.17284
 25 Co    0.24382   -0.13420   -0.30093
 26 Cr   -0.64679    0.20295    0.18768
 27 Ni    0.76770    0.49581   -0.26346
 28 Al   -0.99876    0.31194    0.06118
 29 Al   -0.53035    0.39482   -1.11926
 30 Ni   -0.15621    0.06503    0.52240
 31 Cr    0.66363    1.32538   -0.45335
 32 Fe    0.72813   -0.28167    0.25961
 33 Cr    0.02529    0.24372   -0.60640
 34 Cr   -0.37326    0.36096   -0.09268
 35 Co   -0.23616    0.16050    0.25225
 36 Cr   -0.04758   -0.62809   -0.84519
 37 Al   -0.19593   -0.05439   -0.05506
 38 Ni    0.22001   -0.05607    0.11727
 39 Fe    0.50145    0.62631   -0.10636
 40 Al   -0.46583    0.83840   -0.24044
 41 Cr   -0.54606    1.40597    0.10798
 42 Al    0.31447   -0.08857    0.90449
 43 Fe   -0.64025    0.63876    0.07892
 44 Al    0.99367   -0.23006    0.04657
 45 Fe    0.36786    0.71125    0.43800
 46 Co   -0.18815   -0.36045    0.08668
 47 Ni   -0.01787   -0.21493    0.05065
 48 Ni    0.58063    0.39519   -0.04786
 49 Ni    0.35723    0.22659   -0.39331
 50 Co    0.63770    0.29641   -0.31315
 51 Fe    1.18429   -0.23799    0.35301
 52 Co   -0.29035   -0.04748    0.33214
 53 Cr   -0.26531   -0.81715   -0.14398
 54 Cr    0.23782    0.25595    0.10260
 55 Cr    0.14160   -0.60745    0.23488
 56 Cr   -0.75467    0.65745    1.25931
 57 Co    0.08645    0.00756    0.19611
 58 Fe   -0.78456    0.24192    0.15288
 59 Fe   -0.71961    0.88740    0.77067
[...]
 93 Ni    0.27525   -0.20919   -0.28048
 94 Cr    0.01818    0.14117    0.25837
 95 Al   -1.30920    0.09890   -0.92765
 96 Cr    0.09682    0.35941    0.86049
 97 Cr    0.52706    0.39893    0.39645
 98 Co    0.15990    0.25006   -0.12781
 99 Co    0.23743   -0.21235    0.27611
100 Fe   -0.45332    0.44051    0.20363
101 Cr   -0.64283    1.02777    0.15545
102 Al    1.23116    0.07916   -1.26263
103 Fe   -0.08613   -0.41785    0.44676
104 Fe    0.02186   -0.06640   -0.51782
105 Ni    0.07821    0.21218    0.07295
106 Cr   -0.95133    0.41618    0.34293
107 Co   -0.41301   -0.05225   -0.10803

Date: Fri Apr 14 23:44:57 2023