User:   c.zeng@d0110
Date:   Fri Apr 14 01:42:54 2023
Arch:   x86_64
Pid:    230541
CWD:    /home/c.zeng/projects/hea-corrosion/hea-mlp/data-curation/bulk-md/dft-jobs/84
Python: 3.8.1
gpaw:   /home/c.zeng/usr/installs/gpaw/source/gpaw-22.8.0/gpaw
_gpaw:  /home/c.zeng/usr/installs/gpaw/source/gpaw-22.8.0/
        _gpaw.cpython-38-x86_64-linux-gnu.so
ase:    /home/c.zeng/.local/lib/python3.8/site-packages/ase-3.22.1-py3.8.egg/ase (version 3.22.1)
numpy:  /shared/centos7/python/3.8.1/lib/python3.8/site-packages/numpy (version 1.17.4)
scipy:  /shared/centos7/python/3.8.1/lib/python3.8/site-packages/scipy (version 1.4.1)
units:  Angstrom and eV
cores: 30
OpenMP: False
OMP_NUM_THREADS: 1

Input parameters:
  convergence: {energy: 0.0001}
  kpts: [2 2 2]
  maxiter: 666
  mode: {ecut: 350.0,
         name: pw}
  occupations: {fixmagmom: False,
                name: fermi-dirac,
                width: 0.1}
  spinpol: True
  xc: PBE

System changes: positions, numbers, cell, pbc, initial_charges, initial_magmoms

Initialize ...

species:
  Al:
    name: Aluminium
    id: 0292cae29f5d6237e50f6abdd43a7bdd
    Z: 13.0
    valence: 3
    core: 10
    charge: 0.0
    file: /home/c.zeng/usr/data/gpaw-setups-0.9.20000/Al.PBE.gz
    compensation charges: {type: gauss,
                           rc: 0.34,
                           lmax: 2}
    cutoffs: {filter: 1.91,
              core: 2.36}
    valence states:
      #              energy  rcut
      - 3s(2.00)    -7.753   1.085
      - 3p(1.00)    -2.712   1.085
      -  s          19.459   1.085
      -  p          24.499   1.085
      -  d           0.000   1.085

    # Using partial waves for Al as LCAO basis

  Fe:
    name: Iron
    id: 37abbd8d6c3c35915a9b583b742da910
    Z: 26.0
    valence: 8
    core: 18
    charge: 0.0
    file: /home/c.zeng/usr/data/gpaw-setups-0.9.20000/Fe.PBE.gz
    compensation charges: {type: gauss,
                           rc: 0.33,
                           lmax: 2}
    cutoffs: {filter: 2.06,
              core: 2.67}
    valence states:
      #              energy  rcut
      - 4s(2.00)    -5.291   1.164
      - 4p(0.00)    -1.326   1.058
      - 3d(6.00)    -7.505   1.058
      -  s          21.920   1.164
      -  p          25.885   1.058
      -  d          19.706   1.058

[...]

  Cr:
    name: Chromium
    id: 33f258bda2ca9f93018e70263a35547b
    Z: 24.0
    valence: 6
    core: 18
    charge: 0.0
    file: /home/c.zeng/usr/data/gpaw-setups-0.9.20000/Cr.PBE.gz
    compensation charges: {type: gauss,
                           rc: 0.35,
                           lmax: 2}
    cutoffs: {filter: 2.14,
              core: 3.04}
    valence states:
      #              energy  rcut
      - 4s(1.00)    -4.007   1.164
      - 4p(0.00)    -0.989   1.217
      - 3d(5.00)    -2.913   1.111
      -  s          23.205   1.164
      -  p          26.223   1.217
      -  d          24.299   1.111

[...]

  Ni:
    name: Nickel
    id: 0d9f38a9d6e76a2886f07bb4381f212b
    Z: 28.0
    valence: 16
    core: 12
    charge: 0.0
    file: /home/c.zeng/usr/data/gpaw-setups-0.9.20000/Ni.PBE.gz
    compensation charges: {type: gauss,
                           rc: 0.36,
                           lmax: 2}
    cutoffs: {filter: 2.14,
              core: 1.98}
    valence states:
      #              energy  rcut
      - 4s(2.00)    -5.642   1.164
      - 3p(6.00)   -71.394   1.207
      - 4p(0.00)    -1.226   1.207
      - 3d(8.00)    -8.875   1.138
      -  s          21.570   1.164
      -  d          18.337   1.138

[...]

  Co:
    name: Cobalt
    id: 339d20d5b0b93d2de9531a1bee871d91
    Z: 27.0
    valence: 9
    core: 18
    charge: 0.0
    file: /home/c.zeng/usr/data/gpaw-setups-0.9.20000/Co.PBE.gz
    compensation charges: {type: gauss,
                           rc: 0.32,
                           lmax: 2}
    cutoffs: {filter: 1.87,
              core: 2.55}
    valence states:
      #              energy  rcut
      - 4s(2.00)    -5.469   1.005
      - 4p(0.00)    -1.277   1.058
      - 3d(7.00)    -8.205   1.005
      -  s          21.742   1.005
      -  p          25.934   1.058
      -  d          19.007   1.005

    # Using partial waves for Co as LCAO basis

Reference energy: -3235165.067515  # eV

Spin-polarized calculation.
Magnetic moment: 121.100000

Convergence criteria:
 Maximum [total energy] change in last 3 cyles: 0.0001 eV / electron
 Maximum integral of absolute [dens]ity change: 0.0001 electrons / valence electron
 Maximum integral of absolute [eigenst]ate change: 4e-08 eV^2 / valence electron
 Maximum number of scf [iter]ations: 666
 (Square brackets indicate name in SCF output, whereas a 'c' in
 the SCF output indicates the quantity has converged.)

Symmetries present (total): 1

  ( 1  0  0)
  ( 0  1  0)
  ( 0  0  1)

8 k-points: 2 x 2 x 2 Monkhorst-Pack grid
4 k-points in the irreducible part of the Brillouin zone
       k-points in crystal coordinates                weights
   0:     0.25000000   -0.25000000   -0.25000000          2/8
   1:     0.25000000   -0.25000000    0.25000000          2/8
   2:     0.25000000    0.25000000   -0.25000000          2/8
   3:     0.25000000    0.25000000    0.25000000          2/8

Wave functions: Plane wave expansion
  Cutoff energy: 350.000 eV
  Number of coefficients (min, max): 19084, 19084
  Pulay-stress correction: 0.000000 eV/Ang^3 (de/decut=0.000000)
  Using FFTW library
  ScaLapack parameters: grid=1x1, blocksize=None
  Wavefunction extrapolation:
    Improved wavefunction reuse through dual PAW basis

Occupation numbers: Fermi-Dirac:
  width: 0.1000  # eV

Eigensolver
   Davidson(niter=2)

Densities:
  Coarse grid: 48*48*48 grid
  Fine grid: 96*96*96 grid
  Total Charge: 0.000000

Density mixing:
  Method: difference
  Backend: pulay
  Linear mixing parameter: 0.05
  old densities: 5
  Damping of long wavelength oscillations: 50

Hamiltonian:
  XC and Coulomb potentials evaluated on a 96*96*96 grid
  Using the PBE Exchange-Correlation functional
  External potential:
    NoExternalPotential

XC parameters: PBE with 2 nearest neighbor stencil

Total number of cores used: 30
Parallelization over k-points: 2
Domain decomposition: 5 x 3 x 1

Number of atoms: 108
Number of atomic orbitals: 933
Number of bands in calculation: 624
Number of valence electrons: 912
Bands to converge: occupied

... initialized

Initializing position-dependent things.

Density initialized from atomic densities
Creating initial wave functions:
  624 bands from LCAO basis set

        .-----------------Fe------Al
      / |   Cr        Co      Ni   |
     /  |       CoFe     Ni       Al
    /   |Coe     Co Al    NiAl     |
   /    |  CoFe     FCr       Fe   |
  /    Cr     FeNi     CFe   CrCr  |
 *    AlCr      NCo     CoNi       |
 |      |Al Al    NiFe     FeAl   Cr
 | Cr   |  FeCr  AlCoCr     Fe     |
 |  Fe Co  FeNi Cr  CrCrFe   Cr    |
 |    CoAl     AlNi    Ni Ni   Ni  |
 |Co   Al CAl   NiCoCo   CCrCo     |
 |  FCr .-Ni-CCr---NiAl-----Fe-----.
 |     /    Cr  Al  Ni  Cri   NCo /
 |    NiCr   AlFe  Al CoCo  Fe  Ni
 |   /     Al    Fe       Ale   /
 |  /                Co      Fe/
 | / Cr        Al             /
 *--------Ni----------------*

Positions:
   0 Al    10.714239   -0.189141   -0.016868    ( 0.0000,  0.0000,  0.0000)
   1 Fe    10.735859    1.758769    1.758365    ( 0.0000,  0.0000,  2.0000)
   2 Cr     1.694147   10.876617    1.825458    ( 0.0000,  0.0000,  0.0000)
   3 Cr     2.014772    1.655970   -0.037366    ( 0.0000,  0.0000,  0.0000)
   4 Ni     3.763422   11.080757   11.072516    ( 0.0000,  0.0000,  1.5000)
   5 Al     3.367793    1.907442    1.959694    ( 0.0000,  0.0000,  0.0000)
   6 Al     5.543855   10.913010    1.738890    ( 0.0000,  0.0000,  0.0000)
   7 Ni     5.674088    1.848274   10.682966    ( 0.0000,  0.0000,  1.5000)
   8 Fe     7.298759   -0.286870   10.802002    ( 0.0000,  0.0000,  2.0000)
   9 Co     7.555587    1.783560    1.959662    ( 0.0000,  0.0000,  2.1000)
  10 Ni     9.143287   -0.223577    1.743635    ( 0.0000,  0.0000,  1.5000)
  11 Fe     8.900073    1.670819   10.770880    ( 0.0000,  0.0000,  2.0000)
  12 Fe    10.785104    3.634482   -0.041343    ( 0.0000,  0.0000,  2.0000)
  13 Co    10.817494    5.461591    1.689757    ( 0.0000,  0.0000,  2.1000)
  14 Cr     1.678418    3.848474    1.731120    ( 0.0000,  0.0000,  0.0000)
  15 Co     1.686314    5.324942   10.778941    ( 0.0000,  0.0000,  2.1000)
  16 Fe     3.765313    3.406324   -0.138325    ( 0.0000,  0.0000,  2.0000)
  17 Al     3.489185    5.219038    1.490355    ( 0.0000,  0.0000,  0.0000)
  18 Fe     5.388789    3.515493    1.419221    ( 0.0000,  0.0000,  2.0000)
  19 Fe     5.429026    5.499999   -0.030183    ( 0.0000,  0.0000,  2.0000)
  20 Cr     7.274549    3.640331   10.761172    ( 0.0000,  0.0000,  0.0000)
  21 Co     7.220065    5.107516    1.803791    ( 0.0000,  0.0000,  2.1000)
  22 Al     9.136584    3.577252    1.753179    ( 0.0000,  0.0000,  0.0000)
  23 Fe     8.882578    5.375136    0.216123    ( 0.0000,  0.0000,  2.0000)
  24 Ni    10.718940    7.255619    0.140552    ( 0.0000,  0.0000,  1.5000)
  25 Al     0.112570    8.986029    1.804551    ( 0.0000,  0.0000,  0.0000)
  26 Ni     1.709978    7.162795    1.818407    ( 0.0000,  0.0000,  1.5000)
  27 Cr     1.919592    9.154038   10.882711    ( 0.0000,  0.0000,  0.0000)
  28 Fe     3.598460    7.217872    0.118448    ( 0.0000,  0.0000,  2.0000)
  29 Ni     3.694558    9.028618    1.596359    ( 0.0000,  0.0000,  1.5000)
  30 Ni     5.422501    7.354005    1.777844    ( 0.0000,  0.0000,  1.5000)
  31 Ni     5.317472    9.058714   10.955217    ( 0.0000,  0.0000,  1.5000)
  32 Co     7.228304    7.269417    0.131028    ( 0.0000,  0.0000,  2.1000)
  33 Cr     7.114024    9.097156    1.929694    ( 0.0000,  0.0000,  0.0000)
  34 Fe     9.013943    7.261358    1.830449    ( 0.0000,  0.0000,  2.0000)
  35 Ni     9.210461    8.919547    0.116754    ( 0.0000,  0.0000,  1.5000)
  36 Fe    -0.153913    0.057176    3.786687    ( 0.0000,  0.0000,  2.0000)
  37 Co    10.891027    2.103496    5.527955    ( 0.0000,  0.0000,  2.1000)
  38 Cr     1.675091   10.909143    5.542826    ( 0.0000,  0.0000,  0.0000)
  39 Ni     1.647886    1.806790    3.623356    ( 0.0000,  0.0000,  1.5000)
  40 Al     3.496999   10.603469    3.662655    ( 0.0000,  0.0000,  0.0000)
  41 Al     3.702436    1.811883    5.556397    ( 0.0000,  0.0000,  0.0000)
  42 Cr     5.414577   10.928796    5.433070    ( 0.0000,  0.0000,  0.0000)
  43 Al     5.400126    1.881039    3.615671    ( 0.0000,  0.0000,  0.0000)
  44 Al     7.357634   11.011908    3.701927    ( 0.0000,  0.0000,  0.0000)
  45 Co     7.072489    1.710557    5.416186    ( 0.0000,  0.0000,  2.1000)
  46 Cr     9.059158    0.010179    5.391820    ( 0.0000,  0.0000,  0.0000)
  47 Ni     9.216289    1.856565    3.675100    ( 0.0000,  0.0000,  1.5000)
  48 Fe     0.061987    3.670518    3.593409    ( 0.0000,  0.0000,  2.0000)
  49 Fe    10.885192    5.309364    5.413420    ( 0.0000,  0.0000,  2.0000)
  50 Al     1.913461    3.601128    5.396169    ( 0.0000,  0.0000,  0.0000)
  51 Co     2.023856    5.396956    3.514900    ( 0.0000,  0.0000,  2.1000)
  52 Co     3.880609    3.832585    3.610050    ( 0.0000,  0.0000,  2.1000)
  53 Ni     3.590810    5.524257    5.407497    ( 0.0000,  0.0000,  1.5000)
  54 Ni     5.376220    3.822548    5.431034    ( 0.0000,  0.0000,  1.5000)
  55 Co     5.469894    5.719433    3.490325    ( 0.0000,  0.0000,  2.1000)
  56 Al     7.291905    3.530979    3.689456    ( 0.0000,  0.0000,  0.0000)
  57 Cr     7.249869    5.407414    5.452044    ( 0.0000,  0.0000,  0.0000)
  58 Ni     9.030103    3.558777    5.545175    ( 0.0000,  0.0000,  1.5000)
  59 Cr     8.851362    5.397049    3.733236    ( 0.0000,  0.0000,  0.0000)
[...]
  93 Co     7.276943    5.426564    9.042894    ( 0.0000,  0.0000,  2.1000)
  94 Ni     8.998145    3.481189    9.032245    ( 0.0000,  0.0000,  1.5000)
  95 Fe     9.201633    5.466563    7.261939    ( 0.0000,  0.0000,  2.0000)
  96 Al     0.000625    7.321038    6.994106    ( 0.0000,  0.0000,  0.0000)
  97 Al    -0.033061    9.113487    9.154157    ( 0.0000,  0.0000,  0.0000)
  98 Fe     1.603593    7.185283    9.343699    ( 0.0000,  0.0000,  2.0000)
  99 Co     1.802161    9.040410    7.339040    ( 0.0000,  0.0000,  2.1000)
 100 Fe     3.416162    7.285668    7.385318    ( 0.0000,  0.0000,  2.0000)
 101 Co     3.522396    9.048477    9.264394    ( 0.0000,  0.0000,  2.1000)
 102 Al     5.588574    7.460180    9.102999    ( 0.0000,  0.0000,  0.0000)
 103 Fe     5.447785    9.109757    7.299475    ( 0.0000,  0.0000,  2.0000)
 104 Co     7.300804    7.281932    7.080616    ( 0.0000,  0.0000,  2.1000)
 105 Ni     7.424733    8.926071    9.178289    ( 0.0000,  0.0000,  1.5000)
 106 Al     9.003044    7.079064    9.249774    ( 0.0000,  0.0000,  0.0000)
 107 Cr     8.983187    8.901176    7.072660    ( 0.0000,  0.0000,  0.0000)

Unit cell:
           periodic     x           y           z      points  spacing
  1. axis:    yes   10.872400    0.000000    0.000000    48     0.2265
  2. axis:    yes    0.000000   10.872400    0.000000    48     0.2265
  3. axis:    yes    0.000000    0.000000   10.872400    48     0.2265

  Lengths:  10.872400  10.872400  10.872400
  Angles:   90.000000  90.000000  90.000000

Effective grid spacing dv^(1/3) = 0.2265

     iter     time        total  log10-change:  magmom
                         energy  eigst   dens
iter:   1 01:47:10  -956.623033                  +121.3864
iter:   2 01:49:05  -848.485067  -0.18  -1.17    +65.4940
iter:   3 01:50:59  -834.757230  -0.85  -1.19    +56.6535
iter:   4 01:52:53  -818.843575  -1.27  -1.26    +52.6054
iter:   5 01:55:04  -807.978954  -1.56  -1.29    +50.3440
iter:   6 01:57:42  -803.553366  -1.30  -1.35    +50.9993
iter:   7 01:59:42  -805.421244  -1.35  -1.47    +50.5157
iter:   8 02:01:37  -797.940594  -1.69  -1.51    +50.8970
iter:   9 02:03:32  -796.489731  -2.00  -1.66    +51.7444
iter:  10 02:05:26  -795.633267  -2.39  -1.73    +52.4148
iter:  11 02:07:22  -795.675573  -2.49  -1.78    +53.3419
iter:  12 02:09:17  -797.204396  -2.33  -1.85    +54.3039
iter:  13 02:11:12  -796.392862  -2.44  -1.85    +54.6632
iter:  14 02:13:06  -796.089043  -2.71  -1.93    +55.2538
iter:  15 02:15:01  -796.150884  -2.87  -1.99    +55.7322
iter:  16 02:16:56  -796.043465  -3.00  -2.03    +55.9595
iter:  17 02:18:50  -796.069728  -2.97  -2.08    +56.3071
iter:  18 02:20:46  -796.027593c -3.02  -2.15    +56.3903
iter:  19 02:22:41  -796.045133c -3.15  -2.22    +56.4808
iter:  20 02:24:36  -796.043830c -3.30  -2.27    +56.5041
iter:  21 02:26:30  -796.060940c -3.31  -2.32    +56.5357
iter:  22 02:28:25  -796.018634c -3.40  -2.36    +56.4095
iter:  23 02:30:20  -796.046538c -3.58  -2.43    +56.4006
iter:  24 02:32:14  -796.092526c -3.62  -2.48    +56.3119
iter:  25 02:34:09  -796.109531c -3.77  -2.50    +56.3031
iter:  26 02:36:04  -796.158606c -3.76  -2.53    +56.1523
iter:  27 02:37:59  -796.167559c -3.88  -2.56    +56.1168
iter:  28 02:39:53  -796.204902c -3.96  -2.60    +55.9595
iter:  29 02:41:48  -796.228440c -4.07  -2.62    +55.9151
iter:  30 02:43:42  -796.260561c -4.09  -2.67    +55.7826
iter:  31 02:45:37  -796.307332c -4.03  -2.70    +55.6862
iter:  32 02:47:31  -796.329775c -4.20  -2.72    +55.5453
iter:  33 02:49:27  -796.358079c -4.25  -2.76    +55.4867
iter:  34 02:51:21  -796.388032c -4.26  -2.79    +55.3253
iter:  35 02:53:46  -796.409349c -4.34  -2.82    +55.3117
iter:  36 02:56:17  -796.429252c -4.35  -2.86    +55.2198
iter:  37 02:58:13  -796.457394c -4.34  -2.90    +55.1736
iter:  38 03:00:07  -796.472748c -4.40  -2.92    +55.1271
iter:  39 03:02:03  -796.488167c -4.55  -2.96    +55.1437
iter:  40 03:03:57  -796.507571c -4.46  -2.99    +55.0879
iter:  41 03:05:53  -796.517252c -4.64  -3.02    +55.1367
iter:  42 03:07:47  -796.528877c -4.65  -3.06    +55.1417
iter:  43 03:09:40  -796.539082c -4.71  -3.11    +55.1734
iter:  44 03:11:36  -796.546835c -4.79  -3.12    +55.2008
iter:  45 03:13:30  -796.554844c -4.87  -3.16    +55.2642
iter:  46 03:15:26  -796.562185c -4.86  -3.20    +55.2817
iter:  47 03:17:20  -796.569034c -4.99  -3.24    +55.3505
iter:  48 03:19:15  -796.575974c -4.93  -3.27    +55.4214
iter:  49 03:21:10  -796.586168c -4.75  -3.31    +55.5267
iter:  50 03:23:04  -796.592009c -4.87  -3.32    +55.6147
iter:  51 03:25:00  -796.595566c -5.12  -3.35    +55.6937
iter:  52 03:26:54  -796.599007c -5.17  -3.38    +55.7347
iter:  53 03:28:50  -796.602786c -5.15  -3.41    +55.8180
iter:  54 03:30:44  -796.605860c -5.10  -3.43    +55.8818
iter:  55 03:32:38  -796.606873c -5.31  -3.49    +55.9186
iter:  56 03:34:33  -796.606895c -5.61  -3.51    +55.9211
iter:  57 03:36:28  -796.607755c -5.81  -3.56    +55.9459
iter:  58 03:38:22  -796.607674c -5.87  -3.60    +55.9602
iter:  59 03:40:16  -796.608078c -5.93  -3.62    +55.9749
iter:  60 03:42:11  -796.608797c -6.00  -3.68    +55.9876
iter:  61 03:44:06  -796.608670c -6.16  -3.72    +56.0040
iter:  62 03:46:00  -796.609094c -6.31  -3.77    +56.0092
iter:  63 03:47:54  -796.609637c -6.35  -3.81    +56.0213
iter:  64 03:49:48  -796.609435c -6.46  -3.84    +56.0271
iter:  65 03:51:42  -796.609679c -6.41  -3.87    +56.0337
iter:  66 03:53:38  -796.610043c -6.58  -3.91    +56.0376
iter:  67 03:55:32  -796.609961c -6.75  -3.95    +56.0463
iter:  68 03:57:17  -796.610268c -6.79  -4.00    +56.0492
iter:  69 03:58:42  -796.610600c -6.66  -4.01c   +56.0552
iter:  70 04:00:50  -796.610328c -6.74  -4.02c   +56.0574
iter:  71 04:02:59  -796.610509c -6.88  -4.08c   +56.0606
iter:  72 04:05:07  -796.610640c -7.04  -4.11c   +56.0632
iter:  73 04:07:15  -796.610619c -7.08  -4.14c   +56.0686
iter:  74 04:09:23  -796.610892c -7.03  -4.18c   +56.0699
iter:  75 04:11:30  -796.610977c -7.04  -4.20c   +56.0734
iter:  76 04:13:38  -796.610875c -7.19  -4.23c   +56.0763
iter:  77 04:15:45  -796.611014c -7.31  -4.28c   +56.0796
iter:  78 04:17:53  -796.611108c -7.36  -4.31c   +56.0816
iter:  79 04:20:00  -796.611055c -7.44c -4.33c   +56.0850

Converged after 79 iterations.

Dipole moment: (40.318168, 33.693044, -4.143466) |e|*Ang

Total magnetic moment: (0.000000, 0.000000, 56.084981)
Local magnetic moments:
   0 Al ( 0.000000,  0.000000, -0.013211)
   1 Fe ( 0.000000,  0.000000,  2.283793)
   2 Cr ( 0.000000,  0.000000, -1.951065)
   3 Cr ( 0.000000,  0.000000,  1.443404)
   4 Ni ( 0.000000,  0.000000,  0.161979)
   5 Al ( 0.000000,  0.000000, -0.004502)
   6 Al ( 0.000000,  0.000000, -0.018690)
   7 Ni ( 0.000000,  0.000000,  0.332518)
   8 Fe ( 0.000000,  0.000000,  2.393645)
   9 Co ( 0.000000,  0.000000,  0.782792)
  10 Ni ( 0.000000,  0.000000,  0.165495)
  11 Fe ( 0.000000,  0.000000,  2.077139)
  12 Fe ( 0.000000,  0.000000,  2.155763)
  13 Co ( 0.000000,  0.000000,  1.233264)
  14 Cr ( 0.000000,  0.000000, -1.905529)
  15 Co ( 0.000000,  0.000000,  0.650607)
  16 Fe ( 0.000000,  0.000000,  1.715137)
  17 Al ( 0.000000,  0.000000, -0.044923)
  18 Fe ( 0.000000,  0.000000,  2.236837)
  19 Fe ( 0.000000,  0.000000,  2.169279)
  20 Cr ( 0.000000,  0.000000, -1.756640)
  21 Co ( 0.000000,  0.000000,  0.875992)
  22 Al ( 0.000000,  0.000000, -0.042726)
  23 Fe ( 0.000000,  0.000000,  1.994074)
  24 Ni ( 0.000000,  0.000000,  0.160406)
  25 Al ( 0.000000,  0.000000, -0.023496)
  26 Ni ( 0.000000,  0.000000,  0.355016)
  27 Cr ( 0.000000,  0.000000,  1.046718)
  28 Fe ( 0.000000,  0.000000,  2.199426)
  29 Ni ( 0.000000,  0.000000,  0.321731)
  30 Ni ( 0.000000,  0.000000,  0.311931)
  31 Ni ( 0.000000,  0.000000,  0.283031)
  32 Co ( 0.000000,  0.000000,  1.278858)
  33 Cr ( 0.000000,  0.000000, -1.981693)
  34 Fe ( 0.000000,  0.000000,  2.239503)
  35 Ni ( 0.000000,  0.000000,  0.181838)
  36 Fe ( 0.000000,  0.000000,  1.582533)
  37 Co ( 0.000000,  0.000000,  0.688338)
  38 Cr ( 0.000000,  0.000000, -1.386243)
  39 Ni ( 0.000000,  0.000000,  0.063665)
  40 Al ( 0.000000,  0.000000,  0.003063)
  41 Al ( 0.000000,  0.000000, -0.004440)
  42 Cr ( 0.000000,  0.000000, -1.620802)
  43 Al ( 0.000000,  0.000000, -0.003313)
  44 Al ( 0.000000,  0.000000, -0.004716)
  45 Co ( 0.000000,  0.000000, -0.096152)
  46 Cr ( 0.000000,  0.000000, -1.477611)
  47 Ni ( 0.000000,  0.000000,  0.241442)
  48 Fe ( 0.000000,  0.000000,  2.314400)
  49 Fe ( 0.000000,  0.000000,  2.149918)
  50 Al ( 0.000000,  0.000000, -0.026658)
  51 Co ( 0.000000,  0.000000,  1.102862)
  52 Co ( 0.000000,  0.000000,  1.084493)
  53 Ni ( 0.000000,  0.000000,  0.372852)
  54 Ni ( 0.000000,  0.000000,  0.173226)
  55 Co ( 0.000000,  0.000000,  1.350967)
  56 Al ( 0.000000,  0.000000, -0.014246)
  57 Cr ( 0.000000,  0.000000,  1.148492)
  58 Ni ( 0.000000,  0.000000,  0.165589)
  59 Cr ( 0.000000,  0.000000, -1.937485)
[...]
  93 Co ( 0.000000,  0.000000,  1.189101)
  94 Ni ( 0.000000,  0.000000,  0.259034)
  95 Fe ( 0.000000,  0.000000,  1.916765)
  96 Al ( 0.000000,  0.000000, -0.034435)
  97 Al ( 0.000000,  0.000000, -0.015712)
  98 Fe ( 0.000000,  0.000000,  1.947854)
  99 Co ( 0.000000,  0.000000,  0.969624)
 100 Fe ( 0.000000,  0.000000,  2.506510)
 101 Co ( 0.000000,  0.000000,  1.230376)
 102 Al ( 0.000000,  0.000000, -0.045591)
 103 Fe ( 0.000000,  0.000000,  2.392045)
 104 Co ( 0.000000,  0.000000,  0.968391)
 105 Ni ( 0.000000,  0.000000,  0.332794)
 106 Al ( 0.000000,  0.000000, -0.033664)
 107 Cr ( 0.000000,  0.000000,  1.173537)

Energy contributions relative to reference atoms: (reference = -3235165.067515)

Kinetic:       +390.673413
Potential:     -353.999327
External:        +0.000000
XC:            -862.099959
Entropy (-ST):   -3.976287
Local:          +30.802961
Free energy:   -798.599199
Extrapolated:  -796.611055

Spin contamination: 27.579099 electrons
Showing only first 2 kpts
                      Up                     Down
 Kpt  Band  Eigenvalues  Occupancy  Eigenvalues  Occupancy
  0   454      9.00880    0.99568      9.91498    0.02603
  0   455      9.02022    0.99516      9.93381    0.02166
  0   456      9.03567    0.99435      9.94330    0.01974
  0   457      9.05062    0.99345      9.95395    0.01778

  1   454      9.01662    0.99533      9.91268    0.02662
  1   455      9.02594    0.99487      9.92063    0.02464
  1   456      9.03957    0.99413      9.93684    0.02103
  1   457      9.04686    0.99369      9.95227    0.01808

Fermi level: 9.55278

No gap

Forces in eV/Ang:
  0 Al    0.49438    2.67651    1.00403
  1 Fe    1.00761   -0.30514   -0.10124
  2 Cr    0.17303    0.23093   -0.14499
  3 Cr   -2.87019    0.21113   -1.05079
  4 Ni    0.03161   -0.66793   -1.19552
  5 Al    1.05969    0.70940    0.20361
  6 Al   -0.56520    0.73832   -0.47036
  7 Ni   -0.12293   -1.85988    0.73868
  8 Fe    0.29942    1.21745    0.34462
  9 Co   -1.39742   -0.10453   -1.31985
 10 Ni   -0.76594    1.04430    0.93559
 11 Fe   -0.19516    0.53558    1.29393
 12 Fe    0.29182   -0.39817   -0.56362
 13 Co    0.26534   -0.23382    0.93499
 14 Cr   -1.78773   -2.73888    0.45063
 15 Co   -0.13333    0.13913   -0.05604
 16 Fe   -1.09054   -0.14318   -0.10711
 17 Al    2.02824    1.51388    1.00094
 18 Fe    0.91832    0.16185    2.34666
 19 Fe    1.57309   -0.01027    0.37987
 20 Cr    0.25466   -0.03865    0.19299
 21 Co   -0.42472    1.46090    0.49215
 22 Al    0.01856   -0.17183    0.71145
 23 Fe    0.42489    0.72878   -1.52852
 24 Ni    1.63585   -1.27827   -0.84829
 25 Al   -1.04250   -0.76080    1.03205
 26 Ni    0.83054    0.00301   -0.46173
 27 Cr   -0.47058    0.14419    0.01225
 28 Fe   -0.27201    0.13539   -1.30186
 29 Ni   -1.35175    0.74933    2.34594
 30 Ni    0.05393   -0.85588   -0.13542
 31 Ni    1.54690    0.35136   -1.46897
 32 Co   -0.14703   -0.31204    0.55916
 33 Cr    1.31039   -0.79519   -0.73892
 34 Fe   -0.72239   -0.81594    0.67449
 35 Ni   -1.92081    0.70170   -0.83180
 36 Fe    0.97593    0.06530   -0.82461
 37 Co   -0.11229   -1.93053   -0.60363
 38 Cr   -0.10162   -0.45760    0.04811
 39 Ni    0.41744   -0.04387    0.29052
 40 Al   -0.23441    1.17871   -0.15207
 41 Al   -0.37936    0.23758    0.45982
 42 Cr    0.03718   -1.37151    0.96133
 43 Al   -0.01666    0.49178   -0.07678
 44 Al    0.20011   -0.70862   -0.89428
 45 Co    0.61730    0.87562    0.53999
 46 Cr    0.44631    0.33981    1.32199
 47 Ni   -0.28660    0.34381    0.30971
 48 Fe   -0.41710    0.50662   -0.08617
 49 Fe   -0.05155    0.44534   -0.40673
 50 Al    0.35375    0.47701   -0.85203
 51 Co   -1.21500    0.13618    0.55503
 52 Co   -0.87732   -0.42316   -0.78736
 53 Ni    0.54776    0.14144    0.37190
 54 Ni    0.40383   -0.65438    0.18048
 55 Co   -0.76139   -1.96330    0.73566
 56 Al   -0.66251   -0.12237    0.26868
 57 Cr   -0.24043    0.84484   -0.16030
 58 Ni   -0.14974    0.41369   -0.06597
 59 Cr    1.57790    1.13427   -0.16752
[...]
 93 Co   -0.32057   -0.48525   -0.05088
 94 Ni    0.77528    1.29343   -0.53422
 95 Fe   -0.59749   -0.33466   -0.15379
 96 Al    1.15888   -0.55189    0.46051
 97 Al   -0.28720   -1.51872   -2.24725
 98 Fe    1.00621    0.21515   -1.28963
 99 Co   -0.42515   -0.19611   -0.26661
100 Fe    0.87367    0.19472    0.17930
101 Co    0.40127    0.35278   -0.94258
102 Al   -0.48124   -1.08995   -0.02106
103 Fe   -0.63899   -0.40619   -0.81267
104 Co   -0.10036   -0.37046    0.67013
105 Ni   -0.26134    0.42486   -0.99234
106 Al   -1.64283    1.72888   -0.31977
107 Cr    0.46226    1.57175    0.88249

Date: Fri Apr 14 04:20:21 2023