User:   c.zeng@d0066
Date:   Fri Apr 14 12:29:54 2023
Arch:   x86_64
Pid:    97304
CWD:    /home/c.zeng/projects/hea-corrosion/hea-mlp/data-curation/bulk-mcmc/dft-jobs/133
Python: 3.8.1
gpaw:   /home/c.zeng/usr/installs/gpaw/source/gpaw-22.8.0/gpaw
_gpaw:  /home/c.zeng/usr/installs/gpaw/source/gpaw-22.8.0/
        _gpaw.cpython-38-x86_64-linux-gnu.so
ase:    /home/c.zeng/.local/lib/python3.8/site-packages/ase-3.22.1-py3.8.egg/ase (version 3.22.1)
numpy:  /shared/centos7/python/3.8.1/lib/python3.8/site-packages/numpy (version 1.17.4)
scipy:  /shared/centos7/python/3.8.1/lib/python3.8/site-packages/scipy (version 1.4.1)
units:  Angstrom and eV
cores: 30
OpenMP: False
OMP_NUM_THREADS: 1

Input parameters:
  convergence: {energy: 0.0001}
  kpts: [2 2 2]
  maxiter: 666
  mode: {ecut: 350.0,
         name: pw}
  occupations: {fixmagmom: False,
                name: fermi-dirac,
                width: 0.1}
  spinpol: True
  xc: PBE

System changes: positions, numbers, cell, pbc, initial_charges, initial_magmoms

Initialize ...

species:
  Co:
    name: Cobalt
    id: 339d20d5b0b93d2de9531a1bee871d91
    Z: 27.0
    valence: 9
    core: 18
    charge: 0.0
    file: /home/c.zeng/usr/data/gpaw-setups-0.9.20000/Co.PBE.gz
    compensation charges: {type: gauss,
                           rc: 0.32,
                           lmax: 2}
    cutoffs: {filter: 1.87,
              core: 2.55}
    valence states:
      #              energy  rcut
      - 4s(2.00)    -5.469   1.005
      - 4p(0.00)    -1.277   1.058
      - 3d(7.00)    -8.205   1.005
      -  s          21.742   1.005
      -  p          25.934   1.058
      -  d          19.007   1.005

    # Using partial waves for Co as LCAO basis

  Fe:
    name: Iron
    id: 37abbd8d6c3c35915a9b583b742da910
    Z: 26.0
    valence: 8
    core: 18
    charge: 0.0
    file: /home/c.zeng/usr/data/gpaw-setups-0.9.20000/Fe.PBE.gz
    compensation charges: {type: gauss,
                           rc: 0.33,
                           lmax: 2}
    cutoffs: {filter: 2.06,
              core: 2.67}
    valence states:
      #              energy  rcut
      - 4s(2.00)    -5.291   1.164
      - 4p(0.00)    -1.326   1.058
      - 3d(6.00)    -7.505   1.058
      -  s          21.920   1.164
      -  p          25.885   1.058
      -  d          19.706   1.058

[...]

  Ni:
    name: Nickel
    id: 0d9f38a9d6e76a2886f07bb4381f212b
    Z: 28.0
    valence: 16
    core: 12
    charge: 0.0
    file: /home/c.zeng/usr/data/gpaw-setups-0.9.20000/Ni.PBE.gz
    compensation charges: {type: gauss,
                           rc: 0.36,
                           lmax: 2}
    cutoffs: {filter: 2.14,
              core: 1.98}
    valence states:
      #              energy  rcut
      - 4s(2.00)    -5.642   1.164
      - 3p(6.00)   -71.394   1.207
      - 4p(0.00)    -1.226   1.207
      - 3d(8.00)    -8.875   1.138
      -  s          21.570   1.164
      -  d          18.337   1.138

[...]

  Al:
    name: Aluminium
    id: 0292cae29f5d6237e50f6abdd43a7bdd
    Z: 13.0
    valence: 3
    core: 10
    charge: 0.0
    file: /home/c.zeng/usr/data/gpaw-setups-0.9.20000/Al.PBE.gz
    compensation charges: {type: gauss,
                           rc: 0.34,
                           lmax: 2}
    cutoffs: {filter: 1.91,
              core: 2.36}
    valence states:
      #              energy  rcut
      - 3s(2.00)    -7.753   1.085
      - 3p(1.00)    -2.712   1.085
      -  s          19.459   1.085
      -  p          24.499   1.085
      -  d           0.000   1.085

[...]

  Cr:
    name: Chromium
    id: 33f258bda2ca9f93018e70263a35547b
    Z: 24.0
    valence: 6
    core: 18
    charge: 0.0
    file: /home/c.zeng/usr/data/gpaw-setups-0.9.20000/Cr.PBE.gz
    compensation charges: {type: gauss,
                           rc: 0.35,
                           lmax: 2}
    cutoffs: {filter: 2.14,
              core: 3.04}
    valence states:
      #              energy  rcut
      - 4s(1.00)    -4.007   1.164
      - 4p(0.00)    -0.989   1.217
      - 3d(5.00)    -2.913   1.111
      -  s          23.205   1.164
      -  p          26.223   1.217
      -  d          24.299   1.111

    # Using partial waves for Cr as LCAO basis

Reference energy: -3548577.034362  # eV

Spin-polarized calculation.
Magnetic moment: 136.400000

Convergence criteria:
 Maximum [total energy] change in last 3 cyles: 0.0001 eV / electron
 Maximum integral of absolute [dens]ity change: 0.0001 electrons / valence electron
 Maximum integral of absolute [eigenst]ate change: 4e-08 eV^2 / valence electron
 Maximum number of scf [iter]ations: 666
 (Square brackets indicate name in SCF output, whereas a 'c' in
 the SCF output indicates the quantity has converged.)

Symmetries present (total): 1

  ( 1  0  0)
  ( 0  1  0)
  ( 0  0  1)

8 k-points: 2 x 2 x 2 Monkhorst-Pack grid
4 k-points in the irreducible part of the Brillouin zone
       k-points in crystal coordinates                weights
   0:     0.25000000   -0.25000000   -0.25000000          2/8
   1:     0.25000000   -0.25000000    0.25000000          2/8
   2:     0.25000000    0.25000000   -0.25000000          2/8
   3:     0.25000000    0.25000000    0.25000000          2/8

Wave functions: Plane wave expansion
  Cutoff energy: 350.000 eV
  Number of coefficients (min, max): 18331, 18331
  Pulay-stress correction: 0.000000 eV/Ang^3 (de/decut=0.000000)
  Using FFTW library
  ScaLapack parameters: grid=1x1, blocksize=None
  Wavefunction extrapolation:
    Improved wavefunction reuse through dual PAW basis

Occupation numbers: Fermi-Dirac:
  width: 0.1000  # eV

Eigensolver
   Davidson(niter=2)

Densities:
  Coarse grid: 48*48*48 grid
  Fine grid: 96*96*96 grid
  Total Charge: 0.000000

Density mixing:
  Method: difference
  Backend: pulay
  Linear mixing parameter: 0.05
  old densities: 5
  Damping of long wavelength oscillations: 50

Hamiltonian:
  XC and Coulomb potentials evaluated on a 96*96*96 grid
  Using the PBE Exchange-Correlation functional
  External potential:
    NoExternalPotential

XC parameters: PBE with 2 nearest neighbor stencil

Total number of cores used: 30
Parallelization over k-points: 2
Domain decomposition: 5 x 3 x 1

Number of atoms: 108
Number of atomic orbitals: 994
Number of bands in calculation: 674
Number of valence electrons: 980
Bands to converge: occupied

... initialized

Initializing position-dependent things.

Density initialized from atomic densities
Creating initial wave functions:
  674 bands from LCAO basis set

        Co-------Co---------------.
       /|  Co       Fe            |
      / |   AlCr     CrCo     CrCo|
     / Ni       CAl     Ni        |
    /   CCo      Ni      FNi      |
   /    | CoCo     Co      CoCo   |
  /   Co|  NiFeAl   NiNi    CrCr  |
 *      Cr  CrCoNi   CoNiAl   FeNi|
 |Fe   NiNiCr   CrNCr   FeCr      |
 | Fe   | NiAl   NiNiCr    Cr     |
 |     Co  CoFeNi   FeNiAl  NiAl  |
 |      Fe    FeNi   FeAlFe   AlCr|
 |Cr    |CoNi   NFeFe   FeFe     Fe
 |      .-FeCr-----FeCr--FeCoNi---.
 |     Cr    CoCr     FeCo  Cr Fe/
 |    / Al      Co       Cr     /
 Cr  /            Cr           /
 |  /      Ni      Cr       Fe/
 | / Co              Fe      /
 |/                     Co  /

Positions:
   0 Co    10.732479   -0.010418   10.721263    ( 0.0000,  0.0000,  2.1000)
   1 Fe    10.706231    1.787006    1.816653    ( 0.0000,  0.0000,  1.5000)
   2 Co     1.827923    0.046024    1.820803    ( 0.0000,  0.0000,  0.0000)
   3 Co     1.781666    1.794790   10.668295    ( 0.0000,  0.0000,  0.0000)
   4 Co     3.605675   -0.024615   10.696977    ( 0.0000,  0.0000,  0.0000)
   5 Ni     3.626284    1.755611    1.827590    ( 0.0000,  0.0000,  2.0000)
   6 Fe     5.347186   -0.032870    1.798425    ( 0.0000,  0.0000,  2.0000)
   7 Al     5.383406    1.755353   -0.004078    ( 0.0000,  0.0000,  2.0000)
   8 Fe     7.108694   -0.021619    0.052076    ( 0.0000,  0.0000,  0.0000)
   9 Cr     7.129131    1.783639    1.838109    ( 0.0000,  0.0000,  2.0000)
  10 Al     8.928414   -0.004386    1.840918    ( 0.0000,  0.0000,  2.0000)
  11 Co     8.945645    1.852509    0.063651    ( 0.0000,  0.0000,  0.0000)
  12 Co    10.721403    3.615743   10.707625    ( 0.0000,  0.0000,  2.1000)
  13 Fe    10.714905    5.407607    1.816064    ( 0.0000,  0.0000,  2.0000)
  14 Al     1.786931    3.537020    1.885127    ( 0.0000,  0.0000,  0.0000)
  15 Co     1.774396    5.426328   10.657058    ( 0.0000,  0.0000,  0.0000)
  16 Co     3.564340    3.564490   10.690115    ( 0.0000,  0.0000,  0.0000)
  17 Co     3.570334    5.434059    1.813919    ( 0.0000,  0.0000,  0.0000)
  18 Co     5.350145    3.574934    1.808708    ( 0.0000,  0.0000,  0.0000)
  19 Al     5.345084    5.410577   10.703464    ( 0.0000,  0.0000,  2.1000)
  20 Fe     7.157695    3.624514    0.002553    ( 0.0000,  0.0000,  2.1000)
  21 Fe     7.157792    5.380200    1.803904    ( 0.0000,  0.0000,  0.0000)
  22 Cr     8.944980    3.620622    1.842988    ( 0.0000,  0.0000,  0.0000)
  23 Ni     8.940316    5.370571   -0.005231    ( 0.0000,  0.0000,  0.0000)
  24 Co    10.674578    7.138041   10.683446    ( 0.0000,  0.0000,  2.0000)
  25 Fe    10.668413    8.869012    1.800001    ( 0.0000,  0.0000,  0.0000)
  26 Fe     1.807904    7.157309    1.806960    ( 0.0000,  0.0000,  1.5000)
  27 Co     1.808086    8.895217   10.689064    ( 0.0000,  0.0000,  0.0000)
  28 Cr     3.612462    7.185391   10.698339    ( 0.0000,  0.0000,  2.0000)
  29 Ni     3.598277    8.905404    1.808097    ( 0.0000,  0.0000,  1.5000)
  30 Fe     5.362229    7.149643    1.778835    ( 0.0000,  0.0000,  2.1000)
  31 Fe     5.368084    8.904170   10.708750    ( 0.0000,  0.0000,  2.0000)
  32 Co     7.127640    7.124156   10.700741    ( 0.0000,  0.0000,  2.0000)
  33 Fe     7.139982    8.914904    1.783157    ( 0.0000,  0.0000,  0.0000)
  34 Co     8.884516    7.107975    1.798232    ( 0.0000,  0.0000,  2.0000)
  35 Cr     8.895410    8.880302    0.005476    ( 0.0000,  0.0000,  0.0000)
  36 Cr    10.737840    0.006469    3.587908    ( 0.0000,  0.0000,  1.5000)
  37 Cr     0.009110    1.816214    5.359506    ( 0.0000,  0.0000,  1.5000)
  38 Cr     1.833434   -0.010553    5.335488    ( 0.0000,  0.0000,  2.1000)
  39 Cr     1.814369    1.777409    3.664755    ( 0.0000,  0.0000,  1.5000)
  40 Ni     3.608002   -0.027958    3.615958    ( 0.0000,  0.0000,  2.1000)
  41 Ni     3.597397    1.774364    5.368180    ( 0.0000,  0.0000,  1.5000)
  42 Co     5.355185   -0.018813    5.365682    ( 0.0000,  0.0000,  2.1000)
  43 Cr     5.354005    1.762698    3.609396    ( 0.0000,  0.0000,  1.5000)
  44 Cr     7.096449    0.004839    3.553950    ( 0.0000,  0.0000,  0.0000)
  45 Fe     7.124574    1.817747    5.354692    ( 0.0000,  0.0000,  2.1000)
  46 Fe     8.888698   10.712332    5.289714    ( 0.0000,  0.0000,  0.0000)
  47 Co     8.931727    1.815495    3.558979    ( 0.0000,  0.0000,  1.5000)
  48 Ni    10.700248    3.599864    3.631730    ( 0.0000,  0.0000,  0.0000)
  49 Al    -0.007893    5.382698    5.388017    ( 0.0000,  0.0000,  2.0000)
  50 Fe     1.794265    3.594073    5.365264    ( 0.0000,  0.0000,  2.0000)
  51 Co     1.782020    5.398675    3.628600    ( 0.0000,  0.0000,  1.5000)
[...]
iter:   7 12:42:22  -856.150767  -1.70  -1.50    +48.8445
iter:   8 12:43:51  -850.449675  -1.80  -1.51    +48.3864
iter:   9 12:45:19  -861.938252  -1.58  -1.65    +48.3499
iter:  10 12:46:48  -848.320104  -1.90  -1.60    +47.6750
iter:  11 12:48:16  -849.934062  -2.29  -1.86    +48.3858
iter:  12 12:49:44  -848.460430  -2.56  -1.84    +48.9263
iter:  13 12:51:13  -848.992867  -2.56  -1.91    +49.9635
iter:  14 12:52:41  -849.372972  -2.64  -1.94    +50.9407
iter:  15 12:54:10  -851.227280  -2.49  -2.03    +51.5146
iter:  16 12:55:38  -851.019282  -2.47  -1.96    +52.5589
iter:  17 12:57:07  -849.868359  -2.72  -1.99    +52.9015
iter:  18 12:58:35  -849.890607  -2.84  -2.14    +53.8283
iter:  19 13:00:03  -850.113313  -2.77  -2.17    +54.5357
iter:  20 13:01:32  -849.693876  -3.14  -2.19    +55.0298
iter:  21 13:03:00  -850.159084  -3.06  -2.28    +56.2008
iter:  22 13:04:28  -850.189210  -3.07  -2.27    +56.4335
iter:  23 13:05:57  -850.097699c -3.20  -2.28    +57.6164
iter:  24 13:07:25  -850.400599  -3.24  -2.39    +58.2378
iter:  25 13:08:54  -850.224571  -3.46  -2.35    +58.5022
iter:  26 13:10:22  -850.504346  -3.30  -2.48    +59.2593
iter:  27 13:11:50  -850.468936  -3.54  -2.43    +59.5833
iter:  28 13:13:18  -850.653665  -3.38  -2.52    +60.5573
iter:  29 13:14:47  -850.709664  -3.55  -2.54    +60.9974
iter:  30 13:16:15  -850.877066  -3.44  -2.57    +61.8236
iter:  31 13:17:43  -850.818858  -3.73  -2.52    +62.1587
iter:  32 13:19:11  -850.964324  -3.61  -2.67    +62.7749
iter:  33 13:20:39  -850.939953  -4.11  -2.60    +62.8636
iter:  34 13:22:08  -851.056664  -3.69  -2.72    +63.2327
iter:  35 13:23:35  -851.078578  -3.87  -2.75    +63.3683
iter:  36 13:25:03  -851.103709c -4.00  -2.82    +63.4784
iter:  37 13:26:31  -851.143757c -4.26  -2.90    +63.6345
iter:  38 13:28:00  -851.168003c -4.34  -2.90    +63.6853
iter:  39 13:29:28  -851.196300c -4.47  -2.95    +63.8023
iter:  40 13:30:56  -851.247124c -4.15  -2.97    +63.8589
iter:  41 13:32:24  -851.260763c -4.48  -2.97    +63.9842
iter:  42 13:33:52  -851.290868c -4.36  -3.05    +64.0097
iter:  43 13:35:21  -851.322226c -4.28  -3.06    +64.0838
iter:  44 13:36:48  -851.316771c -4.71  -3.04    +64.0361
iter:  45 13:38:17  -851.329778c -4.75  -3.14    +64.0756
iter:  46 13:39:45  -851.354461c -4.44  -3.19    +64.0800
iter:  47 13:41:14  -851.369064c -4.59  -3.18    +64.0939
iter:  48 13:42:42  -851.393285c -4.52  -3.18    +64.1528
iter:  49 13:44:10  -851.363238c -4.57  -3.08    +64.0426
iter:  50 13:45:39  -851.401875c -4.19  -3.21    +64.2358
iter:  51 13:47:07  -851.398168c -5.06  -3.16    +64.2662
iter:  52 13:48:35  -851.406038c -5.06  -3.25    +64.3051
iter:  53 13:50:03  -851.425742c -4.55  -3.25    +64.3891
iter:  54 13:51:31  -851.425471c -4.90  -3.20    +64.3662
iter:  55 13:53:00  -851.429225c -4.83  -3.15    +64.3958
iter:  56 13:54:28  -851.433190c -5.13  -3.26    +64.3969
iter:  57 13:55:56  -851.438137c -5.20  -3.26    +64.4036
iter:  58 13:57:24  -851.444801c -4.78  -3.30    +64.4270
iter:  59 13:58:52  -851.451528c -4.86  -3.29    +64.4378
iter:  60 14:00:20  -851.448353c -5.13  -3.23    +64.3756
iter:  61 14:01:48  -851.450534c -5.31  -3.37    +64.3225
iter:  62 14:03:17  -851.454797c -5.04  -3.46    +64.3091
iter:  63 14:04:44  -851.458901c -5.12  -3.52    +64.2977
iter:  64 14:06:12  -851.460254c -5.37  -3.55    +64.2867
iter:  65 14:07:41  -851.461581c -5.50  -3.62    +64.2833
iter:  66 14:09:08  -851.464879c -5.49  -3.66    +64.3032
iter:  67 14:10:36  -851.465652c -5.79  -3.68    +64.2977
iter:  68 14:12:04  -851.468235c -5.72  -3.73    +64.2873
iter:  69 14:13:32  -851.472194c -5.37  -3.74    +64.2856
iter:  70 14:15:00  -851.484848c -4.57  -3.69    +64.2904
iter:  71 14:16:28  -851.480120c -5.78  -3.50    +64.3086
iter:  72 14:17:56  -851.484306c -5.53  -3.62    +64.3326
iter:  73 14:19:24  -851.484675c -5.62  -3.54    +64.3430
iter:  74 14:20:52  -851.486245c -5.74  -3.49    +64.3475
iter:  75 14:22:21  -851.487437c -5.42  -3.48    +64.3617
iter:  76 14:23:49  -851.487008c -5.32  -3.45    +64.3369
iter:  77 14:25:17  -851.487891c -5.44  -3.48    +64.3174
iter:  78 14:26:44  -851.488929c -5.41  -3.45    +64.3158
iter:  79 14:28:12  -851.487824c -5.62  -3.53    +64.2937
iter:  80 14:29:40  -851.488400c -6.04  -3.58    +64.2669
iter:  81 14:31:08  -851.489763c -5.76  -3.60    +64.2531
iter:  82 14:32:36  -851.491131c -5.59  -3.59    +64.2354
iter:  83 14:34:03  -851.490517c -5.46  -3.56    +64.2099
iter:  84 14:35:31  -851.490435c -5.69  -3.73    +64.2039
iter:  85 14:36:59  -851.492027c -5.70  -3.83    +64.1996
iter:  86 14:38:27  -851.491118c -6.17  -3.73    +64.1918
iter:  87 14:39:55  -851.491859c -6.15  -3.99    +64.1826
iter:  88 14:41:23  -851.491972c -6.65  -4.02c   +64.1818
iter:  89 14:42:51  -851.492705c -6.22  -4.03c   +64.1746
iter:  90 14:44:18  -851.492981c -6.41  -4.07c   +64.1665
iter:  91 14:45:46  -851.493294c -6.22  -4.09c   +64.1603
iter:  92 14:47:14  -851.493909c -6.37  -4.08c   +64.1632
iter:  93 14:48:43  -851.494425c -6.35  -4.23c   +64.1559
iter:  94 14:50:11  -851.494914c -6.44  -4.22c   +64.1493
iter:  95 14:51:39  -851.495284c -6.64  -4.29c   +64.1446
iter:  96 14:53:07  -851.495485c -6.93  -4.30c   +64.1426
iter:  97 14:54:35  -851.496105c -6.36  -4.29c   +64.1309
iter:  98 14:56:02  -851.496037c -7.34  -4.30c   +64.1307
iter:  99 14:57:30  -851.496793c -6.43  -4.33c   +64.1227
iter: 100 14:58:58  -851.489527c -4.50  -4.28c   +64.1870
iter: 101 15:00:26  -851.484555c -4.40  -4.16c   +64.2295
iter: 102 15:01:55  -851.483873c -5.05  -3.88    +64.2167
iter: 103 15:03:23  -851.482624c -4.87  -3.83    +64.1769
iter: 104 15:04:51  -851.482547c -5.01  -3.71    +64.1439
iter: 105 15:06:20  -851.483344c -5.13  -3.64    +64.1145
iter: 106 15:07:48  -851.483884c -5.66  -3.54    +64.1287
iter: 107 15:09:17  -851.483194c -5.77  -3.51    +64.1226
iter: 108 15:10:45  -851.484542c -5.74  -3.58    +64.1043
iter: 109 15:12:13  -851.483090c -5.56  -3.52    +64.1072
iter: 110 15:13:41  -851.485648c -4.97  -3.52    +64.1410
iter: 111 15:15:08  -851.481916c -5.48  -3.46    +64.1355
iter: 112 15:16:36  -851.482014c -5.80  -3.68    +64.1527
iter: 113 15:18:04  -851.481866c -5.99  -3.73    +64.1656
iter: 114 15:19:32  -851.482207c -6.06  -3.81    +64.1468
iter: 115 15:20:59  -851.482480c -5.96  -3.87    +64.1579
iter: 116 15:22:27  -851.482920c -5.90  -3.80    +64.1660
iter: 117 15:23:55  -851.483337c -5.87  -3.79    +64.1651
iter: 118 15:25:22  -851.483311c -5.92  -3.81    +64.1627
iter: 119 15:26:50  -851.483159c -6.08  -3.86    +64.1558
iter: 120 15:28:18  -851.483032c -6.33  -3.97    +64.1677
iter: 121 15:29:45  -851.483418c -6.55  -4.08c   +64.1691
iter: 122 15:31:13  -851.483666c -6.46  -4.17c   +64.1682
iter: 123 15:32:41  -851.483710c -6.79  -4.14c   +64.1698
iter: 124 15:34:09  -851.484043c -6.64  -4.20c   +64.1714
iter: 125 15:35:36  -851.484326c -6.64  -4.25c   +64.1704
iter: 126 15:37:04  -851.484534c -6.67  -4.24c   +64.1658
iter: 127 15:38:31  -851.484450c -6.73  -4.24c   +64.1653
iter: 128 15:39:59  -851.484788c -6.68  -4.26c   +64.1688
iter: 129 15:41:23  -851.484963c -6.78  -4.30c   +64.1656
iter: 130 15:42:47  -851.485062c -6.91  -4.32c   +64.1645
iter: 131 15:44:11  -851.485218c -6.99  -4.39c   +64.1648
iter: 132 15:45:35  -851.485474c -6.84  -4.43c   +64.1666
iter: 133 15:46:58  -851.485149c -7.19  -4.38c   +64.1624
iter: 134 15:48:22  -851.485354c -7.06  -4.38c   +64.1601
iter: 135 15:49:45  -851.485599c -6.86  -4.29c   +64.1633
iter: 136 15:51:09  -851.485710c -6.86  -4.29c   +64.1617
iter: 137 15:52:32  -851.485843c -6.98  -4.37c   +64.1627
iter: 138 15:53:56  -851.486018c -7.01  -4.41c   +64.1644
iter: 139 15:55:19  -851.486118c -6.89  -4.42c   +64.1663
iter: 140 15:56:43  -851.486379c -6.86  -4.24c   +64.1659
iter: 141 15:58:06  -851.486569c -6.76  -4.20c   +64.1662
iter: 142 15:59:30  -851.486674c -6.75  -4.19c   +64.1645
iter: 143 16:00:54  -851.486767c -6.96  -4.22c   +64.1619
iter: 144 16:02:17  -851.487171c -6.52  -4.28c   +64.1597
iter: 145 16:03:41  -851.486915c -6.80  -4.14c   +64.1596
iter: 146 16:05:05  -851.487365c -6.53  -4.17c   +64.1623
iter: 147 16:06:28  -851.487391c -6.91  -4.15c   +64.1600
iter: 148 16:07:52  -851.487621c -6.79  -4.25c   +64.1593
iter: 149 16:09:16  -851.487701c -7.30  -4.28c   +64.1594
iter: 150 16:10:39  -851.488002c -6.83  -4.24c   +64.1580
iter: 151 16:12:03  -851.487821c -6.84  -4.19c   +64.1543
iter: 152 16:13:27  -851.488246c -6.56  -4.17c   +64.1560
iter: 153 16:14:51  -851.488245c -6.83  -4.15c   +64.1531
iter: 154 16:16:14  -851.488494c -6.83  -4.23c   +64.1525
iter: 155 16:17:38  -851.488629c -7.25  -4.28c   +64.1531
iter: 156 16:19:01  -851.488612c -7.38  -4.22c   +64.1550
iter: 157 16:20:25  -851.488695c -6.70  -4.28c   +64.1476
iter: 158 16:21:48  -851.488781c -6.92  -4.34c   +64.1480
iter: 159 16:23:12  -851.489046c -6.60  -4.27c   +64.1436
iter: 160 16:24:36  -851.489072c -6.83  -4.28c   +64.1432
iter: 161 16:26:00  -851.489442c -6.61  -4.40c   +64.1475
iter: 162 16:27:24  -851.489500c -7.24  -4.37c   +64.1471
iter: 163 16:28:48  -851.489840c -6.59  -4.51c   +64.1467
iter: 164 16:30:11  -851.489270c -6.49  -4.44c   +64.1466
iter: 165 16:31:35  -851.487785c -5.50  -4.47c   +64.1297
iter: 166 16:32:59  -851.487816c -6.55  -4.52c   +64.1322
iter: 167 16:34:23  -851.488125c -7.03  -4.58c   +64.1355
iter: 168 16:35:46  -851.488062c -7.70c -4.61c   +64.1351

Converged after 168 iterations.

Dipole moment: (-1.809237, 13.155701, 14.546841) |e|*Ang

Total magnetic moment: (0.000000, 0.000000, 64.135142)
Local magnetic moments:
   0 Co ( 0.000000,  0.000000,  1.020593)
   1 Fe ( 0.000000,  0.000000,  2.182772)
   2 Co ( 0.000000,  0.000000,  1.441543)
   3 Co ( 0.000000,  0.000000,  1.113680)
   4 Co ( 0.000000,  0.000000,  1.071613)
   5 Ni ( 0.000000,  0.000000,  0.200640)
   6 Fe ( 0.000000,  0.000000,  1.948110)
   7 Al ( 0.000000,  0.000000, -0.018795)
   8 Fe ( 0.000000,  0.000000, -1.431358)
   9 Cr ( 0.000000,  0.000000,  0.871924)
  10 Al ( 0.000000,  0.000000, -0.014372)
  11 Co ( 0.000000,  0.000000,  0.945092)
  12 Co ( 0.000000,  0.000000,  1.125733)
  13 Fe ( 0.000000,  0.000000,  2.325437)
  14 Al ( 0.000000,  0.000000, -0.030730)
  15 Co ( 0.000000,  0.000000,  1.283316)
  16 Co ( 0.000000,  0.000000,  1.286547)
  17 Co ( 0.000000,  0.000000,  1.148662)
  18 Co ( 0.000000,  0.000000,  1.105998)
  19 Al ( 0.000000,  0.000000, -0.042697)
  20 Fe ( 0.000000,  0.000000,  2.231806)
  21 Fe ( 0.000000,  0.000000,  2.149812)
  22 Cr ( 0.000000,  0.000000, -1.402902)
  23 Ni ( 0.000000,  0.000000,  0.324867)
  24 Co ( 0.000000,  0.000000,  1.356783)
  25 Fe ( 0.000000,  0.000000,  2.246619)
  26 Fe ( 0.000000,  0.000000,  2.330106)
  27 Co ( 0.000000,  0.000000,  1.463581)
  28 Cr ( 0.000000,  0.000000, -2.084620)
  29 Ni ( 0.000000,  0.000000,  0.460973)
  30 Fe ( 0.000000,  0.000000,  2.013836)
  31 Fe ( 0.000000,  0.000000,  2.098882)
  32 Co ( 0.000000,  0.000000,  1.275346)
  33 Fe ( 0.000000,  0.000000,  1.854940)
  34 Co ( 0.000000,  0.000000,  1.284705)
  35 Cr ( 0.000000,  0.000000, -1.598489)
  36 Cr ( 0.000000,  0.000000, -1.621637)
  37 Cr ( 0.000000,  0.000000,  0.201876)
  38 Cr ( 0.000000,  0.000000,  0.979610)
  39 Cr ( 0.000000,  0.000000,  0.221442)
  40 Ni ( 0.000000,  0.000000,  0.277733)
  41 Ni ( 0.000000,  0.000000,  0.119273)
  42 Co ( 0.000000,  0.000000,  1.042108)
  43 Cr ( 0.000000,  0.000000,  0.500746)
  44 Cr ( 0.000000,  0.000000, -1.437872)
  45 Fe ( 0.000000,  0.000000,  1.627439)
  46 Fe ( 0.000000,  0.000000,  2.063655)
  47 Co ( 0.000000,  0.000000,  0.368768)
  48 Ni ( 0.000000,  0.000000,  0.276404)
  49 Al ( 0.000000,  0.000000, -0.022570)
  50 Fe ( 0.000000,  0.000000,  2.020306)
  51 Co ( 0.000000,  0.000000,  0.973282)
  52 Cr ( 0.000000,  0.000000, -1.709442)
  53 Fe ( 0.000000,  0.000000,  2.236987)
  54 Ni ( 0.000000,  0.000000,  0.109443)
  55 Fe ( 0.000000,  0.000000,  2.206510)
  56 Cr ( 0.000000,  0.000000, -1.410142)
  57 Ni ( 0.000000,  0.000000,  0.178460)
  58 Fe ( 0.000000,  0.000000,  1.769875)
  59 Fe ( 0.000000,  0.000000,  1.660893)
[...]
  93 Ni ( 0.000000,  0.000000,  0.262700)
  94 Al ( 0.000000,  0.000000, -0.020600)
  95 Cr ( 0.000000,  0.000000, -0.747716)
  96 Ni ( 0.000000,  0.000000,  0.080717)
  97 Ni ( 0.000000,  0.000000,  0.232735)
  98 Co ( 0.000000,  0.000000,  1.317308)
  99 Ni ( 0.000000,  0.000000,  0.177679)
 100 Co ( 0.000000,  0.000000,  1.445727)
 101 Co ( 0.000000,  0.000000,  1.277911)
 102 Co ( 0.000000,  0.000000,  1.336410)
 103 Ni ( 0.000000,  0.000000,  0.347379)
 104 Ni ( 0.000000,  0.000000,  0.269779)
 105 Ni ( 0.000000,  0.000000,  0.267165)
 106 Co ( 0.000000,  0.000000,  1.181044)
 107 Cr ( 0.000000,  0.000000, -1.495349)

Energy contributions relative to reference atoms: (reference = -3548577.034362)

Kinetic:       +198.840938
Potential:     -227.774214
External:        +0.000000
XC:            -856.206612
Entropy (-ST):   -4.523254
Local:          +35.913453
Free energy:   -853.749689
Extrapolated:  -851.488062

Spin contamination: 27.356165 electrons
Showing only first 2 kpts
                      Up                     Down
 Kpt  Band  Eigenvalues  Occupancy  Eigenvalues  Occupancy
  0   488      9.47145    0.99482     10.36995    0.02352
  0   489      9.48292    0.99420     10.38286    0.02073
  0   490      9.50115    0.99305     10.39321    0.01873
  0   491      9.51706    0.99186     10.40551    0.01660

  1   488      9.47568    0.99460     10.37254    0.02293
  1   489      9.48832    0.99388     10.39533    0.01834
  1   490      9.50152    0.99302     10.40128    0.01730
  1   491      9.50971    0.99243     10.42084    0.01427

Fermi level: 9.99732

No gap

Forces in eV/Ang:
  0 Co   -0.13342    0.13093    0.17360
  1 Fe    0.14157   -0.01710   -0.34481
  2 Co   -0.20437   -0.45094   -0.20329
  3 Co    0.11537    0.03049    0.47851
  4 Co   -0.32895   -0.09001    0.39153
  5 Ni   -0.45679    0.07069   -0.23911
  6 Fe   -0.22392   -0.51327    0.06864
  7 Al   -0.74185    0.76296    0.42466
  8 Fe    0.31074    0.27968   -0.48151
  9 Cr    0.07815    0.53239   -0.11561
 10 Al    0.31012   -0.00132   -0.88091
 11 Co   -0.02538   -0.25865   -0.43010
 12 Co    0.24481   -0.19826    0.13292
 13 Fe   -0.22662   -0.04963   -0.53024
 14 Al   -0.02222    0.69666   -1.34408
 15 Co    0.17502   -0.33482    0.26016
 16 Co   -0.28891    0.28715    0.28902
 17 Co   -0.19379   -0.39940    0.04620
 18 Co   -0.02087    0.23719    0.14533
 19 Al    0.34668   -1.16917   -0.01071
 20 Fe    0.07785   -0.24434    0.17174
 21 Fe    0.05960   -0.54096   -0.13973
 22 Cr    0.33791   -0.15423   -0.57230
 23 Ni   -0.02511    0.09128    0.04994
 24 Co    0.32986    0.11897    0.18648
 25 Fe    0.59208    0.11099   -0.22284
 26 Fe   -0.00589    0.10767   -0.41926
 27 Co   -0.07343   -0.08791    0.58685
 28 Cr   -1.10978    0.57790   -0.10132
 29 Ni   -0.42297    0.43873   -0.12708
 30 Fe   -0.27216    0.25032    0.00634
 31 Fe   -0.03161    0.17052    0.09325
 32 Co    0.41068    0.32253    0.05758
 33 Fe   -0.00625    0.08985   -0.20491
 34 Co    0.42710    0.11802   -0.32808
 35 Cr   -0.00117   -0.32761   -0.55839
 36 Cr    0.49489   -0.38490    0.74597
 37 Cr    0.19686    0.09611   -0.28650
 38 Cr   -0.50749    0.35295    0.21928
 39 Cr    0.05857   -0.80335   -0.15803
 40 Ni   -0.09765    0.24909   -0.41326
 41 Ni   -0.06511   -0.16675   -0.06355
 42 Co    0.20724   -0.00117    0.03965
 43 Cr   -0.13611    0.11278   -0.09382
 44 Cr   -0.35629    0.06500    0.72111
 45 Fe    0.06306   -0.14658   -0.29278
 46 Fe    0.49701   -0.37832    0.26342
 47 Co    0.08396    0.15797    0.48528
 48 Ni    0.07052   -0.24734   -0.30326
 49 Al    0.93404   -0.55070    0.13947
 50 Fe   -0.09797   -0.37788   -0.16582
 51 Co    0.38137    0.04908   -0.32212
 52 Cr    0.67036    0.10792    0.03106
 53 Fe   -0.14981    0.27793   -0.25900
 54 Ni    0.32142    0.06710   -0.11896
 55 Fe   -0.34304   -0.98107   -0.53363
 56 Cr   -0.38040    0.02264    0.08106
 57 Ni   -0.13654   -0.08073   -0.05093
 58 Fe   -0.26562   -0.05505   -0.26494
 59 Fe   -0.34437   -0.54393   -0.27627
[...]
 93 Ni    0.00390   -0.07036   -0.06550
 94 Al    0.09928    0.22124    1.54800
 95 Cr   -0.59469    0.28797    0.26184
 96 Ni    0.06663    0.16659    0.17271
 97 Ni   -0.13439    0.14112   -0.03358
 98 Co    0.15558   -0.41712    0.37926
 99 Ni   -0.42542    0.07984    0.16212
100 Co   -0.10390    0.04902    0.26732
101 Co    0.22973   -0.36323    0.19463
102 Co   -0.28243    0.13548   -0.30568
103 Ni   -0.04196    0.10647    0.04262
104 Ni    0.08103    0.10733    0.08566
105 Ni    0.32823    0.27637    0.05095
106 Co    0.09801    0.14262    0.11301
107 Cr   -0.11619    0.12561    0.25417

Date: Fri Apr 14 16:36:03 2023