User:   c.zeng@d0136
Date:   Sat Apr  8 16:42:33 2023
Arch:   x86_64
Pid:    5958
CWD:    /home/c.zeng/projects/hea-corrosion/hea-mlp/data-curation/volume/dft-jobs/92
Python: 3.8.1
gpaw:   /home/c.zeng/usr/installs/gpaw/source/gpaw-22.8.0/gpaw
_gpaw:  /home/c.zeng/usr/installs/gpaw/source/gpaw-22.8.0/
        _gpaw.cpython-38-x86_64-linux-gnu.so
ase:    /home/c.zeng/.local/lib/python3.8/site-packages/ase-3.22.1-py3.8.egg/ase (version 3.22.1)
numpy:  /shared/centos7/python/3.8.1/lib/python3.8/site-packages/numpy (version 1.17.4)
scipy:  /shared/centos7/python/3.8.1/lib/python3.8/site-packages/scipy (version 1.4.1)
units:  Angstrom and eV
cores: 64
OpenMP: False
OMP_NUM_THREADS: 1

Input parameters:
  convergence: {energy: 0.0001}
  kpts: [2 2 2]
  maxiter: 666
  mode: {ecut: 350.0,
         name: pw}
  occupations: {fixmagmom: False,
                name: fermi-dirac,
                width: 0.1}
  spinpol: True
  xc: PBE

System changes: positions, numbers, cell, pbc, initial_charges, initial_magmoms

Initialize ...

species:
  Fe:
    name: Iron
    id: 37abbd8d6c3c35915a9b583b742da910
    Z: 26.0
    valence: 8
    core: 18
    charge: 0.0
    file: /home/c.zeng/usr/data/gpaw-setups-0.9.20000/Fe.PBE.gz
    compensation charges: {type: gauss,
                           rc: 0.33,
                           lmax: 2}
    cutoffs: {filter: 2.06,
              core: 2.67}
    valence states:
      #              energy  rcut
      - 4s(2.00)    -5.291   1.164
      - 4p(0.00)    -1.326   1.058
      - 3d(6.00)    -7.505   1.058
      -  s          21.920   1.164
      -  p          25.885   1.058
      -  d          19.706   1.058

    # Using partial waves for Fe as LCAO basis

  Cr:
    name: Chromium
    id: 33f258bda2ca9f93018e70263a35547b
    Z: 24.0
    valence: 6
    core: 18
    charge: 0.0
    file: /home/c.zeng/usr/data/gpaw-setups-0.9.20000/Cr.PBE.gz
    compensation charges: {type: gauss,
                           rc: 0.35,
                           lmax: 2}
    cutoffs: {filter: 2.14,
              core: 3.04}
    valence states:
      #              energy  rcut
      - 4s(1.00)    -4.007   1.164
      - 4p(0.00)    -0.989   1.217
      - 3d(5.00)    -2.913   1.111
      -  s          23.205   1.164
      -  p          26.223   1.217
      -  d          24.299   1.111

[...]

  Ni:
    name: Nickel
    id: 0d9f38a9d6e76a2886f07bb4381f212b
    Z: 28.0
    valence: 16
    core: 12
    charge: 0.0
    file: /home/c.zeng/usr/data/gpaw-setups-0.9.20000/Ni.PBE.gz
    compensation charges: {type: gauss,
                           rc: 0.36,
                           lmax: 2}
    cutoffs: {filter: 2.14,
              core: 1.98}
    valence states:
      #              energy  rcut
      - 4s(2.00)    -5.642   1.164
      - 3p(6.00)   -71.394   1.207
      - 4p(0.00)    -1.226   1.207
      - 3d(8.00)    -8.875   1.138
      -  s          21.570   1.164
      -  d          18.337   1.138

[...]

  Al:
    name: Aluminium
    id: 0292cae29f5d6237e50f6abdd43a7bdd
    Z: 13.0
    valence: 3
    core: 10
    charge: 0.0
    file: /home/c.zeng/usr/data/gpaw-setups-0.9.20000/Al.PBE.gz
    compensation charges: {type: gauss,
                           rc: 0.34,
                           lmax: 2}
    cutoffs: {filter: 1.91,
              core: 2.36}
    valence states:
      #              energy  rcut
      - 3s(2.00)    -7.753   1.085
      - 3p(1.00)    -2.712   1.085
      -  s          19.459   1.085
      -  p          24.499   1.085
      -  d           0.000   1.085

[...]

  Co:
    name: Cobalt
    id: 339d20d5b0b93d2de9531a1bee871d91
    Z: 27.0
    valence: 9
    core: 18
    charge: 0.0
    file: /home/c.zeng/usr/data/gpaw-setups-0.9.20000/Co.PBE.gz
    compensation charges: {type: gauss,
                           rc: 0.32,
                           lmax: 2}
    cutoffs: {filter: 1.87,
              core: 2.55}
    valence states:
      #              energy  rcut
      - 4s(2.00)    -5.469   1.005
      - 4p(0.00)    -1.277   1.058
      - 3d(7.00)    -8.205   1.005
      -  s          21.742   1.005
      -  p          25.934   1.058
      -  d          19.007   1.005

    # Using partial waves for Co as LCAO basis

Reference energy: -3382523.201499  # eV

Spin-polarized calculation.
Magnetic moment: 128.800000

Convergence criteria:
 Maximum [total energy] change in last 3 cyles: 0.0001 eV / electron
 Maximum integral of absolute [dens]ity change: 0.0001 electrons / valence electron
 Maximum integral of absolute [eigenst]ate change: 4e-08 eV^2 / valence electron
 Maximum number of scf [iter]ations: 666
 (Square brackets indicate name in SCF output, whereas a 'c' in
 the SCF output indicates the quantity has converged.)

Symmetries present (total): 1

  ( 1  0  0)
  ( 0  1  0)
  ( 0  0  1)

8 k-points: 2 x 2 x 2 Monkhorst-Pack grid
4 k-points in the irreducible part of the Brillouin zone
       k-points in crystal coordinates                weights
   0:     0.25000000   -0.25000000   -0.25000000          2/8
   1:     0.25000000   -0.25000000    0.25000000          2/8
   2:     0.25000000    0.25000000   -0.25000000          2/8
   3:     0.25000000    0.25000000    0.25000000          2/8

Wave functions: Plane wave expansion
  Cutoff energy: 350.000 eV
  Number of coefficients (min, max): 22877, 22877
  Pulay-stress correction: 0.000000 eV/Ang^3 (de/decut=0.000000)
  Using FFTW library
  ScaLapack parameters: grid=1x1, blocksize=None
  Wavefunction extrapolation:
    Improved wavefunction reuse through dual PAW basis

Occupation numbers: Fermi-Dirac:
  width: 0.1000  # eV

Eigensolver
   Davidson(niter=2)

Densities:
  Coarse grid: 50*50*50 grid
  Fine grid: 100*100*100 grid
  Total Charge: 0.000000

Density mixing:
  Method: difference
  Backend: pulay
  Linear mixing parameter: 0.05
  old densities: 5
  Damping of long wavelength oscillations: 50

Hamiltonian:
  XC and Coulomb potentials evaluated on a 100*100*100 grid
  Using the PBE Exchange-Correlation functional
  External potential:
    NoExternalPotential

XC parameters: PBE with 2 nearest neighbor stencil

Total number of cores used: 64
Parallelization over k-points: 4
Domain decomposition: 4 x 2 x 2

Number of atoms: 108
Number of atomic orbitals: 961
Number of bands in calculation: 649
Number of valence electrons: 945
Bands to converge: occupied

... initialized

Initializing position-dependent things.

Density initialized from atomic densities
Creating initial wave functions:
  649 bands from LCAO basis set

       /|                     Ni    |
      / |             Cr       Ni Ni|
    /  FeCr     Al        NiAl      |
   /i   FeCo        Cr     CoCo     |
  /  Fe |  Ni Fe     CoCr     Fe    |
 *      Co   CoCrNi     Al FeFe   Ni|
 |      |CrFe   CrCo Al   FeCrCo   Co
 |    CoNiAl Ni     AlAl     CrNi   |
 |     Co  Ni Fe     Ni       Cr    |
 |      |       Fe     Ni Ni    Cr  |
 |    FeCoFe   AlFe     Al Co       |
 |Co    |Al Al  CrFe Co  Cr Co     Cr
 |      .-Cr-AlFe---FeNiCo-AlCoNi---.
 |     Cr  Al CrNi   FeFeNi     Cr /
 |    / FeFe   CrCo Cr  Ni Co     /
 |   /     Fe      FeCo          /
 |Cr/                           /
 | /  Ni     CoNi     CrNi     /
 |/    Cr       Al        Co  /
 *--------Al-----------------*

Positions:
   0 Fe    11.542488   11.542500   11.542488    ( 0.0000,  0.0000,  2.0000)
   1 Cr    11.542500    1.923754    1.923742    ( 0.0000,  0.0000,  0.0000)
   2 Ni     1.923754    0.000015    1.923765    ( 0.0000,  0.0000,  1.5000)
   3 Cr     1.923742    1.923765   11.542500    ( 0.0000,  0.0000,  0.0000)
   4 Al     3.847496    0.000041    0.000036    ( 0.0000,  0.0000,  0.0000)
   5 Fe     3.847496    1.923754    1.923754    ( 0.0000,  0.0000,  2.0000)
   6 Ni     5.771227   11.542500    1.923777    ( 0.0000,  0.0000,  1.5000)
   7 Al     5.771192    1.923812    0.000035    ( 0.0000,  0.0000,  0.0000)
   8 Al     7.695038   11.542431    0.000031    ( 0.0000,  0.0000,  0.0000)
   9 Co     7.695004    1.923765    1.923765    ( 0.0000,  0.0000,  2.1000)
  10 Ni     9.618769    0.000011    1.923742    ( 0.0000,  0.0000,  1.5000)
  11 Co     9.618769    1.923754    0.000002    ( 0.0000,  0.0000,  2.1000)
  12 Ni     0.000002    3.847496   11.542488    ( 0.0000,  0.0000,  1.5000)
  13 Cr    11.542488    5.771250    1.923765    ( 0.0000,  0.0000,  0.0000)
  14 Fe     1.923754    3.847496    1.923742    ( 0.0000,  0.0000,  2.0000)
  15 Cr     1.923754    5.771238   11.542477    ( 0.0000,  0.0000,  0.0000)
  16 Co     3.847496    3.847496   11.542500    ( 0.0000,  0.0000,  2.1000)
  17 Cr     3.847542    5.771227    1.923719    ( 0.0000,  0.0000,  0.0000)
  18 Co     5.771250    3.847519    1.923754    ( 0.0000,  0.0000,  2.1000)
  19 Fe     5.771250    5.771250    0.000011    ( 0.0000,  0.0000,  2.0000)
  20 Cr     7.695004    3.847519    0.000026    ( 0.0000,  0.0000,  0.0000)
  21 Fe     7.694981    5.771250    1.923754    ( 0.0000,  0.0000,  2.0000)
  22 Co     9.618746    3.847496    1.923765    ( 0.0000,  0.0000,  2.1000)
  23 Al     9.618735    5.771250   11.542488    ( 0.0000,  0.0000,  0.0000)
  24 Ni    11.542488    7.695004   11.542477    ( 0.0000,  0.0000,  1.5000)
  25 Cr    11.542488    9.618746    1.923754    ( 0.0000,  0.0000,  0.0000)
  26 Cr     1.923731    7.695004    1.923754    ( 0.0000,  0.0000,  0.0000)
  27 Al     1.923673    9.618735    0.000006    ( 0.0000,  0.0000,  0.0000)
  28 Cr     3.847531    7.694969    0.000004    ( 0.0000,  0.0000,  0.0000)
  29 Cr     3.847531    9.618769    1.923765    ( 0.0000,  0.0000,  0.0000)
  30 Fe     5.771262    7.694992    1.923742    ( 0.0000,  0.0000,  2.0000)
  31 Fe     5.771262    9.618735    0.000011    ( 0.0000,  0.0000,  2.0000)
  32 Ni     7.694981    7.695004    0.000020    ( 0.0000,  0.0000,  1.5000)
  33 Cr     7.694981    9.618735    1.923742    ( 0.0000,  0.0000,  0.0000)
  34 Co     9.618758    7.694992    1.923754    ( 0.0000,  0.0000,  2.1000)
  35 Ni     9.618769    9.618746   11.542488    ( 0.0000,  0.0000,  1.5000)
  36 Ni     0.000005   11.542488    3.847508    ( 0.0000,  0.0000,  1.5000)
  37 Co    11.542500    1.923742    5.771262    ( 0.0000,  0.0000,  2.1000)
  38 Co     1.923742   11.542488    5.771250    ( 0.0000,  0.0000,  2.1000)
  39 Cr     1.923742    1.923731    3.847485    ( 0.0000,  0.0000,  0.0000)
  40 Fe     3.847508    0.000001    3.847496    ( 0.0000,  0.0000,  2.0000)
  41 Al     3.847531    1.923708    5.771296    ( 0.0000,  0.0000,  0.0000)
  42 Fe     5.771250   11.542500    5.771250    ( 0.0000,  0.0000,  2.0000)
  43 Ni     5.771250    1.923742    3.847496    ( 0.0000,  0.0000,  1.5000)
  44 Cr     7.694992    0.000001    3.847519    ( 0.0000,  0.0000,  0.0000)
  45 Co     7.694981    1.923742    5.771250    ( 0.0000,  0.0000,  2.1000)
  46 Co     9.618758   11.542500    5.771262    ( 0.0000,  0.0000,  2.1000)
  47 Ni     9.618746    1.923754    3.847508    ( 0.0000,  0.0000,  1.5000)
  48 Ni    11.542488    3.847496    3.847496    ( 0.0000,  0.0000,  1.5000)
  49 Cr    11.542477    5.771238    5.771250    ( 0.0000,  0.0000,  0.0000)
  50 Co     1.923742    3.847496    5.771262    ( 0.0000,  0.0000,  2.1000)
  51 Al     1.923708    5.771227    3.847485    ( 0.0000,  0.0000,  0.0000)
  52 Al     3.847542    3.847508    3.847462    ( 0.0000,  0.0000,  0.0000)
  53 Fe     3.847519    5.771227    5.771262    ( 0.0000,  0.0000,  2.0000)
  54 Fe     5.771250    3.847508    5.771250    ( 0.0000,  0.0000,  2.0000)
  55 Fe     5.771250    5.771238    3.847496    ( 0.0000,  0.0000,  2.0000)
  56 Ni     7.694992    3.847519    3.847496    ( 0.0000,  0.0000,  1.5000)
  57 Ni     7.694981    5.771215    5.771227    ( 0.0000,  0.0000,  1.5000)
  58 Co     9.618758    3.847485    5.771238    ( 0.0000,  0.0000,  2.1000)
  59 Co     9.618758    5.771238    3.847485    ( 0.0000,  0.0000,  2.1000)
[...]
  93 Cr     7.694992    5.771250    9.618769    ( 0.0000,  0.0000,  0.0000)
  94 Fe     9.618781    3.847496    9.618746    ( 0.0000,  0.0000,  2.0000)
  95 Cr     9.618769    5.771238    7.695015    ( 0.0000,  0.0000,  0.0000)
  96 Ni    11.542488    7.695027    7.695027    ( 0.0000,  0.0000,  1.5000)
  97 Fe    11.542500    9.618758    9.618746    ( 0.0000,  0.0000,  2.0000)
  98 Co     1.923731    7.694981    9.618746    ( 0.0000,  0.0000,  2.1000)
  99 Ni     1.923731    9.618781    7.695004    ( 0.0000,  0.0000,  1.5000)
 100 Cr     3.847496    7.694981    7.695015    ( 0.0000,  0.0000,  0.0000)
 101 Al     3.847531    9.618735    9.618688    ( 0.0000,  0.0000,  0.0000)
 102 Cr     5.771250    7.694981    9.618781    ( 0.0000,  0.0000,  0.0000)
 103 Co     5.771262    9.618781    7.694992    ( 0.0000,  0.0000,  2.1000)
 104 Al     7.695027    7.695050    7.695038    ( 0.0000,  0.0000,  0.0000)
 105 Ni     7.695015    9.618746    9.618746    ( 0.0000,  0.0000,  1.5000)
 106 Co     9.618781    7.695015    9.618746    ( 0.0000,  0.0000,  2.1000)
 107 Fe     9.618758    9.618758    7.695004    ( 0.0000,  0.0000,  2.0000)

Unit cell:
           periodic     x           y           z      points  spacing
  1. axis:    yes   11.542500    0.000000    0.000000    50     0.2308
  2. axis:    yes    0.000000   11.542500    0.000000    50     0.2308
  3. axis:    yes    0.000000    0.000000   11.542500    50     0.2308

  Lengths:  11.542500  11.542500  11.542500
  Angles:   90.000000  90.000000  90.000000

Effective grid spacing dv^(1/3) = 0.2309

     iter     time        total  log10-change:  magmom
                         energy  eigst   dens
iter:   1 16:45:04 -1010.588017                  +129.0866
iter:   2 16:46:22  -878.822074  -0.05  -1.16    +69.8235
iter:   3 16:47:39  -878.666912  -0.57  -1.10    +71.1249
iter:   4 16:48:57  -818.380905  -1.13  -1.19    +65.9694
iter:   5 16:50:15  -809.948881  -1.66  -1.30    +67.4488
iter:   6 16:51:36  -815.191507  -1.52  -1.34    +74.2612
iter:   7 16:52:53  -809.472834  -1.28  -1.33    +77.2558
iter:   8 16:54:13  -809.569183  -1.39  -1.43    +81.5568
iter:   9 16:55:28  -803.858731  -1.42  -1.46    +82.2398
iter:  10 16:56:48  -802.667470  -1.87  -1.64    +83.0061
iter:  11 16:58:05  -799.870876  -2.02  -1.67    +85.1418
iter:  12 16:59:24  -799.042575  -2.29  -1.74    +85.7060
iter:  13 17:00:41  -800.114681  -2.35  -1.82    +86.4153
iter:  14 17:01:58  -800.385022  -2.45  -1.83    +86.0991
iter:  15 17:03:17  -800.784276  -2.46  -1.90    +85.2835
iter:  16 17:04:34  -801.558269  -2.60  -1.92    +85.6621
iter:  17 17:05:51  -801.845186  -2.68  -1.94    +84.3937
iter:  18 17:07:08  -802.406377  -2.83  -2.00    +84.5871
iter:  19 17:08:27  -802.823003  -2.81  -2.02    +84.2309
iter:  20 17:09:46  -803.053862  -2.93  -2.04    +84.5215
iter:  21 17:11:01  -803.689373  -2.86  -2.11    +83.6732
iter:  22 17:12:19  -803.872687  -3.02  -2.13    +83.6565
iter:  23 17:13:36  -804.079486  -2.97  -2.16    +83.9616
iter:  24 17:14:55  -804.415043  -2.86  -2.22    +83.5016
iter:  25 17:16:13  -804.270930  -3.07  -2.25    +83.7854
iter:  26 17:17:34  -804.496270  -3.23  -2.36    +83.3520
iter:  27 17:18:51  -804.472781  -3.40  -2.38    +83.5043
iter:  28 17:20:12  -804.508115c -3.42  -2.43    +83.1504
iter:  29 17:21:29  -804.550527c -3.73  -2.49    +82.9588
iter:  30 17:22:43  -804.632657  -3.78  -2.55    +82.6040
iter:  31 17:24:00  -804.658216  -4.01  -2.59    +82.4878
iter:  32 17:25:16  -804.729782  -3.85  -2.63    +82.2779
iter:  33 17:26:34  -804.746857c -4.06  -2.66    +82.1863
iter:  34 17:27:53  -804.786603c -4.08  -2.70    +81.8807
iter:  35 17:29:10  -804.827570c -4.29  -2.79    +81.6743
iter:  36 17:30:29  -804.877976c -4.27  -2.83    +81.5069
iter:  37 17:31:45  -804.920882c -4.33  -2.82    +81.2218
iter:  38 17:33:03  -804.967446c -4.47  -2.87    +80.9771
iter:  39 17:34:21  -804.981772c -4.88  -2.88    +80.9686
iter:  40 17:35:40  -805.043313c -4.43  -2.89    +80.6204
iter:  41 17:36:59  -805.039867c -4.53  -2.86    +80.7549
iter:  42 17:38:16  -805.167235  -3.70  -2.83    +79.9417
iter:  43 17:39:31  -805.135025  -3.62  -2.75    +80.6752
iter:  44 17:40:47  -805.229582  -3.87  -2.72    +80.0405
iter:  45 17:42:03  -805.218397  -4.13  -2.81    +80.1545
iter:  46 17:43:21  -805.253899c -3.71  -2.77    +79.7026
iter:  47 17:44:42  -805.282158c -4.45  -2.69    +79.2917
iter:  48 17:45:59  -805.478443  -3.48  -2.74    +78.3751
iter:  49 17:47:15  -805.385923  -3.82  -2.61    +78.5992
iter:  50 17:48:33  -805.461622c -3.99  -2.70    +77.9502
iter:  51 17:49:52  -805.425150c -4.05  -2.69    +77.8991
iter:  52 17:51:12  -805.503085c -4.20  -2.74    +77.3849
iter:  53 17:52:32  -805.582128  -4.20  -2.78    +77.1286
iter:  54 17:53:53  -805.691184  -3.83  -2.75    +76.9476
iter:  55 17:55:10  -805.645628  -4.03  -2.62    +76.8280
iter:  56 17:56:29  -805.801092  -3.65  -2.77    +76.5122
iter:  57 17:57:46  -805.702010  -4.01  -2.60    +76.3795
iter:  58 17:59:05  -805.730945  -4.09  -2.77    +75.9435
iter:  59 18:00:23  -805.741848c -4.35  -2.76    +75.6443
iter:  60 18:01:42  -805.750633c -4.39  -2.76    +75.4374
iter:  61 18:03:00  -805.761552c -3.87  -2.77    +75.2461
iter:  62 18:04:20  -805.734792c -4.16  -2.71    +75.1555
iter:  63 18:05:38  -805.744567c -4.03  -2.83    +75.0920
iter:  64 18:06:56  -805.728839c -4.02  -2.80    +75.0261
iter:  65 18:08:14  -805.708798c -4.30  -2.88    +75.0478
iter:  66 18:09:34  -805.705527c -4.87  -2.98    +75.1047
iter:  67 18:10:54  -805.705665c -4.79  -3.04    +75.1055
iter:  68 18:12:12  -805.706943c -4.92  -3.03    +75.1363
iter:  69 18:13:32  -805.698398c -4.74  -3.09    +75.1421
iter:  70 18:14:49  -805.700614c -4.94  -3.25    +75.1292
iter:  71 18:16:11  -805.698322c -5.17  -3.24    +75.1574
iter:  72 18:17:28  -805.697218c -5.27  -3.34    +75.1739
iter:  73 18:18:49  -805.698107c -5.23  -3.35    +75.1511
iter:  74 18:20:08  -805.700171c -5.19  -3.45    +75.1573
iter:  75 18:21:25  -805.697751c -5.50  -3.47    +75.1419
iter:  76 18:22:42  -805.697703c -5.65  -3.56    +75.1292
iter:  77 18:24:05  -805.698580c -5.87  -3.66    +75.1174
iter:  78 18:25:10  -805.698363c -5.99  -3.67    +75.1046
iter:  79 18:26:02  -805.697945c -6.30  -3.75    +75.1056
iter:  80 18:26:54  -805.698407c -6.28  -3.84    +75.0946
iter:  81 18:27:46  -805.697941c -6.31  -3.89    +75.0900
iter:  82 18:28:38  -805.698395c -6.45  -3.95    +75.0899
iter:  83 18:29:29  -805.698187c -6.46  -4.04c   +75.0874
iter:  84 18:30:20  -805.698199c -6.70  -4.08c   +75.0863
iter:  85 18:31:12  -805.698249c -6.96  -4.12c   +75.0890
iter:  86 18:32:03  -805.698295c -6.96  -4.21c   +75.0888
iter:  87 18:32:55  -805.698147c -7.02  -4.25c   +75.0892
iter:  88 18:33:46  -805.698358c -7.02  -4.27c   +75.0895
iter:  89 18:34:37  -805.698270c -7.21  -4.33c   +75.0894
iter:  90 18:35:29  -805.698266c -7.31  -4.38c   +75.0908
iter:  91 18:36:20  -805.698292c -7.29  -4.39c   +75.0914
iter:  92 18:37:11  -805.698272c -7.62c -4.47c   +75.0910

Converged after 92 iterations.

Dipole moment: (-0.410001, -0.081341, 0.286637) |e|*Ang

Total magnetic moment: (0.000000, 0.000000, 75.090978)
Local magnetic moments:
   0 Fe ( 0.000000,  0.000000,  2.780431)
   1 Cr ( 0.000000,  0.000000,  2.785975)
   2 Ni ( 0.000000,  0.000000,  0.089056)
   3 Cr ( 0.000000,  0.000000, -2.899705)
   4 Al ( 0.000000,  0.000000, -0.008081)
   5 Fe ( 0.000000,  0.000000,  2.660903)
   6 Ni ( 0.000000,  0.000000,  0.291342)
   7 Al ( 0.000000,  0.000000, -0.012124)
   8 Al ( 0.000000,  0.000000, -0.021609)
   9 Co ( 0.000000,  0.000000,  1.693677)
  10 Ni ( 0.000000,  0.000000,  0.253531)
  11 Co ( 0.000000,  0.000000,  1.556724)
  12 Ni ( 0.000000,  0.000000,  0.405413)
  13 Cr ( 0.000000,  0.000000,  2.450338)
  14 Fe ( 0.000000,  0.000000,  2.449430)
  15 Cr ( 0.000000,  0.000000, -2.776670)
  16 Co ( 0.000000,  0.000000,  1.477004)
  17 Cr ( 0.000000,  0.000000, -2.535106)
  18 Co ( 0.000000,  0.000000,  1.524221)
  19 Fe ( 0.000000,  0.000000,  2.683344)
  20 Cr ( 0.000000,  0.000000, -2.891948)
  21 Fe ( 0.000000,  0.000000,  2.801347)
  22 Co ( 0.000000,  0.000000,  1.595466)
  23 Al ( 0.000000,  0.000000, -0.039192)
  24 Ni ( 0.000000,  0.000000,  0.326440)
  25 Cr ( 0.000000,  0.000000, -2.877567)
  26 Cr ( 0.000000,  0.000000,  2.313622)
  27 Al ( 0.000000,  0.000000, -0.010674)
  28 Cr ( 0.000000,  0.000000, -2.618843)
  29 Cr ( 0.000000,  0.000000, -2.839472)
  30 Fe ( 0.000000,  0.000000,  2.464955)
  31 Fe ( 0.000000,  0.000000,  2.375323)
  32 Ni ( 0.000000,  0.000000,  0.483051)
  33 Cr ( 0.000000,  0.000000,  2.715596)
  34 Co ( 0.000000,  0.000000,  1.414270)
  35 Ni ( 0.000000,  0.000000,  0.511518)
  36 Ni ( 0.000000,  0.000000,  0.280637)
  37 Co ( 0.000000,  0.000000,  1.885066)
  38 Co ( 0.000000,  0.000000,  1.620866)
  39 Cr ( 0.000000,  0.000000, -2.862920)
  40 Fe ( 0.000000,  0.000000,  2.771567)
  41 Al ( 0.000000,  0.000000, -0.037245)
  42 Fe ( 0.000000,  0.000000,  2.786691)
  43 Ni ( 0.000000,  0.000000,  0.492837)
  44 Cr ( 0.000000,  0.000000, -2.880206)
  45 Co ( 0.000000,  0.000000,  1.809256)
  46 Co ( 0.000000,  0.000000,  1.732433)
  47 Ni ( 0.000000,  0.000000,  0.610119)
  48 Ni ( 0.000000,  0.000000,  0.462230)
  49 Cr ( 0.000000,  0.000000,  2.688325)
  50 Co ( 0.000000,  0.000000,  1.385079)
  51 Al ( 0.000000,  0.000000, -0.042011)
  52 Al ( 0.000000,  0.000000, -0.029249)
  53 Fe ( 0.000000,  0.000000,  2.460544)
  54 Fe ( 0.000000,  0.000000,  2.783880)
  55 Fe ( 0.000000,  0.000000,  2.564163)
  56 Ni ( 0.000000,  0.000000,  0.698079)
  57 Ni ( 0.000000,  0.000000,  0.168266)
  58 Co ( 0.000000,  0.000000,  1.717464)
  59 Co ( 0.000000,  0.000000,  1.656210)
[...]
  93 Cr ( 0.000000,  0.000000,  2.681127)
  94 Fe ( 0.000000,  0.000000,  2.630957)
  95 Cr ( 0.000000,  0.000000, -2.702799)
  96 Ni ( 0.000000,  0.000000,  0.418881)
  97 Fe ( 0.000000,  0.000000,  2.904017)
  98 Co ( 0.000000,  0.000000,  1.190488)
  99 Ni ( 0.000000,  0.000000,  0.500249)
 100 Cr ( 0.000000,  0.000000,  2.591954)
 101 Al ( 0.000000,  0.000000, -0.012137)
 102 Cr ( 0.000000,  0.000000, -2.752256)
 103 Co ( 0.000000,  0.000000,  1.293138)
 104 Al ( 0.000000,  0.000000, -0.018616)
 105 Ni ( 0.000000,  0.000000,  0.411159)
 106 Co ( 0.000000,  0.000000,  1.547463)
 107 Fe ( 0.000000,  0.000000,  2.839392)

Energy contributions relative to reference atoms: (reference = -3382523.201499)

Kinetic:       -192.913996
Potential:     +100.050660
External:        +0.000000
XC:            -741.348048
Entropy (-ST):   -4.376296
Local:          +30.701259
Free energy:   -807.886420
Extrapolated:  -805.698272

Spin contamination: 53.951663 electrons
Showing only first 2 kpts
                      Up                     Down
 Kpt  Band  Eigenvalues  Occupancy  Eigenvalues  Occupancy
  0   470      6.68093    0.99960      7.82959    0.02490
  0   471      6.68936    0.99956      7.83815    0.02290
  0   472      6.69743    0.99953      7.84585    0.02124
  0   473      6.72660    0.99937      7.85469    0.01948

  1   470      6.69183    0.99955      7.82694    0.02555
  1   471      6.70908    0.99947      7.84017    0.02245
  1   472      6.71935    0.99941      7.84305    0.02183
  1   473      6.73490    0.99931      7.85391    0.01963

Fermi level: 7.46282

No gap

Forces in eV/Ang:
  0 Fe   -0.36816    0.10372   -0.48762
  1 Cr   -0.27462   -0.05811    0.21492
  2 Ni    0.06828   -0.08224   -0.05148
  3 Cr   -0.38144    0.47583    0.04498
  4 Al   -0.14557    0.20766    0.48178
  5 Fe   -0.07071    0.36160    0.02135
  6 Ni   -0.05602    0.24287   -0.05688
  7 Al   -0.46027    0.81183    0.63727
  8 Al    0.90175   -0.59193    0.41071
  9 Co    0.29599    0.40707    0.20484
 10 Ni    0.08050    0.14877   -0.00407
 11 Co    0.09002    0.14027    0.10815
 12 Ni    0.04894   -0.14247   -0.14758
 13 Cr   -0.30129   -0.20528   -0.02264
 14 Fe    0.34522   -0.06393   -0.24577
 15 Cr   -0.77019   -0.45113   -0.46929
 16 Co   -0.05991    0.21702   -0.04764
 17 Cr    0.37526   -0.20333   -0.15748
 18 Co    0.17743   -0.09681    0.17028
 19 Fe   -0.42872   -0.06566    0.49425
 20 Cr    0.14369    0.34957    0.31393
 21 Fe    0.11186   -0.12175    0.12975
 22 Co   -0.31716   -0.16368    0.17437
 23 Al    0.29710    0.48058    0.05327
 24 Ni   -0.14036    0.12406   -0.07210
 25 Cr   -0.02518   -0.04754   -0.11226
 26 Cr    0.37784    0.13170   -0.42225
 27 Al   -0.86595   -0.13287   -0.14132
 28 Cr    0.17283   -0.25750   -0.05830
 29 Cr    0.38107    0.41306    0.76468
 30 Fe   -0.17235   -0.19915   -0.23217
 31 Fe   -0.07354   -0.47157   -0.03506
 32 Ni   -0.01085    0.16307    0.02045
 33 Cr    0.46025    0.11296    0.14810
 34 Co    0.14109   -0.03457   -0.01662
 35 Ni    0.08126   -0.16179   -0.05392
 36 Ni   -0.08779   -0.04471    0.20610
 37 Co   -0.04775    0.10763    0.07470
 38 Co   -0.18745   -0.08564    0.14033
 39 Cr   -0.75364   -0.19957   -0.34200
 40 Fe    0.03458   -0.25032   -0.19275
 41 Al   -0.03879   -0.13585    0.60983
 42 Fe    0.24505   -0.00569    0.06077
 43 Ni    0.02843    0.07994   -0.04793
 44 Cr   -0.40234    0.45941    0.08589
 45 Co   -0.00440    0.03473    0.03394
 46 Co    0.07812   -0.01004    0.02640
 47 Ni   -0.07598    0.04178    0.07666
 48 Ni   -0.03747   -0.06424    0.08021
 49 Cr   -0.27997   -0.52200    0.32302
 50 Co    0.01343   -0.25613    0.08628
 51 Al   -0.89204   -0.67447    0.02290
 52 Al    0.60703   -0.06352   -0.07007
 53 Fe    0.16933   -0.45284    0.00396
 54 Fe    0.33614    0.09755   -0.01959
 55 Fe    0.15847   -0.41291   -0.26819
 56 Ni    0.07775   -0.12076   -0.05337
 57 Ni    0.09516    0.08599   -0.13726
 58 Co    0.04155   -0.25729   -0.28864
 59 Co   -0.19525   -0.29686   -0.04468
[...]
 93 Cr   -0.13271    0.22847   -0.03472
 94 Fe    0.85840   -0.63622    0.01806
 95 Cr    0.61477   -0.35619    0.41709
 96 Ni   -0.07195    0.17973    0.25593
 97 Fe   -0.09894   -0.22718   -0.19402
 98 Co   -0.22477   -0.13844    0.07275
 99 Ni   -0.12811    0.10091    0.03826
100 Cr   -0.08066    0.23973    0.22031
101 Al   -0.30291   -0.16654   -0.92179
102 Cr    0.51878   -0.12916   -0.13446
103 Co    0.46863    0.44807    0.02810
104 Al    0.01228    0.22869    0.41368
105 Ni    0.08551   -0.01177   -0.01109
106 Co    0.24005    0.37504    0.05049
107 Fe    0.05731    0.17862    0.03480

Date: Sat Apr  8 18:37:24 2023