User:   c.zeng@d0117
Date:   Sat Apr 15 17:22:03 2023
Arch:   x86_64
Pid:    229421
CWD:    /home/c.zeng/projects/hea-corrosion/hea-mlp/data-curation/bulk-mcmc/dft-jobs/62
Python: 3.8.1
gpaw:   /home/c.zeng/usr/installs/gpaw/source/gpaw-22.8.0/gpaw
_gpaw:  /home/c.zeng/usr/installs/gpaw/source/gpaw-22.8.0/
        _gpaw.cpython-38-x86_64-linux-gnu.so
ase:    /home/c.zeng/.local/lib/python3.8/site-packages/ase-3.22.1-py3.8.egg/ase (version 3.22.1)
numpy:  /shared/centos7/python/3.8.1/lib/python3.8/site-packages/numpy (version 1.17.4)
scipy:  /shared/centos7/python/3.8.1/lib/python3.8/site-packages/scipy (version 1.4.1)
units:  Angstrom and eV
cores: 30
OpenMP: False
OMP_NUM_THREADS: 1

Input parameters:
  convergence: {energy: 0.0001}
  kpts: [2 2 2]
  maxiter: 666
  mode: {ecut: 350.0,
         name: pw}
  occupations: {fixmagmom: False,
                name: fermi-dirac,
                width: 0.1}
  spinpol: True
  xc: PBE

System changes: positions, numbers, cell, pbc, initial_charges, initial_magmoms

Initialize ...

species:
  Cr:
    name: Chromium
    id: 33f258bda2ca9f93018e70263a35547b
    Z: 24.0
    valence: 6
    core: 18
    charge: 0.0
    file: /home/c.zeng/usr/data/gpaw-setups-0.9.20000/Cr.PBE.gz
    compensation charges: {type: gauss,
                           rc: 0.35,
                           lmax: 2}
    cutoffs: {filter: 2.14,
              core: 3.04}
    valence states:
      #              energy  rcut
      - 4s(1.00)    -4.007   1.164
      - 4p(0.00)    -0.989   1.217
      - 3d(5.00)    -2.913   1.111
      -  s          23.205   1.164
      -  p          26.223   1.217
      -  d          24.299   1.111

    # Using partial waves for Cr as LCAO basis

  Fe:
    name: Iron
    id: 37abbd8d6c3c35915a9b583b742da910
    Z: 26.0
    valence: 8
    core: 18
    charge: 0.0
    file: /home/c.zeng/usr/data/gpaw-setups-0.9.20000/Fe.PBE.gz
    compensation charges: {type: gauss,
                           rc: 0.33,
                           lmax: 2}
    cutoffs: {filter: 2.06,
              core: 2.67}
    valence states:
      #              energy  rcut
      - 4s(2.00)    -5.291   1.164
      - 4p(0.00)    -1.326   1.058
      - 3d(6.00)    -7.505   1.058
      -  s          21.920   1.164
      -  p          25.885   1.058
      -  d          19.706   1.058

[...]

  Ni:
    name: Nickel
    id: 0d9f38a9d6e76a2886f07bb4381f212b
    Z: 28.0
    valence: 16
    core: 12
    charge: 0.0
    file: /home/c.zeng/usr/data/gpaw-setups-0.9.20000/Ni.PBE.gz
    compensation charges: {type: gauss,
                           rc: 0.36,
                           lmax: 2}
    cutoffs: {filter: 2.14,
              core: 1.98}
    valence states:
      #              energy  rcut
      - 4s(2.00)    -5.642   1.164
      - 3p(6.00)   -71.394   1.207
      - 4p(0.00)    -1.226   1.207
      - 3d(8.00)    -8.875   1.138
      -  s          21.570   1.164
      -  d          18.337   1.138

[...]

  Co:
    name: Cobalt
    id: 339d20d5b0b93d2de9531a1bee871d91
    Z: 27.0
    valence: 9
    core: 18
    charge: 0.0
    file: /home/c.zeng/usr/data/gpaw-setups-0.9.20000/Co.PBE.gz
    compensation charges: {type: gauss,
                           rc: 0.32,
                           lmax: 2}
    cutoffs: {filter: 1.87,
              core: 2.55}
    valence states:
      #              energy  rcut
      - 4s(2.00)    -5.469   1.005
      - 4p(0.00)    -1.277   1.058
      - 3d(7.00)    -8.205   1.005
      -  s          21.742   1.005
      -  p          25.934   1.058
      -  d          19.007   1.005

[...]

  Al:
    name: Aluminium
    id: 0292cae29f5d6237e50f6abdd43a7bdd
    Z: 13.0
    valence: 3
    core: 10
    charge: 0.0
    file: /home/c.zeng/usr/data/gpaw-setups-0.9.20000/Al.PBE.gz
    compensation charges: {type: gauss,
                           rc: 0.34,
                           lmax: 2}
    cutoffs: {filter: 1.91,
              core: 2.36}
    valence states:
      #              energy  rcut
      - 3s(2.00)    -7.753   1.085
      - 3p(1.00)    -2.712   1.085
      -  s          19.459   1.085
      -  p          24.499   1.085
      -  d           0.000   1.085

    # Using partial waves for Al as LCAO basis

Reference energy: -3699400.456887  # eV

Spin-polarized calculation.
Magnetic moment: 143.500000

Convergence criteria:
 Maximum [total energy] change in last 3 cyles: 0.0001 eV / electron
 Maximum integral of absolute [dens]ity change: 0.0001 electrons / valence electron
 Maximum integral of absolute [eigenst]ate change: 4e-08 eV^2 / valence electron
 Maximum number of scf [iter]ations: 666
 (Square brackets indicate name in SCF output, whereas a 'c' in
 the SCF output indicates the quantity has converged.)

Symmetries present (total): 1

  ( 1  0  0)
  ( 0  1  0)
  ( 0  0  1)

8 k-points: 2 x 2 x 2 Monkhorst-Pack grid
4 k-points in the irreducible part of the Brillouin zone
       k-points in crystal coordinates                weights
   0:     0.25000000   -0.25000000   -0.25000000          2/8
   1:     0.25000000   -0.25000000    0.25000000          2/8
   2:     0.25000000    0.25000000   -0.25000000          2/8
   3:     0.25000000    0.25000000    0.25000000          2/8

Wave functions: Plane wave expansion
  Cutoff energy: 350.000 eV
  Number of coefficients (min, max): 18052, 18052
  Pulay-stress correction: 0.000000 eV/Ang^3 (de/decut=0.000000)
  Using FFTW library
  ScaLapack parameters: grid=1x1, blocksize=None
  Wavefunction extrapolation:
    Improved wavefunction reuse through dual PAW basis

Occupation numbers: Fermi-Dirac:
  width: 0.1000  # eV

Eigensolver
   Davidson(niter=2)

Densities:
  Coarse grid: 48*48*48 grid
  Fine grid: 96*96*96 grid
  Total Charge: 0.000000

Density mixing:
  Method: difference
  Backend: pulay
  Linear mixing parameter: 0.05
  old densities: 5
  Damping of long wavelength oscillations: 50

Hamiltonian:
  XC and Coulomb potentials evaluated on a 96*96*96 grid
  Using the PBE Exchange-Correlation functional
  External potential:
    NoExternalPotential

XC parameters: PBE with 2 nearest neighbor stencil

Total number of cores used: 30
Parallelization over k-points: 2
Domain decomposition: 5 x 3 x 1

Number of atoms: 108
Number of atomic orbitals: 1025
Number of bands in calculation: 703
Number of valence electrons: 1020
Bands to converge: occupied

... initialized

Initializing position-dependent things.

Density initialized from atomic densities
Creating initial wave functions:
  703 bands from LCAO basis set

        Cr------------------------.
       /|  Co                Co   |
      Cr|   Cr         Ni         |
     / Fe      Fe       Al        |
    /   CCo      Ni       Fe      |
   /e   | CoCr     CoAl    CrNi   |
  /  FeNi  NiCo     NiNiCo        |
 *    FeFe  FeCoNi     CoAl       |
 |     CoFeCr  CoFe Ni  NiFeCr    |
 | Fe   NiNiNiCo CrNiCrFe  Ni     |
 |   CoCr  CrAlNi   CrCrCr   Fe   |
 |    FeCr  FeFeCoNi CoFeNi   Ni  |
 |     CrFeFe  Ni CrCr  CoFeFe    |
 |      .-CoNiCo-FeCrCrCo--CoCr---.
 |   NiCo    CoAl   CrCrFe       /
 |    / Cr    NiFe       Ni     /
 |   /            Cr           /
 |Cr/      Co       Co        /
 |/            Ni           /
 *----------------Ni-------*

Positions:
   0 Cr     0.005316   -0.016350   10.639749    ( 0.0000,  0.0000,  0.0000)
   1 Cr    10.672340    1.801276    1.786848    ( 0.0000,  0.0000,  0.0000)
   2 Fe     1.795727   10.625972    1.782259    ( 0.0000,  0.0000,  0.0000)
   3 Ni     1.780787    1.796175   10.644605    ( 0.0000,  0.0000,  2.1000)
   4 Fe     3.523539   -0.014558    0.017268    ( 0.0000,  0.0000,  2.0000)
   5 Co     3.522568    1.781672    1.746648    ( 0.0000,  0.0000,  0.0000)
   6 Co     5.320952   10.642342    1.763136    ( 0.0000,  0.0000,  1.5000)
   7 Ni     5.342082    1.828767    0.007462    ( 0.0000,  0.0000,  2.0000)
   8 Ni     7.144895    0.019195    0.012033    ( 0.0000,  0.0000,  0.0000)
   9 Co     7.143497    1.798064    1.764939    ( 0.0000,  0.0000,  2.1000)
  10 Ni     8.891362   10.651627    1.788353    ( 0.0000,  0.0000,  1.5000)
  11 Co     8.888779    1.804777   10.642609    ( 0.0000,  0.0000,  2.0000)
  12 Fe     0.008694    3.581540   10.650250    ( 0.0000,  0.0000,  2.1000)
  13 Ni     0.018979    5.332745    1.789751    ( 0.0000,  0.0000,  2.1000)
  14 Cr     1.778129    3.600941    1.760019    ( 0.0000,  0.0000,  2.0000)
  15 Co     1.790423    5.343267   -0.017766    ( 0.0000,  0.0000,  2.0000)
  16 Cr     3.542802    3.589864   -0.015614    ( 0.0000,  0.0000,  2.0000)
  17 Co     3.526837    5.358538    1.765793    ( 0.0000,  0.0000,  2.0000)
  18 Fe     5.336650    3.606501    1.755815    ( 0.0000,  0.0000,  0.0000)
  19 Ni     5.300399    5.323642   -0.012797    ( 0.0000,  0.0000,  2.1000)
  20 Al     7.122858    3.584816   10.659524    ( 0.0000,  0.0000,  2.0000)
  21 Cr     7.120500    5.315168    1.805502    ( 0.0000,  0.0000,  1.5000)
  22 Ni     8.892034    3.590952    1.773146    ( 0.0000,  0.0000,  2.1000)
  23 Fe     8.925340    5.301487   -0.003100    ( 0.0000,  0.0000,  0.0000)
  24 Cr     0.023055    7.096680   -0.007939    ( 0.0000,  0.0000,  0.0000)
  25 Cr     0.019141    8.871245    1.787510    ( 0.0000,  0.0000,  1.5000)
  26 Co     1.784372    7.104567    1.776443    ( 0.0000,  0.0000,  2.0000)
  27 Co     1.779944    8.867628   10.659406    ( 0.0000,  0.0000,  1.5000)
  28 Ni     3.547785    7.097897    0.009215    ( 0.0000,  0.0000,  2.1000)
  29 Ni     3.541137    8.858109    1.788225    ( 0.0000,  0.0000,  2.1000)
  30 Cr     5.295105    7.099391    1.787894    ( 0.0000,  0.0000,  2.1000)
  31 Cr     5.303685    8.873828    0.029898    ( 0.0000,  0.0000,  0.0000)
  32 Ni     7.106883    7.088719   10.645159    ( 0.0000,  0.0000,  0.0000)
  33 Co     7.111055    8.901137    1.809472    ( 0.0000,  0.0000,  0.0000)
  34 Co     8.939384    7.093404    1.799238    ( 0.0000,  0.0000,  0.0000)
  35 Co     8.919972    8.915853   10.664881    ( 0.0000,  0.0000,  0.0000)
  36 Ni    10.679704   10.658873    3.584517    ( 0.0000,  0.0000,  2.0000)
  37 Fe    10.670921    1.796367    5.340289    ( 0.0000,  0.0000,  2.1000)
  38 Fe     1.770350   10.649001    5.343491    ( 0.0000,  0.0000,  0.0000)
  39 Co     1.791800    1.784671    3.584891    ( 0.0000,  0.0000,  2.0000)
  40 Cr     3.529718   10.626388    3.565234    ( 0.0000,  0.0000,  2.1000)
  41 Fe     3.535716    1.793465    5.367289    ( 0.0000,  0.0000,  1.5000)
  42 Co     5.311497    0.001574    5.366254    ( 0.0000,  0.0000,  1.5000)
  43 Al     5.332627    1.768055    3.580793    ( 0.0000,  0.0000,  0.0000)
  44 Cr     7.136966   10.673941    3.563804    ( 0.0000,  0.0000,  2.0000)
  45 Cr     7.136774    1.794126    5.358944    ( 0.0000,  0.0000,  2.1000)
  46 Co     8.925938   10.673621    5.347589    ( 0.0000,  0.0000,  2.0000)
  47 Fe     8.883827    1.779111    3.582404    ( 0.0000,  0.0000,  1.5000)
  48 Cr    -0.010038    3.572341    3.580996    ( 0.0000,  0.0000,  2.0000)
  49 Co    10.685573    5.328935    5.338550    ( 0.0000,  0.0000,  2.0000)
  50 Cr     1.784180    3.582949    5.348357    ( 0.0000,  0.0000,  1.5000)
  51 Fe     1.766326    5.339510    3.565255    ( 0.0000,  0.0000,  1.5000)
[...]
  58 Ni     8.888299    3.570665    5.342018    ( 0.0000,  0.0000,  1.5000)
  59 Fe     8.904573    5.339084    3.577453    ( 0.0000,  0.0000,  2.0000)
[...]
  93 Ni     7.108740    5.307762    8.854395    ( 0.0000,  0.0000,  1.5000)
  94 Al     8.907593    3.561296    8.890348    ( 0.0000,  0.0000,  2.1000)
  95 Fe     8.917806    5.336309    7.100224    ( 0.0000,  0.0000,  0.0000)
  96 Fe     0.016270    7.102027    7.111664    ( 0.0000,  0.0000,  2.0000)
  97 Fe     0.000822    8.895150    8.883817    ( 0.0000,  0.0000,  1.5000)
  98 Co     1.771182    7.105090    8.888608    ( 0.0000,  0.0000,  1.5000)
  99 Ni     1.775184    8.850318    7.108494    ( 0.0000,  0.0000,  2.0000)
 100 Co     3.530401    7.086478    7.104972    ( 0.0000,  0.0000,  1.5000)
 101 Fe     3.524841    8.851001    8.894798    ( 0.0000,  0.0000,  0.0000)
 102 Co     5.310654    7.102827    8.871128    ( 0.0000,  0.0000,  0.0000)
 103 Ni     5.290613    8.850286    7.104876    ( 0.0000,  0.0000,  0.0000)
 104 Co     7.129016    7.083330    7.142750    ( 0.0000,  0.0000,  2.1000)
 105 Al     7.143241    8.903186    8.854384    ( 0.0000,  0.0000,  2.0000)
 106 Cr     8.926504    7.115858    8.862313    ( 0.0000,  0.0000,  0.0000)
 107 Ni     8.932896    8.877648    7.127479    ( 0.0000,  0.0000,  1.5000)

Unit cell:
           periodic     x           y           z      points  spacing
  1. axis:    yes   10.671700    0.000000    0.000000    48     0.2223
  2. axis:    yes    0.000000   10.671700    0.000000    48     0.2223
  3. axis:    yes    0.000000    0.000000   10.671700    48     0.2223

  Lengths:  10.671700  10.671700  10.671700
  Angles:   90.000000  90.000000  90.000000

Effective grid spacing dv^(1/3) = 0.2223

     iter     time        total  log10-change:  magmom
                         energy  eigst   dens
iter:   1 17:28:09  -959.565428                  +143.1619
iter:   2 17:30:58  -949.977039  -0.45  -1.32    +106.6559
iter:   3 17:33:46  -904.099807  -0.86  -1.27    +77.2550
iter:   4 17:36:34  -876.129493  -1.34  -1.36    +65.8923
iter:   5 17:39:23  -874.918669  -1.90  -1.46    +58.9341
iter:   6 17:42:12  -876.753331  -1.92  -1.49    +55.1469
iter:   7 17:45:01  -871.561243  -1.67  -1.51    +53.1215
iter:   8 17:47:50  -870.464104  -1.69  -1.60    +52.3570
iter:   9 17:50:39  -879.533549  -1.74  -1.72    +51.8927
iter:  10 17:53:28  -867.743768  -1.99  -1.66    +50.6711
iter:  11 17:56:08  -868.817018  -2.42  -1.88    +50.5945
iter:  12 17:58:43  -867.643569  -2.58  -1.87    +50.9034
iter:  13 18:01:17  -868.362082  -2.74  -1.94    +51.3420
iter:  14 18:03:50  -868.290078  -2.66  -1.95    +51.9025
iter:  15 18:06:24  -870.140408  -2.57  -1.98    +52.3248
iter:  16 18:08:57  -870.723293  -2.38  -1.98    +52.5959
iter:  17 18:11:30  -870.853799  -2.51  -1.98    +52.6951
iter:  18 18:14:03  -869.664753  -2.54  -2.02    +53.0525
iter:  19 18:16:36  -869.496600  -2.73  -2.11    +53.4747
iter:  20 18:19:09  -868.549068  -3.01  -2.11    +53.7409
iter:  21 18:21:42  -868.567078  -3.52  -2.25    +54.3921
iter:  22 18:24:15  -868.913599  -3.31  -2.31    +55.1290
iter:  23 18:27:26  -868.850534  -3.61  -2.26    +55.4851
iter:  24 18:30:18  -869.199872  -3.31  -2.33    +56.1570
iter:  25 18:32:51  -869.739712  -3.08  -2.32    +56.5628
iter:  26 18:35:24  -869.709744  -2.96  -2.27    +57.1077
iter:  27 18:37:57  -869.525571  -3.21  -2.32    +57.3010
iter:  28 18:40:31  -869.666861  -3.18  -2.38    +57.6799
iter:  29 18:43:04  -869.534271  -3.40  -2.42    +58.0815
iter:  30 18:45:36  -869.462532  -3.86  -2.47    +58.4891
iter:  31 18:48:09  -869.549935c -4.08  -2.55    +59.0027
iter:  32 18:50:43  -869.766176  -3.59  -2.57    +60.0253
iter:  33 18:53:15  -869.852347  -3.70  -2.56    +60.6193
iter:  34 18:56:07  -869.901111  -3.77  -2.61    +60.7715
iter:  35 18:59:15  -870.009877  -3.71  -2.72    +61.1214
iter:  36 19:01:49  -869.940075  -3.87  -2.67    +61.1638
iter:  37 19:04:22  -869.966137c -4.28  -2.93    +61.4467
iter:  38 19:06:55  -869.994044c -4.39  -3.04    +61.6496
iter:  39 19:09:28  -870.007848c -4.63  -3.04    +61.7998
iter:  40 19:12:02  -870.031838c -4.55  -3.09    +62.0939
iter:  41 19:14:34  -870.057774c -4.45  -3.09    +62.3767
iter:  42 19:17:07  -870.080999c -4.53  -3.08    +62.5999
iter:  43 19:20:05  -870.113270c -4.28  -3.04    +62.9759
iter:  44 19:23:11  -870.137625c -4.39  -2.99    +63.2431
iter:  45 19:25:44  -870.131030c -4.96  -2.92    +63.2164
iter:  46 19:28:18  -870.142250c -4.54  -2.95    +63.3453
iter:  47 19:30:50  -870.136086c -4.59  -2.92    +63.3804
iter:  48 19:33:23  -870.153375c -4.28  -2.97    +63.4376
iter:  49 19:35:56  -870.119572c -4.63  -2.92    +63.3689
iter:  50 19:38:28  -870.153924c -4.32  -3.12    +63.3531
iter:  51 19:41:31  -870.117941c -4.75  -2.98    +63.3658
iter:  52 19:44:31  -870.120091c -5.17  -3.21    +63.4004
iter:  53 19:47:04  -870.120858c -5.24  -3.22    +63.3828
iter:  54 19:49:37  -870.121622c -5.33  -3.29    +63.3703
iter:  55 19:52:10  -870.125587c -5.38  -3.34    +63.3679
iter:  56 19:54:44  -870.125681c -5.39  -3.35    +63.3530
iter:  57 19:57:16  -870.127197c -5.50  -3.37    +63.3431
iter:  58 19:59:48  -870.127188c -5.61  -3.42    +63.3412
iter:  59 20:02:22  -870.127715c -5.67  -3.46    +63.3299
iter:  60 20:04:54  -870.129812c -5.70  -3.53    +63.3243
iter:  61 20:07:27  -870.128846c -6.00  -3.52    +63.3228
iter:  62 20:10:00  -870.130609c -5.76  -3.59    +63.3218
iter:  63 20:12:45  -870.131065c -5.82  -3.60    +63.3223
iter:  64 20:16:02  -870.131298c -5.89  -3.62    +63.3187
iter:  65 20:18:35  -870.132293c -5.86  -3.69    +63.3243
iter:  66 20:21:09  -870.133774c -5.93  -3.73    +63.3297
iter:  67 20:23:42  -870.133463c -5.89  -3.74    +63.3295
iter:  68 20:26:14  -870.134488c -6.02  -3.73    +63.3361
iter:  69 20:28:47  -870.134778c -6.13  -3.81    +63.3483
iter:  70 20:31:19  -870.135574c -6.14  -3.88    +63.3519
iter:  71 20:33:52  -870.136135c -6.25  -3.95    +63.3630
iter:  72 20:36:25  -870.137599c -6.08  -3.96    +63.3799
iter:  73 20:38:58  -870.137413c -6.54  -3.98    +63.3817
iter:  74 20:41:32  -870.138608c -6.16  -4.03c   +63.3966
iter:  75 20:45:00  -870.138704c -6.70  -4.05c   +63.4000
iter:  76 20:47:32  -870.139666c -6.26  -4.08c   +63.4057
iter:  77 20:50:05  -870.140170c -6.45  -4.12c   +63.4187
iter:  78 20:52:39  -870.141492c -6.03  -4.13c   +63.4428
iter:  79 20:55:12  -870.142565c -6.05  -4.15c   +63.4643
iter:  80 20:57:45  -870.148771c -4.79  -4.13c   +63.5835
iter:  81 21:00:18  -870.152066c -5.01  -3.88    +63.6526
iter:  82 21:02:50  -870.159154c -4.41  -3.80    +63.8318
iter:  83 21:05:22  -870.162825c -4.65  -3.60    +63.9312
iter:  84 21:07:55  -870.163623c -5.21  -3.50    +63.9569
iter:  85 21:10:28  -870.165979c -5.24  -3.48    +64.0025
iter:  86 21:13:00  -870.165717c -5.90  -3.43    +63.9882
iter:  87 21:15:32  -870.166339c -5.62  -3.43    +64.0144
iter:  88 21:18:06  -870.164862c -5.18  -3.41    +64.0141
iter:  89 21:20:38  -870.159212c -5.46  -3.33    +64.0212
iter:  90 21:23:39  -870.168748c -4.74  -3.42    +64.0018
iter:  91 21:26:42  -870.156994c -5.25  -3.23    +63.9781
iter:  92 21:29:16  -870.156655c -5.77  -3.50    +63.9344
iter:  93 21:31:48  -870.157735c -5.78  -3.57    +63.8962
iter:  94 21:34:21  -870.157373c -5.75  -3.58    +63.8616
iter:  95 21:36:54  -870.156997c -5.88  -3.55    +63.8507
iter:  96 21:39:28  -870.157527c -5.66  -3.64    +63.8297
iter:  97 21:42:00  -870.158121c -5.64  -3.60    +63.8284
iter:  98 21:44:32  -870.158190c -5.72  -3.62    +63.8031
iter:  99 21:47:06  -870.156657c -5.81  -3.65    +63.7916
iter: 100 21:50:26  -870.157218c -5.98  -3.71    +63.7899
iter: 101 21:53:09  -870.156648c -6.05  -3.76    +63.7776
iter: 102 21:55:42  -870.156706c -6.52  -3.82    +63.7696
iter: 103 21:58:16  -870.156622c -6.35  -3.89    +63.7536
iter: 104 22:00:48  -870.156559c -6.41  -3.86    +63.7538
iter: 105 22:03:21  -870.157436c -6.23  -3.89    +63.7460
iter: 106 22:05:54  -870.156558c -6.42  -3.86    +63.7353
iter: 107 22:08:26  -870.156916c -6.35  -3.97    +63.7299
iter: 108 22:11:04  -870.156631c -6.57  -3.90    +63.7270
iter: 109 22:14:29  -870.156697c -6.70  -3.97    +63.7248
iter: 110 22:17:02  -870.156711c -6.91  -4.04c   +63.7165
iter: 111 22:19:34  -870.156519c -6.91  -4.05c   +63.7119
iter: 112 22:22:08  -870.156792c -7.00  -4.07c   +63.7098
iter: 113 22:24:41  -870.156766c -6.79  -4.07c   +63.7045
iter: 114 22:27:13  -870.156820c -6.76  -4.06c   +63.7018
iter: 115 22:29:46  -870.156810c -6.67  -4.07c   +63.6961
iter: 116 22:32:33  -870.156731c -6.52  -4.06c   +63.6990
iter: 117 22:35:50  -870.157046c -6.67  -4.04c   +63.6966
iter: 118 22:38:23  -870.156606c -6.55  -4.13c   +63.6892
iter: 119 22:40:56  -870.156653c -6.93  -4.12c   +63.6876
iter: 120 22:43:29  -870.156655c -6.86  -4.21c   +63.6858
iter: 121 22:46:02  -870.156668c -7.22  -4.22c   +63.6829
iter: 122 22:48:35  -870.156736c -7.16  -4.31c   +63.6771
iter: 123 22:51:08  -870.156651c -7.34  -4.29c   +63.6746
iter: 124 22:53:41  -870.156990c -6.92  -4.36c   +63.6718
iter: 125 22:56:14  -870.156833c -7.19  -4.24c   +63.6700
iter: 126 22:59:45  -870.156896c -6.84  -4.38c   +63.6657
iter: 127 23:02:20  -870.156794c -7.11  -4.24c   +63.6648
iter: 128 23:04:52  -870.156784c -6.89  -4.43c   +63.6656
iter: 129 23:07:26  -870.156901c -7.24  -4.31c   +63.6641
iter: 130 23:09:59  -870.156793c -7.24  -4.56c   +63.6597
iter: 131 23:12:32  -870.156837c -7.76c -4.47c   +63.6590

Converged after 131 iterations.

Dipole moment: (-10.547958, 8.497859, 8.576508) |e|*Ang

Total magnetic moment: (0.000000, 0.000000, 63.659048)
Local magnetic moments:
   0 Cr ( 0.000000,  0.000000, -0.527846)
   1 Cr ( 0.000000,  0.000000,  1.146960)
   2 Fe ( 0.000000,  0.000000, -1.824676)
   3 Ni ( 0.000000,  0.000000,  0.085518)
   4 Fe ( 0.000000,  0.000000,  2.217293)
   5 Co ( 0.000000,  0.000000,  0.996069)
   6 Co ( 0.000000,  0.000000,  0.795463)
   7 Ni ( 0.000000,  0.000000,  0.260923)
   8 Ni ( 0.000000,  0.000000,  0.380391)
   9 Co ( 0.000000,  0.000000,  1.061070)
  10 Ni ( 0.000000,  0.000000,  0.217513)
  11 Co ( 0.000000,  0.000000,  0.838084)
  12 Fe ( 0.000000,  0.000000,  1.704317)
  13 Ni ( 0.000000,  0.000000,  0.311685)
  14 Cr ( 0.000000,  0.000000, -0.561235)
  15 Co ( 0.000000,  0.000000,  1.140655)
  16 Cr ( 0.000000,  0.000000, -1.255850)
  17 Co ( 0.000000,  0.000000,  0.810196)
  18 Fe ( 0.000000,  0.000000,  2.046394)
  19 Ni ( 0.000000,  0.000000,  0.161984)
  20 Al ( 0.000000,  0.000000, -0.026917)
  21 Cr ( 0.000000,  0.000000, -1.264622)
  22 Ni ( 0.000000,  0.000000,  0.055945)
  23 Fe ( 0.000000,  0.000000,  1.892222)
  24 Cr ( 0.000000,  0.000000, -1.313057)
  25 Cr ( 0.000000,  0.000000,  0.296135)
  26 Co ( 0.000000,  0.000000,  1.110998)
  27 Co ( 0.000000,  0.000000,  0.725551)
  28 Ni ( 0.000000,  0.000000,  0.313623)
  29 Ni ( 0.000000,  0.000000,  0.085514)
  30 Cr ( 0.000000,  0.000000,  0.996710)
  31 Cr ( 0.000000,  0.000000, -1.802556)
  32 Ni ( 0.000000,  0.000000,  0.224527)
  33 Co ( 0.000000,  0.000000,  1.043331)
  34 Co ( 0.000000,  0.000000,  0.980902)
  35 Co ( 0.000000,  0.000000,  0.811044)
  36 Ni ( 0.000000,  0.000000,  0.229006)
  37 Fe ( 0.000000,  0.000000,  1.929500)
  38 Fe ( 0.000000,  0.000000,  2.019606)
  39 Co ( 0.000000,  0.000000,  0.873373)
  40 Cr ( 0.000000,  0.000000,  1.001454)
  41 Fe ( 0.000000,  0.000000,  2.002452)
  42 Co ( 0.000000,  0.000000,  0.835090)
  43 Al ( 0.000000,  0.000000, -0.022974)
  44 Cr ( 0.000000,  0.000000, -1.702876)
  45 Cr ( 0.000000,  0.000000,  0.950003)
  46 Co ( 0.000000,  0.000000,  1.236988)
  47 Fe ( 0.000000,  0.000000,  1.835336)
  48 Cr ( 0.000000,  0.000000, -1.311826)
  49 Co ( 0.000000,  0.000000,  1.113367)
  50 Cr ( 0.000000,  0.000000, -1.603829)
  51 Fe ( 0.000000,  0.000000,  1.985681)
  52 Ni ( 0.000000,  0.000000,  0.151175)
  53 Al ( 0.000000,  0.000000, -0.034892)
  54 Co ( 0.000000,  0.000000,  0.381373)
  55 Cr ( 0.000000,  0.000000,  0.375057)
  56 Cr ( 0.000000,  0.000000, -1.060613)
  57 Cr ( 0.000000,  0.000000, -1.290952)
  58 Ni ( 0.000000,  0.000000,  0.142794)
  59 Fe ( 0.000000,  0.000000,  2.003021)
[...]
  93 Ni ( 0.000000,  0.000000,  0.245069)
  94 Al ( 0.000000,  0.000000, -0.032279)
  95 Fe ( 0.000000,  0.000000,  2.038981)
  96 Fe ( 0.000000,  0.000000,  2.288289)
  97 Fe ( 0.000000,  0.000000,  1.890856)
  98 Co ( 0.000000,  0.000000,  1.380266)
  99 Ni ( 0.000000,  0.000000,  0.519475)
 100 Co ( 0.000000,  0.000000,  1.514903)
 101 Fe ( 0.000000,  0.000000,  2.383597)
 102 Co ( 0.000000,  0.000000,  1.413614)
 103 Ni ( 0.000000,  0.000000,  0.506240)
 104 Co ( 0.000000,  0.000000,  1.192432)
 105 Al ( 0.000000,  0.000000, -0.021790)
 106 Cr ( 0.000000,  0.000000, -1.775302)
 107 Ni ( 0.000000,  0.000000,  0.318519)

Energy contributions relative to reference atoms: (reference = -3699400.456887)

Kinetic:       +136.229892
Potential:     -188.548517
External:        +0.000000
XC:            -853.369556
Entropy (-ST):   -4.605316
Local:          +37.834002
Free energy:   -872.459495
Extrapolated:  -870.156837

Spin contamination: 26.953610 electrons
Showing only first 2 kpts
                      Up                     Down
 Kpt  Band  Eigenvalues  Occupancy  Eigenvalues  Occupancy
  0   508      9.64624    0.99266     10.50975    0.02349
  0   509      9.65988    0.99160     10.52104    0.02103
  0   510      9.66947    0.99076     10.54107    0.01728
  0   511      9.68868    0.98883     10.55416    0.01519

  1   508      9.64125    0.99302     10.51697    0.02189
  1   509      9.65033    0.99236     10.52782    0.01968
  1   510      9.67102    0.99062     10.54266    0.01701
  1   511      9.67849    0.98990     10.54729    0.01626

Fermi level: 10.13701

No gap

Forces in eV/Ang:
  0 Cr   -0.27886   -0.17290    0.18597
  1 Cr    0.13470   -0.37498   -0.06235
  2 Fe   -0.38820    0.53794   -0.25221
  3 Ni   -0.07022   -0.03863    0.26071
  4 Fe    0.23107    0.31157    0.05800
  5 Co    0.08082    0.09986    0.07351
  6 Co    0.17692    0.11976    0.00110
  7 Ni   -0.27924   -0.56360    0.17216
  8 Ni   -0.27126   -0.19016   -0.04378
  9 Co   -0.20185   -0.19869    0.38946
 10 Ni    0.24146    0.30636   -0.16573
 11 Co    0.47186   -0.45455    0.60104
 12 Fe    0.30548   -0.13363    0.46255
 13 Ni   -0.04763    0.15089   -0.23388
 14 Cr    0.15589   -0.49029    0.09711
 15 Co   -0.18355   -0.07240    0.02093
 16 Cr   -0.01749   -0.12022    0.11636
 17 Co    0.12950   -0.24541    0.08236
 18 Fe   -0.41470   -0.22227    0.19544
 19 Ni    0.17522    0.33382    0.02801
 20 Al   -0.94733   -0.54262   -0.05436
 21 Cr   -0.10052    1.22612    0.21458
 22 Ni    0.27038   -0.36654    0.23571
 23 Fe    0.12386    1.00695    0.29870
 24 Cr    0.13616    0.15143    0.39586
 25 Cr   -0.07676    0.50772   -0.56490
 26 Co   -0.08954   -0.14047   -0.15317
 27 Co   -0.23527    0.11803    0.13782
 28 Ni   -0.06152   -0.08037   -0.21921
 29 Ni    0.03521    0.11747   -0.24895
 30 Cr    0.19305   -0.15292   -0.38060
 31 Cr   -0.01413    0.28957    0.41063
 32 Ni    0.30708    0.05760    0.32576
 33 Co    0.04010   -0.30233   -0.42486
 34 Co   -0.42075    0.22128   -0.31800
 35 Co    0.05081   -0.40491    0.42011
 36 Ni    0.04562    0.16103   -0.20948
 37 Fe    0.11600   -0.05524    0.10926
 38 Fe   -0.38489   -0.05261    0.17051
 39 Co    0.27429    0.06221   -0.20959
 40 Cr   -0.29087   -0.23509   -0.32172
 41 Fe   -0.11291    0.06315    0.27480
 42 Co    0.17250   -0.30544   -0.09327
 43 Al   -0.83699    0.48550   -0.54682
 44 Cr    0.57592   -0.39361   -0.10905
 45 Cr    0.00914    0.16987    0.26527
 46 Co   -0.01717   -0.05624    0.10896
 47 Fe   -0.20853    0.03817   -0.25620
 48 Cr   -0.34520   -0.18112   -0.40803
 49 Co   -0.07668   -0.01973    0.04281
 50 Cr   -0.59627   -0.67669    0.04395
 51 Fe   -0.11339   -0.08883   -0.22620
 52 Ni    0.14987   -0.34865   -0.39254
 53 Al    0.30040    0.24993    0.05409
 54 Co    0.30819   -0.27040   -0.03062
 55 Cr    0.23599   -0.30356   -0.40187
 56 Cr    0.59364   -0.02971    0.00067
 57 Cr    0.16141    0.23868    0.14238
 58 Ni    0.16867    0.05446   -0.00834
 59 Fe   -0.13633   -0.15769   -0.05131
[...]
 93 Ni    0.17090    0.35288    0.28073
 94 Al    0.22140    0.45050   -0.09697
 95 Fe   -0.21436    0.16720   -0.31823
 96 Fe   -0.11316    0.25651   -0.13965
 97 Fe    0.22577    0.04632    0.33963
 98 Co    0.05119   -0.05815    0.10240
 99 Ni   -0.09447    0.20973   -0.04419
100 Co    0.09847    0.48385    0.36316
101 Fe    0.23889    0.05067   -0.24241
102 Co    0.07590   -0.14538    0.14278
103 Ni    0.17536    0.29346   -0.04281
104 Co   -0.19232   -0.11731   -0.37241
105 Al   -0.59498    0.30625   -0.00765
106 Cr    0.23333   -0.91863    0.05804
107 Ni   -0.19893    0.22577   -0.33984

Date: Sat Apr 15 23:12:56 2023