User:   c.zeng@d0136
Date:   Sat Apr  8 12:35:44 2023
Arch:   x86_64
Pid:    65802
CWD:    /home/c.zeng/projects/hea-corrosion/hea-mlp/data-curation/volume/dft-jobs/69
Python: 3.8.1
gpaw:   /home/c.zeng/usr/installs/gpaw/source/gpaw-22.8.0/gpaw
_gpaw:  /home/c.zeng/usr/installs/gpaw/source/gpaw-22.8.0/
        _gpaw.cpython-38-x86_64-linux-gnu.so
ase:    /home/c.zeng/.local/lib/python3.8/site-packages/ase-3.22.1-py3.8.egg/ase (version 3.22.1)
numpy:  /shared/centos7/python/3.8.1/lib/python3.8/site-packages/numpy (version 1.17.4)
scipy:  /shared/centos7/python/3.8.1/lib/python3.8/site-packages/scipy (version 1.4.1)
units:  Angstrom and eV
cores: 64
OpenMP: False
OMP_NUM_THREADS: 1

Input parameters:
  convergence: {energy: 0.0001}
  kpts: [2 2 2]
  maxiter: 666
  mode: {ecut: 350.0,
         name: pw}
  occupations: {fixmagmom: False,
                name: fermi-dirac,
                width: 0.1}
  spinpol: True
  xc: PBE

System changes: positions, numbers, cell, pbc, initial_charges, initial_magmoms

Initialize ...

species:
  Co:
    name: Cobalt
    id: 339d20d5b0b93d2de9531a1bee871d91
    Z: 27.0
    valence: 9
    core: 18
    charge: 0.0
    file: /home/c.zeng/usr/data/gpaw-setups-0.9.20000/Co.PBE.gz
    compensation charges: {type: gauss,
                           rc: 0.32,
                           lmax: 2}
    cutoffs: {filter: 1.87,
              core: 2.55}
    valence states:
      #              energy  rcut
      - 4s(2.00)    -5.469   1.005
      - 4p(0.00)    -1.277   1.058
      - 3d(7.00)    -8.205   1.005
      -  s          21.742   1.005
      -  p          25.934   1.058
      -  d          19.007   1.005

    # Using partial waves for Co as LCAO basis

  Ni:
    name: Nickel
    id: 0d9f38a9d6e76a2886f07bb4381f212b
    Z: 28.0
    valence: 16
    core: 12
    charge: 0.0
    file: /home/c.zeng/usr/data/gpaw-setups-0.9.20000/Ni.PBE.gz
    compensation charges: {type: gauss,
                           rc: 0.36,
                           lmax: 2}
    cutoffs: {filter: 2.14,
              core: 1.98}
    valence states:
      #              energy  rcut
      - 4s(2.00)    -5.642   1.164
      - 3p(6.00)   -71.394   1.207
      - 4p(0.00)    -1.226   1.207
      - 3d(8.00)    -8.875   1.138
      -  s          21.570   1.164
      -  d          18.337   1.138

[...]

  Al:
    name: Aluminium
    id: 0292cae29f5d6237e50f6abdd43a7bdd
    Z: 13.0
    valence: 3
    core: 10
    charge: 0.0
    file: /home/c.zeng/usr/data/gpaw-setups-0.9.20000/Al.PBE.gz
    compensation charges: {type: gauss,
                           rc: 0.34,
                           lmax: 2}
    cutoffs: {filter: 1.91,
              core: 2.36}
    valence states:
      #              energy  rcut
      - 3s(2.00)    -7.753   1.085
      - 3p(1.00)    -2.712   1.085
      -  s          19.459   1.085
      -  p          24.499   1.085
      -  d           0.000   1.085

[...]

  Cr:
    name: Chromium
    id: 33f258bda2ca9f93018e70263a35547b
    Z: 24.0
    valence: 6
    core: 18
    charge: 0.0
    file: /home/c.zeng/usr/data/gpaw-setups-0.9.20000/Cr.PBE.gz
    compensation charges: {type: gauss,
                           rc: 0.35,
                           lmax: 2}
    cutoffs: {filter: 2.14,
              core: 3.04}
    valence states:
      #              energy  rcut
      - 4s(1.00)    -4.007   1.164
      - 4p(0.00)    -0.989   1.217
      - 3d(5.00)    -2.913   1.111
      -  s          23.205   1.164
      -  p          26.223   1.217
      -  d          24.299   1.111

[...]

  Fe:
    name: Iron
    id: 37abbd8d6c3c35915a9b583b742da910
    Z: 26.0
    valence: 8
    core: 18
    charge: 0.0
    file: /home/c.zeng/usr/data/gpaw-setups-0.9.20000/Fe.PBE.gz
    compensation charges: {type: gauss,
                           rc: 0.33,
                           lmax: 2}
    cutoffs: {filter: 2.06,
              core: 2.67}
    valence states:
      #              energy  rcut
      - 4s(2.00)    -5.291   1.164
      - 4p(0.00)    -1.326   1.058
      - 3d(6.00)    -7.505   1.058
      -  s          21.920   1.164
      -  p          25.885   1.058
      -  d          19.706   1.058

    # Using partial waves for Fe as LCAO basis

Reference energy: -3548577.034362  # eV

Spin-polarized calculation.
Magnetic moment: 136.400000

Convergence criteria:
 Maximum [total energy] change in last 3 cyles: 0.0001 eV / electron
 Maximum integral of absolute [dens]ity change: 0.0001 electrons / valence electron
 Maximum integral of absolute [eigenst]ate change: 4e-08 eV^2 / valence electron
 Maximum number of scf [iter]ations: 666
 (Square brackets indicate name in SCF output, whereas a 'c' in
 the SCF output indicates the quantity has converged.)

Symmetries present (total): 1

  ( 1  0  0)
  ( 0  1  0)
  ( 0  0  1)

8 k-points: 2 x 2 x 2 Monkhorst-Pack grid
4 k-points in the irreducible part of the Brillouin zone
       k-points in crystal coordinates                weights
   0:     0.25000000   -0.25000000   -0.25000000          2/8
   1:     0.25000000   -0.25000000    0.25000000          2/8
   2:     0.25000000    0.25000000   -0.25000000          2/8
   3:     0.25000000    0.25000000    0.25000000          2/8

Wave functions: Plane wave expansion
  Cutoff energy: 350.000 eV
  Number of coefficients (min, max): 22145, 22145
  Pulay-stress correction: 0.000000 eV/Ang^3 (de/decut=0.000000)
  Using FFTW library
  ScaLapack parameters: grid=1x1, blocksize=None
  Wavefunction extrapolation:
    Improved wavefunction reuse through dual PAW basis

Occupation numbers: Fermi-Dirac:
  width: 0.1000  # eV

Eigensolver
   Davidson(niter=2)

Densities:
  Coarse grid: 50*50*50 grid
  Fine grid: 100*100*100 grid
  Total Charge: 0.000000

Density mixing:
  Method: difference
  Backend: pulay
  Linear mixing parameter: 0.05
  old densities: 5
  Damping of long wavelength oscillations: 50

Hamiltonian:
  XC and Coulomb potentials evaluated on a 100*100*100 grid
  Using the PBE Exchange-Correlation functional
  External potential:
    NoExternalPotential

XC parameters: PBE with 2 nearest neighbor stencil

Total number of cores used: 64
Parallelization over k-points: 4
Domain decomposition: 4 x 2 x 2

Number of atoms: 108
Number of atomic orbitals: 994
Number of bands in calculation: 674
Number of valence electrons: 980
Bands to converge: occupied

... initialized

Initializing position-dependent things.

Density initialized from atomic densities
Creating initial wave functions:
  674 bands from LCAO basis set

       /|   Cr       Fe             |
      / |      Fe       Fe     Al   |
     /  |          Co               |
    /  NiAl     Ni       Ni         |
   /    | Ni Cr     Fe       Fe     |
  /  CoCr   CoFe     CoNi     Fe    |
 *      NiCr   CoAl     Co Cr  Al Co|
 |Co    |FeFe   Co CoCr  Cr Cr     Ni
 | Cr Co| Cr CoFe   CoFe     Fe     |
 |      |   NiNi       Co           |
 |   FeFe       Cr   Cr  Ni   Ni    |
 Al     FeFe   CoCo Ni  Cr Cr     Ni|
 |Ni    |NiNi   Ni CrCo   CrFe     Al
 | Cr Co.-Ni-NiCo---CoCr-----Fe-----.
 |     Ni     CrNi     CrNi   CrFe /
 Ni   / AlCo     Al Cr     Cr     Fe
 |   /                      CrNi /
 |  /       Fe       Fe         /
 | /  Al       Fe     CoFe     /o
 |/             Fe       Al   /
 Co-----------------Cr-------*

Positions:
   0 Co    11.421000    0.000006   11.421000    ( 0.0000,  0.0000,  2.1000)
   1 Ni    11.420977    1.903492    1.903504    ( 0.0000,  0.0000,  1.5000)
   2 Al     1.903538    0.000046    1.903527    ( 0.0000,  0.0000,  0.0000)
   3 Cr     1.903515    1.903492   11.420966    ( 0.0000,  0.0000,  0.0000)
   4 Cr     3.807053    0.000016   11.420989    ( 0.0000,  0.0000,  0.0000)
   5 Fe     3.807030    1.903481    1.903504    ( 0.0000,  0.0000,  2.0000)
   6 Fe     5.710489    0.000024    1.903492    ( 0.0000,  0.0000,  2.0000)
   7 Fe     5.710500    1.903481    0.000013    ( 0.0000,  0.0000,  2.0000)
   8 Cr     7.613947    0.000005    0.000032    ( 0.0000,  0.0000,  0.0000)
   9 Fe     7.613992    1.903481    1.903504    ( 0.0000,  0.0000,  2.0000)
  10 Fe     9.517496    0.000008    1.903515    ( 0.0000,  0.0000,  2.0000)
  11 Al     9.517496    1.903515    0.000073    ( 0.0000,  0.0000,  0.0000)
  12 Co    11.420989    3.807008   11.421000    ( 0.0000,  0.0000,  2.1000)
  13 Fe    11.420989    5.710523    1.903515    ( 0.0000,  0.0000,  2.0000)
  14 Al     1.903481    3.806962    1.903561    ( 0.0000,  0.0000,  0.0000)
  15 Al     1.903481    5.710557   11.420954    ( 0.0000,  0.0000,  0.0000)
  16 Cr     3.807019    3.806973   11.420977    ( 0.0000,  0.0000,  0.0000)
  17 Cr     3.807008    5.710546    1.903504    ( 0.0000,  0.0000,  0.0000)
  18 Al     5.710511    3.806939    1.903481    ( 0.0000,  0.0000,  0.0000)
  19 Co     5.710500    5.710546   11.420977    ( 0.0000,  0.0000,  2.1000)
  20 Co     7.613992    3.806996    0.000004    ( 0.0000,  0.0000,  2.1000)
  21 Cr     7.614027    5.710523    1.903492    ( 0.0000,  0.0000,  0.0000)
  22 Cr     9.517508    3.807008    1.903515    ( 0.0000,  0.0000,  0.0000)
  23 Cr     9.517519    5.710546    0.000014    ( 0.0000,  0.0000,  0.0000)
  24 Fe    11.420989    7.613992    0.000001    ( 0.0000,  0.0000,  2.0000)
  25 Al    11.420931    9.517451    1.903492    ( 0.0000,  0.0000,  0.0000)
  26 Ni     1.903492    7.613992    1.903504    ( 0.0000,  0.0000,  1.5000)
  27 Cr     1.903515    9.517473   11.420977    ( 0.0000,  0.0000,  0.0000)
  28 Fe     3.807019    7.614004   11.420989    ( 0.0000,  0.0000,  2.0000)
  29 Ni     3.807030    9.517485    1.903504    ( 0.0000,  0.0000,  1.5000)
  30 Co     5.710500    7.614015    1.903470    ( 0.0000,  0.0000,  2.1000)
  31 Fe     5.710500    9.517485   11.420989    ( 0.0000,  0.0000,  2.0000)
  32 Fe     7.613992    7.614004   11.420989    ( 0.0000,  0.0000,  2.0000)
  33 Cr     7.614004    9.517496    1.903481    ( 0.0000,  0.0000,  0.0000)
  34 Fe     9.517508    7.613992    1.903504    ( 0.0000,  0.0000,  2.0000)
  35 Cr     9.517496    9.517462    0.000005    ( 0.0000,  0.0000,  0.0000)
  36 Ni    11.421000    0.000011    3.806996    ( 0.0000,  0.0000,  1.5000)
  37 Ni     0.000026    1.903527    5.710500    ( 0.0000,  0.0000,  1.5000)
  38 Co     1.903515    0.000010    5.710500    ( 0.0000,  0.0000,  2.1000)
  39 Ni     1.903515    1.903504    3.807030    ( 0.0000,  0.0000,  1.5000)
  40 Co     3.807008    0.000006    3.807008    ( 0.0000,  0.0000,  2.1000)
  41 Ni     3.806985    1.903504    5.710511    ( 0.0000,  0.0000,  1.5000)
  42 Co     5.710489    0.000002    5.710511    ( 0.0000,  0.0000,  2.1000)
  43 Ni     5.710489    1.903481    3.806985    ( 0.0000,  0.0000,  1.5000)
  44 Cr     7.613992    0.000031    3.806962    ( 0.0000,  0.0000,  0.0000)
  45 Co     7.613992    1.903515    5.710500    ( 0.0000,  0.0000,  2.1000)
  46 Al     9.517473   11.420989    5.710454    ( 0.0000,  0.0000,  0.0000)
  47 Ni     9.517496    1.903492    3.806973    ( 0.0000,  0.0000,  1.5000)
  48 Cr    11.421000    3.807030    3.807019    ( 0.0000,  0.0000,  0.0000)
  49 Fe     0.000004    5.710500    5.710489    ( 0.0000,  0.0000,  2.0000)
  50 Fe     1.903504    3.807008    5.710500    ( 0.0000,  0.0000,  2.0000)
[...]
iter:  61 14:09:33  -834.159379  -3.39  -3.40    +81.9791
iter:  62 14:11:04  -834.144144  -3.94  -3.06    +81.5443
iter:  63 14:12:35  -834.155024c -4.45  -2.99    +81.5251
iter:  64 14:14:06  -834.170060c -4.87  -2.96    +81.6820
iter:  65 14:15:38  -834.128954c -4.36  -2.97    +81.2770
iter:  66 14:17:08  -834.123144c -4.48  -2.96    +81.4656
iter:  67 14:18:38  -834.124713c -4.49  -2.90    +81.3811
iter:  68 14:20:09  -834.280821  -3.52  -2.90    +81.7453
iter:  69 14:21:36  -834.108926  -3.92  -2.67    +81.6914
iter:  70 14:22:50  -834.121145  -4.44  -3.06    +81.8663
iter:  71 14:24:14  -834.141360c -4.64  -3.20    +82.1262
iter:  72 14:25:47  -834.154212c -4.61  -3.28    +82.3611
iter:  73 14:27:23  -834.174430c -4.66  -3.29    +82.5958
iter:  74 14:29:02  -834.194154c -4.67  -3.39    +82.8498
iter:  75 14:30:38  -834.203100c -5.05  -3.40    +82.9313
iter:  76 14:32:10  -834.223607c -4.92  -3.41    +83.0795
iter:  77 14:33:40  -834.232243c -5.36  -3.41    +83.1467
iter:  78 14:35:16  -834.196902c -4.66  -3.38    +82.7536
iter:  79 14:36:48  -834.172318c -4.40  -3.40    +82.3805
iter:  80 14:38:21  -834.189204c -5.02  -3.38    +82.6126
iter:  81 14:39:55  -834.181694c -5.40  -3.45    +82.5532
iter:  82 14:41:27  -834.212105c -4.68  -3.43    +82.8006
iter:  83 14:43:03  -834.219045c -5.22  -3.39    +82.8473
iter:  84 14:44:34  -834.236877c -4.88  -3.44    +83.0104
iter:  85 14:46:09  -834.273922c -4.48  -3.42    +83.2410
iter:  86 14:47:40  -834.295692c -4.75  -3.31    +83.4151
iter:  87 14:49:13  -834.374198  -3.48  -3.24    +84.5574
iter:  88 14:50:45  -834.372879c -4.76  -2.95    +84.3960
iter:  89 14:52:17  -834.384280c -4.68  -2.97    +84.5709
iter:  90 14:53:52  -834.366501c -5.15  -2.94    +84.5689
iter:  91 14:55:24  -834.369623c -4.67  -3.01    +84.7155
iter:  92 14:57:03  -834.400858c -3.74  -2.95    +84.7204
iter:  93 14:58:34  -834.340039c -3.98  -2.77    +84.7252
iter:  94 15:00:11  -834.342062c -4.64  -3.05    +84.7628
iter:  95 15:01:41  -834.359266c -4.52  -3.23    +84.8016
iter:  96 15:03:15  -834.351753c -4.93  -3.08    +84.7691
iter:  97 15:04:50  -834.359004c -4.75  -3.24    +84.8552
iter:  98 15:06:22  -834.353987c -5.15  -3.31    +84.8191
iter:  99 15:07:54  -834.374639c -4.70  -3.38    +84.9119
iter: 100 15:09:26  -834.341757c -4.65  -3.45    +84.7096
iter: 101 15:11:03  -834.321281c -4.32  -3.45    +84.2753
iter: 102 15:12:34  -834.317112c -4.98  -3.35    +84.1054
iter: 103 15:14:08  -834.319301c -5.40  -3.50    +84.1500
iter: 104 15:15:40  -834.316416c -5.50  -3.70    +84.0686
iter: 105 15:17:14  -834.314066c -5.60  -3.58    +84.0894
iter: 106 15:18:49  -834.319521c -5.44  -3.70    +84.1424
iter: 107 15:20:21  -834.309486c -5.06  -3.81    +83.9682
iter: 108 15:21:54  -834.307033c -4.96  -3.68    +83.7339
iter: 109 15:23:27  -834.306046c -5.37  -3.64    +83.6192
iter: 110 15:25:01  -834.305503c -4.88  -3.65    +83.4274
iter: 111 15:26:41  -834.306182c -5.43  -3.44    +83.4298
iter: 112 15:28:11  -834.309321c -5.25  -3.41    +83.4370
iter: 113 15:29:44  -834.304735c -5.03  -3.31    +83.4287
iter: 114 15:31:17  -834.308137c -5.17  -3.25    +83.4909
iter: 115 15:32:52  -834.311919c -4.73  -3.32    +83.5186
iter: 116 15:34:25  -834.321336c -4.47  -3.20    +83.5621
iter: 117 15:35:55  -834.305164c -4.82  -3.18    +83.7299
iter: 118 15:37:31  -834.312101c -5.01  -3.59    +83.8104
iter: 119 15:39:03  -834.308548c -5.58  -3.53    +83.8396
iter: 120 15:40:42  -834.313039c -5.48  -3.82    +83.9600
iter: 121 15:42:20  -834.310688c -6.02  -3.94    +83.9161
iter: 122 15:43:51  -834.310910c -5.96  -3.87    +83.9394
iter: 123 15:45:27  -834.314322c -5.85  -3.81    +83.9986
iter: 124 15:47:01  -834.308086c -4.92  -3.98    +83.8512
iter: 125 15:48:33  -834.308354c -5.15  -3.53    +83.8549
iter: 126 15:50:05  -834.312452c -4.31  -3.41    +83.8585
iter: 127 15:51:36  -834.318952c -4.59  -3.63    +83.9209
iter: 128 15:53:08  -834.319205c -5.65  -3.39    +83.9811
iter: 129 15:54:42  -834.327319c -4.25  -3.48    +83.7018
iter: 130 15:56:19  -834.332849c -4.76  -3.11    +83.6430
iter: 131 15:57:57  -834.331438c -5.62  -3.04    +83.6975
iter: 132 15:59:28  -834.341254c -5.25  -3.06    +83.6778
iter: 133 16:01:06  -834.325363c -5.24  -2.99    +83.7386
iter: 134 16:02:36  -834.348714c -4.20  -3.04    +83.6927
iter: 135 16:04:12  -834.383951c -3.55  -2.83    +83.6859
iter: 136 16:05:45  -834.317967c -3.87  -2.76    +83.6388
iter: 137 16:07:17  -834.300949c -4.37  -3.04    +83.7392
iter: 138 16:08:51  -834.313899c -4.53  -3.34    +83.7303
iter: 139 16:10:21  -834.335857c -4.48  -3.37    +83.7311
iter: 140 16:11:57  -834.318052c -5.33  -3.18    +83.7226
iter: 141 16:13:30  -834.329343c -4.86  -3.32    +83.7207
iter: 142 16:15:06  -834.327318c -5.04  -3.16    +83.7513
iter: 143 16:16:36  -834.337943c -4.84  -3.23    +83.8095
iter: 144 16:18:09  -834.337880c -5.49  -3.09    +83.7544
iter: 145 16:19:40  -834.368091c -4.62  -3.15    +83.9267
iter: 146 16:21:14  -834.339267c -4.15  -3.00    +83.8119
iter: 147 16:22:45  -834.339413c -4.15  -2.92    +84.0693
[...]
iter: 153 16:32:07  -834.347589c -4.67  -3.14    +84.6372
iter: 154 16:33:41  -834.379976c -4.46  -3.33    +84.9132
iter: 155 16:35:18  -834.363639c -5.42  -3.24    +84.8500
iter: 156 16:36:51  -834.379674c -4.77  -3.51    +85.0066
iter: 157 16:38:24  -834.395514c -4.97  -3.33    +85.0360
iter: 158 16:40:02  -834.409357c -4.90  -3.51    +85.0763
iter: 159 16:41:32  -834.403920c -3.59  -3.32    +84.8476
iter: 160 16:42:52  -834.450846c -4.43  -2.99    +85.1909
iter: 161 16:44:16  -834.401472c -3.44  -3.11    +84.3761
iter: 162 16:45:49  -834.449959c -3.51  -2.76    +83.9370
iter: 163 16:47:18  -834.483376c -4.02  -2.62    +83.8915
iter: 164 16:48:48  -834.439306c -3.99  -2.57    +84.0195
iter: 165 16:50:18  -834.439953c -4.90  -2.54    +84.0288
iter: 166 16:51:46  -834.515875c -4.33  -2.56    +84.1407
iter: 167 16:53:17  -834.482552c -3.31  -2.52    +84.0318
iter: 168 16:54:46  -834.856344  -2.56  -2.43    +84.2786
iter: 169 16:56:16  -834.203247  -2.97  -2.31    +84.3047
iter: 170 16:57:50  -834.399374  -3.18  -2.58    +83.8423
iter: 171 16:59:18  -834.319833  -3.46  -2.59    +84.1316
iter: 172 17:00:50  -834.407967c -3.50  -2.67    +84.5643
iter: 173 17:02:24  -834.612605  -3.62  -2.98    +85.0363
iter: 174 17:03:52  -834.952590  -3.32  -2.86    +85.8329
iter: 175 17:05:24  -835.006923  -3.97  -2.60    +85.9312
iter: 176 17:06:54  -835.199113  -3.79  -2.66    +86.3374
iter: 177 17:08:24  -835.382039  -3.50  -2.56    +86.7687
iter: 178 17:09:55  -835.352598  -3.48  -2.47    +86.8273
iter: 179 17:11:28  -835.584746  -3.14  -2.39    +86.7272
iter: 180 17:12:56  -835.603533  -3.09  -2.26    +86.6222
iter: 181 17:14:28  -836.064020  -2.56  -2.31    +86.9848
iter: 182 17:15:59  -836.068649  -2.32  -2.11    +87.0682
iter: 183 17:17:26  -834.600107  -2.78  -2.16    +85.8482
iter: 184 17:18:58  -834.690212  -3.22  -2.63    +85.8532
iter: 185 17:20:26  -834.869171  -3.24  -2.71    +86.2453
iter: 186 17:21:59  -834.965187  -3.58  -2.55    +86.1450
iter: 187 17:23:31  -834.927865c -3.73  -2.51    +86.5326
iter: 188 17:25:05  -835.261316  -3.19  -2.51    +86.8673
iter: 189 17:26:36  -834.992005  -3.23  -2.37    +86.9188
iter: 190 17:28:04  -835.246343  -2.77  -2.46    +87.2933
iter: 191 17:29:35  -834.915251  -2.92  -2.35    +87.4216
iter: 192 17:31:03  -834.653544  -3.41  -2.44    +86.7219
iter: 193 17:32:35  -834.671280  -3.90  -2.87    +86.8713
iter: 194 17:34:09  -834.707647c -3.94  -2.95    +86.9417
iter: 195 17:35:40  -834.771185  -3.92  -2.86    +87.0085
iter: 196 17:37:11  -834.736957c -3.97  -2.72    +87.0503
iter: 197 17:38:44  -834.711598c -3.80  -2.72    +87.1656
iter: 198 17:40:20  -834.697120c -3.68  -2.69    +86.9654
iter: 199 17:41:53  -834.744513c -3.48  -2.73    +86.8987
iter: 200 17:43:23  -834.638596  -3.90  -2.67    +87.0134
iter: 201 17:44:53  -834.629168  -4.25  -3.08    +87.0344
iter: 202 17:46:29  -834.628656c -4.67  -3.13    +86.9499
iter: 203 17:48:00  -834.625389c -4.72  -3.21    +86.9935
iter: 204 17:49:34  -834.618136c -4.99  -3.17    +86.9348
iter: 205 17:51:03  -834.623020c -4.65  -3.30    +86.9264
iter: 206 17:52:32  -834.623836c -5.00  -3.25    +86.9332
iter: 207 17:54:03  -834.621596c -4.91  -3.28    +86.9590
iter: 208 17:55:35  -834.620990c -5.08  -3.32    +86.9780
iter: 209 17:57:05  -834.622211c -5.06  -3.35    +87.0065
iter: 210 17:58:36  -834.625692c -4.76  -3.31    +86.9976
iter: 211 18:00:09  -834.618148c -4.95  -3.37    +86.9840
iter: 212 18:01:37  -834.620086c -5.37  -3.42    +86.9779
iter: 213 18:03:09  -834.625213c -4.95  -3.46    +86.9885
iter: 214 18:04:37  -834.622136c -4.87  -3.27    +86.9959
iter: 215 18:06:06  -834.619585c -5.11  -3.37    +86.9650
iter: 216 18:07:36  -834.616658c -5.38  -3.40    +86.9735
iter: 217 18:09:06  -834.618022c -5.80  -3.88    +86.9737
iter: 218 18:10:36  -834.616292c -6.26  -3.80    +86.9721
iter: 219 18:12:09  -834.616763c -6.56  -3.98    +86.9589
iter: 220 18:13:41  -834.616529c -6.45  -4.05c   +86.9541
iter: 221 18:15:12  -834.616748c -6.30  -4.12c   +86.9496
iter: 222 18:16:41  -834.616359c -6.40  -4.07c   +86.9499
iter: 223 18:18:12  -834.616708c -6.50  -4.05c   +86.9480
iter: 224 18:19:42  -834.616759c -6.43  -4.22c   +86.9487
iter: 225 18:21:14  -834.616517c -6.92  -4.15c   +86.9500
iter: 226 18:22:47  -834.616505c -7.19  -4.45c   +86.9484
iter: 227 18:24:17  -834.616587c -7.64c -4.44c   +86.9476

Converged after 227 iterations.

Dipole moment: (0.095513, 0.235993, -0.583721) |e|*Ang

Total magnetic moment: (0.000000, 0.000000, 86.947646)
Local magnetic moments:
   0 Co ( 0.000000,  0.000000,  1.026963)
   1 Ni ( 0.000000,  0.000000,  0.264878)
   2 Al ( 0.000000,  0.000000, -0.006588)
   3 Cr ( 0.000000,  0.000000,  2.432785)
   4 Cr ( 0.000000,  0.000000, -2.604582)
   5 Fe ( 0.000000,  0.000000,  2.592062)
   6 Fe ( 0.000000,  0.000000,  2.612406)
   7 Fe ( 0.000000,  0.000000,  2.388054)
   8 Cr ( 0.000000,  0.000000, -2.463478)
   9 Fe ( 0.000000,  0.000000,  2.448000)
  10 Fe ( 0.000000,  0.000000,  2.523902)
  11 Al ( 0.000000,  0.000000, -0.041192)
  12 Co ( 0.000000,  0.000000,  1.147671)
  13 Fe ( 0.000000,  0.000000,  2.617200)
  14 Al ( 0.000000,  0.000000, -0.022375)
  15 Al ( 0.000000,  0.000000, -0.043087)
  16 Cr ( 0.000000,  0.000000, -2.553708)
  17 Cr ( 0.000000,  0.000000,  2.371787)
  18 Al ( 0.000000,  0.000000, -0.024102)
  19 Co ( 0.000000,  0.000000,  1.488328)
  20 Co ( 0.000000,  0.000000,  1.359585)
  21 Cr ( 0.000000,  0.000000, -2.533614)
  22 Cr ( 0.000000,  0.000000,  2.430526)
  23 Cr ( 0.000000,  0.000000, -2.693916)
  24 Fe ( 0.000000,  0.000000,  2.562570)
  25 Al ( 0.000000,  0.000000, -0.018043)
  26 Ni ( 0.000000,  0.000000,  0.365409)
  27 Cr ( 0.000000,  0.000000, -2.782984)
  28 Fe ( 0.000000,  0.000000,  2.767386)
  29 Ni ( 0.000000,  0.000000,  0.234673)
  30 Co ( 0.000000,  0.000000,  1.466478)
  31 Fe ( 0.000000,  0.000000,  2.667552)
  32 Fe ( 0.000000,  0.000000,  2.612182)
  33 Cr ( 0.000000,  0.000000, -2.469388)
  34 Fe ( 0.000000,  0.000000,  2.482552)
  35 Cr ( 0.000000,  0.000000, -2.550396)
  36 Ni ( 0.000000,  0.000000,  0.437184)
  37 Ni ( 0.000000,  0.000000,  0.269038)
  38 Co ( 0.000000,  0.000000,  1.822790)
  39 Ni ( 0.000000,  0.000000,  0.451917)
  40 Co ( 0.000000,  0.000000,  1.775905)
  41 Ni ( 0.000000,  0.000000,  0.578857)
  42 Co ( 0.000000,  0.000000,  1.651815)
  43 Ni ( 0.000000,  0.000000,  0.383697)
  44 Cr ( 0.000000,  0.000000,  2.427405)
  45 Co ( 0.000000,  0.000000,  1.471215)
  46 Al ( 0.000000,  0.000000, -0.015655)
  47 Ni ( 0.000000,  0.000000,  0.321268)
  48 Cr ( 0.000000,  0.000000, -2.703565)
  49 Fe ( 0.000000,  0.000000,  2.706102)
  50 Fe ( 0.000000,  0.000000,  2.901073)
  51 Ni ( 0.000000,  0.000000,  0.442197)
  52 Ni ( 0.000000,  0.000000,  0.460217)
  53 Ni ( 0.000000,  0.000000,  0.579354)
  54 Co ( 0.000000,  0.000000,  1.726929)
  55 Cr ( 0.000000,  0.000000,  2.085439)
  56 Cr ( 0.000000,  0.000000, -2.643721)
  57 Co ( 0.000000,  0.000000,  1.498747)
  58 Cr ( 0.000000,  0.000000,  2.474614)
  59 Fe ( 0.000000,  0.000000,  2.557050)
[...]
  93 Ni ( 0.000000,  0.000000,  0.453709)
  94 Cr ( 0.000000,  0.000000,  2.287374)
  95 Cr ( 0.000000,  0.000000, -2.701029)
  96 Co ( 0.000000,  0.000000,  1.651096)
  97 Ni ( 0.000000,  0.000000,  0.333442)
  98 Ni ( 0.000000,  0.000000,  0.511046)
  99 Co ( 0.000000,  0.000000,  1.817837)
 100 Co ( 0.000000,  0.000000,  1.841438)
 101 Ni ( 0.000000,  0.000000,  0.508098)
 102 Fe ( 0.000000,  0.000000,  2.884220)
 103 Co ( 0.000000,  0.000000,  1.805590)
 104 Co ( 0.000000,  0.000000,  1.709921)
 105 Ni ( 0.000000,  0.000000,  0.351063)
 106 Fe ( 0.000000,  0.000000,  2.724958)
 107 Fe ( 0.000000,  0.000000,  2.629315)

Energy contributions relative to reference atoms: (reference = -3548577.034362)

Kinetic:       -233.031570
Potential:     +118.725561
External:        +0.000000
XC:            -751.291293
Entropy (-ST):   -4.533879
Local:          +33.247653
Free energy:   -836.883527
Extrapolated:  -834.616587

Spin contamination: 51.193277 electrons
Showing only first 2 kpts
                      Up                     Down
 Kpt  Band  Eigenvalues  Occupancy  Eigenvalues  Occupancy
  0   488      6.96920    0.99960      8.16905    0.01501
  0   489      6.98133    0.99954      8.18397    0.01296
  0   490      6.98970    0.99950      8.19443    0.01169
  0   491      7.00049    0.99945      8.20278    0.01076

  1   488      6.96713    0.99960      8.18223    0.01318
  1   489      6.97238    0.99958      8.18508    0.01282
  1   490      6.98647    0.99952      8.20125    0.01093
  1   491      7.00065    0.99945      8.20691    0.01033

Fermi level: 7.75068

No gap

Forces in eV/Ang:
  0 Co   -0.04261   -0.27167   -0.09462
  1 Ni    0.02757   -0.08942    0.07998
  2 Al    0.00539    0.42978    0.82017
  3 Cr   -0.37678   -0.01435   -0.46146
  4 Cr    0.62859    0.37449   -0.42454
  5 Fe    0.49560   -0.16193    0.47212
  6 Fe   -0.22971    0.03188   -0.06778
  7 Fe   -0.20535    0.06545    0.11418
  8 Cr   -0.90040    0.07006   -0.17634
  9 Fe   -0.16943   -0.15699   -0.07643
 10 Fe    0.15586    0.25001   -0.03768
 11 Al    0.73582    0.38962    0.40989
 12 Co    0.10182    0.18888   -0.30024
 13 Fe    0.21978    0.44702    0.26973
 14 Al   -0.19617   -0.55816    0.62246
 15 Al   -0.57155    0.47093   -0.70444
 16 Cr   -0.30126   -0.29108   -0.09545
 17 Cr   -0.05743    0.13663    0.15210
 18 Al    0.03319   -0.44326    0.03924
 19 Co    0.09523    0.27030   -0.11959
 20 Co   -0.32609   -0.05063   -0.06230
 21 Cr   -0.18339    0.71808   -0.00946
 22 Cr   -0.09465    0.06036    0.13160
 23 Cr    0.38441   -0.05837   -0.49799
 24 Fe   -0.08481    0.10394   -0.36699
 25 Al   -0.20603   -0.37181    0.91607
 26 Ni    0.08903   -0.20907    0.02381
 27 Cr   -0.19470   -0.58992   -0.77611
 28 Fe    0.19720    0.38802   -0.07864
 29 Ni    0.05389   -0.10384    0.02880
 30 Co   -0.30679    0.14020   -0.16419
 31 Fe   -0.05789   -0.07264    0.11541
 32 Fe   -0.18599   -0.04560    0.05854
 33 Cr    0.07844   -0.33308    0.33069
 34 Fe    0.02346   -0.15113    0.09525
 35 Cr    0.44143   -0.64220   -0.36211
 36 Ni    0.04350    0.10665   -0.01129
 37 Ni    0.21200   -0.14260   -0.13237
 38 Co    0.37518   -0.11483   -0.20711
 39 Ni    0.03078   -0.07139    0.12794
 40 Co    0.18639    0.09331    0.51341
 41 Ni   -0.12140   -0.04429   -0.12553
 42 Co   -0.26797    0.08335    0.06353
 43 Ni   -0.07518   -0.06114    0.13170
 44 Cr   -0.35793   -0.30945    0.25744
 45 Co   -0.28997    0.15949    0.20255
 46 Al    0.09570    0.51946   -0.46550
 47 Ni    0.12860   -0.17537   -0.13024
 48 Cr   -0.53142   -0.08826    0.52134
 49 Fe    0.37288    0.50741   -0.07784
 50 Fe    0.33106   -0.10740   -0.27471
 51 Ni    0.12249    0.08934   -0.01587
 52 Ni    0.09829    0.02079    0.11403
 53 Ni    0.03203    0.03447    0.07487
 54 Co    0.06612   -0.03209    0.16790
 55 Cr    0.10386    0.09488    0.25498
 56 Cr    0.25867   -0.52440    0.92373
 57 Co   -0.18791    0.20767    0.22961
 58 Cr    0.05627   -0.57065    0.03809
 59 Fe   -0.01727    0.40694    0.12968
[...]
 93 Ni   -0.13146    0.07695    0.03201
 94 Cr    0.30494    0.52249   -0.17498
 95 Cr   -0.37957    0.42137    0.16655
 96 Co    0.02824    0.21423    0.19166
 97 Ni    0.03017   -0.03440   -0.04834
 98 Ni   -0.05749    0.01056   -0.13857
 99 Co    0.23090   -0.12325    0.07377
100 Co    0.13566    0.18317   -0.00153
101 Ni   -0.11093   -0.04896   -0.04949
102 Fe    0.27535    0.04687   -0.22814
103 Co   -0.01035    0.03422   -0.12677
104 Co   -0.14384   -0.09702    0.07229
105 Ni   -0.05494    0.02914    0.05313
106 Fe   -0.08121   -0.15453   -0.21964
107 Fe   -0.08144   -0.65422   -0.04384

Date: Sat Apr  8 18:24:42 2023