User:   c.zeng@d0136
Date:   Fri Apr  7 22:16:53 2023
Arch:   x86_64
Pid:    29757
CWD:    /home/c.zeng/projects/hea-corrosion/hea-mlp/data-curation/volume/dft-jobs/102
Python: 3.8.1
gpaw:   /home/c.zeng/usr/installs/gpaw/source/gpaw-22.8.0/gpaw
_gpaw:  /home/c.zeng/usr/installs/gpaw/source/gpaw-22.8.0/
        _gpaw.cpython-38-x86_64-linux-gnu.so
ase:    /home/c.zeng/.local/lib/python3.8/site-packages/ase-3.22.1-py3.8.egg/ase (version 3.22.1)
numpy:  /shared/centos7/python/3.8.1/lib/python3.8/site-packages/numpy (version 1.17.4)
scipy:  /shared/centos7/python/3.8.1/lib/python3.8/site-packages/scipy (version 1.4.1)
units:  Angstrom and eV
cores: 64
OpenMP: False
OMP_NUM_THREADS: 1

Input parameters:
  convergence: {energy: 0.0001}
  kpts: [2 2 2]
  maxiter: 666
  mode: {ecut: 350.0,
         name: pw}
  occupations: {fixmagmom: False,
                name: fermi-dirac,
                width: 0.1}
  spinpol: True
  xc: PBE

System changes: positions, numbers, cell, pbc, initial_charges, initial_magmoms

Initialize ...

species:
  Fe:
    name: Iron
    id: 37abbd8d6c3c35915a9b583b742da910
    Z: 26.0
    valence: 8
    core: 18
    charge: 0.0
    file: /home/c.zeng/usr/data/gpaw-setups-0.9.20000/Fe.PBE.gz
    compensation charges: {type: gauss,
                           rc: 0.33,
                           lmax: 2}
    cutoffs: {filter: 2.06,
              core: 2.67}
    valence states:
      #              energy  rcut
      - 4s(2.00)    -5.291   1.164
      - 4p(0.00)    -1.326   1.058
      - 3d(6.00)    -7.505   1.058
      -  s          21.920   1.164
      -  p          25.885   1.058
      -  d          19.706   1.058

    # Using partial waves for Fe as LCAO basis

  Cr:
    name: Chromium
    id: 33f258bda2ca9f93018e70263a35547b
    Z: 24.0
    valence: 6
    core: 18
    charge: 0.0
    file: /home/c.zeng/usr/data/gpaw-setups-0.9.20000/Cr.PBE.gz
    compensation charges: {type: gauss,
                           rc: 0.35,
                           lmax: 2}
    cutoffs: {filter: 2.14,
              core: 3.04}
    valence states:
      #              energy  rcut
      - 4s(1.00)    -4.007   1.164
      - 4p(0.00)    -0.989   1.217
      - 3d(5.00)    -2.913   1.111
      -  s          23.205   1.164
      -  p          26.223   1.217
      -  d          24.299   1.111

[...]

  Ni:
    name: Nickel
    id: 0d9f38a9d6e76a2886f07bb4381f212b
    Z: 28.0
    valence: 16
    core: 12
    charge: 0.0
    file: /home/c.zeng/usr/data/gpaw-setups-0.9.20000/Ni.PBE.gz
    compensation charges: {type: gauss,
                           rc: 0.36,
                           lmax: 2}
    cutoffs: {filter: 2.14,
              core: 1.98}
    valence states:
      #              energy  rcut
      - 4s(2.00)    -5.642   1.164
      - 3p(6.00)   -71.394   1.207
      - 4p(0.00)    -1.226   1.207
      - 3d(8.00)    -8.875   1.138
      -  s          21.570   1.164
      -  d          18.337   1.138

[...]

  Al:
    name: Aluminium
    id: 0292cae29f5d6237e50f6abdd43a7bdd
    Z: 13.0
    valence: 3
    core: 10
    charge: 0.0
    file: /home/c.zeng/usr/data/gpaw-setups-0.9.20000/Al.PBE.gz
    compensation charges: {type: gauss,
                           rc: 0.34,
                           lmax: 2}
    cutoffs: {filter: 1.91,
              core: 2.36}
    valence states:
      #              energy  rcut
      - 3s(2.00)    -7.753   1.085
      - 3p(1.00)    -2.712   1.085
      -  s          19.459   1.085
      -  p          24.499   1.085
      -  d           0.000   1.085

[...]

  Co:
    name: Cobalt
    id: 339d20d5b0b93d2de9531a1bee871d91
    Z: 27.0
    valence: 9
    core: 18
    charge: 0.0
    file: /home/c.zeng/usr/data/gpaw-setups-0.9.20000/Co.PBE.gz
    compensation charges: {type: gauss,
                           rc: 0.32,
                           lmax: 2}
    cutoffs: {filter: 1.87,
              core: 2.55}
    valence states:
      #              energy  rcut
      - 4s(2.00)    -5.469   1.005
      - 4p(0.00)    -1.277   1.058
      - 3d(7.00)    -8.205   1.005
      -  s          21.742   1.005
      -  p          25.934   1.058
      -  d          19.007   1.005

    # Using partial waves for Co as LCAO basis

Reference energy: -3382523.201499  # eV

Spin-polarized calculation.
Magnetic moment: 128.800000

Convergence criteria:
 Maximum [total energy] change in last 3 cyles: 0.0001 eV / electron
 Maximum integral of absolute [dens]ity change: 0.0001 electrons / valence electron
 Maximum integral of absolute [eigenst]ate change: 4e-08 eV^2 / valence electron
 Maximum number of scf [iter]ations: 666
 (Square brackets indicate name in SCF output, whereas a 'c' in
 the SCF output indicates the quantity has converged.)

Symmetries present (total): 1

  ( 1  0  0)
  ( 0  1  0)
  ( 0  0  1)

8 k-points: 2 x 2 x 2 Monkhorst-Pack grid
4 k-points in the irreducible part of the Brillouin zone
       k-points in crystal coordinates                weights
   0:     0.25000000   -0.25000000   -0.25000000          2/8
   1:     0.25000000   -0.25000000    0.25000000          2/8
   2:     0.25000000    0.25000000   -0.25000000          2/8
   3:     0.25000000    0.25000000    0.25000000          2/8

Wave functions: Plane wave expansion
  Cutoff energy: 350.000 eV
  Number of coefficients (min, max): 18865, 18865
  Pulay-stress correction: 0.000000 eV/Ang^3 (de/decut=0.000000)
  Using FFTW library
  ScaLapack parameters: grid=1x1, blocksize=None
  Wavefunction extrapolation:
    Improved wavefunction reuse through dual PAW basis

Occupation numbers: Fermi-Dirac:
  width: 0.1000  # eV

Eigensolver
   Davidson(niter=2)

Densities:
  Coarse grid: 48*48*48 grid
  Fine grid: 96*96*96 grid
  Total Charge: 0.000000

Density mixing:
  Method: difference
  Backend: pulay
  Linear mixing parameter: 0.05
  old densities: 5
  Damping of long wavelength oscillations: 50

Hamiltonian:
  XC and Coulomb potentials evaluated on a 96*96*96 grid
  Using the PBE Exchange-Correlation functional
  External potential:
    NoExternalPotential

XC parameters: PBE with 2 nearest neighbor stencil

Total number of cores used: 64
Parallelization over k-points: 4
Domain decomposition: 4 x 2 x 2

Number of atoms: 108
Number of atomic orbitals: 961
Number of bands in calculation: 649
Number of valence electrons: 945
Bands to converge: occupied

... initialized

Initializing position-dependent things.

Density initialized from atomic densities
Creating initial wave functions:
  649 bands from LCAO basis set

       /|                     Ni   |
      / |            Cr Ni     NiNi|
     /  |       Al       Ni       Fe
    /   |Cr       Fer     CAlo     |
   /i   | Coi        Co      Fe    |
  /  FeCr   CFe       Cr           |
 *      Co     CrNi   FeAlFeFe   Ni|
 |      |CrFe   CrCoAl   FeCrCo   Co
 | NiCo | AlNi   FeAlAl     Cr     |
 |     Co  NiFe Fe  Ni NiNi  CrCr  |
 |      CoFe   AlFe   NiAlCoFe  Fe |
 |      |AlAl   CrFeCo   CrCoCo   Cr
 |      .-CrAl-----FeNi-CoAlCoNi---.
 |     /   Al Cr    Fe FeNi    Cr /
 |    Cr       CNio       Co     /
 |   /  Fe         Cr       Ni  /
 |  /      Fe       Co       Cr/
 | / Ni     Co       Cr Ni    /
 |/             Al       Co  /
 *--------Al----------------*

Positions:
   0 Fe    10.767642   10.856463   10.804765    ( 0.0000,  0.0000,  2.0000)
   1 Cr    10.787811    1.792463    1.811809    ( 0.0000,  0.0000,  0.0000)
   2 Ni     1.745093    0.036243    1.852038    ( 0.0000,  0.0000,  1.5000)
   3 Cr     1.735885    1.831739   10.796943    ( 0.0000,  0.0000,  0.0000)
   4 Al     3.573132    0.057387    0.059321    ( 0.0000,  0.0000,  0.0000)
   5 Fe     3.593538    1.816894    1.840168    ( 0.0000,  0.0000,  2.0000)
   6 Ni     5.426446   10.817739    1.863734    ( 0.0000,  0.0000,  1.5000)
   7 Al     5.425180    1.925700    0.052699    ( 0.0000,  0.0000,  0.0000)
   8 Al     7.315997   10.718746    0.085880    ( 0.0000,  0.0000,  0.0000)
   9 Co     7.261865    1.823570    1.863280    ( 0.0000,  0.0000,  2.1000)
  10 Ni     9.064282    0.022411    1.860910    ( 0.0000,  0.0000,  1.5000)
  11 Co     9.052737    1.827401    0.034818    ( 0.0000,  0.0000,  2.1000)
  12 Ni     0.006378    3.562561   10.796910    ( 0.0000,  0.0000,  1.5000)
  13 Cr    10.762438    5.392374    1.779381    ( 0.0000,  0.0000,  0.0000)
  14 Fe     1.737086    3.563827    1.758921    ( 0.0000,  0.0000,  2.0000)
  15 Cr     1.780366    5.396075   10.794681    ( 0.0000,  0.0000,  0.0000)
  16 Co     3.565558    3.621681   10.827466    ( 0.0000,  0.0000,  2.1000)
  17 Cr     3.633150    5.393965    1.720651    ( 0.0000,  0.0000,  0.0000)
  18 Co     5.467627    3.657431    1.831274    ( 0.0000,  0.0000,  2.1000)
  19 Fe     5.436130    5.378135   -0.005278    ( 0.0000,  0.0000,  2.0000)
  20 Cr     7.256768    3.610894    0.031034    ( 0.0000,  0.0000,  0.0000)
  21 Fe     7.261951    5.378795    1.784250    ( 0.0000,  0.0000,  2.0000)
  22 Co     9.028771    3.578369    1.831155    ( 0.0000,  0.0000,  2.1000)
  23 Al     9.038325    5.376382   10.806745    ( 0.0000,  0.0000,  0.0000)
  24 Ni    10.793221    7.197377   10.796283    ( 0.0000,  0.0000,  1.5000)
  25 Cr    10.762059    9.037773    1.848510    ( 0.0000,  0.0000,  0.0000)
  26 Cr     1.696966    7.202008    1.789282    ( 0.0000,  0.0000,  0.0000)
  27 Al     1.655038    8.975709    0.027197    ( 0.0000,  0.0000,  0.0000)
  28 Cr     3.629926    7.166486    0.032887    ( 0.0000,  0.0000,  0.0000)
  29 Cr     3.624916    9.065039    1.807892    ( 0.0000,  0.0000,  0.0000)
  30 Fe     5.483825    7.188830    1.748220    ( 0.0000,  0.0000,  2.0000)
  31 Fe     5.421512    8.989743    0.007957    ( 0.0000,  0.0000,  2.0000)
  32 Ni     7.225044    7.240549   -0.004771    ( 0.0000,  0.0000,  1.5000)
  33 Cr     7.242096    8.997209    1.812859    ( 0.0000,  0.0000,  0.0000)
  34 Co     9.049134    7.206412    1.768226    ( 0.0000,  0.0000,  2.1000)
  35 Ni     9.092609    8.987774   10.810284    ( 0.0000,  0.0000,  1.5000)
  36 Ni    -0.001605   10.824544    3.637976    ( 0.0000,  0.0000,  1.5000)
  37 Co    10.818972    1.772619    5.420149    ( 0.0000,  0.0000,  2.1000)
  38 Co     1.751498   10.804149    5.428318    ( 0.0000,  0.0000,  2.1000)
  39 Cr     1.740007    1.776168    3.610309    ( 0.0000,  0.0000,  0.0000)
  40 Fe     3.590379   10.801866    3.615947    ( 0.0000,  0.0000,  2.0000)
  41 Al     3.593052    1.738482    5.461968    ( 0.0000,  0.0000,  0.0000)
  42 Fe     5.440220   10.800719    5.404590    ( 0.0000,  0.0000,  2.0000)
  43 Ni     5.454102    1.782757    3.601221    ( 0.0000,  0.0000,  1.5000)
  44 Cr     7.227187    0.009784    3.625436    ( 0.0000,  0.0000,  0.0000)
  45 Co     7.241480    1.767620    5.383459    ( 0.0000,  0.0000,  2.1000)
  46 Co     9.035447   10.846942    5.402480    ( 0.0000,  0.0000,  2.1000)
  47 Ni     9.031313    1.804538    3.612214    ( 0.0000,  0.0000,  1.5000)
  48 Ni    10.772522    3.545141    3.614086    ( 0.0000,  0.0000,  1.5000)
  49 Cr    10.769233    5.358486    5.449385    ( 0.0000,  0.0000,  0.0000)
  50 Co     1.753933    3.574603    5.430439    ( 0.0000,  0.0000,  2.1000)
  51 Al     1.626636    5.382333    3.573273    ( 0.0000,  0.0000,  0.0000)
  52 Al     3.636321    3.627924    3.543117    ( 0.0000,  0.0000,  0.0000)
  53 Fe     3.552996    5.389096    5.408961    ( 0.0000,  0.0000,  2.0000)
  54 Fe     5.407284    3.605094    5.374857    ( 0.0000,  0.0000,  2.0000)
  55 Fe     5.457218    5.427453    3.577492    ( 0.0000,  0.0000,  2.0000)
  56 Ni     7.248491    3.612170    3.618717    ( 0.0000,  0.0000,  1.5000)
  57 Ni     7.248675    5.406083    5.360304    ( 0.0000,  0.0000,  1.5000)
  58 Co     9.057097    3.566413    5.376664    ( 0.0000,  0.0000,  2.1000)
  59 Co     9.070590    5.366547    3.583909    ( 0.0000,  0.0000,  2.1000)
[...]
  93 Cr     7.211995    5.392450    9.043399    ( 0.0000,  0.0000,  0.0000)
  94 Fe     9.096201    3.601837    8.987601    ( 0.0000,  0.0000,  2.0000)
  95 Cr     9.079462    5.402805    7.227847    ( 0.0000,  0.0000,  0.0000)
  96 Ni    10.760674    7.241610    7.256693    ( 0.0000,  0.0000,  1.5000)
  97 Fe    10.796131    9.029723    8.977311    ( 0.0000,  0.0000,  2.0000)
  98 Co     1.739304    7.180455    8.980557    ( 0.0000,  0.0000,  2.1000)
  99 Ni     1.732163    9.078088    7.232012    ( 0.0000,  0.0000,  1.5000)
 100 Cr     3.580944    7.154119    7.243471    ( 0.0000,  0.0000,  0.0000)
 101 Al     3.611922    8.969737    8.951267    ( 0.0000,  0.0000,  0.0000)
 102 Cr     5.411320    7.158891    9.061966    ( 0.0000,  0.0000,  0.0000)
 103 Co     5.468731    9.065353    7.218671    ( 0.0000,  0.0000,  2.1000)
 104 Al     7.310219    7.269017    7.286805    ( 0.0000,  0.0000,  0.0000)
 105 Ni     7.271278    9.041030    9.026044    ( 0.0000,  0.0000,  1.5000)
 106 Co     9.080793    7.219667    9.042685    ( 0.0000,  0.0000,  2.1000)
 107 Fe     9.064336    9.078608    7.211692    ( 0.0000,  0.0000,  2.0000)

Unit cell:
           periodic     x           y           z      points  spacing
  1. axis:    yes   10.820000    0.000000    0.000000    48     0.2254
  2. axis:    yes    0.000000   10.820000    0.000000    48     0.2254
  3. axis:    yes    0.000000    0.000000   10.820000    48     0.2254

  Lengths:  10.820000  10.820000  10.820000
  Angles:   90.000000  90.000000  90.000000

Effective grid spacing dv^(1/3) = 0.2254

     iter     time        total  log10-change:  magmom
                         energy  eigst   dens
iter:   1 22:19:23  -996.855864                  +129.0863
iter:   2 22:20:37  -888.863587  -0.19  -1.18    +70.8663
iter:   3 22:21:50  -876.039848  -0.82  -1.19    +61.2362
iter:   4 22:23:03  -851.827717  -1.23  -1.26    +57.0341
iter:   5 22:24:17  -843.668376  -1.55  -1.30    +54.8613
iter:   6 22:25:31  -844.592073  -1.33  -1.35    +55.5247
iter:   7 22:26:45  -834.966630  -1.30  -1.39    +54.2108
iter:   8 22:27:58  -827.972237  -1.64  -1.53    +54.0914
iter:   9 22:29:13  -827.461910  -1.86  -1.66    +55.6079
iter:  10 22:30:26  -825.005643  -2.41  -1.72    +56.4570
iter:  11 22:31:40  -825.470435  -2.49  -1.80    +59.0605
iter:  12 22:32:53  -827.105041  -2.40  -1.86    +60.3855
iter:  13 22:34:07  -826.476165  -2.43  -1.86    +61.1310
iter:  14 22:35:21  -826.798058  -2.49  -1.93    +62.4370
iter:  15 22:36:36  -826.618337  -2.64  -1.96    +62.8824
iter:  16 22:37:50  -826.197803  -2.90  -2.01    +63.0571
iter:  17 22:39:04  -826.739286  -2.94  -2.08    +64.0330
iter:  18 22:40:18  -826.219023  -3.07  -2.06    +64.0538
iter:  19 22:41:31  -826.338213  -3.03  -2.19    +64.2592
iter:  20 22:42:46  -826.526311  -2.99  -2.24    +64.4600
iter:  21 22:44:00  -826.246148  -3.20  -2.25    +64.7318
iter:  22 22:45:13  -826.313612  -3.35  -2.37    +64.8903
iter:  23 22:46:28  -826.240501c -3.52  -2.38    +64.9711
iter:  24 22:47:41  -826.285105c -3.62  -2.48    +65.1426
iter:  25 22:48:57  -826.331430c -3.67  -2.50    +65.1535
iter:  26 22:50:12  -826.344333c -3.82  -2.54    +65.2989
iter:  27 22:51:26  -826.360233c -3.97  -2.54    +65.3187
iter:  28 22:52:43  -826.401105c -3.92  -2.60    +65.2319
iter:  29 22:53:59  -826.421350c -4.18  -2.63    +65.3128
iter:  30 22:55:13  -826.452296c -4.05  -2.66    +65.2978
iter:  31 22:56:26  -826.476839c -4.10  -2.69    +65.2671
iter:  32 22:57:39  -826.497920c -4.26  -2.74    +65.4054
iter:  33 22:58:52  -826.508435c -4.23  -2.75    +65.3916
iter:  34 23:00:04  -826.526426c -4.43  -2.80    +65.2960
iter:  35 23:01:18  -826.550937c -4.39  -2.84    +65.3435
iter:  36 23:02:31  -826.561553c -4.49  -2.86    +65.3095
iter:  37 23:03:44  -826.589818c -4.39  -2.91    +65.2410
iter:  38 23:04:59  -826.601866c -4.42  -2.94    +65.2842
iter:  39 23:06:12  -826.608340c -4.61  -2.95    +65.2350
iter:  40 23:07:25  -826.620068c -4.53  -3.00    +65.1550
iter:  41 23:08:39  -826.628113c -4.83  -3.05    +65.1668
iter:  42 23:09:59  -826.636877c -4.74  -3.08    +65.1343
iter:  43 23:11:14  -826.654924c -4.59  -3.13    +65.1253
iter:  44 23:12:28  -826.666698c -4.53  -3.14    +65.1067
iter:  45 23:13:42  -826.668264c -4.90  -3.18    +65.0973
iter:  46 23:14:56  -826.670938c -5.11  -3.21    +65.0754
iter:  47 23:16:09  -826.677275c -5.07  -3.26    +65.0470
iter:  48 23:17:25  -826.674382c -5.08  -3.26    +65.0483
iter:  49 23:18:40  -826.676621c -5.28  -3.31    +65.0317
iter:  50 23:19:54  -826.678554c -5.37  -3.36    +65.0191
iter:  51 23:21:07  -826.678762c -5.61  -3.38    +65.0151
iter:  52 23:22:22  -826.680585c -5.51  -3.41    +65.0096
iter:  53 23:23:36  -826.682070c -5.49  -3.45    +64.9972
iter:  54 23:24:48  -826.682611c -5.62  -3.49    +64.9860
iter:  55 23:26:03  -826.684296c -5.73  -3.53    +64.9737
iter:  56 23:27:18  -826.685686c -5.73  -3.55    +64.9673
iter:  57 23:28:33  -826.686451c -5.73  -3.57    +64.9488
iter:  58 23:29:47  -826.687736c -5.72  -3.59    +64.9355
iter:  59 23:31:00  -826.688834c -5.83  -3.66    +64.9262
iter:  60 23:32:13  -826.689750c -5.92  -3.73    +64.9060
iter:  61 23:33:26  -826.691526c -5.87  -3.76    +64.8850
iter:  62 23:34:40  -826.692736c -5.94  -3.78    +64.8639
iter:  63 23:35:53  -826.694412c -5.71  -3.81    +64.8349
iter:  64 23:37:08  -826.695425c -6.06  -3.82    +64.8136
iter:  65 23:38:22  -826.698911c -5.36  -3.84    +64.7355
iter:  66 23:39:36  -826.709431c -4.54  -3.77    +64.5385
iter:  67 23:40:49  -826.707872c -5.53  -3.57    +64.5688
iter:  68 23:42:03  -826.709070c -5.76  -3.61    +64.5499
iter:  69 23:43:15  -826.709808c -6.05  -3.58    +64.5357
iter:  70 23:44:30  -826.713806c -5.25  -3.56    +64.4734
iter:  71 23:45:43  -826.715514c -5.27  -3.47    +64.4937
iter:  72 23:46:58  -826.713880c -5.41  -3.35    +64.4713
iter:  73 23:48:12  -826.712429c -5.50  -3.52    +64.4469
iter:  74 23:49:26  -826.715191c -5.14  -3.52    +64.4433
iter:  75 23:50:39  -826.709735c -5.05  -3.38    +64.4498
iter:  76 23:51:53  -826.710872c -5.49  -3.48    +64.4188
iter:  77 23:53:07  -826.709884c -6.03  -3.66    +64.4078
iter:  78 23:54:21  -826.710117c -5.95  -3.71    +64.4005
iter:  79 23:55:34  -826.710491c -5.80  -3.69    +64.3974
iter:  80 23:56:50  -826.711222c -5.53  -3.70    +64.3863
iter:  81 23:58:09  -826.710919c -5.67  -3.60    +64.3698
iter:  82 23:59:23  -826.709331c -5.84  -3.74    +64.3846
iter:  83 00:00:38  -826.710179c -5.96  -3.78    +64.3775
iter:  84 00:01:52  -826.709729c -6.29  -3.83    +64.3689
iter:  85 00:03:06  -826.709588c -6.64  -3.94    +64.3651
iter:  86 00:04:22  -826.709845c -6.65  -4.01c   +64.3648
iter:  87 00:05:37  -826.709522c -6.64  -3.99    +64.3689
iter:  88 00:06:54  -826.709962c -6.75  -4.02c   +64.3632
iter:  89 00:08:10  -826.709630c -6.44  -4.05c   +64.3643
iter:  90 00:09:25  -826.709860c -6.40  -3.98    +64.3671
iter:  91 00:10:42  -826.709950c -6.46  -4.02c   +64.3640
iter:  92 00:11:58  -826.709796c -6.50  -4.05c   +64.3605
iter:  93 00:13:11  -826.710063c -6.57  -4.08c   +64.3562
iter:  94 00:14:24  -826.709822c -6.95  -4.13c   +64.3639
iter:  95 00:15:26  -826.710027c -7.03  -4.21c   +64.3624
iter:  96 00:16:35  -826.710034c -7.19  -4.25c   +64.3634
iter:  97 00:17:48  -826.710094c -7.24  -4.25c   +64.3643
iter:  98 00:19:01  -826.710207c -7.17  -4.27c   +64.3634
iter:  99 00:20:17  -826.710099c -6.58  -4.29c   +64.3617
iter: 100 00:21:32  -826.710455c -6.72  -4.17c   +64.3601
iter: 101 00:22:46  -826.710216c -6.80  -4.30c   +64.3645
iter: 102 00:23:59  -826.710492c -6.78  -4.40c   +64.3665
iter: 103 00:25:12  -826.710444c -7.05  -4.31c   +64.3644
iter: 104 00:26:25  -826.710478c -7.09  -4.55c   +64.3628
iter: 105 00:27:40  -826.710439c -7.90c -4.63c   +64.3622

Converged after 105 iterations.

Dipole moment: (27.172679, -2.614112, -8.543372) |e|*Ang

Total magnetic moment: (0.000000, 0.000000, 64.362205)
Local magnetic moments:
   0 Fe ( 0.000000,  0.000000,  2.165188)
   1 Cr ( 0.000000,  0.000000,  1.396363)
   2 Ni ( 0.000000,  0.000000, -0.008387)
   3 Cr ( 0.000000,  0.000000, -1.881379)
   4 Al ( 0.000000,  0.000000, -0.013387)
   5 Fe ( 0.000000,  0.000000,  2.197290)
   6 Ni ( 0.000000,  0.000000,  0.174833)
   7 Al ( 0.000000,  0.000000, -0.017738)
   8 Al ( 0.000000,  0.000000, -0.014676)
   9 Co ( 0.000000,  0.000000,  1.420909)
  10 Ni ( 0.000000,  0.000000,  0.200005)
  11 Co ( 0.000000,  0.000000,  1.113079)
  12 Ni ( 0.000000,  0.000000,  0.247626)
  13 Cr ( 0.000000,  0.000000,  1.223751)
  14 Fe ( 0.000000,  0.000000,  1.475154)
  15 Cr ( 0.000000,  0.000000, -1.569350)
  16 Co ( 0.000000,  0.000000,  0.749799)
  17 Cr ( 0.000000,  0.000000,  0.381251)
  18 Co ( 0.000000,  0.000000,  1.066899)
  19 Fe ( 0.000000,  0.000000,  1.825712)
  20 Cr ( 0.000000,  0.000000, -1.987417)
  21 Fe ( 0.000000,  0.000000,  2.339893)
  22 Co ( 0.000000,  0.000000,  1.046442)
  23 Al ( 0.000000,  0.000000, -0.028406)
  24 Ni ( 0.000000,  0.000000,  0.199164)
  25 Cr ( 0.000000,  0.000000,  0.263177)
  26 Cr ( 0.000000,  0.000000, -0.309842)
  27 Al ( 0.000000,  0.000000, -0.017455)
  28 Cr ( 0.000000,  0.000000, -0.644240)
  29 Cr ( 0.000000,  0.000000, -1.855495)
  30 Fe ( 0.000000,  0.000000,  1.729458)
  31 Fe ( 0.000000,  0.000000,  1.588214)
  32 Ni ( 0.000000,  0.000000,  0.260327)
  33 Cr ( 0.000000,  0.000000,  1.555146)
  34 Co ( 0.000000,  0.000000,  0.901599)
  35 Ni ( 0.000000,  0.000000,  0.340225)
  36 Ni ( 0.000000,  0.000000,  0.171926)
  37 Co ( 0.000000,  0.000000,  1.561588)
  38 Co ( 0.000000,  0.000000,  1.258406)
  39 Cr ( 0.000000,  0.000000, -1.888808)
  40 Fe ( 0.000000,  0.000000,  2.187015)
  41 Al ( 0.000000,  0.000000, -0.039430)
  42 Fe ( 0.000000,  0.000000,  2.246960)
  43 Ni ( 0.000000,  0.000000,  0.393574)
  44 Cr ( 0.000000,  0.000000, -1.693472)
  45 Co ( 0.000000,  0.000000,  1.497887)
  46 Co ( 0.000000,  0.000000,  1.301273)
  47 Ni ( 0.000000,  0.000000,  0.419334)
  48 Ni ( 0.000000,  0.000000,  0.292101)
  49 Cr ( 0.000000,  0.000000,  1.520551)
  50 Co ( 0.000000,  0.000000,  0.980550)
  51 Al ( 0.000000,  0.000000, -0.027594)
  52 Al ( 0.000000,  0.000000, -0.039353)
  53 Fe ( 0.000000,  0.000000,  2.070430)
  54 Fe ( 0.000000,  0.000000,  2.385201)
  55 Fe ( 0.000000,  0.000000,  2.209671)
  56 Ni ( 0.000000,  0.000000,  0.550143)
  57 Ni ( 0.000000,  0.000000,  0.181178)
  58 Co ( 0.000000,  0.000000,  1.211577)
  59 Co ( 0.000000,  0.000000,  0.853476)
[...]
  93 Cr ( 0.000000,  0.000000,  1.694525)
  94 Fe ( 0.000000,  0.000000,  2.120616)
  95 Cr ( 0.000000,  0.000000, -1.443041)
  96 Ni ( 0.000000,  0.000000,  0.222612)
  97 Fe ( 0.000000,  0.000000,  2.424402)
  98 Co ( 0.000000,  0.000000,  0.510878)
  99 Ni ( 0.000000,  0.000000,  0.380081)
 100 Cr ( 0.000000,  0.000000,  1.525543)
 101 Al ( 0.000000,  0.000000, -0.009724)
 102 Cr ( 0.000000,  0.000000, -1.476586)
 103 Co ( 0.000000,  0.000000,  0.765532)
 104 Al ( 0.000000,  0.000000, -0.020018)
 105 Ni ( 0.000000,  0.000000,  0.276887)
 106 Co ( 0.000000,  0.000000,  1.111577)
 107 Fe ( 0.000000,  0.000000,  2.193017)

Energy contributions relative to reference atoms: (reference = -3382523.201499)

Kinetic:       +216.843287
Potential:     -227.207064
External:        +0.000000
XC:            -847.537182
Entropy (-ST):   -4.179115
Local:          +33.280077
Free energy:   -828.799996
Extrapolated:  -826.710439

Spin contamination: 27.492405 electrons
Showing only first 2 kpts
                      Up                     Down
 Kpt  Band  Eigenvalues  Occupancy  Eigenvalues  Occupancy
  0   470      9.12401    0.99652     10.07973    0.01985
  0   471      9.12905    0.99634     10.09652    0.01684
  0   472      9.14038    0.99591     10.10758    0.01510
  0   473      9.15306    0.99536     10.11556    0.01396

  1   470      9.12282    0.99656     10.08561    0.01874
  1   471      9.14083    0.99589     10.09579    0.01696
  1   472      9.16110    0.99497     10.09824    0.01655
  1   473      9.17469    0.99424     10.12460    0.01277

Fermi level: 9.68980

No gap

Forces in eV/Ang:
  0 Fe   -0.03499    0.13186   -0.15657
  1 Cr    0.04993    0.20926    0.02053
  2 Ni    0.12088   -0.35137   -0.39873
  3 Cr   -0.17945    0.40185    0.19458
  4 Al    0.08867   -0.20462   -0.20123
  5 Fe   -0.26880    0.36185    0.04035
  6 Ni    0.02270    0.40478   -0.41698
  7 Al   -0.39545   -0.12516    0.12565
  8 Al    0.28849    0.66284   -0.39007
  9 Co    0.09545    0.26088   -0.14692
 10 Ni   -0.14657   -0.06541   -0.25724
 11 Co   -0.18756    0.01664   -0.00760
 12 Ni   -0.09460    0.12716    0.04211
 13 Cr    0.03896   -0.07130    0.19196
 14 Fe    0.51183    0.08448   -0.03624
 15 Cr   -0.21124   -0.32172   -0.20841
 16 Co   -0.15737    0.25999    0.10544
 17 Cr   -0.28346    0.22755   -0.74752
 18 Co    0.02433   -0.29081    0.11688
 19 Fe   -0.36645   -0.07191    0.33197
 20 Cr    0.28301    0.41808    0.06333
 21 Fe    0.00960   -0.14800   -0.00971
 22 Co   -0.09681   -0.15814   -0.11621
 23 Al    0.26390    0.67610   -0.11497
 24 Ni    0.01315   -0.09620    0.05404
 25 Cr   -0.45859   -0.36205    0.31595
 26 Cr   -0.19477    0.09036    0.10825
 27 Al    0.23547    0.29618   -0.53301
 28 Cr   -0.13229   -0.16560    0.42734
 29 Cr    0.22009   -0.01089    0.15837
 30 Fe   -0.35958    0.17882   -0.02614
 31 Fe   -0.31933    0.01550   -0.07335
 32 Ni    0.14358    0.04997   -0.18620
 33 Cr    0.10462   -0.20868    0.31574
 34 Co    0.28749    0.27938    0.11885
 35 Ni   -0.13383    0.01238    0.29412
 36 Ni   -0.10789    0.03747   -0.03576
 37 Co    0.20987    0.36384   -0.07600
 38 Co    0.13250   -0.11353   -0.06529
 39 Cr   -0.40139    0.17903   -0.41545
 40 Fe   -0.01101   -0.25449   -0.31521
 41 Al   -0.14947    0.46785    0.03686
 42 Fe    0.16692   -0.15179   -0.01370
 43 Ni   -0.21822    0.29172   -0.01860
 44 Cr   -0.11309    0.08632    0.04189
 45 Co   -0.22796    0.01110    0.17453
 46 Co   -0.16625   -0.06717   -0.26816
 47 Ni   -0.14298   -0.13738    0.07418
 48 Ni    0.32666    0.19726    0.02219
 49 Cr   -0.72661   -0.32232    0.33464
 50 Co    0.27697   -0.13544   -0.17765
 51 Al    0.54647   -0.53684    0.28270
 52 Al    0.01365   -0.15631    0.31383
 53 Fe   -0.00593   -0.01344   -0.45056
 54 Fe    0.12523    0.18526    0.06001
 55 Fe   -0.23190   -0.19631   -0.15806
 56 Ni    0.03671   -0.20139   -0.09077
 57 Ni   -0.00525    0.40571    0.16656
 58 Co    0.05007    0.19285    0.05535
 59 Co    0.03894   -0.00265    0.16835
[...]
 93 Cr   -0.20714    0.11093   -0.29144
 94 Fe    0.07298   -0.48360   -0.11438
 95 Cr    0.62646    0.02398    0.02325
 96 Ni    0.18854   -0.18476   -0.04604
 97 Fe    0.10169   -0.23272    0.00290
 98 Co    0.27572    0.01791    0.29146
 99 Ni    0.41963   -0.26590    0.05089
100 Cr    0.03822    0.05805   -0.02534
101 Al   -0.61202    0.14870   -0.00670
102 Cr    0.34581    0.14186    0.11099
103 Co    0.05468   -0.01068    0.06678
104 Al   -0.51300   -0.02382   -0.11171
105 Ni   -0.19289   -0.05402   -0.04898
106 Co   -0.27135    0.00808   -0.06039
107 Fe   -0.04828   -0.16665   -0.17677

Date: Sat Apr  8 00:28:02 2023