User:   c.zeng@d0022
Date:   Fri Apr 14 20:54:36 2023
Arch:   x86_64
Pid:    191832
CWD:    /home/c.zeng/projects/hea-corrosion/hea-mlp/data-curation/bulk-mcmc/dft-jobs/172
Python: 3.8.1
gpaw:   /home/c.zeng/usr/installs/gpaw/source/gpaw-22.8.0/gpaw
_gpaw:  /home/c.zeng/usr/installs/gpaw/source/gpaw-22.8.0/
        _gpaw.cpython-38-x86_64-linux-gnu.so
ase:    /home/c.zeng/.local/lib/python3.8/site-packages/ase-3.22.1-py3.8.egg/ase (version 3.22.1)
numpy:  /shared/centos7/python/3.8.1/lib/python3.8/site-packages/numpy (version 1.17.4)
scipy:  /shared/centos7/python/3.8.1/lib/python3.8/site-packages/scipy (version 1.4.1)
units:  Angstrom and eV
cores: 30
OpenMP: False
OMP_NUM_THREADS: 1

Input parameters:
  convergence: {energy: 0.0001}
  kpts: [2 2 2]
  maxiter: 666
  mode: {ecut: 350.0,
         name: pw}
  occupations: {fixmagmom: False,
                name: fermi-dirac,
                width: 0.1}
  spinpol: True
  xc: PBE

System changes: positions, numbers, cell, pbc, initial_charges, initial_magmoms

Initialize ...

species:
  Co:
    name: Cobalt
    id: 339d20d5b0b93d2de9531a1bee871d91
    Z: 27.0
    valence: 9
    core: 18
    charge: 0.0
    file: /home/c.zeng/usr/data/gpaw-setups-0.9.20000/Co.PBE.gz
    compensation charges: {type: gauss,
                           rc: 0.32,
                           lmax: 2}
    cutoffs: {filter: 1.87,
              core: 2.55}
    valence states:
      #              energy  rcut
      - 4s(2.00)    -5.469   1.005
      - 4p(0.00)    -1.277   1.058
      - 3d(7.00)    -8.205   1.005
      -  s          21.742   1.005
      -  p          25.934   1.058
      -  d          19.007   1.005

    # Using partial waves for Co as LCAO basis

  Al:
    name: Aluminium
    id: 0292cae29f5d6237e50f6abdd43a7bdd
    Z: 13.0
    valence: 3
    core: 10
    charge: 0.0
    file: /home/c.zeng/usr/data/gpaw-setups-0.9.20000/Al.PBE.gz
    compensation charges: {type: gauss,
                           rc: 0.34,
                           lmax: 2}
    cutoffs: {filter: 1.91,
              core: 2.36}
    valence states:
      #              energy  rcut
      - 3s(2.00)    -7.753   1.085
      - 3p(1.00)    -2.712   1.085
      -  s          19.459   1.085
      -  p          24.499   1.085
      -  d           0.000   1.085

[...]

  Fe:
    name: Iron
    id: 37abbd8d6c3c35915a9b583b742da910
    Z: 26.0
    valence: 8
    core: 18
    charge: 0.0
    file: /home/c.zeng/usr/data/gpaw-setups-0.9.20000/Fe.PBE.gz
    compensation charges: {type: gauss,
                           rc: 0.33,
                           lmax: 2}
    cutoffs: {filter: 2.06,
              core: 2.67}
    valence states:
      #              energy  rcut
      - 4s(2.00)    -5.291   1.164
      - 4p(0.00)    -1.326   1.058
      - 3d(6.00)    -7.505   1.058
      -  s          21.920   1.164
      -  p          25.885   1.058
      -  d          19.706   1.058

[...]

  Cr:
    name: Chromium
    id: 33f258bda2ca9f93018e70263a35547b
    Z: 24.0
    valence: 6
    core: 18
    charge: 0.0
    file: /home/c.zeng/usr/data/gpaw-setups-0.9.20000/Cr.PBE.gz
    compensation charges: {type: gauss,
                           rc: 0.35,
                           lmax: 2}
    cutoffs: {filter: 2.14,
              core: 3.04}
    valence states:
      #              energy  rcut
      - 4s(1.00)    -4.007   1.164
      - 4p(0.00)    -0.989   1.217
      - 3d(5.00)    -2.913   1.111
      -  s          23.205   1.164
      -  p          26.223   1.217
      -  d          24.299   1.111

[...]

  Ni:
    name: Nickel
    id: 0d9f38a9d6e76a2886f07bb4381f212b
    Z: 28.0
    valence: 16
    core: 12
    charge: 0.0
    file: /home/c.zeng/usr/data/gpaw-setups-0.9.20000/Ni.PBE.gz
    compensation charges: {type: gauss,
                           rc: 0.36,
                           lmax: 2}
    cutoffs: {filter: 2.14,
              core: 1.98}
    valence states:
      #              energy  rcut
      - 4s(2.00)    -5.642   1.164
      - 3p(6.00)   -71.394   1.207
      - 4p(0.00)    -1.226   1.207
      - 3d(8.00)    -8.875   1.138
      -  s          21.570   1.164
      -  d          18.337   1.138

    # Using partial waves for Ni as LCAO basis

Reference energy: -3382523.201499  # eV

Spin-polarized calculation.
Magnetic moment: 128.800000

Convergence criteria:
 Maximum [total energy] change in last 3 cyles: 0.0001 eV / electron
 Maximum integral of absolute [dens]ity change: 0.0001 electrons / valence electron
 Maximum integral of absolute [eigenst]ate change: 4e-08 eV^2 / valence electron
 Maximum number of scf [iter]ations: 666
 (Square brackets indicate name in SCF output, whereas a 'c' in
 the SCF output indicates the quantity has converged.)

Symmetries present (total): 1

  ( 1  0  0)
  ( 0  1  0)
  ( 0  0  1)

8 k-points: 2 x 2 x 2 Monkhorst-Pack grid
4 k-points in the irreducible part of the Brillouin zone
       k-points in crystal coordinates                weights
   0:     0.25000000   -0.25000000   -0.25000000          2/8
   1:     0.25000000   -0.25000000    0.25000000          2/8
   2:     0.25000000    0.25000000   -0.25000000          2/8
   3:     0.25000000    0.25000000    0.25000000          2/8

Wave functions: Plane wave expansion
  Cutoff energy: 350.000 eV
  Number of coefficients (min, max): 18865, 18865
  Pulay-stress correction: 0.000000 eV/Ang^3 (de/decut=0.000000)
  Using FFTW library
  ScaLapack parameters: grid=1x1, blocksize=None
  Wavefunction extrapolation:
    Improved wavefunction reuse through dual PAW basis

Occupation numbers: Fermi-Dirac:
  width: 0.1000  # eV

Eigensolver
   Davidson(niter=2)

Densities:
  Coarse grid: 48*48*48 grid
  Fine grid: 96*96*96 grid
  Total Charge: 0.000000

Density mixing:
  Method: difference
  Backend: pulay
  Linear mixing parameter: 0.05
  old densities: 5
  Damping of long wavelength oscillations: 50

Hamiltonian:
  XC and Coulomb potentials evaluated on a 96*96*96 grid
  Using the PBE Exchange-Correlation functional
  External potential:
    NoExternalPotential

XC parameters: PBE with 2 nearest neighbor stencil

Total number of cores used: 30
Parallelization over k-points: 2
Domain decomposition: 5 x 3 x 1

Number of atoms: 108
Number of atomic orbitals: 961
Number of bands in calculation: 649
Number of valence electrons: 945
Bands to converge: occupied

... initialized

Initializing position-dependent things.

Density initialized from atomic densities
Creating initial wave functions:
  649 bands from LCAO basis set

       /|                     Co   |
      / |            Co Co     CrFe|
     /  |       Cr       Ni       Cr
    /   |Fe       Col     FFer     |
   /i   | Coo        Co      Fe    |
  /  CrAl   NCr       Ni           |
 *      Ni     CoFe   AlFeCrCo   Cr|
 |      |CoNi   CrNiAl   NiAlNi   Co
 | CrFe | AlNi   AlAlFe     Ni     |
 |     Co  FeCr Cr  Fe CoNi  CrNi  |
 |      FeNi   AlCr   FeCoCoNi  Fe |
 |Al    |FeCr   AlCrCo   CrFe     Co
 |      .-CrCo-----NiCr-FeFeCrNi---.
 |     /   Ni Co    Cr CoNi    Al /
 |    Fe       AFei       Al     /
 |   /  Fe         Al       Cr  /
 |  /      Co       Al       Co/
 | / Co     Fe       Ni Ni    /
 |/             Cr       Ni  /
 *--------Fe----------------*

Positions:
   0 Co    10.764147   10.861293   10.805330    ( 0.0000,  0.0000,  2.0000)
   1 Co    10.786221    1.792513    1.813624    ( 0.0000,  0.0000,  0.0000)
   2 Co     1.744156    0.036560    1.851269    ( 0.0000,  0.0000,  1.5000)
   3 Al     1.736571    1.831142   10.798805    ( 0.0000,  0.0000,  0.0000)
   4 Fe     3.575126    0.057318    0.061759    ( 0.0000,  0.0000,  0.0000)
   5 Co     3.594289    1.817617    1.845577    ( 0.0000,  0.0000,  2.0000)
   6 Fe     5.429813   10.817005    1.865054    ( 0.0000,  0.0000,  1.5000)
   7 Cr     5.429608    1.929425    0.057134    ( 0.0000,  0.0000,  0.0000)
   8 Fe     7.316909   10.723332    0.087382    ( 0.0000,  0.0000,  0.0000)
   9 Al     7.263142    1.825786    1.869404    ( 0.0000,  0.0000,  2.1000)
  10 Ni     9.063554    0.025226    1.863474    ( 0.0000,  0.0000,  1.5000)
  11 Ni     9.049217    1.829703    0.033106    ( 0.0000,  0.0000,  2.1000)
  12 Ni     0.004792    3.558981   10.794801    ( 0.0000,  0.0000,  1.5000)
  13 Al    10.759710    5.390697    1.778165    ( 0.0000,  0.0000,  0.0000)
  14 Fe     1.733585    3.561849    1.761112    ( 0.0000,  0.0000,  2.0000)
  15 Fe     1.776899    5.391834   10.795505    ( 0.0000,  0.0000,  0.0000)
  16 Fe     3.565452    3.619360   10.832619    ( 0.0000,  0.0000,  2.1000)
  17 Co     3.633221    5.394614    1.719551    ( 0.0000,  0.0000,  0.0000)
  18 Ni     5.471624    3.659114    1.836033    ( 0.0000,  0.0000,  2.1000)
  19 Co     5.440212    5.373060   -0.002773    ( 0.0000,  0.0000,  2.0000)
  20 Ni     7.258997    3.609080    0.031294    ( 0.0000,  0.0000,  0.0000)
  21 Co     7.268941    5.378362    1.785274    ( 0.0000,  0.0000,  2.0000)
  22 Al     9.030724    3.577636    1.833728    ( 0.0000,  0.0000,  2.1000)
  23 Fe     9.040420    5.372281   10.801110    ( 0.0000,  0.0000,  0.0000)
  24 Fe    10.791663    7.196206   10.792486    ( 0.0000,  0.0000,  1.5000)
  25 Co    10.758434    9.040387    1.848239    ( 0.0000,  0.0000,  0.0000)
  26 Cr     1.690487    7.202493    1.786032    ( 0.0000,  0.0000,  0.0000)
  27 Ni     1.652691    8.981047    0.027217    ( 0.0000,  0.0000,  0.0000)
  28 Al     3.631241    7.164437    0.034633    ( 0.0000,  0.0000,  0.0000)
  29 Al     3.625452    9.063759    1.801678    ( 0.0000,  0.0000,  0.0000)
  30 Ni     5.490852    7.187095    1.746342    ( 0.0000,  0.0000,  2.0000)
  31 Cr     5.426935    8.989152    0.009861    ( 0.0000,  0.0000,  2.0000)
  32 Co     7.229122    7.237075   -0.008698    ( 0.0000,  0.0000,  1.5000)
  33 Cr     7.249194    8.995850    1.810713    ( 0.0000,  0.0000,  0.0000)
  34 Cr     9.052073    7.204300    1.764218    ( 0.0000,  0.0000,  2.1000)
  35 Co     9.092553    8.989639   10.808760    ( 0.0000,  0.0000,  1.5000)
  36 Cr    -0.000975   10.826235    3.639789    ( 0.0000,  0.0000,  1.5000)
  37 Al    10.822772    1.771770    5.422044    ( 0.0000,  0.0000,  2.1000)
  38 Ni     1.754263   10.802084    5.428872    ( 0.0000,  0.0000,  2.1000)
  39 Fe     1.741873    1.774270    3.610801    ( 0.0000,  0.0000,  0.0000)
  40 Al     3.591183   10.794152    3.612143    ( 0.0000,  0.0000,  2.0000)
  41 Cr     3.593088    1.736744    5.455177    ( 0.0000,  0.0000,  0.0000)
  42 Al     5.437150   10.794563    5.400804    ( 0.0000,  0.0000,  2.0000)
  43 Fe     5.451931    1.783251    3.601387    ( 0.0000,  0.0000,  1.5000)
  44 Al     7.226222    0.007781    3.626209    ( 0.0000,  0.0000,  0.0000)
  45 Co     7.236069    1.766512    5.381392    ( 0.0000,  0.0000,  2.1000)
  46 Fe     9.034587   10.848850    5.403844    ( 0.0000,  0.0000,  2.1000)
  47 Ni     9.031558    1.804946    3.616730    ( 0.0000,  0.0000,  1.5000)
  48 Ni    10.773885    3.543973    3.617867    ( 0.0000,  0.0000,  1.5000)
  49 Ni    10.772186    5.358409    5.454917    ( 0.0000,  0.0000,  0.0000)
  50 Fe     1.757531    3.575678    5.428937    ( 0.0000,  0.0000,  2.1000)
  51 Fe     1.621766    5.386986    3.572550    ( 0.0000,  0.0000,  0.0000)
  52 Co     3.634303    3.633188    3.540792    ( 0.0000,  0.0000,  0.0000)
  53 Cr     3.550606    5.397969    5.404753    ( 0.0000,  0.0000,  2.0000)
  54 Cr     5.402221    3.610887    5.370193    ( 0.0000,  0.0000,  2.0000)
  55 Cr     5.460241    5.433590    3.575613    ( 0.0000,  0.0000,  2.0000)
  56 Cr     7.250157    3.615183    3.623169    ( 0.0000,  0.0000,  1.5000)
  57 Co     7.248707    5.410715    5.362099    ( 0.0000,  0.0000,  1.5000)
  58 Co     9.058230    3.565236    5.380082    ( 0.0000,  0.0000,  2.1000)
  59 Fe     9.074071    5.365323    3.589008    ( 0.0000,  0.0000,  2.1000)
[...]
  93 Ni     7.211073    5.388295    9.040181    ( 0.0000,  0.0000,  0.0000)
  94 Cr     9.095052    3.598119    8.980636    ( 0.0000,  0.0000,  2.0000)
  95 Al     9.078205    5.402416    7.227759    ( 0.0000,  0.0000,  0.0000)
  96 Cr    10.763411    7.244682    7.260285    ( 0.0000,  0.0000,  1.5000)
  97 Cr    10.795093    9.034566    8.977574    ( 0.0000,  0.0000,  2.0000)
  98 Co     1.740045    7.178947    8.984662    ( 0.0000,  0.0000,  2.1000)
  99 Co     1.734429    9.080207    7.236696    ( 0.0000,  0.0000,  1.5000)
 100 Co     3.580482    7.154277    7.248285    ( 0.0000,  0.0000,  0.0000)
 101 Cr     3.612835    8.970898    8.958086    ( 0.0000,  0.0000,  0.0000)
 102 Al     5.410943    7.155878    9.067049    ( 0.0000,  0.0000,  0.0000)
 103 Co     5.466441    9.064062    7.220963    ( 0.0000,  0.0000,  2.1000)
 104 Fe     7.307203    7.271549    7.289738    ( 0.0000,  0.0000,  0.0000)
 105 Ni     7.271073    9.044683    9.027879    ( 0.0000,  0.0000,  1.5000)
 106 Cr     9.081743    7.219805    9.041166    ( 0.0000,  0.0000,  2.1000)
 107 Fe     9.063684    9.083009    7.213865    ( 0.0000,  0.0000,  2.0000)

Unit cell:
           periodic     x           y           z      points  spacing
  1. axis:    yes   10.820500    0.000000    0.000000    48     0.2254
  2. axis:    yes    0.000000   10.820500    0.000000    48     0.2254
  3. axis:    yes    0.000000    0.000000   10.820500    48     0.2254

  Lengths:  10.820500  10.820500  10.820500
  Angles:   90.000000  90.000000  90.000000

Effective grid spacing dv^(1/3) = 0.2254

     iter     time        total  log10-change:  magmom
                         energy  eigst   dens
iter:   1 20:57:58  -895.093739                  +128.4417
iter:   2 20:59:19  -862.685622  -0.40  -1.31    +95.8067
iter:   3 21:00:39  -843.478286  -0.95  -1.30    +67.2784
iter:   4 21:02:00  -832.836403  -1.27  -1.37    +58.7578
iter:   5 21:03:21  -825.673396  -1.85  -1.40    +53.4440
iter:   6 21:04:41  -827.071796  -1.97  -1.47    +51.3055
iter:   7 21:06:02  -827.094297  -1.65  -1.50    +49.9287
iter:   8 21:07:23  -824.272803  -1.76  -1.54    +49.3443
iter:   9 21:08:43  -827.180449  -1.84  -1.66    +49.8221
iter:  10 21:10:04  -823.084728  -2.02  -1.68    +49.4188
iter:  11 21:11:22  -824.248781  -2.24  -1.80    +50.0158
iter:  12 21:12:41  -822.441326  -2.42  -1.80    +50.6867
iter:  13 21:13:59  -822.950283  -2.58  -1.89    +51.7200
iter:  14 21:15:17  -823.588267  -2.52  -1.93    +52.6826
iter:  15 21:16:36  -824.283857  -2.53  -1.94    +53.4276
iter:  16 21:17:54  -824.677450  -2.40  -1.96    +55.0335
iter:  17 21:19:12  -823.933240  -2.64  -1.96    +55.4760
iter:  18 21:20:31  -824.642588  -2.65  -2.10    +56.4386
iter:  19 21:21:49  -824.089344  -2.84  -2.11    +57.0976
iter:  20 21:23:08  -824.232091  -3.04  -2.20    +58.0841
iter:  21 21:24:26  -824.389817  -3.17  -2.24    +58.8168
iter:  22 21:25:45  -824.705435  -3.13  -2.26    +59.3234
iter:  23 21:27:03  -824.564060  -3.31  -2.24    +60.0090
iter:  24 21:28:22  -824.800699  -3.30  -2.32    +60.5861
iter:  25 21:29:40  -824.769652  -3.44  -2.31    +60.9329
iter:  26 21:30:59  -824.967375  -3.34  -2.38    +61.1172
iter:  27 21:32:17  -825.005946  -3.30  -2.38    +61.2932
iter:  28 21:33:35  -825.188769  -3.22  -2.40    +61.4990
iter:  29 21:34:54  -825.186388  -3.26  -2.42    +61.3956
iter:  30 21:36:12  -825.149022c -3.41  -2.42    +61.4885
iter:  31 21:37:31  -825.113969c -3.58  -2.50    +61.4994
iter:  32 21:38:49  -825.112904c -3.84  -2.57    +61.6271
iter:  33 21:40:08  -825.142426c -4.06  -2.63    +61.6201
iter:  34 21:41:26  -825.168604c -4.34  -2.65    +61.5815
iter:  35 21:42:45  -825.319287  -3.73  -2.70    +61.4731
iter:  36 21:44:03  -825.257658  -4.07  -2.61    +61.4821
iter:  37 21:45:21  -825.295667c -3.97  -2.75    +61.3770
iter:  38 21:46:40  -825.371813  -3.91  -2.91    +61.2111
iter:  39 21:47:58  -825.339910c -4.21  -2.81    +61.1777
iter:  40 21:49:17  -825.396014c -4.23  -3.08    +61.0642
iter:  41 21:50:35  -825.401239c -4.70  -3.01    +61.0363
iter:  42 21:51:53  -825.445236c -4.44  -3.08    +60.9314
iter:  43 21:53:12  -825.488752c -4.55  -3.09    +60.8524
iter:  44 21:54:31  -825.370890  -3.97  -3.03    +61.0248
iter:  45 21:55:50  -825.439115  -4.50  -3.19    +60.9310
iter:  46 21:57:08  -825.448652c -5.02  -3.15    +60.9011
iter:  47 21:58:27  -825.487383c -4.58  -3.23    +60.8316
iter:  48 21:59:45  -825.601031  -3.78  -3.22    +60.5637
iter:  49 22:01:04  -825.706172  -3.79  -3.11    +60.3636
iter:  50 22:02:22  -825.723627  -4.48  -2.93    +60.3321
iter:  51 22:03:41  -825.761327c -4.49  -2.91    +60.2476
iter:  52 22:04:59  -825.933977  -3.22  -2.87    +59.7378
iter:  53 22:06:18  -825.950205  -3.87  -2.70    +59.8272
iter:  54 22:07:37  -825.931723c -4.07  -2.65    +59.8361
iter:  55 22:08:55  -825.942514c -4.48  -2.69    +59.8459
iter:  56 22:10:14  -826.017711c -3.90  -2.67    +59.8649
iter:  57 22:11:33  -825.872032  -3.28  -2.57    +59.9094
iter:  58 22:12:51  -825.822152  -3.78  -2.67    +59.9653
iter:  59 22:14:10  -825.891330c -3.67  -2.75    +59.9310
iter:  60 22:15:28  -825.772112  -4.13  -2.66    +59.8903
iter:  61 22:16:47  -825.787995  -4.32  -2.93    +59.8904
iter:  62 22:18:06  -825.800565c -4.08  -2.91    +59.8953
iter:  63 22:19:24  -825.786972c -4.26  -2.89    +59.8477
iter:  64 22:20:43  -825.790198c -4.32  -2.98    +59.9172
iter:  65 22:22:01  -825.773127c -4.52  -2.96    +59.9720
iter:  66 22:23:20  -825.787445c -4.57  -3.13    +60.0318
iter:  67 22:24:38  -825.771950c -4.85  -3.06    +60.0321
iter:  68 22:25:57  -825.773644c -5.11  -3.21    +60.0650
iter:  69 22:27:15  -825.773193c -5.12  -3.23    +60.1056
iter:  70 22:28:34  -825.774012c -5.24  -3.23    +60.1055
iter:  71 22:29:52  -825.774355c -5.35  -3.29    +60.1502
iter:  72 22:31:10  -825.775775c -5.14  -3.29    +60.1715
iter:  73 22:32:29  -825.776405c -5.19  -3.27    +60.1994
iter:  74 22:33:47  -825.775198c -5.25  -3.32    +60.2242
iter:  75 22:35:06  -825.777891c -5.26  -3.33    +60.2325
iter:  76 22:36:24  -825.774966c -5.36  -3.35    +60.2677
iter:  77 22:37:43  -825.774653c -5.51  -3.38    +60.2845
iter:  78 22:39:01  -825.775851c -5.78  -3.43    +60.3076
iter:  79 22:40:20  -825.774928c -5.72  -3.46    +60.3250
iter:  80 22:41:38  -825.776388c -5.66  -3.48    +60.3425
iter:  81 22:42:57  -825.775639c -5.76  -3.45    +60.3653
iter:  82 22:44:15  -825.777799c -5.51  -3.51    +60.3679
iter:  83 22:45:34  -825.778345c -5.39  -3.51    +60.3845
iter:  84 22:46:52  -825.777299c -5.48  -3.47    +60.4143
iter:  85 22:48:11  -825.777517c -5.58  -3.55    +60.4326
iter:  86 22:49:29  -825.777524c -5.57  -3.63    +60.4478
iter:  87 22:50:47  -825.777388c -6.01  -3.57    +60.4518
iter:  88 22:52:06  -825.776715c -6.11  -3.73    +60.4794
iter:  89 22:53:24  -825.776875c -6.30  -3.75    +60.4824
iter:  90 22:54:43  -825.777155c -6.66  -3.78    +60.4931
iter:  91 22:56:01  -825.777153c -6.10  -3.84    +60.5028
iter:  92 22:57:20  -825.777989c -5.97  -3.76    +60.5091
iter:  93 22:58:39  -825.777249c -6.13  -3.83    +60.5236
iter:  94 22:59:58  -825.778971c -5.93  -3.98    +60.5249
iter:  95 23:01:17  -825.777697c -6.26  -3.83    +60.5340
iter:  96 23:02:35  -825.777553c -6.52  -4.17c   +60.5446
iter:  97 23:03:54  -825.777872c -6.75  -4.18c   +60.5542
iter:  98 23:05:13  -825.777844c -7.11  -4.24c   +60.5643
iter:  99 23:06:32  -825.778028c -6.95  -4.37c   +60.5775
iter: 100 23:07:50  -825.778132c -7.35  -4.36c   +60.5869
iter: 101 23:09:09  -825.778639c -6.25  -4.35c   +60.6359
iter: 102 23:10:28  -825.778340c -6.73  -4.24c   +60.5995
iter: 103 23:11:47  -825.778836c -6.53  -4.30c   +60.6424
iter: 104 23:13:06  -825.779017c -6.70  -4.22c   +60.6638
iter: 105 23:14:25  -825.778957c -6.82  -4.20c   +60.6542
iter: 106 23:15:44  -825.778963c -6.87  -4.09c   +60.6724
iter: 107 23:17:03  -825.779028c -6.74  -4.18c   +60.6882
iter: 108 23:18:22  -825.779040c -6.25  -4.07c   +60.6827
iter: 109 23:19:40  -825.779780c -6.00  -3.90    +60.6948
iter: 110 23:20:59  -825.779016c -6.81  -3.87    +60.6912
iter: 111 23:22:18  -825.779100c -6.79  -4.19c   +60.6949
iter: 112 23:23:38  -825.779364c -6.69  -4.12c   +60.6918
iter: 113 23:24:57  -825.779116c -7.04  -4.15c   +60.6863
iter: 114 23:26:16  -825.779117c -7.60c -4.29c   +60.6861

Converged after 114 iterations.

Dipole moment: (29.028521, -3.740364, -9.716296) |e|*Ang

Total magnetic moment: (0.000000, 0.000000, 60.686064)
Local magnetic moments:
   0 Co ( 0.000000,  0.000000,  1.255470)
   1 Co ( 0.000000,  0.000000,  1.362242)
   2 Co ( 0.000000,  0.000000,  1.338729)
   3 Al ( 0.000000,  0.000000, -0.046453)
   4 Fe ( 0.000000,  0.000000,  2.438613)
   5 Co ( 0.000000,  0.000000,  1.391058)
   6 Fe ( 0.000000,  0.000000,  1.917830)
   7 Cr ( 0.000000,  0.000000, -2.430566)
   8 Fe ( 0.000000,  0.000000,  2.221056)
   9 Al ( 0.000000,  0.000000, -0.012358)
  10 Ni ( 0.000000,  0.000000,  0.162091)
  11 Ni ( 0.000000,  0.000000,  0.164960)
  12 Ni ( 0.000000,  0.000000,  0.217947)
  13 Al ( 0.000000,  0.000000, -0.041655)
  14 Fe ( 0.000000,  0.000000,  2.272524)
  15 Fe ( 0.000000,  0.000000,  2.017810)
  16 Fe ( 0.000000,  0.000000,  2.340394)
  17 Co ( 0.000000,  0.000000,  1.054573)
  18 Ni ( 0.000000,  0.000000,  0.257949)
  19 Co ( 0.000000,  0.000000,  1.116635)
  20 Ni ( 0.000000,  0.000000,  0.127726)
  21 Co ( 0.000000,  0.000000,  1.228450)
  22 Al ( 0.000000,  0.000000, -0.023346)
  23 Fe ( 0.000000,  0.000000,  2.071769)
  24 Fe ( 0.000000,  0.000000,  1.659085)
  25 Co ( 0.000000,  0.000000,  0.935661)
  26 Cr ( 0.000000,  0.000000, -1.915293)
  27 Ni ( 0.000000,  0.000000,  0.117974)
  28 Al ( 0.000000,  0.000000, -0.007399)
  29 Al ( 0.000000,  0.000000, -0.026152)
  30 Ni ( 0.000000,  0.000000,  0.314669)
  31 Cr ( 0.000000,  0.000000,  1.676603)
  32 Co ( 0.000000,  0.000000,  0.962608)
  33 Cr ( 0.000000,  0.000000, -1.337843)
  34 Cr ( 0.000000,  0.000000, -1.679327)
  35 Co ( 0.000000,  0.000000,  0.986546)
  36 Cr ( 0.000000,  0.000000, -1.519143)
  37 Al ( 0.000000,  0.000000, -0.031492)
  38 Ni ( 0.000000,  0.000000,  0.170704)
  39 Fe ( 0.000000,  0.000000,  2.224500)
  40 Al ( 0.000000,  0.000000, -0.034980)
  41 Cr ( 0.000000,  0.000000, -1.991018)
  42 Al ( 0.000000,  0.000000, -0.025566)
  43 Fe ( 0.000000,  0.000000,  1.891224)
  44 Al ( 0.000000,  0.000000, -0.029902)
  45 Co ( 0.000000,  0.000000,  0.827119)
  46 Fe ( 0.000000,  0.000000,  1.975197)
  47 Ni ( 0.000000,  0.000000,  0.167641)
  48 Ni ( 0.000000,  0.000000,  0.370552)
  49 Ni ( 0.000000,  0.000000,  0.253321)
  50 Fe ( 0.000000,  0.000000,  2.295980)
  51 Fe ( 0.000000,  0.000000,  2.253472)
  52 Co ( 0.000000,  0.000000,  1.228356)
  53 Cr ( 0.000000,  0.000000, -2.112972)
  54 Cr ( 0.000000,  0.000000,  1.031206)
  55 Cr ( 0.000000,  0.000000,  1.484601)
  56 Cr ( 0.000000,  0.000000, -1.571826)
  57 Co ( 0.000000,  0.000000,  1.194929)
  58 Co ( 0.000000,  0.000000,  1.193031)
  59 Fe ( 0.000000,  0.000000,  2.182934)
[...]
  93 Ni ( 0.000000,  0.000000,  0.288583)
  94 Cr ( 0.000000,  0.000000,  1.357042)
  95 Al ( 0.000000,  0.000000, -0.011656)
  96 Cr ( 0.000000,  0.000000,  0.997485)
  97 Cr ( 0.000000,  0.000000, -0.683828)
  98 Co ( 0.000000,  0.000000,  0.494254)
  99 Co ( 0.000000,  0.000000,  0.841596)
 100 Co ( 0.000000,  0.000000,  0.313457)
 101 Cr ( 0.000000,  0.000000, -2.235667)
 102 Al ( 0.000000,  0.000000, -0.013862)
 103 Co ( 0.000000,  0.000000,  1.089958)
 104 Fe ( 0.000000,  0.000000,  2.495545)
 105 Ni ( 0.000000,  0.000000,  0.248334)
 106 Cr ( 0.000000,  0.000000, -1.257312)
 107 Fe ( 0.000000,  0.000000,  1.926992)

Energy contributions relative to reference atoms: (reference = -3382523.201499)

Kinetic:       +227.970026
Potential:     -234.799688
External:        +0.000000
XC:            -850.128637
Entropy (-ST):   -4.191696
Local:          +33.275030
Free energy:   -827.874965
Extrapolated:  -825.779117

Spin contamination: 29.565824 electrons
Showing only first 2 kpts
                      Up                     Down
 Kpt  Band  Eigenvalues  Occupancy  Eigenvalues  Occupancy
  0   470      9.12924    0.99621     10.06774    0.02157
  0   471      9.13992    0.99578     10.07570    0.01995
  0   472      9.16092    0.99480     10.08996    0.01735
  0   473      9.17897    0.99378     10.10357    0.01517

  1   470      9.13101    0.99614     10.05103    0.02539
  1   471      9.15109    0.99528     10.06268    0.02266
  1   472      9.16400    0.99464     10.07850    0.01941
  1   473      9.17742    0.99387     10.09200    0.01700

Fermi level: 9.68627

No gap

Forces in eV/Ang:
  0 Co    0.17990   -0.51423    0.30185
  1 Co    0.45349   -0.28916    0.05970
  2 Co   -0.02158   -0.17357   -0.52653
  3 Al    0.05170   -0.30773    0.03955
  4 Fe    0.35786    0.06968   -0.54052
  5 Co    0.06463    0.25810   -0.11918
  6 Fe    0.30731    0.44205   -0.78234
  7 Cr   -1.06976   -1.01327   -0.80322
  8 Fe   -0.52416    0.44549   -0.48182
  9 Al   -0.25083   -0.52888   -1.24850
 10 Ni   -0.18128   -0.21486   -0.34134
 11 Ni   -0.20189   -0.34830   -0.37202
 12 Ni   -0.29705    0.54224    0.08325
 13 Al    0.78953   -0.31704   -0.22816
 14 Fe    0.57217    0.23253    0.91437
 15 Fe   -0.24416   -0.06538    0.05074
 16 Fe    0.60325    0.10448    0.39481
 17 Co   -0.30852   -0.44051    0.58340
 18 Ni   -0.44008   -0.18776    0.00245
 19 Co    0.23437   -0.28853    0.33106
 20 Ni   -0.16995    0.02751   -0.36562
 21 Co   -0.02595    0.53506   -0.04401
 22 Al    0.45824   -0.22695   -0.69756
 23 Fe   -0.49104    0.73080   -0.45978
 24 Fe    0.32812    0.19569   -0.12703
 25 Co    0.28149    0.01281   -0.34369
 26 Cr   -0.64110    0.09424    0.16965
 27 Ni    0.69536    0.45255   -0.19848
 28 Al   -0.82518   -0.03694    0.31376
 29 Al   -0.61522    0.36114   -0.96087
 30 Ni   -0.11327   -0.00253    0.39980
 31 Cr    0.65045    0.92362   -0.50414
 32 Co    0.47047   -0.17713    0.22894
 33 Cr    0.01043   -0.00226   -0.54006
 34 Cr   -0.55148    0.38260   -0.14462
 35 Co   -0.14357    0.01879    0.17016
 36 Cr   -0.01542   -0.68548   -0.84298
 37 Al   -0.07094    0.15964    0.07074
 38 Ni    0.30155   -0.04563    0.14264
 39 Fe    0.57371    0.45596   -0.42984
 40 Al   -0.58657    0.87501   -0.46513
 41 Cr   -0.45793    1.42618    0.24361
 42 Al    0.27356   -0.16716    0.98976
 43 Fe   -0.65924    0.63771   -0.06660
 44 Al    0.86622   -0.14380    0.04663
 45 Co    0.12327    0.47116    0.40753
 46 Fe    0.01502   -0.18850    0.10572
 47 Ni   -0.13891   -0.15090    0.06086
 48 Ni    0.46435    0.38377   -0.10901
 49 Ni    0.28826    0.18591   -0.32970
 50 Fe    0.76994    0.42073   -0.14590
 51 Fe    1.25053   -0.05184    0.19121
 52 Co   -0.25751   -0.05052    0.02382
 53 Cr   -0.10016   -0.82330   -0.02274
 54 Cr   -0.03640    0.13842    0.32539
 55 Cr   -0.00634   -0.38162   -0.16394
 56 Cr   -0.87159    0.60027    1.39087
 57 Co    0.21778    0.21156    0.20771
 58 Co   -0.64782    0.12001    0.34227
 59 Fe   -0.67307    0.61929    0.88198
[...]
 93 Ni    0.40685   -0.12591   -0.20149
 94 Cr    0.30251    0.27076    0.41759
 95 Al   -1.29068   -0.06007   -0.99878
 96 Cr    0.16554    0.30974    0.80861
 97 Cr    0.46252   -0.05782    0.37397
 98 Co    0.18936    0.32441   -0.26042
 99 Co    0.15857   -0.32882    0.31531
100 Co   -0.37082    0.61018    0.05791
101 Cr   -0.35350    0.91541    0.04275
102 Al    1.17146    0.00207   -1.30118
103 Co   -0.20761   -0.35176    0.40166
104 Fe   -0.20809   -0.11838   -0.53933
105 Ni   -0.02726    0.11415    0.09826
106 Cr   -0.88351    0.55326    0.46340
107 Fe   -0.29508   -0.06432   -0.11318

Date: Fri Apr 14 23:26:33 2023