User:   c.zeng@d0038
Date:   Fri Apr 14 00:39:28 2023
Arch:   x86_64
Pid:    84138
CWD:    /home/c.zeng/projects/hea-corrosion/hea-mlp/data-curation/bulk-md/dft-jobs/68
Python: 3.8.1
gpaw:   /home/c.zeng/usr/installs/gpaw/source/gpaw-22.8.0/gpaw
_gpaw:  /home/c.zeng/usr/installs/gpaw/source/gpaw-22.8.0/
        _gpaw.cpython-38-x86_64-linux-gnu.so
ase:    /home/c.zeng/.local/lib/python3.8/site-packages/ase-3.22.1-py3.8.egg/ase (version 3.22.1)
numpy:  /shared/centos7/python/3.8.1/lib/python3.8/site-packages/numpy (version 1.17.4)
scipy:  /shared/centos7/python/3.8.1/lib/python3.8/site-packages/scipy (version 1.4.1)
units:  Angstrom and eV
cores: 30
OpenMP: False
OMP_NUM_THREADS: 1

Input parameters:
  convergence: {energy: 0.0001}
  kpts: [2 2 2]
  maxiter: 666
  mode: {ecut: 350.0,
         name: pw}
  occupations: {fixmagmom: False,
                name: fermi-dirac,
                width: 0.1}
  spinpol: True
  xc: PBE

System changes: positions, numbers, cell, pbc, initial_charges, initial_magmoms

Initialize ...

species:
  Fe:
    name: Iron
    id: 37abbd8d6c3c35915a9b583b742da910
    Z: 26.0
    valence: 8
    core: 18
    charge: 0.0
    file: /home/c.zeng/usr/data/gpaw-setups-0.9.20000/Fe.PBE.gz
    compensation charges: {type: gauss,
                           rc: 0.33,
                           lmax: 2}
    cutoffs: {filter: 2.06,
              core: 2.67}
    valence states:
      #              energy  rcut
      - 4s(2.00)    -5.291   1.164
      - 4p(0.00)    -1.326   1.058
      - 3d(6.00)    -7.505   1.058
      -  s          21.920   1.164
      -  p          25.885   1.058
      -  d          19.706   1.058

    # Using partial waves for Fe as LCAO basis

  Cr:
    name: Chromium
    id: 33f258bda2ca9f93018e70263a35547b
    Z: 24.0
    valence: 6
    core: 18
    charge: 0.0
    file: /home/c.zeng/usr/data/gpaw-setups-0.9.20000/Cr.PBE.gz
    compensation charges: {type: gauss,
                           rc: 0.35,
                           lmax: 2}
    cutoffs: {filter: 2.14,
              core: 3.04}
    valence states:
      #              energy  rcut
      - 4s(1.00)    -4.007   1.164
      - 4p(0.00)    -0.989   1.217
      - 3d(5.00)    -2.913   1.111
      -  s          23.205   1.164
      -  p          26.223   1.217
      -  d          24.299   1.111

[...]

  Ni:
    name: Nickel
    id: 0d9f38a9d6e76a2886f07bb4381f212b
    Z: 28.0
    valence: 16
    core: 12
    charge: 0.0
    file: /home/c.zeng/usr/data/gpaw-setups-0.9.20000/Ni.PBE.gz
    compensation charges: {type: gauss,
                           rc: 0.36,
                           lmax: 2}
    cutoffs: {filter: 2.14,
              core: 1.98}
    valence states:
      #              energy  rcut
      - 4s(2.00)    -5.642   1.164
      - 3p(6.00)   -71.394   1.207
      - 4p(0.00)    -1.226   1.207
      - 3d(8.00)    -8.875   1.138
      -  s          21.570   1.164
      -  d          18.337   1.138

[...]

  Al:
    name: Aluminium
    id: 0292cae29f5d6237e50f6abdd43a7bdd
    Z: 13.0
    valence: 3
    core: 10
    charge: 0.0
    file: /home/c.zeng/usr/data/gpaw-setups-0.9.20000/Al.PBE.gz
    compensation charges: {type: gauss,
                           rc: 0.34,
                           lmax: 2}
    cutoffs: {filter: 1.91,
              core: 2.36}
    valence states:
      #              energy  rcut
      - 3s(2.00)    -7.753   1.085
      - 3p(1.00)    -2.712   1.085
      -  s          19.459   1.085
      -  p          24.499   1.085
      -  d           0.000   1.085

[...]

  Co:
    name: Cobalt
    id: 339d20d5b0b93d2de9531a1bee871d91
    Z: 27.0
    valence: 9
    core: 18
    charge: 0.0
    file: /home/c.zeng/usr/data/gpaw-setups-0.9.20000/Co.PBE.gz
    compensation charges: {type: gauss,
                           rc: 0.32,
                           lmax: 2}
    cutoffs: {filter: 1.87,
              core: 2.55}
    valence states:
      #              energy  rcut
      - 4s(2.00)    -5.469   1.005
      - 4p(0.00)    -1.277   1.058
      - 3d(7.00)    -8.205   1.005
      -  s          21.742   1.005
      -  p          25.934   1.058
      -  d          19.007   1.005

    # Using partial waves for Co as LCAO basis

Reference energy: -3382523.201499  # eV

Spin-polarized calculation.
Magnetic moment: 128.800000

Convergence criteria:
 Maximum [total energy] change in last 3 cyles: 0.0001 eV / electron
 Maximum integral of absolute [dens]ity change: 0.0001 electrons / valence electron
 Maximum integral of absolute [eigenst]ate change: 4e-08 eV^2 / valence electron
 Maximum number of scf [iter]ations: 666
 (Square brackets indicate name in SCF output, whereas a 'c' in
 the SCF output indicates the quantity has converged.)

Symmetries present (total): 1

  ( 1  0  0)
  ( 0  1  0)
  ( 0  0  1)

8 k-points: 2 x 2 x 2 Monkhorst-Pack grid
4 k-points in the irreducible part of the Brillouin zone
       k-points in crystal coordinates                weights
   0:     0.25000000   -0.25000000   -0.25000000          2/8
   1:     0.25000000   -0.25000000    0.25000000          2/8
   2:     0.25000000    0.25000000   -0.25000000          2/8
   3:     0.25000000    0.25000000    0.25000000          2/8

Wave functions: Plane wave expansion
  Cutoff energy: 350.000 eV
  Number of coefficients (min, max): 18865, 18865
  Pulay-stress correction: 0.000000 eV/Ang^3 (de/decut=0.000000)
  Using FFTW library
  ScaLapack parameters: grid=1x1, blocksize=None
  Wavefunction extrapolation:
    Improved wavefunction reuse through dual PAW basis

Occupation numbers: Fermi-Dirac:
  width: 0.1000  # eV

Eigensolver
   Davidson(niter=2)

Densities:
  Coarse grid: 48*48*48 grid
  Fine grid: 96*96*96 grid
  Total Charge: 0.000000

Density mixing:
  Method: difference
  Backend: pulay
  Linear mixing parameter: 0.05
  old densities: 5
  Damping of long wavelength oscillations: 50

Hamiltonian:
  XC and Coulomb potentials evaluated on a 96*96*96 grid
  Using the PBE Exchange-Correlation functional
  External potential:
    NoExternalPotential

XC parameters: PBE with 2 nearest neighbor stencil

Total number of cores used: 30
Parallelization over k-points: 2
Domain decomposition: 5 x 3 x 1

Number of atoms: 108
Number of atomic orbitals: 961
Number of bands in calculation: 649
Number of valence electrons: 945
Bands to converge: occupied

... initialized

Initializing position-dependent things.

Density initialized from atomic densities
Creating initial wave functions:
  649 bands from LCAO basis set

      Ni|            Cr            |
     /  |       AlFe    Nii      Fe|
    /   |Cr        Cr       Al    Fe
   /    | CoiCo          Co  CNi   |
  /  FeCr     Fe    Co Cr    Feo   |
 *    NiCo     CrNi  Fe AlFeFe     |
 |     CoCr Fe    CoAl   FeCrCo    |
 |  NCo | AlNi    Al AlNiCr Cr     |
 |     Co  NiFe     Ni Ni     CCr  |
 |      CoFe  AlFee    ANiCo    Fe |
 |Co    Al Al  Cr FeCo   CrCo     Cr
 |  NCo .-Cr-Al-----FeNi--Al-Co----.
 |     Cr Al    Ni   Fe       NCr /
 |    /       Cr Co     FNioNi   /
 | Cr/  FeFee       Co          /
 |  /                Cr        /
 | / Ni       Ni        Nio   /
 |/            Al            /
 *--------Al----------------*

Positions:
   0 Fe    10.683877   10.997324   10.651121    ( 0.0000,  0.0000,  2.0000)
   1 Cr    11.025483    1.891673    1.932545    ( 0.0000,  0.0000,  0.0000)
   2 Ni     1.712625    0.056786    1.747778    ( 0.0000,  0.0000,  1.5000)
   3 Cr     1.776704    1.844421   10.814374    ( 0.0000,  0.0000,  0.0000)
   4 Al     3.420454    0.279311    0.020137    ( 0.0000,  0.0000,  0.0000)
   5 Fe     3.565083    2.028126    1.869782    ( 0.0000,  0.0000,  2.0000)
   6 Ni     5.099145   10.895477    1.847951    ( 0.0000,  0.0000,  1.5000)
   7 Al     5.268340    1.977801    0.179020    ( 0.0000,  0.0000,  0.0000)
   8 Al     7.341310   10.809692    0.194657    ( 0.0000,  0.0000,  0.0000)
   9 Co     7.218738    1.893152    1.928243    ( 0.0000,  0.0000,  2.1000)
  10 Ni     9.057425    0.085336    1.834590    ( 0.0000,  0.0000,  1.5000)
  11 Co     8.995960    2.128200    0.252847    ( 0.0000,  0.0000,  2.1000)
  12 Ni    -0.055969    3.488312   10.708015    ( 0.0000,  0.0000,  1.5000)
  13 Cr    10.678833    5.405260    1.692545    ( 0.0000,  0.0000,  0.0000)
  14 Fe     1.655719    3.702578    1.599283    ( 0.0000,  0.0000,  2.0000)
  15 Cr     1.946896    5.365910   10.716340    ( 0.0000,  0.0000,  0.0000)
  16 Co     3.694933    3.546237   10.748370    ( 0.0000,  0.0000,  2.1000)
  17 Cr     3.764834    5.290126    1.645945    ( 0.0000,  0.0000,  0.0000)
  18 Co     5.619589    3.802570    1.870311    ( 0.0000,  0.0000,  2.1000)
  19 Fe     5.435378    5.640353   -0.108811    ( 0.0000,  0.0000,  2.0000)
  20 Cr     7.235716    3.542238    0.256785    ( 0.0000,  0.0000,  0.0000)
  21 Fe     7.627070    5.404426    1.583169    ( 0.0000,  0.0000,  2.0000)
  22 Co     9.136862    3.505294    2.129613    ( 0.0000,  0.0000,  2.1000)
  23 Al     9.342991    5.113233   10.499641    ( 0.0000,  0.0000,  0.0000)
  24 Ni    10.978727    7.099905   10.815423    ( 0.0000,  0.0000,  1.5000)
  25 Cr    10.724428    9.240560    1.995331    ( 0.0000,  0.0000,  0.0000)
  26 Cr     1.540950    7.307241    1.797189    ( 0.0000,  0.0000,  0.0000)
  27 Al     1.374714    9.140021    0.170845    ( 0.0000,  0.0000,  0.0000)
  28 Cr     3.463522    7.263570    0.120151    ( 0.0000,  0.0000,  0.0000)
  29 Cr     3.364435    9.145026    1.737627    ( 0.0000,  0.0000,  0.0000)
  30 Fe     5.590845    7.048532    1.790868    ( 0.0000,  0.0000,  2.0000)
  31 Fe     5.497099    9.254110    0.080899    ( 0.0000,  0.0000,  2.0000)
  32 Ni     7.252681    6.998553   -0.049195    ( 0.0000,  0.0000,  1.5000)
  33 Cr     7.326479    8.773177    1.735611    ( 0.0000,  0.0000,  0.0000)
  34 Co     9.154419    7.235612    1.829753    ( 0.0000,  0.0000,  2.1000)
  35 Ni     9.157233    8.825300   10.902928    ( 0.0000,  0.0000,  1.5000)
  36 Ni    -0.012089   10.912675    3.742347    ( 0.0000,  0.0000,  1.5000)
  37 Co    10.893513    1.697111    5.408121    ( 0.0000,  0.0000,  2.1000)
  38 Co     1.593067   10.983212    5.707342    ( 0.0000,  0.0000,  2.1000)
  39 Cr     1.828107    1.942193    3.575309    ( 0.0000,  0.0000,  0.0000)
  40 Fe     3.502940   10.860795    3.657997    ( 0.0000,  0.0000,  2.0000)
  41 Al     3.539458    1.697807    5.353213    ( 0.0000,  0.0000,  0.0000)
  42 Fe     5.322183   10.623418    5.405693    ( 0.0000,  0.0000,  2.0000)
  43 Ni     5.605148    1.846633    3.721484    ( 0.0000,  0.0000,  1.5000)
  44 Cr     6.906328   -0.459941    3.622202    ( 0.0000,  0.0000,  0.0000)
  45 Co     7.251477    1.815752    5.427109    ( 0.0000,  0.0000,  2.1000)
  46 Co     8.866234   10.499411    5.699444    ( 0.0000,  0.0000,  2.1000)
  47 Ni     9.165447    1.688750    3.492679    ( 0.0000,  0.0000,  1.5000)
  48 Ni    10.923441    3.497746    3.671178    ( 0.0000,  0.0000,  1.5000)
  49 Cr    10.648218    5.360270    5.535244    ( 0.0000,  0.0000,  0.0000)
  50 Co     1.920684    3.766732    5.152353    ( 0.0000,  0.0000,  2.1000)
  51 Al     1.492388    5.544026    3.304342    ( 0.0000,  0.0000,  0.0000)
  52 Al     3.746333    3.951470    3.542562    ( 0.0000,  0.0000,  0.0000)
  53 Fe     3.482730    5.512921    5.041394    ( 0.0000,  0.0000,  2.0000)
  54 Fe     5.297283    3.642464    5.220587    ( 0.0000,  0.0000,  2.0000)
  55 Fe     5.495828    5.450734    3.710833    ( 0.0000,  0.0000,  2.0000)
  56 Ni     7.386757    3.757913    3.774112    ( 0.0000,  0.0000,  1.5000)
  57 Ni     7.278747    5.522903    5.428008    ( 0.0000,  0.0000,  1.5000)
  58 Co     9.208899    3.491579    5.516712    ( 0.0000,  0.0000,  2.1000)
  59 Co     9.183251    5.365774    3.654553    ( 0.0000,  0.0000,  2.1000)
[...]
  93 Cr     7.401279    5.335106    8.800108    ( 0.0000,  0.0000,  0.0000)
  94 Fe     9.294608    3.448439    8.799693    ( 0.0000,  0.0000,  2.0000)
  95 Cr     9.078028    5.239257    7.211086    ( 0.0000,  0.0000,  0.0000)
  96 Ni    10.950898    7.230646    7.164237    ( 0.0000,  0.0000,  1.5000)
  97 Fe    10.673339    8.857158    9.106462    ( 0.0000,  0.0000,  2.0000)
  98 Co     1.859030    6.940544    9.099720    ( 0.0000,  0.0000,  2.1000)
  99 Ni     1.765127    9.047849    7.479759    ( 0.0000,  0.0000,  1.5000)
 100 Cr     3.775313    6.917115    7.376603    ( 0.0000,  0.0000,  0.0000)
 101 Al     3.769085    8.973492    9.098811    ( 0.0000,  0.0000,  0.0000)
 102 Cr     5.450677    7.330476    9.188083    ( 0.0000,  0.0000,  0.0000)
 103 Co     5.250460    8.755518    7.211941    ( 0.0000,  0.0000,  2.1000)
 104 Al     7.179408    7.260611    7.269694    ( 0.0000,  0.0000,  0.0000)
 105 Ni     7.447729    8.952229    9.104212    ( 0.0000,  0.0000,  1.5000)
 106 Co     9.231701    7.036293    9.014176    ( 0.0000,  0.0000,  2.1000)
 107 Fe     9.114471    8.717697    7.327167    ( 0.0000,  0.0000,  2.0000)

Unit cell:
           periodic     x           y           z      points  spacing
  1. axis:    yes   10.820500    0.000000    0.000000    48     0.2254
  2. axis:    yes    0.000000   10.820500    0.000000    48     0.2254
  3. axis:    yes    0.000000    0.000000   10.820500    48     0.2254

  Lengths:  10.820500  10.820500  10.820500
  Angles:   90.000000  90.000000  90.000000

Effective grid spacing dv^(1/3) = 0.2254

     iter     time        total  log10-change:  magmom
                         energy  eigst   dens
iter:   1 00:44:08  -976.699039                  +129.0867
iter:   2 00:46:14  -867.188631  -0.21  -1.17    +70.6856
iter:   3 00:48:22  -857.026423  -0.83  -1.19    +60.7928
iter:   4 00:50:28  -833.975751  -1.23  -1.27    +56.4414
iter:   5 00:52:35  -826.127896  -1.55  -1.29    +53.9723
iter:   6 00:54:42  -825.789802  -1.32  -1.34    +54.5632
iter:   7 00:56:49  -821.302539  -1.23  -1.40    +53.3257
iter:   8 00:58:56  -812.560005  -1.58  -1.50    +52.4278
iter:   9 01:01:03  -810.190843  -1.86  -1.64    +53.2308
iter:  10 01:03:09  -807.860394  -2.38  -1.72    +53.8413
iter:  11 01:05:17  -808.401255  -2.41  -1.79    +56.3342
iter:  12 01:07:23  -809.187980  -2.41  -1.84    +57.4369
iter:  13 01:09:29  -809.221686  -2.37  -1.87    +58.4394
iter:  14 01:11:37  -809.149411c -2.52  -1.94    +59.7672
iter:  15 01:13:43  -808.679637  -2.81  -1.97    +59.9558
iter:  16 01:16:40  -808.798139  -2.93  -2.06    +60.3767
iter:  17 01:18:50  -808.987045  -2.97  -2.08    +61.2094
iter:  18 01:20:56  -808.622128  -2.98  -2.11    +61.3163
iter:  19 01:23:03  -808.656783  -3.06  -2.24    +61.7335
iter:  20 01:25:11  -808.705901c -3.26  -2.31    +62.1520
iter:  21 01:27:18  -808.669201c -3.40  -2.34    +62.4740
iter:  22 01:29:25  -808.670343c -3.35  -2.39    +62.6535
iter:  23 01:31:33  -808.706660c -3.57  -2.46    +62.8424
iter:  24 01:33:40  -808.681904c -3.60  -2.49    +62.9189
iter:  25 01:35:46  -808.729733c -3.81  -2.56    +63.0992
iter:  26 01:37:53  -808.786034  -3.74  -2.59    +63.1511
iter:  27 01:40:01  -808.768511c -3.86  -2.59    +63.1895
iter:  28 01:42:08  -808.787952c -4.00  -2.65    +63.1858
iter:  29 01:44:15  -808.802326c -4.21  -2.71    +63.2872
iter:  30 01:46:21  -808.831558c -4.24  -2.75    +63.1560
iter:  31 01:48:29  -808.865211c -4.15  -2.79    +63.1768
iter:  32 01:50:36  -808.874035c -4.36  -2.81    +63.1232
iter:  33 01:52:43  -808.898701c -4.34  -2.86    +63.0653
iter:  34 01:54:51  -808.923538c -4.35  -2.88    +62.9455
iter:  35 01:56:58  -808.936823c -4.55  -2.92    +62.9612
iter:  36 01:59:06  -808.957792c -4.39  -2.94    +62.7887
iter:  37 02:01:13  -808.980208c -4.45  -2.98    +62.7333
iter:  38 02:03:21  -808.992977c -4.52  -3.00    +62.6708
iter:  39 02:05:27  -809.007105c -4.57  -3.05    +62.5980
iter:  40 02:07:34  -809.018645c -4.59  -3.06    +62.5126
iter:  41 02:09:41  -809.025409c -4.79  -3.10    +62.5171
iter:  42 02:11:48  -809.029563c -4.80  -3.12    +62.4133
iter:  43 02:13:56  -809.035726c -4.97  -3.19    +62.3927
iter:  44 02:16:45  -809.040396c -5.03  -3.20    +62.3626
iter:  45 02:19:07  -809.044793c -5.09  -3.25    +62.3292
iter:  46 02:21:14  -809.049185c -5.03  -3.26    +62.2890
iter:  47 02:23:22  -809.051876c -5.28  -3.29    +62.2905
iter:  48 02:25:30  -809.054781c -5.26  -3.33    +62.2466
iter:  49 02:27:37  -809.058454c -5.21  -3.37    +62.2245
iter:  50 02:29:44  -809.060434c -5.46  -3.38    +62.2168
iter:  51 02:31:53  -809.063173c -5.40  -3.44    +62.1935
iter:  52 02:34:00  -809.065806c -5.38  -3.45    +62.1708
iter:  53 02:36:07  -809.068446c -5.52  -3.47    +62.1630
iter:  54 02:38:15  -809.070172c -5.53  -3.51    +62.1378
iter:  55 02:40:23  -809.073089c -5.37  -3.55    +62.1079
iter:  56 02:42:30  -809.074349c -5.71  -3.55    +62.1060
iter:  57 02:44:37  -809.076093c -5.67  -3.61    +62.0855
iter:  58 02:46:45  -809.077921c -5.66  -3.63    +62.0697
iter:  59 02:48:53  -809.079916c -5.73  -3.65    +62.0532
iter:  60 02:51:00  -809.081189c -5.81  -3.67    +62.0386
iter:  61 02:53:08  -809.082883c -5.61  -3.73    +62.0111
iter:  62 02:55:15  -809.083809c -6.04  -3.72    +62.0117
iter:  63 02:57:23  -809.085160c -5.92  -3.79    +61.9941
iter:  64 02:59:30  -809.086412c -5.96  -3.82    +61.9792
iter:  65 03:01:38  -809.088384c -5.79  -3.85    +61.9568
iter:  66 03:03:45  -809.089069c -6.13  -3.84    +61.9496
iter:  67 03:05:52  -809.090463c -5.70  -3.93    +61.9216
iter:  68 03:08:00  -809.091079c -6.28  -3.89    +61.9241
iter:  69 03:10:08  -809.092092c -6.12  -3.99    +61.9082
iter:  70 03:12:15  -809.093609c -5.86  -4.00c   +61.8849
iter:  71 03:15:13  -809.097277c -5.18  -4.03c   +61.8291
iter:  72 03:17:25  -809.108008c -4.09  -3.95    +61.6432
iter:  73 03:19:33  -809.108632c -5.07  -3.60    +61.6437
iter:  74 03:21:40  -809.109501c -5.44  -3.59    +61.6493
iter:  75 03:23:48  -809.110216c -5.56  -3.55    +61.6551
iter:  76 03:25:55  -809.110246c -5.94  -3.51    +61.6564
iter:  77 03:28:03  -809.109562c -5.65  -3.51    +61.6563
iter:  78 03:30:11  -809.110316c -5.90  -3.45    +61.6560
iter:  79 03:32:18  -809.112225c -5.83  -3.46    +61.6509
iter:  80 03:34:26  -809.121740c -4.87  -3.44    +61.6582
iter:  81 03:36:34  -809.114708c -4.58  -3.19    +61.6553
iter:  82 03:38:42  -809.106288c -5.13  -3.26    +61.6562
iter:  83 03:40:50  -809.104620c -5.68  -3.57    +61.6541
iter:  84 03:42:57  -809.105168c -6.11  -3.60    +61.6453
iter:  85 03:45:05  -809.105518c -6.03  -3.67    +61.6507
iter:  86 03:47:13  -809.105253c -5.90  -3.65    +61.6460
iter:  87 03:49:21  -809.105329c -6.07  -3.65    +61.6474
iter:  88 03:51:29  -809.105087c -6.24  -3.76    +61.6508
iter:  89 03:53:36  -809.105570c -6.31  -3.85    +61.6508
iter:  90 03:55:44  -809.104867c -6.31  -3.84    +61.6551
iter:  91 03:57:51  -809.105146c -6.71  -3.89    +61.6541
iter:  92 03:59:59  -809.105237c -6.66  -3.96    +61.6610
iter:  93 04:02:06  -809.105041c -6.83  -3.97    +61.6572
iter:  94 04:04:14  -809.105268c -6.63  -4.02c   +61.6614
iter:  95 04:06:21  -809.105119c -6.69  -4.07c   +61.6654
iter:  96 04:08:29  -809.104981c -6.79  -4.21c   +61.6653
iter:  97 04:10:36  -809.105088c -7.18  -4.21c   +61.6655
iter:  98 04:12:43  -809.105075c -7.25  -4.30c   +61.6706
iter:  99 04:14:51  -809.105115c -6.83  -4.29c   +61.6760
iter: 100 04:16:58  -809.105124c -7.42c -4.17c   +61.6730

Converged after 100 iterations.

Dipole moment: (13.461421, 1.636679, -16.486725) |e|*Ang

Total magnetic moment: (0.000000, 0.000000, 61.673035)
Local magnetic moments:
   0 Fe ( 0.000000,  0.000000,  2.260781)
   1 Cr ( 0.000000,  0.000000,  1.127361)
   2 Ni ( 0.000000,  0.000000, -0.049785)
   3 Cr ( 0.000000,  0.000000, -1.515528)
   4 Al ( 0.000000,  0.000000, -0.018257)
   5 Fe ( 0.000000,  0.000000,  2.137993)
   6 Ni ( 0.000000,  0.000000,  0.289477)
   7 Al ( 0.000000,  0.000000, -0.020416)
   8 Al ( 0.000000,  0.000000, -0.017385)
   9 Co ( 0.000000,  0.000000,  1.269322)
  10 Ni ( 0.000000,  0.000000,  0.259975)
  11 Co ( 0.000000,  0.000000,  1.222199)
  12 Ni ( 0.000000,  0.000000,  0.275865)
  13 Cr ( 0.000000,  0.000000,  1.211917)
  14 Fe ( 0.000000,  0.000000, -1.155303)
  15 Cr ( 0.000000,  0.000000, -0.997977)
  16 Co ( 0.000000,  0.000000,  0.728751)
  17 Cr ( 0.000000,  0.000000,  0.254757)
  18 Co ( 0.000000,  0.000000,  0.977891)
  19 Fe ( 0.000000,  0.000000,  1.803360)
  20 Cr ( 0.000000,  0.000000, -1.838219)
  21 Fe ( 0.000000,  0.000000,  2.355575)
  22 Co ( 0.000000,  0.000000,  1.295882)
  23 Al ( 0.000000,  0.000000, -0.027262)
  24 Ni ( 0.000000,  0.000000,  0.138899)
  25 Cr ( 0.000000,  0.000000,  0.810365)
  26 Cr ( 0.000000,  0.000000, -0.544022)
  27 Al ( 0.000000,  0.000000, -0.021567)
  28 Cr ( 0.000000,  0.000000,  0.783635)
  29 Cr ( 0.000000,  0.000000, -1.455206)
  30 Fe ( 0.000000,  0.000000,  1.760831)
  31 Fe ( 0.000000,  0.000000,  1.694119)
  32 Ni ( 0.000000,  0.000000,  0.323809)
  33 Cr ( 0.000000,  0.000000,  1.506402)
  34 Co ( 0.000000,  0.000000,  0.939437)
  35 Ni ( 0.000000,  0.000000,  0.362939)
  36 Ni ( 0.000000,  0.000000,  0.196406)
  37 Co ( 0.000000,  0.000000,  1.625609)
  38 Co ( 0.000000,  0.000000,  1.359971)
  39 Cr ( 0.000000,  0.000000, -1.497180)
  40 Fe ( 0.000000,  0.000000,  2.192339)
  41 Al ( 0.000000,  0.000000, -0.043258)
  42 Fe ( 0.000000,  0.000000,  1.925528)
  43 Ni ( 0.000000,  0.000000,  0.472955)
  44 Cr ( 0.000000,  0.000000, -1.730113)
  45 Co ( 0.000000,  0.000000,  1.575426)
  46 Co ( 0.000000,  0.000000,  1.362314)
  47 Ni ( 0.000000,  0.000000,  0.494034)
  48 Ni ( 0.000000,  0.000000,  0.243094)
  49 Cr ( 0.000000,  0.000000,  1.250694)
  50 Co ( 0.000000,  0.000000,  0.684542)
  51 Al ( 0.000000,  0.000000, -0.013365)
  52 Al ( 0.000000,  0.000000, -0.028941)
  53 Fe ( 0.000000,  0.000000,  1.589931)
  54 Fe ( 0.000000,  0.000000,  2.044505)
  55 Fe ( 0.000000,  0.000000,  1.996676)
  56 Ni ( 0.000000,  0.000000,  0.540844)
  57 Ni ( 0.000000,  0.000000,  0.098486)
  58 Co ( 0.000000,  0.000000,  1.124762)
  59 Co ( 0.000000,  0.000000,  0.809653)
[...]
  93 Cr ( 0.000000,  0.000000,  2.000651)
  94 Fe ( 0.000000,  0.000000,  2.093837)
  95 Cr ( 0.000000,  0.000000, -1.032946)
  96 Ni ( 0.000000,  0.000000,  0.291361)
  97 Fe ( 0.000000,  0.000000,  2.391253)
  98 Co ( 0.000000,  0.000000,  0.516744)
  99 Ni ( 0.000000,  0.000000,  0.385026)
 100 Cr ( 0.000000,  0.000000,  0.425545)
 101 Al ( 0.000000,  0.000000, -0.006492)
 102 Cr ( 0.000000,  0.000000, -1.434662)
 103 Co ( 0.000000,  0.000000,  0.073117)
 104 Al ( 0.000000,  0.000000, -0.013105)
 105 Ni ( 0.000000,  0.000000,  0.171374)
 106 Co ( 0.000000,  0.000000,  1.116125)
 107 Fe ( 0.000000,  0.000000,  1.917609)

Energy contributions relative to reference atoms: (reference = -3382523.201499)

Kinetic:       +440.777093
Potential:     -405.718913
External:        +0.000000
XC:            -875.081343
Entropy (-ST):   -4.158613
Local:          +32.997345
Free energy:   -811.184431
Extrapolated:  -809.105124

Spin contamination: 25.280505 electrons
Showing only first 2 kpts
                      Up                     Down
 Kpt  Band  Eigenvalues  Occupancy  Eigenvalues  Occupancy
  0   470      9.15688    0.99618     10.09654    0.02121
  0   471      9.16224    0.99597     10.10705    0.01914
  0   472      9.18075    0.99516     10.11278    0.01809
  0   473      9.19155    0.99461     10.12643    0.01582

  1   470      9.14946    0.99646     10.09198    0.02218
  1   471      9.17480    0.99544     10.10552    0.01942
  1   472      9.18314    0.99504     10.11450    0.01779
  1   473      9.19127    0.99463     10.12186    0.01654

Fermi level: 9.71336

No gap

Forces in eV/Ang:
  0 Fe    0.39324   -0.24172    1.87988
  1 Cr   -0.59718   -0.16720   -0.95690
  2 Ni    0.12565    0.41641    0.78192
  3 Cr   -1.34767    1.80401   -0.41462
  4 Al    1.10940   -2.17082   -0.46146
  5 Fe   -0.47985   -0.06659    0.96782
  6 Ni    1.28991    0.33276    0.13042
  7 Al    1.84085   -1.00778   -0.29213
  8 Al    0.13769    0.61152    0.00271
  9 Co   -0.01568   -0.38978    0.36757
 10 Ni   -0.19332   -0.56136   -0.10888
 11 Co   -0.33813   -1.82950   -1.14788
 12 Ni    2.35233   -0.07419    0.49617
 13 Cr   -0.49187   -0.90904    0.38311
 14 Fe    0.91521    0.14373    0.60829
 15 Cr   -0.64418   -0.57410    0.31865
 16 Co   -0.69129    1.30523    0.55210
 17 Cr   -0.68738    1.07764   -1.68096
 18 Co   -0.41326   -0.09317    0.47595
 19 Fe   -0.76183   -2.11821    0.20011
 20 Cr    0.41883    0.93699   -1.56523
 21 Fe   -0.74496   -0.30906    1.27034
 22 Co   -0.44214    0.63470   -1.49071
 23 Al   -1.77599    1.87951    0.51699
 24 Ni   -1.23439   -0.29674   -0.77797
 25 Cr   -1.13277   -0.98393    0.22102
 26 Cr   -0.91348    0.72882   -0.73980
 27 Al    1.65350   -0.02364   -2.35807
 28 Cr    0.29734   -0.22547    0.93987
 29 Cr    1.11367   -0.08447   -0.38946
 30 Fe   -1.15041    0.19151   -0.69547
 31 Fe   -0.90614   -1.35200    0.04193
 32 Ni    1.69308    1.49157   -0.50717
 33 Cr   -0.18691    1.41207    0.04970
 34 Co    0.30476   -0.02131   -0.04597
 35 Ni   -0.21066    0.84888    0.01196
 36 Ni   -0.19084   -0.15233   -0.10258
 37 Co   -1.52851    1.85376    0.28538
 38 Co    0.78515   -1.82323   -0.80574
 39 Cr   -0.05199   -0.80467   -0.64165
 40 Fe   -0.26606   -0.68966   -0.69404
 41 Al    0.44794    1.18938   -0.26369
 42 Fe    0.16108   -0.29137   -0.52030
 43 Ni   -1.07566   -0.56348   -0.75950
 44 Cr    2.02340    2.23787   -0.65363
 45 Co    0.21215   -0.87500   -1.16163
 46 Co    0.12815    0.00366   -1.48892
 47 Ni   -1.28425    0.50939    1.79132
 48 Ni   -0.89711    1.15317    0.33530
 49 Cr    0.89327   -0.14119   -0.84208
 50 Co   -0.87376   -0.37143    0.22751
 51 Al    1.06463   -2.08687    2.16303
 52 Al   -1.57340   -3.77952   -1.39155
 53 Fe   -0.30001    0.90905    2.09750
 54 Fe    1.21203    0.05672    1.21407
 55 Fe    0.40347    0.37473   -1.08949
 56 Ni   -0.42285   -0.88650   -0.37735
 57 Ni   -0.22270    0.34825   -0.08183
 58 Co   -0.55332   -0.24738   -0.61801
 59 Co   -0.01708    0.34023    0.14210
[...]
 93 Cr   -1.37459   -0.60049    1.05926
 94 Fe   -2.37481   -0.65107    0.07666
 95 Cr    0.07833    1.29470    0.13957
 96 Ni    0.31985   -0.03543    0.16667
 97 Fe    0.96393    0.70006   -0.93040
 98 Co    0.79054    1.71110   -1.07175
 99 Ni    0.35287   -0.45799   -0.65779
100 Cr   -1.86461    0.86581    0.52164
101 Al   -3.04655    0.52036   -0.59344
102 Cr    0.79431   -1.18457    0.01772
103 Co    0.65778    1.37070    0.21285
104 Al   -0.65263   -0.26206    0.04872
105 Ni   -0.96959   -0.28327    0.11880
106 Co   -1.13100    0.36639    0.07803
107 Fe   -0.68098    1.46547   -0.49454

Date: Fri Apr 14 04:17:20 2023