User:   c.zeng@d0133
Date:   Sat Apr  8 13:26:02 2023
Arch:   x86_64
Pid:    93883
CWD:    /home/c.zeng/projects/hea-corrosion/hea-mlp/data-curation/volume/dft-jobs/73
Python: 3.8.1
gpaw:   /home/c.zeng/usr/installs/gpaw/source/gpaw-22.8.0/gpaw
_gpaw:  /home/c.zeng/usr/installs/gpaw/source/gpaw-22.8.0/
        _gpaw.cpython-38-x86_64-linux-gnu.so
ase:    /home/c.zeng/.local/lib/python3.8/site-packages/ase-3.22.1-py3.8.egg/ase (version 3.22.1)
numpy:  /shared/centos7/python/3.8.1/lib/python3.8/site-packages/numpy (version 1.17.4)
scipy:  /shared/centos7/python/3.8.1/lib/python3.8/site-packages/scipy (version 1.4.1)
units:  Angstrom and eV
cores: 64
OpenMP: False
OMP_NUM_THREADS: 1

Input parameters:
  convergence: {energy: 0.0001}
  kpts: [2 2 2]
  maxiter: 666
  mode: {ecut: 350.0,
         name: pw}
  occupations: {fixmagmom: False,
                name: fermi-dirac,
                width: 0.1}
  spinpol: True
  xc: PBE

System changes: positions, numbers, cell, pbc, initial_charges, initial_magmoms

Initialize ...

species:
  Co:
    name: Cobalt
    id: 339d20d5b0b93d2de9531a1bee871d91
    Z: 27.0
    valence: 9
    core: 18
    charge: 0.0
    file: /home/c.zeng/usr/data/gpaw-setups-0.9.20000/Co.PBE.gz
    compensation charges: {type: gauss,
                           rc: 0.32,
                           lmax: 2}
    cutoffs: {filter: 1.87,
              core: 2.55}
    valence states:
      #              energy  rcut
      - 4s(2.00)    -5.469   1.005
      - 4p(0.00)    -1.277   1.058
      - 3d(7.00)    -8.205   1.005
      -  s          21.742   1.005
      -  p          25.934   1.058
      -  d          19.007   1.005

    # Using partial waves for Co as LCAO basis

  Ni:
    name: Nickel
    id: 0d9f38a9d6e76a2886f07bb4381f212b
    Z: 28.0
    valence: 16
    core: 12
    charge: 0.0
    file: /home/c.zeng/usr/data/gpaw-setups-0.9.20000/Ni.PBE.gz
    compensation charges: {type: gauss,
                           rc: 0.36,
                           lmax: 2}
    cutoffs: {filter: 2.14,
              core: 1.98}
    valence states:
      #              energy  rcut
      - 4s(2.00)    -5.642   1.164
      - 3p(6.00)   -71.394   1.207
      - 4p(0.00)    -1.226   1.207
      - 3d(8.00)    -8.875   1.138
      -  s          21.570   1.164
      -  d          18.337   1.138

[...]

  Al:
    name: Aluminium
    id: 0292cae29f5d6237e50f6abdd43a7bdd
    Z: 13.0
    valence: 3
    core: 10
    charge: 0.0
    file: /home/c.zeng/usr/data/gpaw-setups-0.9.20000/Al.PBE.gz
    compensation charges: {type: gauss,
                           rc: 0.34,
                           lmax: 2}
    cutoffs: {filter: 1.91,
              core: 2.36}
    valence states:
      #              energy  rcut
      - 3s(2.00)    -7.753   1.085
      - 3p(1.00)    -2.712   1.085
      -  s          19.459   1.085
      -  p          24.499   1.085
      -  d           0.000   1.085

[...]

  Cr:
    name: Chromium
    id: 33f258bda2ca9f93018e70263a35547b
    Z: 24.0
    valence: 6
    core: 18
    charge: 0.0
    file: /home/c.zeng/usr/data/gpaw-setups-0.9.20000/Cr.PBE.gz
    compensation charges: {type: gauss,
                           rc: 0.35,
                           lmax: 2}
    cutoffs: {filter: 2.14,
              core: 3.04}
    valence states:
      #              energy  rcut
      - 4s(1.00)    -4.007   1.164
      - 4p(0.00)    -0.989   1.217
      - 3d(5.00)    -2.913   1.111
      -  s          23.205   1.164
      -  p          26.223   1.217
      -  d          24.299   1.111

[...]

  Fe:
    name: Iron
    id: 37abbd8d6c3c35915a9b583b742da910
    Z: 26.0
    valence: 8
    core: 18
    charge: 0.0
    file: /home/c.zeng/usr/data/gpaw-setups-0.9.20000/Fe.PBE.gz
    compensation charges: {type: gauss,
                           rc: 0.33,
                           lmax: 2}
    cutoffs: {filter: 2.06,
              core: 2.67}
    valence states:
      #              energy  rcut
      - 4s(2.00)    -5.291   1.164
      - 4p(0.00)    -1.326   1.058
      - 3d(6.00)    -7.505   1.058
      -  s          21.920   1.164
      -  p          25.885   1.058
      -  d          19.706   1.058

    # Using partial waves for Fe as LCAO basis

Reference energy: -3548577.034362  # eV

Spin-polarized calculation.
Magnetic moment: 136.400000

Convergence criteria:
 Maximum [total energy] change in last 3 cyles: 0.0001 eV / electron
 Maximum integral of absolute [dens]ity change: 0.0001 electrons / valence electron
 Maximum integral of absolute [eigenst]ate change: 4e-08 eV^2 / valence electron
 Maximum number of scf [iter]ations: 666
 (Square brackets indicate name in SCF output, whereas a 'c' in
 the SCF output indicates the quantity has converged.)

Symmetries present (total): 1

  ( 1  0  0)
  ( 0  1  0)
  ( 0  0  1)

8 k-points: 2 x 2 x 2 Monkhorst-Pack grid
4 k-points in the irreducible part of the Brillouin zone
       k-points in crystal coordinates                weights
   0:     0.25000000   -0.25000000   -0.25000000          2/8
   1:     0.25000000   -0.25000000    0.25000000          2/8
   2:     0.25000000    0.25000000   -0.25000000          2/8
   3:     0.25000000    0.25000000    0.25000000          2/8

Wave functions: Plane wave expansion
  Cutoff energy: 350.000 eV
  Number of coefficients (min, max): 19468, 19468
  Pulay-stress correction: 0.000000 eV/Ang^3 (de/decut=0.000000)
  Using FFTW library
  ScaLapack parameters: grid=1x1, blocksize=None
  Wavefunction extrapolation:
    Improved wavefunction reuse through dual PAW basis

Occupation numbers: Fermi-Dirac:
  width: 0.1000  # eV

Eigensolver
   Davidson(niter=2)

Densities:
  Coarse grid: 48*48*48 grid
  Fine grid: 96*96*96 grid
  Total Charge: 0.000000

Density mixing:
  Method: difference
  Backend: pulay
  Linear mixing parameter: 0.05
  old densities: 5
  Damping of long wavelength oscillations: 50

Hamiltonian:
  XC and Coulomb potentials evaluated on a 96*96*96 grid
  Using the PBE Exchange-Correlation functional
  External potential:
    NoExternalPotential

XC parameters: PBE with 2 nearest neighbor stencil

Total number of cores used: 64
Parallelization over k-points: 4
Domain decomposition: 4 x 2 x 2

Number of atoms: 108
Number of atomic orbitals: 994
Number of bands in calculation: 674
Number of valence electrons: 980
Bands to converge: occupied

... initialized

Initializing position-dependent things.

Density initialized from atomic densities
Creating initial wave functions:
  674 bands from LCAO basis set

       /|  Cr       Fe             |
      / |      Fe    Fe Fe    Al Fe|
     / Ni       NiCo     Ni        |
    /   |Al        Fe       Fe     |
   /    | NiCr      Co        Co   |
  /  CoCr  Co Fe       Ni    Fe    |
 Co     NiCr   CoAl     CoCr  Al Co|
 |Co   NiFeFe   CoCoCr   CrCr      |
 | Cr Co| CrCo     CoFe     Fe     |
 |   FeFe  NiNi Cr  Cr CoNi  Ni    |
 Al     FeFe   CoCoNi   CrCr     Ni|
 |Ni    |NiNi   NiCrCo   CrFe     Al
 |    Co.-NiNiCo---CoCr-----FeCr---.
 |     Ni     Cr       Cr    CrFe /
 |    / Al      Ni       Nir     /
 Ni  /    Co     AlCr      Cr   /
 |  /      Fe       Fe       Ni/
 | /  Al      Fe     Co Fe    /
 |/             Fe       Al  /
 *-----------------Cr-------*

Positions:
   0 Co    10.935000    0.000018   10.934989    ( 0.0000,  0.0000,  2.1000)
   1 Ni    10.934956    1.822482    1.822515    ( 0.0000,  0.0000,  1.5000)
   2 Al     1.822591    0.000113    1.822558    ( 0.0000,  0.0000,  0.0000)
   3 Cr     1.822515    1.822493   10.934923    ( 0.0000,  0.0000,  0.0000)
   4 Cr     3.645095    0.000023   10.934967    ( 0.0000,  0.0000,  0.0000)
   5 Fe     3.645062    1.822460    1.822515    ( 0.0000,  0.0000,  2.0000)
   6 Fe     5.467478    0.000041    1.822482    ( 0.0000,  0.0000,  2.0000)
   7 Fe     5.467511    1.822438    0.000029    ( 0.0000,  0.0000,  2.0000)
   8 Cr     7.289894    0.000003    0.000069    ( 0.0000,  0.0000,  0.0000)
   9 Fe     7.289971    1.822471    1.822515    ( 0.0000,  0.0000,  2.0000)
  10 Fe     9.112496    0.000018    1.822536    ( 0.0000,  0.0000,  2.0000)
  11 Al     9.112496    1.822569    0.000159    ( 0.0000,  0.0000,  0.0000)
  12 Co    10.934978    3.645018   10.934978    ( 0.0000,  0.0000,  2.1000)
  13 Fe    10.934945    5.467555    1.822526    ( 0.0000,  0.0000,  2.0000)
  14 Al     1.822460    3.644909    1.822646    ( 0.0000,  0.0000,  0.0000)
  15 Al     1.822460    5.467653   10.934880    ( 0.0000,  0.0000,  0.0000)
  16 Cr     3.645029    3.644953   10.934956    ( 0.0000,  0.0000,  0.0000)
  17 Cr     3.645018    5.467598    1.822515    ( 0.0000,  0.0000,  0.0000)
  18 Al     5.467522    3.644876    1.822493    ( 0.0000,  0.0000,  0.0000)
  19 Co     5.467500    5.467609   10.934967    ( 0.0000,  0.0000,  2.1000)
  20 Co     7.289993    3.644996    0.000004    ( 0.0000,  0.0000,  2.1000)
  21 Cr     7.290069    5.467555    1.822493    ( 0.0000,  0.0000,  0.0000)
  22 Cr     9.112507    3.645018    1.822536    ( 0.0000,  0.0000,  0.0000)
  23 Cr     9.112529    5.467577    0.000029    ( 0.0000,  0.0000,  0.0000)
  24 Fe    10.934956    7.289971   10.934989    ( 0.0000,  0.0000,  2.0000)
  25 Al    10.934858    9.112376    1.822493    ( 0.0000,  0.0000,  0.0000)
  26 Ni     1.822504    7.289982    1.822515    ( 0.0000,  0.0000,  1.5000)
  27 Cr     1.822526    9.112442   10.934934    ( 0.0000,  0.0000,  0.0000)
  28 Fe     3.645062    7.290015   10.934978    ( 0.0000,  0.0000,  2.0000)
  29 Ni     3.645062    9.112464    1.822515    ( 0.0000,  0.0000,  1.5000)
  30 Co     5.467489    7.290026    1.822449    ( 0.0000,  0.0000,  2.1000)
  31 Fe     5.467489    9.112464   10.934978    ( 0.0000,  0.0000,  2.0000)
  32 Fe     7.289982    7.289993   10.934978    ( 0.0000,  0.0000,  2.0000)
  33 Cr     7.289993    9.112496    1.822460    ( 0.0000,  0.0000,  0.0000)
  34 Fe     9.112496    7.289971    1.822504    ( 0.0000,  0.0000,  2.0000)
  35 Cr     9.112485    9.112398    0.000002    ( 0.0000,  0.0000,  0.0000)
  36 Ni    10.935000    0.000028    3.644996    ( 0.0000,  0.0000,  1.5000)
  37 Ni     0.000054    1.822558    5.467489    ( 0.0000,  0.0000,  1.5000)
  38 Co     1.822547    0.000024    5.467500    ( 0.0000,  0.0000,  2.1000)
  39 Ni     1.822526    1.822493    3.645073    ( 0.0000,  0.0000,  1.5000)
  40 Co     3.645018    0.000004    3.645029    ( 0.0000,  0.0000,  2.1000)
  41 Ni     3.644964    1.822493    5.467511    ( 0.0000,  0.0000,  1.5000)
  42 Co     5.467467    0.000002    5.467511    ( 0.0000,  0.0000,  2.1000)
  43 Ni     5.467489    1.822449    3.644974    ( 0.0000,  0.0000,  1.5000)
  44 Cr     7.289971    0.000063    3.644942    ( 0.0000,  0.0000,  0.0000)
  45 Co     7.289982    1.822536    5.467500    ( 0.0000,  0.0000,  2.1000)
  46 Al     9.112420   10.934989    5.467380    ( 0.0000,  0.0000,  0.0000)
  47 Ni     9.112485    1.822493    3.644953    ( 0.0000,  0.0000,  1.5000)
  48 Cr    10.934989    3.645051    3.645040    ( 0.0000,  0.0000,  0.0000)
  49 Fe     0.000004    5.467511    5.467478    ( 0.0000,  0.0000,  2.0000)
  50 Fe     1.822504    3.645007    5.467511    ( 0.0000,  0.0000,  2.0000)
  51 Ni     1.822460    5.467511    3.645062    ( 0.0000,  0.0000,  1.5000)
  52 Ni     3.644974    3.644974    3.645073    ( 0.0000,  0.0000,  1.5000)
  53 Ni     3.644974    5.467489    5.467533    ( 0.0000,  0.0000,  1.5000)
  54 Co     5.467511    3.645007    5.467522    ( 0.0000,  0.0000,  2.1000)
  55 Cr     5.467489    5.467555    3.645062    ( 0.0000,  0.0000,  0.0000)
  56 Cr     7.290036    3.644974    3.645062    ( 0.0000,  0.0000,  0.0000)
  57 Co     7.290026    5.467500    5.467511    ( 0.0000,  0.0000,  2.1000)
  58 Cr     9.112474    3.645029    5.467489    ( 0.0000,  0.0000,  0.0000)
  59 Fe     9.112540    5.467555    3.645018    ( 0.0000,  0.0000,  2.0000)
[...]
  93 Ni     7.289993    5.467566    9.112485    ( 0.0000,  0.0000,  1.5000)
  94 Cr     9.112507    3.645018    9.112474    ( 0.0000,  0.0000,  0.0000)
  95 Cr     9.112496    5.467566    7.289960    ( 0.0000,  0.0000,  0.0000)
  96 Co    10.934978    7.290004    7.290004    ( 0.0000,  0.0000,  2.1000)
  97 Ni    10.935000    9.112420    9.112507    ( 0.0000,  0.0000,  1.5000)
  98 Ni     1.822504    7.289993    9.112474    ( 0.0000,  0.0000,  1.5000)
  99 Co     1.822536    9.112496    7.289993    ( 0.0000,  0.0000,  2.1000)
 100 Co     3.645007    7.289993    7.290015    ( 0.0000,  0.0000,  2.1000)
 101 Ni     3.645051    9.112496    9.112474    ( 0.0000,  0.0000,  1.5000)
 102 Fe     5.467511    7.290015    9.112551    ( 0.0000,  0.0000,  2.0000)
 103 Co     5.467478    9.112496    7.290026    ( 0.0000,  0.0000,  2.1000)
 104 Co     7.290015    7.289993    7.290015    ( 0.0000,  0.0000,  2.1000)
 105 Ni     7.289949    9.112420    9.112485    ( 0.0000,  0.0000,  1.5000)
 106 Fe     9.112485    7.290036    9.112507    ( 0.0000,  0.0000,  2.0000)
 107 Fe     9.112485    9.112409    7.289993    ( 0.0000,  0.0000,  2.0000)

Unit cell:
           periodic     x           y           z      points  spacing
  1. axis:    yes   10.935000    0.000000    0.000000    48     0.2278
  2. axis:    yes    0.000000   10.935000    0.000000    48     0.2278
  3. axis:    yes    0.000000    0.000000   10.935000    48     0.2278

  Lengths:  10.935000  10.935000  10.935000
  Angles:   90.000000  90.000000  90.000000

Effective grid spacing dv^(1/3) = 0.2278

     iter     time        total  log10-change:  magmom
                         energy  eigst   dens
iter:   1 13:28:02 -1043.740322                  +136.6825
iter:   2 13:28:54  -915.802280  -0.18  -1.18    +75.7977
iter:   3 13:29:46  -916.355503  -0.72  -1.18    +68.3899
iter:   4 13:30:37  -880.292707  -1.14  -1.24    +63.3176
iter:   5 13:31:27  -867.774942  -1.61  -1.29    +62.0626
iter:   6 13:32:19  -871.994884  -1.28  -1.35    +64.2496
iter:   7 13:33:10  -855.704001  -1.31  -1.39    +63.8151
iter:   8 13:34:00  -850.307444  -1.59  -1.55    +64.4358
iter:   9 13:34:51  -849.733672  -1.92  -1.70    +65.6681
iter:  10 13:35:43  -848.045333  -2.32  -1.74    +67.3528
iter:  11 13:36:35  -848.849151  -2.56  -1.83    +68.8409
iter:  12 13:37:27  -849.212659  -2.51  -1.84    +70.6215
iter:  13 13:38:20  -850.095831  -2.47  -1.87    +71.5523
iter:  14 13:39:10  -849.994568  -2.35  -1.89    +71.6963
iter:  15 13:40:02  -850.500621  -2.45  -1.97    +72.8655
iter:  16 13:40:53  -849.999761  -2.59  -2.00    +72.6206
iter:  17 13:41:44  -849.456869  -2.89  -2.05    +72.7735
iter:  18 13:42:36  -850.402070  -2.73  -2.15    +72.8034
iter:  19 13:43:26  -849.717769  -2.89  -2.09    +73.2276
iter:  20 13:44:18  -849.836105  -3.09  -2.18    +73.3798
iter:  21 13:45:09  -849.807364  -3.07  -2.23    +72.9156
iter:  22 13:46:00  -849.959060  -3.05  -2.29    +73.1367
iter:  23 13:46:51  -849.778840  -3.19  -2.30    +72.9469
iter:  24 13:47:42  -849.921302  -3.20  -2.37    +72.8885
iter:  25 13:48:34  -849.993477  -3.23  -2.39    +72.6424
iter:  26 13:49:27  -849.885825  -3.37  -2.42    +72.5950
iter:  27 13:50:16  -849.854115  -3.69  -2.46    +72.8779
iter:  28 13:51:08  -849.875912c -3.81  -2.54    +72.5287
iter:  29 13:52:01  -849.926524c -3.81  -2.60    +72.5357
iter:  30 13:52:52  -849.920810c -4.10  -2.57    +72.4647
iter:  31 13:53:44  -849.983631c -3.89  -2.64    +72.4019
iter:  32 13:54:36  -850.048207  -3.73  -2.62    +72.1575
iter:  33 13:55:28  -850.036489c -3.81  -2.61    +71.9585
iter:  34 13:56:18  -850.022236c -3.96  -2.65    +72.1655
iter:  35 13:57:08  -850.099856c -3.81  -2.72    +72.0345
iter:  36 13:58:01  -850.033204c -4.05  -2.65    +71.9343
iter:  37 13:58:53  -850.043332c -4.33  -2.76    +71.7959
iter:  38 13:59:46  -850.043343c -4.65  -2.80    +71.8337
iter:  39 14:00:37  -850.059887c -4.68  -2.83    +71.8672
iter:  40 14:01:28  -850.072132c -4.88  -2.84    +71.8037
iter:  41 14:02:20  -850.086957c -4.72  -2.85    +71.8253
iter:  42 14:03:12  -850.123509c -4.16  -2.89    +71.7059
iter:  43 14:04:04  -850.147042c -4.02  -2.94    +71.7656
iter:  44 14:04:56  -850.130705c -4.32  -2.94    +71.7974
iter:  45 14:05:47  -850.135326c -4.73  -3.16    +71.7312
iter:  46 14:06:37  -850.138893c -5.00  -3.21    +71.7717
iter:  47 14:07:27  -850.148445c -5.02  -3.27    +71.8540
iter:  48 14:08:17  -850.152688c -5.33  -3.31    +71.8737
iter:  49 14:09:09  -850.163764c -4.99  -3.35    +71.9476
iter:  50 14:10:00  -850.166581c -5.44  -3.36    +71.9516
iter:  51 14:10:51  -850.176371c -5.14  -3.39    +71.9745
iter:  52 14:11:42  -850.181600c -5.35  -3.43    +72.0048
iter:  53 14:12:34  -850.196449c -4.88  -3.45    +72.0161
iter:  54 14:13:25  -850.211017c -4.89  -3.42    +72.0764
iter:  55 14:14:16  -850.178414c -4.48  -3.32    +71.8552
iter:  56 14:15:07  -850.211889c -4.48  -3.44    +72.0969
iter:  57 14:16:00  -850.191518c -4.98  -3.35    +71.9672
iter:  58 14:16:52  -850.211549c -4.97  -3.47    +72.0956
iter:  59 14:17:45  -850.199441c -5.58  -3.38    +72.0220
iter:  60 14:18:38  -850.204939c -5.15  -3.52    +72.0471
iter:  61 14:19:30  -850.210243c -5.10  -3.38    +72.1046
iter:  62 14:20:22  -850.214845c -5.18  -3.62    +72.1859
iter:  63 14:21:12  -850.225135c -5.04  -3.71    +72.2201
iter:  64 14:22:05  -850.236484c -4.70  -3.61    +72.2624
iter:  65 14:22:57  -850.241195c -5.10  -3.47    +72.2541
iter:  66 14:23:50  -850.250737c -4.96  -3.50    +72.2986
iter:  67 14:24:41  -850.246482c -5.78  -3.44    +72.2570
iter:  68 14:25:35  -850.265030c -4.47  -3.45    +72.4163
iter:  69 14:26:28  -850.273568c -4.80  -3.24    +72.4667
iter:  70 14:27:21  -850.267071c -5.34  -3.20    +72.4756
iter:  71 14:28:13  -850.270914c -5.17  -3.26    +72.4372
iter:  72 14:29:06  -850.270018c -5.32  -3.19    +72.4138
iter:  73 14:29:57  -850.286666c -4.57  -3.22    +72.3863
iter:  74 14:30:47  -850.270936c -4.94  -3.12    +72.3932
iter:  75 14:31:37  -850.271589c -5.26  -3.26    +72.4389
iter:  76 14:32:28  -850.273907c -5.51  -3.32    +72.4410
iter:  77 14:33:21  -850.272776c -5.56  -3.33    +72.4618
iter:  78 14:34:15  -850.271792c -5.20  -3.34    +72.4619
iter:  79 14:35:06  -850.275406c -5.19  -3.35    +72.4389
iter:  80 14:35:58  -850.279630c -4.95  -3.32    +72.4460
iter:  81 14:36:50  -850.274768c -5.00  -3.33    +72.4577
iter:  82 14:37:41  -850.271795c -5.39  -3.38    +72.4597
iter:  83 14:38:33  -850.273904c -5.71  -3.59    +72.4444
iter:  84 14:39:26  -850.273503c -6.09  -3.59    +72.4535
iter:  85 14:40:19  -850.273820c -5.99  -3.64    +72.4614
iter:  86 14:41:13  -850.273652c -6.15  -3.64    +72.4576
iter:  87 14:42:04  -850.275853c -5.87  -3.67    +72.4590
iter:  88 14:42:57  -850.275680c -5.88  -3.67    +72.4601
iter:  89 14:43:49  -850.274858c -5.82  -3.67    +72.4665
iter:  90 14:44:42  -850.275826c -5.86  -3.68    +72.4515
iter:  91 14:45:34  -850.276566c -5.97  -3.72    +72.4426
iter:  92 14:46:25  -850.277330c -6.13  -3.75    +72.4575
iter:  93 14:47:16  -850.277068c -6.42  -3.79    +72.4587
iter:  94 14:48:09  -850.277856c -6.30  -3.84    +72.4582
iter:  95 14:49:00  -850.277770c -6.66  -3.84    +72.4558
iter:  96 14:49:53  -850.279429c -6.21  -3.86    +72.4432
iter:  97 14:50:44  -850.279277c -5.93  -3.81    +72.4440
iter:  98 14:51:37  -850.279306c -6.10  -3.86    +72.4484
iter:  99 14:52:29  -850.278859c -6.21  -4.12c   +72.4401
iter: 100 14:53:14  -850.279771c -6.43  -4.07c   +72.4359
iter: 101 14:53:59  -850.280221c -6.58  -4.16c   +72.4285
iter: 102 14:54:44  -850.280847c -6.49  -4.24c   +72.4271
iter: 103 14:55:29  -850.278868c -5.83  -4.20c   +72.4413
iter: 104 14:56:13  -850.279090c -6.96  -4.23c   +72.4325
iter: 105 14:56:59  -850.279574c -6.93  -4.29c   +72.4297
iter: 106 14:57:44  -850.279961c -7.05  -4.34c   +72.4280
iter: 107 14:58:29  -850.280238c -6.97  -4.33c   +72.4278
iter: 108 14:59:15  -850.280556c -6.67  -4.35c   +72.4262
iter: 109 15:00:00  -850.280696c -7.20  -4.31c   +72.4263
iter: 110 15:00:45  -850.281099c -6.64  -4.29c   +72.4158
iter: 111 15:01:30  -850.280942c -7.72c -4.29c   +72.4185

Converged after 111 iterations.

Dipole moment: (0.071324, 0.075435, -0.444541) |e|*Ang

Total magnetic moment: (0.000000, 0.000000, 72.418488)
Local magnetic moments:
   0 Co ( 0.000000,  0.000000,  0.516796)
   1 Ni ( 0.000000,  0.000000,  0.162460)
   2 Al ( 0.000000,  0.000000, -0.007003)
   3 Cr ( 0.000000,  0.000000,  1.550998)
   4 Cr ( 0.000000,  0.000000, -1.756428)
   5 Fe ( 0.000000,  0.000000,  2.272192)
   6 Fe ( 0.000000,  0.000000,  2.185385)
   7 Fe ( 0.000000,  0.000000,  1.929305)
   8 Cr ( 0.000000,  0.000000, -1.556972)
   9 Fe ( 0.000000,  0.000000,  1.970350)
  10 Fe ( 0.000000,  0.000000,  2.257966)
  11 Al ( 0.000000,  0.000000, -0.025969)
  12 Co ( 0.000000,  0.000000, -0.574882)
  13 Fe ( 0.000000,  0.000000,  2.189741)
  14 Al ( 0.000000,  0.000000, -0.012867)
  15 Al ( 0.000000,  0.000000, -0.032811)
  16 Cr ( 0.000000,  0.000000, -1.777896)
  17 Cr ( 0.000000,  0.000000,  1.388669)
  18 Al ( 0.000000,  0.000000, -0.016787)
  19 Co ( 0.000000,  0.000000,  1.230492)
  20 Co ( 0.000000,  0.000000,  0.994193)
  21 Cr ( 0.000000,  0.000000, -1.390733)
  22 Cr ( 0.000000,  0.000000,  1.226890)
  23 Cr ( 0.000000,  0.000000, -1.958118)
  24 Fe ( 0.000000,  0.000000,  2.219655)
  25 Al ( 0.000000,  0.000000, -0.019031)
  26 Ni ( 0.000000,  0.000000,  0.277210)
  27 Cr ( 0.000000,  0.000000, -2.076880)
  28 Fe ( 0.000000,  0.000000,  2.401742)
  29 Ni ( 0.000000,  0.000000,  0.216333)
  30 Co ( 0.000000,  0.000000,  1.151615)
  31 Fe ( 0.000000,  0.000000,  2.285727)
  32 Fe ( 0.000000,  0.000000,  2.130942)
  33 Cr ( 0.000000,  0.000000,  0.144987)
  34 Fe ( 0.000000,  0.000000,  2.116688)
  35 Cr ( 0.000000,  0.000000, -1.685308)
  36 Ni ( 0.000000,  0.000000,  0.372722)
  37 Ni ( 0.000000,  0.000000,  0.188572)
  38 Co ( 0.000000,  0.000000,  1.650345)
  39 Ni ( 0.000000,  0.000000,  0.385757)
  40 Co ( 0.000000,  0.000000,  1.599059)
  41 Ni ( 0.000000,  0.000000,  0.488384)
  42 Co ( 0.000000,  0.000000,  1.483998)
  43 Ni ( 0.000000,  0.000000,  0.271877)
  44 Cr ( 0.000000,  0.000000, -0.569848)
  45 Co ( 0.000000,  0.000000,  1.127740)
  46 Al ( 0.000000,  0.000000, -0.008822)
  47 Ni ( 0.000000,  0.000000,  0.070974)
  48 Cr ( 0.000000,  0.000000, -2.018642)
  49 Fe ( 0.000000,  0.000000,  2.305589)
  50 Fe ( 0.000000,  0.000000,  2.645337)
  51 Ni ( 0.000000,  0.000000,  0.356620)
  52 Ni ( 0.000000,  0.000000,  0.388963)
  53 Ni ( 0.000000,  0.000000,  0.465151)
  54 Co ( 0.000000,  0.000000,  1.504134)
  55 Cr ( 0.000000,  0.000000,  0.467348)
  56 Cr ( 0.000000,  0.000000, -1.781106)
  57 Co ( 0.000000,  0.000000,  1.107154)
  58 Cr ( 0.000000,  0.000000,  1.532107)
  59 Fe ( 0.000000,  0.000000,  1.799355)
[...]
  93 Ni ( 0.000000,  0.000000,  0.358780)
  94 Cr ( 0.000000,  0.000000,  1.347645)
  95 Cr ( 0.000000,  0.000000, -1.977665)
  96 Co ( 0.000000,  0.000000,  1.414542)
  97 Ni ( 0.000000,  0.000000,  0.274563)
  98 Ni ( 0.000000,  0.000000,  0.456233)
  99 Co ( 0.000000,  0.000000,  1.668893)
 100 Co ( 0.000000,  0.000000,  1.698943)
 101 Ni ( 0.000000,  0.000000,  0.447314)
 102 Fe ( 0.000000,  0.000000,  2.619228)
 103 Co ( 0.000000,  0.000000,  1.625489)
 104 Co ( 0.000000,  0.000000,  1.477882)
 105 Ni ( 0.000000,  0.000000,  0.325135)
 106 Fe ( 0.000000,  0.000000,  2.356338)
 107 Fe ( 0.000000,  0.000000,  2.314911)

Energy contributions relative to reference atoms: (reference = -3548577.034362)

Kinetic:        -19.071723
Potential:      -53.196884
External:        +0.000000
XC:            -811.052280
Entropy (-ST):   -4.453623
Local:          +35.266756
Free energy:   -852.507753
Extrapolated:  -850.280942

Spin contamination: 34.373763 electrons
Showing only first 2 kpts
                      Up                     Down
 Kpt  Band  Eigenvalues  Occupancy  Eigenvalues  Occupancy
  0   488      8.62904    0.99784      9.63189    0.01995
  0   489      8.64099    0.99756      9.64503    0.01754
  0   490      8.64917    0.99736      9.65721    0.01556
  0   491      8.67136    0.99670      9.67288    0.01333

  1   488      8.63182    0.99778      9.64079    0.01828
  1   489      8.64340    0.99750      9.65528    0.01586
  1   490      8.66384    0.99694      9.66539    0.01435
  1   491      8.67721    0.99650      9.67704    0.01279

Fermi level: 9.24246

No gap

Forces in eV/Ang:
  0 Co    0.20442   -0.49004   -0.16585
  1 Ni   -0.03429   -0.00179    0.12178
  2 Al    0.06714    0.47769    0.95125
  3 Cr   -0.52106    0.02633   -1.02939
  4 Cr    0.67177    0.30094   -0.60961
  5 Fe    0.46515   -0.26243    0.31747
  6 Fe   -0.05110    0.00757    0.21701
  7 Fe   -0.27620   -0.03380    0.09907
  8 Cr   -1.02499   -0.45584    0.16361
  9 Fe    0.04363   -0.31390    0.16913
 10 Fe   -0.07962    0.33813    0.19768
 11 Al    0.87966    0.38660    0.48353
 12 Co   -0.21841   -0.13605   -0.23228
 13 Fe   -0.12881    0.42579    0.48497
 14 Al   -0.22694   -0.58588    0.76552
 15 Al   -0.80516    0.50174   -0.81825
 16 Cr   -0.30254   -0.46962   -0.12520
 17 Cr    0.41095    0.53968    0.20411
 18 Al    0.08954   -0.57360    0.02297
 19 Co    0.09281    0.26575    0.06055
 20 Co    0.02317    0.13546   -0.01052
 21 Cr   -0.03928    0.84371    0.10889
 22 Cr   -0.04026    0.34909    0.27680
 23 Cr    0.41839    0.07979   -0.37267
 24 Fe   -0.17139    0.17757   -0.46885
 25 Al   -0.33961   -0.45676    1.03588
 26 Ni    0.15155   -0.18610    0.07219
 27 Cr   -0.00145   -0.53446   -1.08701
 28 Fe    0.13993    0.46100    0.01103
 29 Ni    0.15785   -0.15023    0.06259
 30 Co   -0.02922    0.11382   -0.10352
 31 Fe   -0.05345    0.11093    0.19932
 32 Fe   -0.08707   -0.04780    0.13954
 33 Cr   -0.15917   -0.26531    0.51547
 34 Fe   -0.31558   -0.32011    0.07393
 35 Cr   -0.13722   -0.64141   -0.01852
 36 Ni    0.10189    0.09498   -0.01419
 37 Ni    0.21469   -0.06220   -0.18925
 38 Co    0.45050   -0.13666   -0.24483
 39 Ni    0.01897   -0.04444    0.22099
 40 Co    0.28736    0.00630    0.64597
 41 Ni   -0.09771   -0.06463   -0.14878
 42 Co   -0.03594   -0.06623   -0.07236
 43 Ni    0.00341   -0.17537    0.19650
 44 Cr   -0.46960    0.05384   -0.47748
 45 Co   -0.25991    0.18878   -0.03593
 46 Al   -0.00200    0.54813   -0.54871
 47 Ni    0.02192    0.02398   -0.14170
 48 Cr   -0.76610   -0.00268    0.64986
 49 Fe    0.28486    0.46629   -0.15108
 50 Fe    0.20898   -0.09213   -0.30464
 51 Ni    0.14817    0.13170   -0.01684
 52 Ni    0.08380    0.04487    0.19092
 53 Ni    0.09300    0.05477    0.06289
 54 Co    0.21285    0.07720    0.11095
 55 Cr    0.11480    0.54699    0.37235
 56 Cr    0.41801   -0.32749    0.99219
 57 Co   -0.25449    0.24006   -0.04004
 58 Cr   -0.10209   -0.45833   -0.05824
 59 Fe   -0.19730    0.25687    0.12956
[...]
 93 Ni   -0.02616    0.14331    0.02149
 94 Cr    0.31285    0.50059   -0.28644
 95 Cr   -0.27430    0.44799    0.25626
 96 Co    0.04249    0.19262    0.20927
 97 Ni    0.11027   -0.02375    0.00351
 98 Ni   -0.05415    0.08362   -0.11273
 99 Co    0.29407   -0.20229   -0.02305
100 Co    0.07615    0.22175   -0.05433
101 Ni   -0.19409   -0.05127   -0.01243
102 Fe    0.34087    0.03915   -0.17549
103 Co    0.05731    0.11282   -0.20462
104 Co   -0.11751   -0.15367    0.00109
105 Ni   -0.07545   -0.00416    0.02492
106 Fe   -0.09581   -0.20657   -0.09305
107 Fe   -0.19110   -0.83087   -0.18629

Date: Sat Apr  8 15:01:42 2023