User:   c.zeng@d0150
Date:   Sat Apr 15 08:34:52 2023
Arch:   x86_64
Pid:    121498
CWD:    /home/c.zeng/projects/hea-corrosion/hea-mlp/data-curation/bulk-mcmc/dft-jobs/235
Python: 3.8.1
gpaw:   /home/c.zeng/usr/installs/gpaw/source/gpaw-22.8.0/gpaw
_gpaw:  /home/c.zeng/usr/installs/gpaw/source/gpaw-22.8.0/
        _gpaw.cpython-38-x86_64-linux-gnu.so
ase:    /home/c.zeng/.local/lib/python3.8/site-packages/ase-3.22.1-py3.8.egg/ase (version 3.22.1)
numpy:  /shared/centos7/python/3.8.1/lib/python3.8/site-packages/numpy (version 1.17.4)
scipy:  /shared/centos7/python/3.8.1/lib/python3.8/site-packages/scipy (version 1.4.1)
units:  Angstrom and eV
cores: 30
OpenMP: False
OMP_NUM_THREADS: 1

Input parameters:
  convergence: {energy: 0.0001}
  kpts: [2 2 2]
  maxiter: 666
  mode: {ecut: 350.0,
         name: pw}
  occupations: {fixmagmom: False,
                name: fermi-dirac,
                width: 0.1}
  spinpol: True
  xc: PBE

System changes: positions, numbers, cell, pbc, initial_charges, initial_magmoms

Initialize ...

species:
  Ni:
    name: Nickel
    id: 0d9f38a9d6e76a2886f07bb4381f212b
    Z: 28.0
    valence: 16
    core: 12
    charge: 0.0
    file: /home/c.zeng/usr/data/gpaw-setups-0.9.20000/Ni.PBE.gz
    compensation charges: {type: gauss,
                           rc: 0.36,
                           lmax: 2}
    cutoffs: {filter: 2.14,
              core: 1.98}
    valence states:
      #              energy  rcut
      - 4s(2.00)    -5.642   1.164
      - 3p(6.00)   -71.394   1.207
      - 4p(0.00)    -1.226   1.207
      - 3d(8.00)    -8.875   1.138
      -  s          21.570   1.164
      -  d          18.337   1.138

    # Using partial waves for Ni as LCAO basis

  Al:
    name: Aluminium
    id: 0292cae29f5d6237e50f6abdd43a7bdd
    Z: 13.0
    valence: 3
    core: 10
    charge: 0.0
    file: /home/c.zeng/usr/data/gpaw-setups-0.9.20000/Al.PBE.gz
    compensation charges: {type: gauss,
                           rc: 0.34,
                           lmax: 2}
    cutoffs: {filter: 1.91,
              core: 2.36}
    valence states:
      #              energy  rcut
      - 3s(2.00)    -7.753   1.085
      - 3p(1.00)    -2.712   1.085
      -  s          19.459   1.085
      -  p          24.499   1.085
      -  d           0.000   1.085

[...]

  Cr:
    name: Chromium
    id: 33f258bda2ca9f93018e70263a35547b
    Z: 24.0
    valence: 6
    core: 18
    charge: 0.0
    file: /home/c.zeng/usr/data/gpaw-setups-0.9.20000/Cr.PBE.gz
    compensation charges: {type: gauss,
                           rc: 0.35,
                           lmax: 2}
    cutoffs: {filter: 2.14,
              core: 3.04}
    valence states:
      #              energy  rcut
      - 4s(1.00)    -4.007   1.164
      - 4p(0.00)    -0.989   1.217
      - 3d(5.00)    -2.913   1.111
      -  s          23.205   1.164
      -  p          26.223   1.217
      -  d          24.299   1.111

[...]

  Co:
    name: Cobalt
    id: 339d20d5b0b93d2de9531a1bee871d91
    Z: 27.0
    valence: 9
    core: 18
    charge: 0.0
    file: /home/c.zeng/usr/data/gpaw-setups-0.9.20000/Co.PBE.gz
    compensation charges: {type: gauss,
                           rc: 0.32,
                           lmax: 2}
    cutoffs: {filter: 1.87,
              core: 2.55}
    valence states:
      #              energy  rcut
      - 4s(2.00)    -5.469   1.005
      - 4p(0.00)    -1.277   1.058
      - 3d(7.00)    -8.205   1.005
      -  s          21.742   1.005
      -  p          25.934   1.058
      -  d          19.007   1.005

[...]

  Fe:
    name: Iron
    id: 37abbd8d6c3c35915a9b583b742da910
    Z: 26.0
    valence: 8
    core: 18
    charge: 0.0
    file: /home/c.zeng/usr/data/gpaw-setups-0.9.20000/Fe.PBE.gz
    compensation charges: {type: gauss,
                           rc: 0.33,
                           lmax: 2}
    cutoffs: {filter: 2.06,
              core: 2.67}
    valence states:
      #              energy  rcut
      - 4s(2.00)    -5.291   1.164
      - 4p(0.00)    -1.326   1.058
      - 3d(6.00)    -7.505   1.058
      -  s          21.920   1.164
      -  p          25.885   1.058
      -  d          19.706   1.058

    # Using partial waves for Fe as LCAO basis

Reference energy: -3235165.067515  # eV

Spin-polarized calculation.
Magnetic moment: 121.100000

Convergence criteria:
 Maximum [total energy] change in last 3 cyles: 0.0001 eV / electron
 Maximum integral of absolute [dens]ity change: 0.0001 electrons / valence electron
 Maximum integral of absolute [eigenst]ate change: 4e-08 eV^2 / valence electron
 Maximum number of scf [iter]ations: 666
 (Square brackets indicate name in SCF output, whereas a 'c' in
 the SCF output indicates the quantity has converged.)

Symmetries present (total): 1

  ( 1  0  0)
  ( 0  1  0)
  ( 0  0  1)

8 k-points: 2 x 2 x 2 Monkhorst-Pack grid
4 k-points in the irreducible part of the Brillouin zone
       k-points in crystal coordinates                weights
   0:     0.25000000   -0.25000000   -0.25000000          2/8
   1:     0.25000000   -0.25000000    0.25000000          2/8
   2:     0.25000000    0.25000000   -0.25000000          2/8
   3:     0.25000000    0.25000000    0.25000000          2/8

Wave functions: Plane wave expansion
  Cutoff energy: 350.000 eV
  Number of coefficients (min, max): 19084, 19084
  Pulay-stress correction: 0.000000 eV/Ang^3 (de/decut=0.000000)
  Using FFTW library
  ScaLapack parameters: grid=1x1, blocksize=None
  Wavefunction extrapolation:
    Improved wavefunction reuse through dual PAW basis

Occupation numbers: Fermi-Dirac:
  width: 0.1000  # eV

Eigensolver
   Davidson(niter=2)

Densities:
  Coarse grid: 48*48*48 grid
  Fine grid: 96*96*96 grid
  Total Charge: 0.000000

Density mixing:
  Method: difference
  Backend: pulay
  Linear mixing parameter: 0.05
  old densities: 5
  Damping of long wavelength oscillations: 50

Hamiltonian:
  XC and Coulomb potentials evaluated on a 96*96*96 grid
  Using the PBE Exchange-Correlation functional
  External potential:
    NoExternalPotential

XC parameters: PBE with 2 nearest neighbor stencil

Total number of cores used: 30
Parallelization over k-points: 2
Domain decomposition: 5 x 3 x 1

Number of atoms: 108
Number of atomic orbitals: 933
Number of bands in calculation: 624
Number of valence electrons: 912
Bands to converge: occupied

... initialized

Initializing position-dependent things.

Density initialized from atomic densities
Creating initial wave functions:
  624 bands from LCAO basis set

        .--------Al----------------.
       /|           Fe             |
      / |    FeFe     Cr           |
     / Cr       Ni       Al        |
    /   |Fe      CrCo       Fe     |
   /    | NiCr      ACo            |
  /    Co  FeiAlAl    Co Fe  CoAl  |
 *      Fe     AlCoAl   NiFe     Ni|
 |      |FeCr   NiFeFe   AlNiCr   Co
 |      | CoNi   AlCoCoAl NiNiFe   |
 |     Fe  Al CoCo  CrNi Cr  CrCr  |
 |      Cr  Cr NiNiCo CoCrCoAl   Fe|
 |      |CrCo   CoAlAl   CoNiFe   Fe
 |      .-FeNi-----NiNi-Al--CrFe---.
 |     Al  Cr CoNi    Al Co  Ni Cr/
 |    / Co              Cr       Cr
 |   /           Alr      CrFe  /
 |  /      Ni       Fe     CrAl/
 | /                   Fe     /i
 *--------------------------Ni

Positions:
   0 Ni    10.797848    0.093654    0.085777    ( 0.0000,  0.0000,  0.0000)
   1 Al    10.831824    1.844742    1.870716    ( 0.0000,  0.0000,  2.0000)
   2 Cr     1.786803   10.847372    1.827335    ( 0.0000,  0.0000,  0.0000)
   3 Co     1.769614    1.870531   -0.031264    ( 0.0000,  0.0000,  0.0000)
   4 Al     3.620857   10.822050   10.833629    ( 0.0000,  0.0000,  1.5000)
   5 Ni     3.571246    1.883176    1.708402    ( 0.0000,  0.0000,  0.0000)
   6 Co     5.521103   10.788063    1.666217    ( 0.0000,  0.0000,  0.0000)
   7 Al     5.520831    1.813973   10.830911    ( 0.0000,  0.0000,  1.5000)
   8 Al     7.330846    0.011025   10.815657    ( 0.0000,  0.0000,  2.0000)
   9 Fe     7.282018    1.809483    1.793250    ( 0.0000,  0.0000,  2.1000)
  10 Fe     9.029996    0.022005    1.811918    ( 0.0000,  0.0000,  1.5000)
  11 Fe     9.007196    1.868639   10.825714    ( 0.0000,  0.0000,  2.0000)
  12 Ni    10.861310    3.649723    0.014171    ( 0.0000,  0.0000,  2.0000)
  13 Cr    10.867442    5.463468    1.819235    ( 0.0000,  0.0000,  2.1000)
  14 Co     1.756088    3.650267    1.845949    ( 0.0000,  0.0000,  0.0000)
  15 Fe     1.790358    5.439092   10.869084    ( 0.0000,  0.0000,  2.1000)
  16 Cr     3.687842    3.622792   -0.049287    ( 0.0000,  0.0000,  2.0000)
  17 Co     3.667347    5.391145    1.745368    ( 0.0000,  0.0000,  0.0000)
  18 Al     5.497977    3.634415    1.792370    ( 0.0000,  0.0000,  2.0000)
  19 Cr     5.524908    5.448029    0.002551    ( 0.0000,  0.0000,  2.0000)
  20 Co     7.223340    3.611877   10.834270    ( 0.0000,  0.0000,  0.0000)
  21 Al     7.217762    5.474830    1.807776    ( 0.0000,  0.0000,  2.1000)
  22 Cr     9.073442    3.654344    1.775148    ( 0.0000,  0.0000,  0.0000)
  23 Cr     9.008740    5.418608    0.007692    ( 0.0000,  0.0000,  2.0000)
  24 Cr    10.859190    7.178720    0.014480    ( 0.0000,  0.0000,  1.5000)
  25 Fe    -0.018106    8.970948    1.875391    ( 0.0000,  0.0000,  0.0000)
  26 Fe     1.817615    7.224025    1.802546    ( 0.0000,  0.0000,  1.5000)
  27 Cr     1.880729    8.993464   10.874031    ( 0.0000,  0.0000,  0.0000)
  28 Fe     3.684428    7.260447   -0.001356    ( 0.0000,  0.0000,  2.0000)
  29 Co     3.612616    9.025636    1.761807    ( 0.0000,  0.0000,  1.5000)
  30 Ni     5.481440    7.275114    1.811211    ( 0.0000,  0.0000,  1.5000)
  31 Fe     5.461261    9.048153   10.833988    ( 0.0000,  0.0000,  1.5000)
  32 Cr     7.245704    7.257881    0.056891    ( 0.0000,  0.0000,  2.1000)
  33 Co     7.301969    9.004609    1.790315    ( 0.0000,  0.0000,  0.0000)
  34 Cr     9.029343    7.181775    1.815549    ( 0.0000,  0.0000,  2.0000)
  35 Ni     9.030561    9.042010    0.020232    ( 0.0000,  0.0000,  1.5000)
  36 Fe    -0.031046    0.001947    3.645701    ( 0.0000,  0.0000,  2.0000)
  37 Fe    10.825910    1.804351    5.434602    ( 0.0000,  0.0000,  2.1000)
  38 Ni     1.743552   10.849296    5.484376    ( 0.0000,  0.0000,  0.0000)
  39 Al     1.769755    1.791891    3.636068    ( 0.0000,  0.0000,  1.5000)
  40 Al     3.516667   10.719828    3.663227    ( 0.0000,  0.0000,  0.0000)
  41 Co     3.644244    1.785205    5.586728    ( 0.0000,  0.0000,  0.0000)
  42 Al     5.484778   10.815439    5.504022    ( 0.0000,  0.0000,  0.0000)
  43 Ni     5.457934    1.842230    3.658769    ( 0.0000,  0.0000,  0.0000)
  44 Ni     7.360615   10.815439    3.672229    ( 0.0000,  0.0000,  0.0000)
  45 Al     7.266884    1.811614    5.485528    ( 0.0000,  0.0000,  2.1000)
  46 Al     9.077986    0.023590    5.491921    ( 0.0000,  0.0000,  0.0000)
  47 Co     9.066788    1.824226    3.671175    ( 0.0000,  0.0000,  1.5000)
  48 Fe    -0.047135    3.649615    3.617291    ( 0.0000,  0.0000,  2.0000)
  49 Cr    10.809264    5.435993    5.379805    ( 0.0000,  0.0000,  2.0000)
  50 Cr     1.752316    3.624989    5.344676    ( 0.0000,  0.0000,  0.0000)
  51 Cr     1.805786    5.472046    3.619389    ( 0.0000,  0.0000,  2.1000)
  52 Ni     3.649408    3.633491    3.631251    ( 0.0000,  0.0000,  2.1000)
  53 Co     3.657628    5.433797    5.434015    ( 0.0000,  0.0000,  1.5000)
  54 Ni     5.413368    3.672642    5.480309    ( 0.0000,  0.0000,  1.5000)
  55 Al     5.413835    5.465588    3.639666    ( 0.0000,  0.0000,  2.1000)
  56 Ni     7.223449    3.731734    3.720829    ( 0.0000,  0.0000,  0.0000)
  57 Ni     7.220557    5.483180    5.485572    ( 0.0000,  0.0000,  0.0000)
  58 Co     9.069039    3.623673    5.469720    ( 0.0000,  0.0000,  1.5000)
  59 Ni     9.064766    5.503837    3.636731    ( 0.0000,  0.0000,  0.0000)
[...]
  93 Co     7.214631    5.385893    9.048577    ( 0.0000,  0.0000,  2.1000)
  94 Fe     8.994291    3.655975    9.039237    ( 0.0000,  0.0000,  1.5000)
  95 Ni     9.006577    5.423262    7.223296    ( 0.0000,  0.0000,  2.0000)
  96 Ni    -0.070637    7.291956    7.110419    ( 0.0000,  0.0000,  0.0000)
  97 Cr     0.073012    9.104570    9.068375    ( 0.0000,  0.0000,  0.0000)
  98 Ni     1.863247    7.257381    9.054785    ( 0.0000,  0.0000,  2.0000)
  99 Fe     1.858343    9.053708    7.225808    ( 0.0000,  0.0000,  2.1000)
 100 Al     3.683906    7.292456    7.235550    ( 0.0000,  0.0000,  2.0000)
 101 Ni     3.628218    9.069550    9.051262    ( 0.0000,  0.0000,  2.1000)
 102 Co     5.530605    7.331890    9.040129    ( 0.0000,  0.0000,  0.0000)
 103 Al     5.476232    9.097209    7.250467    ( 0.0000,  0.0000,  2.0000)
 104 Ni     7.256827    7.264242    7.208456    ( 0.0000,  0.0000,  2.1000)
 105 Al     7.272548    9.136437    9.056861    ( 0.0000,  0.0000,  1.5000)
 106 Fe     8.936493    7.190875    9.109767    ( 0.0000,  0.0000,  0.0000)
 107 Co     8.994682    9.112169    7.218480    ( 0.0000,  0.0000,  0.0000)

Unit cell:
           periodic     x           y           z      points  spacing
  1. axis:    yes   10.872400    0.000000    0.000000    48     0.2265
  2. axis:    yes    0.000000   10.872400    0.000000    48     0.2265
  3. axis:    yes    0.000000    0.000000   10.872400    48     0.2265

  Lengths:  10.872400  10.872400  10.872400
  Angles:   90.000000  90.000000  90.000000

Effective grid spacing dv^(1/3) = 0.2265

     iter     time        total  log10-change:  magmom
                         energy  eigst   dens
iter:   1 08:38:24  -899.932284                  +120.1012
iter:   2 08:39:52  -853.870111  -0.32  -1.26    +84.7070
iter:   3 08:41:21  -837.332212  -0.75  -1.27    +50.7818
iter:   4 08:42:49  -813.578184  -1.21  -1.29    +45.2504
iter:   5 08:44:18  -806.131955  -1.83  -1.38    +41.5876
iter:   6 08:45:47  -809.511338  -1.78  -1.44    +40.2224
iter:   7 08:47:16  -811.290727  -1.52  -1.47    +39.5485
iter:   8 08:48:44  -802.999070  -1.74  -1.49    +39.4368
iter:   9 08:50:13  -806.329087  -1.79  -1.64    +40.2184
iter:  10 08:51:42  -802.006675  -1.98  -1.67    +40.3266
iter:  11 08:53:11  -802.476504  -2.39  -1.81    +41.4544
iter:  12 08:54:40  -802.336799  -2.52  -1.83    +42.8114
iter:  13 08:56:08  -802.680739  -2.68  -1.89    +44.2739
iter:  14 08:57:37  -803.658412  -2.57  -1.96    +45.3314
iter:  15 08:59:06  -803.002388  -2.78  -1.94    +46.5552
iter:  16 09:00:35  -803.258023  -2.88  -2.07    +47.6792
iter:  17 09:02:04  -803.541503  -2.96  -2.11    +48.8708
iter:  18 09:03:32  -803.436550  -3.13  -2.12    +49.5895
iter:  19 09:05:01  -803.641491  -3.01  -2.22    +50.8766
iter:  20 09:06:30  -803.719884  -3.24  -2.26    +51.6322
iter:  21 09:07:58  -803.821281  -3.17  -2.31    +52.5486
iter:  22 09:09:27  -803.982610  -3.30  -2.37    +53.3398
iter:  23 09:10:56  -804.075605  -3.37  -2.38    +53.9783
iter:  24 09:12:25  -804.153915  -3.33  -2.43    +54.5877
iter:  25 09:13:54  -804.283308  -3.49  -2.47    +55.0809
iter:  26 09:15:23  -804.335007  -3.54  -2.49    +55.4921
iter:  27 09:16:52  -804.400391  -3.75  -2.53    +55.6759
iter:  28 09:18:21  -804.447897  -3.77  -2.55    +55.8791
iter:  29 09:19:50  -804.497597  -3.82  -2.59    +55.8867
iter:  30 09:21:19  -804.521875c -4.00  -2.63    +55.9572
iter:  31 09:22:48  -804.547983c -4.09  -2.68    +55.8950
iter:  32 09:24:17  -804.575379c -4.28  -2.71    +55.9380
iter:  33 09:25:46  -804.609468c -4.21  -2.75    +55.9020
iter:  34 09:27:15  -804.631100c -4.32  -2.77    +55.9007
iter:  35 09:28:44  -804.649013c -4.35  -2.80    +55.8068
iter:  36 09:30:13  -804.672740c -4.35  -2.86    +55.7633
iter:  37 09:31:42  -804.697267c -4.34  -2.90    +55.6159
iter:  38 09:33:11  -804.713405c -4.39  -2.91    +55.6209
iter:  39 09:34:39  -804.726368c -4.51  -2.95    +55.5162
iter:  40 09:36:09  -804.741933c -4.49  -2.98    +55.4323
iter:  41 09:37:37  -804.742026c -4.70  -2.98    +55.3671
iter:  42 09:39:07  -804.751472c -4.66  -3.06    +55.3284
iter:  43 09:40:36  -804.753681c -4.65  -3.07    +55.2709
iter:  44 09:42:05  -804.754465c -4.94  -3.11    +55.2717
iter:  45 09:43:34  -804.756012c -5.16  -3.18    +55.2443
iter:  46 09:45:03  -804.762256c -5.20  -3.23    +55.2251
iter:  47 09:46:32  -804.764114c -5.18  -3.25    +55.1911
iter:  48 09:48:01  -804.765502c -5.34  -3.28    +55.1716
iter:  49 09:49:30  -804.768483c -5.30  -3.33    +55.1335
iter:  50 09:50:58  -804.769939c -5.57  -3.35    +55.1331
iter:  51 09:52:27  -804.771407c -5.31  -3.37    +55.1085
iter:  52 09:53:56  -804.774567c -5.39  -3.42    +55.0959
iter:  53 09:55:25  -804.775681c -5.51  -3.43    +55.0733
iter:  54 09:56:54  -804.777928c -5.58  -3.50    +55.0519
iter:  55 09:58:22  -804.780116c -5.62  -3.52    +55.0386
iter:  56 09:59:51  -804.782266c -5.66  -3.54    +55.0228
iter:  57 10:01:20  -804.783554c -5.55  -3.57    +54.9949
iter:  58 10:02:50  -804.785697c -5.79  -3.64    +54.9821
iter:  59 10:04:18  -804.787962c -5.68  -3.66    +54.9560
iter:  60 10:05:47  -804.789916c -5.77  -3.71    +54.9398
iter:  61 10:07:16  -804.792847c -5.66  -3.73    +54.9131
iter:  62 10:08:45  -804.797914c -5.25  -3.77    +54.8668
iter:  63 10:10:13  -804.804251c -4.96  -3.76    +54.7910
iter:  64 10:11:42  -804.814554c -4.47  -3.71    +54.6973
iter:  65 10:13:11  -804.815179c -5.34  -3.53    +54.7410
iter:  66 10:14:40  -804.816361c -5.64  -3.51    +54.7559
iter:  67 10:16:09  -804.819204c -5.49  -3.50    +54.7879
iter:  68 10:17:38  -804.816407c -5.87  -3.44    +54.7705
iter:  69 10:19:07  -804.819078c -5.13  -3.55    +54.7840
iter:  70 10:20:35  -804.816896c -5.30  -3.45    +54.7712
iter:  71 10:22:04  -804.819001c -5.21  -3.48    +54.7687
iter:  72 10:23:33  -804.816783c -5.73  -3.46    +54.7686
iter:  73 10:24:52  -804.816696c -5.68  -3.68    +54.7667
iter:  74 10:26:06  -804.816877c -6.03  -3.64    +54.7561
iter:  75 10:27:20  -804.817519c -5.93  -3.73    +54.7572
iter:  76 10:28:33  -804.817983c -6.03  -3.73    +54.7618
iter:  77 10:29:47  -804.817349c -6.06  -3.74    +54.7592
iter:  78 10:31:01  -804.817885c -6.47  -3.84    +54.7670
iter:  79 10:32:14  -804.817790c -6.39  -3.89    +54.7746
iter:  80 10:33:28  -804.818268c -6.38  -3.89    +54.7826
iter:  81 10:34:41  -804.818361c -6.43  -3.93    +54.7936
iter:  82 10:35:55  -804.819226c -6.15  -4.04c   +54.8062
iter:  83 10:37:08  -804.819056c -6.55  -4.04c   +54.8095
iter:  84 10:38:22  -804.819416c -6.61  -4.12c   +54.8164
iter:  85 10:39:36  -804.819809c -6.23  -4.16c   +54.8259
iter:  86 10:40:49  -804.820105c -6.43  -4.18c   +54.8369
iter:  87 10:42:03  -804.821081c -5.66  -4.22c   +54.8671
iter:  88 10:43:16  -804.822525c -5.27  -4.18c   +54.9201
iter:  89 10:44:30  -804.824031c -5.04  -4.00c   +54.9946
iter:  90 10:45:43  -804.826068c -4.53  -3.87    +55.1375
iter:  91 10:46:57  -804.826185c -5.67  -3.64    +55.1222
iter:  92 10:48:10  -804.826342c -5.91  -3.65    +55.1336
iter:  93 10:49:24  -804.826680c -6.27  -3.64    +55.1359
iter:  94 10:50:37  -804.827106c -6.50  -3.63    +55.1393
iter:  95 10:51:51  -804.823860c -5.51  -3.60    +55.1352
iter:  96 10:53:04  -804.823588c -5.79  -3.66    +55.1403
iter:  97 10:54:18  -804.824028c -6.13  -3.74    +55.1222
iter:  98 10:55:32  -804.823731c -5.97  -3.74    +55.1212
iter:  99 10:56:46  -804.823464c -5.99  -3.70    +55.0953
iter: 100 10:57:59  -804.823703c -6.24  -3.83    +55.0698
iter: 101 10:59:14  -804.823264c -6.27  -3.91    +55.0611
iter: 102 11:00:27  -804.823611c -6.69  -4.01c   +55.0530
iter: 103 11:01:41  -804.823347c -6.78  -4.03c   +55.0429
iter: 104 11:02:55  -804.823556c -6.77  -4.06c   +55.0331
iter: 105 11:04:09  -804.823459c -6.86  -4.09c   +55.0284
iter: 106 11:05:23  -804.823528c -6.70  -4.11c   +55.0183
iter: 107 11:06:37  -804.823414c -6.93  -4.17c   +55.0173
iter: 108 11:07:51  -804.823508c -6.91  -4.25c   +55.0122
iter: 109 11:09:05  -804.823606c -7.04  -4.33c   +55.0085
iter: 110 11:10:19  -804.823424c -7.17  -4.38c   +55.0035
iter: 111 11:11:33  -804.823487c -7.25  -4.41c   +55.0006
iter: 112 11:12:48  -804.823494c -7.18  -4.46c   +54.9946
iter: 113 11:14:02  -804.823507c -6.57  -4.46c   +54.9811
iter: 114 11:15:15  -804.823531c -5.82  -4.38c   +54.9483
iter: 115 11:16:29  -804.823611c -7.02  -4.19c   +54.9515
iter: 116 11:17:43  -804.823549c -7.09  -4.20c   +54.9468
iter: 117 11:18:57  -804.823561c -7.52c -4.22c   +54.9445

Converged after 117 iterations.

Dipole moment: (28.292115, 18.119510, 8.489681) |e|*Ang

Total magnetic moment: (0.000000, 0.000000, 54.944468)
Local magnetic moments:
   0 Ni ( 0.000000,  0.000000,  0.226509)
   1 Al ( 0.000000,  0.000000, -0.030172)
   2 Cr ( 0.000000,  0.000000,  1.661966)
   3 Co ( 0.000000,  0.000000,  0.995206)
   4 Al ( 0.000000,  0.000000, -0.022469)
   5 Ni ( 0.000000,  0.000000,  0.198013)
   6 Co ( 0.000000,  0.000000,  1.311243)
   7 Al ( 0.000000,  0.000000, -0.025343)
   8 Al ( 0.000000,  0.000000, -0.048979)
   9 Fe ( 0.000000,  0.000000,  2.296912)
  10 Fe ( 0.000000,  0.000000,  2.395526)
  11 Fe ( 0.000000,  0.000000,  2.175655)
  12 Ni ( 0.000000,  0.000000,  0.193213)
  13 Cr ( 0.000000,  0.000000, -1.135169)
  14 Co ( 0.000000,  0.000000,  0.953276)
  15 Fe ( 0.000000,  0.000000,  2.050274)
  16 Cr ( 0.000000,  0.000000,  1.509908)
  17 Co ( 0.000000,  0.000000,  0.760241)
  18 Al ( 0.000000,  0.000000, -0.012454)
  19 Cr ( 0.000000,  0.000000, -1.588023)
  20 Co ( 0.000000,  0.000000,  0.584337)
  21 Al ( 0.000000,  0.000000,  0.001653)
  22 Cr ( 0.000000,  0.000000, -1.863916)
  23 Cr ( 0.000000,  0.000000,  0.281494)
  24 Cr ( 0.000000,  0.000000,  0.442477)
  25 Fe ( 0.000000,  0.000000,  1.945651)
  26 Fe ( 0.000000,  0.000000,  2.001071)
  27 Cr ( 0.000000,  0.000000, -1.861503)
  28 Fe ( 0.000000,  0.000000,  2.190699)
  29 Co ( 0.000000,  0.000000,  0.861894)
  30 Ni ( 0.000000,  0.000000,  0.032068)
  31 Fe ( 0.000000,  0.000000,  2.039862)
  32 Cr ( 0.000000,  0.000000,  0.513462)
  33 Co ( 0.000000,  0.000000,  0.823918)
  34 Cr ( 0.000000,  0.000000, -0.841260)
  35 Ni ( 0.000000,  0.000000,  0.061111)
  36 Fe ( 0.000000,  0.000000,  2.054529)
  37 Fe ( 0.000000,  0.000000,  1.872010)
  38 Ni ( 0.000000,  0.000000,  0.278608)
  39 Al ( 0.000000,  0.000000, -0.030035)
  40 Al ( 0.000000,  0.000000, -0.012259)
  41 Co ( 0.000000,  0.000000,  1.162835)
  42 Al ( 0.000000,  0.000000, -0.004063)
  43 Ni ( 0.000000,  0.000000,  0.222455)
  44 Ni ( 0.000000,  0.000000, -0.001864)
  45 Al ( 0.000000,  0.000000, -0.020226)
  46 Al ( 0.000000,  0.000000, -0.021046)
  47 Co ( 0.000000,  0.000000,  1.128955)
  48 Fe ( 0.000000,  0.000000,  1.812474)
  49 Cr ( 0.000000,  0.000000, -1.656614)
  50 Cr ( 0.000000,  0.000000, -1.935002)
  51 Cr ( 0.000000,  0.000000,  1.261987)
  52 Ni ( 0.000000,  0.000000,  0.255807)
  53 Co ( 0.000000,  0.000000,  1.354449)
  54 Ni ( 0.000000,  0.000000,  0.369109)
  55 Al ( 0.000000,  0.000000, -0.021895)
  56 Ni ( 0.000000,  0.000000,  0.158794)
  57 Ni ( 0.000000,  0.000000,  0.343399)
  58 Co ( 0.000000,  0.000000,  1.033943)
  59 Ni ( 0.000000,  0.000000,  0.098455)
[...]
  93 Co ( 0.000000,  0.000000,  1.243599)
  94 Fe ( 0.000000,  0.000000,  2.123903)
  95 Ni ( 0.000000,  0.000000,  0.451995)
  96 Ni ( 0.000000,  0.000000,  0.281982)
  97 Cr ( 0.000000,  0.000000, -2.128866)
  98 Ni ( 0.000000,  0.000000,  0.195875)
  99 Fe ( 0.000000,  0.000000,  2.392671)
 100 Al ( 0.000000,  0.000000, -0.037949)
 101 Ni ( 0.000000,  0.000000,  0.100192)
 102 Co ( 0.000000,  0.000000,  0.781853)
 103 Al ( 0.000000,  0.000000, -0.003326)
 104 Ni ( 0.000000,  0.000000,  0.235831)
 105 Al ( 0.000000,  0.000000, -0.030278)
 106 Fe ( 0.000000,  0.000000,  2.257582)
 107 Co ( 0.000000,  0.000000,  0.725472)

Energy contributions relative to reference atoms: (reference = -3235165.067515)

Kinetic:       +255.124222
Potential:     -245.439865
External:        +0.000000
XC:            -843.953726
Entropy (-ST):   -3.997671
Local:          +31.444643
Free energy:   -806.822396
Extrapolated:  -804.823561

Spin contamination: 27.452998 electrons
Showing only first 2 kpts
                      Up                     Down
 Kpt  Band  Eigenvalues  Occupancy  Eigenvalues  Occupancy
  0   454      8.99917    0.99451      9.89244    0.02336
  0   455      9.01423    0.99362      9.89726    0.02228
  0   456      9.02766    0.99271      9.90152    0.02137
  0   457      9.04570    0.99129      9.91938    0.01794

  1   454      9.00196    0.99436      9.88176    0.02592
  1   455      9.01735    0.99342      9.90051    0.02158
  1   456      9.03844    0.99189      9.91617    0.01851
  1   457      9.04681    0.99119      9.93341    0.01563

Fermi level: 9.51911

No gap

Forces in eV/Ang:
  0 Ni    0.39200   -0.70184   -0.65274
  1 Al   -0.20445   -0.12475   -1.05324
  2 Cr   -0.24437   -0.19595   -1.10494
  3 Co    0.18348   -0.27796   -0.25624
  4 Al   -0.12621    0.35090    0.72455
  5 Ni    0.47343   -0.43787    0.57648
  6 Co   -0.05990    0.22198    0.78576
  7 Al   -0.30355    0.27171    0.12824
  8 Al   -0.47426   -0.18198    2.13269
  9 Fe    0.32177   -0.10037    1.07041
 10 Fe    0.10138   -0.58902    0.42518
 11 Fe    0.42288    0.47419    0.09056
 12 Ni    0.10903   -0.32254   -0.08492
 13 Cr    0.47644   -0.18175    0.15857
 14 Co    0.38371    0.20015   -0.25859
 15 Fe    0.27586   -0.15134    0.51750
 16 Cr   -0.88558   -0.34550    0.53618
 17 Co   -0.30002    0.37434    0.08270
 18 Al   -0.65833   -1.24372    1.00405
 19 Cr   -0.42492    0.37910   -0.90616
 20 Co    0.20325    0.31162   -0.08397
 21 Al    0.88113   -0.54357    0.38325
 22 Cr   -0.90593   -0.22816    0.35288
 23 Cr   -0.35626    0.03438   -0.17906
 24 Cr   -0.12396    0.82426    0.35553
 25 Fe   -0.50780    0.30375   -0.78463
 26 Fe    0.40486    0.05980   -0.06889
 27 Cr   -0.88825   -0.34486    0.49761
 28 Fe   -0.11157    0.05311    0.15902
 29 Co    0.34180   -0.25582    0.66152
 30 Ni   -0.59915   -0.05371    0.02382
 31 Fe    0.08361   -0.37508    0.47725
 32 Cr    0.03386    0.30141   -0.28065
 33 Co   -0.33966    0.14780    0.40281
 34 Cr    0.55639    0.86460   -0.45717
 35 Ni    0.51079    0.16083   -0.31507
 36 Fe   -0.23820   -0.25965   -0.09715
 37 Fe    0.05619    0.65300   -0.12248
 38 Ni    0.70484    0.11107   -0.28394
 39 Al    1.09245    0.38446    0.31952
 40 Al    1.62157    1.40524   -0.23074
 41 Co    0.03457    0.30120   -0.45352
 42 Al   -0.71157    1.82008   -1.04857
 43 Ni   -0.08785   -0.58781   -0.02264
 44 Ni   -0.83493    0.17766   -0.17256
 45 Al   -0.72510    1.22081   -1.17772
 46 Al   -0.24322   -0.58859   -1.09193
 47 Co   -0.25567    0.40396   -0.27200
 48 Fe   -0.44383    0.24890    0.37279
 49 Cr   -0.17456    0.14675    0.29896
 50 Cr    0.83010    0.43599    1.11109
 51 Cr    0.52911   -0.37228    0.39627
 52 Ni   -0.22252   -0.09407   -0.03749
 53 Co   -0.56285    0.20298    0.27435
 54 Ni   -0.11547   -0.49478   -0.00731
 55 Al   -1.14802    0.14920    1.10676
 56 Ni    0.20130   -0.26011   -0.69736
 57 Ni    0.16798   -0.25564   -0.12247
 58 Co    0.05123    0.19194   -0.13003
 59 Ni   -0.09718   -0.60746   -0.03224
[...]
 93 Co   -0.09116    0.23331    0.01811
 94 Fe   -0.28463   -0.10356    0.03079
 95 Ni    0.27026    0.08302    0.11254
 96 Ni    0.13908    0.00208    0.79150
 97 Cr   -0.36523   -1.16677    0.02695
 98 Ni   -0.39291   -0.10250   -0.17421
 99 Fe   -0.80335   -0.12149    0.04687
100 Al   -0.66341   -0.51970   -0.11970
101 Ni    0.21815   -0.48130    0.23382
102 Co   -0.25895   -0.57676    0.26938
103 Al   -0.12978   -1.24277    0.73969
104 Ni    0.01592   -0.24379    0.49287
105 Al    0.37172   -2.19231   -0.58931
106 Fe    0.50946    0.24758   -0.49595
107 Co    1.09035   -0.67307    0.36601

Date: Sat Apr 15 11:19:16 2023